<?xml version="1.0"?>
<VTKFile type="UnstructuredGrid" version="0.1" byte_order="LittleEndian">
<UnstructuredGrid>
<Piece NumberOfPoints="3142" NumberOfCells="1054">
<Points>
<DataArray type="Float64" NumberOfComponents="3" format="ascii">
0.02576622439977887 0.024532886826226379 0 0 0 0 0.049999999999899652 0 0 0.02576622439977887 0.024532886826226379 0 0 0 0 0 0.050000000000207989 0 0.02576622439977887 0.024532886826226379 0 0.049999999999899652 0 0 0.053064897599215843 0.048131547304697528 0 0.02576622439977887 0.024532886826226379 0 0.053064897599215843 0.048131547304697528 0 0 0.050000000000207989 0 0 0.050000000000207989 0 0 0.10000000000041601 0 0.044310582753132287 0.101412518374475 0 0 0.10000000000041601 0 0.044310582753132287 0.101412518374475 0 0 0.15000000000062411 0 0.053064897599215843 0.048131547304697528 0 0.044310582753132287 0.101412518374475 0 0.083411279318303222 0.089699755330707398 0 0.053064897599215843 0.048131547304697528 0 0 0.050000000000207989 0 0.044310582753132287 0.101412518374475 0 0.044310582753132287 0.101412518374475 0 0.083411279318303222 0.089699755330707398 0 0.065374659239632718 0.1448908038746782 0 0.083411279318303222 0.089699755330707398 0 0.065374659239632718 0.1448908038746782 0 0.1053400320299198 0.12877248826361379 0 0.083411279318303222 0.089699755330707398 0 0.12372429750337779 0.095814237875728972 0 0.1053400320299198 0.12877248826361379 0 0.12372429750337779 0.095814237875728972 0 0.1053400320299198 0.12877248826361379 0 0.14332333627550789 0.14578431753966009 0 0.12372429750337779 0.095814237875728972 0 0.10266856499169109 0.044518360900210059 0 0.14618258501891079 0.062070108745602003 0 0.083411279318303222 0.089699755330707398 0 0.12372429750337779 0.095814237875728972 0 0.10266856499169109 0.044518360900210059 0 0.10266856499169109 0.044518360900210059 0 0.099999999999814668 0 0 0.14999999999970359 0 0 0.049999999999899652 0 0 0.053064897599215843 0.048131547304697528 0 0.099999999999814668 0 0 0.053064897599215843 0.048131547304697528 0 0.10266856499169109 0.044518360900210059 0 0.099999999999814668 0 0 0.053064897599215843 0.048131547304697528 0 0.083411279318303222 0.089699755330707398 0 0.10266856499169109 0.044518360900210059 0 0.044081577119474857 0.2271058242433576 0 0 0.20000000000083221 0 0 0.25000000000104028 0 0.044081577119474857 0.2271058242433576 0 0 0.20000000000083221 0 0.038512288486115001 0.1844147282893184 0 0.044081577119474857 0.2271058242433576 0 0.038512288486115001 0.1844147282893184 0 0.083105206071467416 0.20007701332709979 0 0.038512288486115001 0.1844147282893184 0 0 0.15000000000062411 0 0.065374659239632718 0.1448908038746782 0 0.044310582753132287 0.101412518374475 0 0 0.15000000000062411 0 0.065374659239632718 0.1448908038746782 0 0.038512288486115001 0.1844147282893184 0 0.065374659239632718 0.1448908038746782 0 0.083105206071467416 0.20007701332709979 0 0 0.20000000000083221 0 0.038512288486115001 0.1844147282893184 0 0 0.15000000000062411 0 0.065374659239632718 0.1448908038746782 0 0.1053400320299198 0.12877248826361379 0 0.106902708054812 0.16453234188234539 0 0.1053400320299198 0.12877248826361379 0 0.106902708054812 0.16453234188234539 0 0.14332333627550789 0.14578431753966009 0 0.065374659239632718 0.1448908038746782 0 0.106902708054812 0.16453234188234539 0 0.083105206071467416 0.20007701332709979 0 0.083105206071467416 0.20007701332709979 0 0.095326043202144745 0.24554465089224409 0 0.13737030665753211 0.20313708640667491 0 0.106902708054812 0.16453234188234539 0 0.083105206071467416 0.20007701332709979 0 0.13737030665753211 0.20313708640667491 0 0.044081577119474857 0.2271058242433576 0 0.083105206071467416 0.20007701332709979 0 0.095326043202144745 0.24554465089224409 0 0.044081577119474857 0.2271058242433576 0 0.095326043202144745 0.24554465089224409 0 0.049706944316556423 0.27522722923869108 0 0.095326043202144745 0.24554465089224409 0 0.14377654328998779 0.2442024734791064 0 0.13737030665753211 0.20313708640667491 0 0.17933913398461551 0.2350063570234002 0 0.14377654328998779 0.2442024734791064 0 0.13737030665753211 0.20313708640667491 0 0.17933913398461551 0.2350063570234002 0 0.13737030665753211 0.20313708640667491 0 0.18124454140915969 0.18790916706335251 0 0.18124454140915969 0.18790916706335251 0 0.14332333627550789 0.14578431753966009 0 0.18652628422869419 0.14162325200928061 0 0.106902708054812 0.16453234188234539 0 0.13737030665753211 0.20313708640667491 0 0.14332333627550789 0.14578431753966009 0 0.13737030665753211 0.20313708640667491 0 0.18124454140915969 0.18790916706335251 0 0.14332333627550789 0.14578431753966009 0 0.14332333627550789 0.14578431753966009 0 0.18652628422869419 0.14162325200928061 0 0.16141998738593399 0.10404039647458049 0 0.18652628422869419 0.14162325200928061 0 0.22985637510995899 0.1298347970200906 0 0.2185883431182947 0.18019736283949719 0 0.22985637510995899 0.1298347970200906 0 0.2185883431182947 0.18019736283949719 0 0.25557216766470708 0.15874861286892261 0 0.2185883431182947 0.18019736283949719 0 0.25557216766470708 0.15874861286892261 0 0.26429849586623999 0.19346700179430079 0 0.18124454140915969 0.18790916706335251 0 0.18652628422869419 0.14162325200928061 0 0.2185883431182947 0.18019736283949719 0 0.17933913398461551 0.2350063570234002 0 0.18124454140915969 0.18790916706335251 0 0.224700362040408 0.22206622194729711 0 0.18124454140915969 0.18790916706335251 0 0.2185883431182947 0.18019736283949719 0 0.224700362040408 0.22206622194729711 0 0.2185883431182947 0.18019736283949719 0 0.224700362040408 0.22206622194729711 0 0.26429849586623999 0.19346700179430079 0 0.224700362040408 0.22206622194729711 0 0.25195515620380449 0.25883339815888678 0 0.21049769590865089 0.26857363548218488 0 0.17933913398461551 0.2350063570234002 0 0.224700362040408 0.22206622194729711 0 0.21049769590865089 0.26857363548218488 0 0.184418230509967 0.038773194583122873 0 0.14999999999970359 0 0 0.14618258501891079 0.062070108745602003 0 0.184418230509967 0.038773194583122873 0 0.14618258501891079 0.062070108745602003 0 0.19922788606653311 0.085920220746880993 0 0.184418230509967 0.038773194583122873 0 0.14999999999970359 0 0 0.19999999999955789 0 0 0.10266856499169109 0.044518360900210059 0 0.14999999999970359 0 0 0.14618258501891079 0.062070108745602003 0 0.12372429750337779 0.095814237875728972 0 0.14618258501891079 0.062070108745602003 0 0.16141998738593399 0.10404039647458049 0 0.12372429750337779 0.095814237875728972 0 0.14332333627550789 0.14578431753966009 0 0.16141998738593399 0.10404039647458049 0 0.18652628422869419 0.14162325200928061 0 0.16141998738593399 0.10404039647458049 0 0.19922788606653311 0.085920220746880993 0 0.14618258501891079 0.062070108745602003 0 0.16141998738593399 0.10404039647458049 0 0.19922788606653311 0.085920220746880993 0 0.18652628422869419 0.14162325200928061 0 0.22985637510995899 0.1298347970200906 0 0.19922788606653311 0.085920220746880993 0 0.22985637510995899 0.1298347970200906 0 0.19922788606653311 0.085920220746880993 0 0.24218496799700481 0.089025544070598317 0 0.22985637510995899 0.1298347970200906 0 0.24218496799700481 0.089025544070598317 0 0.27474541102162192 0.11822029332053539 0 0.19922788606653311 0.085920220746880993 0 0.24218496799700481 0.089025544070598317 0 0.22668068146512929 0.045875643423131329 0 0.24218496799700481 0.089025544070598317 0 0.22668068146512929 0.045875643423131329 0 0.27499999999933927 0.060310814194988557 0 0.184418230509967 0.038773194583122873 0 0.19922788606653311 0.085920220746880993 0 0.22668068146512929 0.045875643423131329 0 0.184418230509967 0.038773194583122873 0 0.22668068146512929 0.045875643423131329 0 0.19999999999955789 0 0 0.22668068146512929 0.045875643423131329 0 0.19999999999955789 0 0 0.24999999999941211 0 0 0.24999999999941211 0 0 0.27499999999933927 0.060310814194988557 0 0.29999999999926641 0 0 0.22668068146512929 0.045875643423131329 0 0.24999999999941211 0 0 0.27499999999933927 0.060310814194988557 0 0.27499999999933927 0.060310814194988557 0 0.29999999999926641 0 0 0.32541448401678508 0.046215317981507749 0 0.29999999999926641 0 0 0.32541448401678508 0.046215317981507749 0 0.34999999999912063 0 0 0.32541448401678508 0.046215317981507749 0 0.3615861437013822 0.03582617922508851 0 0.35312867752657662 0.084946736076730367 0 0.3615861437013822 0.03582617922508851 0 0.35312867752657662 0.084946736076730367 0 0.39591832466117061 0.056982757562006353 0 0.32541448401678508 0.046215317981507749 0 0.3615861437013822 0.03582617922508851 0 0.34999999999912063 0 0 0.3615861437013822 0.03582617922508851 0 0.34999999999912063 0 0 0.3999999999989749 0 0 0.35312867752657662 0.084946736076730367 0 0.36246644853392812 0.1399454205365751 0 0.39823268594401579 0.1116623613130045 0 0.35312867752657662 0.084946736076730367 0 0.32215584939770009 0.1218492143506909 0 0.36246644853392812 0.1399454205365751 0 0.32541448401678508 0.046215317981507749 0 0.35312867752657662 0.084946736076730367 0 0.3096713403101819 0.085471541595262421 0 0.35312867752657662 0.084946736076730367 0 0.32215584939770009 0.1218492143506909 0 0.3096713403101819 0.085471541595262421 0 0.32215584939770009 0.1218492143506909 0 0.3096713403101819 0.085471541595262421 0 0.27474541102162192 0.11822029332053539 0 0.27499999999933927 0.060310814194988557 0 0.32541448401678508 0.046215317981507749 0 0.3096713403101819 0.085471541595262421 0 0.27499999999933927 0.060310814194988557 0 0.3096713403101819 0.085471541595262421 0 0.27474541102162192 0.11822029332053539 0 0.24218496799700481 0.089025544070598317 0 0.27499999999933927 0.060310814194988557 0 0.27474541102162192 0.11822029332053539 0 0.22985637510995899 0.1298347970200906 0 0.27474541102162192 0.11822029332053539 0 0.25557216766470708 0.15874861286892261 0 0.27474541102162192 0.11822029332053539 0 0.25557216766470708 0.15874861286892261 0 0.29336099386129338 0.15892013001050981 0 0.25557216766470708 0.15874861286892261 0 0.29336099386129338 0.15892013001050981 0 0.26429849586623999 0.19346700179430079 0 0.29336099386129338 0.15892013001050981 0 0.31255190597181792 0.19850845631528771 0 0.33084213324567391 0.16272720141332131 0 0.29336099386129338 0.15892013001050981 0 0.26429849586623999 0.19346700179430079 0 0.31255190597181792 0.19850845631528771 0 0.32215584939770009 0.1218492143506909 0 0.27474541102162192 0.11822029332053539 0 0.29336099386129338 0.15892013001050981 0 0.224700362040408 0.22206622194729711 0 0.28040350263641872 0.23054717217092141 0 0.25195515620380449 0.25883339815888678 0 0.224700362040408 0.22206622194729711 0 0.28040350263641872 0.23054717217092141 0 0.26429849586623999 0.19346700179430079 0 0.28040350263641872 0.23054717217092141 0 0.26429849586623999 0.19346700179430079 0 0.31255190597181792 0.19850845631528771 0 0.28040350263641872 0.23054717217092141 0 0.33758650185219202 0.23837101504325639 0 0.29132859388405002 0.27203693976649962 0 0.28040350263641872 0.23054717217092141 0 0.33758650185219202 0.23837101504325639 0 0.31255190597181792 0.19850845631528771 0 0.33758650185219202 0.23837101504325639 0 0.31255190597181792 0.19850845631528771 0 0.3572130504031617 0.1874703368446563 0 0.33758650185219202 0.23837101504325639 0 0.3572130504031617 0.1874703368446563 0 0.38831533174504851 0.2189834941785925 0 0.33758650185219202 0.23837101504325639 0 0.38831533174504851 0.2189834941785925 0 0.3786248352540974 0.27082301512024259 0 0.32215584939770009 0.1218492143506909 0 0.29336099386129338 0.15892013001050981 0 0.33084213324567391 0.16272720141332131 0 0.32215584939770009 0.1218492143506909 0 0.33084213324567391 0.16272720141332131 0 0.36246644853392812 0.1399454205365751 0 0.31255190597181792 0.19850845631528771 0 0.33084213324567391 0.16272720141332131 0 0.3572130504031617 0.1874703368446563 0 0.3572130504031617 0.1874703368446563 0 0.36246644853392812 0.1399454205365751 0 0.39801143831225599 0.16651381068160659 0 0.33084213324567391 0.16272720141332131 0 0.3572130504031617 0.1874703368446563 0 0.36246644853392812 0.1399454205365751 0 0.36246644853392812 0.1399454205365751 0 0.39801143831225599 0.16651381068160659 0 0.39823268594401579 0.1116623613130045 0 0.39801143831225599 0.16651381068160659 0 0.42905200079338551 0.19982395548231649 0 0.44288491854585582 0.14116182884956319 0 0.39801143831225599 0.16651381068160659 0 0.44288491854585582 0.14116182884956319 0 0.39823268594401579 0.1116623613130045 0 0.38831533174504851 0.2189834941785925 0 0.42377727103934271 0.25099357235810238 0 0.3786248352540974 0.27082301512024259 0 0.3572130504031617 0.1874703368446563 0 0.39801143831225599 0.16651381068160659 0 0.38831533174504851 0.2189834941785925 0 0.39801143831225599 0.16651381068160659 0 0.38831533174504851 0.2189834941785925 0 0.42905200079338551 0.19982395548231649 0 0.38831533174504851 0.2189834941785925 0 0.42905200079338551 0.19982395548231649 0 0.42377727103934271 0.25099357235810238 0 0.42905200079338551 0.19982395548231649 0 0.46429753744194407 0.22870891180733599 0 0.42377727103934271 0.25099357235810238 0 0.42905200079338551 0.19982395548231649 0 0.46429753744194407 0.22870891180733599 0 0.47357141910802508 0.1873585799078378 0 0.47357141910802508 0.1873585799078378 0 0.51729576145820033 0.1683240575987815 0 0.50760557329222289 0.20700468884612061 0 0.46429753744194407 0.22870891180733599 0 0.47357141910802508 0.1873585799078378 0 0.50760557329222289 0.20700468884612061 0 0.46429753744194407 0.22870891180733599 0 0.49695729691142171 0.25014895411178018 0 0.50760557329222289 0.20700468884612061 0 0.44288491854585582 0.14116182884956319 0 0.47357141910802508 0.1873585799078378 0 0.48466639505193998 0.1421439844745814 0 0.42905200079338551 0.19982395548231649 0 0.44288491854585582 0.14116182884956319 0 0.47357141910802508 0.1873585799078378 0 0.47357141910802508 0.1873585799078378 0 0.48466639505193998 0.1421439844745814 0 0.51729576145820033 0.1683240575987815 0 0.44288491854585582 0.14116182884956319 0 0.48466639505193998 0.1421439844745814 0 0.47881186583059909 0.093591717165689425 0 0.48466639505193998 0.1421439844745814 0 0.47881186583059909 0.093591717165689425 0 0.51076801031701946 0.1202837388510348 0 0.44288491854585582 0.14116182884956319 0 0.47881186583059909 0.093591717165689425 0 0.43698630808430822 0.080423614171545449 0 0.47881186583059909 0.093591717165689425 0 0.47040171442036788 0.044141676406503738 0 0.43698630808430822 0.080423614171545449 0 0.47881186583059909 0.093591717165689425 0 0.47040171442036788 0.044141676406503738 0 0.52375890611712683 0.059318771819432882 0 0.47040171442036788 0.044141676406503738 0 0.49999999999869432 0 0 0.52375890611712683 0.059318771819432882 0 0.47040171442036788 0.044141676406503738 0 0.49999999999869432 0 0 0.44999999999882923 0 0 0.47040171442036788 0.044141676406503738 0 0.44999999999882923 0 0 0.4320097814748517 0.037406712692169303 0 0.47040171442036788 0.044141676406503738 0 0.4320097814748517 0.037406712692169303 0 0.43698630808430822 0.080423614171545449 0 0.4320097814748517 0.037406712692169303 0 0.3999999999989749 0 0 0.39591832466117061 0.056982757562006353 0 0.4320097814748517 0.037406712692169303 0 0.39591832466117061 0.056982757562006353 0 0.43698630808430822 0.080423614171545449 0 0.44999999999882923 0 0 0.4320097814748517 0.037406712692169303 0 0.3999999999989749 0 0 0.3615861437013822 0.03582617922508851 0 0.3999999999989749 0 0 0.39591832466117061 0.056982757562006353 0 0.35312867752657662 0.084946736076730367 0 0.39591832466117061 0.056982757562006353 0 0.39823268594401579 0.1116623613130045 0 0.44288491854585582 0.14116182884956319 0 0.39823268594401579 0.1116623613130045 0 0.43698630808430822 0.080423614171545449 0 0.39591832466117061 0.056982757562006353 0 0.39823268594401579 0.1116623613130045 0 0.43698630808430822 0.080423614171545449 0 0.42161023666869668 0.39493916313643851 0 0.38707855792647411 0.42299362914874578 0 0.43249999999999988 0.43937499999999979 0 0.42161023666869668 0.39493916313643851 0 0.38083244760691543 0.38531983672244652 0 0.38707855792647411 0.42299362914874578 0 0.42161023666869668 0.39493916313643851 0 0.38083244760691543 0.38531983672244652 0 0.40076539126862748 0.34589349467022118 0 0.38707855792647411 0.42299362914874578 0 0.3908716102680424 0.47010282357248828 0 0.43249999999999988 0.43937499999999979 0 0.3908716102680424 0.47010282357248828 0 0.43507373378304309 0.49699695397193322 0 0.38244435121258652 0.51653317813019495 0 0.3908716102680424 0.47010282357248828 0 0.43507373378304309 0.49699695397193322 0 0.43249999999999988 0.43937499999999979 0 0.43507373378304309 0.49699695397193322 0 0.43249999999999988 0.43937499999999979 0 0.46111841286828259 0.46690301029591341 0 0.43249999999999988 0.43937499999999979 0 0.46111841286828259 0.46690301029591341 0 0.48858720058566618 0.43964267759203868 0 0.43507373378304309 0.49699695397193322 0 0.46111841286828259 0.46690301029591341 0 0.49102375406324739 0.49123754822244059 0 0.46111841286828259 0.46690301029591341 0 0.49102375406324739 0.49123754822244059 0 0.48858720058566618 0.43964267759203868 0 0.48858720058566618 0.43964267759203868 0 0.46655310992796922 0.39650496622958609 0 0.52289427570932567 0.3932284363388488 0 0.43249999999999988 0.43937499999999979 0 0.48858720058566618 0.43964267759203868 0 0.46655310992796922 0.39650496622958609 0 0.42161023666869668 0.39493916313643851 0 0.43249999999999988 0.43937499999999979 0 0.46655310992796922 0.39650496622958609 0 0.42161023666869668 0.39493916313643851 0 0.46655310992796922 0.39650496622958609 0 0.4409427642593301 0.35743108089689513 0 0.46655310992796922 0.39650496622958609 0 0.49077833859261139 0.35229981449445641 0 0.52289427570932567 0.3932284363388488 0 0.49077833859261139 0.35229981449445641 0 0.46226845272279993 0.31901800744800313 0 0.5 0.29999999999999999 0 0.49077833859261139 0.35229981449445641 0 0.46226845272279993 0.31901800744800313 0 0.4409427642593301 0.35743108089689513 0 0.46226845272279993 0.31901800744800313 0 0.4409427642593301 0.35743108089689513 0 0.41914690343363781 0.30688979866601612 0 0.46655310992796922 0.39650496622958609 0 0.49077833859261139 0.35229981449445641 0 0.4409427642593301 0.35743108089689513 0 0.49695729691142171 0.25014895411178018 0 0.4604742573284204 0.27846934318264788 0 0.5 0.29999999999999999 0 0.46429753744194407 0.22870891180733599 0 0.49695729691142171 0.25014895411178018 0 0.4604742573284204 0.27846934318264788 0 0.46226845272279993 0.31901800744800313 0 0.4604742573284204 0.27846934318264788 0 0.5 0.29999999999999999 0 0.46226845272279993 0.31901800744800313 0 0.4604742573284204 0.27846934318264788 0 0.41914690343363781 0.30688979866601612 0 0.46429753744194407 0.22870891180733599 0 0.4604742573284204 0.27846934318264788 0 0.42377727103934271 0.25099357235810238 0 0.4604742573284204 0.27846934318264788 0 0.42377727103934271 0.25099357235810238 0 0.41914690343363781 0.30688979866601612 0 0.42377727103934271 0.25099357235810238 0 0.41914690343363781 0.30688979866601612 0 0.3786248352540974 0.27082301512024259 0 0.41914690343363781 0.30688979866601612 0 0.3786248352540974 0.27082301512024259 0 0.36575549820117997 0.31677992835137742 0 0.42161023666869668 0.39493916313643851 0 0.4409427642593301 0.35743108089689513 0 0.40076539126862748 0.34589349467022118 0 0.4409427642593301 0.35743108089689513 0 0.41914690343363781 0.30688979866601612 0 0.40076539126862748 0.34589349467022118 0 0.41914690343363781 0.30688979866601612 0 0.40076539126862748 0.34589349467022118 0 0.36575549820117997 0.31677992835137742 0 0.40076539126862748 0.34589349467022118 0 0.36575549820117997 0.31677992835137742 0 0.33277555741076909 0.36432196682010132 0 0.38083244760691543 0.38531983672244652 0 0.40076539126862748 0.34589349467022118 0 0.33277555741076909 0.36432196682010132 0 0.36575549820117997 0.31677992835137742 0 0.32752639306529541 0.32610012995269699 0 0.33277555741076909 0.36432196682010132 0 0.32752639306529541 0.32610012995269699 0 0.33277555741076909 0.36432196682010132 0 0.29644548887253103 0.34914008784168082 0 0.33758650185219202 0.23837101504325639 0 0.3786248352540974 0.27082301512024259 0 0.33402499257867951 0.28911035184473982 0 0.3786248352540974 0.27082301512024259 0 0.36575549820117997 0.31677992835137742 0 0.33402499257867951 0.28911035184473982 0 0.36575549820117997 0.31677992835137742 0 0.32752639306529541 0.32610012995269699 0 0.33402499257867951 0.28911035184473982 0 0.32752639306529541 0.32610012995269699 0 0.33402499257867951 0.28911035184473982 0 0.29348325746214782 0.31350119524708198 0 0.33758650185219202 0.23837101504325639 0 0.33402499257867951 0.28911035184473982 0 0.29132859388405002 0.27203693976649962 0 0.33402499257867951 0.28911035184473982 0 0.29132859388405002 0.27203693976649962 0 0.29348325746214782 0.31350119524708198 0 0.29132859388405002 0.27203693976649962 0 0.29348325746214782 0.31350119524708198 0 0.24432083401701241 0.3006253385567515 0 0.29132859388405002 0.27203693976649962 0 0.25195515620380449 0.25883339815888678 0 0.24432083401701241 0.3006253385567515 0 0.28040350263641872 0.23054717217092141 0 0.29132859388405002 0.27203693976649962 0 0.25195515620380449 0.25883339815888678 0 0.33277555741076909 0.36432196682010132 0 0.29644548887253103 0.34914008784168082 0 0.27866744612395528 0.38416094670951489 0 0.32752639306529541 0.32610012995269699 0 0.29644548887253103 0.34914008784168082 0 0.29348325746214782 0.31350119524708198 0 0.29644548887253103 0.34914008784168082 0 0.29348325746214782 0.31350119524708198 0 0.25966125648670141 0.34351016742083729 0 0.29348325746214782 0.31350119524708198 0 0.25966125648670141 0.34351016742083729 0 0.24432083401701241 0.3006253385567515 0 0.29644548887253103 0.34914008784168082 0 0.25966125648670141 0.34351016742083729 0 0.27866744612395528 0.38416094670951489 0 0.25966125648670141 0.34351016742083729 0 0.27866744612395528 0.38416094670951489 0 0.22033343844674469 0.36963382230740238 0 0.27866744612395528 0.38416094670951489 0 0.29124338931648802 0.43334555462578611 0 0.24049127783545701 0.41270748208749802 0 0.29124338931648802 0.43334555462578611 0 0.25982634974572738 0.46097799597715272 0 0.24049127783545701 0.41270748208749802 0 0.27866744612395528 0.38416094670951489 0 0.29124338931648802 0.43334555462578611 0 0.31778888742534622 0.40581751814196781 0 0.33277555741076909 0.36432196682010132 0 0.27866744612395528 0.38416094670951489 0 0.31778888742534622 0.40581751814196781 0 0.33277555741076909 0.36432196682010132 0 0.31778888742534622 0.40581751814196781 0 0.35221190152536241 0.40457127605439203 0 0.31778888742534622 0.40581751814196781 0 0.35221190152536241 0.40457127605439203 0 0.34258405725730701 0.4444034294386992 0 0.29124338931648802 0.43334555462578611 0 0.31778888742534622 0.40581751814196781 0 0.34258405725730701 0.4444034294386992 0 0.38707855792647411 0.42299362914874578 0 0.35221190152536241 0.40457127605439203 0 0.34258405725730701 0.4444034294386992 0 0.38083244760691543 0.38531983672244652 0 0.38707855792647411 0.42299362914874578 0 0.35221190152536241 0.40457127605439203 0 0.38083244760691543 0.38531983672244652 0 0.33277555741076909 0.36432196682010132 0 0.35221190152536241 0.40457127605439203 0 0.3908716102680424 0.47010282357248828 0 0.35024835142131061 0.48654922671676981 0 0.38244435121258652 0.51653317813019495 0 0.3908716102680424 0.47010282357248828 0 0.35024835142131061 0.48654922671676981 0 0.34258405725730701 0.4444034294386992 0 0.38707855792647411 0.42299362914874578 0 0.3908716102680424 0.47010282357248828 0 0.34258405725730701 0.4444034294386992 0 0.29124338931648802 0.43334555462578611 0 0.34258405725730701 0.4444034294386992 0 0.31068898841644388 0.47541502461811092 0 0.35024835142131061 0.48654922671676981 0 0.31068898841644388 0.47541502461811092 0 0.33190227185843768 0.52715113583864037 0 0.35024835142131061 0.48654922671676981 0 0.34258405725730701 0.4444034294386992 0 0.31068898841644388 0.47541502461811092 0 0.31068898841644388 0.47541502461811092 0 0.25982634974572738 0.46097799597715272 0 0.28307294598219601 0.50789252727458634 0 0.29124338931648802 0.43334555462578611 0 0.31068898841644388 0.47541502461811092 0 0.25982634974572738 0.46097799597715272 0 0.25982634974572738 0.46097799597715272 0 0.23975172658309729 0.49475499200540818 0 0.28307294598219601 0.50789252727458634 0 0.23975172658309729 0.49475499200540818 0 0.19604738184454831 0.47787523520405789 0 0.22278230690790279 0.44824268025881547 0 0.19604738184454831 0.47787523520405789 0 0.22278230690790279 0.44824268025881547 0 0.191953871957803 0.42546416763755879 0 0.25982634974572738 0.46097799597715272 0 0.22278230690790279 0.44824268025881547 0 0.24049127783545701 0.41270748208749802 0 0.25982634974572738 0.46097799597715272 0 0.23975172658309729 0.49475499200540818 0 0.22278230690790279 0.44824268025881547 0 0.27866744612395528 0.38416094670951489 0 0.24049127783545701 0.41270748208749802 0 0.22033343844674469 0.36963382230740238 0 0.191953871957803 0.42546416763755879 0 0.1650278706801647 0.38791388161335733 0 0.22033343844674469 0.36963382230740238 0 0.24049127783545701 0.41270748208749802 0 0.191953871957803 0.42546416763755879 0 0.22033343844674469 0.36963382230740238 0 0.22278230690790279 0.44824268025881547 0 0.24049127783545701 0.41270748208749802 0 0.191953871957803 0.42546416763755879 0 0.191953871957803 0.42546416763755879 0 0.13773355295499351 0.42497777642586831 0 0.15801167086041079 0.46008690540259539 0 0.191953871957803 0.42546416763755879 0 0.1650278706801647 0.38791388161335733 0 0.13773355295499351 0.42497777642586831 0 0.1650278706801647 0.38791388161335733 0 0.13773355295499351 0.42497777642586831 0 0.1117088112799664 0.38831403004970022 0 0.13773355295499351 0.42497777642586831 0 0.15801167086041079 0.46008690540259539 0 0.113541300460994 0.46208784312094731 0 0.15801167086041079 0.46008690540259539 0 0.113541300460994 0.46208784312094731 0 0.1216098864341134 0.50637075089503902 0 0.15801167086041079 0.46008690540259539 0 0.1216098864341134 0.50637075089503902 0 0.16618607197337229 0.50652878253548905 0 0.19604738184454831 0.47787523520405789 0 0.15801167086041079 0.46008690540259539 0 0.16618607197337229 0.50652878253548905 0 0.19604738184454831 0.47787523520405789 0 0.191953871957803 0.42546416763755879 0 0.15801167086041079 0.46008690540259539 0 0.25195515620380449 0.25883339815888678 0 0.21049769590865089 0.26857363548218488 0 0.24432083401701241 0.3006253385567515 0 0.21049769590865089 0.26857363548218488 0 0.24432083401701241 0.3006253385567515 0 0.19670163708476801 0.31472518408333222 0 0.21049769590865089 0.26857363548218488 0 0.19670163708476801 0.31472518408333222 0 0.168349569971391 0.28054490850913671 0 0.19670163708476801 0.31472518408333222 0 0.22615676742807109 0.33458786033114157 0 0.18434624290945251 0.35208838264196463 0 0.24432083401701241 0.3006253385567515 0 0.19670163708476801 0.31472518408333222 0 0.22615676742807109 0.33458786033114157 0 0.25966125648670141 0.34351016742083729 0 0.24432083401701241 0.3006253385567515 0 0.22615676742807109 0.33458786033114157 0 0.25966125648670141 0.34351016742083729 0 0.22615676742807109 0.33458786033114157 0 0.22033343844674469 0.36963382230740238 0 0.22615676742807109 0.33458786033114157 0 0.22033343844674469 0.36963382230740238 0 0.18434624290945251 0.35208838264196463 0 0.1650278706801647 0.38791388161335733 0 0.22033343844674469 0.36963382230740238 0 0.18434624290945251 0.35208838264196463 0 0.1650278706801647 0.38791388161335733 0 0.18434624290945251 0.35208838264196463 0 0.14223753364722069 0.3341983344262433 0 0.1650278706801647 0.38791388161335733 0 0.14223753364722069 0.3341983344262433 0 0.1117088112799664 0.38831403004970022 0 0.19670163708476801 0.31472518408333222 0 0.18434624290945251 0.35208838264196463 0 0.14223753364722069 0.3341983344262433 0 0.19670163708476801 0.31472518408333222 0 0.14223753364722069 0.3341983344262433 0 0.168349569971391 0.28054490850913671 0 0.14223753364722069 0.3341983344262433 0 0.168349569971391 0.28054490850913671 0 0.1247745017231483 0.27198077544791172 0 0.14377654328998779 0.2442024734791064 0 0.168349569971391 0.28054490850913671 0 0.1247745017231483 0.27198077544791172 0 0.17933913398461551 0.2350063570234002 0 0.21049769590865089 0.26857363548218488 0 0.168349569971391 0.28054490850913671 0 0.17933913398461551 0.2350063570234002 0 0.14377654328998779 0.2442024734791064 0 0.168349569971391 0.28054490850913671 0 0.095326043202144745 0.24554465089224409 0 0.093851963071650835 0.30582068233324772 0 0.049706944316556423 0.27522722923869108 0 0.095326043202144745 0.24554465089224409 0 0.14377654328998779 0.2442024734791064 0 0.1247745017231483 0.27198077544791172 0 0.095326043202144745 0.24554465089224409 0 0.1247745017231483 0.27198077544791172 0 0.093851963071650835 0.30582068233324772 0 0.14223753364722069 0.3341983344262433 0 0.1247745017231483 0.27198077544791172 0 0.093851963071650835 0.30582068233324772 0 0.093851963071650835 0.30582068233324772 0 0.046389130980076937 0.32668781832131749 0 0.049706944316556423 0.27522722923869108 0 0.093851963071650835 0.30582068233324772 0 0.087545339447545459 0.35122518864182262 0 0.046389130980076937 0.32668781832131749 0 0.14223753364722069 0.3341983344262433 0 0.093851963071650835 0.30582068233324772 0 0.087545339447545459 0.35122518864182262 0 0.14223753364722069 0.3341983344262433 0 0.087545339447545459 0.35122518864182262 0 0.1117088112799664 0.38831403004970022 0 0.087545339447545459 0.35122518864182262 0 0.1117088112799664 0.38831403004970022 0 0.050583896093752537 0.38543522283434112 0 0.087545339447545459 0.35122518864182262 0 0.046389130980076937 0.32668781832131749 0 0.050583896093752537 0.38543522283434112 0 0 0.35000000000145642 0 0.046389130980076937 0.32668781832131749 0 0.050583896093752537 0.38543522283434112 0 0 0.35000000000145642 0 0.046389130980076937 0.32668781832131749 0 0 0.30000000000124832 0 0.046389130980076937 0.32668781832131749 0 0 0.30000000000124832 0 0.049706944316556423 0.27522722923869108 0 0 0.30000000000124832 0 0 0.25000000000104028 0 0.049706944316556423 0.27522722923869108 0 0.044081577119474857 0.2271058242433576 0 0 0.25000000000104028 0 0.049706944316556423 0.27522722923869108 0 0.068743045408989428 0.48853989837882689 0 0.113541300460994 0.46208784312094731 0 0.078358742472063481 0.43365249433908948 0 0.068743045408989428 0.48853989837882689 0 0.113541300460994 0.46208784312094731 0 0.1216098864341134 0.50637075089503902 0 0.13773355295499351 0.42497777642586831 0 0.113541300460994 0.46208784312094731 0 0.078358742472063481 0.43365249433908948 0 0.13773355295499351 0.42497777642586831 0 0.1117088112799664 0.38831403004970022 0 0.078358742472063481 0.43365249433908948 0 0.1117088112799664 0.38831403004970022 0 0.078358742472063481 0.43365249433908948 0 0.050583896093752537 0.38543522283434112 0 0.078358742472063481 0.43365249433908948 0 0.035463093262830522 0.42673416072819947 0 0.050583896093752537 0.38543522283434112 0 0 0.35000000000145642 0 0.050583896093752537 0.38543522283434112 0 0 0.40000000000166441 0 0.035463093262830522 0.42673416072819947 0 0.050583896093752537 0.38543522283434112 0 0 0.40000000000166441 0 0.035463093262830522 0.42673416072819947 0 0 0.40000000000166441 0 0 0.45000000000187229 0 0.035463093262830522 0.42673416072819947 0 0 0.45000000000187229 0 0.033550201249889847 0.46247875832467239 0 0.068743045408989428 0.48853989837882689 0 0.033550201249889847 0.46247875832467239 0 0 0.50000000000205869 0 0.068743045408989428 0.48853989837882689 0 0.078358742472063481 0.43365249433908948 0 0.033550201249889847 0.46247875832467239 0 0.078358742472063481 0.43365249433908948 0 0.035463093262830522 0.42673416072819947 0 0.033550201249889847 0.46247875832467239 0 0 0.45000000000187229 0 0.033550201249889847 0.46247875832467239 0 0 0.50000000000205869 0 0.068743045408989428 0.48853989837882689 0 0 0.50000000000205869 0 0.044576108720083309 0.53509043209532614 0 0 0.50000000000205869 0 0 0.55000000000173355 0 0.044576108720083309 0.53509043209532614 0 0 0.55000000000173355 0 0.044576108720083309 0.53509043209532614 0 0.034381862692950467 0.57372682250960894 0 0.044576108720083309 0.53509043209532614 0 0.077693244765132896 0.56932317963405099 0 0.034381862692950467 0.57372682250960894 0 0.068743045408989428 0.48853989837882689 0 0.044576108720083309 0.53509043209532614 0 0.085622222639554768 0.53333248912060549 0 0.068743045408989428 0.48853989837882689 0 0.085622222639554768 0.53333248912060549 0 0.1216098864341134 0.50637075089503902 0 0.044576108720083309 0.53509043209532614 0 0.085622222639554768 0.53333248912060549 0 0.077693244765132896 0.56932317963405099 0 0.085622222639554768 0.53333248912060549 0 0.1154888278694548 0.56733818459978413 0 0.077693244765132896 0.56932317963405099 0 0.085622222639554768 0.53333248912060549 0 0.1216098864341134 0.50637075089503902 0 0.1154888278694548 0.56733818459978413 0 0.1024350934457823 0.60772393977513839 0 0.1154888278694548 0.56733818459978413 0 0.077693244765132896 0.56932317963405099 0 0.1024350934457823 0.60772393977513839 0 0.050069554451969707 0.61308520079857043 0 0.086179601630648681 0.64647209519980475 0 0.1024350934457823 0.60772393977513839 0 0.077693244765132896 0.56932317963405099 0 0.050069554451969707 0.61308520079857043 0 0.077693244765132896 0.56932317963405099 0 0.050069554451969707 0.61308520079857043 0 0.034381862692950467 0.57372682250960894 0 0 0.55000000000173355 0 0.034381862692950467 0.57372682250960894 0 0 0.60000000000138687 0 0.050069554451969707 0.61308520079857043 0 0 0.60000000000138687 0 0 0.65000000000104008 0 0.050069554451969707 0.61308520079857043 0 0.034381862692950467 0.57372682250960894 0 0 0.60000000000138687 0 0 0.65000000000104008 0 0.046634677244967337 0.671418230738282 0 0 0.7000000000006934 0 0.050069554451969707 0.61308520079857043 0 0.046634677244967337 0.671418230738282 0 0.086179601630648681 0.64647209519980475 0 0.050069554451969707 0.61308520079857043 0 0 0.65000000000104008 0 0.046634677244967337 0.671418230738282 0 0 0.7000000000006934 0 0.049706944316475897 0.72477277076253799 0 0 0.75000000000034661 0 0.046634677244967337 0.671418230738282 0 0 0.7000000000006934 0 0.049706944316475897 0.72477277076253799 0 0.049706944316475897 0.72477277076253799 0 0 0.75000000000034661 0 0.04408157711937423 0.7728941757575627 0 0.049706944316475897 0.72477277076253799 0 0.1020579365089687 0.69352219419301997 0 0.090953281884486245 0.7564451946902494 0 0.1020579365089687 0.69352219419301997 0 0.1215415378367805 0.72939333680004137 0 0.090953281884486245 0.7564451946902494 0 0.046634677244967337 0.671418230738282 0 0.049706944316475897 0.72477277076253799 0 0.1020579365089687 0.69352219419301997 0 0.1215415378367805 0.72939333680004137 0 0.090953281884486245 0.7564451946902494 0 0.14335651144331049 0.75565258250209677 0 0.046634677244967337 0.671418230738282 0 0.1020579365089687 0.69352219419301997 0 0.086179601630648681 0.64647209519980475 0 0.1020579365089687 0.69352219419301997 0 0.086179601630648681 0.64647209519980475 0 0.1241190223511371 0.64391885572885044 0 0.1024350934457823 0.60772393977513839 0 0.086179601630648681 0.64647209519980475 0 0.1241190223511371 0.64391885572885044 0 0.1020579365089687 0.69352219419301997 0 0.1241190223511371 0.64391885572885044 0 0.16500388252850301 0.66612077714085194 0 0.1241190223511371 0.64391885572885044 0 0.16500388252850301 0.66612077714085194 0 0.15720202157091859 0.60665697304410315 0 0.16500388252850301 0.66612077714085194 0 0.19914261668318661 0.62286739485272158 0 0.15720202157091859 0.60665697304410315 0 0.1020579365089687 0.69352219419301997 0 0.16500388252850301 0.66612077714085194 0 0.15332765547575641 0.71200081858233666 0 0.1215415378367805 0.72939333680004137 0 0.15332765547575641 0.71200081858233666 0 0.14335651144331049 0.75565258250209677 0 0.1020579365089687 0.69352219419301997 0 0.1215415378367805 0.72939333680004137 0 0.15332765547575641 0.71200081858233666 0 0.16500388252850301 0.66612077714085194 0 0.15332765547575641 0.71200081858233666 0 0.19068556247388771 0.71028988922845504 0 0.15332765547575641 0.71200081858233666 0 0.14335651144331049 0.75565258250209677 0 0.18269480424590959 0.75905448272264375 0 0.15332765547575641 0.71200081858233666 0 0.19068556247388771 0.71028988922845504 0 0.18269480424590959 0.75905448272264375 0 0.19068556247388771 0.71028988922845504 0 0.2248999640082178 0.72584299459689172 0 0.18269480424590959 0.75905448272264375 0 0.19068556247388771 0.71028988922845504 0 0.2248999640082178 0.72584299459689172 0 0.2236846579037573 0.67380363126050236 0 0.2248999640082178 0.72584299459689172 0 0.2236846579037573 0.67380363126050236 0 0.26439878998046262 0.7048065392091396 0 0.2248999640082178 0.72584299459689172 0 0.22556077506376701 0.77837424984191617 0 0.25676291524611189 0.7436741304886243 0 0.2248999640082178 0.72584299459689172 0 0.25676291524611189 0.7436741304886243 0 0.26439878998046262 0.7048065392091396 0 0.16500388252850301 0.66612077714085194 0 0.2236846579037573 0.67380363126050236 0 0.19914261668318661 0.62286739485272158 0 0.16500388252850301 0.66612077714085194 0 0.19068556247388771 0.71028988922845504 0 0.2236846579037573 0.67380363126050236 0 0.2236846579037573 0.67380363126050236 0 0.2459498854893499 0.63248470766216769 0 0.19914261668318661 0.62286739485272158 0 0.2236846579037573 0.67380363126050236 0 0.2459498854893499 0.63248470766216769 0 0.27820712747429932 0.65530134213254643 0 0.2459498854893499 0.63248470766216769 0 0.19914261668318661 0.62286739485272158 0 0.22549374774072969 0.58452645269293457 0 0.2459498854893499 0.63248470766216769 0 0.22549374774072969 0.58452645269293457 0 0.26573297623774761 0.59828298563722948 0 0.19914261668318661 0.62286739485272158 0 0.22549374774072969 0.58452645269293457 0 0.18381867841758909 0.57774125163628387 0 0.22549374774072969 0.58452645269293457 0 0.20050006573841939 0.53248514016039872 0 0.18381867841758909 0.57774125163628387 0 0.22549374774072969 0.58452645269293457 0 0.25115337790845271 0.54719303014923271 0 0.26573297623774761 0.59828298563722948 0 0.22549374774072969 0.58452645269293457 0 0.20050006573841939 0.53248514016039872 0 0.25115337790845271 0.54719303014923271 0 0.23975172658309729 0.49475499200540818 0 0.20050006573841939 0.53248514016039872 0 0.25115337790845271 0.54719303014923271 0 0.19604738184454831 0.47787523520405789 0 0.20050006573841939 0.53248514016039872 0 0.16618607197337229 0.50652878253548905 0 0.23975172658309729 0.49475499200540818 0 0.19604738184454831 0.47787523520405789 0 0.20050006573841939 0.53248514016039872 0 0.20050006573841939 0.53248514016039872 0 0.14934928745814749 0.55042914607228977 0 0.18381867841758909 0.57774125163628387 0 0.20050006573841939 0.53248514016039872 0 0.16618607197337229 0.50652878253548905 0 0.14934928745814749 0.55042914607228977 0 0.1216098864341134 0.50637075089503902 0 0.16618607197337229 0.50652878253548905 0 0.14934928745814749 0.55042914607228977 0 0.1216098864341134 0.50637075089503902 0 0.1154888278694548 0.56733818459978413 0 0.14934928745814749 0.55042914607228977 0 0.1154888278694548 0.56733818459978413 0 0.14934928745814749 0.55042914607228977 0 0.15720202157091859 0.60665697304410315 0 0.1024350934457823 0.60772393977513839 0 0.1154888278694548 0.56733818459978413 0 0.15720202157091859 0.60665697304410315 0 0.1024350934457823 0.60772393977513839 0 0.1241190223511371 0.64391885572885044 0 0.15720202157091859 0.60665697304410315 0 0.19914261668318661 0.62286739485272158 0 0.15720202157091859 0.60665697304410315 0 0.18381867841758909 0.57774125163628387 0 0.14934928745814749 0.55042914607228977 0 0.15720202157091859 0.60665697304410315 0 0.18381867841758909 0.57774125163628387 0 0.10000000000041601 1 0 0.10266856499240549 0.95548163909968886 0 0.15000000000062411 1 0 0.10266856499240549 0.95548163909968886 0 0.053064897599294662 0.95186845269532028 0 0.083411279318375747 0.91030024466934134 0 0.10000000000041601 1 0 0.050000000000207989 1 0 0.053064897599294662 0.95186845269532028 0 0.10000000000041601 1 0 0.10266856499240549 0.95548163909968886 0 0.053064897599294662 0.95186845269532028 0 0.050000000000207989 1 0 0.025766224399875661 0.97546711317377799 0 0.053064897599294662 0.95186845269532028 0 0.050000000000207989 1 0 0 1 0 0.025766224399875661 0.97546711317377799 0 0 1 0 0.025766224399875661 0.97546711317377799 0 0 0.94999999999979179 0 0.025766224399875661 0.97546711317377799 0 0 0.94999999999979179 0 0.053064897599294662 0.95186845269532028 0 0 0.94999999999979179 0 0.053064897599294662 0.95186845269532028 0 0.0443105827531413 0.89858748162559932 0 0.053064897599294662 0.95186845269532028 0 0.0443105827531413 0.89858748162559932 0 0.083411279318375747 0.91030024466934134 0 0 0.94999999999979179 0 0 0.89999999999958358 0 0.0443105827531413 0.89858748162559932 0 0 0.89999999999958358 0 0.0443105827531413 0.89858748162559932 0 0 0.84999999999965292 0 0.0443105827531413 0.89858748162559932 0 0.083411279318375747 0.91030024466934134 0 0.065374659239661639 0.8551091961254178 0 0.083411279318375747 0.91030024466934134 0 0.10562472963403439 0.87143394428979881 0 0.065374659239661639 0.8551091961254178 0 0.10266856499240549 0.95548163909968886 0 0.083411279318375747 0.91030024466934134 0 0.1241151115713819 0.9045666525468371 0 0.10266856499240549 0.95548163909968886 0 0.1241151115713819 0.9045666525468371 0 0.14617343800780541 0.93808063414349496 0 0.1241151115713819 0.9045666525468371 0 0.10562472963403439 0.87143394428979881 0 0.14474682429600511 0.85524784522713515 0 0.083411279318375747 0.91030024466934134 0 0.1241151115713819 0.9045666525468371 0 0.10562472963403439 0.87143394428979881 0 0.10562472963403439 0.87143394428979881 0 0.1074251789111534 0.83564394292147814 0 0.14474682429600511 0.85524784522713515 0 0.1074251789111534 0.83564394292147814 0 0.065374659239661639 0.8551091961254178 0 0.083105206071452636 0.79992298667296435 0 0.10562472963403439 0.87143394428979881 0 0.1074251789111534 0.83564394292147814 0 0.065374659239661639 0.8551091961254178 0 0.065374659239661639 0.8551091961254178 0 0 0.84999999999965292 0 0.038512288486097702 0.8155852717111195 0 0.0443105827531413 0.89858748162559932 0 0.065374659239661639 0.8551091961254178 0 0 0.84999999999965292 0 0 0.84999999999965292 0 0.038512288486097702 0.8155852717111195 0 0 0.79999999999999982 0 0.065374659239661639 0.8551091961254178 0 0.038512288486097702 0.8155852717111195 0 0.083105206071452636 0.79992298667296435 0 0.038512288486097702 0.8155852717111195 0 0.04408157711937423 0.7728941757575627 0 0.083105206071452636 0.79992298667296435 0 0.038512288486097702 0.8155852717111195 0 0 0.79999999999999982 0 0.04408157711937423 0.7728941757575627 0 0 0.79999999999999982 0 0 0.75000000000034661 0 0.04408157711937423 0.7728941757575627 0 0.049706944316475897 0.72477277076253799 0 0.04408157711937423 0.7728941757575627 0 0.090953281884486245 0.7564451946902494 0 0.04408157711937423 0.7728941757575627 0 0.090953281884486245 0.7564451946902494 0 0.083105206071452636 0.79992298667296435 0 0.1074251789111534 0.83564394292147814 0 0.083105206071452636 0.79992298667296435 0 0.1382744753146134 0.79650574229207483 0 0.090953281884486245 0.7564451946902494 0 0.083105206071452636 0.79992298667296435 0 0.1382744753146134 0.79650574229207483 0 0.090953281884486245 0.7564451946902494 0 0.14335651144331049 0.75565258250209677 0 0.1382744753146134 0.79650574229207483 0 0.14335651144331049 0.75565258250209677 0 0.1382744753146134 0.79650574229207483 0 0.18269480424590959 0.75905448272264375 0 0.1382744753146134 0.79650574229207483 0 0.18269480424590959 0.75905448272264375 0 0.17777405986036951 0.81832336108265358 0 0.2248999640082178 0.72584299459689172 0 0.18269480424590959 0.75905448272264375 0 0.22556077506376701 0.77837424984191617 0 0.22556077506376701 0.77837424984191617 0 0.21858834311891909 0.81980263716112767 0 0.26104540868854792 0.81401944968719064 0 0.22556077506376701 0.77837424984191617 0 0.21858834311891909 0.81980263716112767 0 0.17777405986036951 0.81832336108265358 0 0.18269480424590959 0.75905448272264375 0 0.22556077506376701 0.77837424984191617 0 0.17777405986036951 0.81832336108265358 0 0.21858834311891909 0.81980263716112767 0 0.19741632902693801 0.86755867406447229 0 0.17777405986036951 0.81832336108265358 0 0.21858834311891909 0.81980263716112767 0 0.2401283238295133 0.85648409884788523 0 0.26104540868854792 0.81401944968719064 0 0.21858834311891909 0.81980263716112767 0 0.2401283238295133 0.85648409884788523 0 0.19741632902693801 0.86755867406447229 0 0.19741632902693801 0.86755867406447229 0 0.17777405986036951 0.81832336108265358 0 0.14474682429600511 0.85524784522713515 0 0.19741632902693801 0.86755867406447229 0 0.14474682429600511 0.85524784522713515 0 0.16206583317966519 0.89685560785156404 0 0.1382744753146134 0.79650574229207483 0 0.17777405986036951 0.81832336108265358 0 0.14474682429600511 0.85524784522713515 0 0.1074251789111534 0.83564394292147814 0 0.1382744753146134 0.79650574229207483 0 0.14474682429600511 0.85524784522713515 0 0.1241151115713819 0.9045666525468371 0 0.14474682429600511 0.85524784522713515 0 0.16206583317966519 0.89685560785156404 0 0.1241151115713819 0.9045666525468371 0 0.16206583317966519 0.89685560785156404 0 0.14617343800780541 0.93808063414349496 0 0.16206583317966519 0.89685560785156404 0 0.19901705110390991 0.9175543425573498 0 0.14617343800780541 0.93808063414349496 0 0.19741632902693801 0.86755867406447229 0 0.16206583317966519 0.89685560785156404 0 0.19901705110390991 0.9175543425573498 0 0.19741632902693801 0.86755867406447229 0 0.24536017905392571 0.90704567837671446 0 0.19901705110390991 0.9175543425573498 0 0.2401283238295133 0.85648409884788523 0 0.19741632902693801 0.86755867406447229 0 0.24536017905392571 0.90704567837671446 0 0.24536017905392571 0.90704567837671446 0 0.19901705110390991 0.9175543425573498 0 0.22850979588452081 0.95594428570238643 0 0.19901705110390991 0.9175543425573498 0 0.22850979588452081 0.95594428570238643 0 0.18474005699953849 0.96231585248064622 0 0.24536017905392571 0.90704567837671446 0 0.22850979588452081 0.95594428570238643 0 0.27609987656793722 0.94991445621608572 0 0.22850979588452081 0.95594428570238643 0 0.20000000000083221 1 0 0.25000000000104028 1 0 0.22850979588452081 0.95594428570238643 0 0.20000000000083221 1 0 0.18474005699953849 0.96231585248064622 0 0.20000000000083221 1 0 0.18474005699953849 0.96231585248064622 0 0.15000000000062411 1 0 0.19901705110390991 0.9175543425573498 0 0.18474005699953849 0.96231585248064622 0 0.14617343800780541 0.93808063414349496 0 0.18474005699953849 0.96231585248064622 0 0.14617343800780541 0.93808063414349496 0 0.15000000000062411 1 0 0.10266856499240549 0.95548163909968886 0 0.14617343800780541 0.93808063414349496 0 0.15000000000062411 1 0 0.35000000000145642 1 0 0.36184234618600131 0.96443954459096326 0 0.32544832635163229 0.95485394099568932 0 0.35000000000145642 1 0 0.36184234618600131 0.96443954459096326 0 0.40000000000166441 1 0 0.36184234618600131 0.96443954459096326 0 0.32544832635163229 0.95485394099568932 0 0.35752321586431363 0.9185439911803448 0 0.36184234618600131 0.96443954459096326 0 0.35752321586431363 0.9185439911803448 0 0.39641108128798319 0.94356127926187128 0 0.35000000000145642 1 0 0.32544832635163229 0.95485394099568932 0 0.30000000000124832 1 0 0.30000000000124832 1 0 0.25000000000104028 1 0 0.27609987656793722 0.94991445621608572 0 0.22850979588452081 0.95594428570238643 0 0.25000000000104028 1 0 0.27609987656793722 0.94991445621608572 0 0.32544832635163229 0.95485394099568932 0 0.30000000000124832 1 0 0.27609987656793722 0.94991445621608572 0 0.32544832635163229 0.95485394099568932 0 0.27609987656793722 0.94991445621608572 0 0.30864387279288652 0.89906554525974958 0 0.24536017905392571 0.90704567837671446 0 0.27270076654418179 0.87751467830216623 0 0.30864387279288652 0.89906554525974958 0 0.24536017905392571 0.90704567837671446 0 0.27609987656793722 0.94991445621608572 0 0.30864387279288652 0.89906554525974958 0 0.2401283238295133 0.85648409884788523 0 0.24536017905392571 0.90704567837671446 0 0.27270076654418179 0.87751467830216623 0 0.30864387279288652 0.89906554525974958 0 0.35752321586431363 0.9185439911803448 0 0.35864759629805099 0.87963482415279515 0 0.32544832635163229 0.95485394099568932 0 0.30864387279288652 0.89906554525974958 0 0.35752321586431363 0.9185439911803448 0 0.35752321586431363 0.9185439911803448 0 0.35864759629805099 0.87963482415279515 0 0.39767323751400468 0.89584229130535065 0 0.35864759629805099 0.87963482415279515 0 0.33403534827021109 0.84402799729020661 0 0.39536230704883951 0.84069429572832477 0 0.33403534827021109 0.84402799729020661 0 0.35642984951668422 0.80994399665655703 0 0.39536230704883951 0.84069429572832477 0 0.33403534827021109 0.84402799729020661 0 0.30857225866488791 0.81101973481716805 0 0.35642984951668422 0.80994399665655703 0 0.30864387279288652 0.89906554525974958 0 0.35864759629805099 0.87963482415279515 0 0.33403534827021109 0.84402799729020661 0 0.30864387279288652 0.89906554525974958 0 0.33403534827021109 0.84402799729020661 0 0.29209212897034281 0.84715728365233667 0 0.27270076654418179 0.87751467830216623 0 0.30864387279288652 0.89906554525974958 0 0.29209212897034281 0.84715728365233667 0 0.2401283238295133 0.85648409884788523 0 0.27270076654418179 0.87751467830216623 0 0.29209212897034281 0.84715728365233667 0 0.2401283238295133 0.85648409884788523 0 0.29209212897034281 0.84715728365233667 0 0.26104540868854792 0.81401944968719064 0 0.29209212897034281 0.84715728365233667 0 0.26104540868854792 0.81401944968719064 0 0.30857225866488791 0.81101973481716805 0 0.33403534827021109 0.84402799729020661 0 0.29209212897034281 0.84715728365233667 0 0.30857225866488791 0.81101973481716805 0 0.26104540868854792 0.81401944968719064 0 0.30857225866488791 0.81101973481716805 0 0.2792923945214143 0.77665808831789485 0 0.30857225866488791 0.81101973481716805 0 0.2792923945214143 0.77665808831789485 0 0.33123028043633618 0.77629643437932982 0 0.22556077506376701 0.77837424984191617 0 0.26104540868854792 0.81401944968719064 0 0.2792923945214143 0.77665808831789485 0 0.2792923945214143 0.77665808831789485 0 0.25676291524611189 0.7436741304886243 0 0.29904318922293632 0.74132814928635593 0 0.22556077506376701 0.77837424984191617 0 0.2792923945214143 0.77665808831789485 0 0.25676291524611189 0.7436741304886243 0 0.2792923945214143 0.77665808831789485 0 0.33123028043633618 0.77629643437932982 0 0.29904318922293632 0.74132814928635593 0 0.33123028043633618 0.77629643437932982 0 0.29904318922293632 0.74132814928635593 0 0.35415581127540569 0.73730480045900215 0 0.30857225866488791 0.81101973481716805 0 0.33123028043633618 0.77629643437932982 0 0.35642984951668422 0.80994399665655703 0 0.33123028043633618 0.77629643437932982 0 0.35642984951668422 0.80994399665655703 0 0.38586766253264881 0.78219501014812498 0 0.33123028043633618 0.77629643437932982 0 0.38586766253264881 0.78219501014812498 0 0.35415581127540569 0.73730480045900215 0 0.38586766253264881 0.78219501014812498 0 0.42676259796334498 0.76772545931379299 0 0.40326160981139969 0.73346192995102844 0 0.38586766253264881 0.78219501014812498 0 0.35415581127540569 0.73730480045900215 0 0.40326160981139969 0.73346192995102844 0 0.38586766253264881 0.78219501014812498 0 0.42609163930740518 0.80361684430568059 0 0.39536230704883951 0.84069429572832477 0 0.35642984951668422 0.80994399665655703 0 0.38586766253264881 0.78219501014812498 0 0.39536230704883951 0.84069429572832477 0 0.38586766253264881 0.78219501014812498 0 0.42609163930740518 0.80361684430568059 0 0.42676259796334498 0.76772545931379299 0 0.42676259796334498 0.76772545931379299 0 0.4656888918609538 0.78493261229743638 0 0.45582236402875981 0.73896743678908217 0 0.4656888918609538 0.78493261229743638 0 0.45582236402875981 0.73896743678908217 0 0.50945740445113552 0.75476055527778108 0 0.4656888918609538 0.78493261229743638 0 0.50731287292894423 0.78963574450233831 0 0.50945740445113552 0.75476055527778108 0 0.4656888918609538 0.78493261229743638 0 0.50627822638148745 0.8263979829520941 0 0.50731287292894423 0.78963574450233831 0 0.42609163930740518 0.80361684430568059 0 0.4656888918609538 0.78493261229743638 0 0.45677673713123867 0.84253684404072415 0 0.42609163930740518 0.80361684430568059 0 0.42676259796334498 0.76772545931379299 0 0.4656888918609538 0.78493261229743638 0 0.4656888918609538 0.78493261229743638 0 0.45677673713123867 0.84253684404072415 0 0.50627822638148745 0.8263979829520941 0 0.45677673713123867 0.84253684404072415 0 0.50202631463681879 0.87892870825713787 0 0.50627822638148745 0.8263979829520941 0 0.45677673713123867 0.84253684404072415 0 0.44003836461056539 0.88093474584252718 0 0.50202631463681879 0.87892870825713787 0 0.45677673713123867 0.84253684404072415 0 0.39536230704883951 0.84069429572832477 0 0.44003836461056539 0.88093474584252718 0 0.39536230704883951 0.84069429572832477 0 0.39767323751400468 0.89584229130535065 0 0.44003836461056539 0.88093474584252718 0 0.42609163930740518 0.80361684430568059 0 0.45677673713123867 0.84253684404072415 0 0.39536230704883951 0.84069429572832477 0 0.35864759629805099 0.87963482415279515 0 0.39536230704883951 0.84069429572832477 0 0.39767323751400468 0.89584229130535065 0 0.35752321586431363 0.9185439911803448 0 0.39767323751400468 0.89584229130535065 0 0.39641108128798319 0.94356127926187128 0 0.39767323751400468 0.89584229130535065 0 0.4367309254023824 0.92065556789053882 0 0.39641108128798319 0.94356127926187128 0 0.39767323751400468 0.89584229130535065 0 0.4367309254023824 0.92065556789053882 0 0.44003836461056539 0.88093474584252718 0 0.4367309254023824 0.92065556789053882 0 0.44003836461056539 0.88093474584252718 0 0.47401147028110507 0.91529957330468115 0 0.44003836461056539 0.88093474584252718 0 0.47401147028110507 0.91529957330468115 0 0.50202631463681879 0.87892870825713787 0 0.47401147028110507 0.91529957330468115 0 0.47135117303824892 0.95556877749289892 0 0.52122150208832174 0.94089974453840242 0 0.47401147028110507 0.91529957330468115 0 0.52122150208832174 0.94089974453840242 0 0.50202631463681879 0.87892870825713787 0 0.4367309254023824 0.92065556789053882 0 0.47401147028110507 0.91529957330468115 0 0.47135117303824892 0.95556877749289892 0 0.4367309254023824 0.92065556789053882 0 0.47135117303824892 0.95556877749289892 0 0.4308986359464303 0.96395712492906194 0 0.47135117303824892 0.95556877749289892 0 0.50000000000205869 1 0 0.52122150208832174 0.94089974453840242 0 0.47135117303824892 0.95556877749289892 0 0.45000000000187229 1 0 0.50000000000205869 1 0 0.47135117303824892 0.95556877749289892 0 0.45000000000187229 1 0 0.4308986359464303 0.96395712492906194 0 0.45000000000187229 1 0 0.4308986359464303 0.96395712492906194 0 0.40000000000166441 1 0 0.4308986359464303 0.96395712492906194 0 0.39641108128798319 0.94356127926187128 0 0.40000000000166441 1 0 0.4367309254023824 0.92065556789053882 0 0.4308986359464303 0.96395712492906194 0 0.39641108128798319 0.94356127926187128 0 0.36184234618600131 0.96443954459096326 0 0.39641108128798319 0.94356127926187128 0 0.40000000000166441 1 0 0.33122374654748771 0.57588941099433744 0 0.31502927232353312 0.6134992213375432 0 0.35765792684946668 0.6000687869219653 0 0.31502927232353312 0.6134992213375432 0 0.35765792684946668 0.6000687869219653 0 0.35864735590330371 0.63903383440414463 0 0.35765792684946668 0.6000687869219653 0 0.35864735590330371 0.63903383440414463 0 0.39743091024207589 0.6239520004230239 0 0.33122374654748771 0.57588941099433744 0 0.35765792684946668 0.6000687869219653 0 0.37272913873093971 0.56192925302619479 0 0.37272913873093971 0.56192925302619479 0 0.33190227185843768 0.52715113583864037 0 0.38244435121258652 0.51653317813019495 0 0.33122374654748771 0.57588941099433744 0 0.37272913873093971 0.56192925302619479 0 0.33190227185843768 0.52715113583864037 0 0.35024835142131061 0.48654922671676981 0 0.33190227185843768 0.52715113583864037 0 0.38244435121258652 0.51653317813019495 0 0.33122374654748771 0.57588941099433744 0 0.33190227185843768 0.52715113583864037 0 0.29110487519241501 0.56588143995431495 0 0.33190227185843768 0.52715113583864037 0 0.28307294598219601 0.50789252727458634 0 0.29110487519241501 0.56588143995431495 0 0.31068898841644388 0.47541502461811092 0 0.33190227185843768 0.52715113583864037 0 0.28307294598219601 0.50789252727458634 0 0.23975172658309729 0.49475499200540818 0 0.28307294598219601 0.50789252727458634 0 0.25115337790845271 0.54719303014923271 0 0.28307294598219601 0.50789252727458634 0 0.25115337790845271 0.54719303014923271 0 0.29110487519241501 0.56588143995431495 0 0.25115337790845271 0.54719303014923271 0 0.29110487519241501 0.56588143995431495 0 0.26573297623774761 0.59828298563722948 0 0.33122374654748771 0.57588941099433744 0 0.31502927232353312 0.6134992213375432 0 0.29110487519241501 0.56588143995431495 0 0.31502927232353312 0.6134992213375432 0 0.29110487519241501 0.56588143995431495 0 0.26573297623774761 0.59828298563722948 0 0.31502927232353312 0.6134992213375432 0 0.26573297623774761 0.59828298563722948 0 0.27820712747429932 0.65530134213254643 0 0.2459498854893499 0.63248470766216769 0 0.26573297623774761 0.59828298563722948 0 0.27820712747429932 0.65530134213254643 0 0.2236846579037573 0.67380363126050236 0 0.27820712747429932 0.65530134213254643 0 0.26439878998046262 0.7048065392091396 0 0.27820712747429932 0.65530134213254643 0 0.31378396441836959 0.70157213313026345 0 0.32263089806001177 0.66003674931826484 0 0.27820712747429932 0.65530134213254643 0 0.26439878998046262 0.7048065392091396 0 0.31378396441836959 0.70157213313026345 0 0.31502927232353312 0.6134992213375432 0 0.27820712747429932 0.65530134213254643 0 0.32263089806001177 0.66003674931826484 0 0.25676291524611189 0.7436741304886243 0 0.26439878998046262 0.7048065392091396 0 0.29904318922293632 0.74132814928635593 0 0.26439878998046262 0.7048065392091396 0 0.29904318922293632 0.74132814928635593 0 0.31378396441836959 0.70157213313026345 0 0.29904318922293632 0.74132814928635593 0 0.31378396441836959 0.70157213313026345 0 0.35415581127540569 0.73730480045900215 0 0.31378396441836959 0.70157213313026345 0 0.36622285152418499 0.69092437780804039 0 0.35415581127540569 0.73730480045900215 0 0.36622285152418499 0.69092437780804039 0 0.35415581127540569 0.73730480045900215 0 0.40326160981139969 0.73346192995102844 0 0.31502927232353312 0.6134992213375432 0 0.32263089806001177 0.66003674931826484 0 0.35864735590330371 0.63903383440414463 0 0.31378396441836959 0.70157213313026345 0 0.36622285152418499 0.69092437780804039 0 0.32263089806001177 0.66003674931826484 0 0.36622285152418499 0.69092437780804039 0 0.32263089806001177 0.66003674931826484 0 0.35864735590330371 0.63903383440414463 0 0.36622285152418499 0.69092437780804039 0 0.35864735590330371 0.63903383440414463 0 0.3977710372045391 0.65868194622830212 0 0.35864735590330371 0.63903383440414463 0 0.3977710372045391 0.65868194622830212 0 0.39743091024207589 0.6239520004230239 0 0.36622285152418499 0.69092437780804039 0 0.3977710372045391 0.65868194622830212 0 0.43323420005758778 0.6913544522562407 0 0.3977710372045391 0.65868194622830212 0 0.43323420005758778 0.6913544522562407 0 0.43846182030517877 0.64845797726506715 0 0.43846182030517877 0.64845797726506715 0 0.43545892161006339 0.61093128915313821 0 0.39743091024207589 0.6239520004230239 0 0.3977710372045391 0.65868194622830212 0 0.43846182030517877 0.64845797726506715 0 0.39743091024207589 0.6239520004230239 0 0.36622285152418499 0.69092437780804039 0 0.40326160981139969 0.73346192995102844 0 0.43323420005758778 0.6913544522562407 0 0.40326160981139969 0.73346192995102844 0 0.43323420005758778 0.6913544522562407 0 0.45582236402875981 0.73896743678908217 0 0.42676259796334498 0.76772545931379299 0 0.40326160981139969 0.73346192995102844 0 0.45582236402875981 0.73896743678908217 0 0.43323420005758778 0.6913544522562407 0 0.45582236402875981 0.73896743678908217 0 0.5 0.69999999999999996 0 0.45582236402875981 0.73896743678908217 0 0.5 0.69999999999999996 0 0.50945740445113552 0.75476055527778108 0 0.43323420005758778 0.6913544522562407 0 0.47913475093885149 0.66010775372412711 0 0.5 0.69999999999999996 0 0.43846182030517877 0.64845797726506715 0 0.47913475093885149 0.66010775372412711 0 0.47095389620662098 0.61892551373708504 0 0.43846182030517877 0.64845797726506715 0 0.47095389620662098 0.61892551373708504 0 0.43545892161006339 0.61093128915313821 0 0.43323420005758778 0.6913544522562407 0 0.43846182030517877 0.64845797726506715 0 0.47913475093885149 0.66010775372412711 0 0.47913475093885149 0.66010775372412711 0 0.47095389620662098 0.61892551373708504 0 0.50715858906372158 0.63295939104129484 0 0.47095389620662098 0.61892551373708504 0 0.5166924242153631 0.59825134841919447 0 0.50715858906372158 0.63295939104129484 0 0.47095389620662098 0.61892551373708504 0 0.46666084890304671 0.57634471035397938 0 0.5166924242153631 0.59825134841919447 0 0.47095389620662098 0.61892551373708504 0 0.46666084890304671 0.57634471035397938 0 0.43545892161006339 0.61093128915313821 0 0.43545892161006339 0.61093128915313821 0 0.4089290844030305 0.58728915500154233 0 0.39743091024207589 0.6239520004230239 0 0.46666084890304671 0.57634471035397938 0 0.43545892161006339 0.61093128915313821 0 0.4089290844030305 0.58728915500154233 0 0.46666084890304671 0.57634471035397938 0 0.4089290844030305 0.58728915500154233 0 0.42644501560315817 0.54603747078095544 0 0.37272913873093971 0.56192925302619479 0 0.4089290844030305 0.58728915500154233 0 0.42644501560315817 0.54603747078095544 0 0.35765792684946668 0.6000687869219653 0 0.37272913873093971 0.56192925302619479 0 0.4089290844030305 0.58728915500154233 0 0.35765792684946668 0.6000687869219653 0 0.4089290844030305 0.58728915500154233 0 0.39743091024207589 0.6239520004230239 0 0.37272913873093971 0.56192925302619479 0 0.38244435121258652 0.51653317813019495 0 0.42644501560315817 0.54603747078095544 0 0.43507373378304309 0.49699695397193322 0 0.38244435121258652 0.51653317813019495 0 0.42644501560315817 0.54603747078095544 0 0.46666084890304671 0.57634471035397938 0 0.47793794143994173 0.52940715638744962 0 0.53245488764484505 0.55078124999999989 0 0.43507373378304309 0.49699695397193322 0 0.49102375406324739 0.49123754822244059 0 0.47793794143994173 0.52940715638744962 0 0.43507373378304309 0.49699695397193322 0 0.42644501560315817 0.54603747078095544 0 0.47793794143994173 0.52940715638744962 0 0.46666084890304671 0.57634471035397938 0 0.42644501560315817 0.54603747078095544 0 0.47793794143994173 0.52940715638744962 0 0.49102375406324739 0.49123754822244059 0 0.47793794143994173 0.52940715638744962 0 0.53330375813596242 0.50827942741749099 0 0.47793794143994173 0.52940715638744962 0 0.53245488764484505 0.55078124999999989 0 0.53330375813596242 0.50827942741749099 0 0.53245488764484505 0.55078124999999989 0 0.53330375813596242 0.50827942741749099 0 0.57435499076887508 0.54267261987897775 0 0.53245488764484505 0.55078124999999989 0 0.57435499076887508 0.54267261987897775 0 0.57412547362576272 0.58273804879550706 0 0.53330375813596242 0.50827942741749099 0 0.57611405284611883 0.50165903596042916 0 0.57435499076887508 0.54267261987897775 0 0.57611405284611883 0.50165903596042916 0 0.57435499076887508 0.54267261987897775 0 0.62042975506801734 0.54295974692364424 0 0.57435499076887508 0.54267261987897775 0 0.62042975506801734 0.54295974692364424 0 0.57412547362576272 0.58273804879550706 0 0.57611405284611883 0.50165903596042916 0 0.62042975506801734 0.54295974692364424 0 0.61547661924074692 0.48539576058873962 0 0.5991018319127801 0.62925360607495295 0 0.6405463747586706 0.63290524857395714 0 0.63065402604362242 0.59661356661633302 0 0.57412547362576272 0.58273804879550706 0 0.5991018319127801 0.62925360607495295 0 0.63065402604362242 0.59661356661633302 0 0.62042975506801734 0.54295974692364424 0 0.57412547362576272 0.58273804879550706 0 0.63065402604362242 0.59661356661633302 0 0.57412547362576272 0.58273804879550706 0 0.5498280205245758 0.6290146943450976 0 0.5991018319127801 0.62925360607495295 0 0.46666084890304671 0.57634471035397938 0 0.53245488764484505 0.55078124999999989 0 0.5166924242153631 0.59825134841919447 0 0.57412547362576272 0.58273804879550706 0 0.5166924242153631 0.59825134841919447 0 0.5498280205245758 0.6290146943450976 0 0.53245488764484505 0.55078124999999989 0 0.57412547362576272 0.58273804879550706 0 0.5166924242153631 0.59825134841919447 0 0.5166924242153631 0.59825134841919447 0 0.50715858906372158 0.63295939104129484 0 0.5498280205245758 0.6290146943450976 0 0.47913475093885149 0.66010775372412711 0 0.50715858906372158 0.63295939104129484 0 0.52584555706968406 0.66664215091846768 0 0.50715858906372158 0.63295939104129484 0 0.52584555706968406 0.66664215091846768 0 0.5498280205245758 0.6290146943450976 0 0.47913475093885149 0.66010775372412711 0 0.52584555706968406 0.66664215091846768 0 0.5 0.69999999999999996 0 0.52584555706968406 0.66664215091846768 0 0.54999999999999993 0.69999999999999996 0 0.57484956128872922 0.66573805030881994 0 0.52584555706968406 0.66664215091846768 0 0.5498280205245758 0.6290146943450976 0 0.57484956128872922 0.66573805030881994 0 0.5 0.69999999999999996 0 0.55363780716230748 0.74348740161571747 0 0.50945740445113552 0.75476055527778108 0 0.52584555706968406 0.66664215091846768 0 0.5 0.69999999999999996 0 0.54999999999999993 0.69999999999999996 0 0.5 0.69999999999999996 0 0.54999999999999993 0.69999999999999996 0 0.5 0.69999999999999996 0 0.54999999999999993 0.69999999999999996 0 0.55363780716230748 0.74348740161571747 0 0.55363780716230748 0.74348740161571747 0 0.59999999999999976 0.69999999999999996 0 0.59636844454254345 0.75937156204589151 0 0.54999999999999993 0.69999999999999996 0 0.59999999999999976 0.69999999999999996 0 0.54999999999999993 0.69999999999999996 0 0.59999999999999976 0.69999999999999996 0 0.57484956128872922 0.66573805030881994 0 0.54999999999999993 0.69999999999999996 0 0.55363780716230748 0.74348740161571747 0 0.59999999999999976 0.69999999999999996 0 0.59999999999999976 0.69999999999999996 0 0.6499999999999998 0.69999999999999996 0 0.59999999999999976 0.69999999999999996 0 0.62460753523532009 0.66851202781000296 0 0.6499999999999998 0.69999999999999996 0 0.59999999999999976 0.69999999999999996 0 0.63221990677827677 0.73442891067859706 0 0.59636844454254345 0.75937156204589151 0 0.5498280205245758 0.6290146943450976 0 0.57484956128872922 0.66573805030881994 0 0.5991018319127801 0.62925360607495295 0 0.59999999999999976 0.69999999999999996 0 0.57484956128872922 0.66573805030881994 0 0.62460753523532009 0.66851202781000296 0 0.57484956128872922 0.66573805030881994 0 0.62460753523532009 0.66851202781000296 0 0.5991018319127801 0.62925360607495295 0 0.62460753523532009 0.66851202781000296 0 0.5991018319127801 0.62925360607495295 0 0.6405463747586706 0.63290524857395714 0 0.62460753523532009 0.66851202781000296 0 0.6405463747586706 0.63290524857395714 0 0.675261390228442 0.65996937624687813 0 0.62460753523532009 0.66851202781000296 0 0.675261390228442 0.65996937624687813 0 0.6499999999999998 0.69999999999999996 0 0.675261390228442 0.65996937624687813 0 0.6499999999999998 0.69999999999999996 0 0.69999999999999984 0.69999999999999996 0 0.6405463747586706 0.63290524857395714 0 0.675261390228442 0.65996937624687813 0 0.67529834988829951 0.61613270668143583 0 0.63221990677827677 0.73442891067859706 0 0.66427993341343905 0.73232764502436276 0 0.64753070846764316 0.77332939069435502 0 0.63221990677827677 0.73442891067859706 0 0.6499999999999998 0.69999999999999996 0 0.66427993341343905 0.73232764502436276 0 0.59999999999999976 0.69999999999999996 0 0.63221990677827677 0.73442891067859706 0 0.6499999999999998 0.69999999999999996 0 0.6499999999999998 0.69999999999999996 0 0.69999999999999984 0.69999999999999996 0 0.6499999999999998 0.69999999999999996 0 0.66427993341343905 0.73232764502436276 0 0.69999999999999984 0.69999999999999996 0 0.66427993341343905 0.73232764502436276 0 0.69999999999999984 0.69999999999999996 0 0.6916490518212759 0.75387992374886192 0 0.69999999999999984 0.69999999999999996 0 0.72501250972655151 0.74067302935308721 0 0.6916490518212759 0.75387992374886192 0 0.69999999999999984 0.69999999999999996 0 0.74999999999999989 0.69999999999999996 0 0.72501250972655151 0.74067302935308721 0 0.69999999999999984 0.69999999999999996 0 0.74999999999999989 0.69999999999999996 0 0.72500000000000064 0.67022701834392062 0 0.69999999999999984 0.69999999999999996 0 0.74999999999999989 0.69999999999999996 0 0.74999999999999989 0.69999999999999996 0 0.72501250972655151 0.74067302935308721 0 0.75841349681148107 0.75422312624214749 0 0.675261390228442 0.65996937624687813 0 0.71406021706547751 0.63292083137662503 0 0.72500000000000064 0.67022701834392062 0 0.675261390228442 0.65996937624687813 0 0.71406021706547751 0.63292083137662503 0 0.67529834988829951 0.61613270668143583 0 0.675261390228442 0.65996937624687813 0 0.69999999999999984 0.69999999999999996 0 0.72500000000000064 0.67022701834392062 0 0.71406021706547751 0.63292083137662503 0 0.72500000000000064 0.67022701834392062 0 0.74994237037456724 0.62775548192980357 0 0.72500000000000064 0.67022701834392062 0 0.74994237037456724 0.62775548192980357 0 0.7750489929959945 0.66593931409600093 0 0.71406021706547751 0.63292083137662503 0 0.74994237037456724 0.62775548192980357 0 0.71809016091162536 0.58185040402320831 0 0.74994237037456724 0.62775548192980357 0 0.71809016091162536 0.58185040402320831 0 0.77293540622714185 0.59448302402785813 0 0.71406021706547751 0.63292083137662503 0 0.71809016091162536 0.58185040402320831 0 0.67529834988829951 0.61613270668143583 0 0.71809016091162536 0.58185040402320831 0 0.67569444444444449 0.53500863336860327 0 0.67323294229744413 0.57556450033612505 0 0.71809016091162536 0.58185040402320831 0 0.67529834988829951 0.61613270668143583 0 0.67323294229744413 0.57556450033612505 0 0.71809016091162536 0.58185040402320831 0 0.7152569930854884 0.5237994455134295 0 0.77151014687832564 0.54436834383023036 0 0.7152569930854884 0.5237994455134295 0 0.77151014687832564 0.54436834383023036 0 0.73947346780852752 0.49062440112282169 0 0.7152569930854884 0.5237994455134295 0 0.67569444444444449 0.53500863336860327 0 0.69385896817107129 0.48377516041410151 0 0.71809016091162536 0.58185040402320831 0 0.7152569930854884 0.5237994455134295 0 0.67569444444444449 0.53500863336860327 0 0.62042975506801734 0.54295974692364424 0 0.67569444444444449 0.53500863336860327 0 0.67323294229744413 0.57556450033612505 0 0.67569444444444449 0.53500863336860327 0 0.6541250972820879 0.49999999999999989 0 0.69385896817107129 0.48377516041410151 0 0.62042975506801734 0.54295974692364424 0 0.67569444444444449 0.53500863336860327 0 0.6541250972820879 0.49999999999999989 0 0.62042975506801734 0.54295974692364424 0 0.61547661924074692 0.48539576058873962 0 0.6541250972820879 0.49999999999999989 0 0.62042975506801734 0.54295974692364424 0 0.63065402604362242 0.59661356661633302 0 0.67323294229744413 0.57556450033612505 0 0.6405463747586706 0.63290524857395714 0 0.63065402604362242 0.59661356661633302 0 0.67529834988829951 0.61613270668143583 0 0.63065402604362242 0.59661356661633302 0 0.67529834988829951 0.61613270668143583 0 0.67323294229744413 0.57556450033612505 0 0.60000000000138687 1 0 0.62065498684670595 0.95224934003983619 0 0.57382506491224949 0.9629411906298494 0 0.60000000000138687 1 0 0.62065498684670595 0.95224934003983619 0 0.65000000000104008 1 0 0.62065498684670595 0.95224934003983619 0 0.57382506491224949 0.9629411906298494 0 0.57724883562309992 0.92155686857100794 0 0.60000000000138687 1 0 0.57382506491224949 0.9629411906298494 0 0.55000000000173355 1 0 0.55000000000173355 1 0 0.50000000000205869 1 0 0.52122150208832174 0.94089974453840242 0 0.57382506491224949 0.9629411906298494 0 0.52122150208832174 0.94089974453840242 0 0.57724883562309992 0.92155686857100794 0 0.57382506491224949 0.9629411906298494 0 0.55000000000173355 1 0 0.52122150208832174 0.94089974453840242 0 0.52122150208832174 0.94089974453840242 0 0.54783390826260769 0.89287767010860219 0 0.57724883562309992 0.92155686857100794 0 0.52122150208832174 0.94089974453840242 0 0.50202631463681879 0.87892870825713787 0 0.54783390826260769 0.89287767010860219 0 0.54783390826260769 0.89287767010860219 0 0.5832743223239254 0.88483152652961872 0 0.55899371797446828 0.85003102233514438 0 0.54783390826260769 0.89287767010860219 0 0.5832743223239254 0.88483152652961872 0 0.57724883562309992 0.92155686857100794 0 0.5832743223239254 0.88483152652961872 0 0.57724883562309992 0.92155686857100794 0 0.61885627562261258 0.90282959257498208 0 0.62065498684670595 0.95224934003983619 0 0.57724883562309992 0.92155686857100794 0 0.61885627562261258 0.90282959257498208 0 0.5832743223239254 0.88483152652961872 0 0.61885627562261258 0.90282959257498208 0 0.61343887413683884 0.856862479058357 0 0.61343887413683884 0.856862479058357 0 0.60294066490120068 0.80851322453934582 0 0.65005442820240822 0.82644988530054031 0 0.61343887413683884 0.856862479058357 0 0.55899371797446828 0.85003102233514438 0 0.60294066490120068 0.80851322453934582 0 0.55899371797446828 0.85003102233514438 0 0.54782696902220018 0.79245182748204157 0 0.60294066490120068 0.80851322453934582 0 0.5832743223239254 0.88483152652961872 0 0.61343887413683884 0.856862479058357 0 0.55899371797446828 0.85003102233514438 0 0.50202631463681879 0.87892870825713787 0 0.54783390826260769 0.89287767010860219 0 0.55899371797446828 0.85003102233514438 0 0.50202631463681879 0.87892870825713787 0 0.55899371797446828 0.85003102233514438 0 0.50627822638148745 0.8263979829520941 0 0.55899371797446828 0.85003102233514438 0 0.50627822638148745 0.8263979829520941 0 0.54782696902220018 0.79245182748204157 0 0.50627822638148745 0.8263979829520941 0 0.54782696902220018 0.79245182748204157 0 0.50731287292894423 0.78963574450233831 0 0.54782696902220018 0.79245182748204157 0 0.50731287292894423 0.78963574450233831 0 0.50945740445113552 0.75476055527778108 0 0.55363780716230748 0.74348740161571747 0 0.54782696902220018 0.79245182748204157 0 0.50945740445113552 0.75476055527778108 0 0.55363780716230748 0.74348740161571747 0 0.54782696902220018 0.79245182748204157 0 0.59636844454254345 0.75937156204589151 0 0.54782696902220018 0.79245182748204157 0 0.60294066490120068 0.80851322453934582 0 0.59636844454254345 0.75937156204589151 0 0.60294066490120068 0.80851322453934582 0 0.59636844454254345 0.75937156204589151 0 0.64753070846764316 0.77332939069435502 0 0.63221990677827677 0.73442891067859706 0 0.59636844454254345 0.75937156204589151 0 0.64753070846764316 0.77332939069435502 0 0.60294066490120068 0.80851322453934582 0 0.64753070846764316 0.77332939069435502 0 0.65005442820240822 0.82644988530054031 0 0.64753070846764316 0.77332939069435502 0 0.68024162096458085 0.79868546898116533 0 0.65005442820240822 0.82644988530054031 0 0.64753070846764316 0.77332939069435502 0 0.68024162096458085 0.79868546898116533 0 0.6916490518212759 0.75387992374886192 0 0.66427993341343905 0.73232764502436276 0 0.64753070846764316 0.77332939069435502 0 0.6916490518212759 0.75387992374886192 0 0.72501250972655151 0.74067302935308721 0 0.6916490518212759 0.75387992374886192 0 0.72500000000000064 0.7952620967744265 0 0.72501250972655151 0.74067302935308721 0 0.72500000000000064 0.7952620967744265 0 0.75841349681148107 0.75422312624214749 0 0.68024162096458085 0.79868546898116533 0 0.6916490518212759 0.75387992374886192 0 0.72500000000000064 0.7952620967744265 0 0.68024162096458085 0.79868546898116533 0 0.72500000000000064 0.7952620967744265 0 0.68697391633157634 0.84450604838764298 0 0.72500000000000064 0.7952620967744265 0 0.72863726579783861 0.85390518901155588 0 0.68697391633157634 0.84450604838764298 0 0.72500000000000064 0.7952620967744265 0 0.72863726579783861 0.85390518901155588 0 0.76901770135486491 0.84293557325473656 0 0.72863726579783861 0.85390518901155588 0 0.68697391633157634 0.84450604838764298 0 0.7250000000005199 0.89375000000045834 0 0.68697391633157634 0.84450604838764298 0 0.66412543161245952 0.88015090885499059 0 0.7250000000005199 0.89375000000045834 0 0.68697391633157634 0.84450604838764298 0 0.65005442820240822 0.82644988530054031 0 0.66412543161245952 0.88015090885499059 0 0.68024162096458085 0.79868546898116533 0 0.68697391633157634 0.84450604838764298 0 0.65005442820240822 0.82644988530054031 0 0.61343887413683884 0.856862479058357 0 0.65005442820240822 0.82644988530054031 0 0.66412543161245952 0.88015090885499059 0 0.61885627562261258 0.90282959257498208 0 0.61343887413683884 0.856862479058357 0 0.66412543161245952 0.88015090885499059 0 0.61885627562261258 0.90282959257498208 0 0.65507451745379841 0.92229208810758578 0 0.66412543161245952 0.88015090885499059 0 0.62065498684670595 0.95224934003983619 0 0.61885627562261258 0.90282959257498208 0 0.65507451745379841 0.92229208810758578 0 0.65507451745379841 0.92229208810758578 0 0.68987011941058407 0.92105047536677087 0 0.68015064798562208 0.95924320340003011 0 0.65507451745379841 0.92229208810758578 0 0.66412543161245952 0.88015090885499059 0 0.68987011941058407 0.92105047536677087 0 0.66412543161245952 0.88015090885499059 0 0.7250000000005199 0.89375000000045834 0 0.68987011941058407 0.92105047536677087 0 0.72863726579783861 0.85390518901155588 0 0.7250000000005199 0.89375000000045834 0 0.76891166905518427 0.88835469571185499 0 0.7250000000005199 0.89375000000045834 0 0.7250000000005199 0.94981617647078953 0 0.75729602384198635 0.92353652857884294 0 0.7250000000005199 0.89375000000045834 0 0.68987011941058407 0.92105047536677087 0 0.7250000000005199 0.94981617647078953 0 0.68987011941058407 0.92105047536677087 0 0.7250000000005199 0.94981617647078953 0 0.68015064798562208 0.95924320340003011 0 0.7250000000005199 0.94981617647078953 0 0.7000000000006934 1 0 0.75000000000034661 1 0 0.7250000000005199 0.94981617647078953 0 0.75000000000034661 1 0 0.770759834363826 0.95919399014344442 0 0.7250000000005199 0.94981617647078953 0 0.7000000000006934 1 0 0.68015064798562208 0.95924320340003011 0 0.7000000000006934 1 0 0.68015064798562208 0.95924320340003011 0 0.65000000000104008 1 0 0.62065498684670595 0.95224934003983619 0 0.65507451745379841 0.92229208810758578 0 0.68015064798562208 0.95924320340003011 0 0.62065498684670595 0.95224934003983619 0 0.68015064798562208 0.95924320340003011 0 0.65000000000104008 1 0 0.84999999999965292 1 0 0.85170973911348691 0.93569607295217616 0 0.89898474358632463 0.95391965591118966 0 0.84999999999965292 1 0 0.81486180804382891 0.96321394949790495 0 0.85170973911348691 0.93569607295217616 0 0.81486180804382891 0.96321394949790495 0 0.79680861578988083 0.92656778056766709 0 0.85170973911348691 0.93569607295217616 0 0.84999999999965292 1 0 0.81486180804382891 0.96321394949790495 0 0.79999999999999982 1 0 0.81486180804382891 0.96321394949790495 0 0.79999999999999982 1 0 0.770759834363826 0.95919399014344442 0 0.79999999999999982 1 0 0.75000000000034661 1 0 0.770759834363826 0.95919399014344442 0 0.7250000000005199 0.94981617647078953 0 0.770759834363826 0.95919399014344442 0 0.75729602384198635 0.92353652857884294 0 0.81486180804382891 0.96321394949790495 0 0.770759834363826 0.95919399014344442 0 0.79680861578988083 0.92656778056766709 0 0.79680861578988083 0.92656778056766709 0 0.75729602384198635 0.92353652857884294 0 0.76891166905518427 0.88835469571185499 0 0.770759834363826 0.95919399014344442 0 0.79680861578988083 0.92656778056766709 0 0.75729602384198635 0.92353652857884294 0 0.7250000000005199 0.89375000000045834 0 0.75729602384198635 0.92353652857884294 0 0.76891166905518427 0.88835469571185499 0 0.79680861578988083 0.92656778056766709 0 0.76891166905518427 0.88835469571185499 0 0.81159157511211755 0.88795995483179491 0 0.81159157511211755 0.88795995483179491 0 0.85170973911348691 0.93569607295217616 0 0.85600844944837662 0.88483418979512773 0 0.79680861578988083 0.92656778056766709 0 0.81159157511211755 0.88795995483179491 0 0.85170973911348691 0.93569607295217616 0 0.85170973911348691 0.93569607295217616 0 0.85600844944837662 0.88483418979512773 0 0.90416666666660628 0.9041666666666166 0 0.85600844944837662 0.88483418979512773 0 0.82709327591091286 0.84937141670920724 0 0.88088768115933802 0.84674609810493673 0 0.82709327591091286 0.84937141670920724 0 0.84725310900444062 0.80779732082917555 0 0.88088768115933802 0.84674609810493673 0 0.82709327591091286 0.84937141670920724 0 0.80041942726660109 0.81543261647703358 0 0.84725310900444062 0.80779732082917555 0 0.81159157511211755 0.88795995483179491 0 0.85600844944837662 0.88483418979512773 0 0.82709327591091286 0.84937141670920724 0 0.76891166905518427 0.88835469571185499 0 0.81159157511211755 0.88795995483179491 0 0.76901770135486491 0.84293557325473656 0 0.81159157511211755 0.88795995483179491 0 0.82709327591091286 0.84937141670920724 0 0.76901770135486491 0.84293557325473656 0 0.72863726579783861 0.85390518901155588 0 0.76891166905518427 0.88835469571185499 0 0.76901770135486491 0.84293557325473656 0 0.76901770135486491 0.84293557325473656 0 0.80041942726660109 0.81543261647703358 0 0.77094201086366854 0.79647480515688507 0 0.82709327591091286 0.84937141670920724 0 0.76901770135486491 0.84293557325473656 0 0.80041942726660109 0.81543261647703358 0 0.80041942726660109 0.81543261647703358 0 0.77094201086366854 0.79647480515688507 0 0.80185942888539485 0.77452061303608133 0 0.72500000000000064 0.7952620967744265 0 0.77094201086366854 0.79647480515688507 0 0.75841349681148107 0.75422312624214749 0 0.72500000000000064 0.7952620967744265 0 0.76901770135486491 0.84293557325473656 0 0.77094201086366854 0.79647480515688507 0 0.77094201086366854 0.79647480515688507 0 0.75841349681148107 0.75422312624214749 0 0.80185942888539485 0.77452061303608133 0 0.75841349681148107 0.75422312624214749 0 0.80185942888539485 0.77452061303608133 0 0.78578450296893509 0.73292684821144505 0 0.80185942888539485 0.77452061303608133 0 0.84725310900444062 0.80779732082917555 0 0.85491058998424563 0.76004753345552634 0 0.80185942888539485 0.77452061303608133 0 0.85491058998424563 0.76004753345552634 0 0.81864958914779962 0.73589050177899629 0 0.80041942726660109 0.81543261647703358 0 0.80185942888539485 0.77452061303608133 0 0.84725310900444062 0.80779732082917555 0 0.84725310900444062 0.80779732082917555 0 0.85491058998424563 0.76004753345552634 0 0.90299850604011456 0.79563452813489832 0 0.85491058998424563 0.76004753345552634 0 0.90299850604011456 0.79563452813489832 0 0.89999166460796554 0.74528934923809909 0 0.90299850604011456 0.79563452813489832 0 0.94399509803918602 0.75600490196082126 0 0.95386563387742829 0.80414874155775029 0 0.90299850604011456 0.79563452813489832 0 0.94399509803918602 0.75600490196082126 0 0.89999166460796554 0.74528934923809909 0 0.94399509803918602 0.75600490196082126 0 0.97435614836745565 0.77499999999987745 0 0.95386563387742829 0.80414874155775029 0 0.94399509803918602 0.75600490196082126 0 0.97435614836745565 0.77499999999987745 0 0.97166519676947294 0.73337114490064459 0 0.97435614836745565 0.77499999999987745 0 0.97166519676947294 0.73337114490064459 0 1 0.74999999999993494 0 0.97435614836745565 0.77499999999987745 0 1 0.7999999999998193 0 1 0.74999999999993494 0 0.97435614836745565 0.77499999999987745 0 1 0.7999999999998193 0 0.95386563387742829 0.80414874155775029 0 1 0.84999999999982645 0 0.93677536231884972 0.85000000000000286 0 0.95391631417670719 0.89584263333814784 0 0.95386563387742829 0.80414874155775029 0 1 0.84999999999982645 0 0.93677536231884972 0.85000000000000286 0 1 0.7999999999998193 0 0.95386563387742829 0.80414874155775029 0 1 0.84999999999982645 0 0.93677536231884972 0.85000000000000286 0 0.88088768115933802 0.84674609810493673 0 0.90416666666660628 0.9041666666666166 0 0.90299850604011456 0.79563452813489832 0 0.95386563387742829 0.80414874155775029 0 0.93677536231884972 0.85000000000000286 0 0.90299850604011456 0.79563452813489832 0 0.93677536231884972 0.85000000000000286 0 0.88088768115933802 0.84674609810493673 0 0.84725310900444062 0.80779732082917555 0 0.90299850604011456 0.79563452813489832 0 0.88088768115933802 0.84674609810493673 0 0.85600844944837662 0.88483418979512773 0 0.88088768115933802 0.84674609810493673 0 0.90416666666660628 0.9041666666666166 0 0.85170973911348691 0.93569607295217616 0 0.90416666666660628 0.9041666666666166 0 0.89898474358632463 0.95391965591118966 0 0.90416666666660628 0.9041666666666166 0 0.95391631417670719 0.89584263333814784 0 0.94399509803919068 0.9439950980391687 0 0.90416666666660628 0.9041666666666166 0 0.94399509803919068 0.9439950980391687 0 0.89898474358632463 0.95391965591118966 0 0.93677536231884972 0.85000000000000286 0 0.90416666666660628 0.9041666666666166 0 0.95391631417670719 0.89584263333814784 0 1 0.84999999999982645 0 0.95391631417670719 0.89584263333814784 0 1 0.8999999999998336 0 1 0.8999999999998336 0 0.97435614836744289 0.92499999999990257 0 1 0.94999999999997109 0 0.95391631417670719 0.89584263333814784 0 1 0.8999999999998336 0 0.97435614836744289 0.92499999999990257 0 0.95391631417670719 0.89584263333814784 0 0.97435614836744289 0.92499999999990257 0 0.94399509803919068 0.9439950980391687 0 0.97435614836744289 0.92499999999990257 0 0.94399509803919068 0.9439950980391687 0 0.97166519676946206 0.96662885509935492 0 0.97435614836744289 0.92499999999990257 0 0.97166519676946206 0.96662885509935492 0 1 0.94999999999997109 0 0.97166519676946206 0.96662885509935492 0 1 0.94999999999997109 0 1 1 0 0.97166519676946206 0.96662885509935492 0 1 1 0 0.94999999999979179 1 0 0.94399509803919068 0.9439950980391687 0 0.97166519676946206 0.96662885509935492 0 0.94999999999979179 1 0 0.94999999999979179 1 0 0.89898474358632463 0.95391965591118966 0 0.89999999999958358 1 0 0.94399509803919068 0.9439950980391687 0 0.94999999999979179 1 0 0.89898474358632463 0.95391965591118966 0 0.84999999999965292 1 0 0.89898474358632463 0.95391965591118966 0 0.89999999999958358 1 0 0.81723410853263523 0.59419663659258926 0 0.86956835336234861 0.571283299838105 0 0.82862096804812391 0.55037090955459045 0 0.81723410853263523 0.59419663659258926 0 0.87159648282691515 0.61285406320581504 0 0.83758014339878906 0.63222013025741819 0 0.81723410853263523 0.59419663659258926 0 0.79884539758237771 0.62875045078114233 0 0.83758014339878906 0.63222013025741819 0 0.81723410853263523 0.59419663659258926 0 0.87159648282691515 0.61285406320581504 0 0.86956835336234861 0.571283299838105 0 0.86956835336234861 0.571283299838105 0 0.86907294890112186 0.52008116128001669 0 0.82862096804812391 0.55037090955459045 0 0.86907294890112186 0.52008116128001669 0 0.81441713509985358 0.51161854125224959 0 0.82862096804812391 0.55037090955459045 0 0.86907294890112186 0.52008116128001669 0 0.81441713509985358 0.51161854125224959 0 0.84723782639812573 0.48638347960178252 0 0.81441713509985358 0.51161854125224959 0 0.82862096804812391 0.55037090955459045 0 0.77151014687832564 0.54436834383023036 0 0.81441713509985358 0.51161854125224959 0 0.77151014687832564 0.54436834383023036 0 0.77846603114747959 0.49850927265137401 0 0.77151014687832564 0.54436834383023036 0 0.77846603114747959 0.49850927265137401 0 0.73947346780852752 0.49062440112282169 0 0.71809016091162536 0.58185040402320831 0 0.77151014687832564 0.54436834383023036 0 0.77293540622714185 0.59448302402785813 0 0.81723410853263523 0.59419663659258926 0 0.77151014687832564 0.54436834383023036 0 0.77293540622714185 0.59448302402785813 0 0.81723410853263523 0.59419663659258926 0 0.82862096804812391 0.55037090955459045 0 0.77151014687832564 0.54436834383023036 0 0.81723410853263523 0.59419663659258926 0 0.77293540622714185 0.59448302402785813 0 0.79884539758237771 0.62875045078114233 0 0.74994237037456724 0.62775548192980357 0 0.77293540622714185 0.59448302402785813 0 0.79884539758237771 0.62875045078114233 0 0.74994237037456724 0.62775548192980357 0 0.7750489929959945 0.66593931409600093 0 0.79884539758237771 0.62875045078114233 0 0.74999999999999989 0.69999999999999996 0 0.72500000000000064 0.67022701834392062 0 0.7750489929959945 0.66593931409600093 0 0.7750489929959945 0.66593931409600093 0 0.79999999999999982 0.69999999999999996 0 0.82457059160610424 0.66831947184359608 0 0.7750489929959945 0.66593931409600093 0 0.79884539758237771 0.62875045078114233 0 0.82457059160610424 0.66831947184359608 0 0.74999999999999989 0.69999999999999996 0 0.75841349681148107 0.75422312624214749 0 0.78578450296893509 0.73292684821144505 0 0.74999999999999989 0.69999999999999996 0 0.79999999999999982 0.69999999999999996 0 0.78578450296893509 0.73292684821144505 0 0.74999999999999989 0.69999999999999996 0 0.7750489929959945 0.66593931409600093 0 0.79999999999999982 0.69999999999999996 0 0.74999999999999989 0.69999999999999996 0 0.79999999999999982 0.69999999999999996 0 0.80185942888539485 0.77452061303608133 0 0.78578450296893509 0.73292684821144505 0 0.81864958914779962 0.73589050177899629 0 0.79999999999999982 0.69999999999999996 0 0.78578450296893509 0.73292684821144505 0 0.81864958914779962 0.73589050177899629 0 0.85491058998424563 0.76004753345552634 0 0.81864958914779962 0.73589050177899629 0 0.84999999999999987 0.69999999999999996 0 0.79999999999999982 0.69999999999999996 0 0.84999999999999987 0.69999999999999996 0 0.79999999999999982 0.69999999999999996 0 0.84999999999999987 0.69999999999999996 0 0.82457059160610424 0.66831947184359608 0 0.79999999999999982 0.69999999999999996 0 0.81864958914779962 0.73589050177899629 0 0.84999999999999987 0.69999999999999996 0 0.84999999999999987 0.69999999999999996 0 0.89999999999999991 0.69999999999999996 0 0.85491058998424563 0.76004753345552634 0 0.84999999999999987 0.69999999999999996 0 0.89999166460796554 0.74528934923809909 0 0.79884539758237771 0.62875045078114233 0 0.83758014339878906 0.63222013025741819 0 0.82457059160610424 0.66831947184359608 0 0.84999999999999987 0.69999999999999996 0 0.82457059160610424 0.66831947184359608 0 0.87712158428786946 0.65709029563313581 0 0.87159648282691515 0.61285406320581504 0 0.83758014339878906 0.63222013025741819 0 0.87712158428786946 0.65709029563313581 0 0.83758014339878906 0.63222013025741819 0 0.82457059160610424 0.66831947184359608 0 0.87712158428786946 0.65709029563313581 0 0.87712158428786946 0.65709029563313581 0 0.92057473616084773 0.66770436535372446 0 0.91750694127105259 0.63017627779935648 0 0.87159648282691515 0.61285406320581504 0 0.87712158428786946 0.65709029563313581 0 0.91750694127105259 0.63017627779935648 0 0.84999999999999987 0.69999999999999996 0 0.87712158428786946 0.65709029563313581 0 0.89999999999999991 0.69999999999999996 0 0.87712158428786946 0.65709029563313581 0 0.92057473616084773 0.66770436535372446 0 0.89999999999999991 0.69999999999999996 0 0.92057473616084773 0.66770436535372446 0 0.91750694127105259 0.63017627779935648 0 0.9578014258160763 0.65787212321113708 0 0.84999999999999987 0.69999999999999996 0 0.89999166460796554 0.74528934923809909 0 0.89999999999999991 0.69999999999999996 0 0.89999999999999991 0.69999999999999996 0 0.94999999999999996 0.69999999999999996 0 0.92057473616084773 0.66770436535372446 0 0.89999999999999991 0.69999999999999996 0 0.94999999999999996 0.69999999999999996 0 0.89999166460796554 0.74528934923809909 0 0.89999999999999991 0.69999999999999996 0 0.94999999999999996 0.69999999999999996 0 0.94399509803918602 0.75600490196082126 0 0.89999166460796554 0.74528934923809909 0 0.94999999999999996 0.69999999999999996 0 0.94399509803918602 0.75600490196082126 0 0.94999999999999996 0.69999999999999996 0 0.97166519676947294 0.73337114490064459 0 0.94999999999999996 0.69999999999999996 0 1 0.69999999999999996 0 0.94999999999999996 0.69999999999999996 0 1 0.69999999999999996 0 0.97166519676947294 0.73337114490064459 0 1 0.69999999999999996 0 0.97166519676947294 0.73337114490064459 0 1 0.74999999999993494 0 0.91750694127105259 0.63017627779935648 0 0.9578014258160763 0.65787212321113708 0 0.95867599106212187 0.60011091146651041 0 0.92057473616084773 0.66770436535372446 0 0.94999999999999996 0.69999999999999996 0 0.9578014258160763 0.65787212321113708 0 0.94999999999999996 0.69999999999999996 0 1 0.69999999999999996 0 0.9578014258160763 0.65787212321113708 0 1 0.69999999999999996 0 0.9578014258160763 0.65787212321113708 0 1 0.64999999999986979 0 0.9578014258160763 0.65787212321113708 0 1 0.64999999999986979 0 0.95867599106212187 0.60011091146651041 0 0.95867599106212187 0.60011091146651041 0 0.93732437411268477 0.55911392101136159 0 1 0.54999999999963112 0 1 0.64999999999986979 0 1 0.59999999999973963 0 0.95867599106212187 0.60011091146651041 0 1 0.59999999999973963 0 0.95867599106212187 0.60011091146651041 0 1 0.54999999999963112 0 0.91750694127105259 0.63017627779935648 0 0.95867599106212187 0.60011091146651041 0 0.91143117093204207 0.58709913730335972 0 0.95867599106212187 0.60011091146651041 0 0.91143117093204207 0.58709913730335972 0 0.93732437411268477 0.55911392101136159 0 0.86956835336234861 0.571283299838105 0 0.91143117093204207 0.58709913730335972 0 0.90900154012161016 0.53607784105648792 0 0.87159648282691515 0.61285406320581504 0 0.86956835336234861 0.571283299838105 0 0.91143117093204207 0.58709913730335972 0 0.87159648282691515 0.61285406320581504 0 0.91750694127105259 0.63017627779935648 0 0.91143117093204207 0.58709913730335972 0 0.86907294890112186 0.52008116128001669 0 0.90900154012161016 0.53607784105648792 0 0.91696753777131557 0.497780560203536 0 0.86956835336234861 0.571283299838105 0 0.86907294890112186 0.52008116128001669 0 0.90900154012161016 0.53607784105648792 0 0.90900154012161016 0.53607784105648792 0 0.93732437411268477 0.55911392101136159 0 0.95631871884947484 0.51827533208233789 0 0.91143117093204207 0.58709913730335972 0 0.90900154012161016 0.53607784105648792 0 0.93732437411268477 0.55911392101136159 0 0.90900154012161016 0.53607784105648792 0 0.95631871884947484 0.51827533208233789 0 0.91696753777131557 0.497780560203536 0 0.93732437411268477 0.55911392101136159 0 0.95631871884947484 0.51827533208233789 0 1 0.54999999999963112 0 0.95631871884947484 0.51827533208233789 0 1 0.54999999999963112 0 1 0.49999999999950101 0 0.95631871884947484 0.51827533208233789 0 1 0.49999999999950101 0 0.96228564064454991 0.48206450662049471 0 1 0.49999999999950101 0 1 0.44999999999963131 0 0.96228564064454991 0.48206450662049471 0 1 0.44999999999963131 0 0.93814194660195893 0.44426664081746747 0 0.96228564064454991 0.48206450662049471 0 0.93814194660195893 0.44426664081746747 0 0.96228564064454991 0.48206450662049471 0 0.91696753777131557 0.497780560203536 0 0.95631871884947484 0.51827533208233789 0 0.96228564064454991 0.48206450662049471 0 0.91696753777131557 0.497780560203536 0 1 0.39999999999978308 0 0.95871855522754235 0.40006508612975411 0 1 0.34999999999993492 0 1 0.44999999999963131 0 1 0.39999999999978308 0 0.95871855522754235 0.40006508612975411 0 1 0.44999999999963131 0 0.93814194660195893 0.44426664081746747 0 0.95871855522754235 0.40006508612975411 0 0.95871855522754235 0.40006508612975411 0 0.90594285160987287 0.4141265964174129 0 0.91750694127107502 0.36982372220068471 0 0.93814194660195893 0.44426664081746747 0 0.95871855522754235 0.40006508612975411 0 0.90594285160987287 0.4141265964174129 0 0.90594285160987287 0.4141265964174129 0 0.88594198078881503 0.46167788676578442 0 0.86411095495256451 0.42388805655111889 0 0.90594285160987287 0.4141265964174129 0 0.86411095495256451 0.42388805655111889 0 0.86844634540301924 0.38530937474099819 0 0.90594285160987287 0.4141265964174129 0 0.86844634540301924 0.38530937474099819 0 0.91750694127107502 0.36982372220068471 0 0.93814194660195893 0.44426664081746747 0 0.91696753777131557 0.497780560203536 0 0.88594198078881503 0.46167788676578442 0 0.93814194660195893 0.44426664081746747 0 0.90594285160987287 0.4141265964174129 0 0.88594198078881503 0.46167788676578442 0 0.86907294890112186 0.52008116128001669 0 0.91696753777131557 0.497780560203536 0 0.88594198078881503 0.46167788676578442 0 0.86907294890112186 0.52008116128001669 0 0.88594198078881503 0.46167788676578442 0 0.84723782639812573 0.48638347960178252 0 0.81441713509985358 0.51161854125224959 0 0.84723782639812573 0.48638347960178252 0 0.81400510706333218 0.47357325943904899 0 0.84723782639812573 0.48638347960178252 0 0.81400510706333218 0.47357325943904899 0 0.84925632466077294 0.45359738909549091 0 0.81400510706333218 0.47357325943904899 0 0.84925632466077294 0.45359738909549091 0 0.81973119833356312 0.43505687159469048 0 0.88594198078881503 0.46167788676578442 0 0.84723782639812573 0.48638347960178252 0 0.84925632466077294 0.45359738909549091 0 0.84925632466077294 0.45359738909549091 0 0.86411095495256451 0.42388805655111889 0 0.81973119833356312 0.43505687159469048 0 0.88594198078881503 0.46167788676578442 0 0.84925632466077294 0.45359738909549091 0 0.86411095495256451 0.42388805655111889 0 0.86411095495256451 0.42388805655111889 0 0.86844634540301924 0.38530937474099819 0 0.81308179852519835 0.39754945808726527 0 0.86844634540301924 0.38530937474099819 0 0.81308179852519835 0.39754945808726527 0 0.83573492347052902 0.36590755630746369 0 0.86411095495256451 0.42388805655111889 0 0.81308179852519835 0.39754945808726527 0 0.81973119833356312 0.43505687159469048 0 0.81973119833356312 0.43505687159469048 0 0.77354604466818633 0.40378688774472771 0 0.77972660463949339 0.45529290596363098 0 0.81308179852519835 0.39754945808726527 0 0.81973119833356312 0.43505687159469048 0 0.77354604466818633 0.40378688774472771 0 0.81308179852519835 0.39754945808726527 0 0.77354604466818633 0.40378688774472771 0 0.78145581580700685 0.34881365920033602 0 0.77354604466818633 0.40378688774472771 0 0.77972660463949339 0.45529290596363098 0 0.73483647259922602 0.44789725365921768 0 0.77972660463949339 0.45529290596363098 0 0.73483647259922602 0.44789725365921768 0 0.73947346780852752 0.49062440112282169 0 0.77972660463949339 0.45529290596363098 0 0.77846603114747959 0.49850927265137401 0 0.73947346780852752 0.49062440112282169 0 0.81400510706333218 0.47357325943904899 0 0.77972660463949339 0.45529290596363098 0 0.77846603114747959 0.49850927265137401 0 0.81441713509985358 0.51161854125224959 0 0.81400510706333218 0.47357325943904899 0 0.77846603114747959 0.49850927265137401 0 0.81400510706333218 0.47357325943904899 0 0.81973119833356312 0.43505687159469048 0 0.77972660463949339 0.45529290596363098 0 0.79999999999999982 0.29999999999999999 0 0.77075983436335049 0.25919399014334171 0 0.81486180804364938 0.26321394949780091 0 0.79999999999999982 0.29999999999999999 0 0.74999999999999989 0.29999999999999999 0 0.79999999999999982 0.29999999999999999 0 0.77075983436335049 0.25919399014334171 0 0.74999999999999989 0.29999999999999999 0 0.79999999999999982 0.29999999999999999 0 0.78145581580700685 0.34881365920033602 0 0.74999999999999989 0.29999999999999999 0 0.78145581580700685 0.34881365920033602 0 0.73090396928863699 0.33699297293167962 0 0.74999999999999989 0.29999999999999999 0 0.77354604466818633 0.40378688774472771 0 0.78145581580700685 0.34881365920033602 0 0.74764719760526988 0.3719647154012321 0 0.78145581580700685 0.34881365920033602 0 0.74764719760526988 0.3719647154012321 0 0.73090396928863699 0.33699297293167962 0 0.81308179852519835 0.39754945808726527 0 0.78145581580700685 0.34881365920033602 0 0.83573492347052902 0.36590755630746369 0 0.79999999999999982 0.29999999999999999 0 0.78145581580700685 0.34881365920033602 0 0.82500000000000062 0.33010209762754811 0 0.78145581580700685 0.34881365920033602 0 0.82500000000000062 0.33010209762754811 0 0.83573492347052902 0.36590755630746369 0 0.82500000000000062 0.33010209762754811 0 0.83573492347052902 0.36590755630746369 0 0.87430060258887643 0.34056085888204451 0 0.86844634540301924 0.38530937474099819 0 0.83573492347052902 0.36590755630746369 0 0.87430060258887643 0.34056085888204451 0 0.82500000000000062 0.33010209762754811 0 0.87430060258887643 0.34056085888204451 0 0.84999999999999987 0.29999999999999999 0 0.87430060258887643 0.34056085888204451 0 0.84999999999999987 0.29999999999999999 0 0.89999999999999991 0.29999999999999999 0 0.84999999999999987 0.29999999999999999 0 0.81486180804364938 0.26321394949780091 0 0.8517097391133297 0.2356960729520409 0 0.84999999999999987 0.29999999999999999 0 0.89898474358614167 0.25391965591104898 0 0.8517097391133297 0.2356960729520409 0 0.84999999999999987 0.29999999999999999 0 0.89999999999999991 0.29999999999999999 0 0.79999999999999982 0.29999999999999999 0 0.82500000000000062 0.33010209762754811 0 0.84999999999999987 0.29999999999999999 0 0.79999999999999982 0.29999999999999999 0 0.84999999999999987 0.29999999999999999 0 0.81486180804364938 0.26321394949780091 0 0.79999999999999982 0.29999999999999999 0 0.84999999999999987 0.29999999999999999 0 0.84999999999999987 0.29999999999999999 0 0.89898474358614167 0.25391965591104898 0 0.89999999999999991 0.29999999999999999 0 0.89999999999999991 0.29999999999999999 0 0.94999999999999996 0.29999999999999999 0 0.89999999999999991 0.29999999999999999 0 0.92012390126144183 0.33123581297173937 0 0.94999999999999996 0.29999999999999999 0 0.89898474358614167 0.25391965591104898 0 0.89999999999999991 0.29999999999999999 0 0.94999999999999996 0.29999999999999999 0 0.89898474358614167 0.25391965591104898 0 0.94999999999999996 0.29999999999999999 0 0.94399509803921056 0.24399509803922639 0 0.86844634540301924 0.38530937474099819 0 0.87430060258887643 0.34056085888204451 0 0.91750694127107502 0.36982372220068471 0 0.87430060258887643 0.34056085888204451 0 0.92012390126144183 0.33123581297173937 0 0.91750694127107502 0.36982372220068471 0 0.87430060258887643 0.34056085888204451 0 0.89999999999999991 0.29999999999999999 0 0.92012390126144183 0.33123581297173937 0 0.92012390126144183 0.33123581297173937 0 0.91750694127107502 0.36982372220068471 0 0.95780851984364423 0.34215720972155339 0 0.95871855522754235 0.40006508612975411 0 0.91750694127107502 0.36982372220068471 0 0.95780851984364423 0.34215720972155339 0 0.92012390126144183 0.33123581297173937 0 0.95780851984364423 0.34215720972155339 0 0.94999999999999996 0.29999999999999999 0 0.95780851984364423 0.34215720972155339 0 0.94999999999999996 0.29999999999999999 0 1 0.29999999999999999 0 0.95780851984364423 0.34215720972155339 0 1 0.34999999999993492 0 1 0.29999999999999999 0 0.95871855522754235 0.40006508612975411 0 0.95780851984364423 0.34215720972155339 0 1 0.34999999999993492 0 0.94999999999999996 0.29999999999999999 0 0.97166519676951801 0.26662885509932011 0 0.94399509803921056 0.24399509803922639 0 0.94999999999999996 0.29999999999999999 0 1 0.29999999999999999 0 0.94999999999999996 0.29999999999999999 0 1 0.29999999999999999 0 0.97166519676951801 0.26662885509932011 0 1 0.29999999999999999 0 0.97166519676951801 0.26662885509932011 0 1 0.24999999999987299 0 0.97166519676951801 0.26662885509932011 0 0.97435614836740092 0.22499999999981049 0 1 0.24999999999987299 0 0.97435614836740092 0.22499999999981049 0 1 0.24999999999987299 0 1 0.19999999999974799 0 0.97435614836740092 0.22499999999981049 0 0.94399509803921056 0.24399509803922639 0 0.95391631417672862 0.19584263333809451 0 0.97166519676951801 0.26662885509932011 0 0.97435614836740092 0.22499999999981049 0 0.94399509803921056 0.24399509803922639 0 0.97435614836740092 0.22499999999981049 0 0.95391631417672862 0.19584263333809451 0 1 0.19999999999974799 0 0.95391631417672862 0.19584263333809451 0 1 0.14999999999961891 0 0.93677536231883773 0.14999999999999089 0 1 0.14999999999961891 0 0.93677536231883773 0.14999999999999089 0 0.95386563387744361 0.1041487415577465 0 0.95391631417672862 0.19584263333809451 0 1 0.19999999999974799 0 1 0.14999999999961891 0 0.95391631417672862 0.19584263333809451 0 0.93677536231883773 0.14999999999999089 0 0.90416666666668166 0.20416666666667119 0 0.93677536231883773 0.14999999999999089 0 0.88088768115941807 0.14674609810479519 0 0.90416666666668166 0.20416666666667119 0 0.93677536231883773 0.14999999999999089 0 0.88088768115941807 0.14674609810479519 0 0.90299850604006393 0.09563452813493091 0 0.88088768115941807 0.14674609810479519 0 0.90416666666668166 0.20416666666667119 0 0.85600844944842547 0.1848341897950983 0 0.89898474358614167 0.25391965591104898 0 0.90416666666668166 0.20416666666667119 0 0.8517097391133297 0.2356960729520409 0 0.89898474358614167 0.25391965591104898 0 0.94399509803921056 0.24399509803922639 0 0.90416666666668166 0.20416666666667119 0 0.94399509803921056 0.24399509803922639 0 0.95391631417672862 0.19584263333809451 0 0.90416666666668166 0.20416666666667119 0 0.94999999999986839 0 0 0.97166519676946894 0.033371144900598393 0 0.94399509803922566 0.056004901960802607 0 0.94999999999986839 0 0 1 0 0 0.97166519676946894 0.033371144900598393 0 1 0 0 1 0.049999999999896842 0 0.97166519676946894 0.033371144900598393 0 1 0.049999999999896842 0 0.97166519676946894 0.033371144900598393 0 0.97435614836748241 0.074999999999825387 0 0.97166519676946894 0.033371144900598393 0 0.94399509803922566 0.056004901960802607 0 0.97435614836748241 0.074999999999825387 0 0.94399509803922566 0.056004901960802607 0 0.97435614836748241 0.074999999999825387 0 0.95386563387744361 0.1041487415577465 0 0.97435614836748241 0.074999999999825387 0 1 0.099999999999753911 0 0.95386563387744361 0.1041487415577465 0 1 0.049999999999896842 0 0.97435614836748241 0.074999999999825387 0 1 0.099999999999753911 0 1 0.14999999999961891 0 1 0.099999999999753911 0 0.95386563387744361 0.1041487415577465 0 0.93677536231883773 0.14999999999999089 0 0.95386563387744361 0.1041487415577465 0 0.90299850604006393 0.09563452813493091 0 0.88088768115941807 0.14674609810479519 0 0.90299850604006393 0.09563452813493091 0 0.84725310900442086 0.10779732082922661 0 0.90299850604006393 0.09563452813493091 0 0.899991664607802 0.045289349238254978 0 0.85491058998398861 0.060047533455626502 0 0.94399509803922566 0.056004901960802607 0 0.95386563387744361 0.1041487415577465 0 0.90299850604006393 0.09563452813493091 0 0.94399509803922566 0.056004901960802607 0 0.90299850604006393 0.09563452813493091 0 0.899991664607802 0.045289349238254978 0 0.94999999999986839 0 0 0.94399509803922566 0.056004901960802607 0 0.899991664607802 0.045289349238254978 0 0.899991664607802 0.045289349238254978 0 0.89999999999973679 0 0 0.84999999999960507 0 0 0.94999999999986839 0 0 0.899991664607802 0.045289349238254978 0 0.89999999999973679 0 0 0.84999999999960507 0 0 0.81864958914740749 0.035890501779055867 0 0.79999999999947335 0 0 0.899991664607802 0.045289349238254978 0 0.84999999999960507 0 0 0.85491058998398861 0.060047533455626502 0 0.85491058998398861 0.060047533455626502 0 0.81864958914740749 0.035890501779055867 0 0.80185942888501827 0.074520613036224564 0 0.84999999999960507 0 0 0.85491058998398861 0.060047533455626502 0 0.81864958914740749 0.035890501779055867 0 0.85491058998398861 0.060047533455626502 0 0.84725310900442086 0.10779732082922661 0 0.80185942888501827 0.074520613036224564 0 0.90299850604006393 0.09563452813493091 0 0.85491058998398861 0.060047533455626502 0 0.84725310900442086 0.10779732082922661 0 0.84725310900442086 0.10779732082922661 0 0.80076557130237269 0.1154587552654202 0 0.80185942888501827 0.074520613036224564 0 0.84725310900442086 0.10779732082922661 0 0.80076557130237269 0.1154587552654202 0 0.82709327591102189 0.14937141670914489 0 0.80076557130237269 0.1154587552654202 0 0.76878382444651716 0.097147941686331368 0 0.80185942888501827 0.074520613036224564 0 0.76878382444651716 0.097147941686331368 0 0.77144070960558853 0.14311854477243749 0 0.72525833953073282 0.1032114801687094 0 0.80076557130237269 0.1154587552654202 0 0.76878382444651716 0.097147941686331368 0 0.77144070960558853 0.14311854477243749 0 0.76878382444651716 0.097147941686331368 0 0.80185942888501827 0.074520613036224564 0 0.7527966693318906 0.053051678021508272 0 0.81864958914740749 0.035890501779055867 0 0.80185942888501827 0.074520613036224564 0 0.78393852574753176 0.032039079577822822 0 0.80185942888501827 0.074520613036224564 0 0.78393852574753176 0.032039079577822822 0 0.7527966693318906 0.053051678021508272 0 0.78393852574753176 0.032039079577822822 0 0.7527966693318906 0.053051678021508272 0 0.74999999999934175 0 0 0.78393852574753176 0.032039079577822822 0 0.79999999999947335 0 0 0.74999999999934175 0 0 0.81864958914740749 0.035890501779055867 0 0.78393852574753176 0.032039079577822822 0 0.79999999999947335 0 0 0.81283102246527783 0.1881007222486438 0 0.8517097391133297 0.2356960729520409 0 0.79680861578956375 0.22656778056752541 0 0.81283102246527783 0.1881007222486438 0 0.8517097391133297 0.2356960729520409 0 0.85600844944842547 0.1848341897950983 0 0.81486180804364938 0.26321394949780091 0 0.8517097391133297 0.2356960729520409 0 0.79680861578956375 0.22656778056752541 0 0.90416666666668166 0.20416666666667119 0 0.8517097391133297 0.2356960729520409 0 0.85600844944842547 0.1848341897950983 0 0.88088768115941807 0.14674609810479519 0 0.85600844944842547 0.1848341897950983 0 0.82709327591102189 0.14937141670914489 0 0.88088768115941807 0.14674609810479519 0 0.84725310900442086 0.10779732082922661 0 0.82709327591102189 0.14937141670914489 0 0.81283102246527783 0.1881007222486438 0 0.85600844944842547 0.1848341897950983 0 0.82709327591102189 0.14937141670914489 0 0.81283102246527783 0.1881007222486438 0 0.77144070960558853 0.14311854477243749 0 0.76587607630038135 0.18880039518954719 0 0.81283102246527783 0.1881007222486438 0 0.82709327591102189 0.14937141670914489 0 0.77144070960558853 0.14311854477243749 0 0.80076557130237269 0.1154587552654202 0 0.82709327591102189 0.14937141670914489 0 0.77144070960558853 0.14311854477243749 0 0.77144070960558853 0.14311854477243749 0 0.76587607630038135 0.18880039518954719 0 0.72634814642510737 0.16106886917518889 0 0.76587607630038135 0.18880039518954719 0 0.79680861578956375 0.22656778056752541 0 0.75668890529066124 0.2244279804069782 0 0.81283102246527783 0.1881007222486438 0 0.76587607630038135 0.18880039518954719 0 0.79680861578956375 0.22656778056752541 0 0.77075983436335049 0.25919399014334171 0 0.81486180804364938 0.26321394949780091 0 0.79680861578956375 0.22656778056752541 0 0.77075983436335049 0.25919399014334171 0 0.79680861578956375 0.22656778056752541 0 0.75668890529066124 0.2244279804069782 0 0.77075983436335049 0.25919399014334171 0 0.75668890529066124 0.2244279804069782 0 0.72500000000000064 0.2498161764706 0 0.75668890529066124 0.2244279804069782 0 0.72500000000000064 0.2498161764706 0 0.72500000000001008 0.19776155966387679 0 0.72500000000000064 0.2498161764706 0 0.69397719155551807 0.2245125647000914 0 0.72500000000001008 0.19776155966387679 0 0.72500000000000064 0.2498161764706 0 0.69397719155551807 0.2245125647000914 0 0.67933712972090698 0.25920070958121938 0 0.69397719155551807 0.2245125647000914 0 0.72500000000001008 0.19776155966387679 0 0.6865991819015953 0.189116534044597 0 0.76587607630038135 0.18880039518954719 0 0.75668890529066124 0.2244279804069782 0 0.72500000000001008 0.19776155966387679 0 0.76587607630038135 0.18880039518954719 0 0.72500000000001008 0.19776155966387679 0 0.72634814642510737 0.16106886917518889 0 0.77144070960558853 0.14311854477243749 0 0.72634814642510737 0.16106886917518889 0 0.72525833953073282 0.1032114801687094 0 0.72634814642510737 0.16106886917518889 0 0.68391457121233579 0.14440470121196541 0 0.72525833953073282 0.1032114801687094 0 0.72500000000001008 0.19776155966387679 0 0.72634814642510737 0.16106886917518889 0 0.6865991819015953 0.189116534044597 0 0.72634814642510737 0.16106886917518889 0 0.68391457121233579 0.14440470121196541 0 0.6865991819015953 0.189116534044597 0 0.68391457121233579 0.14440470121196541 0 0.64011864159029941 0.18789607982138171 0 0.6865991819015953 0.189116534044597 0 0.68391457121233579 0.14440470121196541 0 0.65290632656860115 0.11434202593454081 0 0.6236733212988993 0.14864538214901801 0 0.68391457121233579 0.14440470121196541 0 0.64011864159029941 0.18789607982138171 0 0.6236733212988993 0.14864538214901801 0 0.64011864159029941 0.18789607982138171 0 0.65394964615507722 0.22666784374016369 0 0.59814117807200873 0.23398510860739519 0 0.65394964615507722 0.22666784374016369 0 0.59814117807200873 0.23398510860739519 0 0.62657463266645097 0.26524202571255862 0 0.69397719155551807 0.2245125647000914 0 0.65394964615507722 0.22666784374016369 0 0.67933712972090698 0.25920070958121938 0 0.64011864159029941 0.18789607982138171 0 0.65394964615507722 0.22666784374016369 0 0.6865991819015953 0.189116534044597 0 0.69397719155551807 0.2245125647000914 0 0.65394964615507722 0.22666784374016369 0 0.6865991819015953 0.189116534044597 0 0.69999999999921003 0 0 0.72683645290270404 0.027797073151180601 0 0.7010294155333181 0.056779085686491267 0 0.69999999999921003 0 0 0.7010294155333181 0.056779085686491267 0 0.66369801598854572 0.036327466368102787 0 0.7527966693318906 0.053051678021508272 0 0.74999999999934175 0 0 0.72683645290270404 0.027797073151180601 0 0.69999999999921003 0 0 0.74999999999934175 0 0 0.72683645290270404 0.027797073151180601 0 0.7527966693318906 0.053051678021508272 0 0.72683645290270404 0.027797073151180601 0 0.7010294155333181 0.056779085686491267 0 0.7010294155333181 0.056779085686491267 0 0.72525833953073282 0.1032114801687094 0 0.68330259535470161 0.10038702501083881 0 0.7527966693318906 0.053051678021508272 0 0.7010294155333181 0.056779085686491267 0 0.72525833953073282 0.1032114801687094 0 0.76878382444651716 0.097147941686331368 0 0.7527966693318906 0.053051678021508272 0 0.72525833953073282 0.1032114801687094 0 0.68391457121233579 0.14440470121196541 0 0.72525833953073282 0.1032114801687094 0 0.68330259535470161 0.10038702501083881 0 0.68330259535470161 0.10038702501083881 0 0.65290632656860115 0.11434202593454081 0 0.65408113592120842 0.073941773121567966 0 0.68391457121233579 0.14440470121196541 0 0.68330259535470161 0.10038702501083881 0 0.65290632656860115 0.11434202593454081 0 0.65290632656860115 0.11434202593454081 0 0.61956000905586006 0.1043312481793135 0 0.6236733212988993 0.14864538214901801 0 0.65290632656860115 0.11434202593454081 0 0.65408113592120842 0.073941773121567966 0 0.61956000905586006 0.1043312481793135 0 0.65408113592120842 0.073941773121567966 0 0.61940220174112337 0.047251958781050582 0 0.61956000905586006 0.1043312481793135 0 0.7010294155333181 0.056779085686491267 0 0.68330259535470161 0.10038702501083881 0 0.65408113592120842 0.073941773121567966 0 0.7010294155333181 0.056779085686491267 0 0.65408113592120842 0.073941773121567966 0 0.66369801598854572 0.036327466368102787 0 0.65408113592120842 0.073941773121567966 0 0.66369801598854572 0.036327466368102787 0 0.61940220174112337 0.047251958781050582 0 0.66369801598854572 0.036327466368102787 0 0.64999999999907843 0 0 0.61940220174112337 0.047251958781050582 0 0.69999999999921003 0 0 0.66369801598854572 0.036327466368102787 0 0.64999999999907843 0 0 0.59999999999894682 0 0 0.57396793757665954 0.037011367187645222 0 0.5499999999988151 0 0 0.64999999999907843 0 0 0.59999999999894682 0 0 0.61940220174112337 0.047251958781050582 0 0.59999999999894682 0 0 0.61940220174112337 0.047251958781050582 0 0.57396793757665954 0.037011367187645222 0 0.61940220174112337 0.047251958781050582 0 0.57396793757665954 0.037011367187645222 0 0.57667858002728545 0.078486105337742612 0 0.61940220174112337 0.047251958781050582 0 0.57667858002728545 0.078486105337742612 0 0.61956000905586006 0.1043312481793135 0 0.61956000905586006 0.1043312481793135 0 0.58516465772821369 0.11653801664834119 0 0.6236733212988993 0.14864538214901801 0 0.57667858002728545 0.078486105337742612 0 0.61956000905586006 0.1043312481793135 0 0.58516465772821369 0.11653801664834119 0 0.58516465772821369 0.11653801664834119 0 0.54979595918804436 0.1060565713905809 0 0.56202748619534593 0.15054058349222879 0 0.57667858002728545 0.078486105337742612 0 0.58516465772821369 0.11653801664834119 0 0.54979595918804436 0.1060565713905809 0 0.54979595918804436 0.1060565713905809 0 0.51076801031701946 0.1202837388510348 0 0.52375890611712683 0.059318771819432882 0 0.47881186583059909 0.093591717165689425 0 0.51076801031701946 0.1202837388510348 0 0.52375890611712683 0.059318771819432882 0 0.57667858002728545 0.078486105337742612 0 0.54979595918804436 0.1060565713905809 0 0.52375890611712683 0.059318771819432882 0 0.57396793757665954 0.037011367187645222 0 0.52375890611712683 0.059318771819432882 0 0.5499999999988151 0 0 0.57396793757665954 0.037011367187645222 0 0.57667858002728545 0.078486105337742612 0 0.52375890611712683 0.059318771819432882 0 0.49999999999869432 0 0 0.52375890611712683 0.059318771819432882 0 0.5499999999988151 0 0 0.59814117807200873 0.23398510860739519 0 0.59443395090188023 0.18455690917515069 0 0.55306006949600994 0.20198184231352201 0 0.59814117807200873 0.23398510860739519 0 0.55306006949600994 0.20198184231352201 0 0.54248833945060504 0.2520322959927106 0 0.64011864159029941 0.18789607982138171 0 0.59814117807200873 0.23398510860739519 0 0.59443395090188023 0.18455690917515069 0 0.64011864159029941 0.18789607982138171 0 0.59443395090188023 0.18455690917515069 0 0.6236733212988993 0.14864538214901801 0 0.58516465772821369 0.11653801664834119 0 0.6236733212988993 0.14864538214901801 0 0.56202748619534593 0.15054058349222879 0 0.59443395090188023 0.18455690917515069 0 0.6236733212988993 0.14864538214901801 0 0.56202748619534593 0.15054058349222879 0 0.59443395090188023 0.18455690917515069 0 0.56202748619534593 0.15054058349222879 0 0.55306006949600994 0.20198184231352201 0 0.56202748619534593 0.15054058349222879 0 0.51729576145820033 0.1683240575987815 0 0.55306006949600994 0.20198184231352201 0 0.54979595918804436 0.1060565713905809 0 0.51076801031701946 0.1202837388510348 0 0.56202748619534593 0.15054058349222879 0 0.48466639505193998 0.1421439844745814 0 0.51076801031701946 0.1202837388510348 0 0.51729576145820033 0.1683240575987815 0 0.51076801031701946 0.1202837388510348 0 0.56202748619534593 0.15054058349222879 0 0.51729576145820033 0.1683240575987815 0 0.51729576145820033 0.1683240575987815 0 0.50760557329222289 0.20700468884612061 0 0.55306006949600994 0.20198184231352201 0 0.50760557329222289 0.20700468884612061 0 0.55306006949600994 0.20198184231352201 0 0.54248833945060504 0.2520322959927106 0 0.49695729691142171 0.25014895411178018 0 0.50760557329222289 0.20700468884612061 0 0.54248833945060504 0.2520322959927106 0 0.49695729691142171 0.25014895411178018 0 0.5 0.29999999999999999 0 0.54248833945060504 0.2520322959927106 0 0.5 0.29999999999999999 0 0.54999999999999993 0.29999999999999999 0 0.52752007115234678 0.33170632466418198 0 0.5 0.29999999999999999 0 0.54999999999999993 0.29999999999999999 0 0.54248833945060504 0.2520322959927106 0 0.5 0.29999999999999999 0 0.54999999999999993 0.29999999999999999 0 0.54999999999999993 0.29999999999999999 0 0.54248833945060504 0.2520322959927106 0 0.5794309697024993 0.27124795968204829 0 0.59814117807200873 0.23398510860739519 0 0.54248833945060504 0.2520322959927106 0 0.5794309697024993 0.27124795968204829 0 0.54999999999999993 0.29999999999999999 0 0.59999999999999976 0.29999999999999999 0 0.54999999999999993 0.29999999999999999 0 0.5794309697024993 0.27124795968204829 0 0.59999999999999976 0.29999999999999999 0 0.59999999999999976 0.29999999999999999 0 0.6499999999999998 0.29999999999999999 0 0.5794309697024993 0.27124795968204829 0 0.59999999999999976 0.29999999999999999 0 0.62657463266645097 0.26524202571255862 0 0.59814117807200873 0.23398510860739519 0 0.5794309697024993 0.27124795968204829 0 0.62657463266645097 0.26524202571255862 0 0.61959173890754571 0.33832250091341232 0 0.56836770495988642 0.3523062350852913 0 0.6084546825910605 0.37989672713932537 0 0.59999999999999976 0.29999999999999999 0 0.61959173890754571 0.33832250091341232 0 0.6499999999999998 0.29999999999999999 0 0.59999999999999976 0.29999999999999999 0 0.61959173890754571 0.33832250091341232 0 0.56836770495988642 0.3523062350852913 0 0.54999999999999993 0.29999999999999999 0 0.59999999999999976 0.29999999999999999 0 0.56836770495988642 0.3523062350852913 0 0.56836770495988642 0.3523062350852913 0 0.52752007115234678 0.33170632466418198 0 0.52289427570932567 0.3932284363388488 0 0.54999999999999993 0.29999999999999999 0 0.56836770495988642 0.3523062350852913 0 0.52752007115234678 0.33170632466418198 0 0.49077833859261139 0.35229981449445641 0 0.5 0.29999999999999999 0 0.52752007115234678 0.33170632466418198 0 0.49077833859261139 0.35229981449445641 0 0.52752007115234678 0.33170632466418198 0 0.52289427570932567 0.3932284363388488 0 0.56836770495988642 0.3523062350852913 0 0.52289427570932567 0.3932284363388488 0 0.57744073070774993 0.41535148636609359 0 0.52289427570932567 0.3932284363388488 0 0.53823865529665704 0.45873898050322898 0 0.57744073070774993 0.41535148636609359 0 0.48858720058566618 0.43964267759203868 0 0.52289427570932567 0.3932284363388488 0 0.53823865529665704 0.45873898050322898 0 0.49102375406324739 0.49123754822244059 0 0.53330375813596242 0.50827942741749099 0 0.53823865529665704 0.45873898050322898 0 0.49102375406324739 0.49123754822244059 0 0.48858720058566618 0.43964267759203868 0 0.53823865529665704 0.45873898050322898 0 0.53330375813596242 0.50827942741749099 0 0.57611405284611883 0.50165903596042916 0 0.53823865529665704 0.45873898050322898 0 0.57611405284611883 0.50165903596042916 0 0.57975577671020095 0.46172033326338591 0 0.61547661924074692 0.48539576058873962 0 0.57611405284611883 0.50165903596042916 0 0.53823865529665704 0.45873898050322898 0 0.57975577671020095 0.46172033326338591 0 0.57975577671020095 0.46172033326338591 0 0.61209567303293111 0.44669033081290321 0 0.57744073070774993 0.41535148636609359 0 0.53823865529665704 0.45873898050322898 0 0.57975577671020095 0.46172033326338591 0 0.57744073070774993 0.41535148636609359 0 0.57975577671020095 0.46172033326338591 0 0.61209567303293111 0.44669033081290321 0 0.61547661924074692 0.48539576058873962 0 0.56836770495988642 0.3523062350852913 0 0.57744073070774993 0.41535148636609359 0 0.6084546825910605 0.37989672713932537 0 0.61209567303293111 0.44669033081290321 0 0.57744073070774993 0.41535148636609359 0 0.63912439215427275 0.41063340167983359 0 0.57744073070774993 0.41535148636609359 0 0.6084546825910605 0.37989672713932537 0 0.63912439215427275 0.41063340167983359 0 0.6084546825910605 0.37989672713932537 0 0.63912439215427275 0.41063340167983359 0 0.65481233915350323 0.35652751921065562 0 0.63912439215427275 0.41063340167983359 0 0.65178832218679827 0.45929119821019959 0 0.6879972333610942 0.43038561374960838 0 0.63912439215427275 0.41063340167983359 0 0.68128176404677243 0.38629093627004979 0 0.6879972333610942 0.43038561374960838 0 0.63912439215427275 0.41063340167983359 0 0.68128176404677243 0.38629093627004979 0 0.65481233915350323 0.35652751921065562 0 0.61547661924074692 0.48539576058873962 0 0.6541250972820879 0.49999999999999989 0 0.65178832218679827 0.45929119821019959 0 0.61209567303293111 0.44669033081290321 0 0.61547661924074692 0.48539576058873962 0 0.65178832218679827 0.45929119821019959 0 0.61209567303293111 0.44669033081290321 0 0.63912439215427275 0.41063340167983359 0 0.65178832218679827 0.45929119821019959 0 0.65178832218679827 0.45929119821019959 0 0.69385896817107129 0.48377516041410151 0 0.6879972333610942 0.43038561374960838 0 0.6541250972820879 0.49999999999999989 0 0.65178832218679827 0.45929119821019959 0 0.69385896817107129 0.48377516041410151 0 0.7152569930854884 0.5237994455134295 0 0.69385896817107129 0.48377516041410151 0 0.73947346780852752 0.49062440112282169 0 0.69385896817107129 0.48377516041410151 0 0.73483647259922602 0.44789725365921768 0 0.6879972333610942 0.43038561374960838 0 0.69385896817107129 0.48377516041410151 0 0.73483647259922602 0.44789725365921768 0 0.73947346780852752 0.49062440112282169 0 0.68128176404677243 0.38629093627004979 0 0.72622533758026719 0.40265885511101601 0 0.71508799138962864 0.36622814920737751 0 0.73483647259922602 0.44789725365921768 0 0.6879972333610942 0.43038561374960838 0 0.72622533758026719 0.40265885511101601 0 0.68128176404677243 0.38629093627004979 0 0.6879972333610942 0.43038561374960838 0 0.72622533758026719 0.40265885511101601 0 0.77354604466818633 0.40378688774472771 0 0.73483647259922602 0.44789725365921768 0 0.72622533758026719 0.40265885511101601 0 0.72622533758026719 0.40265885511101601 0 0.74764719760526988 0.3719647154012321 0 0.71508799138962864 0.36622814920737751 0 0.77354604466818633 0.40378688774472771 0 0.72622533758026719 0.40265885511101601 0 0.74764719760526988 0.3719647154012321 0 0.74764719760526988 0.3719647154012321 0 0.71508799138962864 0.36622814920737751 0 0.73090396928863699 0.33699297293167962 0 0.71508799138962864 0.36622814920737751 0 0.68887083591306764 0.33632058575757479 0 0.73090396928863699 0.33699297293167962 0 0.68128176404677243 0.38629093627004979 0 0.71508799138962864 0.36622814920737751 0 0.68887083591306764 0.33632058575757479 0 0.68887083591306764 0.33632058575757479 0 0.73090396928863699 0.33699297293167962 0 0.69999999999999984 0.29999999999999999 0 0.72500000000000064 0.2498161764706 0 0.74999999999999989 0.29999999999999999 0 0.69999999999999984 0.29999999999999999 0 0.74999999999999989 0.29999999999999999 0 0.69999999999999984 0.29999999999999999 0 0.73090396928863699 0.33699297293167962 0 0.74999999999999989 0.29999999999999999 0 0.69999999999999984 0.29999999999999999 0 0.77075983436335049 0.25919399014334171 0 0.72500000000000064 0.2498161764706 0 0.74999999999999989 0.29999999999999999 0 0.72500000000000064 0.2498161764706 0 0.69999999999999984 0.29999999999999999 0 0.67933712972090698 0.25920070958121938 0 0.69999999999999984 0.29999999999999999 0 0.67933712972090698 0.25920070958121938 0 0.6499999999999998 0.29999999999999999 0 0.68887083591306764 0.33632058575757479 0 0.69999999999999984 0.29999999999999999 0 0.6499999999999998 0.29999999999999999 0 0.69999999999999984 0.29999999999999999 0 0.6499999999999998 0.29999999999999999 0 0.67933712972090698 0.25920070958121938 0 0.62657463266645097 0.26524202571255862 0 0.6499999999999998 0.29999999999999999 0 0.65394964615507722 0.22666784374016369 0 0.67933712972090698 0.25920070958121938 0 0.62657463266645097 0.26524202571255862 0 0.59999999999999976 0.29999999999999999 0 0.62657463266645097 0.26524202571255862 0 0.6499999999999998 0.29999999999999999 0 0.61959173890754571 0.33832250091341232 0 0.6499999999999998 0.29999999999999999 0 0.65481233915350323 0.35652751921065562 0 0.61959173890754571 0.33832250091341232 0 0.6084546825910605 0.37989672713932537 0 0.65481233915350323 0.35652751921065562 0 0.68128176404677243 0.38629093627004979 0 0.68887083591306764 0.33632058575757479 0 0.65481233915350323 0.35652751921065562 0 0.68887083591306764 0.33632058575757479 0 0.6499999999999998 0.29999999999999999 0 0.65481233915350323 0.35652751921065562 0 
</DataArray>
</Points>
<Cells>
<DataArray type="UInt32" Name="connectivity" format="ascii">
0 1 2 3 4 5 6 7 8 9 10 11 12 13 14 15 16 17 18 19 20 21 22 23 24 25 26 27 28 29 30 31 32 33 34 35 36 37 38 39 40 41 42 43 44 45 46 47 48 49 50 51 52 53 54 55 56 57 58 59 60 61 62 63 64 65 66 67 68 69 70 71 72 73 74 75 76 77 78 79 80 81 82 83 84 85 86 87 88 89 90 91 92 93 94 95 96 97 98 99 100 101 102 103 104 105 106 107 108 109 110 111 112 113 114 115 116 117 118 119 120 121 122 123 124 125 126 127 128 129 130 131 132 133 134 135 136 137 138 139 140 141 142 143 144 145 146 147 148 149 150 151 152 153 154 155 156 157 158 159 160 161 162 163 164 165 166 167 168 169 170 171 172 173 174 175 176 177 178 179 180 181 182 183 184 185 186 187 188 189 190 191 192 193 194 195 196 197 198 199 200 201 202 203 204 205 206 207 208 209 210 211 212 213 214 215 216 217 218 219 220 221 222 223 224 225 226 227 228 229 230 231 232 233 234 235 236 237 238 239 240 241 242 243 244 245 246 247 248 249 250 251 252 253 254 255 256 257 258 259 260 261 262 263 264 265 266 267 268 269 270 271 272 273 274 275 276 277 278 279 280 281 282 283 284 285 286 287 288 289 290 291 292 293 294 295 296 297 298 299 300 301 302 303 304 305 306 307 308 309 310 311 312 313 314 315 316 317 318 319 320 321 322 323 324 325 326 327 328 329 330 331 332 333 334 335 336 337 338 339 340 341 342 343 344 345 346 347 348 349 350 351 352 353 354 355 356 357 358 359 360 361 362 363 364 365 366 367 368 369 370 371 372 373 374 375 376 377 378 379 380 381 382 383 384 385 386 387 388 389 390 391 392 393 394 395 396 397 398 399 400 401 402 403 404 405 406 407 408 409 410 411 412 413 414 415 416 417 418 419 420 421 422 423 424 425 426 427 428 429 430 431 432 433 434 435 436 437 438 439 440 441 442 443 444 445 446 447 448 449 450 451 452 453 454 455 456 457 458 459 460 461 462 463 464 465 466 467 468 469 470 471 472 473 474 475 476 477 478 479 480 481 482 483 484 485 486 487 488 489 490 491 492 493 494 495 496 497 498 499 500 501 502 503 504 505 506 507 508 509 510 511 512 513 514 515 516 517 518 519 520 521 522 523 524 525 526 527 528 529 530 531 532 533 534 535 536 537 538 539 540 541 542 543 544 545 546 547 548 549 550 551 552 553 554 555 556 557 558 559 560 561 562 563 564 565 566 567 568 569 570 571 572 573 574 575 576 577 578 579 580 581 582 583 584 585 586 587 588 589 590 591 592 593 594 595 596 597 598 599 600 601 602 603 604 605 606 607 608 609 610 611 612 613 614 615 616 617 618 619 620 621 622 623 624 625 626 627 628 629 630 631 632 633 634 635 636 637 638 639 640 641 642 643 644 645 646 647 648 649 650 651 652 653 654 655 656 657 658 659 660 661 662 663 664 665 666 667 668 669 670 671 672 673 674 675 676 677 678 679 680 681 682 683 684 685 686 687 688 689 690 691 692 693 694 695 696 697 698 699 700 701 702 703 704 705 706 707 708 709 710 711 712 713 714 715 716 717 718 719 720 721 722 723 724 725 726 727 728 729 730 731 732 733 734 735 736 737 738 739 740 741 742 743 744 745 746 747 748 749 750 751 752 753 754 755 756 757 758 759 760 761 762 763 764 765 766 767 768 769 770 771 772 773 774 775 776 777 778 779 780 781 782 783 784 785 786 787 788 789 790 791 792 793 794 795 796 797 798 799 800 801 802 803 804 805 806 807 808 809 810 811 812 813 814 815 816 817 818 819 820 821 822 823 824 825 826 827 828 829 830 831 832 833 834 835 836 837 838 839 840 841 842 843 844 845 846 847 848 849 850 851 852 853 854 855 856 857 858 859 860 861 862 863 864 865 866 867 868 869 870 871 872 873 874 875 876 877 878 879 880 881 882 883 884 885 886 887 888 889 890 891 892 893 894 895 896 897 898 899 900 901 902 903 904 905 906 907 908 909 910 911 912 913 914 915 916 917 918 919 920 921 922 923 924 925 926 927 928 929 930 931 932 933 934 935 936 937 938 939 940 941 942 943 944 945 946 947 948 949 950 951 952 953 954 955 956 957 958 959 960 961 962 963 964 965 966 967 968 969 970 971 972 973 974 975 976 977 978 979 980 981 982 983 984 985 986 987 988 989 990 991 992 993 994 995 996 997 998 999 1000 1001 1002 1003 1004 1005 1006 1007 1008 1009 1010 1011 1012 1013 1014 1015 1016 1017 1018 1019 1020 1021 1022 1023 1024 1025 1026 1027 1028 1029 1030 1031 1032 1033 1034 1035 1036 1037 1038 1039 1040 1041 1042 1043 1044 1045 1046 1047 1048 1049 1050 1051 1052 1053 1054 1055 1056 1057 1058 1059 1060 1061 1062 1063 1064 1065 1066 1067 1068 1069 1070 1071 1072 1073 1074 1075 1076 1077 1078 1079 1080 1081 1082 1083 1084 1085 1086 1087 1088 1089 1090 1091 1092 1093 1094 1095 1096 1097 1098 1099 1100 1101 1102 1103 1104 1105 1106 1107 1108 1109 1110 1111 1112 1113 1114 1115 1116 1117 1118 1119 1120 1121 1122 1123 1124 1125 1126 1127 1128 1129 1130 1131 1132 1133 1134 1135 1136 1137 1138 1139 1140 1141 1142 1143 1144 1145 1146 1147 1148 1149 1150 1151 1152 1153 1154 1155 1156 1157 1158 1159 1160 1161 1162 1163 1164 1165 1166 1167 1168 1169 1170 1171 1172 1173 1174 1175 1176 1177 1178 1179 1180 1181 1182 1183 1184 1185 1186 1187 1188 1189 1190 1191 1192 1193 1194 1195 1196 1197 1198 1199 1200 1201 1202 1203 1204 1205 1206 1207 1208 1209 1210 1211 1212 1213 1214 1215 1216 1217 1218 1219 1220 1221 1222 1223 1224 1225 1226 1227 1228 1229 1230 1231 1232 1233 1234 1235 1236 1237 1238 1239 1240 1241 1242 1243 1244 1245 1246 1247 1248 1249 1250 1251 1252 1253 1254 1255 1256 1257 1258 1259 1260 1261 1262 1263 1264 1265 1266 1267 1268 1269 1270 1271 1272 1273 1274 1275 1276 1277 1278 1279 1280 1281 1282 1283 1284 1285 1286 1287 1288 1289 1290 1291 1292 1293 1294 1295 1296 1297 1298 1299 1300 1301 1302 1303 1304 1305 1306 1307 1308 1309 1310 1311 1312 1313 1314 1315 1316 1317 1318 1319 1320 1321 1322 1323 1324 1325 1326 1327 1328 1329 1330 1331 1332 1333 1334 1335 1336 1337 1338 1339 1340 1341 1342 1343 1344 1345 1346 1347 1348 1349 1350 1351 1352 1353 1354 1355 1356 1357 1358 1359 1360 1361 1362 1363 1364 1365 1366 1367 1368 1369 1370 1371 1372 1373 1374 1375 1376 1377 1378 1379 1380 1381 1382 1383 1384 1385 1386 1387 1388 1389 1390 1391 1392 1393 1394 1395 1396 1397 1398 1399 1400 1401 1402 1403 1404 1405 1406 1407 1408 1409 1410 1411 1412 1413 1414 1415 1416 1417 1418 1419 1420 1421 1422 1423 1424 1425 1426 1427 1428 1429 1430 1431 1432 1433 1434 1435 1436 1437 1438 1439 1440 1441 1442 1443 1444 1445 1446 1447 1448 1449 1450 1451 1452 1453 1454 1455 1456 1457 1458 1459 1460 1461 1462 1463 1464 1465 1466 1467 1468 1469 1470 1471 1472 1473 1474 1475 1476 1477 1478 1479 1480 1481 1482 1483 1484 1485 1486 1487 1488 1489 1490 1491 1492 1493 1494 1495 1496 1497 1498 1499 1500 1501 1502 1503 1504 1505 1506 1507 1508 1509 1510 1511 1512 1513 1514 1515 1516 1517 1518 1519 1520 1521 1522 1523 1524 1525 1526 1527 1528 1529 1530 1531 1532 1533 1534 1535 1536 1537 1538 1539 1540 1541 1542 1543 1544 1545 1546 1547 1548 1549 1550 1551 1552 1553 1554 1555 1556 1557 1558 1559 1560 1561 1562 1563 1564 1565 1566 1567 1568 1569 1570 1571 1572 1573 1574 1575 1576 1577 1578 1579 1580 1581 1582 1583 1584 1585 1586 1587 1588 1589 1590 1591 1592 1593 1594 1595 1596 1597 1598 1599 1600 1601 1602 1603 1604 1605 1606 1607 1608 1609 1610 1611 1612 1613 1614 1615 1616 1617 1618 1619 1620 1621 1622 1623 1624 1625 1626 1627 1628 1629 1630 1631 1632 1633 1634 1635 1636 1637 1638 1639 1640 1641 1642 1643 1644 1645 1646 1647 1648 1649 1650 1651 1652 1653 1654 1655 1656 1657 1658 1659 1660 1661 1662 1663 1664 1665 1666 1667 1668 1669 1670 1671 1672 1673 1674 1675 1676 1677 1678 1679 1680 1681 1682 1683 1684 1685 1686 1687 1688 1689 1690 1691 1692 1693 1694 1695 1696 1697 1698 1699 1700 1701 1702 1703 1704 1705 1706 1707 1708 1709 1710 1711 1712 1713 1714 1715 1716 1717 1718 1719 1720 1721 1722 1723 1724 1725 1726 1727 1728 1729 1730 1731 1732 1733 1734 1735 1736 1737 1738 1739 1740 1741 1742 1743 1744 1745 1746 1747 1748 1749 1750 1751 1752 1753 1754 1755 1756 1757 1758 1759 1760 1761 1762 1763 1764 1765 1766 1767 1768 1769 1770 1771 1772 1773 1774 1775 1776 1777 1778 1779 1780 1781 1782 1783 1784 1785 1786 1787 1788 1789 1790 1791 1792 1793 1794 1795 1796 1797 1798 1799 1800 1801 1802 1803 1804 1805 1806 1807 1808 1809 1810 1811 1812 1813 1814 1815 1816 1817 1818 1819 1820 1821 1822 1823 1824 1825 1826 1827 1828 1829 1830 1831 1832 1833 1834 1835 1836 1837 1838 1839 1840 1841 1842 1843 1844 1845 1846 1847 1848 1849 1850 1851 1852 1853 1854 1855 1856 1857 1858 1859 1860 1861 1862 1863 1864 1865 1866 1867 1868 1869 1870 1871 1872 1873 1874 1875 1876 1877 1878 1879 1880 1881 1882 1883 1884 1885 1886 1887 1888 1889 1890 1891 1892 1893 1894 1895 1896 1897 1898 1899 1900 1901 1902 1903 1904 1905 1906 1907 1908 1909 1910 1911 1912 1913 1914 1915 1916 1917 1918 1919 1920 1921 1922 1923 1924 1925 1926 1927 1928 1929 1930 1931 1932 1933 1934 1935 1936 1937 1938 1939 1940 1941 1942 1943 1944 1945 1946 1947 1948 1949 1950 1951 1952 1953 1954 1955 1956 1957 1958 1959 1960 1961 1962 1963 1964 1965 1966 1967 1968 1969 1970 1971 1972 1973 1974 1975 1976 1977 1978 1979 1980 1981 1982 1983 1984 1985 1986 1987 1988 1989 1990 1991 1992 1993 1994 1995 1996 1997 1998 1999 2000 2001 2002 2003 2004 2005 2006 2007 2008 2009 2010 2011 2012 2013 2014 2015 2016 2017 2018 2019 2020 2021 2022 2023 2024 2025 2026 2027 2028 2029 2030 2031 2032 2033 2034 2035 2036 2037 2038 2039 2040 2041 2042 2043 2044 2045 2046 2047 2048 2049 2050 2051 2052 2053 2054 2055 2056 2057 2058 2059 2060 2061 2062 2063 2064 2065 2066 2067 2068 2069 2070 2071 2072 2073 2074 2075 2076 2077 2078 2079 2080 2081 2082 2083 2084 2085 2086 2087 2088 2089 2090 2091 2092 2093 2094 2095 2096 2097 2098 2099 2100 2101 2102 2103 2104 2105 2106 2107 2108 2109 2110 2111 2112 2113 2114 2115 2116 2117 2118 2119 2120 2121 2122 2123 2124 2125 2126 2127 2128 2129 2130 2131 2132 2133 2134 2135 2136 2137 2138 2139 2140 2141 2142 2143 2144 2145 2146 2147 2148 2149 2150 2151 2152 2153 2154 2155 2156 2157 2158 2159 2160 2161 2162 2163 2164 2165 2166 2167 2168 2169 2170 2171 2172 2173 2174 2175 2176 2177 2178 2179 2180 2181 2182 2183 2184 2185 2186 2187 2188 2189 2190 2191 2192 2193 2194 2195 2196 2197 2198 2199 2200 2201 2202 2203 2204 2205 2206 2207 2208 2209 2210 2211 2212 2213 2214 2215 2216 2217 2218 2219 2220 2221 2222 2223 2224 2225 2226 2227 2228 2229 2230 2231 2232 2233 2234 2235 2236 2237 2238 2239 2240 2241 2242 2243 2244 2245 2246 2247 2248 2249 2250 2251 2252 2253 2254 2255 2256 2257 2258 2259 2260 2261 2262 2263 2264 2265 2266 2267 2268 2269 2270 2271 2272 2273 2274 2275 2276 2277 2278 2279 2280 2281 2282 2283 2284 2285 2286 2287 2288 2289 2290 2291 2292 2293 2294 2295 2296 2297 2298 2299 2300 2301 2302 2303 2304 2305 2306 2307 2308 2309 2310 2311 2312 2313 2314 2315 2316 2317 2318 2319 2320 2321 2322 2323 2324 2325 2326 2327 2328 2329 2330 2331 2332 2333 2334 2335 2336 2337 2338 2339 2340 2341 2342 2343 2344 2345 2346 2347 2348 2349 2350 2351 2352 2353 2354 2355 2356 2357 2358 2359 2360 2361 2362 2363 2364 2365 2366 2367 2368 2369 2370 2371 2372 2373 2374 2375 2376 2377 2378 2379 2380 2381 2382 2383 2384 2385 2386 2387 2388 2389 2390 2391 2392 2393 2394 2395 2396 2397 2398 2399 2400 2401 2402 2403 2404 2405 2406 2407 2408 2409 2410 2411 2412 2413 2414 2415 2416 2417 2418 2419 2420 2421 2422 2423 2424 2425 2426 2427 2428 2429 2430 2431 2432 2433 2434 2435 2436 2437 2438 2439 2440 2441 2442 2443 2444 2445 2446 2447 2448 2449 2450 2451 2452 2453 2454 2455 2456 2457 2458 2459 2460 2461 2462 2463 2464 2465 2466 2467 2468 2469 2470 2471 2472 2473 2474 2475 2476 2477 2478 2479 2480 2481 2482 2483 2484 2485 2486 2487 2488 2489 2490 2491 2492 2493 2494 2495 2496 2497 2498 2499 2500 2501 2502 2503 2504 2505 2506 2507 2508 2509 2510 2511 2512 2513 2514 2515 2516 2517 2518 2519 2520 2521 2522 2523 2524 2525 2526 2527 2528 2529 2530 2531 2532 2533 2534 2535 2536 2537 2538 2539 2540 2541 2542 2543 2544 2545 2546 2547 2548 2549 2550 2551 2552 2553 2554 2555 2556 2557 2558 2559 2560 2561 2562 2563 2564 2565 2566 2567 2568 2569 2570 2571 2572 2573 2574 2575 2576 2577 2578 2579 2580 2581 2582 2583 2584 2585 2586 2587 2588 2589 2590 2591 2592 2593 2594 2595 2596 2597 2598 2599 2600 2601 2602 2603 2604 2605 2606 2607 2608 2609 2610 2611 2612 2613 2614 2615 2616 2617 2618 2619 2620 2621 2622 2623 2624 2625 2626 2627 2628 2629 2630 2631 2632 2633 2634 2635 2636 2637 2638 2639 2640 2641 2642 2643 2644 2645 2646 2647 2648 2649 2650 2651 2652 2653 2654 2655 2656 2657 2658 2659 2660 2661 2662 2663 2664 2665 2666 2667 2668 2669 2670 2671 2672 2673 2674 2675 2676 2677 2678 2679 2680 2681 2682 2683 2684 2685 2686 2687 2688 2689 2690 2691 2692 2693 2694 2695 2696 2697 2698 2699 2700 2701 2702 2703 2704 2705 2706 2707 2708 2709 2710 2711 2712 2713 2714 2715 2716 2717 2718 2719 2720 2721 2722 2723 2724 2725 2726 2727 2728 2729 2730 2731 2732 2733 2734 2735 2736 2737 2738 2739 2740 2741 2742 2743 2744 2745 2746 2747 2748 2749 2750 2751 2752 2753 2754 2755 2756 2757 2758 2759 2760 2761 2762 2763 2764 2765 2766 2767 2768 2769 2770 2771 2772 2773 2774 2775 2776 2777 2778 2779 2780 2781 2782 2783 2784 2785 2786 2787 2788 2789 2790 2791 2792 2793 2794 2795 2796 2797 2798 2799 2800 2801 2802 2803 2804 2805 2806 2807 2808 2809 2810 2811 2812 2813 2814 2815 2816 2817 2818 2819 2820 2821 2822 2823 2824 2825 2826 2827 2828 2829 2830 2831 2832 2833 2834 2835 2836 2837 2838 2839 2840 2841 2842 2843 2844 2845 2846 2847 2848 2849 2850 2851 2852 2853 2854 2855 2856 2857 2858 2859 2860 2861 2862 2863 2864 2865 2866 2867 2868 2869 2870 2871 2872 2873 2874 2875 2876 2877 2878 2879 2880 2881 2882 2883 2884 2885 2886 2887 2888 2889 2890 2891 2892 2893 2894 2895 2896 2897 2898 2899 2900 2901 2902 2903 2904 2905 2906 2907 2908 2909 2910 2911 2912 2913 2914 2915 2916 2917 2918 2919 2920 2921 2922 2923 2924 2925 2926 2927 2928 2929 2930 2931 2932 2933 2934 2935 2936 2937 2938 2939 2940 2941 2942 2943 2944 2945 2946 2947 2948 2949 2950 2951 2952 2953 2954 2955 2956 2957 2958 2959 2960 2961 2962 2963 2964 2965 2966 2967 2968 2969 2970 2971 2972 2973 2974 2975 2976 2977 2978 2979 2980 2981 2982 2983 2984 2985 2986 2987 2988 2989 2990 2991 2992 2993 2994 2995 2996 2997 2998 2999 3000 3001 3002 3003 3004 3005 3006 3007 3008 3009 3010 3011 3012 3013 3014 3015 3016 3017 3018 3019 3020 3021 3022 3023 3024 3025 3026 3027 3028 3029 3030 3031 3032 3033 3034 3035 3036 3037 3038 3039 3040 3041 3042 3043 3044 3045 3046 3047 3048 3049 3050 3051 3052 3053 3054 3055 3056 3057 3058 3059 3060 3061 3062 3063 3064 3065 3066 3067 3068 3069 3070 3071 3072 3073 3074 3075 3076 3077 3078 3079 3080 3081 3082 3083 3084 3085 3086 3087 3088 3089 3090 3091 3092 3093 3094 3095 3096 3097 3098 3099 3100 3101 3102 3103 3104 3105 3106 3107 3108 3109 3110 3111 3112 3113 3114 3115 3116 3117 3118 3119 3120 3121 3122 3123 3124 3125 3126 3127 3128 3129 3130 3131 3132 3133 3134 3135 3136 3137 3138 3139 3140 3141 
</DataArray>
<DataArray type="UInt32" Name="offsets" format="ascii">
3 6 9 12 15 18 21 24 27 30 33 36 39 42 45 48 51 54 57 60 63 66 69 72 75 78 81 84 87 90 93 96 99 102 105 108 111 114 117 120 123 126 129 132 135 138 141 144 147 150 153 156 159 162 165 168 171 174 177 180 183 186 189 192 195 198 201 204 207 210 213 216 219 222 225 228 231 234 237 240 243 246 249 252 255 258 261 264 267 270 273 276 279 282 285 288 291 294 297 300 303 306 309 312 315 318 321 324 327 330 333 336 339 342 345 348 351 354 357 360 363 366 369 372 375 378 381 384 387 390 393 396 399 402 405 408 411 414 417 420 423 426 429 432 435 438 441 444 447 450 453 456 459 462 465 468 471 474 477 480 483 486 489 492 495 498 501 504 507 510 513 516 519 522 525 528 531 534 537 540 543 546 549 552 555 558 561 564 567 570 573 576 579 582 585 588 591 594 597 600 603 606 609 612 615 618 621 624 627 630 633 636 639 642 645 648 651 654 657 660 663 666 669 672 675 678 681 684 687 690 693 696 699 702 705 708 711 714 717 720 723 726 729 732 735 738 741 744 747 750 753 756 759 762 765 768 771 774 777 780 783 786 789 792 795 798 801 804 807 810 813 816 819 822 825 828 831 834 837 840 843 846 849 852 855 858 861 864 867 870 873 876 879 882 885 888 891 894 897 900 903 906 909 912 915 918 921 924 927 930 933 936 939 942 945 948 951 954 957 960 963 966 969 972 975 978 981 984 987 990 993 996 999 1002 1005 1008 1011 1014 1017 1020 1023 1026 1029 1032 1035 1038 1041 1044 1047 1050 1053 1056 1059 1062 1065 1068 1071 1074 1077 1080 1083 1086 1089 1092 1095 1098 1101 1104 1107 1110 1113 1116 1119 1122 1125 1128 1131 1134 1137 1140 1143 1146 1149 1152 1155 1158 1161 1164 1167 1170 1173 1176 1179 1182 1185 1188 1191 1194 1197 1200 1203 1206 1209 1212 1215 1218 1221 1224 1227 1230 1233 1236 1239 1242 1245 1248 1251 1254 1257 1260 1263 1266 1269 1272 1275 1278 1281 1284 1287 1290 1293 1296 1299 1302 1305 1308 1311 1314 1317 1320 1323 1326 1329 1332 1335 1338 1341 1344 1347 1350 1353 1356 1359 1362 1365 1368 1371 1374 1377 1380 1383 1386 1389 1392 1395 1398 1401 1404 1407 1410 1413 1416 1419 1422 1425 1428 1431 1434 1437 1440 1443 1446 1449 1452 1455 1458 1461 1464 1467 1470 1473 1476 1479 1482 1485 1488 1491 1494 1497 1500 1503 1506 1509 1512 1515 1518 1521 1524 1527 1530 1533 1536 1539 1542 1545 1548 1551 1554 1557 1560 1563 1566 1569 1572 1575 1578 1581 1584 1587 1590 1593 1596 1599 1602 1605 1608 1611 1614 1616 1619 1622 1624 1627 1630 1632 1635 1638 1641 1644 1647 1650 1653 1656 1659 1662 1665 1668 1671 1673 1676 1679 1682 1685 1688 1690 1693 1696 1699 1702 1705 1708 1711 1714 1717 1720 1723 1726 1729 1732 1735 1738 1741 1744 1747 1750 1753 1756 1759 1762 1765 1768 1771 1774 1777 1780 1783 1786 1789 1792 1795 1798 1801 1804 1807 1810 1813 1816 1819 1822 1825 1828 1831 1834 1837 1840 1843 1846 1849 1852 1855 1858 1861 1864 1867 1870 1873 1876 1879 1882 1885 1888 1891 1894 1897 1900 1903 1906 1909 1912 1915 1918 1921 1924 1927 1930 1933 1936 1939 1942 1945 1948 1951 1954 1957 1960 1963 1966 1969 1972 1975 1978 1981 1984 1987 1990 1993 1996 1999 2002 2005 2008 2011 2014 2017 2020 2023 2026 2029 2032 2035 2038 2041 2044 2047 2050 2053 2056 2059 2062 2065 2068 2071 2074 2077 2080 2083 2086 2089 2092 2095 2098 2101 2104 2107 2110 2113 2116 2119 2122 2125 2128 2131 2134 2137 2140 2143 2146 2149 2152 2155 2158 2161 2164 2167 2170 2173 2176 2179 2182 2185 2188 2191 2194 2196 2199 2202 2205 2207 2210 2213 2215 2218 2221 2224 2227 2230 2233 2236 2239 2242 2245 2248 2250 2253 2256 2259 2262 2264 2267 2270 2273 2276 2279 2282 2285 2288 2291 2294 2297 2300 2303 2306 2309 2312 2315 2318 2321 2324 2327 2330 2333 2336 2339 2342 2345 2348 2351 2354 2357 2360 2363 2366 2369 2372 2375 2378 2381 2384 2387 2390 2393 2396 2399 2402 2405 2408 2411 2414 2417 2420 2423 2426 2429 2432 2435 2438 2440 2443 2446 2449 2452 2455 2458 2461 2464 2467 2470 2473 2476 2479 2482 2484 2487 2490 2492 2495 2497 2500 2503 2506 2509 2512 2515 2518 2521 2524 2527 2530 2533 2536 2538 2541 2544 2547 2550 2553 2556 2559 2562 2565 2568 2571 2574 2577 2580 2583 2586 2589 2592 2595 2598 2601 2604 2607 2610 2613 2616 2619 2622 2625 2628 2631 2634 2637 2640 2643 2646 2649 2652 2655 2658 2661 2664 2667 2670 2673 2676 2679 2682 2685 2688 2691 2694 2697 2700 2703 2706 2709 2712 2715 2718 2721 2724 2727 2730 2733 2736 2739 2742 2745 2748 2751 2754 2757 2760 2763 2766 2769 2772 2775 2778 2781 2784 2787 2790 2793 2796 2799 2802 2805 2808 2811 2814 2817 2820 2823 2826 2829 2832 2835 2838 2841 2844 2847 2850 2853 2856 2859 2862 2865 2868 2871 2874 2877 2880 2883 2886 2889 2892 2895 2898 2901 2904 2907 2910 2913 2916 2919 2922 2925 2928 2931 2934 2937 2940 2943 2946 2948 2951 2954 2956 2959 2961 2964 2967 2970 2973 2976 2979 2982 2985 2988 2991 2994 2997 3000 3003 3006 3009 3012 3015 3018 3021 3024 3027 3030 3033 3036 3039 3042 3045 3048 3051 3054 3057 3060 3063 3066 3069 3072 3075 3078 3081 3084 3087 3090 3093 3096 3099 3102 3104 3107 3110 3113 3116 3119 3121 3124 3127 3130 3133 3136 3139 3142 
</DataArray>
<DataArray type="UInt32" Name="types" format="ascii">
5 5 5 5 5 5 5 5 5 5 5 5 5 5 5 5 5 5 5 5 5 5 5 5 5 5 5 5 5 5 5 5 5 5 5 5 5 5 5 5 5 5 5 5 5 5 5 5 5 5 5 5 5 5 5 5 5 5 5 5 5 5 5 5 5 5 5 5 5 5 5 5 5 5 5 5 5 5 5 5 5 5 5 5 5 5 5 5 5 5 5 5 5 5 5 5 5 5 5 5 5 5 5 5 5 5 5 5 5 5 5 5 5 5 5 5 5 5 5 5 5 5 5 5 5 5 5 5 5 5 5 5 5 5 5 5 5 5 5 5 5 5 5 5 5 5 5 5 5 5 5 5 5 5 5 5 5 5 5 5 5 5 5 5 5 5 5 5 5 5 5 5 5 5 5 5 5 5 5 5 5 5 5 5 5 5 5 5 5 5 5 5 5 5 5 5 5 5 5 5 5 5 5 5 5 5 5 5 5 5 5 5 5 5 5 5 5 5 5 5 5 5 5 5 5 5 5 5 5 5 5 5 5 5 5 5 5 5 5 5 5 5 5 5 5 5 5 5 5 5 5 5 5 5 5 5 5 5 5 5 5 5 5 5 5 5 5 5 5 5 5 5 5 5 5 5 5 5 5 5 5 5 5 5 5 5 5 5 5 5 5 5 5 5 5 5 5 5 5 5 5 5 5 5 5 5 5 5 5 5 5 5 5 5 5 5 5 5 5 5 5 5 5 5 5 5 5 5 5 5 5 5 5 5 5 5 5 5 5 5 5 5 5 5 5 5 5 5 5 5 5 5 5 5 5 5 5 5 5 5 5 5 5 5 5 5 5 5 5 5 5 5 5 5 5 5 5 5 5 5 5 5 5 5 5 5 5 5 5 5 5 5 5 5 5 5 5 5 5 5 5 5 5 5 5 5 5 5 5 5 5 5 5 5 5 5 5 5 5 5 5 5 5 5 5 5 5 5 5 5 5 5 5 5 5 5 5 5 5 5 5 5 5 5 5 5 5 5 5 5 5 5 5 5 5 5 5 5 5 5 5 5 5 5 5 5 5 5 5 5 5 5 5 5 5 5 5 5 5 5 5 5 5 5 5 5 5 5 5 5 5 5 5 5 5 5 5 5 5 5 5 5 5 5 5 5 5 5 5 5 5 5 5 5 5 5 5 5 5 5 5 5 5 5 5 5 5 5 5 5 5 5 5 5 5 5 5 5 3 5 5 3 5 5 3 5 5 5 5 5 5 5 5 5 5 5 5 5 3 5 5 5 5 5 3 5 5 5 5 5 5 5 5 5 5 5 5 5 5 5 5 5 5 5 5 5 5 5 5 5 5 5 5 5 5 5 5 5 5 5 5 5 5 5 5 5 5 5 5 5 5 5 5 5 5 5 5 5 5 5 5 5 5 5 5 5 5 5 5 5 5 5 5 5 5 5 5 5 5 5 5 5 5 5 5 5 5 5 5 5 5 5 5 5 5 5 5 5 5 5 5 5 5 5 5 5 5 5 5 5 5 5 5 5 5 5 5 5 5 5 5 5 5 5 5 5 5 5 5 5 5 5 5 5 5 5 5 5 5 5 5 5 5 5 5 5 5 5 5 5 5 5 5 5 5 5 5 5 5 5 5 5 5 5 5 5 5 5 5 5 5 5 5 3 5 5 5 3 5 5 3 5 5 5 5 5 5 5 5 5 5 5 3 5 5 5 5 3 5 5 5 5 5 5 5 5 5 5 5 5 5 5 5 5 5 5 5 5 5 5 5 5 5 5 5 5 5 5 5 5 5 5 5 5 5 5 5 5 5 5 5 5 5 5 5 5 5 5 5 5 5 5 5 5 5 5 3 5 5 5 5 5 5 5 5 5 5 5 5 5 5 3 5 5 3 5 3 5 5 5 5 5 5 5 5 5 5 5 5 5 3 5 5 5 5 5 5 5 5 5 5 5 5 5 5 5 5 5 5 5 5 5 5 5 5 5 5 5 5 5 5 5 5 5 5 5 5 5 5 5 5 5 5 5 5 5 5 5 5 5 5 5 5 5 5 5 5 5 5 5 5 5 5 5 5 5 5 5 5 5 5 5 5 5 5 5 5 5 5 5 5 5 5 5 5 5 5 5 5 5 5 5 5 5 5 5 5 5 5 5 5 5 5 5 5 5 5 5 5 5 5 5 5 5 5 5 5 5 5 5 5 5 5 5 5 5 5 5 5 5 5 5 5 5 5 5 5 3 5 5 3 5 3 5 5 5 5 5 5 5 5 5 5 5 5 5 5 5 5 5 5 5 5 5 5 5 5 5 5 5 5 5 5 5 5 5 5 5 5 5 5 5 5 5 5 5 5 5 5 5 3 5 5 5 5 5 3 5 5 5 5 5 5 5 
</DataArray>
</Cells>
<PointData Scalars="" Vectors="displacement," Tensors="">
<DataArray type="Float64" Name="displacement" NumberOfComponents="3" format="ascii">
-0.001880536573641313 -0.0026384564534040205 0 -3.6848977766821093e-06 -8.787841298195411e-06 0 -5.5913241357268726e-07 -4.0132397070712305e-06 0 -0.001880536573641313 -0.0026384564534040205 0 -3.6848977766821093e-06 -8.787841298195411e-06 0 -0.0052534136755908985 -0.0068729766129876054 0 -0.001880536573641313 -0.0026384564534040205 0 -5.5913241357268726e-07 -4.0132397070712305e-06 0 -0.0033750222142643394 -0.0043991826554785037 0 -0.001880536573641313 -0.0026384564534040205 0 -0.0033750222142643394 -0.0043991826554785037 0 -0.0052534136755908985 -0.0068729766129876054 0 -0.0052534136755908985 -0.0068729766129876054 0 -0.0085302263735920723 -0.011994416977304183 0 -0.0072596180544979468 -0.010216777473062022 0 -0.0085302263735920723 -0.011994416977304183 0 -0.0072596180544979468 -0.010216777473062022 0 -0.011102906123566316 -0.016525552704549723 0 -0.0033750222142643394 -0.0043991826554785037 0 -0.0072596180544979468 -0.010216777473062022 0 -0.0054599104995029174 -0.008026119642847376 0 -0.0033750222142643394 -0.0043991826554785037 0 -0.0052534136755908985 -0.0068729766129876054 0 -0.0072596180544979468 -0.010216777473062022 0 -0.0072596180544979468 -0.010216777473062022 0 -0.0054599104995029174 -0.008026119642847376 0 -0.0088556050568177509 -0.013707650908826622 0 -0.0054599104995029174 -0.008026119642847376 0 -0.0088556050568177509 -0.013707650908826622 0 -0.006951829085462418 -0.011320254006607283 0 -0.0054599104995029174 -0.008026119642847376 0 -0.0050148090331110168 -0.0081054602337581813 0 -0.006951829085462418 -0.011320254006607283 0 -0.0050148090331110168 -0.0081054602337581813 0 -0.006951829085462418 -0.011320254006607283 0 -0.006816275570118306 -0.012332809706766696 0 -0.0050148090331110168 -0.0081054602337581813 0 -0.00256266534512986 -0.0037558845477888348 0 -0.0030130938782560878 -0.0050515484410726145 0 -0.0054599104995029174 -0.008026119642847376 0 -0.0050148090331110168 -0.0081054602337581813 0 -0.00256266534512986 -0.0037558845477888348 0 -0.00256266534512986 -0.0037558845477888348 0 -9.8867086232730891e-07 -4.2358844386972268e-06 0 -6.6202513778167863e-07 -3.905421494964304e-06 0 -5.5913241357268726e-07 -4.0132397070712305e-06 0 -0.0033750222142643394 -0.0043991826554785037 0 -9.8867086232730891e-07 -4.2358844386972268e-06 0 -0.0033750222142643394 -0.0043991826554785037 0 -0.00256266534512986 -0.0037558845477888348 0 -9.8867086232730891e-07 -4.2358844386972268e-06 0 -0.0033750222142643394 -0.0043991826554785037 0 -0.0054599104995029174 -0.008026119642847376 0 -0.00256266534512986 -0.0037558845477888348 0 -0.012581104407344942 -0.021845141443028258 0 -0.012992431684798444 -0.020819615401803968 0 -0.014497202980470691 -0.024999721625804241 0 -0.012581104407344942 -0.021845141443028258 0 -0.012992431684798444 -0.020819615401803968 0 -0.011315281775901746 -0.018229173841050217 0 -0.012581104407344942 -0.021845141443028258 0 -0.011315281775901746 -0.018229173841050217 0 -0.010533424148539819 -0.018395369322985671 0 -0.011315281775901746 -0.018229173841050217 0 -0.011102906123566316 -0.016525552704549723 0 -0.0088556050568177509 -0.013707650908826622 0 -0.0072596180544979468 -0.010216777473062022 0 -0.011102906123566316 -0.016525552704549723 0 -0.0088556050568177509 -0.013707650908826622 0 -0.011315281775901746 -0.018229173841050217 0 -0.0088556050568177509 -0.013707650908826622 0 -0.010533424148539819 -0.018395369322985671 0 -0.012992431684798444 -0.020819615401803968 0 -0.011315281775901746 -0.018229173841050217 0 -0.011102906123566316 -0.016525552704549723 0 -0.0088556050568177509 -0.013707650908826622 0 -0.006951829085462418 -0.011320254006607283 0 -0.0084775448724617262 -0.014612352130121809 0 -0.006951829085462418 -0.011320254006607283 0 -0.0084775448724617262 -0.014612352130121809 0 -0.006816275570118306 -0.012332809706766696 0 -0.0088556050568177509 -0.013707650908826622 0 -0.0084775448724617262 -0.014612352130121809 0 -0.010533424148539819 -0.018395369322985671 0 -0.010533424148539819 -0.018395369322985671 0 -0.011564606685620971 -0.022258784971904661 0 -0.0090410329319135906 -0.0175996286037013 0 -0.0084775448724617262 -0.014612352130121809 0 -0.010533424148539819 -0.018395369322985671 0 -0.0090410329319135906 -0.0175996286037013 0 -0.012581104407344942 -0.021845141443028258 0 -0.010533424148539819 -0.018395369322985671 0 -0.011564606685620971 -0.022258784971904661 0 -0.012581104407344942 -0.021845141443028258 0 -0.011564606685620971 -0.022258784971904661 0 -0.013695150573050621 -0.025926286509134575 0 -0.011564606685620971 -0.022258784971904661 0 -0.010053809202785534 -0.021222118262603413 0 -0.0090410329319135906 -0.0175996286037013 0 -0.0087803684157175405 -0.01986311598611885 0 -0.010053809202785534 -0.021222118262603413 0 -0.0090410329319135906 -0.0175996286037013 0 -0.0087803684157175405 -0.01986311598611885 0 -0.0090410329319135906 -0.0175996286037013 0 -0.0073804681412695146 -0.015626543143550387 0 -0.0073804681412695146 -0.015626543143550387 0 -0.006816275570118306 -0.012332809706766696 0 -0.0057187715436513254 -0.011519096271054305 0 -0.0084775448724617262 -0.014612352130121809 0 -0.0090410329319135906 -0.0175996286037013 0 -0.006816275570118306 -0.012332809706766696 0 -0.0090410329319135906 -0.0175996286037013 0 -0.0073804681412695146 -0.015626543143550387 0 -0.006816275570118306 -0.012332809706766696 0 -0.006816275570118306 -0.012332809706766696 0 -0.0057187715436513254 -0.011519096271054305 0 -0.0047142318294792354 -0.0084943801962321357 0 -0.0057187715436513254 -0.011519096271054305 0 -0.0045178684016070891 -0.010184115869459949 0 -0.0062633685623614613 -0.014568449264225953 0 -0.0045178684016070891 -0.010184115869459949 0 -0.0062633685623614613 -0.014568449264225953 0 -0.0048774891757623218 -0.012445364763835155 0 -0.0062633685623614613 -0.014568449264225953 0 -0.0048774891757623218 -0.012445364763835155 0 -0.005566498039892143 -0.015324911814622746 0 -0.0073804681412695146 -0.015626543143550387 0 -0.0057187715436513254 -0.011519096271054305 0 -0.0062633685623614613 -0.014568449264225953 0 -0.0087803684157175405 -0.01986311598611885 0 -0.0073804681412695146 -0.015626543143550387 0 -0.007215001605420864 -0.018156734072202769 0 -0.0073804681412695146 -0.015626543143550387 0 -0.0062633685623614613 -0.014568449264225953 0 -0.007215001605420864 -0.018156734072202769 0 -0.0062633685623614613 -0.014568449264225953 0 -0.007215001605420864 -0.018156734072202769 0 -0.005566498039892143 -0.015324911814622746 0 -0.007215001605420864 -0.018156734072202769 0 -0.0072804561376530897 -0.021113602293752563 0 -0.0086621309705256413 -0.022457607624133215 0 -0.0087803684157175405 -0.01986311598611885 0 -0.007215001605420864 -0.018156734072202769 0 -0.0086621309705256413 -0.022457607624133215 0 -0.0016313392909447328 -0.0029847458786676096 0 -6.6202513778167863e-07 -3.905421494964304e-06 0 -0.0030130938782560878 -0.0050515484410726145 0 -0.0016313392909447328 -0.0029847458786676096 0 -0.0030130938782560878 -0.0050515484410726145 0 -0.0034127816723224999 -0.006725433821617356 0 -0.0016313392909447328 -0.0029847458786676096 0 -6.6202513778167863e-07 -3.905421494964304e-06 0 -6.9085055724982912e-07 -3.9609259572563262e-06 0 -0.00256266534512986 -0.0037558845477888348 0 -6.6202513778167863e-07 -3.905421494964304e-06 0 -0.0030130938782560878 -0.0050515484410726145 0 -0.0050148090331110168 -0.0081054602337581813 0 -0.0030130938782560878 -0.0050515484410726145 0 -0.0047142318294792354 -0.0084943801962321357 0 -0.0050148090331110168 -0.0081054602337581813 0 -0.006816275570118306 -0.012332809706766696 0 -0.0047142318294792354 -0.0084943801962321357 0 -0.0057187715436513254 -0.011519096271054305 0 -0.0047142318294792354 -0.0084943801962321357 0 -0.0034127816723224999 -0.006725433821617356 0 -0.0030130938782560878 -0.0050515484410726145 0 -0.0047142318294792354 -0.0084943801962321357 0 -0.0034127816723224999 -0.006725433821617356 0 -0.0057187715436513254 -0.011519096271054305 0 -0.0045178684016070891 -0.010184115869459949 0 -0.0034127816723224999 -0.006725433821617356 0 -0.0045178684016070891 -0.010184115869459949 0 -0.0034127816723224999 -0.006725433821617356 0 -0.0030042155170566581 -0.0067905420974305828 0 -0.0045178684016070891 -0.010184115869459949 0 -0.0030042155170566581 -0.0067905420974305828 0 -0.0034624877161201746 -0.0089996489668080579 0 -0.0034127816723224999 -0.006725433821617356 0 -0.0030042155170566581 -0.0067905420974305828 0 -0.001631776579327196 -0.0034435531318646457 0 -0.0030042155170566581 -0.0067905420974305828 0 -0.001631776579327196 -0.0034435531318646457 0 -0.0018046984523249275 -0.0044487460695291454 0 -0.0016313392909447328 -0.0029847458786676096 0 -0.0034127816723224999 -0.006725433821617356 0 -0.001631776579327196 -0.0034435531318646457 0 -0.0016313392909447328 -0.0029847458786676096 0 -0.001631776579327196 -0.0034435531318646457 0 -6.9085055724982912e-07 -3.9609259572563262e-06 0 -0.001631776579327196 -0.0034435531318646457 0 -6.9085055724982912e-07 -3.9609259572563262e-06 0 -6.267283608944286e-07 -3.8979843979350827e-06 0 -6.267283608944286e-07 -3.8979843979350827e-06 0 -0.0018046984523249275 -0.0044487460695291454 0 -3.6895201194478221e-07 -3.8640504824006641e-06 0 -0.001631776579327196 -0.0034435531318646457 0 -6.267283608944286e-07 -3.8979843979350827e-06 0 -0.0018046984523249275 -0.0044487460695291454 0 -0.0018046984523249275 -0.0044487460695291454 0 -3.6895201194478221e-07 -3.8640504824006641e-06 0 -0.0011361694272841764 -0.0033127154476598618 0 -3.6895201194478221e-07 -3.8640504824006641e-06 0 -0.0011361694272841764 -0.0033127154476598618 0 -3.6005223559269686e-07 -3.8920721603947675e-06 0 -0.0011361694272841764 -0.0033127154476598618 0 -0.000728216187965182 -0.0025364743856753171 0 -0.0017345668489522205 -0.0061723104759764755 0 -0.000728216187965182 -0.0025364743856753171 0 -0.0017345668489522205 -0.0061723104759764755 0 -0.00090574174011574099 -0.0040462707838969459 0 -0.0011361694272841764 -0.0033127154476598618 0 -0.000728216187965182 -0.0025364743856753171 0 -3.6005223559269686e-07 -3.8920721603947675e-06 0 -0.000728216187965182 -0.0025364743856753171 0 -3.6005223559269686e-07 -3.8920721603947675e-06 0 -2.7107133757547851e-07 -3.8409119630980519e-06 0 -0.0017345668489522205 -0.0061723104759764755 0 -0.0026183966697290945 -0.010425244155530521 0 -0.0016700879592077742 -0.0081261296034125709 0 -0.0017345668489522205 -0.0061723104759764755 0 -0.0028549032938821311 -0.0091140524258032339 0 -0.0026183966697290945 -0.010425244155530521 0 -0.0011361694272841764 -0.0033127154476598618 0 -0.0017345668489522205 -0.0061723104759764755 0 -0.0021683172718552071 -0.0063007847508118851 0 -0.0017345668489522205 -0.0061723104759764755 0 -0.0028549032938821311 -0.0091140524258032339 0 -0.0021683172718552071 -0.0063007847508118851 0 -0.0028549032938821311 -0.0091140524258032339 0 -0.0021683172718552071 -0.0063007847508118851 0 -0.0034624877161201746 -0.0089996489668080579 0 -0.0018046984523249275 -0.0044487460695291454 0 -0.0011361694272841764 -0.0033127154476598618 0 -0.0021683172718552071 -0.0063007847508118851 0 -0.0018046984523249275 -0.0044487460695291454 0 -0.0021683172718552071 -0.0063007847508118851 0 -0.0034624877161201746 -0.0089996489668080579 0 -0.0030042155170566581 -0.0067905420974305828 0 -0.0018046984523249275 -0.0044487460695291454 0 -0.0034624877161201746 -0.0089996489668080579 0 -0.0045178684016070891 -0.010184115869459949 0 -0.0034624877161201746 -0.0089996489668080579 0 -0.0048774891757623218 -0.012445364763835155 0 -0.0034624877161201746 -0.0089996489668080579 0 -0.0048774891757623218 -0.012445364763835155 0 -0.0041683890413508617 -0.012229015597295077 0 -0.0048774891757623218 -0.012445364763835155 0 -0.0041683890413508617 -0.012229015597295077 0 -0.005566498039892143 -0.015324911814622746 0 -0.0041683890413508617 -0.012229015597295077 0 -0.0046145197962787097 -0.015417989628731379 0 -0.0035626024606989579 -0.012372111845482802 0 -0.0041683890413508617 -0.012229015597295077 0 -0.005566498039892143 -0.015324911814622746 0 -0.0046145197962787097 -0.015417989628731379 0 -0.0028549032938821311 -0.0091140524258032339 0 -0.0034624877161201746 -0.0089996489668080579 0 -0.0041683890413508617 -0.012229015597295077 0 -0.007215001605420864 -0.018156734072202769 0 -0.0059827077725748577 -0.018382425289598128 0 -0.0072804561376530897 -0.021113602293752563 0 -0.007215001605420864 -0.018156734072202769 0 -0.0059827077725748577 -0.018382425289598128 0 -0.005566498039892143 -0.015324911814622746 0 -0.0059827077725748577 -0.018382425289598128 0 -0.005566498039892143 -0.015324911814622746 0 -0.0046145197962787097 -0.015417989628731379 0 -0.0059827077725748577 -0.018382425289598128 0 -0.0046806682634987834 -0.018627694766618259 0 -0.0064122551143074077 -0.021882304726617036 0 -0.0059827077725748577 -0.018382425289598128 0 -0.0046806682634987834 -0.018627694766618259 0 -0.0046145197962787097 -0.015417989628731379 0 -0.0046806682634987834 -0.018627694766618259 0 -0.0046145197962787097 -0.015417989628731379 0 -0.0034817414485569715 -0.014278422273871709 0 -0.0046806682634987834 -0.018627694766618259 0 -0.0034817414485569715 -0.014278422273871709 0 -0.0032291210273393597 -0.016732850298217604 0 -0.0046806682634987834 -0.018627694766618259 0 -0.0032291210273393597 -0.016732850298217604 0 -0.0040070887991067207 -0.021133516814891878 0 -0.0028549032938821311 -0.0091140524258032339 0 -0.0041683890413508617 -0.012229015597295077 0 -0.0035626024606989579 -0.012372111845482802 0 -0.0028549032938821311 -0.0091140524258032339 0 -0.0035626024606989579 -0.012372111845482802 0 -0.0026183966697290945 -0.010425244155530521 0 -0.0046145197962787097 -0.015417989628731379 0 -0.0035626024606989579 -0.012372111845482802 0 -0.0034817414485569715 -0.014278422273871709 0 -0.0034817414485569715 -0.014278422273871709 0 -0.0026183966697290945 -0.010425244155530521 0 -0.0024143099161312341 -0.012423924408289639 0 -0.0035626024606989579 -0.012372111845482802 0 -0.0034817414485569715 -0.014278422273871709 0 -0.0026183966697290945 -0.010425244155530521 0 -0.0026183966697290945 -0.010425244155530521 0 -0.0024143099161312341 -0.012423924408289639 0 -0.0016700879592077742 -0.0081261296034125709 0 -0.0024143099161312341 -0.012423924408289639 0 -0.0021510070851242825 -0.015004349669443485 0 -0.0013828725041156239 -0.01028241052966287 0 -0.0024143099161312341 -0.012423924408289639 0 -0.0013828725041156239 -0.01028241052966287 0 -0.0016700879592077742 -0.0081261296034125709 0 -0.0032291210273393597 -0.016732850298217604 0 -0.0026707063832824758 -0.019231059010535439 0 -0.0040070887991067207 -0.021133516814891878 0 -0.0034817414485569715 -0.014278422273871709 0 -0.0024143099161312341 -0.012423924408289639 0 -0.0032291210273393597 -0.016732850298217604 0 -0.0024143099161312341 -0.012423924408289639 0 -0.0032291210273393597 -0.016732850298217604 0 -0.0021510070851242825 -0.015004349669443485 0 -0.0032291210273393597 -0.016732850298217604 0 -0.0021510070851242825 -0.015004349669443485 0 -0.0026707063832824758 -0.019231059010535439 0 -0.0021510070851242825 -0.015004349669443485 0 -0.0015658145508449183 -0.017236103747809435 0 -0.0026707063832824758 -0.019231059010535439 0 -0.0021510070851242825 -0.015004349669443485 0 -0.0015658145508449183 -0.017236103747809435 0 -0.0011589103613968712 -0.013853250230507883 0 -0.0011589103613968712 -0.013853250230507883 0 -0.00025026995296698035 -0.012216336827305052 0 -0.00049662302313235917 -0.015318068920002616 0 -0.0015658145508449183 -0.017236103747809435 0 -0.0011589103613968712 -0.013853250230507883 0 -0.00049662302313235917 -0.015318068920002616 0 -0.0015658145508449183 -0.017236103747809435 0 -0.00083471105320927523 -0.018901270034993842 0 -0.00049662302313235917 -0.015318068920002616 0 -0.0013828725041156239 -0.01028241052966287 0 -0.0011589103613968712 -0.013853250230507883 0 -0.00073125506429895265 -0.010284165438705587 0 -0.0021510070851242825 -0.015004349669443485 0 -0.0013828725041156239 -0.01028241052966287 0 -0.0011589103613968712 -0.013853250230507883 0 -0.0011589103613968712 -0.013853250230507883 0 -0.00073125506429895265 -0.010284165438705587 0 -0.00025026995296698035 -0.012216336827305052 0 -0.0013828725041156239 -0.01028241052966287 0 -0.00073125506429895265 -0.010284165438705587 0 -0.00055179966054317567 -0.0065950770930347036 0 -0.00073125506429895265 -0.010284165438705587 0 -0.00055179966054317567 -0.0065950770930347036 0 -0.00026004991559922306 -0.008540646393341832 0 -0.0013828725041156239 -0.01028241052966287 0 -0.00055179966054317567 -0.0065950770930347036 0 -0.00087110770506686121 -0.0057016117358333245 0 -0.00055179966054317567 -0.0065950770930347036 0 -0.00030246464931508592 -0.0030366693353423338 0 -0.00087110770506686121 -0.0057016117358333245 0 -0.00055179966054317567 -0.0065950770930347036 0 -0.00030246464931508592 -0.0030366693353423338 0 -4.1815919391939207e-05 -0.004052246985884504 0 -0.00030246464931508592 -0.0030366693353423338 0 -1.685869529479505e-07 -3.8376381369674029e-06 0 -4.1815919391939207e-05 -0.004052246985884504 0 -0.00030246464931508592 -0.0030366693353423338 0 -1.685869529479505e-07 -3.8376381369674029e-06 0 -1.6154345977127133e-07 -3.8903843098694105e-06 0 -0.00030246464931508592 -0.0030366693353423338 0 -1.6154345977127133e-07 -3.8903843098694105e-06 0 -0.00043871154830901467 -0.0025990643392090544 0 -0.00030246464931508592 -0.0030366693353423338 0 -0.00043871154830901467 -0.0025990643392090544 0 -0.00087110770506686121 -0.0057016117358333245 0 -0.00043871154830901467 -0.0025990643392090544 0 -2.7107133757547851e-07 -3.8409119630980519e-06 0 -0.00090574174011574099 -0.0040462707838969459 0 -0.00043871154830901467 -0.0025990643392090544 0 -0.00090574174011574099 -0.0040462707838969459 0 -0.00087110770506686121 -0.0057016117358333245 0 -1.6154345977127133e-07 -3.8903843098694105e-06 0 -0.00043871154830901467 -0.0025990643392090544 0 -2.7107133757547851e-07 -3.8409119630980519e-06 0 -0.000728216187965182 -0.0025364743856753171 0 -2.7107133757547851e-07 -3.8409119630980519e-06 0 -0.00090574174011574099 -0.0040462707838969459 0 -0.0017345668489522205 -0.0061723104759764755 0 -0.00090574174011574099 -0.0040462707838969459 0 -0.0016700879592077742 -0.0081261296034125709 0 -0.0013828725041156239 -0.01028241052966287 0 -0.0016700879592077742 -0.0081261296034125709 0 -0.00087110770506686121 -0.0057016117358333245 0 -0.00090574174011574099 -0.0040462707838969459 0 -0.0016700879592077742 -0.0081261296034125709 0 -0.00087110770506686121 -0.0057016117358333245 0 -0.0033863267148788521 -0.031685961120567152 0 -0.0048235610556478245 -0.03443218273890164 0 -0.0031988066795096202 -0.03556848880315655 0 -0.0033863267148788521 -0.031685961120567152 0 -0.0047940563583326705 -0.031123438617486576 0 -0.0048235610556478245 -0.03443218273890164 0 -0.0033863267148788521 -0.031685961120567152 0 -0.0047940563583326705 -0.031123438617486576 0 -0.0038664764067649505 -0.027479668451654882 0 -0.0048235610556478245 -0.03443218273890164 0 -0.0050140525259707459 -0.038625087155683115 0 -0.0031988066795096202 -0.03556848880315655 0 -0.0050140525259707459 -0.038625087155683115 0 -0.0034605669275510078 -0.040681441557080054 0 -0.0057060831471352829 -0.042871160027012259 0 -0.0050140525259707459 -0.038625087155683115 0 -0.0034605669275510078 -0.040681441557080054 0 -0.0031988066795096202 -0.03556848880315655 0 -0.0034605669275510078 -0.040681441557080054 0 -0.0031988066795096202 -0.03556848880315655 0 -0.0022338625619501484 -0.03784652132964457 0 -0.0031988066795096202 -0.03556848880315655 0 -0.0022338625619501484 -0.03784652132964457 0 -0.0010168653509484169 -0.035318701998253495 0 -0.0034605669275510078 -0.040681441557080054 0 -0.0022338625619501484 -0.03784652132964457 0 -0.0011698106790783876 -0.039801229546868377 0 -0.0022338625619501484 -0.03784652132964457 0 -0.0011698106790783876 -0.039801229546868377 0 -0.0010168653509484169 -0.035318701998253495 0 -0.0010168653509484169 -0.035318701998253495 0 -0.0017069161417224044 -0.031617078927425331 0 0.000451969528635388 -0.031230325825958034 0 -0.0031988066795096202 -0.03556848880315655 0 -0.0010168653509484169 -0.035318701998253495 0 -0.0017069161417224044 -0.031617078927425331 0 -0.0033863267148788521 -0.031685961120567152 0 -0.0031988066795096202 -0.03556848880315655 0 -0.0017069161417224044 -0.031617078927425331 0 -0.0033863267148788521 -0.031685961120567152 0 -0.0017069161417224044 -0.031617078927425331 0 -0.0025397386605093535 -0.028261819979621339 0 -0.0017069161417224044 -0.031617078927425331 0 -0.00070249464966928518 -0.027701032758951895 0 0.000451969528635388 -0.031230325825958034 0 -0.00070249464966928518 -0.027701032758951895 0 -0.0018129167472159637 -0.02482763632417373 0 -0.00070311568395594486 -0.023090409187180271 0 -0.00070249464966928518 -0.027701032758951895 0 -0.0018129167472159637 -0.02482763632417373 0 -0.0025397386605093535 -0.028261819979621339 0 -0.0018129167472159637 -0.02482763632417373 0 -0.0025397386605093535 -0.028261819979621339 0 -0.0031205252759853985 -0.023975976494668736 0 -0.0017069161417224044 -0.031617078927425331 0 -0.00070249464966928518 -0.027701032758951895 0 -0.0025397386605093535 -0.028261819979621339 0 -0.00083471105320927523 -0.018901270034993842 0 -0.0018326895879898018 -0.021376624685661139 0 -0.00070311568395594486 -0.023090409187180271 0 -0.0015658145508449183 -0.017236103747809435 0 -0.00083471105320927523 -0.018901270034993842 0 -0.0018326895879898018 -0.021376624685661139 0 -0.0018129167472159637 -0.02482763632417373 0 -0.0018326895879898018 -0.021376624685661139 0 -0.00070311568395594486 -0.023090409187180271 0 -0.0018129167472159637 -0.02482763632417373 0 -0.0018326895879898018 -0.021376624685661139 0 -0.0031205252759853985 -0.023975976494668736 0 -0.0015658145508449183 -0.017236103747809435 0 -0.0018326895879898018 -0.021376624685661139 0 -0.0026707063832824758 -0.019231059010535439 0 -0.0018326895879898018 -0.021376624685661139 0 -0.0026707063832824758 -0.019231059010535439 0 -0.0031205252759853985 -0.023975976494668736 0 -0.0026707063832824758 -0.019231059010535439 0 -0.0031205252759853985 -0.023975976494668736 0 -0.0040070887991067207 -0.021133516814891878 0 -0.0031205252759853985 -0.023975976494668736 0 -0.0040070887991067207 -0.021133516814891878 0 -0.0047879235497703451 -0.025185118470139961 0 -0.0033863267148788521 -0.031685961120567152 0 -0.0025397386605093535 -0.028261819979621339 0 -0.0038664764067649505 -0.027479668451654882 0 -0.0025397386605093535 -0.028261819979621339 0 -0.0031205252759853985 -0.023975976494668736 0 -0.0038664764067649505 -0.027479668451654882 0 -0.0031205252759853985 -0.023975976494668736 0 -0.0038664764067649505 -0.027479668451654882 0 -0.0047879235497703451 -0.025185118470139961 0 -0.0038664764067649505 -0.027479668451654882 0 -0.0047879235497703451 -0.025185118470139961 0 -0.0062778605149011986 -0.029651847698918987 0 -0.0047940563583326705 -0.031123438617486576 0 -0.0038664764067649505 -0.027479668451654882 0 -0.0062778605149011986 -0.029651847698918987 0 -0.0047879235497703451 -0.025185118470139961 0 -0.0060728304953422893 -0.0263247760902801 0 -0.0062778605149011986 -0.029651847698918987 0 -0.0060728304953422893 -0.0263247760902801 0 -0.0062778605149011986 -0.029651847698918987 0 -0.0073191094765794355 -0.028663234021326769 0 -0.0046806682634987834 -0.018627694766618259 0 -0.0040070887991067207 -0.021133516814891878 0 -0.0054484983635434128 -0.023021426281312957 0 -0.0040070887991067207 -0.021133516814891878 0 -0.0047879235497703451 -0.025185118470139961 0 -0.0054484983635434128 -0.023021426281312957 0 -0.0047879235497703451 -0.025185118470139961 0 -0.0060728304953422893 -0.0263247760902801 0 -0.0054484983635434128 -0.023021426281312957 0 -0.0060728304953422893 -0.0263247760902801 0 -0.0054484983635434128 -0.023021426281312957 0 -0.0069682071550518027 -0.025519330420243572 0 -0.0046806682634987834 -0.018627694766618259 0 -0.0054484983635434128 -0.023021426281312957 0 -0.0064122551143074077 -0.021882304726617036 0 -0.0054484983635434128 -0.023021426281312957 0 -0.0064122551143074077 -0.021882304726617036 0 -0.0069682071550518027 -0.025519330420243572 0 -0.0064122551143074077 -0.021882304726617036 0 -0.0069682071550518027 -0.025519330420243572 0 -0.0082640092244837312 -0.024895547579663644 0 -0.0064122551143074077 -0.021882304726617036 0 -0.0072804561376530897 -0.021113602293752563 0 -0.0082640092244837312 -0.024895547579663644 0 -0.0059827077725748577 -0.018382425289598128 0 -0.0064122551143074077 -0.021882304726617036 0 -0.0072804561376530897 -0.021113602293752563 0 -0.0062778605149011986 -0.029651847698918987 0 -0.0073191094765794355 -0.028663234021326769 0 -0.0083223227910736129 -0.03198766353662353 0 -0.0060728304953422893 -0.0263247760902801 0 -0.0073191094765794355 -0.028663234021326769 0 -0.0069682071550518027 -0.025519330420243572 0 -0.0073191094765794355 -0.028663234021326769 0 -0.0069682071550518027 -0.025519330420243572 0 -0.0084403507741422721 -0.028553157243984266 0 -0.0069682071550518027 -0.025519330420243572 0 -0.0084403507741422721 -0.028553157243984266 0 -0.0082640092244837312 -0.024895547579663644 0 -0.0073191094765794355 -0.028663234021326769 0 -0.0084403507741422721 -0.028553157243984266 0 -0.0083223227910736129 -0.03198766353662353 0 -0.0084403507741422721 -0.028553157243984266 0 -0.0083223227910736129 -0.03198766353662353 0 -0.010096303780165348 -0.031404978766876993 0 -0.0083223227910736129 -0.03198766353662353 0 -0.0084042258062999066 -0.036290538645476031 0 -0.0099624990566736897 -0.035031839934374302 0 -0.0084042258062999066 -0.036290538645476031 0 -0.0098095158737991715 -0.039162012391490995 0 -0.0099624990566736897 -0.035031839934374302 0 -0.0083223227910736129 -0.03198766353662353 0 -0.0084042258062999066 -0.036290538645476031 0 -0.0071882351866036226 -0.033524982139514201 0 -0.0062778605149011986 -0.029651847698918987 0 -0.0083223227910736129 -0.03198766353662353 0 -0.0071882351866036226 -0.033524982139514201 0 -0.0062778605149011986 -0.029651847698918987 0 -0.0071882351866036226 -0.033524982139514201 0 -0.0059553720253466965 -0.033081761925939576 0 -0.0071882351866036226 -0.033524982139514201 0 -0.0059553720253466965 -0.033081761925939576 0 -0.0066410328234705659 -0.036746718366983303 0 -0.0084042258062999066 -0.036290538645476031 0 -0.0071882351866036226 -0.033524982139514201 0 -0.0066410328234705659 -0.036746718366983303 0 -0.0048235610556478245 -0.03443218273890164 0 -0.0059553720253466965 -0.033081761925939576 0 -0.0066410328234705659 -0.036746718366983303 0 -0.0047940563583326705 -0.031123438617486576 0 -0.0048235610556478245 -0.03443218273890164 0 -0.0059553720253466965 -0.033081761925939576 0 -0.0047940563583326705 -0.031123438617486576 0 -0.0062778605149011986 -0.029651847698918987 0 -0.0059553720253466965 -0.033081761925939576 0 -0.0050140525259707459 -0.038625087155683115 0 -0.0067053902907091012 -0.040477764229684861 0 -0.0057060831471352829 -0.042871160027012259 0 -0.0050140525259707459 -0.038625087155683115 0 -0.0067053902907091012 -0.040477764229684861 0 -0.0066410328234705659 -0.036746718366983303 0 -0.0048235610556478245 -0.03443218273890164 0 -0.0050140525259707459 -0.038625087155683115 0 -0.0066410328234705659 -0.036746718366983303 0 -0.0084042258062999066 -0.036290538645476031 0 -0.0066410328234705659 -0.036746718366983303 0 -0.0080974940306894755 -0.039880233753937747 0 -0.0067053902907091012 -0.040477764229684861 0 -0.0080974940306894755 -0.039880233753937747 0 -0.0077718311888836707 -0.044330772388054482 0 -0.0067053902907091012 -0.040477764229684861 0 -0.0066410328234705659 -0.036746718366983303 0 -0.0080974940306894755 -0.039880233753937747 0 -0.0080974940306894755 -0.039880233753937747 0 -0.0098095158737991715 -0.039162012391490995 0 -0.0094294750442650861 -0.043132959190142303 0 -0.0084042258062999066 -0.036290538645476031 0 -0.0080974940306894755 -0.039880233753937747 0 -0.0098095158737991715 -0.039162012391490995 0 -0.0098095158737991715 -0.039162012391490995 0 -0.010874606016126286 -0.042471821391704245 0 -0.0094294750442650861 -0.043132959190142303 0 -0.010874606016126286 -0.042471821391704245 0 -0.012235815203629284 -0.041522112166184656 0 -0.010978702406148483 -0.038483588378015722 0 -0.012235815203629284 -0.041522112166184656 0 -0.010978702406148483 -0.038483588378015722 0 -0.011778019862211185 -0.036843010353758407 0 -0.0098095158737991715 -0.039162012391490995 0 -0.010978702406148483 -0.038483588378015722 0 -0.0099624990566736897 -0.035031839934374302 0 -0.0098095158737991715 -0.039162012391490995 0 -0.010874606016126286 -0.042471821391704245 0 -0.010978702406148483 -0.038483588378015722 0 -0.0083223227910736129 -0.03198766353662353 0 -0.0099624990566736897 -0.035031839934374302 0 -0.010096303780165348 -0.031404978766876993 0 -0.011778019862211185 -0.036843010353758407 0 -0.012181503473217321 -0.033846320246910498 0 -0.010096303780165348 -0.031404978766876993 0 -0.0099624990566736897 -0.035031839934374302 0 -0.011778019862211185 -0.036843010353758407 0 -0.010096303780165348 -0.031404978766876993 0 -0.010978702406148483 -0.038483588378015722 0 -0.0099624990566736897 -0.035031839934374302 0 -0.011778019862211185 -0.036843010353758407 0 -0.011778019862211185 -0.036843010353758407 0 -0.013581289012679807 -0.03759991462528077 0 -0.01333515440083452 -0.040454887097918946 0 -0.011778019862211185 -0.036843010353758407 0 -0.012181503473217321 -0.033846320246910498 0 -0.013581289012679807 -0.03759991462528077 0 -0.012181503473217321 -0.033846320246910498 0 -0.013581289012679807 -0.03759991462528077 0 -0.013919720883829105 -0.03473241395532535 0 -0.013581289012679807 -0.03759991462528077 0 -0.01333515440083452 -0.040454887097918946 0 -0.014826441686911693 -0.041287112849944636 0 -0.01333515440083452 -0.040454887097918946 0 -0.014826441686911693 -0.041287112849944636 0 -0.01506123536979026 -0.045127760147824478 0 -0.01333515440083452 -0.040454887097918946 0 -0.01506123536979026 -0.045127760147824478 0 -0.013566418644207939 -0.044518025103053936 0 -0.012235815203629284 -0.041522112166184656 0 -0.01333515440083452 -0.040454887097918946 0 -0.013566418644207939 -0.044518025103053936 0 -0.012235815203629284 -0.041522112166184656 0 -0.011778019862211185 -0.036843010353758407 0 -0.01333515440083452 -0.040454887097918946 0 -0.0072804561376530897 -0.021113602293752563 0 -0.0086621309705256413 -0.022457607624133215 0 -0.0082640092244837312 -0.024895547579663644 0 -0.0086621309705256413 -0.022457607624133215 0 -0.0082640092244837312 -0.024895547579663644 0 -0.0099803806539844001 -0.02678072261646593 0 -0.0086621309705256413 -0.022457607624133215 0 -0.0099803806539844001 -0.02678072261646593 0 -0.010176006399827724 -0.024122523372499548 0 -0.0099803806539844001 -0.02678072261646593 0 -0.0093793393642547448 -0.028174560060202927 0 -0.011010041554248305 -0.030337082430184001 0 -0.0082640092244837312 -0.024895547579663644 0 -0.0099803806539844001 -0.02678072261646593 0 -0.0093793393642547448 -0.028174560060202927 0 -0.0084403507741422721 -0.028553157243984266 0 -0.0082640092244837312 -0.024895547579663644 0 -0.0093793393642547448 -0.028174560060202927 0 -0.0084403507741422721 -0.028553157243984266 0 -0.0093793393642547448 -0.028174560060202927 0 -0.010096303780165348 -0.031404978766876993 0 -0.0093793393642547448 -0.028174560060202927 0 -0.010096303780165348 -0.031404978766876993 0 -0.011010041554248305 -0.030337082430184001 0 -0.012181503473217321 -0.033846320246910498 0 -0.010096303780165348 -0.031404978766876993 0 -0.011010041554248305 -0.030337082430184001 0 -0.012181503473217321 -0.033846320246910498 0 -0.011010041554248305 -0.030337082430184001 0 -0.012077431775753914 -0.02937121201855139 0 -0.012181503473217321 -0.033846320246910498 0 -0.012077431775753914 -0.02937121201855139 0 -0.013919720883829105 -0.03473241395532535 0 -0.0099803806539844001 -0.02678072261646593 0 -0.011010041554248305 -0.030337082430184001 0 -0.012077431775753914 -0.02937121201855139 0 -0.0099803806539844001 -0.02678072261646593 0 -0.012077431775753914 -0.02937121201855139 0 -0.010176006399827724 -0.024122523372499548 0 -0.012077431775753914 -0.02937121201855139 0 -0.010176006399827724 -0.024122523372499548 0 -0.011319681799322226 -0.024076516400284284 0 -0.010053809202785534 -0.021222118262603413 0 -0.010176006399827724 -0.024122523372499548 0 -0.011319681799322226 -0.024076516400284284 0 -0.0087803684157175405 -0.01986311598611885 0 -0.0086621309705256413 -0.022457607624133215 0 -0.010176006399827724 -0.024122523372499548 0 -0.0087803684157175405 -0.01986311598611885 0 -0.010053809202785534 -0.021222118262603413 0 -0.010176006399827724 -0.024122523372499548 0 -0.011564606685620971 -0.022258784971904661 0 -0.013036318195832942 -0.027696965459667659 0 -0.013695150573050621 -0.025926286509134575 0 -0.011564606685620971 -0.022258784971904661 0 -0.010053809202785534 -0.021222118262603413 0 -0.011319681799322226 -0.024076516400284284 0 -0.011564606685620971 -0.022258784971904661 0 -0.011319681799322226 -0.024076516400284284 0 -0.013036318195832942 -0.027696965459667659 0 -0.012077431775753914 -0.02937121201855139 0 -0.011319681799322226 -0.024076516400284284 0 -0.013036318195832942 -0.027696965459667659 0 -0.013036318195832942 -0.027696965459667659 0 -0.014899713948069698 -0.030478018254947906 0 -0.013695150573050621 -0.025926286509134575 0 -0.013036318195832942 -0.027696965459667659 0 -0.014087084843918603 -0.031848365432886286 0 -0.014899713948069698 -0.030478018254947906 0 -0.012077431775753914 -0.02937121201855139 0 -0.013036318195832942 -0.027696965459667659 0 -0.014087084843918603 -0.031848365432886286 0 -0.012077431775753914 -0.02937121201855139 0 -0.014087084843918603 -0.031848365432886286 0 -0.013919720883829105 -0.03473241395532535 0 -0.014087084843918603 -0.031848365432886286 0 -0.013919720883829105 -0.03473241395532535 0 -0.015782640609672459 -0.035502717937849024 0 -0.014087084843918603 -0.031848365432886286 0 -0.014899713948069698 -0.030478018254947906 0 -0.015782640609672459 -0.035502717937849024 0 -0.016670203334873238 -0.033358406986786118 0 -0.014899713948069698 -0.030478018254947906 0 -0.015782640609672459 -0.035502717937849024 0 -0.016670203334873238 -0.033358406986786118 0 -0.014899713948069698 -0.030478018254947906 0 -0.015693483300634178 -0.029177637110940943 0 -0.014899713948069698 -0.030478018254947906 0 -0.015693483300634178 -0.029177637110940943 0 -0.013695150573050621 -0.025926286509134575 0 -0.015693483300634178 -0.029177637110940943 0 -0.014497202980470691 -0.024999721625804241 0 -0.013695150573050621 -0.025926286509134575 0 -0.012581104407344942 -0.021845141443028258 0 -0.014497202980470691 -0.024999721625804241 0 -0.013695150573050621 -0.025926286509134575 0 -0.016560397368614751 -0.044288187778629841 0 -0.014826441686911693 -0.041287112849944636 0 -0.015603563948514025 -0.039292894098418463 0 -0.016560397368614751 -0.044288187778629841 0 -0.014826441686911693 -0.041287112849944636 0 -0.01506123536979026 -0.045127760147824478 0 -0.013581289012679807 -0.03759991462528077 0 -0.014826441686911693 -0.041287112849944636 0 -0.015603563948514025 -0.039292894098418463 0 -0.013581289012679807 -0.03759991462528077 0 -0.013919720883829105 -0.03473241395532535 0 -0.015603563948514025 -0.039292894098418463 0 -0.013919720883829105 -0.03473241395532535 0 -0.015603563948514025 -0.039292894098418463 0 -0.015782640609672459 -0.035502717937849024 0 -0.015603563948514025 -0.039292894098418463 0 -0.016812916738396935 -0.039334092564089526 0 -0.015782640609672459 -0.035502717937849024 0 -0.016670203334873238 -0.033358406986786118 0 -0.015782640609672459 -0.035502717937849024 0 -0.017468097937300336 -0.037591635500398887 0 -0.016812916738396935 -0.039334092564089526 0 -0.015782640609672459 -0.035502717937849024 0 -0.017468097937300336 -0.037591635500398887 0 -0.016812916738396935 -0.039334092564089526 0 -0.017468097937300336 -0.037591635500398887 0 -0.018156629965072318 -0.041855737496596462 0 -0.016812916738396935 -0.039334092564089526 0 -0.018156629965072318 -0.041855737496596462 0 -0.017330251696839317 -0.042474789355676487 0 -0.016560397368614751 -0.044288187778629841 0 -0.017330251696839317 -0.042474789355676487 0 -0.01876647659149441 -0.046186526995767287 0 -0.016560397368614751 -0.044288187778629841 0 -0.015603563948514025 -0.039292894098418463 0 -0.017330251696839317 -0.042474789355676487 0 -0.015603563948514025 -0.039292894098418463 0 -0.016812916738396935 -0.039334092564089526 0 -0.017330251696839317 -0.042474789355676487 0 -0.018156629965072318 -0.041855737496596462 0 -0.017330251696839317 -0.042474789355676487 0 -0.01876647659149441 -0.046186526995767287 0 -0.016560397368614751 -0.044288187778629841 0 -0.01876647659149441 -0.046186526995767287 0 -0.017812122485945041 -0.048715052635032535 0 -0.01876647659149441 -0.046186526995767287 0 -0.019303032096596524 -0.050562147722648859 0 -0.017812122485945041 -0.048715052635032535 0 -0.019303032096596524 -0.050562147722648859 0 -0.017812122485945041 -0.048715052635032535 0 -0.018518499098005025 -0.052266915576917185 0 -0.017812122485945041 -0.048715052635032535 0 -0.017126868907820999 -0.051342404019320366 0 -0.018518499098005025 -0.052266915576917185 0 -0.016560397368614751 -0.044288187778629841 0 -0.017812122485945041 -0.048715052635032535 0 -0.016509315080399184 -0.048033179243978825 0 -0.016560397368614751 -0.044288187778629841 0 -0.016509315080399184 -0.048033179243978825 0 -0.01506123536979026 -0.045127760147824478 0 -0.017812122485945041 -0.048715052635032535 0 -0.016509315080399184 -0.048033179243978825 0 -0.017126868907820999 -0.051342404019320366 0 -0.016509315080399184 -0.048033179243978825 0 -0.015887528949062795 -0.050670103841318745 0 -0.017126868907820999 -0.051342404019320366 0 -0.016509315080399184 -0.048033179243978825 0 -0.01506123536979026 -0.045127760147824478 0 -0.015887528949062795 -0.050670103841318745 0 -0.016709468497200706 -0.054462426634859132 0 -0.015887528949062795 -0.050670103841318745 0 -0.017126868907820999 -0.051342404019320366 0 -0.016709468497200706 -0.054462426634859132 0 -0.018429138580443139 -0.055594256855137671 0 -0.017613949293947318 -0.058144230059427225 0 -0.016709468497200706 -0.054462426634859132 0 -0.017126868907820999 -0.051342404019320366 0 -0.018429138580443139 -0.055594256855137671 0 -0.017126868907820999 -0.051342404019320366 0 -0.018429138580443139 -0.055594256855137671 0 -0.018518499098005025 -0.052266915576917185 0 -0.019303032096596524 -0.050562147722648859 0 -0.018518499098005025 -0.052266915576917185 0 -0.019816144463931019 -0.054984067961281226 0 -0.018429138580443139 -0.055594256855137671 0 -0.019816144463931019 -0.054984067961281226 0 -0.020326736579457987 -0.059457902771224133 0 -0.018429138580443139 -0.055594256855137671 0 -0.018518499098005025 -0.052266915576917185 0 -0.019816144463931019 -0.054984067961281226 0 -0.020326736579457987 -0.059457902771224133 0 -0.019111298632666487 -0.060870983260141197 0 -0.020834877712695699 -0.063973684745284892 0 -0.018429138580443139 -0.055594256855137671 0 -0.019111298632666487 -0.060870983260141197 0 -0.017613949293947318 -0.058144230059427225 0 -0.018429138580443139 -0.055594256855137671 0 -0.020326736579457987 -0.059457902771224133 0 -0.019111298632666487 -0.060870983260141197 0 -0.020834877712695699 -0.063973684745284892 0 -0.019555593093825874 -0.065658592417689385 0 -0.02135995775492306 -0.068527944360284254 0 -0.019111298632666487 -0.060870983260141197 0 -0.020834877712695699 -0.063973684745284892 0 -0.019555593093825874 -0.065658592417689385 0 -0.019555593093825874 -0.065658592417689385 0 -0.02135995775492306 -0.068527944360284254 0 -0.020236376109463661 -0.070104767580529928 0 -0.019555593093825874 -0.065658592417689385 0 -0.017560883861184703 -0.062178457803951419 0 -0.018557154956543101 -0.068008000414736175 0 -0.017560883861184703 -0.062178457803951419 0 -0.017276433101675644 -0.065156979731019388 0 -0.018557154956543101 -0.068008000414736175 0 -0.019111298632666487 -0.060870983260141197 0 -0.019555593093825874 -0.065658592417689385 0 -0.017560883861184703 -0.062178457803951419 0 -0.017276433101675644 -0.065156979731019388 0 -0.018557154956543101 -0.068008000414736175 0 -0.016809979878939302 -0.0672305453532238 0 -0.019111298632666487 -0.060870983260141197 0 -0.017560883861184703 -0.062178457803951419 0 -0.017613949293947318 -0.058144230059427225 0 -0.017560883861184703 -0.062178457803951419 0 -0.017613949293947318 -0.058144230059427225 0 -0.01634911326847591 -0.057427072183733288 0 -0.016709468497200706 -0.054462426634859132 0 -0.017613949293947318 -0.058144230059427225 0 -0.01634911326847591 -0.057427072183733288 0 -0.017560883861184703 -0.062178457803951419 0 -0.01634911326847591 -0.057427072183733288 0 -0.015188838019410905 -0.058886543492358848 0 -0.01634911326847591 -0.057427072183733288 0 -0.015188838019410905 -0.058886543492358848 0 -0.014877867693337479 -0.053646179770536227 0 -0.015188838019410905 -0.058886543492358848 0 -0.013585977926724566 -0.054552187722545206 0 -0.014877867693337479 -0.053646179770536227 0 -0.017560883861184703 -0.062178457803951419 0 -0.015188838019410905 -0.058886543492358848 0 -0.016031526824774114 -0.063163921797122824 0 -0.017276433101675644 -0.065156979731019388 0 -0.016031526824774114 -0.063163921797122824 0 -0.016809979878939302 -0.0672305453532238 0 -0.017560883861184703 -0.062178457803951419 0 -0.017276433101675644 -0.065156979731019388 0 -0.016031526824774114 -0.063163921797122824 0 -0.015188838019410905 -0.058886543492358848 0 -0.016031526824774114 -0.063163921797122824 0 -0.01472984172503976 -0.062509703747651912 0 -0.016031526824774114 -0.063163921797122824 0 -0.016809979878939302 -0.0672305453532238 0 -0.015497568635957538 -0.066991605865521359 0 -0.016031526824774114 -0.063163921797122824 0 -0.01472984172503976 -0.062509703747651912 0 -0.015497568635957538 -0.066991605865521359 0 -0.01472984172503976 -0.062509703747651912 0 -0.013680004754481912 -0.063440910262449163 0 -0.015497568635957538 -0.066991605865521359 0 -0.01472984172503976 -0.062509703747651912 0 -0.013680004754481912 -0.063440910262449163 0 -0.013212675476751931 -0.058803860238820248 0 -0.013680004754481912 -0.063440910262449163 0 -0.013212675476751931 -0.058803860238820248 0 -0.012053083913544064 -0.061050267698561991 0 -0.013680004754481912 -0.063440910262449163 0 -0.014188894795729181 -0.068120639954685619 0 -0.012715770935785131 -0.064605425335975852 0 -0.013680004754481912 -0.063440910262449163 0 -0.012715770935785131 -0.064605425335975852 0 -0.012053083913544064 -0.061050267698561991 0 -0.015188838019410905 -0.058886543492358848 0 -0.013212675476751931 -0.058803860238820248 0 -0.013585977926724566 -0.054552187722545206 0 -0.015188838019410905 -0.058886543492358848 0 -0.01472984172503976 -0.062509703747651912 0 -0.013212675476751931 -0.058803860238820248 0 -0.013212675476751931 -0.058803860238820248 0 -0.01201009289831294 -0.054818637473277178 0 -0.013585977926724566 -0.054552187722545206 0 -0.013212675476751931 -0.058803860238820248 0 -0.01201009289831294 -0.054818637473277178 0 -0.01105378567088919 -0.056466853797757233 0 -0.01201009289831294 -0.054818637473277178 0 -0.013585977926724566 -0.054552187722545206 0 -0.012277060453839051 -0.05076386786965624 0 -0.01201009289831294 -0.054818637473277178 0 -0.012277060453839051 -0.05076386786965624 0 -0.010948792515465787 -0.051500513990684102 0 -0.013585977926724566 -0.054552187722545206 0 -0.012277060453839051 -0.05076386786965624 0 -0.013679633874401569 -0.050692696023236332 0 -0.012277060453839051 -0.05076386786965624 0 -0.012649712373857877 -0.046393376068700552 0 -0.013679633874401569 -0.050692696023236332 0 -0.012277060453839051 -0.05076386786965624 0 -0.010983759824409862 -0.047070794979754541 0 -0.010948792515465787 -0.051500513990684102 0 -0.012277060453839051 -0.05076386786965624 0 -0.012649712373857877 -0.046393376068700552 0 -0.010983759824409862 -0.047070794979754541 0 -0.010874606016126286 -0.042471821391704245 0 -0.012649712373857877 -0.046393376068700552 0 -0.010983759824409862 -0.047070794979754541 0 -0.012235815203629284 -0.041522112166184656 0 -0.012649712373857877 -0.046393376068700552 0 -0.013566418644207939 -0.044518025103053936 0 -0.010874606016126286 -0.042471821391704245 0 -0.012235815203629284 -0.041522112166184656 0 -0.012649712373857877 -0.046393376068700552 0 -0.012649712373857877 -0.046393376068700552 0 -0.014590323010038113 -0.048698568738628059 0 -0.013679633874401569 -0.050692696023236332 0 -0.012649712373857877 -0.046393376068700552 0 -0.013566418644207939 -0.044518025103053936 0 -0.014590323010038113 -0.048698568738628059 0 -0.01506123536979026 -0.045127760147824478 0 -0.013566418644207939 -0.044518025103053936 0 -0.014590323010038113 -0.048698568738628059 0 -0.01506123536979026 -0.045127760147824478 0 -0.015887528949062795 -0.050670103841318745 0 -0.014590323010038113 -0.048698568738628059 0 -0.015887528949062795 -0.050670103841318745 0 -0.014590323010038113 -0.048698568738628059 0 -0.014877867693337479 -0.053646179770536227 0 -0.016709468497200706 -0.054462426634859132 0 -0.015887528949062795 -0.050670103841318745 0 -0.014877867693337479 -0.053646179770536227 0 -0.016709468497200706 -0.054462426634859132 0 -0.01634911326847591 -0.057427072183733288 0 -0.014877867693337479 -0.053646179770536227 0 -0.013585977926724566 -0.054552187722545206 0 -0.014877867693337479 -0.053646179770536227 0 -0.013679633874401569 -0.050692696023236332 0 -0.014590323010038113 -0.048698568738628059 0 -0.014877867693337479 -0.053646179770536227 0 -0.013679633874401569 -0.050692696023236332 0 -0.021438335925105752 -0.090140127277903728 0 -0.020645611460087063 -0.086005085645291815 0 -0.019727880767696215 -0.089293693957315498 0 -0.020645611460087063 -0.086005085645291815 0 -0.022223633928030093 -0.086456865721779574 0 -0.020634052296504852 -0.082156442674006319 0 -0.021438335925105752 -0.090140127277903728 0 -0.023074773115356773 -0.090959886769843526 0 -0.022223633928030093 -0.086456865721779574 0 -0.021438335925105752 -0.090140127277903728 0 -0.020645611460087063 -0.086005085645291815 0 -0.022223633928030093 -0.086456865721779574 0 -0.023074773115356773 -0.090959886769843526 0 -0.02345987935456852 -0.089063461281934153 0 -0.022223633928030093 -0.086456865721779574 0 -0.023074773115356773 -0.090959886769843526 0 -0.024654931790981043 -0.091758915806416277 0 -0.02345987935456852 -0.089063461281934153 0 -0.024654931790981043 -0.091758915806416277 0 -0.02345987935456852 -0.089063461281934153 0 -0.023880530684590298 -0.087075964434941908 0 -0.02345987935456852 -0.089063461281934153 0 -0.023880530684590298 -0.087075964434941908 0 -0.022223633928030093 -0.086456865721779574 0 -0.023880530684590298 -0.087075964434941908 0 -0.022223633928030093 -0.086456865721779574 0 -0.021746061312307715 -0.081651144219982819 0 -0.022223633928030093 -0.086456865721779574 0 -0.021746061312307715 -0.081651144219982819 0 -0.020634052296504852 -0.082156442674006319 0 -0.023880530684590298 -0.087075964434941908 0 -0.023166524870638926 -0.082408615546952474 0 -0.021746061312307715 -0.081651144219982819 0 -0.023166524870638926 -0.082408615546952474 0 -0.021746061312307715 -0.081651144219982819 0 -0.02251190339577408 -0.077756464640061612 0 -0.021746061312307715 -0.081651144219982819 0 -0.020634052296504852 -0.082156442674006319 0 -0.020505913181747538 -0.077351181603057151 0 -0.020634052296504852 -0.082156442674006319 0 -0.01938794257036704 -0.078261069946812381 0 -0.020505913181747538 -0.077351181603057151 0 -0.020645611460087063 -0.086005085645291815 0 -0.020634052296504852 -0.082156442674006319 0 -0.019189721302350856 -0.081003831278568444 0 -0.020645611460087063 -0.086005085645291815 0 -0.019189721302350856 -0.081003831278568444 0 -0.018899270568105211 -0.083712431485274089 0 -0.019189721302350856 -0.081003831278568444 0 -0.01938794257036704 -0.078261069946812381 0 -0.017861683092909017 -0.07620760890533225 0 -0.020634052296504852 -0.082156442674006319 0 -0.019189721302350856 -0.081003831278568444 0 -0.01938794257036704 -0.078261069946812381 0 -0.01938794257036704 -0.078261069946812381 0 -0.018894171499890179 -0.074972081801142912 0 -0.017861683092909017 -0.07620760890533225 0 -0.018894171499890179 -0.074972081801142912 0 -0.020505913181747538 -0.077351181603057151 0 -0.019281092131325017 -0.072061575216637808 0 -0.01938794257036704 -0.078261069946812381 0 -0.018894171499890179 -0.074972081801142912 0 -0.020505913181747538 -0.077351181603057151 0 -0.020505913181747538 -0.077351181603057151 0 -0.02251190339577408 -0.077756464640061612 0 -0.02089260598449658 -0.074082082180265116 0 -0.021746061312307715 -0.081651144219982819 0 -0.020505913181747538 -0.077351181603057151 0 -0.02251190339577408 -0.077756464640061612 0 -0.02251190339577408 -0.077756464640061612 0 -0.02089260598449658 -0.074082082180265116 0 -0.021913314366338917 -0.073123297143671995 0 -0.020505913181747538 -0.077351181603057151 0 -0.02089260598449658 -0.074082082180265116 0 -0.019281092131325017 -0.072061575216637808 0 -0.02089260598449658 -0.074082082180265116 0 -0.020236376109463661 -0.070104767580529928 0 -0.019281092131325017 -0.072061575216637808 0 -0.02089260598449658 -0.074082082180265116 0 -0.021913314366338917 -0.073123297143671995 0 -0.020236376109463661 -0.070104767580529928 0 -0.021913314366338917 -0.073123297143671995 0 -0.02135995775492306 -0.068527944360284254 0 -0.020236376109463661 -0.070104767580529928 0 -0.019555593093825874 -0.065658592417689385 0 -0.020236376109463661 -0.070104767580529928 0 -0.018557154956543101 -0.068008000414736175 0 -0.020236376109463661 -0.070104767580529928 0 -0.018557154956543101 -0.068008000414736175 0 -0.019281092131325017 -0.072061575216637808 0 -0.018894171499890179 -0.074972081801142912 0 -0.019281092131325017 -0.072061575216637808 0 -0.01741475833608536 -0.070986464136686855 0 -0.018557154956543101 -0.068008000414736175 0 -0.019281092131325017 -0.072061575216637808 0 -0.01741475833608536 -0.070986464136686855 0 -0.018557154956543101 -0.068008000414736175 0 -0.016809979878939302 -0.0672305453532238 0 -0.01741475833608536 -0.070986464136686855 0 -0.016809979878939302 -0.0672305453532238 0 -0.01741475833608536 -0.070986464136686855 0 -0.015497568635957538 -0.066991605865521359 0 -0.01741475833608536 -0.070986464136686855 0 -0.015497568635957538 -0.066991605865521359 0 -0.016297282330395877 -0.07238549260628456 0 -0.013680004754481912 -0.063440910262449163 0 -0.015497568635957538 -0.066991605865521359 0 -0.014188894795729181 -0.068120639954685619 0 -0.014188894795729181 -0.068120639954685619 0 -0.014870863887367783 -0.071924427383213571 0 -0.01327180070533357 -0.070800367403000525 0 -0.014188894795729181 -0.068120639954685619 0 -0.014870863887367783 -0.071924427383213571 0 -0.016297282330395877 -0.07238549260628456 0 -0.015497568635957538 -0.066991605865521359 0 -0.014188894795729181 -0.068120639954685619 0 -0.016297282330395877 -0.07238549260628456 0 -0.014870863887367783 -0.071924427383213571 0 -0.016168311832351019 -0.07652399220058384 0 -0.016297282330395877 -0.07238549260628456 0 -0.014870863887367783 -0.071924427383213571 0 -0.014496603746448466 -0.074885866719239816 0 -0.01327180070533357 -0.070800367403000525 0 -0.014870863887367783 -0.071924427383213571 0 -0.014496603746448466 -0.074885866719239816 0 -0.016168311832351019 -0.07652399220058384 0 -0.016168311832351019 -0.07652399220058384 0 -0.016297282330395877 -0.07238549260628456 0 -0.017861683092909017 -0.07620760890533225 0 -0.016168311832351019 -0.07652399220058384 0 -0.017861683092909017 -0.07620760890533225 0 -0.01778181468341836 -0.079714812451282119 0 -0.01741475833608536 -0.070986464136686855 0 -0.016297282330395877 -0.07238549260628456 0 -0.017861683092909017 -0.07620760890533225 0 -0.018894171499890179 -0.074972081801142912 0 -0.01741475833608536 -0.070986464136686855 0 -0.017861683092909017 -0.07620760890533225 0 -0.019189721302350856 -0.081003831278568444 0 -0.017861683092909017 -0.07620760890533225 0 -0.01778181468341836 -0.079714812451282119 0 -0.019189721302350856 -0.081003831278568444 0 -0.01778181468341836 -0.079714812451282119 0 -0.018899270568105211 -0.083712431485274089 0 -0.01778181468341836 -0.079714812451282119 0 -0.016743572710549992 -0.081002056635711459 0 -0.018899270568105211 -0.083712431485274089 0 -0.016168311832351019 -0.07652399220058384 0 -0.01778181468341836 -0.079714812451282119 0 -0.016743572710549992 -0.081002056635711459 0 -0.016168311832351019 -0.07652399220058384 0 -0.014910259759994311 -0.079324028149589512 0 -0.016743572710549992 -0.081002056635711459 0 -0.014496603746448466 -0.074885866719239816 0 -0.016168311832351019 -0.07652399220058384 0 -0.014910259759994311 -0.079324028149589512 0 -0.014910259759994311 -0.079324028149589512 0 -0.016743572710549992 -0.081002056635711459 0 -0.016200000820215835 -0.083979130740625033 0 -0.016743572710549992 -0.081002056635711459 0 -0.016200000820215835 -0.083979130740625033 0 -0.01789896646687195 -0.085280077443770044 0 -0.014910259759994311 -0.079324028149589512 0 -0.016200000820215835 -0.083979130740625033 0 -0.014307679668413818 -0.082669186450548326 0 -0.016200000820215835 -0.083979130740625033 0 -0.017948391726411141 -0.088430475780877191 0 -0.016074312011973412 -0.087577347647019632 0 -0.016200000820215835 -0.083979130740625033 0 -0.017948391726411141 -0.088430475780877191 0 -0.01789896646687195 -0.085280077443770044 0 -0.017948391726411141 -0.088430475780877191 0 -0.01789896646687195 -0.085280077443770044 0 -0.019727880767696215 -0.089293693957315498 0 -0.016743572710549992 -0.081002056635711459 0 -0.01789896646687195 -0.085280077443770044 0 -0.018899270568105211 -0.083712431485274089 0 -0.01789896646687195 -0.085280077443770044 0 -0.018899270568105211 -0.083712431485274089 0 -0.019727880767696215 -0.089293693957315498 0 -0.020645611460087063 -0.086005085645291815 0 -0.018899270568105211 -0.083712431485274089 0 -0.019727880767696215 -0.089293693957315498 0 -0.012057700067321143 -0.085981618897803411 0 -0.011073799392644126 -0.082666441839838609 0 -0.012431955552307552 -0.082348463041105227 0 -0.012057700067321143 -0.085981618897803411 0 -0.011073799392644126 -0.082666441839838609 0 -0.0099086146563987058 -0.085268263927580648 0 -0.011073799392644126 -0.082666441839838609 0 -0.012431955552307552 -0.082348463041105227 0 -0.010699483885401137 -0.07868369773405165 0 -0.011073799392644126 -0.082666441839838609 0 -0.010699483885401137 -0.07868369773405165 0 -0.0093807667238717026 -0.080372077552589877 0 -0.012057700067321143 -0.085981618897803411 0 -0.012431955552307552 -0.082348463041105227 0 -0.014111365841712627 -0.086756227186610552 0 -0.014111365841712627 -0.086756227186610552 0 -0.016074312011973412 -0.087577347647019632 0 -0.014307679668413818 -0.082669186450548326 0 -0.016200000820215835 -0.083979130740625033 0 -0.016074312011973412 -0.087577347647019632 0 -0.014307679668413818 -0.082669186450548326 0 -0.012431955552307552 -0.082348463041105227 0 -0.014111365841712627 -0.086756227186610552 0 -0.014307679668413818 -0.082669186450548326 0 -0.012431955552307552 -0.082348463041105227 0 -0.014307679668413818 -0.082669186450548326 0 -0.012404971447283638 -0.077653506387010407 0 -0.014910259759994311 -0.079324028149589512 0 -0.013531531549584645 -0.076275475359264794 0 -0.012404971447283638 -0.077653506387010407 0 -0.014910259759994311 -0.079324028149589512 0 -0.014307679668413818 -0.082669186450548326 0 -0.012404971447283638 -0.077653506387010407 0 -0.014496603746448466 -0.074885866719239816 0 -0.014910259759994311 -0.079324028149589512 0 -0.013531531549584645 -0.076275475359264794 0 -0.012404971447283638 -0.077653506387010407 0 -0.010699483885401137 -0.07868369773405165 0 -0.010237092378959202 -0.07525268222340549 0 -0.012431955552307552 -0.082348463041105227 0 -0.012404971447283638 -0.077653506387010407 0 -0.010699483885401137 -0.07868369773405165 0 -0.010699483885401137 -0.07868369773405165 0 -0.010237092378959202 -0.07525268222340549 0 -0.0088273752278497947 -0.076185135413453356 0 -0.010237092378959202 -0.07525268222340549 0 -0.010836623059245487 -0.072445759283275651 0 -0.0084024775359256235 -0.071389863004550955 0 -0.010836623059245487 -0.072445759283275651 0 -0.0096455121895499714 -0.069171618818696448 0 -0.0084024775359256235 -0.071389863004550955 0 -0.010836623059245487 -0.072445759283275651 0 -0.011476665269412711 -0.069878952211617287 0 -0.0096455121895499714 -0.069171618818696448 0 -0.012404971447283638 -0.077653506387010407 0 -0.010237092378959202 -0.07525268222340549 0 -0.010836623059245487 -0.072445759283275651 0 -0.012404971447283638 -0.077653506387010407 0 -0.010836623059245487 -0.072445759283275651 0 -0.012469358328527006 -0.073301539947290856 0 -0.013531531549584645 -0.076275475359264794 0 -0.012404971447283638 -0.077653506387010407 0 -0.012469358328527006 -0.073301539947290856 0 -0.014496603746448466 -0.074885866719239816 0 -0.013531531549584645 -0.076275475359264794 0 -0.012469358328527006 -0.073301539947290856 0 -0.014496603746448466 -0.074885866719239816 0 -0.012469358328527006 -0.073301539947290856 0 -0.01327180070533357 -0.070800367403000525 0 -0.012469358328527006 -0.073301539947290856 0 -0.01327180070533357 -0.070800367403000525 0 -0.011476665269412711 -0.069878952211617287 0 -0.010836623059245487 -0.072445759283275651 0 -0.012469358328527006 -0.073301539947290856 0 -0.011476665269412711 -0.069878952211617287 0 -0.01327180070533357 -0.070800367403000525 0 -0.011476665269412711 -0.069878952211617287 0 -0.012223856233354969 -0.067232831332365822 0 -0.011476665269412711 -0.069878952211617287 0 -0.012223856233354969 -0.067232831332365822 0 -0.010287468177995907 -0.066529911799814836 0 -0.014188894795729181 -0.068120639954685619 0 -0.01327180070533357 -0.070800367403000525 0 -0.012223856233354969 -0.067232831332365822 0 -0.012223856233354969 -0.067232831332365822 0 -0.012715770935785131 -0.064605425335975852 0 -0.011146098548214252 -0.063851711764176977 0 -0.014188894795729181 -0.068120639954685619 0 -0.012223856233354969 -0.067232831332365822 0 -0.012715770935785131 -0.064605425335975852 0 -0.012223856233354969 -0.067232831332365822 0 -0.010287468177995907 -0.066529911799814836 0 -0.011146098548214252 -0.063851711764176977 0 -0.010287468177995907 -0.066529911799814836 0 -0.011146098548214252 -0.063851711764176977 0 -0.0090458300286803232 -0.062833077779761035 0 -0.011476665269412711 -0.069878952211617287 0 -0.010287468177995907 -0.066529911799814836 0 -0.0096455121895499714 -0.069171618818696448 0 -0.010287468177995907 -0.066529911799814836 0 -0.0096455121895499714 -0.069171618818696448 0 -0.0082575633822356068 -0.066398670957879075 0 -0.010287468177995907 -0.066529911799814836 0 -0.0082575633822356068 -0.066398670957879075 0 -0.0090458300286803232 -0.062833077779761035 0 -0.0082575633822356068 -0.066398670957879075 0 -0.0065379081463903237 -0.064712365546699263 0 -0.0071347491561381182 -0.061970555188690192 0 -0.0082575633822356068 -0.066398670957879075 0 -0.0090458300286803232 -0.062833077779761035 0 -0.0071347491561381182 -0.061970555188690192 0 -0.0082575633822356068 -0.066398670957879075 0 -0.0068597766235007586 -0.067842912299886995 0 -0.0084024775359256235 -0.071389863004550955 0 -0.0096455121895499714 -0.069171618818696448 0 -0.0082575633822356068 -0.066398670957879075 0 -0.0084024775359256235 -0.071389863004550955 0 -0.0082575633822356068 -0.066398670957879075 0 -0.0068597766235007586 -0.067842912299886995 0 -0.0065379081463903237 -0.064712365546699263 0 -0.0065379081463903237 -0.064712365546699263 0 -0.0051183778673399623 -0.065875256502408594 0 -0.0051571402889481121 -0.061943149041637571 0 -0.0051183778673399623 -0.065875256502408594 0 -0.0051571402889481121 -0.061943149041637571 0 -0.0031118546683323949 -0.063014069879310505 0 -0.0051183778673399623 -0.065875256502408594 0 -0.0034542130078932462 -0.066047748350241284 0 -0.0031118546683323949 -0.063014069879310505 0 -0.0051183778673399623 -0.065875256502408594 0 -0.0037442801000314263 -0.069207372765663716 0 -0.0034542130078932462 -0.066047748350241284 0 -0.0068597766235007586 -0.067842912299886995 0 -0.0051183778673399623 -0.065875256502408594 0 -0.0059254778094192965 -0.070938631629849258 0 -0.0068597766235007586 -0.067842912299886995 0 -0.0065379081463903237 -0.064712365546699263 0 -0.0051183778673399623 -0.065875256502408594 0 -0.0051183778673399623 -0.065875256502408594 0 -0.0059254778094192965 -0.070938631629849258 0 -0.0037442801000314263 -0.069207372765663716 0 -0.0059254778094192965 -0.070938631629849258 0 -0.0043243549691660155 -0.073728492058353801 0 -0.0037442801000314263 -0.069207372765663716 0 -0.0059254778094192965 -0.070938631629849258 0 -0.0069464446730226944 -0.074421184295761333 0 -0.0043243549691660155 -0.073728492058353801 0 -0.0059254778094192965 -0.070938631629849258 0 -0.0084024775359256235 -0.071389863004550955 0 -0.0069464446730226944 -0.074421184295761333 0 -0.0084024775359256235 -0.071389863004550955 0 -0.0088273752278497947 -0.076185135413453356 0 -0.0069464446730226944 -0.074421184295761333 0 -0.0068597766235007586 -0.067842912299886995 0 -0.0059254778094192965 -0.070938631629849258 0 -0.0084024775359256235 -0.071389863004550955 0 -0.010237092378959202 -0.07525268222340549 0 -0.0084024775359256235 -0.071389863004550955 0 -0.0088273752278497947 -0.076185135413453356 0 -0.010699483885401137 -0.07868369773405165 0 -0.0088273752278497947 -0.076185135413453356 0 -0.0093807667238717026 -0.080372077552589877 0 -0.0088273752278497947 -0.076185135413453356 0 -0.0074513822767617892 -0.077904820481621576 0 -0.0093807667238717026 -0.080372077552589877 0 -0.0088273752278497947 -0.076185135413453356 0 -0.0074513822767617892 -0.077904820481621576 0 -0.0069464446730226944 -0.074421184295761333 0 -0.0074513822767617892 -0.077904820481621576 0 -0.0069464446730226944 -0.074421184295761333 0 -0.0058189493149884471 -0.077085745876282932 0 -0.0069464446730226944 -0.074421184295761333 0 -0.0058189493149884471 -0.077085745876282932 0 -0.0043243549691660155 -0.073728492058353801 0 -0.0058189493149884471 -0.077085745876282932 0 -0.0063012139038611135 -0.080583190461449725 0 -0.0039850908975583967 -0.078905353894253863 0 -0.0058189493149884471 -0.077085745876282932 0 -0.0039850908975583967 -0.078905353894253863 0 -0.0043243549691660155 -0.073728492058353801 0 -0.0074513822767617892 -0.077904820481621576 0 -0.0058189493149884471 -0.077085745876282932 0 -0.0063012139038611135 -0.080583190461449725 0 -0.0074513822767617892 -0.077904820481621576 0 -0.0063012139038611135 -0.080583190461449725 0 -0.0081437108732172799 -0.081735921097615155 0 -0.0063012139038611135 -0.080583190461449725 0 -0.0054253293645696995 -0.084159454382961171 0 -0.0039850908975583967 -0.078905353894253863 0 -0.0063012139038611135 -0.080583190461449725 0 -0.0076916754855507214 -0.084660384572857211 0 -0.0054253293645696995 -0.084159454382961171 0 -0.0063012139038611135 -0.080583190461449725 0 -0.0076916754855507214 -0.084660384572857211 0 -0.0081437108732172799 -0.081735921097615155 0 -0.0076916754855507214 -0.084660384572857211 0 -0.0081437108732172799 -0.081735921097615155 0 -0.0099086146563987058 -0.085268263927580648 0 -0.0081437108732172799 -0.081735921097615155 0 -0.0093807667238717026 -0.080372077552589877 0 -0.0099086146563987058 -0.085268263927580648 0 -0.0074513822767617892 -0.077904820481621576 0 -0.0081437108732172799 -0.081735921097615155 0 -0.0093807667238717026 -0.080372077552589877 0 -0.011073799392644126 -0.082666441839838609 0 -0.0093807667238717026 -0.080372077552589877 0 -0.0099086146563987058 -0.085268263927580648 0 -0.0082570112926869995 -0.048737034976059926 0 -0.0092551986635437903 -0.052296011668862309 0 -0.0074667417338044311 -0.050633508089004256 0 -0.0092551986635437903 -0.052296011668862309 0 -0.0074667417338044311 -0.050633508089004256 0 -0.0078369305871409372 -0.054110437755308563 0 -0.0074667417338044311 -0.050633508089004256 0 -0.0078369305871409372 -0.054110437755308563 0 -0.0061296309911949886 -0.052379084130927886 0 -0.0082570112926869995 -0.048737034976059926 0 -0.0074667417338044311 -0.050633508089004256 0 -0.006496338316406002 -0.047051736247318822 0 -0.006496338316406002 -0.047051736247318822 0 -0.0077718311888836707 -0.044330772388054482 0 -0.0057060831471352829 -0.042871160027012259 0 -0.0082570112926869995 -0.048737034976059926 0 -0.006496338316406002 -0.047051736247318822 0 -0.0077718311888836707 -0.044330772388054482 0 -0.0067053902907091012 -0.040477764229684861 0 -0.0077718311888836707 -0.044330772388054482 0 -0.0057060831471352829 -0.042871160027012259 0 -0.0082570112926869995 -0.048737034976059926 0 -0.0077718311888836707 -0.044330772388054482 0 -0.0096874634778460443 -0.048283875144092138 0 -0.0077718311888836707 -0.044330772388054482 0 -0.0094294750442650861 -0.043132959190142303 0 -0.0096874634778460443 -0.048283875144092138 0 -0.0080974940306894755 -0.039880233753937747 0 -0.0077718311888836707 -0.044330772388054482 0 -0.0094294750442650861 -0.043132959190142303 0 -0.010874606016126286 -0.042471821391704245 0 -0.0094294750442650861 -0.043132959190142303 0 -0.010983759824409862 -0.047070794979754541 0 -0.0094294750442650861 -0.043132959190142303 0 -0.010983759824409862 -0.047070794979754541 0 -0.0096874634778460443 -0.048283875144092138 0 -0.010983759824409862 -0.047070794979754541 0 -0.0096874634778460443 -0.048283875144092138 0 -0.010948792515465787 -0.051500513990684102 0 -0.0082570112926869995 -0.048737034976059926 0 -0.0092551986635437903 -0.052296011668862309 0 -0.0096874634778460443 -0.048283875144092138 0 -0.0092551986635437903 -0.052296011668862309 0 -0.0096874634778460443 -0.048283875144092138 0 -0.010948792515465787 -0.051500513990684102 0 -0.0092551986635437903 -0.052296011668862309 0 -0.010948792515465787 -0.051500513990684102 0 -0.01105378567088919 -0.056466853797757233 0 -0.01201009289831294 -0.054818637473277178 0 -0.010948792515465787 -0.051500513990684102 0 -0.01105378567088919 -0.056466853797757233 0 -0.013212675476751931 -0.058803860238820248 0 -0.01105378567088919 -0.056466853797757233 0 -0.012053083913544064 -0.061050267698561991 0 -0.01105378567088919 -0.056466853797757233 0 -0.010199740118015747 -0.060156801903921787 0 -0.0094408925051880505 -0.056369827380935836 0 -0.01105378567088919 -0.056466853797757233 0 -0.012053083913544064 -0.061050267698561991 0 -0.010199740118015747 -0.060156801903921787 0 -0.0092551986635437903 -0.052296011668862309 0 -0.01105378567088919 -0.056466853797757233 0 -0.0094408925051880505 -0.056369827380935836 0 -0.012715770935785131 -0.064605425335975852 0 -0.012053083913544064 -0.061050267698561991 0 -0.011146098548214252 -0.063851711764176977 0 -0.012053083913544064 -0.061050267698561991 0 -0.011146098548214252 -0.063851711764176977 0 -0.010199740118015747 -0.060156801903921787 0 -0.011146098548214252 -0.063851711764176977 0 -0.010199740118015747 -0.060156801903921787 0 -0.0090458300286803232 -0.062833077779761035 0 -0.010199740118015747 -0.060156801903921787 0 -0.0081084872822914864 -0.058625608403416879 0 -0.0090458300286803232 -0.062833077779761035 0 -0.0081084872822914864 -0.058625608403416879 0 -0.0090458300286803232 -0.062833077779761035 0 -0.0071347491561381182 -0.061970555188690192 0 -0.0092551986635437903 -0.052296011668862309 0 -0.0094408925051880505 -0.056369827380935836 0 -0.0078369305871409372 -0.054110437755308563 0 -0.010199740118015747 -0.060156801903921787 0 -0.0081084872822914864 -0.058625608403416879 0 -0.0094408925051880505 -0.056369827380935836 0 -0.0081084872822914864 -0.058625608403416879 0 -0.0094408925051880505 -0.056369827380935836 0 -0.0078369305871409372 -0.054110437755308563 0 -0.0081084872822914864 -0.058625608403416879 0 -0.0078369305871409372 -0.054110437755308563 0 -0.0065179717034809072 -0.055473401420740052 0 -0.0078369305871409372 -0.054110437755308563 0 -0.0065179717034809072 -0.055473401420740052 0 -0.0061296309911949886 -0.052379084130927886 0 -0.0081084872822914864 -0.058625608403416879 0 -0.0065179717034809072 -0.055473401420740052 0 -0.0055214103836694894 -0.058010162453224351 0 -0.0065179717034809072 -0.055473401420740052 0 -0.0055214103836694894 -0.058010162453224351 0 -0.0047331964042708462 -0.054158447613980053 0 -0.0047331964042708462 -0.054158447613980053 0 -0.0044093822342228806 -0.050837203726557596 0 -0.0061296309911949886 -0.052379084130927886 0 -0.0065179717034809072 -0.055473401420740052 0 -0.0047331964042708462 -0.054158447613980053 0 -0.0061296309911949886 -0.052379084130927886 0 -0.0081084872822914864 -0.058625608403416879 0 -0.0071347491561381182 -0.061970555188690192 0 -0.0055214103836694894 -0.058010162453224351 0 -0.0071347491561381182 -0.061970555188690192 0 -0.0055214103836694894 -0.058010162453224351 0 -0.0051571402889481121 -0.061943149041637571 0 -0.0065379081463903237 -0.064712365546699263 0 -0.0071347491561381182 -0.061970555188690192 0 -0.0051571402889481121 -0.061943149041637571 0 -0.0055214103836694894 -0.058010162453224351 0 -0.0051571402889481121 -0.061943149041637571 0 -0.003034496944880376 -0.058190063653176638 0 -0.0051571402889481121 -0.061943149041637571 0 -0.003034496944880376 -0.058190063653176638 0 -0.0031118546683323949 -0.063014069879310505 0 -0.0055214103836694894 -0.058010162453224351 0 -0.0031468048102067281 -0.054832835394664652 0 -0.003034496944880376 -0.058190063653176638 0 -0.0047331964042708462 -0.054158447613980053 0 -0.0031468048102067281 -0.054832835394664652 0 -0.0029740849612816295 -0.051196419784136381 0 -0.0047331964042708462 -0.054158447613980053 0 -0.0029740849612816295 -0.051196419784136381 0 -0.0044093822342228806 -0.050837203726557596 0 -0.0055214103836694894 -0.058010162453224351 0 -0.0047331964042708462 -0.054158447613980053 0 -0.0031468048102067281 -0.054832835394664652 0 -0.0031468048102067281 -0.054832835394664652 0 -0.0029740849612816295 -0.051196419784136381 0 -0.0015139270202000697 -0.051960235399163952 0 -0.0029740849612816295 -0.051196419784136381 0 -0.00079532563720120428 -0.048871507362341644 0 -0.0015139270202000697 -0.051960235399163952 0 -0.0029740849612816295 -0.051196419784136381 0 -0.002756108543977346 -0.047454277463444078 0 -0.00079532563720120428 -0.048871507362341644 0 -0.0029740849612816295 -0.051196419784136381 0 -0.002756108543977346 -0.047454277463444078 0 -0.0044093822342228806 -0.050837203726557596 0 -0.0044093822342228806 -0.050837203726557596 0 -0.0052742711836158106 -0.048980002882457789 0 -0.0061296309911949886 -0.052379084130927886 0 -0.002756108543977346 -0.047454277463444078 0 -0.0044093822342228806 -0.050837203726557596 0 -0.0052742711836158106 -0.048980002882457789 0 -0.002756108543977346 -0.047454277463444078 0 -0.0052742711836158106 -0.048980002882457789 0 -0.0041804141055081668 -0.045122004171690093 0 -0.006496338316406002 -0.047051736247318822 0 -0.0052742711836158106 -0.048980002882457789 0 -0.0041804141055081668 -0.045122004171690093 0 -0.0074667417338044311 -0.050633508089004256 0 -0.006496338316406002 -0.047051736247318822 0 -0.0052742711836158106 -0.048980002882457789 0 -0.0074667417338044311 -0.050633508089004256 0 -0.0052742711836158106 -0.048980002882457789 0 -0.0061296309911949886 -0.052379084130927886 0 -0.006496338316406002 -0.047051736247318822 0 -0.0057060831471352829 -0.042871160027012259 0 -0.0041804141055081668 -0.045122004171690093 0 -0.0034605669275510078 -0.040681441557080054 0 -0.0057060831471352829 -0.042871160027012259 0 -0.0041804141055081668 -0.045122004171690093 0 -0.002756108543977346 -0.047454277463444078 0 -0.0019376643383326952 -0.04323102789806238 0 0.00019874297114923464 -0.044673804166460246 0 -0.0034605669275510078 -0.040681441557080054 0 -0.0011698106790783876 -0.039801229546868377 0 -0.0019376643383326952 -0.04323102789806238 0 -0.0034605669275510078 -0.040681441557080054 0 -0.0041804141055081668 -0.045122004171690093 0 -0.0019376643383326952 -0.04323102789806238 0 -0.002756108543977346 -0.047454277463444078 0 -0.0041804141055081668 -0.045122004171690093 0 -0.0019376643383326952 -0.04323102789806238 0 -0.0011698106790783876 -0.039801229546868377 0 -0.0019376643383326952 -0.04323102789806238 0 0.00046188929646429777 -0.041031611589408358 0 -0.0019376643383326952 -0.04323102789806238 0 0.00019874297114923464 -0.044673804166460246 0 0.00046188929646429777 -0.041031611589408358 0 0.00019874297114923464 -0.044673804166460246 0 0.00046188929646429777 -0.041031611589408358 0 0.0019936970958171095 -0.043744687560951449 0 0.00019874297114923464 -0.044673804166460246 0 0.0019936970958171095 -0.043744687560951449 0 0.0017741375897371383 -0.047089809840188096 0 0.00046188929646429777 -0.041031611589408358 0 0.0022392560953574908 -0.040288972875642086 0 0.0019936970958171095 -0.043744687560951449 0 0.0022392560953574908 -0.040288972875642086 0 0.0019936970958171095 -0.043744687560951449 0 0.0039348149973918115 -0.043611274392792762 0 0.0019936970958171095 -0.043744687560951449 0 0.0039348149973918115 -0.043611274392792762 0 0.0017741375897371383 -0.047089809840188096 0 0.0022392560953574908 -0.040288972875642086 0 0.0039348149973918115 -0.043611274392792762 0 0.0039054469479123375 -0.038829558383801567 0 0.0025510593359055708 -0.050802235378737619 0 0.0044155157190992203 -0.051028319759028627 0 0.0041367207770217802 -0.048032612658811757 0 0.0017741375897371383 -0.047089809840188096 0 0.0025510593359055708 -0.050802235378737619 0 0.0041367207770217802 -0.048032612658811757 0 0.0039348149973918115 -0.043611274392792762 0 0.0017741375897371383 -0.047089809840188096 0 0.0041367207770217802 -0.048032612658811757 0 0.0017741375897371383 -0.047089809840188096 0 0.00038887269067630013 -0.051140535807883511 0 0.0025510593359055708 -0.050802235378737619 0 -0.002756108543977346 -0.047454277463444078 0 0.00019874297114923464 -0.044673804166460246 0 -0.00079532563720120428 -0.048871507362341644 0 0.0017741375897371383 -0.047089809840188096 0 -0.00079532563720120428 -0.048871507362341644 0 0.00038887269067630013 -0.051140535807883511 0 0.00019874297114923464 -0.044673804166460246 0 0.0017741375897371383 -0.047089809840188096 0 -0.00079532563720120428 -0.048871507362341644 0 -0.00079532563720120428 -0.048871507362341644 0 -0.0015139270202000697 -0.051960235399163952 0 0.00038887269067630013 -0.051140535807883511 0 -0.0031468048102067281 -0.054832835394664652 0 -0.0015139270202000697 -0.051960235399163952 0 -0.0010279666811035847 -0.054531957110606863 0 -0.0015139270202000697 -0.051960235399163952 0 -0.0010279666811035847 -0.054531957110606863 0 0.00038887269067630013 -0.051140535807883511 0 -0.0031468048102067281 -0.054832835394664652 0 -0.0010279666811035847 -0.054531957110606863 0 -0.003034496944880376 -0.058190063653176638 0 -0.0010279666811035847 -0.054531957110606863 0 -0.00040342909126622739 -0.056663508287950456 0 0.0011301946599341938 -0.053903371508855248 0 -0.0010279666811035847 -0.054531957110606863 0 0.00038887269067630013 -0.051140535807883511 0 0.0011301946599341938 -0.053903371508855248 0 -0.003034496944880376 -0.058190063653176638 0 -0.0013066630078600546 -0.062265482554795998 0 -0.0031118546683323949 -0.063014069879310505 0 -0.0010279666811035847 -0.054531957110606863 0 -0.003034496944880376 -0.058190063653176638 0 -0.00040342909126622739 -0.056663508287950456 0 -0.036780639682414656 -0.059751773648203173 0 0.0080347955619061977 -0.05666853241514784 0 -0.003034496944880376 -0.058190063653176638 0 -0.0013639969157270826 -0.058969031365656857 0 -0.0013066630078600546 -0.062265482554795998 0 -0.0013066630078600546 -0.062265482554795998 0 0.00057406207706189134 -0.058509048757634671 0 0.00031267633980861296 -0.063400605694423712 0 0.0080347955619061977 -0.05666853241514784 0 -0.0011416993462068212 -0.058123900771227754 0 -0.00040342909126622739 -0.056663508287950456 0 0.0021697870329910832 -0.056816571729268552 0 0.0011301946599341938 -0.053903371508855248 0 -0.0013639969157270826 -0.058969031365656857 0 -0.0013066630078600546 -0.062265482554795998 0 0.00057406207706189134 -0.058509048757634671 0 -0.0011416993462068212 -0.058123900771227754 0 0.0041106114884159788 -0.057467199450064323 0 0.0021697870329910832 -0.056816571729268552 0 0.0035422125571071749 -0.053993394113062317 0 0.004627609425073221 -0.056418036639187215 0 0.00057406207706189134 -0.058509048757634671 0 0.0018256002796224002 -0.061381114806592772 0 0.00031267633980861296 -0.063400605694423712 0 0.00038887269067630013 -0.051140535807883511 0 0.0011301946599341938 -0.053903371508855248 0 0.0025510593359055708 -0.050802235378737619 0 0.0021697870329910832 -0.056816571729268552 0 0.0011301946599341938 -0.053903371508855248 0 0.0035422125571071749 -0.053993394113062317 0 0.0011301946599341938 -0.053903371508855248 0 0.0035422125571071749 -0.053993394113062317 0 0.0025510593359055708 -0.050802235378737619 0 0.0035422125571071749 -0.053993394113062317 0 0.0025510593359055708 -0.050802235378737619 0 0.0044155157190992203 -0.051028319759028627 0 0.0035422125571071749 -0.053993394113062317 0 0.0044155157190992203 -0.051028319759028627 0 0.0058993067008191701 -0.053221399435268012 0 0.0035422125571071749 -0.053993394113062317 0 0.0058993067008191701 -0.053221399435268012 0 0.004627609425073221 -0.056418036639187215 0 0.0058993067008191701 -0.053221399435268012 0 0.004627609425073221 -0.056418036639187215 0 0.0070266337941100937 -0.05666496798980631 0 0.0044155157190992203 -0.051028319759028627 0 0.0058993067008191701 -0.053221399435268012 0 0.0060582905760537663 -0.04960275133333672 0 0.0018256002796224002 -0.061381114806592772 0 0.0030859735588821134 -0.061178948238384073 0 0.0023353779066657208 -0.064488625008560743 0 0.0018256002796224002 -0.061381114806592772 0 0.0025824537349874877 -0.058723559754938058 0 0.0030859735588821134 -0.061178948238384073 0 0.00057406207706189134 -0.058509048757634671 0 0.0018256002796224002 -0.061381114806592772 0 0.0025824537349874877 -0.058723559754938058 0 0.0041106114884159788 -0.057467199450064323 0 0.0054829765718791036 -0.057528455544847361 0 0.0025824537349874877 -0.058723559754938058 0 0.0030859735588821134 -0.061178948238384073 0 0.0046013435601769091 -0.058357445047705257 0 0.0030859735588821134 -0.061178948238384073 0 0.0046013435601769091 -0.058357445047705257 0 0.0041994703728004705 -0.062852229765953754 0 0.0046013435601769091 -0.058357445047705257 0 0.0056445156035186224 -0.061796050990811854 0 0.0041994703728004705 -0.062852229765953754 0 0.0046013435601769091 -0.058357445047705257 0 0.006665511954852492 -0.058702367050805213 0 0.0056445156035186224 -0.061796050990811854 0 0.0070266337941100937 -0.05666496798980631 0 0.0093915940144669082 -0.056396843910819457 0 0.0082678573981815138 -0.054079234779114145 0 0.0054829765718791036 -0.057528455544847361 0 0.0079317750432896638 -0.057549540331320051 0 0.006665511954852492 -0.058702367050805213 0 0.0056445156035186224 -0.061796050990811854 0 0.0070041838454318614 -0.062915143205933111 0 0.0058993067008191701 -0.053221399435268012 0 0.0077771592567704925 -0.050994157072371739 0 0.0082678573981815138 -0.054079234779114145 0 0.0058993067008191701 -0.053221399435268012 0 0.0077771592567704925 -0.050994157072371739 0 0.0060582905760537663 -0.04960275133333672 0 0.0058993067008191701 -0.053221399435268012 0 0.0070266337941100937 -0.05666496798980631 0 0.0082678573981815138 -0.054079234779114145 0 0.0077771592567704925 -0.050994157072371739 0 0.0082678573981815138 -0.054079234779114145 0 0.0094196328784181688 -0.050631045443667755 0 0.0082678573981815138 -0.054079234779114145 0 0.0094196328784181688 -0.050631045443667755 0 0.010522753548024073 -0.053786979048198909 0 0.0077771592567704925 -0.050994157072371739 0 0.0094196328784181688 -0.050631045443667755 0 0.0080623520969052495 -0.046795350931780486 0 0.0094196328784181688 -0.050631045443667755 0 0.0080623520969052495 -0.046795350931780486 0 0.010497499688276573 -0.047946196437139842 0 0.0077771592567704925 -0.050994157072371739 0 0.0080623520969052495 -0.046795350931780486 0 0.0060582905760537663 -0.04960275133333672 0 0.0080623520969052495 -0.046795350931780486 0 0.0063139045677576312 -0.042899967097000356 0 0.0060915791692843311 -0.046253546309850256 0 0.0080623520969052495 -0.046795350931780486 0 0.0060582905760537663 -0.04960275133333672 0 0.0060915791692843311 -0.046253546309850256 0 0.0080623520969052495 -0.046795350931780486 0 0.0080404985787511669 -0.042011557269515581 0 0.010477372069335538 -0.043832859059717427 0 0.0080404985787511669 -0.042011557269515581 0 0.010477372069335538 -0.043832859059717427 0 0.0091121423595316685 -0.039322880686419821 0 0.0080404985787511669 -0.042011557269515581 0 0.0063139045677576312 -0.042899967097000356 0 0.0071746319626336801 -0.038666871464313052 0 0.0080623520969052495 -0.046795350931780486 0 0.0080404985787511669 -0.042011557269515581 0 0.0063139045677576312 -0.042899967097000356 0 0.0039348149973918115 -0.043611274392792762 0 0.0063139045677576312 -0.042899967097000356 0 0.0060915791692843311 -0.046253546309850256 0 0.0063139045677576312 -0.042899967097000356 0 0.0054761720236911398 -0.040004912522754142 0 0.0071746319626336801 -0.038666871464313052 0 0.0039348149973918115 -0.043611274392792762 0 0.0063139045677576312 -0.042899967097000356 0 0.0054761720236911398 -0.040004912522754142 0 0.0039348149973918115 -0.043611274392792762 0 0.0039054469479123375 -0.038829558383801567 0 0.0054761720236911398 -0.040004912522754142 0 0.0039348149973918115 -0.043611274392792762 0 0.0041367207770217802 -0.048032612658811757 0 0.0060915791692843311 -0.046253546309850256 0 0.0044155157190992203 -0.051028319759028627 0 0.0041367207770217802 -0.048032612658811757 0 0.0060582905760537663 -0.04960275133333672 0 0.0041367207770217802 -0.048032612658811757 0 0.0060582905760537663 -0.04960275133333672 0 0.0060915791692843311 -0.046253546309850256 0 -0.00083006637545412999 -0.083468901465063958 0 0.00035318763929403685 -0.079346145353678441 0 -0.0018067682190941602 -0.080462771261683608 0 -0.00083006637545412999 -0.083468901465063958 0 0.00035318763929403685 -0.079346145353678441 0 0.0014698978104770635 -0.083252105717336183 0 0.00035318763929403685 -0.079346145353678441 0 -0.0018067682190941602 -0.080462771261683608 0 -0.001390840276202321 -0.076940870664574348 0 -0.00083006637545412999 -0.083468901465063958 0 -0.0018067682190941602 -0.080462771261683608 0 -0.0031438109955455808 -0.08376675247145636 0 -0.0031438109955455808 -0.08376675247145636 0 -0.0054253293645696995 -0.084159454382961171 0 -0.0039850908975583967 -0.078905353894253863 0 -0.0018067682190941602 -0.080462771261683608 0 -0.0039850908975583967 -0.078905353894253863 0 -0.001390840276202321 -0.076940870664574348 0 -0.0018067682190941602 -0.080462771261683608 0 -0.0031438109955455808 -0.08376675247145636 0 -0.0039850908975583967 -0.078905353894253863 0 -0.0039850908975583967 -0.078905353894253863 0 -0.0024727175494613667 -0.074667571174796388 0 -0.001390840276202321 -0.076940870664574348 0 -0.0039850908975583967 -0.078905353894253863 0 -0.0043243549691660155 -0.073728492058353801 0 -0.0024727175494613667 -0.074667571174796388 0 -0.0024727175494613667 -0.074667571174796388 0 -0.00089685974672841821 -0.073827302882969958 0 -0.001707810391340427 -0.070992682852572334 0 -0.0024727175494613667 -0.074667571174796388 0 -0.00089685974672841821 -0.073827302882969958 0 -0.001390840276202321 -0.076940870664574348 0 -0.00089685974672841821 -0.073827302882969958 0 -0.001390840276202321 -0.076940870664574348 0 0.00053816734693300477 -0.075211926127593559 0 0.00035318763929403685 -0.079346145353678441 0 -0.001390840276202321 -0.076940870664574348 0 0.00053816734693300477 -0.075211926127593559 0 -0.00089685974672841821 -0.073827302882969958 0 0.00053816734693300477 -0.075211926127593559 0 0.00054856755168787704 -0.071398880861348615 0 0.00054856755168787704 -0.071398880861348615 0 0.00036413235879726786 -0.067415833419259261 0 0.0022459236479711242 -0.068816547560413707 0 0.00054856755168787704 -0.071398880861348615 0 -0.001707810391340427 -0.070992682852572334 0 0.00036413235879726786 -0.067415833419259261 0 -0.001707810391340427 -0.070992682852572334 0 -0.0017952366879522136 -0.066226748914146136 0 0.00036413235879726786 -0.067415833419259261 0 -0.00089685974672841821 -0.073827302882969958 0 0.00054856755168787704 -0.071398880861348615 0 -0.001707810391340427 -0.070992682852572334 0 -0.0043243549691660155 -0.073728492058353801 0 -0.0024727175494613667 -0.074667571174796388 0 -0.001707810391340427 -0.070992682852572334 0 -0.0043243549691660155 -0.073728492058353801 0 -0.001707810391340427 -0.070992682852572334 0 -0.0037442801000314263 -0.069207372765663716 0 -0.001707810391340427 -0.070992682852572334 0 -0.0037442801000314263 -0.069207372765663716 0 -0.0017952366879522136 -0.066226748914146136 0 -0.0037442801000314263 -0.069207372765663716 0 -0.0017952366879522136 -0.066226748914146136 0 -0.0034542130078932462 -0.066047748350241284 0 -0.0017952366879522136 -0.066226748914146136 0 -0.0034542130078932462 -0.066047748350241284 0 -0.0031118546683323949 -0.063014069879310505 0 -0.0013066630078600546 -0.062265482554795998 0 -0.0017952366879522136 -0.066226748914146136 0 -0.0031118546683323949 -0.063014069879310505 0 -0.0013066630078600546 -0.062265482554795998 0 -0.0017952366879522136 -0.066226748914146136 0 0.00031267633980861296 -0.063400605694423712 0 -0.0017952366879522136 -0.066226748914146136 0 0.00036413235879726786 -0.067415833419259261 0 0.00031267633980861296 -0.063400605694423712 0 0.00036413235879726786 -0.067415833419259261 0 0.00031267633980861296 -0.063400605694423712 0 0.0023353779066657208 -0.064488625008560743 0 0.0018256002796224002 -0.061381114806592772 0 0.00031267633980861296 -0.063400605694423712 0 0.0023353779066657208 -0.064488625008560743 0 0.00036413235879726786 -0.067415833419259261 0 0.0023353779066657208 -0.064488625008560743 0 0.0022459236479711242 -0.068816547560413707 0 0.0023353779066657208 -0.064488625008560743 0 0.0036124365549044138 -0.066508622403752063 0 0.0022459236479711242 -0.068816547560413707 0 0.0023353779066657208 -0.064488625008560743 0 0.0036124365549044138 -0.066508622403752063 0 0.0041994703728004705 -0.062852229765953754 0 0.0030859735588821134 -0.061178948238384073 0 0.0023353779066657208 -0.064488625008560743 0 0.0041994703728004705 -0.062852229765953754 0 0.0056445156035186224 -0.061796050990811854 0 0.0041994703728004705 -0.062852229765953754 0 0.0055190976867666936 -0.066210376701219778 0 0.0056445156035186224 -0.061796050990811854 0 0.0055190976867666936 -0.066210376701219778 0 0.0070041838454318614 -0.062915143205933111 0 0.0036124365549044138 -0.066508622403752063 0 0.0041994703728004705 -0.062852229765953754 0 0.0055190976867666936 -0.066210376701219778 0 0.0036124365549044138 -0.066508622403752063 0 0.0055190976867666936 -0.066210376701219778 0 0.0037456898156893333 -0.070249383834159143 0 0.0055190976867666936 -0.066210376701219778 0 0.0055086254797665829 -0.070997146567484418 0 0.0037456898156893333 -0.070249383834159143 0 0.0055190976867666936 -0.066210376701219778 0 0.0055086254797665829 -0.070997146567484418 0 0.0072881255390108658 -0.070095089621964368 0 0.0055086254797665829 -0.070997146567484418 0 0.0037456898156893333 -0.070249383834159143 0 0.0052160810141963386 -0.074265771068553227 0 0.0037456898156893333 -0.070249383834159143 0 0.0026132952951674333 -0.073218794885386254 0 0.0052160810141963386 -0.074265771068553227 0 0.0037456898156893333 -0.070249383834159143 0 0.0022459236479711242 -0.068816547560413707 0 0.0026132952951674333 -0.073218794885386254 0 0.0036124365549044138 -0.066508622403752063 0 0.0037456898156893333 -0.070249383834159143 0 0.0022459236479711242 -0.068816547560413707 0 0.00054856755168787704 -0.071398880861348615 0 0.0022459236479711242 -0.068816547560413707 0 0.0026132952951674333 -0.073218794885386254 0 0.00053816734693300477 -0.075211926127593559 0 0.00054856755168787704 -0.071398880861348615 0 0.0026132952951674333 -0.073218794885386254 0 0.00053816734693300477 -0.075211926127593559 0 0.002031542314085184 -0.076738527827287448 0 0.0026132952951674333 -0.073218794885386254 0 0.00035318763929403685 -0.079346145353678441 0 0.00053816734693300477 -0.075211926127593559 0 0.002031542314085184 -0.076738527827287448 0 0.002031542314085184 -0.076738527827287448 0 0.0035731433833987155 -0.076563843940654033 0 0.0029923167437000075 -0.079753730752564839 0 0.002031542314085184 -0.076738527827287448 0 0.0026132952951674333 -0.073218794885386254 0 0.0035731433833987155 -0.076563843940654033 0 0.0026132952951674333 -0.073218794885386254 0 0.0052160810141963386 -0.074265771068553227 0 0.0035731433833987155 -0.076563843940654033 0 0.0055086254797665829 -0.070997146567484418 0 0.0052160810141963386 -0.074265771068553227 0 0.0071592424570138327 -0.073800572161404343 0 0.0052160810141963386 -0.074265771068553227 0 0.0050333821088495668 -0.078890532727917531 0 0.0065488026998872066 -0.076690958512249316 0 0.0052160810141963386 -0.074265771068553227 0 0.0035731433833987155 -0.076563843940654033 0 0.0050333821088495668 -0.078890532727917531 0 0.0035731433833987155 -0.076563843940654033 0 0.0050333821088495668 -0.078890532727917531 0 0.0029923167437000075 -0.079753730752564839 0 0.0050333821088495668 -0.078890532727917531 0 0.0037642418154634591 -0.083104682503582272 0 0.0060365308723032592 -0.083005946459249205 0 0.0050333821088495668 -0.078890532727917531 0 0.0060365308723032592 -0.083005946459249205 0 0.0070574099583109824 -0.079613640440321515 0 0.0050333821088495668 -0.078890532727917531 0 0.0037642418154634591 -0.083104682503582272 0 0.0029923167437000075 -0.079753730752564839 0 0.0037642418154634591 -0.083104682503582272 0 0.0029923167437000075 -0.079753730752564839 0 0.0014698978104770635 -0.083252105717336183 0 0.00035318763929403685 -0.079346145353678441 0 0.002031542314085184 -0.076738527827287448 0 0.0029923167437000075 -0.079753730752564839 0 0.00035318763929403685 -0.079346145353678441 0 0.0029923167437000075 -0.079753730752564839 0 0.0014698978104770635 -0.083252105717336183 0 0.010528260754034824 -0.082894105013790145 0 0.010698484286721177 -0.077645589812144547 0 0.012760297325846154 -0.079108587247325959 0 0.010528260754034824 -0.082894105013790145 0 0.0090174825483144341 -0.079909524722360958 0 0.010698484286721177 -0.077645589812144547 0 0.0090174825483144341 -0.079909524722360958 0 0.0082909602344427812 -0.076919329634143371 0 0.010698484286721177 -0.077645589812144547 0 0.010528260754034824 -0.082894105013790145 0 0.0090174825483144341 -0.079909524722360958 0 0.0082938077925454514 -0.082940000146530662 0 0.0090174825483144341 -0.079909524722360958 0 0.0082938077925454514 -0.082940000146530662 0 0.0070574099583109824 -0.079613640440321515 0 0.0082938077925454514 -0.082940000146530662 0 0.0060365308723032592 -0.083005946459249205 0 0.0070574099583109824 -0.079613640440321515 0 0.0050333821088495668 -0.078890532727917531 0 0.0070574099583109824 -0.079613640440321515 0 0.0065488026998872066 -0.076690958512249316 0 0.0090174825483144341 -0.079909524722360958 0 0.0070574099583109824 -0.079613640440321515 0 0.0082909602344427812 -0.076919329634143371 0 0.0082909602344427812 -0.076919329634143371 0 0.0065488026998872066 -0.076690958512249316 0 0.0071592424570138327 -0.073800572161404343 0 0.0070574099583109824 -0.079613640440321515 0 0.0082909602344427812 -0.076919329634143371 0 0.0065488026998872066 -0.076690958512249316 0 0.0052160810141963386 -0.074265771068553227 0 0.0065488026998872066 -0.076690958512249316 0 0.0071592424570138327 -0.073800572161404343 0 0.0082909602344427812 -0.076919329634143371 0 0.0071592424570138327 -0.073800572161404343 0 0.0090345407608518457 -0.073764740273944057 0 0.0090345407608518457 -0.073764740273944057 0 0.010698484286721177 -0.077645589812144547 0 0.010994540878830707 -0.073510656575491648 0 0.0082909602344427812 -0.076919329634143371 0 0.0090345407608518457 -0.073764740273944057 0 0.010698484286721177 -0.077645589812144547 0 0.010698484286721177 -0.077645589812144547 0 0.010994540878830707 -0.073510656575491648 0 0.013075397986081989 -0.075067170226418553 0 0.010994540878830707 -0.073510656575491648 0 0.0098050946628633999 -0.070634184173435796 0 0.012160997759465825 -0.070431951092094186 0 0.0098050946628633999 -0.070634184173435796 0 0.010766303488908776 -0.067293170095778843 0 0.012160997759465825 -0.070431951092094186 0 0.0098050946628633999 -0.070634184173435796 0 0.0087139513533583089 -0.067871233596047076 0 0.010766303488908776 -0.067293170095778843 0 0.0090345407608518457 -0.073764740273944057 0 0.010994540878830707 -0.073510656575491648 0 0.0098050946628633999 -0.070634184173435796 0 0.0071592424570138327 -0.073800572161404343 0 0.0090345407608518457 -0.073764740273944057 0 0.0072881255390108658 -0.070095089621964368 0 0.0090345407608518457 -0.073764740273944057 0 0.0098050946628633999 -0.070634184173435796 0 0.0072881255390108658 -0.070095089621964368 0 0.0055086254797665829 -0.070997146567484418 0 0.0071592424570138327 -0.073800572161404343 0 0.0072881255390108658 -0.070095089621964368 0 0.0072881255390108658 -0.070095089621964368 0 0.0087139513533583089 -0.067871233596047076 0 0.0074789881388093908 -0.066329394704128034 0 0.0098050946628633999 -0.070634184173435796 0 0.0072881255390108658 -0.070095089621964368 0 0.0087139513533583089 -0.067871233596047076 0 0.0087139513533583089 -0.067871233596047076 0 0.0074789881388093908 -0.066329394704128034 0 0.0088492884520310101 -0.064561353082178571 0 0.0055190976867666936 -0.066210376701219778 0 0.0074789881388093908 -0.066329394704128034 0 0.0070041838454318614 -0.062915143205933111 0 0.0055190976867666936 -0.066210376701219778 0 0.0072881255390108658 -0.070095089621964368 0 0.0074789881388093908 -0.066329394704128034 0 0.0074789881388093908 -0.066329394704128034 0 0.0070041838454318614 -0.062915143205933111 0 0.0088492884520310101 -0.064561353082178571 0 0.0070041838454318614 -0.062915143205933111 0 0.0088492884520310101 -0.064561353082178571 0 0.0081571529222342516 -0.061175583081864923 0 0.0088492884520310101 -0.064561353082178571 0 0.010766303488908776 -0.067293170095778843 0 0.011162725888348986 -0.063485140180091215 0 0.0088492884520310101 -0.064561353082178571 0 0.011162725888348986 -0.063485140180091215 0 0.0096146034954273374 -0.061465745891489267 0 0.0087139513533583089 -0.067871233596047076 0 0.0088492884520310101 -0.064561353082178571 0 0.010766303488908776 -0.067293170095778843 0 0.010766303488908776 -0.067293170095778843 0 0.011162725888348986 -0.063485140180091215 0 0.013215471379381871 -0.06632649196629882 0 0.011162725888348986 -0.063485140180091215 0 0.013215471379381871 -0.06632649196629882 0 0.013124102875418152 -0.062289186309093872 0 0.013215471379381871 -0.06632649196629882 0 0.01504008006854771 -0.063234232472666893 0 0.015424922347607289 -0.067029169703523558 0 0.013215471379381871 -0.06632649196629882 0 0.01504008006854771 -0.063234232472666893 0 0.013124102875418152 -0.062289186309093872 0 0.01504008006854771 -0.063234232472666893 0 0.016349208123371164 -0.064702586863504025 0 0.015424922347607289 -0.067029169703523558 0 0.01504008006854771 -0.063234232472666893 0 0.016349208123371164 -0.064702586863504025 0 0.016258624825364346 -0.061439167812733834 0 0.016349208123371164 -0.064702586863504025 0 0.016258624825364346 -0.061439167812733834 0 0.017499205746985939 -0.062679906938786958 0 0.016349208123371164 -0.064702586863504025 0 0.017454917915126138 -0.066654943276149445 0 0.017499205746985939 -0.062679906938786958 0 0.016349208123371164 -0.064702586863504025 0 0.017454917915126138 -0.066654943276149445 0 0.015424922347607289 -0.067029169703523558 0 0.01738038710173942 -0.070636759361310655 0 0.014608665757939775 -0.070693798255785811 0 0.015275569228928759 -0.074367830212839284 0 0.015424922347607289 -0.067029169703523558 0 0.01738038710173942 -0.070636759361310655 0 0.014608665757939775 -0.070693798255785811 0 0.017454917915126138 -0.066654943276149445 0 0.015424922347607289 -0.067029169703523558 0 0.01738038710173942 -0.070636759361310655 0 0.014608665757939775 -0.070693798255785811 0 0.012160997759465825 -0.070431951092094186 0 0.013075397986081989 -0.075067170226418553 0 0.013215471379381871 -0.06632649196629882 0 0.015424922347607289 -0.067029169703523558 0 0.014608665757939775 -0.070693798255785811 0 0.013215471379381871 -0.06632649196629882 0 0.014608665757939775 -0.070693798255785811 0 0.012160997759465825 -0.070431951092094186 0 0.010766303488908776 -0.067293170095778843 0 0.013215471379381871 -0.06632649196629882 0 0.012160997759465825 -0.070431951092094186 0 0.010994540878830707 -0.073510656575491648 0 0.012160997759465825 -0.070431951092094186 0 0.013075397986081989 -0.075067170226418553 0 0.010698484286721177 -0.077645589812144547 0 0.013075397986081989 -0.075067170226418553 0 0.012760297325846154 -0.079108587247325959 0 0.013075397986081989 -0.075067170226418553 0 0.015275569228928759 -0.074367830212839284 0 0.014758862361939903 -0.078267727633141965 0 0.013075397986081989 -0.075067170226418553 0 0.014758862361939903 -0.078267727633141965 0 0.012760297325846154 -0.079108587247325959 0 0.014608665757939775 -0.070693798255785811 0 0.013075397986081989 -0.075067170226418553 0 0.015275569228928759 -0.074367830212839284 0 0.01738038710173942 -0.070636759361310655 0 0.015275569228928759 -0.074367830212839284 0 0.017290145560265823 -0.07464973403487328 0 0.017290145560265823 -0.07464973403487328 0 0.016123636247022018 -0.076699746733408153 0 0.017210791106750487 -0.078689315684978445 0 0.015275569228928759 -0.074367830212839284 0 0.017290145560265823 -0.07464973403487328 0 0.016123636247022018 -0.076699746733408153 0 0.015275569228928759 -0.074367830212839284 0 0.016123636247022018 -0.076699746733408153 0 0.014758862361939903 -0.078267727633141965 0 0.016123636247022018 -0.076699746733408153 0 0.014758862361939903 -0.078267727633141965 0 0.015943474849678615 -0.080074681859673966 0 0.016123636247022018 -0.076699746733408153 0 0.015943474849678615 -0.080074681859673966 0 0.017210791106750487 -0.078689315684978445 0 0.015943474849678615 -0.080074681859673966 0 0.017210791106750487 -0.078689315684978445 0 0.017140883109450566 -0.08274484065766699 0 0.015943474849678615 -0.080074681859673966 0 0.017140883109450566 -0.08274484065766699 0 0.01494695358710022 -0.082808938467070242 0 0.014758862361939903 -0.078267727633141965 0 0.015943474849678615 -0.080074681859673966 0 0.01494695358710022 -0.082808938467070242 0 0.01494695358710022 -0.082808938467070242 0 0.012760297325846154 -0.079108587247325959 0 0.012743381579242406 -0.082857550530239812 0 0.014758862361939903 -0.078267727633141965 0 0.01494695358710022 -0.082808938467070242 0 0.012760297325846154 -0.079108587247325959 0 0.010528260754034824 -0.082894105013790145 0 0.012760297325846154 -0.079108587247325959 0 0.012743381579242406 -0.082857550530239812 0 0.012478399529923179 -0.048048777010203991 0 0.014803623477204526 -0.046383767452802663 0 0.012993328737565661 -0.044532643462901915 0 0.012478399529923179 -0.048048777010203991 0 0.014905784702117793 -0.049733354086037795 0 0.01338740666915484 -0.051194850664159165 0 0.012478399529923179 -0.048048777010203991 0 0.011640698967966261 -0.050795860304836855 0 0.01338740666915484 -0.051194850664159165 0 0.012478399529923179 -0.048048777010203991 0 0.014905784702117793 -0.049733354086037795 0 0.014803623477204526 -0.046383767452802663 0 0.014803623477204526 -0.046383767452802663 0 0.014757691419132735 -0.04226649702303785 0 0.012993328737565661 -0.044532643462901915 0 0.014757691419132735 -0.04226649702303785 0 0.012361768471943131 -0.041318439083165889 0 0.012993328737565661 -0.044532643462901915 0 0.014757691419132735 -0.04226649702303785 0 0.012361768471943131 -0.041318439083165889 0 0.013767730274949456 -0.03943145062588678 0 0.012361768471943131 -0.041318439083165889 0 0.012993328737565661 -0.044532643462901915 0 0.010477372069335538 -0.043832859059717427 0 0.012361768471943131 -0.041318439083165889 0 0.010477372069335538 -0.043832859059717427 0 0.010792515931762805 -0.040098221968332001 0 0.010477372069335538 -0.043832859059717427 0 0.010792515931762805 -0.040098221968332001 0 0.0091121423595316685 -0.039322880686419821 0 0.0080623520969052495 -0.046795350931780486 0 0.010477372069335538 -0.043832859059717427 0 0.010497499688276573 -0.047946196437139842 0 0.012478399529923179 -0.048048777010203991 0 0.010477372069335538 -0.043832859059717427 0 0.010497499688276573 -0.047946196437139842 0 0.012478399529923179 -0.048048777010203991 0 0.012993328737565661 -0.044532643462901915 0 0.010477372069335538 -0.043832859059717427 0 0.012478399529923179 -0.048048777010203991 0 0.010497499688276573 -0.047946196437139842 0 0.011640698967966261 -0.050795860304836855 0 0.0094196328784181688 -0.050631045443667755 0 0.010497499688276573 -0.047946196437139842 0 0.011640698967966261 -0.050795860304836855 0 0.0094196328784181688 -0.050631045443667755 0 0.010522753548024073 -0.053786979048198909 0 0.011640698967966261 -0.050795860304836855 0 0.0093915940144669082 -0.056396843910819457 0 0.0082678573981815138 -0.054079234779114145 0 0.010522753548024073 -0.053786979048198909 0 0.010522753548024073 -0.053786979048198909 0 0.011710582856289647 -0.056735832586015771 0 0.012850239170156475 -0.05406627566198835 0 0.010522753548024073 -0.053786979048198909 0 0.011640698967966261 -0.050795860304836855 0 0.012850239170156475 -0.05406627566198835 0 0.006665511954852492 -0.058702367050805213 0 0.0070041838454318614 -0.062915143205933111 0 0.0081571529222342516 -0.061175583081864923 0 0.006665511954852492 -0.058702367050805213 0 0.0087728947447154003 -0.058428309665356767 0 0.0081571529222342516 -0.061175583081864923 0 0.0093915940144669082 -0.056396843910819457 0 0.010522753548024073 -0.053786979048198909 0 0.011710582856289647 -0.056735832586015771 0 0.0079317750432896638 -0.057549540331320051 0 0.0099570114597010966 -0.057581354186106978 0 0.0088492884520310101 -0.064561353082178571 0 0.0081571529222342516 -0.061175583081864923 0 0.0096146034954273374 -0.061465745891489267 0 0.0087728947447154003 -0.058428309665356767 0 0.0081571529222342516 -0.061175583081864923 0 0.0096146034954273374 -0.061465745891489267 0 0.011162725888348986 -0.063485140180091215 0 0.0096146034954273374 -0.061465745891489267 0 0.01090913195483899 -0.058818782750626596 0 0.0099570114597010966 -0.057581354186106978 0 0.012609466224370362 -0.057676402751319043 0 0.011710582856289647 -0.056735832586015771 0 0.013988586681379044 -0.056513259590649983 0 0.012850239170156475 -0.05406627566198835 0 0.0087728947447154003 -0.058428309665356767 0 0.0096146034954273374 -0.061465745891489267 0 0.01090913195483899 -0.058818782750626596 0 0.012609466224370362 -0.057676402751319043 0 0.013163582684617522 -0.057726308799092532 0 0.011162725888348986 -0.063485140180091215 0 0.01090913195483899 -0.058818782750626596 0 0.013124102875418152 -0.062289186309093872 0 0.011640698967966261 -0.050795860304836855 0 0.01338740666915484 -0.051194850664159165 0 0.012850239170156475 -0.05406627566198835 0 0.013988586681379044 -0.056513259590649983 0 0.012850239170156475 -0.05406627566198835 0 0.015148893759339071 -0.053289740068839166 0 0.014905784702117793 -0.049733354086037795 0 0.01338740666915484 -0.051194850664159165 0 0.015148893759339071 -0.053289740068839166 0 0.01338740666915484 -0.051194850664159165 0 0.012850239170156475 -0.05406627566198835 0 0.015148893759339071 -0.053289740068839166 0 0.015148893759339071 -0.053289740068839166 0 0.017159218889248692 -0.054238806405254796 0 0.016956327662593664 -0.051239969394169686 0 0.014905784702117793 -0.049733354086037795 0 0.015148893759339071 -0.053289740068839166 0 0.016956327662593664 -0.051239969394169686 0 0.013988586681379044 -0.056513259590649983 0 0.015148893759339071 -0.053289740068839166 0 0.016237397625252545 -0.056920095516780574 0 0.015148893759339071 -0.053289740068839166 0 0.017159218889248692 -0.054238806405254796 0 0.016237397625252545 -0.056920095516780574 0 0.017159218889248692 -0.054238806405254796 0 0.016956327662593664 -0.051239969394169686 0 0.018755157422081076 -0.053463473434224008 0 0.01090913195483899 -0.058818782750626596 0 0.013124102875418152 -0.062289186309093872 0 0.013114909313135458 -0.05861257261583034 0 0.013163582684617522 -0.057726308799092532 0 0.021601759950544305 -0.057901729112759939 0 0.017159218889248692 -0.054238806405254796 0 0.016237397625252545 -0.056920095516780574 0 0.018479434440796572 -0.056645518710938099 0 0.013124102875418152 -0.062289186309093872 0 0.013114909313135458 -0.05861257261583034 0 0.015367336481198507 -0.058951041891150815 0 0.01504008006854771 -0.063234232472666893 0 0.013124102875418152 -0.062289186309093872 0 0.015367336481198507 -0.058951041891150815 0 0.01504008006854771 -0.063234232472666893 0 0.015367336481198507 -0.058951041891150815 0 0.016258624825364346 -0.061439167812733834 0 0.021601759950544305 -0.057901729112759939 0 0.00055478498514160101 -0.057648553160892027 0 0.015367336481198507 -0.058951041891150815 0 0.017626638026707137 -0.058646137120337019 0 0.016258624825364346 -0.061439167812733834 0 0.017626638026707137 -0.058646137120337019 0 0.016258624825364346 -0.061439167812733834 0 0.017499205746985939 -0.062679906938786958 0 0.016956327662593664 -0.051239969394169686 0 0.018755157422081076 -0.053463473434224008 0 0.018731985466865428 -0.048950735660046887 0 0.017159218889248692 -0.054238806405254796 0 0.018479434440796572 -0.056645518710938099 0 0.018755157422081076 -0.053463473434224008 0 0.018479434440796572 -0.056645518710938099 0 0.020696125413308605 -0.056953660000105599 0 0.018755157422081076 -0.053463473434224008 0 0.020696125413308605 -0.056953660000105599 0 0.018755157422081076 -0.053463473434224008 0 0.020605716361261361 -0.052976389427738531 0 0.018755157422081076 -0.053463473434224008 0 0.020605716361261361 -0.052976389427738531 0 0.018731985466865428 -0.048950735660046887 0 0.018731985466865428 -0.048950735660046887 0 0.017761429559357604 -0.045671578424607874 0 0.020451396485444057 -0.045143580784180473 0 0.020605716361261361 -0.052976389427738531 0 0.020528443189519973 -0.049047701571971247 0 0.018731985466865428 -0.048950735660046887 0 0.020528443189519973 -0.049047701571971247 0 0.018731985466865428 -0.048950735660046887 0 0.020451396485444057 -0.045143580784180473 0 0.016956327662593664 -0.051239969394169686 0 0.018731985466865428 -0.048950735660046887 0 0.0166543485636973 -0.047803209297031496 0 0.018731985466865428 -0.048950735660046887 0 0.0166543485636973 -0.047803209297031496 0 0.017761429559357604 -0.045671578424607874 0 0.014803623477204526 -0.046383767452802663 0 0.0166543485636973 -0.047803209297031496 0 0.016508670090024321 -0.043736353854581876 0 0.014905784702117793 -0.049733354086037795 0 0.014803623477204526 -0.046383767452802663 0 0.0166543485636973 -0.047803209297031496 0 0.014905784702117793 -0.049733354086037795 0 0.016956327662593664 -0.051239969394169686 0 0.0166543485636973 -0.047803209297031496 0 0.014757691419132735 -0.04226649702303785 0 0.016508670090024321 -0.043736353854581876 0 0.016807127453095008 -0.040741028840937762 0 0.014803623477204526 -0.046383767452802663 0 0.014757691419132735 -0.04226649702303785 0 0.016508670090024321 -0.043736353854581876 0 0.016508670090024321 -0.043736353854581876 0 0.017761429559357604 -0.045671578424607874 0 0.018527916535733123 -0.042537436110785559 0 0.0166543485636973 -0.047803209297031496 0 0.016508670090024321 -0.043736353854581876 0 0.017761429559357604 -0.045671578424607874 0 0.016508670090024321 -0.043736353854581876 0 0.018527916535733123 -0.042537436110785559 0 0.016807127453095008 -0.040741028840937762 0 0.017761429559357604 -0.045671578424607874 0 0.018527916535733123 -0.042537436110785559 0 0.020451396485444057 -0.045143580784180473 0 0.018527916535733123 -0.042537436110785559 0 0.020451396485444057 -0.045143580784180473 0 0.020341817798517448 -0.041283268575637938 0 0.018527916535733123 -0.042537436110785559 0 0.020341817798517448 -0.041283268575637938 0 0.018704485233457309 -0.039746808838393953 0 0.020341817798517448 -0.041283268575637938 0 0.020187920242087556 -0.037489878584767614 0 0.018704485233457309 -0.039746808838393953 0 0.020187920242087556 -0.037489878584767614 0 0.017575043184017702 -0.036675016652021053 0 0.018704485233457309 -0.039746808838393953 0 0.017575043184017702 -0.036675016652021053 0 0.018704485233457309 -0.039746808838393953 0 0.016807127453095008 -0.040741028840937762 0 0.018527916535733123 -0.042537436110785559 0 0.018704485233457309 -0.039746808838393953 0 0.016807127453095008 -0.040741028840937762 0 0.019910171723662922 -0.033753450276261796 0 0.018232806289366476 -0.033428690379360949 0 0.019515017214732068 -0.03006471178021777 0 0.020187920242087556 -0.037489878584767614 0 0.019910171723662922 -0.033753450276261796 0 0.018232806289366476 -0.033428690379360949 0 0.020187920242087556 -0.037489878584767614 0 0.017575043184017702 -0.036675016652021053 0 0.018232806289366476 -0.033428690379360949 0 0.018232806289366476 -0.033428690379360949 0 0.016087848293007183 -0.034044114070763402 0 0.0163136244805181 -0.030659298559187618 0 0.017575043184017702 -0.036675016652021053 0 0.018232806289366476 -0.033428690379360949 0 0.016087848293007183 -0.034044114070763402 0 0.016087848293007183 -0.034044114070763402 0 0.015399428891398866 -0.037678552671141209 0 0.0143421092269156 -0.034483329601019665 0 0.016087848293007183 -0.034044114070763402 0 0.0143421092269156 -0.034483329601019665 0 0.014354603085842452 -0.031396132726420507 0 0.016087848293007183 -0.034044114070763402 0 0.014354603085842452 -0.031396132726420507 0 0.0163136244805181 -0.030659298559187618 0 0.017575043184017702 -0.036675016652021053 0 0.016807127453095008 -0.040741028840937762 0 0.015399428891398866 -0.037678552671141209 0 0.017575043184017702 -0.036675016652021053 0 0.016087848293007183 -0.034044114070763402 0 0.015399428891398866 -0.037678552671141209 0 0.014757691419132735 -0.04226649702303785 0 0.016807127453095008 -0.040741028840937762 0 0.015399428891398866 -0.037678552671141209 0 0.014757691419132735 -0.04226649702303785 0 0.015399428891398866 -0.037678552671141209 0 0.013767730274949456 -0.03943145062588678 0 0.012361768471943131 -0.041318439083165889 0 0.013767730274949456 -0.03943145062588678 0 0.012312564065233154 -0.038208976708918228 0 0.013767730274949456 -0.03943145062588678 0 0.012312564065233154 -0.038208976708918228 0 0.013795014451214503 -0.036787098270901104 0 0.012312564065233154 -0.038208976708918228 0 0.013795014451214503 -0.036787098270901104 0 0.01248410308459273 -0.035087392269486657 0 0.015399428891398866 -0.037678552671141209 0 0.013767730274949456 -0.03943145062588678 0 0.013795014451214503 -0.036787098270901104 0 0.013795014451214503 -0.036787098270901104 0 0.0143421092269156 -0.034483329601019665 0 0.01248410308459273 -0.035087392269486657 0 0.015399428891398866 -0.037678552671141209 0 0.013795014451214503 -0.036787098270901104 0 0.0143421092269156 -0.034483329601019665 0 0.0143421092269156 -0.034483329601019665 0 0.014354603085842452 -0.031396132726420507 0 0.012080085259917175 -0.031971816472213345 0 0.014354603085842452 -0.031396132726420507 0 0.012080085259917175 -0.031971816472213345 0 0.012866788495224001 -0.029541177533795027 0 0.0143421092269156 -0.034483329601019665 0 0.012080085259917175 -0.031971816472213345 0 0.01248410308459273 -0.035087392269486657 0 0.01248410308459273 -0.035087392269486657 0 0.010448257103280303 -0.032259007879845134 0 0.010816226544476282 -0.036545877811729639 0 0.012080085259917175 -0.031971816472213345 0 0.01248410308459273 -0.035087392269486657 0 0.010448257103280303 -0.032259007879845134 0 0.012080085259917175 -0.031971816472213345 0 0.010448257103280303 -0.032259007879845134 0 0.010534950205019274 -0.027745013206411744 0 0.010448257103280303 -0.032259007879845134 0 0.010816226544476282 -0.036545877811729639 0 0.0088996098613616775 -0.035773037138487854 0 0.010816226544476282 -0.036545877811729639 0 0.0088996098613616775 -0.035773037138487854 0 0.0091121423595316685 -0.039322880686419821 0 0.010816226544476282 -0.036545877811729639 0 0.010792515931762805 -0.040098221968332001 0 0.0091121423595316685 -0.039322880686419821 0 0.012312564065233154 -0.038208976708918228 0 0.010816226544476282 -0.036545877811729639 0 0.010792515931762805 -0.040098221968332001 0 0.012361768471943131 -0.041318439083165889 0 0.012312564065233154 -0.038208976708918228 0 0.010792515931762805 -0.040098221968332001 0 0.012312564065233154 -0.038208976708918228 0 0.01248410308459273 -0.035087392269486657 0 0.010816226544476282 -0.036545877811729639 0 0.0082208574988848933 -0.023042429392382217 0 0.0067263081447410554 -0.019315753355212857 0 0.0084170408608446011 -0.019996065779841296 0 0.0094665059227533651 -0.023360646996915053 0 0.0077074340430952348 -0.023068445134018699 0 0.0082208574988848933 -0.023042429392382217 0 0.0067263081447410554 -0.019315753355212857 0 0.0063796466713573205 -0.022385155367838614 0 0.010987135137858173 -0.02367547889115414 0 0.010534950205019274 -0.027745013206411744 0 0.0090584487017029754 -0.023750106682043769 0 0.010534950205019274 -0.027745013206411744 0 0.0085286977678706542 -0.026580809994373358 0 0.0090584487017029754 -0.023750106682043769 0 0.010448257103280303 -0.032259007879845134 0 0.010534950205019274 -0.027745013206411744 0 0.0092700864599486454 -0.029520115050437633 0 0.010534950205019274 -0.027745013206411744 0 0.0092700864599486454 -0.029520115050437633 0 0.0085286977678706542 -0.026580809994373358 0 0.012080085259917175 -0.031971816472213345 0 0.010534950205019274 -0.027745013206411744 0 0.012866788495224001 -0.029541177533795027 0 0.010987135137858173 -0.02367547889115414 0 0.010534950205019274 -0.027745013206411744 0 0.01223830359625859 -0.02652671230234456 0 0.010534950205019274 -0.027745013206411744 0 0.01223830359625859 -0.02652671230234456 0 0.012866788495224001 -0.029541177533795027 0 0.01223830359625859 -0.02652671230234456 0 0.012866788495224001 -0.029541177533795027 0 0.014252615033351528 -0.02784803620677619 0 0.014354603085842452 -0.031396132726420507 0 0.012866788495224001 -0.029541177533795027 0 0.014252615033351528 -0.02784803620677619 0 0.01223830359625859 -0.02652671230234456 0 0.014252615033351528 -0.02784803620677619 0 0.012894378918050235 -0.024491805082166206 0 0.014252615033351528 -0.02784803620677619 0 0.012894378918050235 -0.024491805082166206 0 0.014847964675676104 -0.024724768463047206 0 0.010263650325576116 -0.023126853674022802 0 0.0084170408608446011 -0.019996065779841296 0 0.0093191242302253421 -0.018050388573610833 0 0.010263650325576116 -0.023126853674022802 0 0.011528971454269423 -0.020267461192060833 0 0.0093191242302253421 -0.018050388573610833 0 0.011861493451051083 -0.023802462357291727 0 0.012315972642576839 -0.024430781191469991 0 0.010987135137858173 -0.02367547889115414 0 0.01223830359625859 -0.02652671230234456 0 0.012894378918050235 -0.024491805082166206 0 0.0082208574988848933 -0.023042429392382217 0 0.010263650325576116 -0.023126853674022802 0 0.0084170408608446011 -0.019996065779841296 0 0.0094665059227533651 -0.023360646996915053 0 0.011861493451051083 -0.023802462357291727 0 0.010263650325576116 -0.023126853674022802 0 0.011528971454269423 -0.020267461192060833 0 0.012349154829669671 -0.024091718873878839 0 0.012315972642576839 -0.024430781191469991 0 0.020252282154849206 -0.025176405401748626 0 0.014847964675676104 -0.024724768463047206 0 0.016103496042569145 -0.027646164737933774 0 0.016863276030399915 -0.025909211564717267 0 0.011528971454269423 -0.020267461192060833 0 0.012349154829669671 -0.024091718873878839 0 0.014541059050730444 -0.024544260068072074 0 0.011528971454269423 -0.020267461192060833 0 0.014541059050730444 -0.024544260068072074 0 0.013140135223265209 -0.020256593965382517 0 0.014354603085842452 -0.031396132726420507 0 0.014252615033351528 -0.02784803620677619 0 0.0163136244805181 -0.030659298559187618 0 0.014252615033351528 -0.02784803620677619 0 0.016103496042569145 -0.027646164737933774 0 0.0163136244805181 -0.030659298559187618 0 0.014252615033351528 -0.02784803620677619 0 0.014847964675676104 -0.024724768463047206 0 0.016103496042569145 -0.027646164737933774 0 0.016103496042569145 -0.027646164737933774 0 0.0163136244805181 -0.030659298559187618 0 0.017719083428168043 -0.029065054769747758 0 0.018232806289366476 -0.033428690379360949 0 0.0163136244805181 -0.030659298559187618 0 0.017719083428168043 -0.029065054769747758 0 0.016103496042569145 -0.027646164737933774 0 0.017719083428168043 -0.029065054769747758 0 0.016863276030399915 -0.025909211564717267 0 0.017719083428168043 -0.029065054769747758 0 0.016863276030399915 -0.025909211564717267 0 0.018903076101182258 -0.026379502392122282 0 0.017719083428168043 -0.029065054769747758 0 0.019515017214732068 -0.03006471178021777 0 0.018903076101182258 -0.026379502392122282 0 0.018232806289366476 -0.033428690379360949 0 0.017719083428168043 -0.029065054769747758 0 0.019515017214732068 -0.03006471178021777 0 0.014541059050730444 -0.024544260068072074 0 0.014732359708119477 -0.022585317880387316 0 0.013140135223265209 -0.020256593965382517 0 0.020252282154849206 -0.025176405401748626 0 0.00049703249798509815 -0.026135094078788293 0 0.014541059050730444 -0.024544260068072074 0 0.016614604282337176 -0.025746452715053818 0 0.014732359708119477 -0.022585317880387316 0 0.016614604282337176 -0.025746452715053818 0 0.014732359708119477 -0.022585317880387316 0 0.015513555534613281 -0.022049841058081637 0 0.014732359708119477 -0.022585317880387316 0 0.013882542441461644 -0.019562936426043103 0 0.015513555534613281 -0.022049841058081637 0 0.013882542441461644 -0.019562936426043103 0 0.015513555534613281 -0.022049841058081637 0 0.014196040326732062 -0.018485231701495054 0 0.013882542441461644 -0.019562936426043103 0 0.013140135223265209 -0.020256593965382517 0 0.012255555403400608 -0.01676034628210727 0 0.014732359708119477 -0.022585317880387316 0 0.013882542441461644 -0.019562936426043103 0 0.013140135223265209 -0.020256593965382517 0 0.013882542441461644 -0.019562936426043103 0 0.012255555403400608 -0.01676034628210727 0 0.014196040326732062 -0.018485231701495054 0 0.012255555403400608 -0.01676034628210727 0 0.012454865733836655 -0.014800081262450623 0 0.0098517708782068433 -0.012549730129130226 0 0.012454865733836655 -0.014800081262450623 0 0.0098517708782068433 -0.012549730129130226 0 0.0082410905509683174 -0.0092063191150071125 0 0.012255555403400608 -0.01676034628210727 0 0.014196040326732062 -0.018485231701495054 0 0.012454865733836655 -0.014800081262450623 0 0.012255555403400608 -0.01676034628210727 0 0.0098517708782068433 -0.012549730129130226 0 0.010538359276694064 -0.016305474897662972 0 0.0098517708782068433 -0.012549730129130226 0 0.0076698347381613328 -0.011157998912374123 0 0.010538359276694064 -0.016305474897662972 0 0.0098517708782068433 -0.012549730129130226 0 0.0076698347381613328 -0.011157998912374123 0 0.0059279364504309052 -0.0072255119672102021 0 0.0076698347381613328 -0.011157998912374123 0 0.010538359276694064 -0.016305474897662972 0 0.0081459435254096907 -0.013959922305927271 0 0.011528971454269423 -0.020267461192060833 0 0.010538359276694064 -0.016305474897662972 0 0.0093191242302253421 -0.018050388573610833 0 0.011528971454269423 -0.020267461192060833 0 0.013140135223265209 -0.020256593965382517 0 0.010538359276694064 -0.016305474897662972 0 0.013140135223265209 -0.020256593965382517 0 0.012255555403400608 -0.01676034628210727 0 0.010538359276694064 -0.016305474897662972 0 3.1223367726648396e-07 -3.3776412435619787e-06 0 0.0030939079215190173 -0.0030922603715026189 0 0.0044071055269555327 -0.0046017482098602543 0 3.1223367726648396e-07 -3.3776412435619787e-06 0 4.7407650963099344e-06 -9.7269175182217704e-06 0 0.0030939079215190173 -0.0030922603715026189 0 4.7407650963099344e-06 -9.7269175182217704e-06 0 0.0062085940382083865 -0.0066724789253354835 0 0.0030939079215190173 -0.0030922603715026189 0 0.0062085940382083865 -0.0066724789253354835 0 0.0030939079215190173 -0.0030922603715026189 0 0.0070714203667697441 -0.0074320335518223537 0 0.0030939079215190173 -0.0030922603715026189 0 0.0044071055269555327 -0.0046017482098602543 0 0.0070714203667697441 -0.0074320335518223537 0 0.0044071055269555327 -0.0046017482098602543 0 0.0070714203667697441 -0.0074320335518223537 0 0.0082410905509683174 -0.0092063191150071125 0 0.0070714203667697441 -0.0074320335518223537 0 0.0098974192403977132 -0.010924623187590493 0 0.0082410905509683174 -0.0092063191150071125 0 0.0062085940382083865 -0.0066724789253354835 0 0.0070714203667697441 -0.0074320335518223537 0 0.0098974192403977132 -0.010924623187590493 0 0.012454865733836655 -0.014800081262450623 0 0.0098974192403977132 -0.010924623187590493 0 0.0082410905509683174 -0.0092063191150071125 0 0.0098517708782068433 -0.012549730129130226 0 0.0082410905509683174 -0.0092063191150071125 0 0.0059279364504309052 -0.0072255119672102021 0 0.0076698347381613328 -0.011157998912374123 0 0.0059279364504309052 -0.0072255119672102021 0 0.0050704690639492645 -0.0077289881687244693 0 0.0059279364504309052 -0.0072255119672102021 0 0.0027944174894980801 -0.003191462600250028 0 0.002998468664173162 -0.0041437279598892287 0 0.0044071055269555327 -0.0046017482098602543 0 0.0082410905509683174 -0.0092063191150071125 0 0.0059279364504309052 -0.0072255119672102021 0 0.0044071055269555327 -0.0046017482098602543 0 0.0059279364504309052 -0.0072255119672102021 0 0.0027944174894980801 -0.003191462600250028 0 3.1223367726648396e-07 -3.3776412435619787e-06 0 0.0044071055269555327 -0.0046017482098602543 0 0.0027944174894980801 -0.003191462600250028 0 0.0027944174894980801 -0.003191462600250028 0 1.3172794634326231e-06 -4.6147747504838739e-06 0 5.6681884449575873e-07 -3.616726487283383e-06 0 3.1223367726648396e-07 -3.3776412435619787e-06 0 0.0027944174894980801 -0.003191462600250028 0 1.3172794634326231e-06 -4.6147747504838739e-06 0 5.6681884449575873e-07 -3.616726487283383e-06 0 0.001524288034438709 -0.0023384106159177699 0 6.8491014620646773e-07 -3.9406658000678734e-06 0 0.0027944174894980801 -0.003191462600250028 0 5.6681884449575873e-07 -3.616726487283383e-06 0 0.002998468664173162 -0.0041437279598892287 0 0.002998468664173162 -0.0041437279598892287 0 0.001524288034438709 -0.0023384106159177699 0 0.0028492389680451779 -0.0050328968186774195 0 5.6681884449575873e-07 -3.616726487283383e-06 0 0.002998468664173162 -0.0041437279598892287 0 0.001524288034438709 -0.0023384106159177699 0 0.002998468664173162 -0.0041437279598892287 0 0.0050704690639492645 -0.0077289881687244693 0 0.0028492389680451779 -0.0050328968186774195 0 0.0059279364504309052 -0.0072255119672102021 0 0.002998468664173162 -0.0041437279598892287 0 0.0050704690639492645 -0.0077289881687244693 0 0.0050704690639492645 -0.0077289881687244693 0 0.0043178836929481448 -0.0081007289853746566 0 0.0028492389680451779 -0.0050328968186774195 0 0.0050704690639492645 -0.0077289881687244693 0 0.0043178836929481448 -0.0081007289853746566 0 0.0061328416235166558 -0.01085262559157861 0 0.0043178836929481448 -0.0081007289853746566 0 0.0031145737564757499 -0.0066649421714395163 0 0.0028492389680451779 -0.0050328968186774195 0 0.0031145737564757499 -0.0066649421714395163 0 0.0044957641923110891 -0.010098806633083979 0 0.0025994451662320014 -0.0070221215485009427 0 0.0043178836929481448 -0.0081007289853746566 0 0.0031145737564757499 -0.0066649421714395163 0 0.0044957641923110891 -0.010098806633083979 0 0.0031145737564757499 -0.0066649421714395163 0 0.0028492389680451779 -0.0050328968186774195 0 0.0016037217833141056 -0.0034967298999869414 0 0.001524288034438709 -0.0023384106159177699 0 0.0028492389680451779 -0.0050328968186774195 0 0.001135008959141111 -0.002077885269922006 0 0.0028492389680451779 -0.0050328968186774195 0 0.001135008959141111 -0.002077885269922006 0 0.0016037217833141056 -0.0034967298999869414 0 0.001135008959141111 -0.002077885269922006 0 0.0016037217833141056 -0.0034967298999869414 0 4.4492277206931428e-07 -3.8070334892411312e-06 0 0.001135008959141111 -0.002077885269922006 0 6.8491014620646773e-07 -3.9406658000678734e-06 0 4.4492277206931428e-07 -3.8070334892411312e-06 0 0.001524288034438709 -0.0023384106159177699 0 0.001135008959141111 -0.002077885269922006 0 6.8491014620646773e-07 -3.9406658000678734e-06 0 0.0068137786789114986 -0.013836382979993596 0 0.0093191242302253421 -0.018050388573610833 0 0.0071507627012057226 -0.01682818431888004 0 0.0068137786789114986 -0.013836382979993596 0 0.0093191242302253421 -0.018050388573610833 0 0.0081459435254096907 -0.013959922305927271 0 0.0084170408608446011 -0.019996065779841296 0 0.0093191242302253421 -0.018050388573610833 0 0.0071507627012057226 -0.01682818431888004 0 0.010538359276694064 -0.016305474897662972 0 0.0093191242302253421 -0.018050388573610833 0 0.0081459435254096907 -0.013959922305927271 0 0.0076698347381613328 -0.011157998912374123 0 0.0081459435254096907 -0.013959922305927271 0 0.0061328416235166558 -0.01085262559157861 0 0.0076698347381613328 -0.011157998912374123 0 0.0050704690639492645 -0.0077289881687244693 0 0.0061328416235166558 -0.01085262559157861 0 0.0068137786789114986 -0.013836382979993596 0 0.0081459435254096907 -0.013959922305927271 0 0.0061328416235166558 -0.01085262559157861 0 0.0068137786789114986 -0.013836382979993596 0 0.0044957641923110891 -0.010098806633083979 0 0.005467739853429218 -0.013661626933376086 0 0.0068137786789114986 -0.013836382979993596 0 0.0061328416235166558 -0.01085262559157861 0 0.0044957641923110891 -0.010098806633083979 0 0.0043178836929481448 -0.0081007289853746566 0 0.0061328416235166558 -0.01085262559157861 0 0.0044957641923110891 -0.010098806633083979 0 0.0044957641923110891 -0.010098806633083979 0 0.005467739853429218 -0.013661626933376086 0 0.0038888214759192157 -0.011398196331397456 0 0.005467739853429218 -0.013661626933376086 0 0.0071507627012057226 -0.01682818431888004 0 0.0058343290637583303 -0.016474715070205453 0 0.0068137786789114986 -0.013836382979993596 0 0.005467739853429218 -0.013661626933376086 0 0.0071507627012057226 -0.01682818431888004 0 0.0067263081447410554 -0.019315753355212857 0 0.0084170408608446011 -0.019996065779841296 0 0.0071507627012057226 -0.01682818431888004 0 0.0067263081447410554 -0.019315753355212857 0 0.0071507627012057226 -0.01682818431888004 0 0.0058343290637583303 -0.016474715070205453 0 0.0067263081447410554 -0.019315753355212857 0 0.0058343290637583303 -0.016474715070205453 0 0.0052116864269805482 -0.018417167742677789 0 0.0058343290637583303 -0.016474715070205453 0 0.0052116864269805482 -0.018417167742677789 0 0.0045141010512005884 -0.014271045906800076 0 0.0052116864269805482 -0.018417167742677789 0 0.0040037807985154033 -0.01633706431817716 0 0.0045141010512005884 -0.014271045906800076 0 0.0052116864269805482 -0.018417167742677789 0 0.0040037807985154033 -0.01633706431817716 0 0.0038362049633784883 -0.019107776454238536 0 0.0040037807985154033 -0.01633706431817716 0 0.0045141010512005884 -0.014271045906800076 0 0.0034061718685478317 -0.013542492907418387 0 0.005467739853429218 -0.013661626933376086 0 0.0058343290637583303 -0.016474715070205453 0 0.0045141010512005884 -0.014271045906800076 0 0.005467739853429218 -0.013661626933376086 0 0.0045141010512005884 -0.014271045906800076 0 0.0038888214759192157 -0.011398196331397456 0 0.0044957641923110891 -0.010098806633083979 0 0.0038888214759192157 -0.011398196331397456 0 0.0025994451662320014 -0.0070221215485009427 0 0.0038888214759192157 -0.011398196331397456 0 0.002700564107185026 -0.01008710145482776 0 0.0025994451662320014 -0.0070221215485009427 0 0.0045141010512005884 -0.014271045906800076 0 0.0038888214759192157 -0.011398196331397456 0 0.0034061718685478317 -0.013542492907418387 0 0.0038888214759192157 -0.011398196331397456 0 0.002700564107185026 -0.01008710145482776 0 0.0034061718685478317 -0.013542492907418387 0 0.002700564107185026 -0.01008710145482776 0 0.0023200208105523625 -0.013462506296571209 0 0.0034061718685478317 -0.013542492907418387 0 0.002700564107185026 -0.01008710145482776 0 0.0017173980407650638 -0.0078748401960580406 0 0.0016122660623975049 -0.010480436446627567 0 0.002700564107185026 -0.01008710145482776 0 0.0023200208105523625 -0.013462506296571209 0 0.0016122660623975049 -0.010480436446627567 0 0.0023200208105523625 -0.013462506296571209 0 0.0029548129452960873 -0.016507508697142764 0 0.0016117307688879314 -0.017138686119905017 0 0.0029548129452960873 -0.016507508697142764 0 0.0016117307688879314 -0.017138686119905017 0 0.0024599189295313553 -0.019572946857089508 0 0.0040037807985154033 -0.01633706431817716 0 0.0029548129452960873 -0.016507508697142764 0 0.0038362049633784883 -0.019107776454238536 0 0.0023200208105523625 -0.013462506296571209 0 0.0029548129452960873 -0.016507508697142764 0 0.0034061718685478317 -0.013542492907418387 0 0.0040037807985154033 -0.01633706431817716 0 0.0029548129452960873 -0.016507508697142764 0 0.0034061718685478317 -0.013542492907418387 0 3.8590387077855705e-07 -3.8191995492342255e-06 0 0.00072369143660431547 -0.0017793970924206732 0 0.0012238090402211328 -0.0037634103246931782 0 3.8590387077855705e-07 -3.8191995492342255e-06 0 0.0012238090402211328 -0.0037634103246931782 0 0.00059472523617340835 -0.0023812687218938392 0 0.0016037217833141056 -0.0034967298999869414 0 4.4492277206931428e-07 -3.8070334892411312e-06 0 0.00072369143660431547 -0.0017793970924206732 0 3.8590387077855705e-07 -3.8191995492342255e-06 0 4.4492277206931428e-07 -3.8070334892411312e-06 0 0.00072369143660431547 -0.0017793970924206732 0 0.0016037217833141056 -0.0034967298999869414 0 0.00072369143660431547 -0.0017793970924206732 0 0.0012238090402211328 -0.0037634103246931782 0 0.0012238090402211328 -0.0037634103246931782 0 0.0025994451662320014 -0.0070221215485009427 0 0.0019364559357729788 -0.0068516605445675975 0 0.0016037217833141056 -0.0034967298999869414 0 0.0012238090402211328 -0.0037634103246931782 0 0.0025994451662320014 -0.0070221215485009427 0 0.0031145737564757499 -0.0066649421714395163 0 0.0016037217833141056 -0.0034967298999869414 0 0.0025994451662320014 -0.0070221215485009427 0 0.002700564107185026 -0.01008710145482776 0 0.0025994451662320014 -0.0070221215485009427 0 0.0019364559357729788 -0.0068516605445675975 0 0.0019364559357729788 -0.0068516605445675975 0 0.0017173980407650638 -0.0078748401960580406 0 0.0011313339389382063 -0.0049602659665809214 0 0.002700564107185026 -0.01008710145482776 0 0.0019364559357729788 -0.0068516605445675975 0 0.0017173980407650638 -0.0078748401960580406 0 0.0017173980407650638 -0.0078748401960580406 0 0.0011227282426498804 -0.0071865342703777112 0 0.0016122660623975049 -0.010480436446627567 0 0.0017173980407650638 -0.0078748401960580406 0 0.0011313339389382063 -0.0049602659665809214 0 0.0011227282426498804 -0.0071865342703777112 0 0.0011313339389382063 -0.0049602659665809214 0 0.00051365268522020346 -0.0031349207368031101 0 0.0011227282426498804 -0.0071865342703777112 0 0.0012238090402211328 -0.0037634103246931782 0 0.0019364559357729788 -0.0068516605445675975 0 0.0011313339389382063 -0.0049602659665809214 0 0.0012238090402211328 -0.0037634103246931782 0 0.0011313339389382063 -0.0049602659665809214 0 0.00059472523617340835 -0.0023812687218938392 0 0.0011313339389382063 -0.0049602659665809214 0 0.00059472523617340835 -0.0023812687218938392 0 0.00051365268522020346 -0.0031349207368031101 0 0.00059472523617340835 -0.0023812687218938392 0 2.9659706572268681e-07 -3.8453591021475258e-06 0 0.00051365268522020346 -0.0031349207368031101 0 3.8590387077855705e-07 -3.8191995492342255e-06 0 0.00059472523617340835 -0.0023812687218938392 0 2.9659706572268681e-07 -3.8453591021475258e-06 0 4.6612315779864345e-08 -3.8482913616294738e-06 0 0.00018290925260723318 -0.0024791281514495271 0 1.6921976577999399e-07 -3.8677490928198907e-06 0 2.9659706572268681e-07 -3.8453591021475258e-06 0 4.6612315779864345e-08 -3.8482913616294738e-06 0 0.00051365268522020346 -0.0031349207368031101 0 4.6612315779864345e-08 -3.8482913616294738e-06 0 0.00051365268522020346 -0.0031349207368031101 0 0.00018290925260723318 -0.0024791281514495271 0 0.00051365268522020346 -0.0031349207368031101 0 0.00018290925260723318 -0.0024791281514495271 0 0.00043658139327274289 -0.0053639854097932765 0 0.00051365268522020346 -0.0031349207368031101 0 0.00043658139327274289 -0.0053639854097932765 0 0.0011227282426498804 -0.0071865342703777112 0 0.0011227282426498804 -0.0071865342703777112 0 0.00074878491811851574 -0.0081271731860494776 0 0.0016122660623975049 -0.010480436446627567 0 0.00043658139327274289 -0.0053639854097932765 0 0.0011227282426498804 -0.0071865342703777112 0 0.00074878491811851574 -0.0081271731860494776 0 0.00074878491811851574 -0.0081271731860494776 0 0.00022711893284492281 -0.0074096968485746536 0 0.00054213246963883603 -0.010726168458337642 0 0.00043658139327274289 -0.0053639854097932765 0 0.00074878491811851574 -0.0081271731860494776 0 0.00022711893284492281 -0.0074096968485746536 0 0.00022711893284492281 -0.0074096968485746536 0 -0.00026004991559922306 -0.008540646393341832 0 -4.1815919391939207e-05 -0.004052246985884504 0 -0.00055179966054317567 -0.0065950770930347036 0 -0.00026004991559922306 -0.008540646393341832 0 -4.1815919391939207e-05 -0.004052246985884504 0 0.00043658139327274289 -0.0053639854097932765 0 0.00022711893284492281 -0.0074096968485746536 0 -4.1815919391939207e-05 -0.004052246985884504 0 0.00018290925260723318 -0.0024791281514495271 0 -4.1815919391939207e-05 -0.004052246985884504 0 1.6921976577999399e-07 -3.8677490928198907e-06 0 0.00018290925260723318 -0.0024791281514495271 0 0.00043658139327274289 -0.0053639854097932765 0 -4.1815919391939207e-05 -0.004052246985884504 0 -1.685869529479505e-07 -3.8376381369674029e-06 0 -4.1815919391939207e-05 -0.004052246985884504 0 1.6921976577999399e-07 -3.8677490928198907e-06 0 0.0016117307688879314 -0.017138686119905017 0 0.0013053406637787983 -0.013280702562291887 0 0.00049336152297927728 -0.014744383958176233 0 0.0016117307688879314 -0.017138686119905017 0 0.00049336152297927728 -0.014744383958176233 0 0.00031130479766750614 -0.018744657621016184 0 0.0023200208105523625 -0.013462506296571209 0 0.0016117307688879314 -0.017138686119905017 0 0.0013053406637787983 -0.013280702562291887 0 0.0023200208105523625 -0.013462506296571209 0 0.0013053406637787983 -0.013280702562291887 0 0.0016122660623975049 -0.010480436446627567 0 0.00074878491811851574 -0.0081271731860494776 0 0.0016122660623975049 -0.010480436446627567 0 0.00054213246963883603 -0.010726168458337642 0 0.0013053406637787983 -0.013280702562291887 0 0.0016122660623975049 -0.010480436446627567 0 0.00054213246963883603 -0.010726168458337642 0 0.0013053406637787983 -0.013280702562291887 0 0.00054213246963883603 -0.010726168458337642 0 0.00049336152297927728 -0.014744383958176233 0 0.00054213246963883603 -0.010726168458337642 0 -0.00025026995296698035 -0.012216336827305052 0 0.00049336152297927728 -0.014744383958176233 0 0.00022711893284492281 -0.0074096968485746536 0 -0.00026004991559922306 -0.008540646393341832 0 0.00054213246963883603 -0.010726168458337642 0 -0.00073125506429895265 -0.010284165438705587 0 -0.00026004991559922306 -0.008540646393341832 0 -0.00025026995296698035 -0.012216336827305052 0 -0.00026004991559922306 -0.008540646393341832 0 0.00054213246963883603 -0.010726168458337642 0 -0.00025026995296698035 -0.012216336827305052 0 -0.00025026995296698035 -0.012216336827305052 0 -0.00049662302313235917 -0.015318068920002616 0 0.00049336152297927728 -0.014744383958176233 0 -0.00049662302313235917 -0.015318068920002616 0 0.00049336152297927728 -0.014744383958176233 0 0.00031130479766750614 -0.018744657621016184 0 -0.00083471105320927523 -0.018901270034993842 0 -0.00049662302313235917 -0.015318068920002616 0 0.00031130479766750614 -0.018744657621016184 0 -0.00083471105320927523 -0.018901270034993842 0 -0.00070311568395594486 -0.023090409187180271 0 0.00031130479766750614 -0.018744657621016184 0 -0.00070311568395594486 -0.023090409187180271 0 0.0013868930692834526 -0.023676315930913194 0 0.00063505967838384117 -0.026098704184263282 0 -0.00070311568395594486 -0.023090409187180271 0 0.000390320695609854 -0.022311364868754371 0 0.00031130479766750614 -0.018744657621016184 0 -0.0078711609150436002 -0.022830491356188237 0 0.0027813773648472269 -0.023151067895745107 0 0.000390320695609854 -0.022311364868754371 0 0.00031130479766750614 -0.018744657621016184 0 0.0011440349810093798 -0.02016497770994909 0 0.0016117307688879314 -0.017138686119905017 0 0.00031130479766750614 -0.018744657621016184 0 0.0011440349810093798 -0.02016497770994909 0 0.0027813773648472269 -0.023151067895745107 0 0.0019810139048672933 -0.02283915592216897 0 0.000390320695609854 -0.022311364868754371 0 0.0011440349810093798 -0.02016497770994909 0 0.0017247109369685422 -0.022568812680378969 0 0.0019810139048672933 -0.02283915592216897 0 0.0043080446445996129 -0.022878700647874221 0 0.0011440349810093798 -0.02016497770994909 0 0.0017247109369685422 -0.022568812680378969 0 0.0024599189295313553 -0.019572946857089508 0 0.0016117307688879314 -0.017138686119905017 0 0.0011440349810093798 -0.02016497770994909 0 0.0024599189295313553 -0.019572946857089508 0 0.0041772607117555021 -0.026534298470218914 0 0.0021435896031203167 -0.027795976501093379 0 0.0037171609702110991 -0.030028099842386351 0 0.0033343251726429359 -0.023201861958398191 0 0.0041772607117555021 -0.026534298470218914 0 0.0052699619584429189 -0.023540322184563825 0 0.0033343251726429359 -0.023201861958398191 0 0.0041772607117555021 -0.026534298470218914 0 0.0021435896031203167 -0.027795976501093379 0 0.0013868930692834526 -0.023676315930913194 0 0.0033343251726429359 -0.023201861958398191 0 0.0021435896031203167 -0.027795976501093379 0 0.0021435896031203167 -0.027795976501093379 0 0.00063505967838384117 -0.026098704184263282 0 0.000451969528635388 -0.031230325825958034 0 0.0013868930692834526 -0.023676315930913194 0 0.0021435896031203167 -0.027795976501093379 0 0.00063505967838384117 -0.026098704184263282 0 -0.00070249464966928518 -0.027701032758951895 0 -0.00070311568395594486 -0.023090409187180271 0 0.00063505967838384117 -0.026098704184263282 0 -0.00070249464966928518 -0.027701032758951895 0 0.00063505967838384117 -0.026098704184263282 0 0.000451969528635388 -0.031230325825958034 0 0.0021435896031203167 -0.027795976501093379 0 0.000451969528635388 -0.031230325825958034 0 0.0025126398877596775 -0.03302832335459964 0 0.000451969528635388 -0.031230325825958034 0 0.00086981556924330757 -0.036776878560594702 0 0.0025126398877596775 -0.03302832335459964 0 -0.0010168653509484169 -0.035318701998253495 0 0.000451969528635388 -0.031230325825958034 0 0.00086981556924330757 -0.036776878560594702 0 -0.0011698106790783876 -0.039801229546868377 0 0.00046188929646429777 -0.041031611589408358 0 0.00086981556924330757 -0.036776878560594702 0 -0.0011698106790783876 -0.039801229546868377 0 -0.0010168653509484169 -0.035318701998253495 0 0.00086981556924330757 -0.036776878560594702 0 0.00046188929646429777 -0.041031611589408358 0 0.0022392560953574908 -0.040288972875642086 0 0.00086981556924330757 -0.036776878560594702 0 0.0022392560953574908 -0.040288972875642086 0 0.002511414080705046 -0.036921981093688834 0 0.0039054469479123375 -0.038829558383801567 0 0.0022392560953574908 -0.040288972875642086 0 0.00086981556924330757 -0.036776878560594702 0 0.002511414080705046 -0.036921981093688834 0 0.002511414080705046 -0.036921981093688834 0 0.0038403027410857881 -0.035601673796960297 0 0.0025126398877596775 -0.03302832335459964 0 0.00086981556924330757 -0.036776878560594702 0 0.002511414080705046 -0.036921981093688834 0 0.0025126398877596775 -0.03302832335459964 0 0.002511414080705046 -0.036921981093688834 0 0.0038403027410857881 -0.035601673796960297 0 0.0039054469479123375 -0.038829558383801567 0 0.0021435896031203167 -0.027795976501093379 0 0.0025126398877596775 -0.03302832335459964 0 0.0037171609702110991 -0.030028099842386351 0 0.0038403027410857881 -0.035601673796960297 0 0.0025126398877596775 -0.03302832335459964 0 0.0049472784802633146 -0.032572053326202124 0 0.0025126398877596775 -0.03302832335459964 0 0.0037171609702110991 -0.030028099842386351 0 0.0049472784802633146 -0.032572053326202124 0 0.0037171609702110991 -0.030028099842386351 0 0.0049472784802633146 -0.032572053326202124 0 0.0055283112187133037 -0.028079319374833121 0 0.0049472784802633146 -0.032572053326202124 0 0.005439856537548104 -0.036619416886245253 0 0.0069361751647050805 -0.03422679082632505 0 0.0049472784802633146 -0.032572053326202124 0 0.0066214682615250969 -0.030549192535216131 0 0.0069361751647050805 -0.03422679082632505 0 0.0049472784802633146 -0.032572053326202124 0 0.0066214682615250969 -0.030549192535216131 0 0.0055283112187133037 -0.028079319374833121 0 0.0039054469479123375 -0.038829558383801567 0 0.0054761720236911398 -0.040004912522754142 0 0.005439856537548104 -0.036619416886245253 0 0.0038403027410857881 -0.035601673796960297 0 0.0039054469479123375 -0.038829558383801567 0 0.005439856537548104 -0.036619416886245253 0 0.0038403027410857881 -0.035601673796960297 0 0.0049472784802633146 -0.032572053326202124 0 0.005439856537548104 -0.036619416886245253 0 0.005439856537548104 -0.036619416886245253 0 0.0071746319626336801 -0.038666871464313052 0 0.0069361751647050805 -0.03422679082632505 0 0.0054761720236911398 -0.040004912522754142 0 0.005439856537548104 -0.036619416886245253 0 0.0071746319626336801 -0.038666871464313052 0 0.0080404985787511669 -0.042011557269515581 0 0.0071746319626336801 -0.038666871464313052 0 0.0091121423595316685 -0.039322880686419821 0 0.0071746319626336801 -0.038666871464313052 0 0.0088996098613616775 -0.035773037138487854 0 0.0069361751647050805 -0.03422679082632505 0 0.0071746319626336801 -0.038666871464313052 0 0.0088996098613616775 -0.035773037138487854 0 0.0091121423595316685 -0.039322880686419821 0 0.0066214682615250969 -0.030549192535216131 0 0.008476089100915702 -0.031998738567676745 0 0.0079510310160666054 -0.028952192231124704 0 0.0088996098613616775 -0.035773037138487854 0 0.0069361751647050805 -0.03422679082632505 0 0.008476089100915702 -0.031998738567676745 0 0.0066214682615250969 -0.030549192535216131 0 0.0069361751647050805 -0.03422679082632505 0 0.008476089100915702 -0.031998738567676745 0 0.010448257103280303 -0.032259007879845134 0 0.0088996098613616775 -0.035773037138487854 0 0.008476089100915702 -0.031998738567676745 0 0.008476089100915702 -0.031998738567676745 0 0.0092700864599486454 -0.029520115050437633 0 0.0079510310160666054 -0.028952192231124704 0 0.010448257103280303 -0.032259007879845134 0 0.008476089100915702 -0.031998738567676745 0 0.0092700864599486454 -0.029520115050437633 0 0.0092700864599486454 -0.029520115050437633 0 0.0079510310160666054 -0.028952192231124704 0 0.0085286977678706542 -0.026580809994373358 0 0.0079510310160666054 -0.028952192231124704 0 0.0068058657305811099 -0.026352533995007595 0 0.0085286977678706542 -0.026580809994373358 0 0.0066214682615250969 -0.030549192535216131 0 0.0079510310160666054 -0.028952192231124704 0 0.0068058657305811099 -0.026352533995007595 0 0.0068058657305811099 -0.026352533995007595 0 0.0085286977678706542 -0.026580809994373358 0 0.0071918656102957813 -0.023218818941560571 0 0.0052116864269805482 -0.018417167742677789 0 0.0063796466713573205 -0.022385155367838614 0 0.0047088082535225728 -0.022585769542095332 0 0.0077074340430952348 -0.023068445134018699 0 0.0058640694949978747 -0.022894643650549867 0 0.0085286977678706542 -0.026580809994373358 0 0.0090584487017029754 -0.023750106682043769 0 0.0071918656102957813 -0.023218818941560571 0 0.0067263081447410554 -0.019315753355212857 0 0.0052116864269805482 -0.018417167742677789 0 0.0063796466713573205 -0.022385155367838614 0 0.0052116864269805482 -0.018417167742677789 0 0.0047088082535225728 -0.022585769542095332 0 0.0038362049633784883 -0.019107776454238536 0 0.0047088082535225728 -0.022585769542095332 0 0.0038362049633784883 -0.019107776454238536 0 0.0031482169736796505 -0.022175370977902866 0 0.0068058657305811099 -0.026352533995007595 0 0.0071918656102957813 -0.023218818941560571 0 0.0052699619584429189 -0.023540322184563825 0 0.0058640694949978747 -0.022894643650549867 0 0.0043080446445996129 -0.022878700647874221 0 0.0038362049633784883 -0.019107776454238536 0 0.0024599189295313553 -0.019572946857089508 0 0.0031482169736796505 -0.022175370977902866 0 0.0029548129452960873 -0.016507508697142764 0 0.0038362049633784883 -0.019107776454238536 0 0.0024599189295313553 -0.019572946857089508 0 0.0017247109369685422 -0.022568812680378969 0 0.0024599189295313553 -0.019572946857089508 0 0.0031482169736796505 -0.022175370977902866 0 0.0041772607117555021 -0.026534298470218914 0 0.0052699619584429189 -0.023540322184563825 0 0.0055283112187133037 -0.028079319374833121 0 0.0041772607117555021 -0.026534298470218914 0 0.0037171609702110991 -0.030028099842386351 0 0.0055283112187133037 -0.028079319374833121 0 0.0066214682615250969 -0.030549192535216131 0 0.0068058657305811099 -0.026352533995007595 0 0.0055283112187133037 -0.028079319374833121 0 0.0068058657305811099 -0.026352533995007595 0 0.0052699619584429189 -0.023540322184563825 0 0.0055283112187133037 -0.028079319374833121 0 
</DataArray>
</PointData>
<CellData Scalars="region_id,cross_section_updated,displacement_divergence," Vectors="" Tensors="stress,">
<DataArray type="Float64" Name="region_id" format="ascii">
1 1 1 1 1 1 1 1 1 1 1 1 1 1 1 1 1 1 1 1 1 1 1 1 1 1 1 1 1 1 1 1 1 1 1 1 1 1 1 1 1 1 1 1 1 1 1 1 1 1 1 1 1 1 1 1 1 1 1 1 1 1 1 1 1 1 1 1 1 1 1 1 1 1 1 1 1 1 1 1 1 1 1 1 1 1 1 1 1 1 1 1 1 1 1 1 1 1 1 1 1 1 1 1 1 1 1 1 1 1 1 1 1 1 1 1 1 1 1 1 1 1 1 1 1 1 1 1 1 1 1 1 1 1 1 1 1 1 1 1 1 1 1 1 1 1 1 1 1 1 1 1 1 1 1 1 1 1 1 1 1 1 1 1 1 1 1 1 1 1 1 1 1 1 1 1 1 1 1 1 1 1 1 1 1 1 1 1 1 1 1 1 1 1 1 1 1 1 1 1 1 1 1 1 1 1 1 1 1 1 1 1 1 1 1 1 1 1 1 1 1 1 1 1 1 1 1 1 1 1 1 1 1 1 1 1 1 1 1 1 1 1 1 1 1 1 1 1 1 1 1 1 1 1 1 1 1 1 1 1 1 1 1 1 1 1 1 1 1 1 1 1 1 1 1 1 1 1 1 1 1 1 1 1 1 1 1 1 1 1 1 1 1 1 1 1 1 1 1 1 1 1 1 1 1 1 1 1 1 1 1 1 1 1 1 1 1 1 1 1 1 1 1 1 1 1 1 1 1 1 1 1 1 1 1 1 1 1 1 1 1 1 1 1 1 1 1 1 1 1 1 1 1 1 1 1 1 1 1 1 1 1 1 1 1 1 1 1 1 1 1 1 1 1 1 1 1 1 1 1 1 1 1 1 1 1 1 1 1 1 1 1 1 1 1 1 1 1 1 1 1 1 1 1 1 1 1 1 1 1 1 1 1 1 1 1 1 1 1 1 1 1 1 1 1 1 1 1 1 1 1 1 1 1 1 1 1 1 1 1 1 1 1 1 1 1 1 1 1 1 1 1 1 1 1 1 1 1 1 1 1 1 1 1 1 1 1 1 1 1 1 1 1 1 1 1 1 1 1 1 1 1 1 1 1 1 1 1 1 1 1 1 1 1 1 1 1 1 1 1 1 1 1 1 1 1 1 1 1 1 1 1 1 1 1 1 1 1 1 1 1 1 1 1 1 1 1 1 1 1 1 1 1 1 1 1 1 1 3 1 1 3 1 1 3 1 1 1 1 1 1 1 1 1 1 1 1 1 3 1 1 1 1 1 3 1 1 1 1 1 1 1 1 1 1 1 1 1 1 1 1 1 1 1 1 1 1 1 1 1 1 1 1 1 1 1 1 1 1 1 1 1 1 1 1 1 1 1 1 1 1 1 1 1 1 1 1 1 1 1 1 1 1 1 1 1 1 1 1 1 1 1 1 1 1 1 1 1 1 1 1 1 1 1 1 1 1 1 1 1 1 1 1 1 1 1 1 1 1 1 1 1 1 1 1 1 1 1 1 1 1 1 1 1 1 1 1 1 1 1 1 1 1 1 1 1 1 1 1 1 1 1 1 1 1 1 1 1 1 1 1 1 1 1 1 1 1 1 1 1 1 1 1 1 1 1 1 1 1 1 1 1 1 1 1 1 1 1 1 1 1 1 1 3 1 1 1 3 1 1 3 1 1 1 1 1 1 1 1 1 1 1 3 1 1 1 1 3 1 1 1 1 1 1 1 1 1 1 1 1 1 1 1 1 1 1 1 1 1 1 1 1 1 1 1 1 1 1 1 1 1 1 1 1 1 1 1 1 1 1 1 1 1 1 1 1 1 1 1 1 1 1 1 1 1 1 2 1 1 1 1 1 1 1 1 1 1 1 1 1 1 2 1 1 2 1 2 1 1 1 1 1 1 1 1 1 1 1 1 1 2 1 1 1 1 1 1 1 1 1 1 1 1 1 1 1 1 1 1 1 1 1 1 1 1 1 1 1 1 1 1 1 1 1 1 1 1 1 1 1 1 1 1 1 1 1 1 1 1 1 1 1 1 1 1 1 1 1 1 1 1 1 1 1 1 1 1 1 1 1 1 1 1 1 1 1 1 1 1 1 1 1 1 1 1 1 1 1 1 1 1 1 1 1 1 1 1 1 1 1 1 1 1 1 1 1 1 1 1 1 1 1 1 1 1 1 1 1 1 1 1 1 1 1 1 1 1 1 1 1 1 1 1 1 1 1 1 2 1 1 2 1 2 1 1 1 1 1 1 1 1 1 1 1 1 1 1 1 1 1 1 1 1 1 1 1 1 1 1 1 1 1 1 1 1 1 1 1 1 1 1 1 1 1 1 1 1 1 1 1 2 1 1 1 1 1 2 1 1 1 1 1 1 1 
</DataArray>
<DataArray type="Float64" Name="stress" NumberOfComponents="9" format="ascii">
-4284.0910765435638 -3058.9465925955897 0 -3058.9465925955897 -12872.278127954631 0 0 0 -4289.0923011245495 -2236.0737856952392 -3053.6333928288204 0 -3053.6333928288204 -15388.960641441578 0 0 0 -4406.2586067842039 -2947.2663798304898 -2208.9011120739933 0 -2208.9011120739933 -10826.567918348715 0 0 0 -3443.4585745448016 -1115.9222068848267 -2317.0676374656368 0 -2317.0676374656368 -13546.175042101964 0 0 0 -3665.5243122466982 -405.44869212056835 -886.13371060031204 0 -886.13371060031204 -11060.889007870097 0 0 0 -2866.5844249976676 12.924325790685543 -337.88138387005228 0 -337.88138387005228 -9662.1147761533612 0 0 0 -2412.2976125906716 -1153.5190261961059 -1768.0847025830935 0 -1768.0847025830935 -11601.296192113427 0 0 0 -3188.7038045773843 -122.10193007084581 -978.37917041392348 0 -978.37917041392348 -10933.317494393601 0 0 0 -2763.8548561161124 -81.683288514239393 -944.24272160243981 0 -944.24272160243981 -10034.458944154125 0 0 0 -2529.0355581670919 -689.04877517747627 -1278.0353552501583 0 -1278.0353552501583 -10478.756406045241 0 0 0 -2791.9512953056783 -1429.9432209334063 -1467.3227892482314 0 -1467.3227892482314 -10177.428942095903 0 0 0 -2901.8430407573233 -727.69419748596738 -1272.2610406245622 0 -1272.2610406245622 -9836.3193644422863 0 0 0 -2641.0033904820648 -2194.5162155148164 -1875.6922144579644 0 -1875.6922144579644 -10008.453144402123 0 0 0 -3050.7423399792351 -1241.7331718468072 -1767.7814790291343 0 -1767.7814790291343 -9967.1960964039299 0 0 0 -2802.2323170626837 -3370.1095195840285 -2301.4323282423347 0 -2301.4323282423347 -10112.419091389174 0 0 0 -3370.6321527433006 -3653.6504436758141 -2804.5232415811806 0 -2804.5232415811806 -10958.202284955411 0 0 0 -3652.9631821578059 -1931.2773420425528 -2058.7472919569745 0 -2058.7472919569745 -9676.2486475252008 0 0 0 -2901.8814973919384 -2223.7377008240464 -2107.8496638060542 0 -2107.8496638060542 -10537.168282021885 0 0 0 -3190.226495711483 -3.6729078901335015 -78.105542263261668 0 -78.105542263261668 -8918.7842471268596 0 0 0 -2230.6142887542446 44.540892600682128 -89.13832695770725 0 -89.13832695770725 -9455.8872702311492 0 0 0 -2352.8365944076177 -15.609269095309173 -247.99145833366856 0 -247.99145833366856 -9419.4448740923181 0 0 0 -2358.7635357969093 144.98482655523003 -198.79691748498135 0 -198.79691748498135 -9538.6744464859657 0 0 0 -2348.4224049826862 -256.3716465664611 -637.18601471345755 0 -637.18601471345755 -10483.515413829709 0 0 0 -2684.9717650990415 40.058658201496655 -447.65079883025101 0 -447.65079883025101 -10055.83274838368 0 0 0 -2503.9435225455445 -44.619584157804638 -211.29898555764794 0 -211.29898555764794 -9175.5402821568787 0 0 0 -2305.0399665786681 -133.12706303640698 -870.2454740917974 0 -870.2454740917974 -9967.801061177699 0 0 0 -2525.2320310535251 -932.78817861044411 -1152.4510042634429 0 -1152.4510042634429 -10200.089851614061 0 0 0 -2783.2195075561262 -353.48193734880078 -704.5523947872789 0 -704.5523947872789 -9921.6700096461063 0 0 0 -2568.7879867487245 -104.37041421693993 -431.1718064373581 0 -431.1718064373581 -9664.7027882073162 0 0 0 -2442.2683006060661 -166.58352886249122 -723.13401269802853 0 -723.13401269802853 -9985.92143668055 0 0 0 -2538.1262413857585 52.665602999524708 -243.94621570005256 0 -243.94621570005256 -9760.1956256722115 0 0 0 -2426.8825056681708 26.446272931134445 -126.32899548656951 0 -126.32899548656951 -9329.6670003316831 0 0 0 -2325.8051818501408 -2.1237488384758763 -421.1502182619659 0 -421.1502182619659 -9724.083435385226 0 0 0 -2431.5517960559264 -226.13028084457619 -570.78221434918305 0 -570.78221434918305 -9731.1105366281481 0 0 0 -2489.3102043681793 -224.71990894544433 -585.91972185875966 0 -585.91972185875966 -9609.7999586472288 0 0 0 -2458.6299668981701 -839.40179136824554 -918.66523060747204 0 -918.66523060747204 -9618.8691560929001 0 0 0 -2614.567736865285 -354.94147396242806 -791.85780527503084 0 -791.85780527503084 -9734.5629240753806 0 0 0 -2522.3760995094517 -581.33742017669101 -903.0942732380513 0 -903.0942732380513 -9838.7525582843336 0 0 0 -2605.0224946152575 -923.61503455077036 -1225.7599713295303 0 -1225.7599713295303 -9634.5427324416669 0 0 0 -2639.5394417481111 -1077.7790732984522 -908.61239451958681 0 -908.61239451958681 -9464.1039293193317 0 0 0 -2635.4707506544455 -1015.5620640570678 -889.71042027247677 0 -889.71042027247677 -9434.7113981666771 0 0 0 -2612.568365555936 -680.05011331158858 -696.80935319140735 0 -696.80935319140735 -9291.3522659294322 0 0 0 -2492.8505948102556 -737.66897505879092 -920.86107351790815 0 -920.86107351790815 -9586.8119629946341 0 0 0 -2581.1202345133561 -418.54506908752899 -662.48172554636585 0 -662.48172554636585 -9682.390605853825 0 0 0 -2525.2339187353386 -550.54250554889768 -639.14229252303903 0 -639.14229252303903 -9485.9233910740877 0 0 0 -2509.1164741557477 -741.68207571361518 -694.3870239325679 0 -694.3870239325679 -9524.3305041012791 0 0 0 -2566.503144953725 -195.03633151255963 -441.54208195566389 0 -441.54208195566389 -9554.0427256205476 0 0 0 -2437.2697642832773 -179.29541020076795 -409.28771957209756 0 -409.28771957209756 -9523.0331024146799 0 0 0 -2425.5821281538629 -2422.6369439416658 -1737.3012325301306 0 -1737.3012325301306 -9451.1483337821101 0 0 0 -2968.4463194309442 -1912.8359940390364 -1457.9356131135028 0 -1457.9356131135028 -9261.2838656108561 0 0 0 -2793.5299649124736 -3075.1856700283156 -1682.2967337589018 0 -1682.2967337589018 -9225.37252740035 0 0 0 -3075.1395493571663 -2165.4284094915515 -1801.0554077990523 0 -1801.0554077990523 -9376.7471966150115 0 0 0 -2885.5439015266406 -1208.8896683712396 -1557.0892625502174 0 -1557.0892625502174 -9471.8065600387326 0 0 0 -2670.1740571024925 -1444.7793559269762 -1357.5704215202295 0 -1357.5704215202295 -9877.9451135629461 0 0 0 -2830.6811173724832 -1421.0131903805218 -1257.6734365890925 0 -1257.6734365890925 -9501.7739715643293 0 0 0 -2730.6967904862145 -1840.7394110118926 -1552.1649602043781 0 -1552.1649602043781 -9609.9791230734227 0 0 0 -2862.6796335213289 -1265.5019682256016 -1180.497628147669 0 -1180.497628147669 -9409.4955977346581 0 0 0 -2668.7493914900633 -1841.306843481515 -1163.4689629777085 0 -1163.4689629777085 -9342.0718180207605 0 0 0 -2795.8446653755682 -1451.166535204653 -1089.8938301789321 0 -1089.8938301789321 -9183.5359751559299 0 0 0 -2658.6756275901462 -1708.009427411771 -1278.4955652075751 0 -1278.4955652075751 -9004.0989508617968 0 0 0 -2678.0270945683924 -2344.5494938026559 -1261.44315431734 0 -1261.44315431734 -9157.0182294401384 0 0 0 -2875.391930810697 -2403.3498604565966 -1490.8622984271071 0 -1490.8622984271071 -9351.7856537807984 0 0 0 -2938.7838785593481 -2250.7131767215019 -1498.6532569848118 0 -1498.6532569848118 -8867.6402210381493 0 0 0 -2779.5883494399127 -2998.9327991211385 -1422.1596244553716 0 -1422.1596244553716 -8997.2087794200925 0 0 0 -2999.0353946353071 -2947.3535115160926 -1196.5745809128391 0 -1196.5745809128391 -8843.7103031815604 0 0 0 -2947.7659536744131 -2237.1556152135427 -1242.4766310014536 0 -1242.4766310014536 -8668.217483980101 0 0 0 -2726.3432747984107 -2247.2819082392029 -1017.6362360976773 0 -1017.6362360976773 -8513.9615578816538 0 0 0 -2690.3108665302143 -2863.8231826183942 -983.07742900859762 0 -983.07742900859762 -8591.5265064238374 0 0 0 -2863.837422260558 -2278.3472039716571 -771.97736283566041 0 -771.97736283566041 -8650.8958156811332 0 0 0 -2732.3107549131973 -2141.8619158060201 -713.90084578656251 0 -713.90084578656251 -8582.1017572955698 0 0 0 -2680.9909182753972 -2243.6667852895207 -834.75962061898349 0 -834.75962061898349 -8324.740587579503 0 0 0 -2642.1018432172559 -2827.4328466413463 -812.63490876678986 0 -812.63490876678986 -8482.8680176713515 0 0 0 -2827.5752160781744 -1651.2229202162569 -614.98935656643334 0 -614.98935656643334 -8848.7365419284433 0 0 0 -2624.9898655361749 -1409.9280257503815 -644.28080352266534 0 -644.28080352266534 -8761.1571813515329 0 0 0 -2542.7713017754777 -1846.5773051941396 -814.05105284076581 0 -814.05105284076581 -8647.115445945692 0 0 0 -2623.4231877849579 -1955.5029671721468 -807.7259539091765 0 -807.7259539091765 -8974.6309112305444 0 0 0 -2732.5334696006712 -1385.4612076249155 -811.95254810741426 0 -811.95254810741426 -8842.7094116447188 0 0 0 -2557.0426548174078 -2223.3737981590202 -888.52854336275436 0 -888.52854336275436 -8799.9563779324981 0 0 0 -2755.8325440228791 -1912.3136812249504 -999.24128187470887 0 -999.24128187470887 -9018.308462881545 0 0 0 -2732.6555360266229 -1757.2300784185991 -1038.7959420613297 0 -1038.7959420613297 -8967.0803165149955 0 0 0 -2681.0775987333991 -1326.5774456855488 -884.35522548723702 0 -884.35522548723702 -9258.6378969631114 0 0 0 -2646.3038356621655 -1019.4756720651594 -795.31156529778855 0 -795.31156529778855 -9100.9013376044677 0 0 0 -2530.094252417407 -1113.8492624709033 -739.26094334277946 0 -739.26094334277946 -9382.0023025653063 0 0 0 -2623.9628912590506 -1126.7346647683771 -620.13274906544029 0 -620.13274906544029 -9205.2923925295727 0 0 0 -2583.0067643244856 -712.06217200076753 -604.44580087746908 0 -604.44580087746908 -9183.0500340248254 0 0 0 -2473.7780515063987 -1484.5043625001636 -810.17941592106911 0 -810.17941592106911 -9143.4589166944716 0 0 0 -2656.9908197986588 -461.58683269694666 -450.28140682523417 0 -450.28140682523417 -9462.3546672365628 0 0 0 -2480.9853749833819 -394.16919685655739 -528.14328123968335 0 -528.14328123968335 -9348.5905114296111 0 0 0 -2435.6899270715439 -792.55148886478491 -549.21468276313863 0 -549.21468276313863 -9384.0580588764278 0 0 0 -2544.1523869353041 -442.63335771535276 -377.45622632556478 0 -377.45622632556478 -9356.7512544087294 0 0 0 -2449.8461530310233 -386.63693764039272 -403.98353526236633 0 -403.98353526236633 -9210.6406383525391 0 0 0 -2399.3193939982339 -750.77412877522875 -414.57772265996391 0 -414.57772265996391 -9164.6046177598109 0 0 0 -2478.844686633759 -572.71758826154201 -367.07549858689163 0 -367.07549858689163 -9078.6208436733141 0 0 0 -2412.8346079837147 -399.44146857017768 -204.58577290414905 0 -204.58577290414905 -9082.6836437868114 0 0 0 -2370.5312780892473 -1027.2941862416574 -673.29711219119417 0 -673.29711219119417 -8943.0816568499504 0 0 0 -2492.5939607729033 -1409.3713983373041 -676.82923845916957 0 -676.82923845916957 -9052.8391972453337 0 0 0 -2615.5526488956589 -814.42475957239276 -547.41338345773147 0 -547.41338345773147 -9072.0647463550013 0 0 0 -2471.6223764818469 -1083.7512304146021 -486.20370355532214 0 -486.20370355532214 -8961.8482904407065 0 0 0 -2511.3998802138285 -1041.3692063586832 -508.94030560357623 0 -508.94030560357623 -8954.9127051009928 0 0 0 -2499.0704778649169 -1233.5125010231686 -446.99398874252802 0 -446.99398874252802 -8767.8593416278927 0 0 0 -2500.3429606627651 -1037.2825920983669 -250.44402548858852 0 -250.44402548858852 -8866.5609995118939 0 0 0 -2475.9608979025643 -1290.9729555499734 -401.66853467532928 0 -401.66853467532928 -8786.5244627453721 0 0 0 -2519.3743545738389 -348.38401688815429 -201.38843052240372 0 -201.38843052240372 -9065.6564696895803 0 0 0 -2353.5101216444345 -846.85736583738435 -328.01860793874584 0 -328.01860793874584 -8970.7223258132726 0 0 0 -2454.3949229126629 -735.79931383343001 -299.27918632742694 0 -299.27918632742694 -8922.787491438723 0 0 0 -2414.6467013180395 -553.31241831129955 -161.72371949786157 0 -161.72371949786157 -8953.9269831971542 0 0 0 -2376.8098503771162 -529.23661600644118 -150.11362927534901 0 -150.11362927534901 -8942.9271049826602 0 0 0 -2368.0409302472763 -743.60969811097675 -80.792106777404115 0 -80.792106777404115 -8898.9363962833886 0 0 0 -2410.6365235985868 -753.53820441448624 61.323832098431012 0 61.323832098431012 -8728.7478696531543 0 0 0 -2370.571518516912 -568.15813645736807 -45.736992877631565 0 -45.736992877631565 -8827.1080062015026 0 0 0 -2348.8165356647164 -449.08313143558007 42.133774273662311 0 42.133774273662311 -8928.4389392977173 0 0 0 -2344.380517683323 -1252.4683972917628 -151.83639070211939 0 -151.83639070211939 -8790.1931042761535 0 0 0 -2510.6653753919827 -794.11672919629927 -193.64144547547403 0 -193.64144547547403 -8761.358506943905 0 0 0 -2388.8688090350506 -884.89726292943624 -57.56174136077243 0 -57.56174136077243 -8624.7929125283754 0 0 0 -2377.4225438644539 -1160.4308161981717 -153.7400657806063 0 -153.7400657806063 -8514.0314137783807 0 0 0 -2418.6155574941386 -1422.8955390858316 -98.484877208751641 0 -98.484877208751641 -8615.9648667332367 0 0 0 -2509.7151014547653 -1752.9241525506009 -279.93874975462586 0 -279.93874975462586 -8654.4325776470141 0 0 0 -2601.8391825494032 -1718.4722428553719 -213.2978699591722 0 -213.2978699591722 -8273.3160270808366 0 0 0 -2497.9470674840527 -2091.7925388718504 -186.54819220676518 0 -186.54819220676518 -8400.3140657249896 0 0 0 -2623.02665114921 -2048.1770071825667 -102.90116931248076 0 -102.90116931248076 -7980.8363409905969 0 0 0 -2507.2533370432911 -2748.2591282179196 -273.89414302727874 0 -273.89414302727874 -8244.7323062974301 0 0 0 -2748.2478586288371 -2141.0634227714395 -341.02119898900582 0 -341.02119898900582 -8077.3913764347508 0 0 0 -2554.6136998015472 -2240.2123123946167 -375.9596014739152 0 -375.9596014739152 -8455.7512454221942 0 0 0 -2673.9908894542023 -2293.3062519605969 -555.322216210845 0 -555.322216210845 -8318.6300092429574 0 0 0 -2652.9840653008887 -2043.7002119056274 -397.85769516881464 0 -397.85769516881464 -8385.8096618140662 0 0 0 -2607.3774684299237 -2774.8452016609162 -468.95070604711395 0 -468.95070604711395 -8325.236583400696 0 0 0 -2775.0204462654033 -2307.2566736713143 -632.88423638322456 0 -632.88423638322456 -8338.0571797130706 0 0 0 -2661.3284633460962 -1791.0058861266016 -540.04069567507668 0 -540.04069567507668 -8559.8780037633805 0 0 0 -2587.7209724724953 -1484.5583088573994 -321.23578314910219 0 -321.23578314910219 -8556.5056309517204 0 0 0 -2510.2659849522788 -1903.6544868307412 -480.95558167942818 0 -480.95558167942818 -8603.9209058790293 0 0 0 -2626.8938481774421 943.51565328671495 85.494791837518278 0 85.494791837518278 -9191.5997167261521 0 0 0 -2062.0210158598602 773.49588476159261 17.330320418546762 0 17.330320418546762 -9237.705995833312 0 0 0 -2116.0525277679262 744.11975770063145 69.086172588665249 0 69.086172588665249 -9224.2875052049349 0 0 0 -2120.0419368760777 1017.4360648813981 6.5436648902505112 0 6.5436648902505112 -9217.2564664550482 0 0 0 -2049.9551003934121 1179.5969720946814 21.40579807082031 0 21.40579807082031 -9202.4997509981913 0 0 0 -2005.7256947258757 1113.1385148521258 55.67277493236179 0 55.67277493236179 -9130.3441869440576 0 0 0 -2004.3014180229839 1215.6025030758165 -12.417735144284961 0 -12.417735144284961 -9088.2557657142588 0 0 0 -1968.1633156596117 1158.664639606046 -21.786548894076986 0 -21.786548894076986 -8981.1308579428151 0 0 0 -1955.6165545842014 1302.148071813659 31.021176429741899 0 31.021176429741899 -9002.5913996623422 0 0 0 -1925.1108319621671 1255.6878763949171 28.599827484711568 0 28.599827484711568 -8876.498510748861 0 0 0 -1905.2026585884814 1104.3697571525572 -66.101037208951311 0 -66.101037208951311 -8884.0530501916655 0 0 0 -1944.9208232597757 1138.5636509095166 39.642377497072459 0 39.642377497072459 -9039.0919578169851 0 0 0 -1975.1320767268662 964.73879447208765 -14.557058328009589 0 -14.557058328009589 -9118.9606490049155 0 0 0 -2038.5554636332045 941.54536322627246 55.112645736033528 0 55.112645736033528 -9169.2777593140054 0 0 0 -2056.933099021935 1081.0096755069189 -0.4203983831757796 0 -0.4203983831757796 -8985.6423711974712 0 0 0 -1976.1581739226403 360.77827978048845 298.76774852457675 0 298.76774852457675 -9250.0341338004146 0 0 0 -2222.3139635049793 916.35993761898499 152.44541193407349 0 152.44541193407349 -9102.0915098465193 0 0 0 -2046.4328930568863 227.32032653557144 114.45178550238052 0 114.45178550238052 -9184.0717943729214 0 0 0 -2239.1878669593389 896.9501605067926 -16.411498975798168 0 -16.411498975798168 -9018.3627333530967 0 0 0 -2030.3531432115778 1.4072977209216333 137.02461403582674 0 137.02461403582674 -8979.3361507400186 0 0 0 -2244.4822132547761 -358.24471923935926 -0.17127526613148802 0 -0.17127526613148802 -8966.6630010994413 0 0 0 -2331.2269300846983 71.659455253234682 91.190257212732831 0 91.190257212732831 -9068.8067336140266 0 0 0 -2249.2868195902033 256.22508024330079 134.99151314535629 0 134.99151314535629 -9012.7779594299027 0 0 0 -2189.1382197966523 -270.30559059447501 8.4965679428023577 0 8.4965679428023577 -8936.0328717569573 0 0 0 -2301.5846155878589 -118.53657152375126 -40.128258520373493 0 -40.128258520373493 -9051.8782398009571 0 0 0 -2292.6037028311785 -133.19349861980072 -30.778108471764426 0 -30.778108471764426 -9054.6040612056713 0 0 0 -2296.9493899563672 102.43894288159208 -81.395061286979399 0 -81.395061286979399 -9170.7006857127126 0 0 0 -2267.0654357077801 598.81037724501584 41.729521578581625 0 41.729521578581625 -9214.90667874051 0 0 0 -2154.0240753738726 582.66632780716645 97.449921053543221 0 97.449921053543221 -9107.4038817516848 0 0 0 -2131.1843884861355 171.10305923060514 70.100895166768169 0 70.100895166768169 -9193.961645693922 0 0 0 -2255.7146466158301 449.60248223583585 -12.473150824649565 0 -12.473150824649565 -9281.0394566473769 0 0 0 -2207.8592436028812 509.98434951290983 60.381395348860678 0 60.381395348860678 -9257.0101758739984 0 0 0 -2186.7564565902721 223.25599558536487 -53.823166272732124 0 -53.823166272732124 -9332.2765761716 0 0 0 -2277.2551451465588 398.81198927466266 -5.8025017732870765 0 -5.8025017732870765 -9294.4173411911725 0 0 0 -2223.9013379791277 -217.52549986077065 -248.78802699487096 0 -248.78802699487096 -9256.6179203104621 0 0 0 -2368.5358550428064 -11.345581122779549 -79.492556810946553 0 -79.492556810946553 -9199.0259130900849 0 0 0 -2302.5928735532161 184.72266716550075 -122.63648299036322 0 -122.63648299036322 -9306.8373672772868 0 0 0 -2280.5286750279483 157.07597402217107 -107.67381999976351 0 -107.67381999976351 -9308.2036925510547 0 0 0 -2287.7819296322177 -101.00476361570259 -217.91428335320597 0 -217.91428335320597 -9212.5003837973363 0 0 0 -2328.3762868532604 -103.2105635596381 -252.65788896827326 0 -252.65788896827326 -9438.1646717571566 0 0 0 -2385.3438088291987 103.49473617232206 -182.19831415711087 0 -182.19831415711087 -9379.5319935287152 0 0 0 -2319.0093143390973 -159.56412062803793 -327.28158769580568 0 -327.28158769580568 -9507.2262912914521 0 0 0 -2416.6976029798752 -116.16183951451512 -324.44902613667728 0 -324.44902613667728 -9306.62659429009 0 0 0 -2355.6971084511524 434.07507933862871 -54.115784829880795 0 -54.115784829880795 -9424.3973712460138 0 0 0 -2247.5805729768508 148.00989220074189 -125.63524736286126 0 -125.63524736286126 -9442.5341732979141 0 0 0 -2323.6310702742921 324.07536388406243 -75.784247789477377 0 -75.784247789477377 -9396.0042618889056 0 0 0 -2267.9822245012138 68.54785325811099 -171.72885021848742 0 -171.72885021848742 -9480.8989883446557 0 0 0 -2353.0877837716362 302.5560035460876 -60.726327068257888 0 -60.726327068257888 -9445.0690664802387 0 0 0 -2285.628265733536 418.54188829523082 -11.925513053509349 0 -11.925513053509349 -9496.3424817418054 0 0 0 -2269.4501483616459 580.31495821028693 56.171467180993204 0 56.171467180993204 -9466.1510078332467 0 0 0 -2221.4590124057377 602.81445392741807 41.265217861055135 0 41.265217861055135 -9435.8176374131435 0 0 0 -2208.2507958714341 572.91278638243784 2.5843997958581895 0 2.5843997958581895 -9430.8270774157245 0 0 0 -2214.4785727583239 529.04822284291731 30.144006093194548 0 30.144006093194548 -9382.5034200102236 0 0 0 -2213.3637992918229 663.6415707255419 19.960692431573989 0 19.960692431573989 -9364.2072419533433 0 0 0 -2175.1414178069481 673.00274187418836 39.85731050219465 0 39.85731050219465 -9341.8105886485137 0 0 0 -2167.2019616935795 746.53551243278707 56.20924167029807 0 56.20924167029807 -9381.090734735546 0 0 0 -2158.6388055756834 826.35227393635068 18.315960297313723 0 18.315960297313723 -9312.9765366226784 0 0 0 -2121.6560656715847 754.93276347721712 66.124237172589346 0 66.124237172589346 -9265.2081452620878 0 0 0 -2127.5688454462097 592.94628334347362 -14.456376539361372 0 -14.456376539361372 -9323.8282373235998 0 0 0 -2182.7204884950334 1020.1151883056009 53.300312623025093 0 53.300312623025093 -9235.3297618197103 0 0 0 -2053.803643378531 977.20626566921055 24.871701417514487 0 24.871701417514487 -9293.6017392240174 0 0 0 -2079.0988683887044 905.40030904548257 71.594340838415519 0 71.594340838415519 -9267.9519757308626 0 0 0 -2090.637916671345 759.49847877513821 40.40687382766373 0 40.40687382766373 -9368.2436868492223 0 0 0 -2152.1863020185119 923.59617492206598 43.993741404696266 0 43.993741404696266 -9318.2922706688259 0 0 0 -2098.6740239366918 888.67734631701114 79.482585129640938 0 79.482585129640938 -9347.2581086649734 0 0 0 -2114.6451905869899 765.04010954793921 61.735608408678672 0 61.735608408678672 -9382.6460295852448 0 0 0 -2154.4014800093209 735.25639276035508 84.328734871000051 0 84.328734871000051 -9429.6568859511171 0 0 0 -2173.6001232976851 735.55588537073345 93.131647792637523 0 93.131647792637523 -9430.648999514844 0 0 0 -2173.7732785360276 606.53340673627827 105.31142525252653 0 105.31142525252653 -9459.8522016476927 0 0 0 -2213.3296987278518 510.45465019740732 84.424070201537688 0 84.424070201537688 -9465.4404553208442 0 0 0 -2238.7464512808619 611.86791323623765 75.542914736837702 0 75.542914736837702 -9472.846531123505 0 0 0 -2215.2446544718114 608.92947695836483 86.325206482593785 0 86.325206482593785 -9440.020877884599 0 0 0 -2207.7728502315658 424.90735329313611 -6.57277857124609 0 -6.57277857124609 -9460.2643208814188 0 0 0 -2258.8392418970652 397.94387825532613 47.680180917734106 0 47.680180917734106 -9478.3062744385679 0 0 0 -2270.0905990458086 463.00396821661707 28.018514456227422 0 28.018514456227422 -9502.1342207218258 0 0 0 -2259.782563126304 512.10457344605675 84.184565584284428 0 84.184565584284428 -9469.5689539705054 0 0 0 -2239.3660951311103 410.36477865846973 100.14918954990611 0 100.14918954990611 -9446.7228553552995 0 0 0 -2259.0895191742093 389.32708960572927 63.309724980314058 0 63.309724980314058 -9512.4938977827333 0 0 0 -2280.7917020442474 318.36839493894513 84.431275779628777 0 84.431275779628777 -9443.763628433524 0 0 0 -2281.3488083736447 367.39667803010161 105.15812919354357 0 105.15812919354357 -9455.3903069497246 0 0 0 -2271.9984072299012 386.74490440233058 134.87386145760297 0 134.87386145760297 -9407.792146075968 0 0 0 -2255.2618104184075 430.61348802255816 124.34055277534208 0 124.34055277534208 -9451.3848333408387 0 0 0 -2255.1928363295738 485.78971518233448 121.64440694620498 0 121.64440694620498 -9433.2493880458642 0 0 0 -2236.8649182158842 493.13063787406691 112.17457281833777 0 112.17457281833777 -9476.9125680918023 0 0 0 -2245.9454825544303 -49.228018636680645 -262.83282661708563 0 -262.83282661708563 -9442.0090153363271 0 0 0 -2372.8092584932492 40.395207519151882 -260.51285201779319 0 -260.51285201779319 -9563.6014442628948 0 0 0 -2380.8015591859348 67.813709413227116 -215.52240723573777 0 -215.52240723573777 -9519.7416884358463 0 0 0 -2362.9819947556589 200.64609240031859 -129.04189662393401 0 -129.04189662393401 -9599.6116882778006 0 0 0 -2349.7413989693741 170.36858788807149 -121.75260878343033 0 -121.75260878343033 -9495.9818809102871 0 0 0 -2331.4033232555521 270.36824033184348 -120.44884455895226 0 -120.44884455895226 -9488.6986698920882 0 0 0 -2304.5826073900607 243.88380753210367 -97.834377084676817 0 -97.834377084676817 -9526.039942140691 0 0 0 -2320.539033652145 332.53867814297246 -35.995305411117442 0 -35.995305411117442 -9471.0288826818705 0 0 0 -2284.6225511347229 318.11973265572306 -29.29603616172426 0 -29.29603616172426 -9518.7808262599137 0 0 0 -2300.1652734010495 240.82712078885015 -11.452301166540565 0 -11.452301166540565 -9494.0108834429047 0 0 0 -2313.2959406635127 294.86513787086187 8.9480612111547089 0 8.9480612111547089 -9509.7513391102111 0 0 0 -2303.7215503098378 294.65650242845095 -58.722482213775947 0 -58.722482213775947 -9513.4034799998517 0 0 0 -2304.6867443928522 136.54603553256675 -199.21306814518084 0 -199.21306814518084 -9598.1896348165683 0 0 0 -2365.4108998209995 47.239432472726548 -164.1020964210802 0 -164.1020964210802 -9558.0706361511548 0 0 0 -2377.7078009196102 75.054127274386701 -298.89414987688724 0 -298.89414987688724 -9704.6162921321375 0 0 0 -2407.3905412144377 -101.41926934052753 -388.39507987242905 0 -388.39507987242905 -9653.3070011174714 0 0 0 -2438.6815676144979 -28.243292784041842 -340.38172432648298 0 -340.38172432648298 -9601.2682723446487 0 0 0 -2407.3778912821726 170.45057538068238 -64.3661062991996 0 -64.3661062991996 -9509.2894943481642 0 0 0 -2334.7097297418695 66.855757830970106 -232.00164301371251 0 -232.00164301371251 -9558.7355877691152 0 0 0 -2372.9699574845363 -40.069730860079289 -193.60069223293976 0 -193.60069223293976 -9587.7806598054522 0 0 0 -2406.9625976663847 263.05535660844271 -116.51857014733469 0 -116.51857014733469 -9538.2277241909869 0 0 0 -2318.7930918956381 91.957304563507932 -48.146664059388058 0 -48.146664059388058 -9264.6236470165604 0 0 0 -2293.166585613264 168.86364708136853 30.124682194080378 0 30.124682194080378 -9406.1168338388507 0 0 0 -2309.3132966893686 145.48594299115575 -50.607767524761584 0 -50.607767524761584 -9443.6024516637553 0 0 0 -2324.5291271681454 238.77372319309143 55.113504688471949 0 55.113504688471949 -9433.0060242296313 0 0 0 -2298.5580752591341 199.04046214642221 38.00338005237063 0 38.00338005237063 -9394.1637345170675 0 0 0 -2298.780818092655 123.79574731956018 52.561847768305597 0 52.561847768305597 -9222.7780494192411 0 0 0 -2274.7455755249175 72.434542219685682 52.336138150118131 0 52.336138150118131 -9239.6222379635947 0 0 0 -2291.7969239359809 57.30138792157959 21.511523210985615 0 21.511523210985615 -8899.8752724587248 0 0 0 -2210.6434711342881 56.866948086546472 21.203057137810902 0 21.203057137810902 -9264.2509139588292 0 0 0 -2301.8459914680752 51.06670524079707 -6.3484368941244611 0 -6.3484368941244611 -8895.864133174282 0 0 0 -2211.1993569833703 43.582520705891511 -27.00896667699817 0 -27.00896667699817 -9355.2669305760064 0 0 0 -2327.9211024675315 266.06125110614448 116.01974570875973 0 116.01974570875973 -9342.8126331316744 0 0 0 -2269.1878455063816 281.31347606251802 123.69026704236603 0 123.69026704236603 -9434.2951488390972 0 0 0 -2288.245418194143 296.2870734904136 117.05512821426237 0 117.05512821426237 -9423.7024858541845 0 0 0 -2281.8538530909427 281.742149077254 77.603247257702606 0 77.603247257702606 -9420.7244181639107 0 0 0 -2284.7455672716642 207.28590128735232 101.23577162778383 0 101.23577162778383 -9345.296014328429 0 0 0 -2284.5025282602728 159.73070609118804 49.040762273252767 0 49.040762273252767 -9255.2298985993402 0 0 0 -2273.874798127039 60.445112450059241 38.419032987854735 0 38.419032987854735 -9010.7391248529748 0 0 0 -2237.5735031007353 33.942527362920373 82.127238351415144 0 82.127238351415144 -9247.654782950347 0 0 0 -2303.4280638968521 51.454298881319119 55.423465792977368 0 55.423465792977368 -9079.5994922232203 0 0 0 -2257.0362983354717 46.686959331433172 42.132535854503658 0 42.132535854503658 -9277.0576953286363 0 0 0 -2307.5926839992972 136.32289513845171 72.444288003822294 0 72.444288003822294 -9259.6253940084716 0 0 0 -2280.825624717505 152.84743271145726 80.271887248505664 0 80.271887248505664 -9394.3030555651931 0 0 0 -2310.3639057134305 149.42833785520634 85.946496510749967 0 85.946496510749967 -9236.8137840890849 0 0 0 -2271.8463615584769 35.487523941083055 62.707355710483171 0 62.707355710483171 -9227.1884235496109 0 0 0 -2297.9252249021301 90.434736661845818 67.096075004052182 0 67.096075004052182 -9400.6389059933426 0 0 0 -2327.5510423328742 82.355580549414128 57.404445244996168 0 57.404445244996168 -9307.2056905582467 0 0 0 -2306.2125275022081 43.719928752063424 53.99138862741529 0 53.99138862741529 -9461.4125165239675 0 0 0 -2354.4231469429724 185.67760293463652 90.171778308453213 0 90.171778308453213 -9397.0252365738415 0 0 0 -2302.836908409794 216.48135463339713 87.051316538236279 0 87.051316538236279 -9361.4484902257464 0 0 0 -2286.2417838980909 288.46494029228597 127.05324282805668 0 127.05324282805668 -9389.1856735844049 0 0 0 -2275.1801833230293 190.95183497788821 101.28647821127151 0 101.28647821127151 -9443.3180996647279 0 0 0 -2313.0915661717081 309.19343712095724 122.37981574888545 0 122.37981574888545 -9396.4935437212262 0 0 0 -2271.825026650069 322.32795016371529 134.68690020530994 0 134.68690020530994 -9443.0395508183428 0 0 0 -2280.1779001636605 285.32994384842095 126.2503239514117 0 126.2503239514117 -9470.2547706622718 0 0 0 -2296.2312067034545 225.62216400929174 96.96974559604223 0 96.96974559604223 -9504.3885434628173 0 0 0 -2319.6915948633759 250.76565082223533 112.81358424793871 0 112.81358424793871 -9440.1794478495722 0 0 0 -2297.3534492568288 155.20250146699618 85.101454198658757 0 85.101454198658757 -9486.7953643223882 0 0 0 -2332.8982157138453 50.48414095507178 47.419536088589666 0 47.419536088589666 -9416.6017954960844 0 0 0 -2341.5294136352531 65.374146223337448 39.408577524791326 0 39.408577524791326 -9522.3895458699553 0 0 0 -2364.2538499116563 73.343212685169419 50.713254553782463 0 50.713254553782463 -9463.2804118938802 0 0 0 -2347.4842998021777 75.036166616635455 40.639939730463084 0 40.639939730463084 -9608.6561558574904 0 0 0 -2383.4049973102228 210.37102468521471 100.72696906014608 0 100.72696906014608 -9501.2409052649491 0 0 0 -2322.7174701449317 80.179043804593675 42.255367906705942 0 42.255367906705942 -9553.4285641042952 0 0 0 -2368.3123800749236 73.026839354934054 39.851516540296871 0 39.851516540296871 -9691.4115656143695 0 0 0 -2404.5961815648625 77.410558636962378 41.77118713168602 0 41.77118713168602 -9614.0519487261772 0 0 0 -2384.1603475223019 72.856108330583083 39.521462378692377 0 39.521462378692377 -9687.5754095547018 0 0 0 -2403.679825306026 225.31628184359579 92.278181287074403 0 92.278181287074403 -9572.0097605912888 0 0 0 -2336.6733696869269 350.96134972565051 134.02906252502726 0 134.02906252502726 -9513.7883463564067 0 0 0 -2290.7067491576854 225.65644434660908 92.45412571894849 0 92.45412571894849 -9572.8651529470408 0 0 0 -2336.8021771501039 376.81433734890015 146.43528899899684 0 146.43528899899684 -9491.1825306109386 0 0 0 -2278.5920483155205 221.44066136746551 105.97211150858129 0 105.97211150858129 -9513.2787704383954 0 0 0 -2322.9595272677252 317.59317375774117 117.69931972953054 0 117.69931972953054 -9502.3164279580742 0 0 0 -2296.1808135500833 338.08113779713312 129.72541534788616 0 129.72541534788616 -9446.6638127080951 0 0 0 -2277.1456687277459 427.57913138662843 145.34933769053168 0 145.34933769053168 -9451.2500019201907 0 0 0 -2255.9177176333906 439.87825415920815 138.07449548138902 0 138.07449548138902 -9436.8007789140247 0 0 0 -2249.2306311887078 555.35088287289909 134.36085595466284 0 134.36085595466284 -9398.7802104852162 0 0 0 -2210.8573319030838 411.36165143078688 132.08072258648099 0 132.08072258648099 -9449.7918913727917 0 0 0 -2259.607559985503 428.96681432325568 129.83510264649522 0 129.83510264649522 -9467.5885930747318 0 0 0 -2259.6554446878872 413.85326263096795 121.03785144483118 0 121.03785144483118 -9490.246900360813 0 0 0 -2269.0984094324376 535.62183990145786 151.47391933685867 0 151.47391933685867 -9402.231831796933 0 0 0 -2216.6524979738642 507.57221970727551 153.67664363513177 0 153.67664363513177 -9430.3173468904861 0 0 0 -2230.6862817958026 537.17057399256737 131.74787927213902 0 131.74787927213902 -9390.2863557086093 0 0 0 -2213.2789454290032 638.56905185517098 143.22862768769846 0 143.22862768769846 -9353.8668331890076 0 0 0 -2178.8244453334482 639.91177208155568 145.22912813930816 0 145.22912813930816 -9324.8575618235336 0 0 0 -2171.2364474354981 738.76841241882676 123.48049499012996 0 123.48049499012996 -9290.598612400323 0 0 0 -2137.9575499953685 742.20688097510993 130.43283980194246 0 130.43283980194246 -9272.9432962269348 0 0 0 -2132.6841038129542 748.20194424961664 127.40379295446837 0 127.40379295446837 -9230.8320320894418 0 0 0 -2120.6575219599545 597.7679527309665 146.88011093314799 0 146.88011093314799 -9381.0293885155988 0 0 0 -2195.8153589461581 610.44020347543483 128.14567685092334 0 128.14567685092334 -9361.8670710736042 0 0 0 -2187.8567168995396 699.54829772455196 113.87525367824855 0 113.87525367824855 -9323.9040126106847 0 0 0 -2156.0889287215286 773.71149826051987 115.75612465706945 0 115.75612465706945 -9317.3841223756317 0 0 0 -2135.9181560287834 677.42872950625315 126.50054417757929 0 126.50054417757929 -9375.0545078208379 0 0 0 -2174.4064445786353 776.38371895669115 97.613478154395125 0 97.613478154395125 -9324.1272056655725 0 0 0 -2136.9358716772185 635.3005365621575 121.25873080531164 0 121.25873080531164 -9379.5053495889588 0 0 0 -2186.0512032566985 620.79704312434114 128.56116866024968 0 128.56116866024968 -9416.0240657912072 0 0 0 -2198.806755666712 746.67642684261591 115.21436286086828 0 115.21436286086828 -9381.8938120913808 0 0 0 -2158.8043463121976 691.28130618838622 110.46626656105946 0 110.46626656105946 -9383.0796444659645 0 0 0 -2172.9495845693891 669.72286771714062 122.08431422869398 0 122.08431422869398 -9431.0941252090706 0 0 0 -2190.342814372987 537.1376387164255 130.65424726041238 0 130.65424726041238 -9454.5870932664275 0 0 0 -2229.3623636374996 610.83911548766628 107.49730094183542 0 107.49730094183542 -9425.4102440548158 0 0 0 -2203.6427821417819 527.31836443519569 136.29649618441908 0 136.29649618441908 -9427.3947354421252 0 0 0 -2225.0190927517324 523.52434038484353 133.43980751323761 0 133.43980751323761 -9431.9888794597064 0 0 0 -2227.1161347687157 434.12980322470685 141.95765606747403 0 141.95765606747403 -9440.3358656203491 0 0 0 -2251.5515155989051 402.83948306584807 131.47795455419691 0 131.47795455419691 -9417.788211066756 0 0 0 -2253.737182000229 416.76754530626204 142.83584236146635 0 142.83584236146635 -9445.8329360135103 0 0 0 -2257.2663476768139 404.79080557054294 142.1843745481674 0 142.1843745481674 -9427.6990317300224 0 0 0 -2255.7270565398703 398.38836806459585 127.65514515895484 0 127.65514515895484 -9444.6587631084549 0 0 0 -2261.567598760972 543.81458809590549 141.3564369215419 0 141.3564369215419 -9419.1752525068005 0 0 0 -2218.840166102731 517.42740674661036 137.87699394421361 0 137.87699394421361 -9412.1773780653893 0 0 0 -2223.6874928296966 430.32421168447217 46.903102334079449 0 46.903102334079449 -9655.9403723220748 0 0 0 -2306.4040401594011 265.43219413993938 61.818726433894881 0 61.818726433894881 -9716.0761297783756 0 0 0 -2362.66098390962 226.94784373606672 31.826873157871887 0 31.826873157871887 -9792.3544863548013 0 0 0 -2391.3516606546764 278.42496749590373 -1.0424286908382783 0 -1.0424286908382783 -9713.7609072780178 0 0 0 -2358.8339849455324 106.71489403070882 -8.1118632403959054 0 -8.1118632403959054 -9838.7892400161363 0 0 0 -2433.0185864963569 68.896811641607201 18.410882723147591 0 18.410882723147591 -9906.3250890284544 0 0 0 -2459.3570693467045 49.708655582653591 -2.0796983260224806 0 -2.0796983260224806 -9973.7267072428367 0 0 0 -2481.0045129150531 86.339261407279992 -27.314531821917626 0 -27.314531821917626 -9908.7632288085006 0 0 0 -2455.6059918503306 100.8222706814704 30.140333468146309 0 30.140333468146309 -9848.9253845405183 0 0 0 -2437.025778464762 223.02923250171261 19.329417458706303 0 19.329417458706303 -9806.3691258209874 0 0 0 -2395.8349733298182 58.332712715666275 -6.4483632859191857 0 -6.4483632859191857 -9937.5667234307912 0 0 0 -2469.8085026787739 75.034380818731734 41.446689026150807 0 41.446689026150807 -9899.5771411080204 0 0 0 -2456.1356900723258 202.31138578879472 68.37488867157299 0 68.37488867157299 -9728.0448342043092 0 0 0 -2381.4333621038822 298.50833179861365 60.300260853764485 0 60.300260853764485 -9698.1520318564726 0 0 0 -2349.9109250144465 343.09139243471509 35.407466496384586 0 35.407466496384586 -9671.5847025738476 0 0 0 -2332.1233275347877 485.02077422662842 82.922079499738174 0 82.922079499738174 -9591.3400483526348 0 0 0 -2276.579818531507 402.64965830475558 79.619264007880702 0 79.619264007880702 -9577.839248312288 0 0 0 -2293.7973975018685 385.53007049967709 105.19122247761334 0 105.19122247761334 -9620.7216860454646 0 0 0 -2308.7979038864578 435.37394340951005 107.59966999155586 0 107.59966999155586 -9577.9215676007389 0 0 0 -2285.636906047826 305.04860826230288 109.39466241354967 0 109.39466241354967 -9630.8664359174145 0 0 0 -2331.4544569137724 277.51740873283688 88.861390672071138 0 88.861390672071138 -9632.7008609723925 0 0 0 -2338.7958630598851 119.73466688506596 67.278236820709935 0 67.278236820709935 -9752.2451496876893 0 0 0 -2408.1276207006595 109.66578565917371 10.446564860038052 0 10.446564860038052 -9819.1485149934015 0 0 0 -2427.370682333556 55.252848493291822 25.277938998908212 0 25.277938998908212 -9865.6730428686715 0 0 0 -2452.6050485938467 168.47178310855088 47.846453158061195 0 47.846453158061195 -9718.0251104329072 0 0 0 -2387.3883318310836 208.10265106745283 80.938452133355895 0 80.938452133355895 -9684.6540549843921 0 0 0 -2369.1378509792448 66.849661730710068 33.915859648128389 0 33.915859648128389 -9746.040974896925 0 0 0 -2419.7978282915574 72.09867741144491 35.803095367155038 0 35.803095367155038 -9779.3863788246963 0 0 0 -2426.8219253533075 225.98528469271878 98.032439663511468 0 98.032439663511468 -9620.0777320555026 0 0 0 -2348.5231118407009 204.52846550557297 78.209251389755082 0 78.209251389755082 -9629.7116888693999 0 0 0 -2356.2958058409422 335.98293221917265 85.987169593201543 0 85.987169593201543 -9585.3662610871979 0 0 0 -2312.3458322170118 351.04531211933681 128.16228697291081 0 128.16228697291081 -9560.8537500386628 0 0 0 -2302.4521094798383 371.08754384567146 111.78107551037965 0 111.78107551037965 -9504.1772891338333 0 0 0 -2283.2724363220332 504.40083765340023 133.40366641798755 0 133.40366641798755 -9454.3728154600831 0 0 0 -2237.4929944516662 508.0370624005518 141.69542227892816 0 141.69542227892816 -9412.3395080922055 0 0 0 -2226.0756114229152 640.96625535364728 150.472901574969 0 150.472901574969 -9307.3482103522983 0 0 0 -2166.5954887496555 773.83094046255064 157.45164668327197 0 157.45164668327197 -9279.1080377359831 0 0 0 -2126.3192743183718 664.83098327110747 160.81895624977187 0 160.81895624977187 -9311.1451440785095 0 0 0 -2161.5785402018537 641.53112116870034 143.43436111718984 0 143.43436111718984 -9368.2754214932211 0 0 0 -2181.6860750811175 649.38579453844432 122.56658003329358 0 122.56658003329358 -9368.7789268695051 0 0 0 -2179.8482830827634 773.26401143620024 132.03195013407822 0 132.03195013407822 -9251.5653721300041 0 0 0 -2119.5753401734473 767.13074399963079 161.06029879906419 0 161.06029879906419 -9302.8448756304424 0 0 0 -2133.9285329077102 571.56994809252137 151.43892492406303 0 151.43892492406303 -9415.5287760122883 0 0 0 -2210.9897069799445 590.00059649327886 98.909680783479416 0 98.909680783479416 -9468.0814672496927 0 0 0 -2219.5202176891034 532.39273845386197 125.65014679063097 0 125.65014679063097 -9474.4760743278603 0 0 0 -2235.5208339684978 413.87368084256741 124.22864119876613 0 124.22864119876613 -9512.2788960173348 0 0 0 -2274.6013037936937 517.6177966227624 122.30588022482698 0 122.30588022482698 -9507.9394239760441 0 0 0 -2247.5804068383077 472.84603689369396 63.267978318708629 0 63.267978318708629 -9549.6009789175005 0 0 0 -2269.1887355059444 639.65151464394876 105.55228231230285 0 105.55228231230285 -9471.4484550492489 0 0 0 -2207.949235101325 618.09849445453438 119.38936345758702 0 119.38936345758702 -9401.3340671761252 0 0 0 -2195.8088931803868 799.11451391319861 124.11926656557625 0 124.11926656557625 -9341.5643661062641 0 0 0 -2135.6124630482664 752.12173315141263 130.979287925471 0 130.979287925471 -9279.8233361909806 0 0 0 -2131.9254007598865 781.64904277607275 81.486962535109342 0 81.486962535109342 -9311.0121756893641 0 0 0 -2132.3407832283265 800.4474095796686 99.762364777358016 0 99.762364777358016 -9363.6326561490714 0 0 0 -2140.7963116423416 984.9760813980356 116.69250824279152 0 116.69250824279152 -9231.8982466878806 0 0 0 -2061.7305413224713 897.89974615873507 65.285590303858044 0 65.285590303858044 -9300.4109338753478 0 0 0 -2100.6277969291477 764.5008589636418 19.75534810188401 0 19.75534810188401 -9378.4814891625138 0 0 0 -2153.4951575497253 647.12634044660808 61.638157686931663 0 61.638157686931663 -9447.3508428372879 0 0 0 -2200.0561255976572 597.57492474695755 62.351272740997956 0 62.351272740997956 -9445.2041420873284 0 0 0 -2211.9073043350872 641.44604257233004 42.0175015775676 0 42.0175015775676 -9510.5559632083168 0 0 0 -2217.2774801589912 428.2875690672081 30.561769761592586 0 30.561769761592586 -9578.9939546492242 0 0 0 -2287.676596395504 1385.6767365066808 21.202099364512833 0 21.202099364512833 -8965.7138259848289 0 0 0 -1895.0092723695379 1618.7939228311552 36.499134175785002 0 36.499134175785002 -8897.7648613529309 0 0 0 -1819.7427346304357 1330.6818329539674 100.5399474069236 0 100.5399474069236 -8958.1358140642114 0 0 0 -1906.863495277561 1480.8552019919789 45.237846360192634 0 45.237846360192634 -8895.3443423687604 0 0 0 -1853.6222850942086 1372.7714469306302 57.809765979618533 0 57.809765979618533 -9025.14661525884 0 0 0 -1913.0937920820579 1133.5608088868466 64.326750440685899 0 64.326750440685899 -9162.1730629561935 0 0 0 -2007.1530635173403 952.04363234357152 23.880537980789086 0 23.880537980789086 -9236.3021966979577 0 0 0 -2071.0646410885893 1182.4740317020114 18.851663361536339 0 18.851663361536339 -9093.9622961308633 0 0 0 -1977.8720661072075 1157.310428018427 123.31036617308928 0 123.31036617308928 -9085.2949554172228 0 0 0 -1981.996131849708 1010.3435287892789 151.44008939007472 0 151.44008939007472 -9178.7076508365863 0 0 0 -2042.0910305118232 994.88348700212009 81.672690063111077 0 81.672690063111077 -9153.2454037254938 0 0 0 -2039.5904791808534 915.96881848186422 118.50967107535689 0 118.50967107535689 -9223.3195179904069 0 0 0 -2076.8376748771279 1190.030389951251 126.06978379944849 0 126.06978379944849 -8966.3477266392438 0 0 0 -1944.0793341720128 1247.5786017694882 66.661538877131534 0 66.661538877131534 -9015.7906812329747 0 0 0 -1942.0530198658707 1355.8940676420611 74.629209063903545 0 74.629209063903545 -8915.1481105366984 0 0 0 -1889.813510723659 1198.4691123988669 89.989917384271394 0 89.989917384271394 -8928.1260548599093 0 0 0 -1932.4142356152661 1187.4713130788878 129.75575786005356 0 129.75575786005356 -8978.8296380969987 0 0 0 -1947.8395812545277 1058.8844918714094 114.2612865412957 0 114.2612865412957 -8995.7660891895939 0 0 0 -1984.2203993295625 1187.8570616205689 134.01614927764967 0 134.01614927764967 -9022.8273053995217 0 0 0 -1958.7425609447455 1043.7289448014599 116.27689193328843 0 116.27689193328843 -9065.0101641739893 0 0 0 -2005.3203048431242 998.14932043745648 157.05842131244572 0 157.05842131244572 -9111.8327983599447 0 0 0 -2028.4208694806293 890.45571425414528 128.17103915492771 0 128.17103915492771 -9159.4749398136337 0 0 0 -2067.2548063898575 891.45193694955378 157.72673933945407 0 157.72673933945407 -9203.1812864485837 0 0 0 -2077.9323373747757 916.08301645054598 130.33975357037707 0 130.33975357037707 -9125.4140334028925 0 0 0 -2052.3327542380721 1044.6692089974385 149.88872461872597 0 149.88872461872597 -9082.5490939045267 0 0 0 -2009.4699712267757 907.29451858739776 155.12631201509248 0 155.12631201509248 -9164.7298487204826 0 0 0 -2064.3588325332676 944.88365390875697 118.240944870362 0 118.240944870362 -9073.6300907119148 0 0 0 -2032.1866092007913 796.78426377940923 133.50151570938033 0 133.50151570938033 -9206.7082863876713 0 0 0 -2102.4810056520801 848.84210791716032 114.16135160205158 0 114.16135160205158 -9154.9266032412561 0 0 0 -2076.5211238310221 790.75186951585056 153.16786420836115 0 153.16786420836115 -9229.8953449976689 0 0 0 -2109.7858688704437 926.63656130853633 128.6791529062524 0 128.6791529062524 -9128.9599987107504 0 0 0 -2050.5808593505644 978.31933648873382 88.771353694079153 0 88.771353694079153 -9029.4650869452307 0 0 0 -2012.7864376141297 1042.2139158330174 135.25002694420982 0 135.25002694420982 -9049.6252949884074 0 0 0 -2001.852844788853 1086.559993326533 92.800904464769701 0 92.800904464769701 -8957.7653309626185 0 0 0 -1967.8013344090141 1067.1304624511977 99.224329906387538 0 99.224329906387538 -9012.1824636561505 0 0 0 -1986.2630003012309 1169.6501190604104 48.245422587275243 0 48.245422587275243 -8906.4690456660755 0 0 0 -1934.2047316514218 1100.6732987007963 53.67057129204477 0 53.67057129204477 -8915.9114371213218 0 0 0 -1953.8095346051196 1257.2752886249436 62.016444425320515 0 62.016444425320515 -8862.4350396892987 0 0 0 -1901.2899377660942 1173.684212446984 126.33048053242965 0 126.33048053242965 -8916.4063818077557 0 0 0 -1935.6805423401893 1215.2656682505622 88.26089428022533 0 88.26089428022533 -8877.8524841424078 0 0 0 -1915.6467039729614 1288.2470309364362 42.25877771172236 0 42.25877771172236 -8896.2941633997543 0 0 0 -1902.011783115835 1383.2605712942204 -90.506544288655277 0 -90.506544288655277 -8791.3940127594069 0 0 0 -1852.0333603662984 1431.2072680548154 -66.478968828653706 0 -66.478968828653706 -8764.4858284585644 0 0 0 -1833.3196401009336 1457.4922040692181 -47.763179222063627 0 -47.763179222063627 -8665.2479901004117 0 0 0 -1801.9389465077838 1375.9777996047342 43.523319474861637 0 43.523319474861637 -8771.0112633546232 0 0 0 -1848.758365937465 1329.5210953264416 15.712168267025845 0 15.712168267025845 -8843.4198895470927 0 0 0 -1878.4746985551662 1516.3816487813201 -36.972819912218256 0 -36.972819912218256 -8760.6986922129508 0 0 0 -1811.0792608579104 1567.5217402799171 -23.09477280905412 0 -23.09477280905412 -8596.5752802790084 0 0 0 -1757.2633849997728 1561.7664169616073 3.6421310490040923 0 3.6421310490040923 -8765.0931446606774 0 0 0 -1800.8316819247666 1417.3507105368481 41.890797468581241 0 41.890797468581241 -8739.7196919521666 0 0 0 -1830.5922453538224 1433.3952176500193 58.125180313523742 0 58.125180313523742 -8845.7944697061394 0 0 0 -1853.099813014041 1372.6138788452154 79.502355349752179 0 79.502355349752179 -8865.2014226251049 0 0 0 -1873.1468859449742 1303.3337570995864 122.12675286977901 0 122.12675286977901 -8896.1011719749076 0 0 0 -1898.1918537188249 1385.3773853673483 91.611380399168411 0 91.611380399168411 -8861.1711367419339 0 0 0 -1868.9484378436318 1529.7157720955583 41.214418350005872 0 41.214418350005872 -8816.7035839399905 0 0 0 -1821.7469529610971 1464.4550658675435 72.543430572783109 0 72.543430572783109 -8768.2405596202298 0 0 0 -1825.9463734381716 1619.8106072310602 12.324628657632275 0 12.324628657632275 -8730.8173598741741 0 0 0 -1777.7516881607899 1608.5608851048892 -13.289311773500231 0 -13.289311773500231 -8619.9191861987056 0 0 0 -1752.8395752734577 1800.2519919506667 -33.071149256669742 0 -33.071149256669742 -8605.8971240653391 0 0 0 -1701.4112830286685 1732.1207668548814 9.5465199808022589 0 9.5465199808022589 -8601.4900222622091 0 0 0 -1717.3423138518338 1647.7005167894386 16.539466396516218 0 16.539466396516218 -8647.402437126555 0 0 0 -1749.9254800842755 1730.6702898473013 12.16762236028444 0 12.16762236028444 -8710.4250871777767 0 0 0 -1744.9386993326116 1833.8369438912778 -8.88542266505101 0 -8.88542266505101 -8550.6103422057931 0 0 0 -1679.1933495786288 1961.2393588838459 20.220192361521185 0 20.220192361521185 -8620.8970975729753 0 0 0 -1664.9144346722751 1737.2163402379956 2.6716072357667144 0 2.6716072357667144 -8670.1156213013019 0 0 0 -1733.2248202658302 1817.3930008339303 48.05225617576798 0 48.05225617576798 -8736.2316908663051 0 0 0 -1729.7096725080919 1661.0519422368161 5.2187675568202394 0 5.2187675568202394 -8782.7674457029498 0 0 0 -1780.428875866528 1562.5091923195396 60.041093321968219 0 60.041093321968219 -8746.4510783227015 0 0 0 -1795.9854715007859 1502.6443017535566 58.124267183120537 0 58.124267183120537 -8843.9832731703063 0 0 0 -1835.3347428541892 1061.6954298202545 32.893978191103088 0 32.893978191103088 -9251.7133300248242 0 0 0 -2047.504475051137 1057.9788535987682 12.725222441615188 0 12.725222441615188 -9194.6747064260999 0 0 0 -2034.1739632068275 1212.610851388057 -26.804903819778701 0 -26.804903819778701 -9140.5420365208302 0 0 0 -1981.982796283188 1094.2573015852031 15.529896844629548 0 15.529896844629548 -9214.2163384695596 0 0 0 -2029.9897592210982 1077.7981488353362 36.500198293895664 0 36.500198293895664 -9235.9393036875263 0 0 0 -2039.5352887130539 1100.1487106197164 33.445473451372891 0 33.445473451372891 -9261.4433567747765 0 0 0 -2040.323661538765 1070.125503282743 50.61539463292138 0 50.61539463292138 -9289.4227001041145 0 0 0 -2054.8242992053456 950.78124429759441 71.703018176995101 0 71.703018176995101 -9309.7863801448184 0 0 0 -2089.7512839617966 917.26912059805909 57.202651837777012 0 57.202651837777012 -9333.1421802069381 0 0 0 -2103.9682649022143 879.39606463522432 84.597636134880304 0 84.597636134880304 -9373.0605269760636 0 0 0 -2123.4161155852162 753.03528345766972 85.675558005148559 0 85.675558005148559 -9385.432066311434 0 0 0 -2158.0991957134393 811.08442365545125 95.972455678231199 0 95.972455678231199 -9381.1266437582381 0 0 0 -2142.5105550256958 846.6348282109102 74.762277934682061 0 74.762277934682061 -9324.3694759819191 0 0 0 -2119.4336619427559 987.36898993157592 40.555704690501443 0 40.555704690501443 -9254.0551978111616 0 0 0 -2066.6715519698919 876.33035635545093 79.87780023473897 0 79.87780023473897 -9321.3878651392588 0 0 0 -2111.2643771959592 909.45405184687115 59.658618458626734 0 59.658618458626734 -9256.5757348616025 0 0 0 -2086.7804207536828 800.8982129250362 103.44959094419755 0 103.44959094419755 -9314.0294866072218 0 0 0 -2128.2828184205428 778.04628311934357 101.76189670307576 0 101.76189670307576 -9240.233283168549 0 0 0 -2115.5467500122977 940.79997028000071 53.441709435719531 0 53.441709435719531 -9147.2682212622021 0 0 0 -2051.6170627455431 858.91941997978574 94.121302711762837 0 94.121302711762837 -9224.8517431958826 0 0 0 -2091.4830808040206 907.88479619746067 64.915909114577516 0 64.915909114577516 -9238.9812217440922 0 0 0 -2082.7741063866488 831.94372340021619 121.12400712833914 0 121.12400712833914 -9209.1613181343564 0 0 0 -2094.3043986835419 888.636569555405 86.725328738481039 0 86.725328738481039 -9130.7416335374583 0 0 0 -2060.5262659955115 946.67005631565553 83.203140886973415 0 83.203140886973415 -9122.4794330425211 0 0 0 -2043.9523441817146 1022.37271520379 39.924781921043177 0 39.924781921043177 -9019.7960115153401 0 0 0 -1999.3558240778875 1055.9618201948997 15.552842685348878 0 15.552842685348878 -9027.9669675056721 0 0 0 -1993.0012868276881 1053.1472084960515 15.331970736631774 0 15.331970736631774 -9172.2446941563576 0 0 0 -2029.7743714150674 984.79369667074934 38.08266383368391 0 38.08266383368391 -9143.262814518821 0 0 0 -2039.6172794620215 1042.2864267940968 9.4258141686950694 0 9.4258141686950694 -9106.0666881372163 0 0 0 -2015.9450653357781 1169.5336876461879 -55.842352544714231 0 -55.842352544714231 -9040.4877500564908 0 0 0 -1967.7385156025703 1174.9328444529674 -64.495978816899878 0 -64.495978816899878 -9122.3852712193911 0 0 0 -1986.8631066916059 1112.616598535591 -69.28330133894633 0 -69.28330133894633 -9039.8279092378943 0 0 0 -1981.8028276755867 1315.5795682690514 -135.12286959310586 0 -135.12286959310586 -9008.3642806107237 0 0 0 -1923.1961780854181 1366.4608153710824 -78.109461704021669 0 -78.109461704021669 -9069.9816185583022 0 0 0 -1925.8802007968088 1346.4528254397737 -67.111574594628109 0 -67.111574594628109 -9065.1582567484875 0 0 0 -1929.6763578271712 1156.3332300102884 -41.663763406751968 0 -41.663763406751968 -8907.2453492247441 0 0 0 -1937.7280298036058 1162.6082293900508 -43.162949357036268 0 -43.162949357036268 -8911.9780964684905 0 0 0 -1937.3424667696127 1164.5878645438788 22.224833496613428 0 22.224833496613428 -8849.201989407753 0 0 0 -1921.1535312159685 1169.7798298117086 -86.027152156602824 0 -86.027152156602824 -8852.5130215459649 0 0 0 -1920.6832979335559 1306.5926669030305 -85.378589409338019 0 -85.378589409338019 -9076.9461300941766 0 0 0 -1942.5883657977829 1197.2141851787092 -363.15601952224461 0 -363.15601952224461 -9068.6260169030429 0 0 0 -1967.852957931078 1510.2465757343525 -137.04985631122872 0 -137.04985631122872 -9111.024904696591 0 0 0 -1900.1945822405542 1606.8162277139854 -83.585358213596919 0 -83.585358213596919 -8990.0631371781346 0 0 0 -1845.8117273660391 1584.2350505917839 -173.30635636703664 0 -173.30635636703664 -8934.8471107259611 0 0 0 -1837.6530150335475 1809.7286701296052 40.075054656408611 0 40.075054656408611 -9116.9222314037106 0 0 0 -1826.7983903185286 1817.7170267501933 136.37744083413418 0 136.37744083413418 -8531.7497998132894 0 0 0 -1678.5081932657631 1643.3316550369982 45.327090662962291 0 45.327090662962291 -8940.680403285156 0 0 0 -1824.3371870620413 1551.4578262348568 19.523625490961422 0 19.523625490961422 -8963.5110510691993 0 0 0 -1853.0133062085824 1422.7062377574839 -15.32004843991308 0 -15.32004843991308 -9085.1745570127532 0 0 0 -1915.6170798138191 1433.123563704452 -27.295022332153167 0 -27.295022332153167 -9040.0425077963446 0 0 0 -1901.7297360229713 1456.1091957518365 30.554954112707492 0 30.554954112707492 -9062.0155343297229 0 0 0 -1901.4765846444716 1259.8137907199562 2.1119842567786691 0 2.1119842567786691 -9128.242300587488 0 0 0 -1967.1071274668793 1246.4781148285474 13.153079605697712 0 13.153079605697712 -9188.4067374177976 0 0 0 -1985.4821556473107 1225.5404294889959 -33.764478522472928 0 -33.764478522472928 -9149.0225577421661 0 0 0 -1980.8705320632871 1259.3217889429861 21.293330670239811 0 21.293330670239811 -9191.7490697743597 0 0 0 -1983.1068202078432 1216.4640837760307 35.216602686421538 0 35.216602686421538 -9092.5342059492395 0 0 0 -1969.0175305432931 1525.8199821359494 28.873964495167456 0 28.873964495167456 -8882.447699827324 0 0 0 -1839.156929422842 1333.1690170207003 16.672487615259342 0 16.672487615259342 -8894.6083558241662 0 0 0 -1890.3598347008665 1372.140708687979 19.675011038954835 0 19.675011038954835 -9052.3388910518297 0 0 0 -1920.0495455909604 1414.3981639290832 29.988964683299855 0 29.988964683299855 -8913.030726616329 0 0 0 -1874.6581406718105 1415.2434474980291 8.1504645291206543 0 8.1504645291206543 -8884.2833084649392 0 0 0 -1867.2599652417302 1532.8998778675596 68.439880487992923 0 68.439880487992923 -8614.7522041025659 0 0 0 -1770.4630815587516 1592.9591784344741 10.232142549379205 0 10.232142549379205 -8597.8543027237538 0 0 0 -1751.2237810723234 1680.691031699891 31.331980490451315 0 31.331980490451315 -8341.84760437964 0 0 0 -1665.2891431699391 1540.6320518662469 4.4522716176470567 0 4.4522716176470567 -8454.0730276827817 0 0 0 -1728.3602439541355 1694.2487667630562 -30.378746051770577 0 -30.378746051770577 -8407.1049546193608 0 0 0 -1678.2140469640794 1720.6095390144692 -72.909473263363793 0 -72.909473263363793 -8330.135025772237 0 0 0 -1652.3813716894365 1597.6903457642074 -14.550097344807 0 -14.550097344807 -8352.4275280114234 0 0 0 -1688.6842955618085 2125.9140559636071 -113.21915602446006 0 -113.21915602446006 -8150.3478561045195 0 0 0 -1506.1084500352372 1945.5941303063482 -130.24912845435756 0 -130.24912845435756 -8056.6763539336389 0 0 0 -1527.7705559068199 1820.5880834716772 -27.378643303058197 0 -27.378643303058197 -8258.668304180741 0 0 0 -1609.5200551772687 1921.1323609416904 15.77444907217432 0 15.77444907217432 -8289.2098939464195 0 0 0 -1592.0193832511759 1649.9470632734156 86.070779117781058 0 86.070779117781058 -8561.0203090520808 0 0 0 -1727.76831144467 1804.45639505492 43.53213075581516 0 43.53213075581516 -8253.8209606035671 0 0 0 -1612.3411413871654 1718.9161136561088 46.188725249550771 0 46.188725249550771 -8581.7096285607549 0 0 0 -1715.6983787261561 1819.1935542811589 103.77807542587834 0 103.77807542587834 -8555.8542399865837 0 0 0 -1684.1651714263608 2172.7304590149433 276.83899243370979 0 276.83899243370979 -8518.3998251464509 0 0 0 -1586.4173415328769 1931.8834179597252 69.974421663027897 0 69.974421663027897 -8184.2184975225682 0 0 0 -1563.0837698907126 2044.571733663448 -116.35795189646888 0 -116.35795189646888 -9391.6722108814283 0 0 0 -1836.7751193045042 2367.1777633169331 -59.962716819420166 0 -59.962716819420166 -6914.7163970488618 0 0 0 -1136.8846584329731 1946.1447019770821 63.946718309438438 0 63.946718309438438 -8197.2705161556369 0 0 0 -1562.7814535446378 1167.6751734983409 -536.49073791204137 0 -536.49073791204137 -8909.6877308766998 0 0 0 -1935.5031393445752 2874.2774042285528 446.01208233345824 0 446.01208233345824 -8216.0020504449349 0 0 0 -1335.4311615540864 8.4501813809306157 -0.71390852581641706 0 -0.71390852581641706 -3.3313344135735292 0 0 0 1.2797117418392787 1029.232187504349 -682.2305671578813 0 -682.2305671578813 -7603.5036240680492 0 0 0 -1643.5678591409232 1352.6533633561121 77.324435770984564 0 77.324435770984564 -8311.3529568542144 0 0 0 -1739.6748983745201 -6.20035888401965 -2.6727222488764544 0 -2.6727222488764544 -12.72811991086661 0 0 0 -4.7321196987215615 2864.5142956878481 -419.87447554442042 0 -419.87447554442042 -7875.0403081832628 0 0 0 -1252.6315031238555 1588.4611842881313 291.02422001681407 0 291.02422001681407 -7638.1940009850896 0 0 0 -1512.4332041742418 -2.7374455438074961 -3.5883445403218581 0 -3.5883445403218581 -11.573815565581071 0 0 0 -3.5778152773471419 2561.5778429303464 112.01068690312241 0 112.01068690312241 -8045.3297805346228 0 0 0 -1370.9379844010691 1607.0730816168434 -117.46678925865126 0 -117.46678925865126 -8259.2057925016416 0 0 0 -1663.033177721205 2064.3315984306355 -99.580310341792938 0 -99.580310341792938 -7864.0600866737514 0 0 0 -1449.9321220607817 2362.7348302217288 -96.352379988093162 0 -96.352379988093162 -8521.2887382148911 0 0 0 -1539.6384769983051 2535.5140620862585 -146.26864011729049 0 -146.26864011729049 -8021.0865753264225 0 0 0 -1371.3931283100464 2144.5633528471662 -96.462640109770291 0 -96.462640109770291 -8081.1212646485947 0 0 0 -1484.139477950368 2195.3590292588779 -108.14478543837322 0 -108.14478543837322 -8088.8272607589752 0 0 0 -1473.3670578750243 2385.4769153820089 -28.1962450995361 0 -28.1962450995361 -7589.1068085204752 0 0 0 -1300.9074732846202 2438.8055909092182 -257.14291343250807 0 -257.14291343250807 -8037.3391891083011 0 0 0 -1399.6333995497807 2162.8488049397492 -96.297975999572373 0 -96.297975999572373 -8084.1097062352637 0 0 0 -1480.3152253238877 1487.622385856921 -50.625826081612104 0 -50.625826081612104 -8068.8419079492451 0 0 0 -1645.3048805230792 1642.9393919709109 -17.968042243315722 0 -17.968042243315722 -7614.8307439179189 0 0 0 -1492.9728379867447 1643.9307892987927 -221.17834442572348 0 -221.17834442572348 -7921.9142428274499 0 0 0 -1569.4958633821589 -3.6686325536186501 -4.4753464116015556 0 -4.4753464116015556 -11.884211314272306 0 0 0 -3.8882109669727498 1677.8294359939573 202.47698734406731 0 202.47698734406731 -7887.4065732304371 0 0 0 -1552.3942843091172 1667.5032126319129 121.2698286809682 0 121.2698286809682 -8275.4297921439866 0 0 0 -1651.9816448780184 1813.8195168332677 -89.981106124861981 0 -89.981106124861981 -8317.8244973640394 0 0 0 -1626.0012451326911 1741.9899983811192 -265.54112842471221 0 -265.54112842471221 -7984.7077307803847 0 0 0 -1560.6794330998164 2382.0843807515339 135.5773808311167 0 135.5773808311167 -7989.4922680289892 0 0 0 -1401.8519718193565 -3.4102885647461534 -5.1530590764654143 0 -5.1530590764654143 -11.798096715941256 0 0 0 -3.8020963201718416 1793.972627660427 -87.790641365383635 0 -87.790641365383635 -7654.2184812500054 0 0 0 -1465.0614633973964 2430.3126877060204 -42.716355851669505 0 -42.716355851669505 -8004.4131885209645 0 0 0 -1393.5251252037415 2205.8579427533914 -149.2697409505563 0 -149.2697409505563 -8069.8924519274733 0 0 0 -1466.0086272935223 2295.4107482402396 -35.451615386511548 0 -35.451615386511548 -8447.993817804876 0 0 0 -1538.1457673911536 2200.6650494207843 -78.851001643401105 0 -78.851001643401105 -8033.8003678689929 0 0 0 -1458.2838296120553 2124.1749057998495 -74.800445723994926 0 -74.800445723994926 -8025.6342464594927 0 0 0 -1475.3648351649099 2164.3140893691743 -149.21429710928624 0 -149.21429710928624 -8062.8753325200669 0 0 0 -1474.6403107877195 2083.9849023208772 -141.80911944754189 0 -141.80911944754189 -8065.0233637822676 0 0 0 -1495.259615365354 2136.5890282935411 -91.777547225363378 0 -91.777547225363378 -8059.8519551332938 0 0 0 -1480.815731709949 2010.2701521950439 -131.13708056171163 0 -131.13708056171163 -8153.366331256897 0 0 0 -1535.7740447654724 2022.6532330794435 -143.70082592689141 0 -143.70082592689141 -8129.1162710410426 0 0 0 -1526.6157594903925 1984.1968311878218 -162.20241935048034 0 -162.20241935048034 -8116.7604583655693 0 0 0 -1533.1409067944342 1916.9372607672049 -108.09948793306103 0 -108.09948793306103 -8174.4071928960329 0 0 0 -1564.3674830322052 1866.9169951019503 -101.42074711673376 0 -101.42074711673376 -8230.979831330158 0 0 0 -1591.0157090570428 1883.6977129967427 -104.3900688854701 0 -104.3900688854701 -8157.5772519249667 0 0 0 -1568.4698847320569 1810.6795961363605 -76.473813944223366 0 -76.473813944223366 -8210.3839815601677 0 0 0 -1599.9260963559573 1729.2739022797396 -79.888502361689461 0 -79.888502361689461 -8239.5607874191046 0 0 0 -1627.5717212848394 1794.8941577674632 -59.544762883793737 0 -59.544762883793737 -8281.3025996526703 0 0 0 -1621.6021104712927 1690.755210853195 -83.064100703399163 0 -83.064100703399163 -8306.2601055035666 0 0 0 -1653.876223662593 1935.5859597915978 -144.03794756501884 0 -144.03794756501884 -8164.0851527705199 0 0 0 -1557.1247982447358 2093.0584213582206 -142.14774528345879 0 -142.14774528345879 -8137.5131827960577 0 0 0 -1511.1136903594652 2022.4062558028963 -85.363127788787097 0 -85.363127788787097 -8137.1251098077337 0 0 0 -1528.6797135012166 2013.7743331174206 -30.925151309624198 0 -30.925151309624198 -8326.7231318090053 0 0 0 -1578.237199672898 2141.3656882811738 -21.860735787486192 0 -21.860735787486192 -8295.6737252182211 0 0 0 -1538.5770092342609 1971.5084886792174 -74.20794455061332 0 -74.20794455061332 -8380.7028415608511 0 0 0 -1602.2985882204084 2139.9742340463781 -14.874075172570883 0 -14.874075172570883 -8388.0428665487852 0 0 0 -1562.0171581256145 2032.3926409843334 -5.2235744674981106 0 -5.2235744674981106 -8504.5396388962981 0 0 0 -1618.0367494780003 1906.4128051522421 -22.128907108472049 0 -22.128907108472049 -8390.4887021767499 0 0 0 -1621.0189742561342 1934.6024015628864 -53.763712639331061 0 -53.763712639331061 -8446.3169507004786 0 0 0 -1627.9286372843926 1853.6895036800925 -61.1702964444994 0 -61.1702964444994 -8459.0669490549772 0 0 0 -1651.3443613437266 1725.9140324092186 -93.123844032292254 0 -93.123844032292254 -8515.4062282278028 0 0 0 -1697.3730489546397 1770.4000527474273 -86.465519211475112 0 -86.465519211475112 -8433.3817534940608 0 0 0 -1665.7454251866584 1800.8349604665709 -70.375022189087758 0 -70.375022189087758 -8361.8018112612772 0 0 0 -1640.2417126986838 1855.4977580381001 -105.78298262169119 0 -105.78298262169119 -8360.5325234719639 0 0 0 -1626.2586913584619 1923.07537331817 -60.192364228038059 0 -60.192364228038059 -8297.0977492120292 0 0 0 -1593.5055939734666 1827.6916211052594 -82.280141420895234 0 -82.280141420895234 -8279.6440515511204 0 0 0 -1612.9881076114689 1724.2201331228753 -140.63691462811403 0 -140.63691462811403 -8253.7606393873648 0 0 0 -1632.3851265661178 1732.5096113101172 -94.907852378178177 0 -94.907852378178177 -8278.2512635996973 0 0 0 -1636.435413072395 1595.1858710684173 -149.81342159981432 0 -149.81342159981432 -8353.0978678839892 0 0 0 -1689.4779992039039 1723.2467874870927 -125.05900393243064 0 -125.05900393243064 -8339.0300700043736 0 0 0 -1653.9458206293057 1722.0907364480154 -63.259029712884512 0 -63.259029712884512 -8430.013167297031 0 0 0 -1676.9806077122485 1618.7859745184905 -123.44123439199757 0 -123.44123439199757 -8601.4929614726861 0 0 0 -1745.676746738558 1649.3252866641851 -119.72583863349428 0 -119.72583863349428 -8352.6422285437875 0 0 0 -1675.8292354699151 1533.7125877171638 -206.876252946553 0 -206.876252946553 -8651.8396884225367 0 0 0 -1779.5317751763359 1498.9134780482709 -225.85865265681787 0 -225.85865265681787 -8768.3126292039524 0 0 0 -1817.3497877889313 1487.0478824733209 -364.15046138445177 0 -364.15046138445177 -8182.033006783462 0 0 0 -1673.7462810775332 1561.6421310594769 -75.558793158961635 0 -75.558793158961635 -8066.3463148027004 0 0 0 -1626.1760459358165 1573.470150162153 -81.439996682358469 0 -81.439996682358469 -8224.1399046528095 0 0 0 -1662.6674386226659 1614.300825752498 -133.48803106250125 0 -133.48803106250125 -8192.5089556175808 0 0 0 -1644.5520324662739 1629.6300367660442 -86.419737396514392 0 -86.419737396514392 -8002.5113785751746 0 0 0 -1593.2203354522644 1698.1721613635818 -93.45972353596153 0 -93.45972353596153 -8131.1132392175205 0 0 0 -1608.2352694634756 1764.9367852978321 -88.745784722712415 0 -88.745784722712415 -8109.5900842866686 0 0 0 -1586.1633247472055 1679.1055340983075 -55.383002964044863 0 -55.383002964044863 -8110.7992796796025 0 0 0 -1607.9234363953219 1803.9246772879378 22.40289132540056 0 22.40289132540056 -7928.850376459377 0 0 0 -1531.2314247928625 1854.2029693904915 -105.6499521020196 0 -105.6499521020196 -8007.5034151765867 0 0 0 -1538.3251114465238 1761.6798578039241 -119.50068970880238 0 -119.50068970880238 -8038.3529122115488 0 0 0 -1569.1682636018952 1830.9067177700854 -74.832418044963561 0 -74.832418044963561 -8082.6349528114588 0 0 0 -1562.9320587603361 1813.4546984538101 -115.95984243534895 0 -115.95984243534895 -8110.2075678496331 0 0 0 -1574.1882173489576 1888.4256104890155 -94.777550411308766 0 -94.777550411308766 -8080.3732175470141 0 0 0 -1547.986901764496 1929.4333580270231 -108.05955866178556 0 -108.05955866178556 -8064.6447535107709 0 0 0 -1533.8028488709406 1890.5970206489728 -114.46491448874804 0 -114.46491448874804 -8114.7494881993043 0 0 0 -1556.0381168875901 1932.4960394418995 -103.23933501198917 0 -103.23933501198917 -8157.3502248010627 0 0 0 -1556.2135463397899 1836.2183110863771 -115.63755012659749 0 -115.63755012659749 -8173.2547850395786 0 0 0 -1584.2591184882986 1795.5808311532692 -83.734524134124513 0 -83.734524134124513 -8128.5376499649792 0 0 0 -1583.2392047029261 1828.4087780658592 -94.256755239519407 0 -94.256755239519407 -8190.6595699963509 0 0 0 -1590.5626979826193 1852.1939933231424 -119.23242467539239 0 -119.23242467539239 -8260.1132453663013 0 0 0 -1601.9798130108011 1914.1821336600624 -79.502010103133216 0 -79.502010103133216 -8214.8815023615025 0 0 0 -1575.1748421753655 1942.4341366020235 -99.558148014111794 0 -99.558148014111794 -8286.8451962565377 0 0 0 -1586.1027649136377 1979.6673188491404 -76.41187875649166 0 -76.41187875649166 -8193.1114708689274 0 0 0 -1553.3610380049358 1974.7932900406959 -90.669486502127256 0 -90.669486502127256 -8203.697751243184 0 0 0 -1557.2261153006257 1935.3711630650068 -110.46372626077209 0 -110.46372626077209 -8162.5593954385258 0 0 0 -1556.7970580934052 1981.4915555624793 -112.77926988339459 0 -112.77926988339459 -8084.7149817220234 0 0 0 -1525.8058565398787 2013.0464456700392 -90.921896219108021 0 -90.921896219108021 -8127.6567548950006 0 0 0 -1528.6525773062422 2008.7157566950336 -77.827518750913441 0 -77.827518750913441 -8129.1003178866522 0 0 0 -1530.096140297901 2041.8421693782293 -81.783678235609841 0 -81.783678235609841 -8179.7705700948427 0 0 0 -1534.482100179157 2133.8728222964055 -27.018045327000436 0 -27.018045327000436 -8141.0314969863975 0 0 0 -1501.7896686724926 2061.2520547228123 -46.392827091374784 0 -46.392827091374784 -8119.714115222363 0 0 0 -1514.6155151248895 2063.899242511623 -45.692710003742832 0 -45.692710003742832 -8174.5736345430341 0 0 0 -1527.6685980078546 2160.2579631768713 -18.382019231867162 0 -18.382019231867162 -8203.0277424841188 0 0 0 -1510.6924448268146 2041.0130665494944 -59.119663061894244 0 -59.119663061894244 -8239.2986647149373 0 0 0 -1549.5713995413535 2036.6793665081786 -47.813646158590927 0 -47.813646158590927 -8241.707328325836 0 0 0 -1551.2569904544216 2037.4201464741154 -38.446928117031348 0 -38.446928117031348 -8025.5907508532682 0 0 0 -1497.0426510947846 2078.9757236834921 -38.690681241343555 0 -38.690681241343555 -8011.7822979838238 0 0 0 -1483.2016435750847 2029.7559117869387 -62.711246394741465 0 -62.711246394741465 -8046.395109228135 0 0 0 -1504.1597993603064 2082.2765281295942 -27.998137407441391 0 -27.998137407441391 -8053.6693692424451 0 0 0 -1492.8482102782073 2068.629967133671 -35.367816368452623 0 -35.367816368452623 -8064.5209467917448 0 0 0 -1498.9727449145248 2119.0040728519234 -29.255561948020642 0 -29.255561948020642 -8089.5600710944564 0 0 0 -1492.6389995606296 2077.8424457269284 -62.525140548696072 0 -62.525140548696072 -8093.8266772819916 0 0 0 -1503.9960578887694 2078.1051897428697 -56.156222598183376 0 -56.156222598183376 -8050.9960347660235 0 0 0 -1493.2227112557885 2036.5380326636368 -88.591038303088681 0 -88.591038303088681 -8066.4612846576492 0 0 0 -1507.4808129985031 2027.023523609445 -77.287460415522219 0 -77.287460415522219 -8088.3988149364013 0 0 0 -1515.3438228317391 1988.7240223795598 -93.43582474104187 0 -93.43582474104187 -8082.018023631128 0 0 0 -1523.3235003129012 2002.8742142896153 -94.408703154535033 0 -94.408703154535033 -8044.5173257519491 0 0 0 -1510.4107778655816 2025.6250514952408 -84.18066440201801 0 -84.18066440201801 -7996.5091647759255 0 0 0 -1492.7210283201639 2045.3496892004478 -79.419416614044167 0 -79.419416614044167 -8020.0872810060464 0 0 0 -1493.6843979514088 2035.2427098698754 -71.727225288806949 0 -71.727225288806949 -7990.5510423434243 0 0 0 -1488.8270831183836 2004.8871173959706 -91.060339482202835 0 -91.060339482202835 -7967.0415516569046 0 0 0 -1490.5386085652353 2026.3045249324532 -83.838874957989901 0 -83.838874957989901 -7905.2180237078283 0 0 0 -1469.7283746938519 1988.4292896708284 -114.1914135072584 0 -114.1914135072584 -7951.8402857895271 0 0 0 -1490.8527490296765 2030.9269048778224 -91.812944313862317 0 -91.812944313862317 -7976.0287046885642 0 0 0 -1486.2754499526927 2006.2449139932869 -106.00529971717026 0 -106.00529971717026 -8033.5446558540862 0 0 0 -1506.8249354651998 1983.7550987726936 -109.16115400964918 0 -109.16115400964918 -8004.2420763150367 0 0 0 -1505.1217443855785 1935.646819131427 -102.41266638477828 0 -102.41266638477828 -8057.0546464631334 0 0 0 -1530.3519568329284 1963.4684054101672 -99.439840977916901 0 -99.439840977916901 -7991.7298607894918 0 0 0 -1507.0653638448348 1981.1911290024727 -95.207531627407661 0 -95.207531627407661 -7999.3517820198904 0 0 0 -1504.5401632543362 1929.3134969354433 -82.468471575506555 0 -82.468471575506555 -7987.4976406314818 0 0 0 -1514.5460359240169 1896.8904304455282 -75.376845561875825 0 -75.376845561875825 -7972.5803144436504 0 0 0 -1518.9224709995324 1883.8294465869403 -111.56976684473193 0 -111.56976684473193 -8019.4951649353316 0 0 0 -1533.9164295870869 1954.0957514488036 -69.370656681698165 0 -69.370656681698165 -7963.0103916538355 0 0 0 -1502.2286600512525 1822.0828432375711 17.858160392432183 0 17.858160392432183 -8082.3772057091992 0 0 0 -1565.0735906179034 1988.2599011488055 -116.25959243482794 0 -116.25959243482794 -7870.182942037849 0 0 0 -1470.4807602222645 1964.6035350417369 -110.42300078052358 0 -110.42300078052358 -7975.6868888393219 0 0 0 -1502.770838449389 1986.6203592433303 -105.09089852699981 0 -105.09089852699981 -7970.582706651192 0 0 0 -1495.9905868519636 2047.7189073367263 -54.531526535691228 0 -54.531526535691228 -7825.108320993626 0 0 0 -1444.3473534142249 1982.3904177701406 -19.902387549940613 0 -19.902387549940613 -7894.7964116525836 0 0 0 -1478.1014984706126 2083.5176462336021 -63.450360062517575 0 -63.450360062517575 -7699.4481662949838 0 0 0 -1403.9826300153582 2045.3054947181226 -110.97897815828037 0 -110.97897815828037 -7859.5018256652693 0 0 0 -1453.549082736783 2085.1944086607764 4.8785499628866091 0 4.8785499628866091 -7736.8407521177432 0 0 0 -1412.9115858642399 2084.4995912735976 2.9834401862681261 0 2.9834401862681261 -7672.0146103086299 0 0 0 -1396.8787547587708 2160.1530617303733 65.022673050683807 0 65.022673050683807 -7657.7872475321965 0 0 0 -1374.4085464504524 2097.7445992664143 19.416029116531718 0 19.416029116531718 -7780.8293199707696 0 0 0 -1420.7711801760888 2106.5864577049724 6.6728763143983088 0 6.6728763143983088 -7736.9326788089238 0 0 0 -1407.5865552760006 2041.4407689748114 -37.681670629795015 0 -37.681670629795015 -7904.2409643874271 0 0 0 -1465.7000488531557 2077.1908830363463 -22.391048306963057 0 -22.391048306963057 -7796.9906222031568 0 0 0 -1429.9499347916935 2078.6785530815105 -21.617487123968203 0 -21.617487123968203 -7801.6481306488567 0 0 0 -1430.7423943918329 2039.4401680270312 -74.40439318930521 0 -74.40439318930521 -7931.3992834538803 0 0 0 -1472.9897788567105 2039.6796210673783 -77.127748593104116 0 -77.127748593104116 -7861.6847036920371 0 0 0 -1455.5012706561683 2053.9396928000679 -66.066068599742721 0 -66.066068599742721 -7883.5797584747197 0 0 0 -1457.4100164186675 2008.7547568003865 -79.902785474272605 0 -79.902785474272605 -7907.6488554322568 0 0 0 -1474.7235246579658 2046.0897520273247 -72.044447037595091 0 -72.044447037595091 -7932.9097613995837 0 0 0 -1471.7050023430675 2065.5044758430886 -54.798571681327303 0 -54.798571681327303 -7972.0845960417646 0 0 0 -1476.6450300496654 2038.017556484032 -46.097012215752329 0 -46.097012215752329 -7948.1423110048054 0 0 0 -1477.5311886301934 2036.1090277460389 -38.398671934599406 0 -38.398671934599406 -7977.0271433914022 0 0 0 -1485.229528911339 2054.5186699231563 -50.475749106801231 0 -50.475749106801231 -7888.2059408759524 0 0 0 -1458.421817738199 2055.0315807513034 -27.262521164542704 0 -27.262521164542704 -7876.0021100152517 0 0 0 -1455.2426323159889 2041.3276887699176 -16.342635754328512 0 -16.342635754328512 -7937.3316239440464 0 0 0 -1474.0009837935213 2031.9583798731182 -19.718495648594399 0 -19.718495648594399 -7941.1807143326732 0 0 0 -1477.3055836148997 2037.1584016404668 -22.750926161228563 0 -22.750926161228563 -7935.3845739519456 0 0 0 -1474.5565430778806 2042.5176367250679 -20.822317491591093 0 -20.822317491591093 -7960.2130129072757 0 0 0 -1479.423844045552 2022.6674037113316 -5.0987216441280907 0 -5.0987216441280907 -7964.0417539266491 0 0 0 -1485.3435875538216 2024.2940388941497 -4.2705851022183197 0 -4.2705851022183197 -7977.0219287658401 0 0 0 -1488.1819724679226 2021.331458899549 -3.7189264838089002 0 -3.7189264838089002 -7977.154566285084 0 0 0 -1488.9557768463928 2021.7332290087143 -9.1278130016798968 0 -9.1278130016798968 -7988.0905881336657 0 0 0 -1491.5893397812397 2033.4318851106509 -14.633872418969986 0 -14.633872418969986 -8002.5651948993618 0 0 0 -1492.2833274471777 2045.2313494577447 -23.44420903424907 0 -23.44420903424907 -7976.3898026654351 0 0 0 -1482.7896133019185 2061.3615718424553 -24.483493811028893 0 -24.483493811028893 -7992.6885658208339 0 0 0 -1482.8317484946019 2071.4116570730912 -158.75688817214905 0 -158.75688817214905 -7970.9531959958258 0 0 0 -1474.8853847306746 2115.8696607971797 -126.29156124000656 0 -126.29156124000656 -7939.179676814616 0 0 0 -1455.8275040043518 2169.1469371068124 -130.74988951833802 0 -130.74988951833802 -7929.3779527794686 0 0 0 -1440.057753918165 2130.1384413734631 -124.27850203797971 0 -124.27850203797971 -7867.0323015371105 0 0 0 -1434.2234650409155 2061.453424763708 -147.54956071302149 0 -147.54956071302149 -7885.8435985335236 0 0 0 -1456.0975434424593 2008.1722839223003 -181.23065843600762 0 -181.23065843600762 -7991.1013428789738 0 0 0 -1495.7322647391629 1999.4629092059113 -148.78946488846577 0 -148.78946488846577 -7975.7310183795635 0 0 0 -1494.0670272934149 2020.7273714762305 -140.83484793027674 0 -140.83484793027674 -8029.8200634458408 0 0 0 -1502.2731729924017 1966.4746043936757 -170.44698964271083 0 -170.44698964271083 -8096.2397545193817 0 0 0 -1532.4412875314301 1901.6611035536935 -145.61144984405837 0 -145.61144984405837 -8106.3854661787445 0 0 0 -1551.1810906562696 2071.2389370447781 -118.34754850540776 0 -118.34754850540776 -8058.2801946393593 0 0 0 -1496.7603143986344 2085.4485880541761 -148.62875420015189 0 -148.62875420015189 -8051.2567207438697 0 0 0 -1491.452033172427 2042.3490867774963 -160.57291082005395 0 -160.57291082005395 -7980.1438439286394 0 0 0 -1484.4486892877903 2125.1724598854416 -131.48179768278538 0 -131.48179768278538 -7932.9587618822989 0 0 0 -1451.946575499227 2177.7311151871618 -107.98421028607117 0 -107.98421028607117 -8006.9694131447031 0 0 0 -1457.3095744893872 2191.5131720228856 -107.9231133887879 0 -107.9231133887879 -7965.5675884080702 0 0 0 -1443.5136040962971 2317.8934144104278 -34.218128262138634 0 -34.218128262138634 -7461.2881972829055 0 0 0 -1285.8486957181158 2219.1236210382121 -42.87213034798333 0 -42.87213034798333 -8375.3492449881305 0 0 0 -1539.0564059874814 2378.5825652400599 -68.357142158951319 0 -68.357142158951319 -7903.8724540836265 0 0 0 -1381.3224722108935 1905.7432143340502 100.45524579346238 0 100.45524579346238 -7697.8939231984114 0 0 0 -1448.0376772160944 1814.9471307975036 199.08977738340471 0 199.08977738340471 -8042.4084627301199 0 0 0 -1556.8653329831432 2301.1746472284576 -235.24665922125132 0 -235.24665922125132 -7938.0046459801815 0 0 0 -1409.2074996879346 -3.5119434793880089 -5.6663152795715881 0 -5.6663152795715881 -11.831981744667303 0 0 0 -3.835981306013835 2094.9695870533833 -82.344992092010216 0 -82.344992092010216 -7920.8634179122455 0 0 0 -1456.4734577147101 1957.8193733267872 -33.095287951495266 0 -33.095287951495266 -8305.0416679590126 0 0 0 -1586.8055736580536 1966.5093493267777 -134.85655055397001 0 -134.85655055397001 -7597.5164171950018 0 0 0 -1407.7517669670488 -3.3614110957969672 -6.0247467233312868 0 -6.0247467233312868 -11.781804336779203 0 0 0 -3.7858038581440638 2234.7101411146577 152.53068981158867 0 152.53068981158867 -7875.0940572281543 0 0 0 -1410.0959790283669 1904.063153061139 -262.32642361916805 0 -262.32642361916805 -7959.728685607537 0 0 0 -1513.9163831365986 -3.8650123085670458 -6.2059355224790274 0 -6.2059355224790274 -11.949671460259367 0 0 0 -3.9536709422066139 2134.4730665199259 68.327723697570036 0 68.327723697570036 -7586.9377692440794 0 0 0 -1363.1161756810379 2170.9778723059717 -69.931025099716862 0 -69.931025099716862 -7879.1067662281275 0 0 0 -1427.0322234805426 2224.7317207986598 -30.941239027953998 0 -30.941239027953998 -7371.0119158959569 0 0 0 -1286.5700487743343 2148.6159855092628 -107.74892621489198 0 -107.74892621489198 -7824.3956141286471 0 0 0 -1418.9449071548515 2057.1470265508378 -57.922945036982128 0 -57.922945036982128 -7891.2523990417903 0 0 0 -1458.5263431227377 2314.5006030693985 -28.47742638231648 0 -28.47742638231648 -7731.4798921224428 0 0 0 -1354.2448222632593 2160.8161240122354 -107.7039451989549 0 -107.7039451989549 -7820.5140207000222 0 0 0 -1414.9244741719449 2186.4970474861875 -269.98550311184954 0 -269.98550311184954 -7832.8988983318559 0 0 0 -1411.6004627114162 2172.736914582194 -21.839417867124212 0 -21.839417867124212 -8223.3911370894639 0 0 0 -1512.6635556268084 2008.025846680498 63.576600460044574 0 63.576600460044574 -7851.9253676011067 0 0 0 -1460.9748802301519 2046.6745403496971 173.41272700153786 0 173.41272700153786 -7976.9514720482694 0 0 0 -1482.5692329246449 -1.9728377354400095 -6.2486198968085986 0 -6.2486198968085986 -11.318946656513276 0 0 0 -3.3229460979883214 2199.8984397100612 220.60900909467455 0 220.60900909467455 -7749.340300351585 0 0 0 -1387.3604651603637 2158.5538862774088 -262.32393246672291 0 -262.32393246672291 -7939.8722167712713 0 0 0 -1445.3295826234712 2187.3626826884938 -157.00403468207696 0 -157.00403468207696 -7460.4202568172041 0 0 0 -1318.2643935321757 2115.6588229928802 52.336065711846459 0 52.336065711846459 -7423.5006475383561 0 0 0 -1326.9604561363685 -9.0492742921407938 -6.1613312700500771 0 -6.1613312700500771 -13.677758898564605 0 0 0 -5.6817582976763674 2281.5955544068856 138.8319392275007 0 138.8319392275007 -7614.743228034582 0 0 0 -1333.2869184069132 2206.4235920087085 40.353170751172001 0 40.353170751172001 -7869.901082034834 0 0 0 -1415.8693725065314 2143.138746742643 -16.010747745291155 0 -16.010747745291155 -7621.5861171647266 0 0 0 -1369.6118426055255 2176.4704466129842 95.545508628289099 0 95.545508628289099 -7313.135148883317 0 0 0 -1284.1661755675887 2253.0876238085693 -179.91197982463547 0 -179.91197982463547 -7427.5593526512675 0 0 0 -1293.6179322106764 2121.0920858822719 -59.532448892226967 0 -59.532448892226967 -7777.8131924002228 0 0 0 -1414.1802766295004 2159.4022046240352 -78.895646150424 0 -78.895646150424 -7618.7075215927616 0 0 0 -1364.8263292421761 2034.3846065908019 -70.107369544504763 0 -70.107369544504763 -7688.0382177002248 0 0 0 -1413.4134027773525 2074.2467254089206 -40.476128871938272 0 -40.476128871938272 -7689.7851838120841 0 0 0 -1403.8846146007854 2093.8989210031868 -40.604553629512537 0 -40.604553629512537 -7630.8247069344943 0 0 0 -1384.2314464828232 2071.6798824532743 -62.779627336483827 0 -62.779627336483827 -7783.2153122334566 0 0 0 -1427.8838574450492 2102.9325757799379 -69.548282929328707 0 -69.548282929328707 -7684.2125935914228 0 0 0 -1395.3200044528712 2089.4861783211963 -123.94189036661919 0 -123.94189036661919 -7786.1773625599453 0 0 0 -1424.1727960596909 2075.0947988593853 -128.96710203478142 0 -128.96710203478142 -7884.6531617655373 0 0 0 -1452.3895907265378 2150.6069977777152 -84.659610787985002 0 -84.659610787985002 -7750.0268869372376 0 0 0 -1399.8549722898824 2032.8111670429862 -153.20556727483017 0 -153.20556727483017 -7777.2456448363955 0 0 0 -1436.1086194483578 2024.8154687466572 -165.58955957288708 0 -165.58955957288708 -7897.5877328612987 0 0 0 -1468.1930660286548 2030.516413525158 -119.11094992446306 0 -119.11094992446306 -7721.9103005770448 0 0 0 -1422.8484717629726 2050.2984076819021 -114.34681229543639 0 -114.34681229543639 -7800.3802694000096 0 0 0 -1437.520465429533 2008.6234591049433 -130.41595009190132 0 -130.41595009190132 -7771.5385063215217 0 0 0 -1440.7287618041446 2048.2274450577188 -66.165287202260515 0 -66.165287202260515 -7648.905898343226 0 0 0 -1400.1696133213754 2004.8783241323908 -55.924611821221333 0 -55.924611821221333 -7567.0399368251965 0 0 0 -1390.540403173196 1981.5028801665685 -67.211486526004592 0 -67.211486526004592 -7626.5440595833643 0 0 0 -1411.2602948541971 1999.3217918103001 -63.265410853862704 0 -63.265410853862704 -7426.1247166076646 0 0 0 -1356.7007311993475 1936.9332019641588 -116.52199824723084 0 -116.52199824723084 -7614.5373520306166 0 0 0 -1419.4010375166181 2010.8746237099076 -101.74315563417622 0 -101.74315563417622 -7650.0646668526169 0 0 0 -1409.7975107856728 1997.2805993425645 -117.28043757655541 0 -117.28043757655541 -7643.8714109220964 0 0 0 -1411.6477028948866 1926.3961020865609 -3.2078629432077719 0 -3.2078629432077719 -7227.176757555615 0 0 0 -1325.1951638672654 1887.7999943193802 -97.192807222494594 0 -97.192807222494594 -7341.7803933968244 0 0 0 -1363.4950997693547 1966.411570356755 -60.719636514101694 0 -60.719636514101694 -7481.5515190259175 0 0 0 -1378.7849871672915 1912.9325675247783 -136.82495199821369 0 -136.82495199821369 -7772.0661253342405 0 0 0 -1464.7833894523646 1918.738353949384 -176.63469779588559 0 -176.63469779588559 -7642.6427187883091 0 0 0 -1430.9760912097317 1909.2399173257345 -188.9434541859373 0 -188.9434541859373 -7881.277884615527 0 0 0 -1493.0094918224477 1894.7488601867481 -156.42063204904116 0 -156.42063204904116 -8004.8640885174973 0 0 0 -1527.5288070826864 1851.9753655272871 -164.3486519723665 0 -164.3486519723665 -7808.2110890512122 0 0 0 -1489.0589308809831 1949.3857202542367 -183.26033159162034 0 -183.26033159162034 -7752.2811857212801 0 0 0 -1450.7238663667686 1963.6038379926977 -149.61951721045261 0 -149.61951721045261 -7825.370027806799 0 0 0 -1465.4415474535272 2018.0557796222492 -155.0646286017527 0 -155.0646286017527 -7874.9070368882967 0 0 0 -1464.21281431651 1959.620140800871 -179.76200416561915 0 -179.76200416561915 -7909.4950525249224 0 0 0 -1487.4687279310092 1949.4855976359904 -179.20656054414212 0 -179.20656054414212 -8061.9727490413643 0 0 0 -1528.1217878513417 1930.3651700318878 -149.71401902037906 0 -149.71401902037906 -7996.2470301665016 0 0 0 -1516.4704650336571 1901.873978034826 -165.64899121314738 0 -165.64899121314738 -8107.7193624247884 0 0 0 -1551.4613460974797 1957.51434380297 -184.4672035074218 0 -184.4672035074218 -7993.0017197706038 0 0 0 -1508.8718439919103 1874.1049772604711 -154.92163262295071 0 -154.92163262295071 -8006.805850812103 0 0 0 -1533.1752183879034 1934.0856677503471 -135.75774543741136 0 -135.75774543741136 -7973.4783187195862 0 0 0 -1509.8481627423171 1812.1435446063565 -123.08703478088501 0 -123.08703478088501 -8021.4365280589627 0 0 0 -1552.3232458631451 1776.5823034580098 -96.734430223863455 0 -96.734430223863455 -8199.0317383059883 0 0 0 -1605.6123587119873 1847.6515225591793 -151.01769823731956 0 -151.01769823731956 -8112.4173881684401 0 0 0 -1566.1914664023061 1821.9146375397904 -132.07505829467118 0 -132.07505829467118 -8202.5094306546671 0 0 0 -1595.1486982787173 1734.2573213649457 -92.862809459289565 0 -92.862809459289565 -8174.7979917333978 0 0 0 -1610.1351675921096 1719.4487263630799 -54.385652916879735 0 -54.385652916879735 -8274.8927130964803 0 0 0 -1638.8609966833501 1770.6683939644636 -60.524352124477446 0 -60.524352124477446 -8241.9384792285746 0 0 0 -1617.8175213160293 1808.9596224537891 -129.83999404889073 0 -129.83999404889073 -8217.4697355667886 0 0 0 -1602.1275282782517 1862.5317426800789 -101.56497673922422 0 -101.56497673922422 -8157.1456147416229 0 0 0 -1573.6534680153895 1899.2799725725708 -155.8459271255233 0 -155.8459271255233 -8149.1473763722024 0 0 0 -1562.4668509499097 1934.4846236055391 -133.24881945890229 0 -133.24881945890229 -8068.2988135561218 0 0 0 -1533.4535474876457 1846.5550711668147 -120.84082325022609 0 -120.84082325022609 -8107.1683848008652 0 0 0 -1565.1533284085053 1057.993195990648 87.879755066191137 0 87.879755066191137 -8808.133932303921 0 0 0 -1937.5351840783205 -3.5738243748361498 10.866783189606128 0 10.866783189606128 -11.847279127489799 0 0 0 -3.8552758755814835 1142.6238678354403 -116.26860271986152 0 -116.26860271986152 -8355.8776926701612 0 0 0 -1803.3134562086798 1316.7777093524974 275.32499234376155 0 275.32499234376155 -8393.2600633357943 0 0 0 -1769.1205884958244 1452.6035335568595 36.741981695436152 0 36.741981695436152 -7930.3232476101548 0 0 0 -1619.4299285133275 1528.1523818016731 3.6561834565072786 0 3.6561834565072786 -8312.688529891333 0 0 0 -1696.1340370224125 1403.86105796626 -53.050380017428324 0 -53.050380017428324 -8302.9860102938837 0 0 0 -1724.7812380819087 1692.8243941284181 -98.123798553053348 0 -98.123798553053348 -8184.1275636201026 0 0 0 -1622.8257923729216 1561.832249141893 -107.51036527709221 0 -107.51036527709221 -8752.0369266829803 0 0 0 -1797.5511693852732 1679.7184908484742 -84.137800964366761 0 -84.137800964366761 -8188.0871411280532 0 0 0 -1627.0921625698975 1505.6625098005934 -155.40228568146267 0 -155.40228568146267 -8173.0333381487071 0 0 0 -1666.8427070870312 1695.8233418679265 -53.7792102216481 0 -53.7792102216481 -8017.6267109091568 0 0 0 -1580.4508422603067 1584.2827620289318 -10.979765305981346 0 -10.979765305981346 -7621.0849135432509 0 0 0 -1509.2005378785834 1490.4406874205997 216.74688617554057 0 216.74688617554057 -8031.6267865437403 0 0 0 -1635.2965247807842 1175.773233489188 374.90757034736816 0 374.90757034736816 -8046.6650660281375 0 0 0 -1717.7229581347365 1704.7439732984076 -21.156480054842177 0 -21.156480054842177 -7898.7624868364073 0 0 0 -1548.5046283845022 -3.886926988657379 10.20881137022684 0 10.20881137022684 -11.951647648548544 0 0 0 -3.9596436593014772 1331.0062374543359 -257.6777845190154 0 -257.6777845190154 -8213.3414808661983 0 0 0 -1720.5838108529661 1562.8959605820564 379.37839238617966 0 379.37839238617966 -8385.1862090776485 0 0 0 -1705.5725621238962 -3.4212048070391745 10.758667234064667 0 10.758667234064667 -11.796406439228122 0 0 0 -3.8044028115668453 1702.5740388660161 -96.691525600912428 0 -96.691525600912428 -8239.5067096006896 0 0 0 -1634.2331676836693 -2.0912878886817765 9.5824037145295478 0 9.5824037145295478 -11.35310175389958 0 0 0 -3.3610974106453426 1706.130537064575 -378.44768968682183 0 -378.44768968682183 -7779.6010590386722 0 0 0 -1518.3676304935216 1948.9032146436543 311.29229371301699 0 311.29229371301699 -8181.4773708579714 0 0 0 -1558.1435390535776 1850.1843195302044 177.28477338480116 0 177.28477338480116 -7363.6321740879066 0 0 0 -1378.3619636394269 1861.8968738700573 -104.5291301341349 0 -104.5291301341349 -7982.6165939929833 0 0 0 -1530.1799300307316 1894.68454491374 -133.85204504794274 0 -133.85204504794274 -7781.7400003805815 0 0 0 -1471.7638638667158 1745.1565626453448 -16.08150993439267 0 -16.08150993439267 -8505.819557476083 0 0 0 -1690.1657487076791 1696.2991527214244 -261.61719608615749 0 -261.61719608615749 -7870.1977628440618 0 0 0 -1543.4746525306591 1856.5492821359039 -152.31281230271452 0 -152.31281230271452 -7398.8076034485712 0 0 0 -1385.5645803281659 1820.909604111388 -152.05017161651085 0 -152.05017161651085 -7044.8365765703784 0 0 0 -1305.9817431147494 1970.8506101718608 133.52689258278042 0 133.52689258278042 -7142.1686224913938 0 0 0 -1292.8295030798895 1886.7819075681291 89.841364578104276 0 89.841364578104276 -7232.8527254245564 0 0 0 -1336.5177044641096 1916.3650613201528 -59.51476771691523 0 -59.51476771691523 -7382.7713755730019 0 0 0 -1366.6015785632123 1916.5013800293054 -118.02425616045366 0 -118.02425616045366 -7257.4464246473799 0 0 0 -1335.236261154525 -8.7372622650747047 9.1446825028659475 0 9.1446825028659475 -13.568427014831059 0 0 0 -5.5764223199764444 2004.0519618736289 -114.10606261959444 0 -114.10606261959444 -7258.5335966621788 0 0 0 -1313.6204086971338 1901.9479261998331 -98.778278994162974 0 -98.778278994162974 -7252.1222261206713 0 0 0 -1337.5435749802127 1965.3784326385253 -62.950095638625498 0 -62.950095638625498 -7259.1299408855002 0 0 0 -1323.4378770617436 1697.9667701465369 -45.042630676032786 0 -45.042630676032786 -7038.5110373168573 0 0 0 -1335.1360667925801 1833.8814837626742 38.071546903116541 0 38.071546903116541 -7703.2150485676975 0 0 0 -1467.3333912012567 1690.2541548726474 -24.246297613175557 0 -24.246297613175557 -7343.133766828706 0 0 0 -1413.2199029890146 1765.2784736527337 -105.73907488772238 0 -105.73907488772238 -7368.7431947839796 0 0 0 -1400.8661802828083 1799.0253057387226 57.920004359862105 0 57.920004359862105 -7778.0150656165824 0 0 0 -1494.7474399694647 1493.2474085428303 595.26595753019342 0 595.26595753019342 -8695.3487572295671 0 0 0 -1800.5253371716826 1727.8360975488195 161.72306263879887 0 161.72306263879887 -7285.7089040915525 0 0 0 -1389.4682016356837 1560.0008642548155 565.35677173538716 0 565.35677173538716 -8357.2249282590601 0 0 0 -1699.3060160010609 1181.863481634191 591.79136389412099 0 591.79136389412099 -8296.450589311502 0 0 0 -1778.6467769193277 915.33286128845521 1191.8566691304907 0 1191.8566691304907 -8820.9762851334635 0 0 0 -1976.4108559612523 906.40399980176517 816.8601341007361 0 816.8601341007361 -8603.1189572323383 0 0 0 -1924.1787393576433 1257.1460938063738 329.90802862309647 0 329.90802862309647 -8248.1850918450891 0 0 0 -1747.7597495096798 1676.4517297775074 258.80496973759864 0 258.80496973759864 -8132.2943132518194 0 0 0 -1613.9606458685757 1585.8569113203303 173.59651977515932 0 173.59651977515932 -7700.8656949455763 0 0 0 -1528.752195906316 -1119.9363186294308 2674.0584734956556 0 2674.0584734956556 -9289.4182947539884 0 0 0 -2602.3386533458538 -3688.5332681364498 3700.7290514902456 0 3700.7290514902456 -11093.942405491156 0 0 0 -3695.6189184069017 -877.33183160800104 3037.0557621042381 0 3037.0557621042381 -14506.314893908811 0 0 0 -3845.9116813792034 2722.0913066931198 967.41881862310265 0 967.41881862310265 -9745.4503918869868 0 0 0 -1755.839771298467 -595.87016171369032 2579.3543906356263 0 2579.3543906356263 -11117.345351506327 0 0 0 -2928.3038783050051 1709.8368582612784 1296.7786310830488 0 1296.7786310830488 -8794.3758020974601 0 0 0 -1771.1347359590454 1344.1788433329311 966.97260132262272 0 966.97260132262272 -9464.1360562295304 0 0 0 -2029.989303224148 1191.602099270327 819.52777852331928 0 819.52777852331928 -8674.0403930798457 0 0 0 -1870.6095734523778 1759.8690759112028 277.32376726453913 0 277.32376726453913 -7681.0208677535375 0 0 0 -1480.2879479605822 1180.3835356376221 954.17489593010487 0 954.17489593010487 -8385.0621495929936 0 0 0 -1801.1696534888433 -202.25847369649455 1456.6579467309521 0 1456.6579467309521 -8669.4306461671022 0 0 0 -2217.9222799658983 -1327.6878539916781 2252.0868576594312 0 2252.0868576594312 -8957.6126621900112 0 0 0 -2571.3251290454232 363.52657422039306 1962.5763970209528 0 1962.5763970209528 -9561.3090426204362 0 0 0 -2299.4456171000111 -557.55410328936023 1928.6430829607207 0 1928.6430829607207 -8651.7714515140251 0 0 0 -2302.3313887008462 -1289.5061709159074 2750.5918931872893 0 2750.5918931872893 -9322.235263055165 0 0 0 -2652.9353584927676 -2812.8544773244325 2466.0953296779398 0 2466.0953296779398 -8443.3663799344758 0 0 0 -2814.0552143147274 -2817.0673635929561 2467.8832166167667 0 2467.8832166167667 -8444.7697977474236 0 0 0 -2815.4592903350949 -2602.187166462531 1698.3654423651271 0 1698.3654423651271 -7805.8057150566456 0 0 0 -2601.998220379794 -1372.1190717931956 1902.965601302375 0 1902.965601302375 -7799.4441349906856 0 0 0 -2292.8908016959704 -1177.9155807291227 1509.0390221810651 0 1509.0390221810651 -7952.052618552696 0 0 0 -2282.4920498204547 -1806.096370828657 1808.3864537221336 0 1808.3864537221336 -7920.846144949257 0 0 0 -2431.7356289444783 -1189.7794401109179 1678.2452822870914 0 1678.2452822870914 -8472.1933605048289 0 0 0 -2415.4932001539373 37.827709683022476 1596.2136403426912 0 1596.2136403426912 -8126.6804763093623 0 0 0 -2022.2131916565854 -338.31080288152407 1283.7963865328438 0 1283.7963865328438 -8118.6455633058358 0 0 0 -2114.2390915468404 -437.15338876592068 1261.5355871143777 0 1261.5355871143777 -8406.602580991821 0 0 0 -2210.9389924394345 -980.2913001303923 1374.6193636717362 0 1374.6193636717362 -8325.7586290195104 0 0 0 -2326.512482287475 -1075.7065348603744 1077.771927726536 0 1077.771927726536 -8312.7917064151079 0 0 0 -2347.1245603188704 -448.17404484384133 1064.9825346093476 0 1064.9825346093476 -8103.5062179815977 0 0 0 -2137.9200657063611 -1393.7257763180769 1197.4838044398639 0 1197.4838044398639 -8134.2488411808527 0 0 0 -2381.9936543747312 -1937.9602008912125 1503.7440188457201 0 1503.7440188457201 -8075.7459964850377 0 0 0 -2503.4265493440626 -1626.9351196104494 1411.3711495793027 0 1411.3711495793027 -7913.9066533898495 0 0 0 -2385.2104432500746 -2017.0777967847832 1241.8439855158958 0 1241.8439855158958 -7701.4613602133359 0 0 0 -2429.6347892495296 -2588.7462681305615 1416.1649158933565 0 1416.1649158933565 -7767.7747235861561 0 0 0 -2589.1302479291794 -1767.1011909631939 1542.3437479263937 0 1542.3437479263937 -7510.1183569460927 0 0 0 -2319.3048869773215 1012.6430691389614 594.09209418820319 0 594.09209418820319 -8346.2127441774501 0 0 0 -1833.392418759624 689.611746379529 673.43173750553615 0 673.43173750553615 -8429.749215109925 0 0 0 -1935.0343671826013 1122.9149326114639 314.05609698016815 0 314.05609698016815 -8394.9778453968829 0 0 0 -1818.0157281963548 1420.4720601672707 419.53772045687947 0 419.53772045687947 -8248.1398688363042 0 0 0 -1706.9169521672611 424.43738824281081 904.69720902400149 0 904.69720902400149 -8372.3035759808226 0 0 0 -1986.9665469345045 473.98534435084821 1231.7509712603742 0 1231.7509712603742 -8351.3169277290144 0 0 0 -1969.3328958445409 759.3657111614757 833.3843657348998 0 833.3843657348998 -8315.7369906139866 0 0 0 -1889.0928198631282 340.84122188274523 796.84984999006338 0 796.84984999006338 -8269.1104006470014 0 0 0 -1982.0672946910654 11.231867991477884 903.63111622102133 0 903.63111622102133 -8398.4133824865421 0 0 0 -2096.7953786237658 -18.504083852659278 1150.5135613172124 0 1150.5135613172124 -8260.0989076718106 0 0 0 -2069.6507478811172 -365.41248450163607 869.60194044220589 0 869.60194044220589 -8471.4169334362068 0 0 0 -2209.2073544844625 614.01494928581633 558.38691776910491 0 558.38691776910491 -8342.3164483070286 0 0 0 -1932.0753747553044 284.38676758699148 636.7483888157451 0 636.7483888157451 -8419.4760882112896 0 0 0 -2033.7723301560764 1118.8802342639829 340.1449628930136 0 340.1449628930136 -8432.665115738484 0 0 0 -1828.4462203686271 661.46644813730563 323.97131994035044 0 323.97131994035044 -8299.7548825055273 0 0 0 -1909.5721085920504 425.41007327492207 408.71455925920236 0 408.71455925920236 -8438.8283638025641 0 0 0 -2003.3545726319107 460.23384108518803 435.43392460046016 0 435.43392460046016 -8342.5305391511647 0 0 0 -1970.5741745164942 174.68938953692668 452.63854903176252 0 452.63854903176252 -8437.7120230005748 0 0 0 -2065.7556583659116 608.68735269436365 288.66171676353588 0 288.66171676353588 -8380.7638879678343 0 0 0 -1943.0191338183686 6.5242040197899769 405.90008779498567 0 405.90008779498567 -8391.369702522672 0 0 0 -2096.2113746257219 69.682485220234867 589.51170291705239 0 589.51170291705239 -8468.969544813106 0 0 0 -2099.8217648982159 139.13922984341662 630.78914177074284 0 630.78914177074284 -8313.9846141274829 0 0 0 -2043.711346071017 -364.64869823409754 823.39217492659532 0 823.39217492659532 -8186.7623449679177 0 0 0 -2137.8527608005033 -697.17738749615 828.66373515181454 0 828.66373515181454 -8297.7651768672167 0 0 0 -2248.7356410908424 -156.54250545437992 664.69911436761686 0 664.69911436761686 -8408.8663209159185 0 0 0 -2141.3522065925758 -410.08291980857939 555.15422639707685 0 555.15422639707685 -8376.4436194130649 0 0 0 -2196.6316348054115 -333.22769696453543 588.38780481843605 0 588.38780481843605 -8356.3993355050407 0 0 0 -2172.4067581173931 -716.73643424211969 575.01191941514207 0 575.01191941514207 -8226.7118716196637 0 0 0 -2235.8620764654461 -804.4969460891416 452.39859178968163 0 452.39859178968163 -8423.4321360370559 0 0 0 -2306.9822705315482 -150.30328184990231 336.27181809908143 0 336.27181809908143 -8464.1422364133869 0 0 0 -2153.611379565823 -189.25581416553177 226.67136932411768 0 226.67136932411768 -8465.43579644704 0 0 0 -2163.672902653143 -9.80924711548505 253.22042704035539 0 253.22042704035539 -8525.2251859120006 0 0 0 -2133.7586082568669 -367.79759355039369 338.28236228613605 0 338.28236228613605 -8512.9457629889475 0 0 0 -2220.1858391348369 59.594776819918479 452.04982713427137 0 452.04982713427137 -8401.7882913745125 0 0 0 -2085.5483786386503 -2083.6426005672829 957.1766326308466 0 957.1766326308466 -7762.1859388220482 0 0 0 -2461.4571348473328 -2036.3113896421826 827.93702859136056 0 827.93702859136056 -7740.1736455505525 0 0 0 -2444.121258798184 -2059.792224587608 1110.2140433432492 0 1110.2140433432492 -7697.0727439951443 0 0 0 -2439.2162421456883 -2554.9250885947499 1040.8011163732344 0 1040.8011163732344 -7665.1529867525087 0 0 0 -2555.0195188368143 -1629.4935571310507 1026.3423771051873 0 1026.3423771051873 -7822.6400162367881 0 0 0 -2363.0333933419602 -1104.3479640455876 913.80813908877553 0 913.80813908877553 -7892.3539362291995 0 0 0 -2249.1754750686973 -1713.7602728328384 998.30596360161576 0 998.30596360161576 -8062.5855594187669 0 0 0 -2444.0864580629013 -951.85006106309675 1072.5817401255672 0 1072.5817401255672 -7914.6617635383891 0 0 0 -2216.6279561503725 -1182.95712192474 721.6664663997808 0 721.6664663997808 -8235.9766298886934 0 0 0 -2354.7334379533595 -1198.5443667338759 618.5208379300384 0 618.5208379300384 -8093.0126999462937 0 0 0 -2322.8892666700431 -1130.4706839082801 682.63387908669392 0 682.63387908669392 -8217.0429601755841 0 0 0 -2336.8784110209672 -1187.6745277787541 455.29149982188665 0 455.29149982188665 -8341.5467780259205 0 0 0 -2382.3053264511691 -1281.1377683893891 636.10755706311465 0 636.10755706311465 -8119.1175940907051 0 0 0 -2350.0638406200237 -1685.1750491868925 505.70174623006051 0 505.70174623006051 -8133.7490237802222 0 0 0 -2454.7310182417787 -1720.6537575888397 786.80524983404212 0 786.80524983404212 -8147.683932255195 0 0 0 -2467.0844224610078 -1786.6564764451045 670.59679007499437 0 670.59679007499437 -7896.1885204682258 0 0 0 -2420.7112492283318 -2056.4004678487208 633.47888426433155 0 633.47888426433155 -7995.9509937212115 0 0 0 -2513.0878653924819 -1985.8207238831558 605.55637490800359 0 605.55637490800359 -7674.814762720589 0 0 0 -2415.1588716509364 -2617.5630835197153 654.51652781854068 0 654.51652781854068 -7853.2608141115024 0 0 0 -2617.7059744078047 -2675.4396714941272 197.57520224901731 0 197.57520224901731 -8025.5343268023835 0 0 0 -2675.2434995741278 -2649.93446019566 434.700996242656 0 434.700996242656 -7951.4032829866101 0 0 0 -2650.3344357955675 -2020.9390540174184 369.46944142438838 0 369.46944142438838 -7765.9384961386022 0 0 0 -2446.7193875390049 -2066.8686124180576 279.49132610232004 0 279.49132610232004 -8117.1674449056791 0 0 0 -2546.0090143309344 -1689.0414460550896 436.97647343829158 0 436.97647343829158 -8134.5311151584483 0 0 0 -2455.8931403033853 -1258.2262963202593 426.2008619515077 0 426.2008619515077 -8357.3007697262328 0 0 0 -2403.8817665116258 -1384.9478705826696 272.68697906318357 0 272.68697906318357 -8242.1389466291512 0 0 0 -2406.7717043029552 -1351.0536037696111 210.52769316827016 0 210.52769316827016 -8460.5472983008367 0 0 0 -2452.900225517611 -1333.6830995340231 263.3841440057422 0 263.3841440057422 -8221.7295712976666 0 0 0 -2388.8531677079227 -1470.8465311933751 52.906953572641441 0 52.906953572641441 -8290.629278523933 0 0 0 -2440.3689524293277 -1705.8568114092554 -34.70111471578366 0 -34.70111471578366 -8409.8819174322889 0 0 0 -2528.9346822103857 -1862.0974649695445 97.685477285734578 0 97.685477285734578 -8374.8576588647811 0 0 0 -2559.2387809585825 -2086.168282634454 113.59360203887371 0 113.59360203887371 -7915.8735939299158 0 0 0 -2500.5104691410925 -1944.5381393811538 243.01004165751374 0 243.01004165751374 -8070.4885876629569 0 0 0 -2503.7566817610282 -2729.1143216651512 -28.216075563453266 0 -28.216075563453266 -8189.5049279953091 0 0 0 -2729.6548124151145 -542.75694898178926 280.39712302232147 0 280.39712302232147 -8525.919262731828 0 0 0 -2267.1690529284047 -312.09938519738716 181.9381865698233 0 181.9381865698233 -8558.2666090944913 0 0 0 -2217.5914985729723 -502.01207560529656 251.71152537569105 0 251.71152537569105 -8506.7936862446259 0 0 0 -2252.2014404624824 -479.89510459076155 424.99331553744003 0 424.99331553744003 -8336.508079946776 0 0 0 -2204.1007961343857 -907.18735007637861 301.14017974382023 0 301.14017974382023 -8334.1869949931024 0 0 0 -2310.3435862673696 -961.72718244384487 294.42252118542729 0 294.42252118542729 -8496.5631673907083 0 0 0 -2364.5725874586369 -615.91255582630583 213.78551949231405 0 213.78551949231405 -8487.5737164556376 0 0 0 -2275.8715680704863 -872.14242069439024 189.06562042616952 0 189.06562042616952 -8577.6004739854252 0 0 0 -2362.4357236699543 -1357.1656006535786 198.11513018959749 0 198.11513018959749 -8452.826580410685 0 0 0 -2452.4980452660648 -1110.4115842028332 16.814148557959925 0 16.814148557959925 -8566.8474537754955 0 0 0 -2419.3147594945822 -1049.4222594569874 26.251274380576433 0 26.251274380576433 -8550.9655414913032 0 0 0 -2400.0969502370735 -567.66397300144581 117.13712258117812 0 117.13712258117812 -8639.2979061248679 0 0 0 -2301.7404697815791 -537.57850152606079 194.62436784744364 0 194.62436784744364 -8617.0959726844594 0 0 0 -2288.6686185526323 -226.49993202171117 207.91399450534118 0 207.91399450534118 -8755.1765571518044 0 0 0 -2245.4191222933778 -363.34432568319949 321.57674105371916 0 321.57674105371916 -9129.7861580920617 0 0 0 -2373.282620943819 1627.6609628858205 -231.76122791155285 0 -231.76122791155285 -8493.0731320747 0 0 0 -1716.3530422972181 -447.60751589590473 552.14215383321653 0 552.14215383321653 -8340.8153769088385 0 0 0 -2197.1057232011863 -0.17329293714384164 1.96749862418264 0 1.96749862418264 -7.3375033105616581 0 0 0 -1.8776990619263785 -142.95280709509598 -71.977812701603398 0 -71.977812701603398 -7983.1817868082508 0 0 0 -2031.5336484758386 -422.15359525209351 81.323287693203383 0 81.323287693203383 -8642.3674305098393 0 0 0 -2266.1302564404832 -4.1880879107512925 5.2373261765820684 0 5.2373261765820684 -12.052031117866704 0 0 0 -4.0600297571544957 5.6491121150793333 -161.81016165884284 0 -161.81016165884284 -8523.1502083503801 0 0 0 -2129.3752740588279 -3.4375135918246116 7.4595548628188908 0 7.4595548628188908 -11.801840448902567 0 0 0 -3.8098385101817769 -41.582788478131988 78.256407893144569 0 78.256407893144569 -9065.1662608856168 0 0 0 -2276.6872623409326 172.23893071874409 157.06337819797045 0 157.06337819797045 -8478.9464287674673 0 0 0 -2076.6768745121808 1406.9464240814596 54.26606740789066 0 54.26606740789066 -8442.9668278572935 0 0 0 -1759.005100943963 1305.6460257115014 -182.58424037104851 0 -182.58424037104851 -8471.1373519853914 0 0 0 -1791.3728315684693 1318.7122338810859 90.946075614003348 0 90.946075614003348 -8878.5954277951932 0 0 0 -1889.9707984785255 1390.1343117733632 411.14592732756665 0 411.14592732756665 -8293.1625261806621 0 0 0 -1725.7570536018247 1108.3429011641674 12.123044212348759 0 12.123044212348759 -8523.7569226637643 0 0 0 -1853.8535053749001 1202.3465911045005 -16.204084867898928 0 -16.204084867898928 -7916.9601265686179 0 0 0 -1678.6533838660307 1276.7657631075335 27.948555314364057 0 27.948555314364057 -9098.9549307388334 0 0 0 -1955.5472919078247 1005.4367432003237 -141.12823080634917 0 -141.12823080634917 -8588.3264400523185 0 0 0 -1895.722424212996 1187.833073269474 47.361718521897274 0 47.361718521897274 -8468.0755543273917 0 0 0 -1820.060620264474 1265.3338784759126 -48.348021006808267 0 -48.348021006808267 -8647.3241522042954 0 0 0 -1845.4975684320943 1268.1798782552687 29.590116009152553 0 29.590116009152553 -8696.1044019469482 0 0 0 -1856.9811309229226 1421.0317751583789 43.331333092462955 0 43.331333092462955 -8630.9315769234236 0 0 0 -1802.4749504412612 1300.5588658262698 -29.034057630175084 0 -29.034057630175084 -8854.3671474349576 0 0 0 -1888.4520704021722 1485.9174467832527 -1.3344890977868999 0 -1.3344890977868999 -8621.7814553195931 0 0 0 -1783.966002134086 1563.6390291934931 -29.51284942082566 0 -29.51284942082566 -8448.5253993692149 0 0 0 -1721.2215925439323 1409.4190322846298 -25.835497224819846 0 -25.835497224819846 -8497.892486491517 0 0 0 -1772.1183635517154 1455.3250875677295 -10.861587297929873 0 -10.861587297929873 -8481.2120340288238 0 0 0 -1756.471736615269 1398.197143308731 21.45475026383474 0 21.45475026383474 -8504.4341083377512 0 0 0 -1776.5592412572514 1486.0023750395048 6.1972182267963944 0 6.1972182267963944 -8418.7694932317099 0 0 0 -1733.1917795480549 1362.7778011110204 72.997266740727355 0 72.997266740727355 -8422.910204129741 0 0 0 -1765.0331007546811 1395.4532457218811 -6.0948959709021437 0 -6.0948959709021437 -8415.0407369138557 0 0 0 -1754.8968727979955 1391.6221172967307 63.315596214430116 0 63.315596214430116 -8469.948193442222 0 0 0 -1769.5815190363719 1411.0258169279095 35.98729372060734 0 35.98729372060734 -8380.3451582491034 0 0 0 -1742.3298353302998 1584.4096342977864 -31.675421531861502 0 -31.675421531861502 -8336.9584073847618 0 0 0 -1688.1371932717484 1499.7816002565341 33.620291176994215 0 33.620291176994215 -8393.714112157104 0 0 0 -1723.4831279751452 1509.1933357558009 39.05546229842912 0 39.05546229842912 -8352.7294492840301 0 0 0 -1710.8840283820609 1614.8116668880757 -17.45218418989316 0 -17.45218418989316 -8338.8730409725104 0 0 0 -1681.0153435211032 1568.9512391475264 -41.247331034624949 0 -41.247331034624949 -8380.604209777217 0 0 0 -1702.9132426574242 1515.0772588464497 17.479503486880276 0 17.479503486880276 -8390.7017611626288 0 0 0 -1718.9061255790475 1627.4234807812463 -14.052357806551299 0 -14.052357806551299 -8324.9844599923526 0 0 0 -1674.3902448027766 1728.8271585951925 -72.127137771843991 0 -72.127137771843991 -8292.823747191449 0 0 0 -1640.9991471490603 1818.1335355401206 -126.50772998303728 0 -126.50772998303728 -8194.009344517428 0 0 0 -1593.9689522443259 1718.8278119256429 -85.740274324660277 0 -85.740274324660277 -8274.4263571786432 0 0 0 -1638.8996363132537 1775.5604777162662 -62.701964947184024 0 -62.701964947184024 -8247.7582027765748 0 0 0 -1618.0494312650771 1543.1845526226098 0.0019321836298331618 0 0.0019321836298331618 -8339.7460555238213 0 0 0 -1699.1403757253065 1641.1043285037122 -18.810894908679984 0 -18.810894908679984 -8312.5290491008491 0 0 0 -1667.8561801492833 1588.4443962357082 -43.448491025697876 0 -43.448491025697876 -8334.4586837279403 0 0 0 -1686.5035718730569 1686.6953426527762 -83.677885340694047 0 -83.677885340694047 -8265.4893117378815 0 0 0 -1644.6984922712763 1506.1791569982743 -28.813776887691347 0 -28.813776887691347 -8324.6611172926059 0 0 0 -1704.6204900735829 1663.8744272347685 -14.026071355715544 0 -14.026071355715544 -8320.7503980231268 0 0 0 -1664.2189926970896 1513.0333442001138 -36.291904857650479 0 -36.291904857650479 -8313.844499548868 0 0 0 -1700.2027888371813 1580.6656769734873 -68.159918234738143 0 -68.159918234738143 -8361.7413231270475 0 0 0 -1695.2689115383873 1521.4621466124299 -13.991393504640655 0 -13.991393504640655 -8497.3398415859992 0 0 0 -1743.9694237433905 1414.229546593182 -84.350286568835486 0 -84.350286568835486 -8863.4642107326654 0 0 0 -1862.3086660348708 767.29817571792228 425.54968854818799 0 425.54968854818799 -8391.4713469886192 0 0 0 -1906.0432928176742 -3.5535939357974371 10.309814655560235 0 10.309814655560235 -11.840535118174614 0 0 0 -3.8485322634929986 1199.594762012779 -227.00812232222597 0 -227.00812232222597 -8347.3474989676906 0 0 0 -1786.9381842387284 699.52866630164863 149.30877870005497 0 149.30877870005497 -7997.6959946915449 0 0 0 -1824.5418320974713 385.77643419744163 135.37067117715924 0 135.37067117715924 -8847.1455985936191 0 0 0 -2115.3422910990412 501.84026620222903 -105.10184505258439 0 -105.10184505258439 -8482.2633923880094 0 0 0 -1995.1057815464428 1240.2070663527038 303.2191895964279 0 303.2191895964279 -8579.5621728001934 0 0 0 -1834.8387766118767 -3.6225552481568144 9.208329242858909 0 9.208329242858909 -11.863521648725396 0 0 0 -3.8715192242205347 157.49906813889174 91.57731506029404 0 91.57731506029404 -7950.1658550026041 0 0 0 -1948.166696715929 27.632961669367432 235.05761353581329 0 235.05761353581329 -8490.7514771207898 0 0 0 -2115.7796288628542 209.37552103193048 339.35204283827625 0 339.35204283827625 -8482.3120718553037 0 0 0 -2068.2341377058419 1315.042235056495 -44.262957197628566 0 -44.262957197628566 -8104.2377303654866 0 0 0 -1697.298873827247 1280.7107313903862 -42.869184796352783 0 -42.869184796352783 -8547.8854141561715 0 0 0 -1816.7936706914488 1304.7975508773034 126.61087127460632 0 126.61087127460632 -8507.7010723193816 0 0 0 -1800.72588036052 1372.7865353722555 168.95337435198962 0 168.95337435198962 -8133.8842314452631 0 0 0 -1690.274424018251 
</DataArray>
<DataArray type="Float64" Name="cross_section_updated" format="ascii">
1 1 1 1 1 1 1 1 1 1 1 1 1 1 1 1 1 1 1 1 1 1 1 1 1 1 1 1 1 1 1 1 1 1 1 1 1 1 1 1 1 1 1 1 1 1 1 1 1 1 1 1 1 1 1 1 1 1 1 1 1 1 1 1 1 1 1 1 1 1 1 1 1 1 1 1 1 1 1 1 1 1 1 1 1 1 1 1 1 1 1 1 1 1 1 1 1 1 1 1 1 1 1 1 1 1 1 1 1 1 1 1 1 1 1 1 1 1 1 1 1 1 1 1 1 1 1 1 1 1 1 1 1 1 1 1 1 1 1 1 1 1 1 1 1 1 1 1 1 1 1 1 1 1 1 1 1 1 1 1 1 1 1 1 1 1 1 1 1 1 1 1 1 1 1 1 1 1 1 1 1 1 1 1 1 1 1 1 1 1 1 1 1 1 1 1 1 1 1 1 1 1 1 1 1 1 1 1 1 1 1 1 1 1 1 1 1 1 1 1 1 1 1 1 1 1 1 1 1 1 1 1 1 1 1 1 1 1 1 1 1 1 1 1 1 1 1 1 1 1 1 1 1 1 1 1 1 1 1 1 1 1 1 1 1 1 1 1 1 1 1 1 1 1 1 1 1 1 1 1 1 1 1 1 1 1 1 1 1 1 1 1 1 1 1 1 1 1 1 1 1 1 1 1 1 1 1 1 1 1 1 1 1 1 1 1 1 1 1 1 1 1 1 1 1 1 1 1 1 1 1 1 1 1 1 1 1 1 1 1 1 1 1 1 1 1 1 1 1 1 1 1 1 1 1 1 1 1 1 1 1 1 1 1 1 1 1 1 1 1 1 1 1 1 1 1 1 1 1 1 1 1 1 1 1 1 1 1 1 1 1 1 1 1 1 1 1 1 1 1 1 1 1 1 1 1 1 1 1 1 1 1 1 1 1 1 1 1 1 1 1 1 1 1 1 1 1 1 1 1 1 1 1 1 1 1 1 1 1 1 1 1 1 1 1 1 1 1 1 1 1 1 1 1 1 1 1 1 1 1 1 1 1 1 1 1 1 1 1 1 1 1 1 1 1 1 1 1 1 1 1 1 1 1 1 1 1 1 1 1 1 1 1 1 1 1 1 1 1 1 1 1 1 1 1 1 1 1 1 1 1 1 1 1 1 1 1 1 1 1 1 1 1 1 1 1 1 1 1 1 1 1 1 1 1 1 1 1 0.00084723846114680146 1 1 9.9994696374505754e-07 1 1 9.9992794152375941e-07 1 1 1 1 1 1 1 1 1 1 1 1 1 9.9991317510650379e-07 1 1 1 1 1 9.9990105765362935e-07 1 1 1 1 1 1 1 1 1 1 1 1 1 1 1 1 1 1 1 1 1 1 1 1 1 1 1 1 1 1 1 1 1 1 1 1 1 1 1 1 1 1 1 1 1 1 1 1 1 1 1 1 1 1 1 1 1 1 1 1 1 1 1 1 1 1 1 1 1 1 1 1 1 1 1 1 1 1 1 1 1 1 1 1 1 1 1 1 1 1 1 1 1 1 1 1 1 1 1 1 1 1 1 1 1 1 1 1 1 1 1 1 1 1 1 1 1 1 1 1 1 1 1 1 1 1 1 1 1 1 1 1 1 1 1 1 1 1 1 1 1 1 1 1 1 1 1 1 1 1 1 1 1 1 1 1 1 1 1 1 1 1 1 1 1 1 1 1 9.998903366253975e-07 1 1 1 9.9988034120424008e-07 1 1 9.9987048680916235e-07 1 1 1 1 1 1 1 1 1 1 1 9.9986036877081075e-07 1 1 1 1 9.9984977793010632e-07 1 1 1 1 1 1 1 1 1 1 1 1 1 1 1 1 1 1 1 1 1 1 1 1 1 1 1 1 1 1 1 1 1 1 1 1 1 1 1 1 1 1 1 1 1 1 1 1 1 1 1 1 1 1 1 1 1 1 9.99593511467195e-07 1 1 1 1 1 1 1 1 1 1 1 1 1 1 9.9950134411705416e-07 1 1 9.9954654233722073e-07 1 9.9945709321896947e-07 1 1 1 1 1 1 1 1 1 1 1 1 1 9.9941314316703833e-07 1 1 1 1 1 1 1 1 1 1 1 1 1 1 1 1 1 1 1 1 1 1 1 1 1 1 1 1 1 1 1 1 1 1 1 1 1 1 1 1 1 1 1 1 1 1 1 1 1 1 1 1 1 1 1 1 1 1 1 1 1 1 1 1 1 1 1 1 1 1 1 1 1 1 1 1 1 1 1 1 1 1 1 1 1 1 1 1 1 1 1 1 1 1 1 1 1 1 1 1 1 1 1 1 1 1 1 1 1 1 1 1 1 1 1 1 1 1 1 1 1 1 1 1 1 1 1 1 1 1 1 1 1 1 1 1 0.00031752446892058944 1 1 9.9982991098174212e-07 1 9.9975765991203169e-07 1 1 1 1 1 1 1 1 1 1 1 1 1 1 1 1 1 1 1 1 1 1 1 1 1 1 1 1 1 1 1 1 1 1 1 1 1 1 1 1 1 1 1 1 1 1 1 9.9964316480072313e-07 1 1 1 1 1 9.9969693690554751e-07 1 1 1 1 1 1 1 
</DataArray>
<DataArray type="Float64" Name="displacement_divergence" format="ascii">
-0.10722730752811371 -0.1101564651696051 -0.086086464363620052 -0.091638107806167435 -0.071664610624941658 -0.060307440314766758 -0.079717595114434575 -0.069096371402902826 -0.063225888954177356 -0.069798782382641963 -0.07254607601893312 -0.0660250847620516 -0.076268558499480832 -0.070055807926567085 -0.084265803818582508 -0.091324079553945156 -0.072547037434798456 -0.079755662392787058 -0.055765357218856115 -0.058820914860190532 -0.058969088394922681 -0.058710560124567185 -0.067124294127476003 -0.062598588063638605 -0.057625999164466701 -0.063130800776338147 -0.069580487688903209 -0.064219699668718155 -0.06105670751515159 -0.063453156034644048 -0.060672062641704327 -0.058145129546253504 -0.060788794901398158 -0.062232755109204563 -0.061465749172454232 -0.065364193421632216 -0.063059402487736227 -0.065125562365381418 -0.065988486043702749 -0.065886768766361098 -0.065314209138898419 -0.062321264870256354 -0.064528005862833915 -0.063130847968383474 -0.062727911853893703 -0.064162578623843169 -0.060931744107081964 -0.060639553203846619 -0.074211157985773601 -0.069838249122811835 -0.076878488733929162 -0.072138597538166038 -0.066754351427562322 -0.070767027934312082 -0.068267419762155293 -0.071566990838033195 -0.066718734787251599 -0.069896116634389216 -0.066466890689753685 -0.066950677364209815 -0.071884798270267461 -0.073469596963983697 -0.069489708735997816 -0.074975884865882692 -0.073694148841860332 -0.06815858186996028 -0.067257771663255375 -0.071595935556513959 -0.068307768872829938 -0.067024772956884915 -0.066052546080431415 -0.070689380401954355 -0.065624746638404396 -0.063569282544386957 -0.065585579694623947 -0.068313336740016814 -0.063926066370435214 -0.068895813600571995 -0.068316388400665562 -0.067026939968334975 -0.066157595891554066 -0.063252356310435159 -0.065599072281476267 -0.064575169108112174 -0.061844451287659918 -0.066424770494966423 -0.062024634374584497 -0.060892248176788566 -0.063603809673382528 -0.061246153825775584 -0.059982984849955845 -0.061971117165843997 -0.060320865199592816 -0.059263281952231239 -0.062314849019322577 -0.065388816222391538 -0.06179055941204617 -0.062784997005345705 -0.062476761946622938 -0.062508574016569146 -0.061899022447564123 -0.062984358864345946 -0.058837753041110774 -0.061359873072816595 -0.060366167532951001 -0.059420246259427878 -0.059201023256181873 -0.060265913089964762 -0.059264287962922824 -0.058720413391617904 -0.058609512942083108 -0.062766634384799541 -0.059721720225876226 -0.059435563596611299 -0.060465388937353481 -0.062742877536369146 -0.065045979563735118 -0.062448676687101308 -0.065575666278730238 -0.062681333426082272 -0.068706196465720945 -0.063865342495038682 -0.066849772236355048 -0.066324601632522212 -0.065184436710748084 -0.069375511156635067 -0.066533211583652413 -0.064693024311812397 -0.06275664962380699 -0.065672346204436086 -0.051550525396496405 -0.052901313194198329 -0.053001048421901897 -0.051248877509835339 -0.050143142368146876 -0.050107535450574558 -0.049204082891490322 -0.048890413864604687 -0.04812777079905417 -0.047630066464712018 -0.048623020581494369 -0.049378301918171719 -0.050963886590830176 -0.051423327475548453 -0.049403954348065993 -0.055557849087624567 -0.051160822326422051 -0.055979696673983503 -0.050758828580289406 -0.056112055331369426 -0.058280673252117443 -0.056232170489755033 -0.054728455494916339 -0.057539615389696458 -0.057315092570779491 -0.057423734748909154 -0.056676635892694505 -0.053850601884346816 -0.053279609712153286 -0.056392866165395655 -0.05519648109007208 -0.054668911414756771 -0.056931378628663931 -0.055597533449478265 -0.059213396376070093 -0.057564821838830355 -0.057013216875698824 -0.057194548240805484 -0.058209407171331488 -0.059633595220729863 -0.057975232858477596 -0.060417440074496898 -0.058892427711278755 -0.056189514324421208 -0.058090776756857365 -0.056699555612530303 -0.058827194594290866 -0.057140706643338368 -0.056736253709040951 -0.055536475310143413 -0.055206269896785898 -0.055361964318958123 -0.05533409498229569 -0.054378535445173737 -0.054180049042339529 -0.053965970139392083 -0.053041401641789498 -0.053189221136155262 -0.054568012212375949 -0.051345091084463168 -0.051977471709717893 -0.052265947916783628 -0.053804657550462709 -0.05246685059841727 -0.052866129764674724 -0.053860037000232897 -0.054340003082442245 -0.054344331963400605 -0.055333242468196486 -0.05596866128202127 -0.055381116361795435 -0.055194321255789047 -0.05647098104742676 -0.056752264976145272 -0.05649456407815745 -0.055984152378277807 -0.056477237979355221 -0.057019792551106285 -0.057033720209340999 -0.056799960180747622 -0.056381545260460131 -0.056379820908239231 -0.055921622955397154 -0.056148637063860765 -0.05932023146233123 -0.05952003897964836 -0.059074549868891546 -0.058743534974234457 -0.0582850830813888 -0.057614565184751498 -0.058013475841303563 -0.057115563778368128 -0.057504131835026229 -0.057832398516587724 -0.057593038757745962 -0.057617168609821245 -0.059135272495524971 -0.059442695022990294 -0.060184763530360952 -0.060967039190362449 -0.06018444728205441 -0.058367743243546766 -0.059324248937113411 -0.060174064941659444 -0.057969827297390919 -0.057329164640331554 -0.057732832417234148 -0.058113228179203724 -0.057463951881478126 -0.057469520452316403 -0.056868639388123032 -0.057294923098399453 -0.055266086778357204 -0.057546149786701861 -0.055279983924584157 -0.058198027561688237 -0.056729696137659658 -0.057206135454853646 -0.057046346327273401 -0.057118639181791719 -0.057112563206506706 -0.056846869953176116 -0.055939337577518344 -0.057585701597421601 -0.056425907458386937 -0.057689817099982665 -0.057020640617937546 -0.057759097642835572 -0.056796159038961846 -0.057448130622553495 -0.058188776058321734 -0.057655313187555152 -0.058860578673574304 -0.057570922710244998 -0.057156044597451827 -0.056879504583075724 -0.057827289154293027 -0.056795625666251848 -0.057004447504091393 -0.057405780167586518 -0.057992289871584779 -0.057433836231420621 -0.058322455392846084 -0.058538235340881206 -0.059106346247791208 -0.05868710749505468 -0.059585124932755695 -0.058067936753623525 -0.059207809501873099 -0.060114904539121605 -0.059604008688057375 -0.060091995632650441 -0.058416834242172921 -0.057267668728942289 -0.058420054428752699 -0.056964801207887605 -0.058073988181693181 -0.05740452033875193 -0.056928641718193562 -0.056397942940834556 -0.05623076577971764 -0.055271433297577 -0.056490188999637425 -0.056491386117196951 -0.056727460235811544 -0.055416312449346472 -0.055767157044895155 -0.055331973635725173 -0.0544706111333364 -0.054280911185887737 -0.053448938749884177 -0.053317102595323747 -0.053016438048998804 -0.0548953839736539 -0.054696417922488361 -0.053902223218038059 -0.053397953900719775 -0.054360161114465955 -0.053423396791930422 -0.054651280081417619 -0.054970168891668059 -0.053970108657804716 -0.054323739614234756 -0.054758570359324521 -0.055734059090937357 -0.055091069553544703 -0.055625477318793415 -0.055677903369217852 -0.056288787889972713 -0.05634342955000568 -0.056431658691920239 -0.05639317641349656 -0.056539189969024406 -0.055471004152568559 -0.055592187320742475 -0.057660101003985401 -0.0590665245977402 -0.059783791516367035 -0.05897084962363798 -0.060825464662408457 -0.061483926733667982 -0.062025112822876149 -0.061390149796257898 -0.060925644461619077 -0.059895874333245558 -0.061745212566969521 -0.061403392251808242 -0.059535834052597325 -0.058747773125361391 -0.058303083188369742 -0.056914495463287529 -0.057344934937547221 -0.057719947597162147 -0.057140922651195386 -0.058286361422844379 -0.058469896576496705 -0.060203190517516436 -0.06068426705833907 -0.061315126214845916 -0.0596847082957771 -0.059228446274481095 -0.060494945707288972 -0.06067054813383245 -0.058713077796017227 -0.058907395146023722 -0.057808645805425329 -0.057561302736995973 -0.057081810908050645 -0.055937324861291521 -0.055651890285572936 -0.054164887218741464 -0.053157981857959224 -0.054039463505046181 -0.054542151877028155 -0.054496207077069037 -0.052989383504336129 -0.053348213322692684 -0.055274742674498611 -0.055488005442227539 -0.055888020849212516 -0.056865032594842324 -0.05618951017095819 -0.056729718387648731 -0.055198730877533464 -0.054895222329509386 -0.053390311576206662 -0.053298135018997161 -0.053308519580707925 -0.053519907791058419 -0.051543263533061823 -0.052515694923228606 -0.053837378938742964 -0.055001403139941618 -0.055297682608376753 -0.055431937003974641 -0.057191914909887398 -0.047375231809238305 -0.045493568365760906 -0.047671587381939107 -0.046340557127354881 -0.047827344802051419 -0.050178826587933711 -0.051776616027215061 -0.049446801652680339 -0.049549903296242537 -0.051052275762795585 -0.050989761979521098 -0.051920941871928694 -0.048601983354300105 -0.048551325496646536 -0.047245337768091568 -0.048310355890381462 -0.048695989531362671 -0.049605509983238427 -0.048968564023618599 -0.050133007621078196 -0.050710521737016068 -0.051681370159746498 -0.051948308434369039 -0.051308318855951551 -0.050236749280669457 -0.051608970813331823 -0.050804665230019586 -0.052562025141301705 -0.051913028095775693 -0.052744646721761379 -0.051264521483763703 -0.050319660940353006 -0.050046321119721293 -0.049195033360225571 -0.049656575007530623 -0.048355118291285581 -0.048845238365128107 -0.047532248444152048 -0.048392013558504754 -0.047891167599323659 -0.047550294577895835 -0.046300834009157354 -0.045832991002523471 -0.045048473662695265 -0.046218959148436989 -0.046961867463879634 -0.045276981521447851 -0.04393158462499458 -0.045020792048118929 -0.045764806133845815 -0.046327495325351034 -0.046828672148624406 -0.047454796342970784 -0.046723710946091179 -0.045543673824027353 -0.045648659335954411 -0.044443792204019228 -0.04382098938183665 -0.042535282075716732 -0.042933557846295489 -0.04374813700210689 -0.043623467483315581 -0.041979833739465788 -0.041622860866806999 -0.04333062050664549 -0.043242741812702379 -0.044510721896662941 -0.044899636787519459 -0.045883368571354666 -0.051187611876278405 -0.050854349080170724 -0.049549569907079642 -0.050749743980527562 -0.050988382217826311 -0.051008091538468969 -0.051370607480133279 -0.052243782099044969 -0.052599206622555239 -0.053085402889630096 -0.053952479892836025 -0.053562763875642294 -0.052985841548568891 -0.051666788799247521 -0.052781609429898846 -0.052169510518841999 -0.053207070460513539 -0.052888668750307399 -0.05129042656863847 -0.05228707702010077 -0.052069352659666168 -0.05235760996708827 -0.051513156649887426 -0.051098808604543189 -0.049983895601946937 -0.049825032170692451 -0.050744359285376961 -0.0509904319865504 -0.050398626633394228 -0.049193462890064238 -0.049671577667290245 -0.049545070691889626 -0.048079904452135169 -0.048147005019920266 -0.048241908945679368 -0.048443200745090342 -0.048433561669240399 -0.048028838280399611 -0.048017082448338966 -0.048564709144944262 -0.049196323948276888 -0.047504864556014104 -0.046145293184150837 -0.045941325375838754 -0.045669959757963341 -0.041962704831644215 -0.045608429676550835 -0.04632533265521474 -0.047890426995345514 -0.047543243400574475 -0.047536914616111758 -0.049177678186671847 -0.049637053891182836 -0.049521763301582311 -0.049577670505196098 -0.049225438263582388 -0.045978923235570957 -0.04725899586752158 -0.04800123863977418 -0.046866453516795414 -0.046681499131043191 -0.044261577038968825 -0.043780594526807937 -0.041632228579248531 -0.043209006098853475 -0.041955351174102019 -0.041309534292235828 -0.042217107389045383 -0.037652711250881099 -0.038194263897670666 -0.040238001379431676 -0.039800484581279383 -0.043194207786116712 -0.040308528534679366 -0.042892459468153898 -0.04210412928565882 -0.039660433538321493 -0.039077094247267796 -0.045919377982612586 -0.028422116460824487 -0.039069536338616095 -0.048387578483614302 -0.033385779038852537 0.31992793545981613 -0.04108919647852316 -0.043491872459363146 -1.1830299246803868 -0.031315787578096277 -0.037810830104356055 -0.89445381933678192 -0.034273449610026763 -0.041575829443029511 -0.036248303051519715 -0.038490961924957712 -0.034284828207751028 -0.037103486948758979 -0.036834176446876032 -0.032522686832115344 -0.034990834988744224 -0.037007880633097123 -0.041132622013076769 -0.037324320949668865 -0.03923739658455383 -0.9720527417431839 -0.038809857107728329 -0.041299541121950556 -0.040650031128317332 -0.039016985827495354 -0.035046299295484307 -0.95052408004296041 -0.036626536584934977 -0.034838128130093349 -0.036650215682338061 -0.038453644184779034 -0.036457095740301371 -0.036884120879122739 -0.036866007769693065 -0.037381490384133853 -0.037020393292748741 -0.038394351119136694 -0.03816539398725971 -0.038328522669860865 -0.039109187075805241 -0.039775392726426162 -0.039211747118301492 -0.039998152408899035 -0.040689293032120932 -0.040540052761782297 -0.041346905591564787 -0.038928119956118279 -0.037777842258986671 -0.038216992837530217 -0.039455929991822347 -0.038464425230856691 -0.040057464705510082 -0.03905042895314037 -0.040450918736949726 -0.040525474356402968 -0.040698215932109982 -0.041283609033592961 -0.042434326223866115 -0.041643635629666331 -0.041006042817466781 -0.04065646728396205 -0.039837639849336304 -0.040324702690286651 -0.040809628164153011 -0.040910885326809865 -0.042236949980097582 -0.041348645515733029 -0.041924515192806266 -0.04364191866846423 -0.041895730886747806 -0.044488294379408488 -0.045433744694722833 -0.041843657026938208 -0.040654401148395386 -0.041566685965566563 -0.041113800811656664 -0.039830508386306862 -0.040205881736587123 -0.039654083118680239 -0.040198085909883163 -0.038280785619821844 -0.038458127786163088 -0.0392292065900475 -0.039073301469008614 -0.039354705433723769 -0.03869967254411269 -0.038345071221773525 -0.038900952922189758 -0.038905338658494548 -0.039606477962207398 -0.039580980117573328 -0.039764067449565621 -0.040049495325270051 -0.03937937105438416 -0.039652569122841055 -0.038834025950123419 -0.038930652882515626 -0.03891992645233433 -0.038145146413497311 -0.038216314432655989 -0.038252403507447852 -0.038362052504478328 -0.037544741716812435 -0.037865387878122214 -0.038191714950196132 -0.037767311120670333 -0.038739284988534184 -0.038781424761360483 -0.037426066277369364 -0.037080041089376792 -0.037603994984007572 -0.037321205256954926 -0.03747431862286299 -0.037315974989016176 -0.037599901447219697 -0.037330567781394652 -0.037687020324962628 -0.037883595570793238 -0.038083087507822411 -0.037760269446639461 -0.037318025708004354 -0.037342109948785396 -0.037220677077959424 -0.037263465214131264 -0.036743209367345986 -0.037271318725741631 -0.037156886248816967 -0.037670623386629964 -0.037628043609639783 -0.0382587989208234 -0.037676634096120987 -0.037613504081357885 -0.037863650898100287 -0.03797306177498827 -0.038347910739677138 -0.037555716501281089 -0.039126839765447619 -0.036762019005556645 -0.037569270961234524 -0.03739976467129906 -0.036108683835355482 -0.036952537461765411 -0.035099565750383643 -0.036338727068419896 -0.035322789646606179 -0.034921968868969033 -0.034360213661261463 -0.035519279504401924 -0.035189663881900257 -0.036642501221328949 -0.035748748369792249 -0.035768559859795879 -0.036824744471417814 -0.036387531766403969 -0.036435250410466691 -0.036868088116448927 -0.036792625058576722 -0.036916125751241369 -0.036938279715754918 -0.037130738222783677 -0.036460545443454895 -0.036381065807899793 -0.036850024594838215 -0.036932639590372851 -0.036863913576947072 -0.03698559610113894 -0.037133589688845614 -0.037204549311697921 -0.037223894421160031 -0.037289733494530797 -0.037307083186179479 -0.037069740332547979 -0.03707079371236488 -0.036872134618266994 -0.036395687600108806 -0.036001443847954007 -0.03585558662602284 -0.036402438586061452 -0.037393306618479061 -0.037351675682335106 -0.037556829324809915 -0.038311032188285687 -0.038779527266406627 -0.037419007859965991 -0.037286300829310504 -0.03711121723219446 -0.03629866438748075 -0.036432739362234678 -0.036087840102407398 -0.032146217392952758 -0.038476410149687279 -0.034533061805272491 -0.036200941930402186 -0.038921633324578764 -0.035230187492198528 -0.9589953265034552 -0.036411836442867718 -0.03967013934145136 -0.035193794174176229 -0.94645096453601596 -0.035252399475709462 -0.037847909578415218 -0.98841773555165346 -0.034077904392026029 -0.035675805587013443 -0.032164251219358508 -0.035473622678871219 -0.036463158578068589 -0.033856120556581493 -0.035373111854298617 -0.03529001156778544 -0.037816588890669856 -0.036524372005753883 -0.037064230823116162 -0.8307365244970768 -0.034684011629009359 -0.036133239565586714 -0.032956609838304285 -0.033174011403409309 -1.4204395744190919 -0.03333217296017299 -0.035396734312663325 -0.034240296065138009 -0.032104154389189565 -0.032340448305266944 -0.035354506915737494 -0.03412065823105459 -0.035335335069433593 -0.035097115365019693 -0.034605786162070773 -0.035697096436126285 -0.034883000111321616 -0.035604319901492265 -0.036309739768163589 -0.034996374307247224 -0.035902715486208825 -0.036704826650716553 -0.035571211794074187 -0.035938011635738024 -0.036018219045103939 -0.035004240333034453 -0.034763510079329984 -0.035281507371355048 -0.033917518279983683 -0.035485025937915582 -0.035244937769641993 -0.035291192572372371 -0.033129879096681636 -0.034087377494233843 -0.034469624679182354 -0.036619584736309108 -0.035774402280243311 -0.037325237295561198 -0.038188220177067245 -0.03722647327202433 -0.03626809665916908 -0.036636038686338246 -0.036605320357912752 -0.037186718198275404 -0.038203044696283328 -0.037911761625841089 -0.038786533652437338 -0.037721796099797755 -0.038329380459697637 -0.037746204068557887 -0.038808081146578716 -0.040140308967799632 -0.039154786660057672 -0.039878717456967916 -0.040253379189802763 -0.040971524917083668 -0.040445438032900724 -0.040053188206956136 -0.039341336700384574 -0.039061671273747711 -0.038336338687191135 -0.039128833210212571 -0.048438379601958126 -0.96381896889537089 -0.045082836405216986 -0.044228014712395514 -0.040485748212833128 -0.042403350925560385 -0.04311953095204768 -0.040570644809323098 -0.044938779234631798 -0.040677304064247521 -0.041671067677175794 -0.039511271056507646 -0.037730013446964694 -0.040882413119519623 -0.042943073953368494 -0.038712615709612541 -0.9899109148253693 -0.043014595271324119 -0.042639314053097288 -0.95110070289171134 -0.040855829192091742 -0.84027435266133566 -0.037959190762337891 -0.038953588476339465 -0.034459049090985572 -0.038254498250768418 -0.03679409659666788 -0.042254143717692039 -0.038586866313266556 -0.034639114508204227 -0.032649543577868645 -0.032320737576997244 -0.033412942611602769 -0.034165039464080213 -0.033380906528863052 -1.3941055799941147 -0.032840510217428398 -0.033438589374505168 -0.033085946926543548 -0.033378401669814484 -0.03668333478003144 -0.03533049757472552 -0.035021654507070288 -0.037368685999236595 -0.04501313342929214 -0.034736705040892046 -0.04248265040002655 -0.044466169422983204 -0.049410271399031341 -0.048104468483941037 -0.043693993737742014 -0.040349016146714378 -0.038218804897657846 -0.065058466333646342 -0.09239047296017254 -0.096147792034480067 -0.043895994282461631 -0.073207596957625132 -0.044278368398976115 -0.050749732580603724 -0.046765239336309467 -0.03700719869901458 -0.045029241337221103 -0.055448056999147469 -0.064283128226135564 -0.057486140427500242 -0.057558284717521162 -0.066323383962319196 -0.070351380357868171 -0.070386482258377375 -0.065049955509494856 -0.057322270042399259 -0.057062301245511364 -0.060793390723611951 -0.060387330003848438 -0.050555329791414624 -0.05285597728867103 -0.055273474810985879 -0.058162812057186902 -0.058678114007971759 -0.053448001642659004 -0.059549841359368305 -0.062585663733601568 -0.059630261081251842 -0.060740869731238253 -0.064728256198229472 -0.057982622174433042 -0.0458348104689906 -0.048375859179565023 -0.045450393204908901 -0.042672923804181473 -0.049674163673362665 -0.049233322396113485 -0.047227320496578185 -0.049551682367276612 -0.052419884465594133 -0.051741268697027915 -0.05523018386211153 -0.048301884368882664 -0.050844308253901904 -0.045711155509215673 -0.047739302714801368 -0.050083864315797727 -0.049264354362912377 -0.051643891459147828 -0.048575478345459167 -0.052405284365643123 -0.052495544122455454 -0.051092783651775386 -0.053446319020012581 -0.056218391027271067 -0.053533805164814381 -0.054915790870135262 -0.054310168952934834 -0.055896551911636116 -0.057674556763288753 -0.05384028448914556 -0.054091822566328496 -0.053343965206421595 -0.055504645978370931 -0.052138709465966326 -0.061536428371183324 -0.061103031469954605 -0.060980406053642203 -0.063875487970920353 -0.059075834833549001 -0.056229386876717441 -0.061102161451572518 -0.055415698903759296 -0.058868335948834005 -0.058072231666751073 -0.05842196027552414 -0.059557633161279239 -0.058751596015500569 -0.061368275456044466 -0.061677110561525209 -0.060517781230708306 -0.062827196634812052 -0.060378971791273398 -0.065442649360195115 -0.066881087489353203 -0.066258360894889193 -0.061167984688475133 -0.06365022535827336 -0.061397328507584642 -0.060097044162790603 -0.060169292607573865 -0.061322505637940228 -0.059721329192698049 -0.061009223810733162 -0.06322336705525966 -0.063980969523964565 -0.062512761728527322 -0.062593917044025713 -0.068241370310377872 -0.056679226323210125 -0.055439787464324319 -0.056305036011562004 -0.05510251990335957 -0.057758589656684234 -0.059114314686465941 -0.056896789201762166 -0.059060893091748862 -0.061312451131651652 -0.060482868987364546 -0.06000242375592682 -0.057543511744539491 -0.057216715463815793 -0.056135478057334487 -0.05933206552359542 -0.042908826057430405 -0.05492764308002962 -0.46942476548159462 -0.050788341211895932 -0.056653256411012043 -1.0150074392886168 -0.053234381851470614 -0.95245962754544067 -0.056917181558523322 -0.051916921862804444 -0.043975127523599111 -0.04478432078921174 -0.047249269961963047 -0.043143926340045713 -0.046346337634372403 -0.041966334596650778 -0.048888682297695635 -0.047393060605324999 -0.045501515506611967 -0.046137439210802322 -0.04642452827307314 -0.045061873761031657 -0.047211301760054301 -0.044599150053352132 -0.043030539813598209 -0.044302959088793115 -0.04391179341538165 -0.044413981031431238 -0.043329794488701445 -0.044125827518866997 -0.043872421819949659 -0.044239537975909349 -0.043558245883257463 -0.042203429831793704 -0.043087078199378515 -0.042772100709551397 -0.042025383588027654 -0.042572831066435682 -0.042972653139476291 -0.041859756120069536 -0.041024978678726481 -0.039849223806108225 -0.040972490907831283 -0.040451235781627126 -0.042478509393132802 -0.041696404503732021 -0.042162589296826383 -0.041117462306781927 -0.04261551225183946 -0.041605474817427046 -0.042505069720929489 -0.042381722788459864 -0.043599235593584695 -0.046557716650871717 -0.047651082320441879 -0.9621330658732532 -0.044673454605968166 -0.045613545802436872 -0.052883557277476012 -0.049877644538661087 -0.045870969415296836 -0.96787980605513013 -0.048704167417898292 -0.05289449072157143 -0.051705853442646055 -0.042432471845681163 -0.045419841767286168 -0.045018147009012938 -0.042256860600456247 
</DataArray>
</CellData>
</Piece>
</UnstructuredGrid>
</VTKFile>
