<?xml version="1.0"?>
<VTKFile type="UnstructuredGrid" version="0.1" byte_order="LittleEndian">
<UnstructuredGrid>
<Piece NumberOfPoints="3142" NumberOfCells="1054">
<Points>
<DataArray type="Float64" NumberOfComponents="3" format="ascii">
0.02576622439977887 0.024532886826226379 0 0 0 0 0.049999999999899652 0 0 0.02576622439977887 0.024532886826226379 0 0 0 0 0 0.050000000000207989 0 0.02576622439977887 0.024532886826226379 0 0.049999999999899652 0 0 0.053064897599215843 0.048131547304697528 0 0.02576622439977887 0.024532886826226379 0 0.053064897599215843 0.048131547304697528 0 0 0.050000000000207989 0 0 0.050000000000207989 0 0 0.10000000000041601 0 0.044310582753132287 0.101412518374475 0 0 0.10000000000041601 0 0.044310582753132287 0.101412518374475 0 0 0.15000000000062411 0 0.053064897599215843 0.048131547304697528 0 0.044310582753132287 0.101412518374475 0 0.083411279318303222 0.089699755330707398 0 0.053064897599215843 0.048131547304697528 0 0 0.050000000000207989 0 0.044310582753132287 0.101412518374475 0 0.044310582753132287 0.101412518374475 0 0.083411279318303222 0.089699755330707398 0 0.065374659239632718 0.1448908038746782 0 0.083411279318303222 0.089699755330707398 0 0.065374659239632718 0.1448908038746782 0 0.1053400320299198 0.12877248826361379 0 0.083411279318303222 0.089699755330707398 0 0.12372429750337779 0.095814237875728972 0 0.1053400320299198 0.12877248826361379 0 0.12372429750337779 0.095814237875728972 0 0.1053400320299198 0.12877248826361379 0 0.14332333627550789 0.14578431753966009 0 0.12372429750337779 0.095814237875728972 0 0.10266856499169109 0.044518360900210059 0 0.14618258501891079 0.062070108745602003 0 0.083411279318303222 0.089699755330707398 0 0.12372429750337779 0.095814237875728972 0 0.10266856499169109 0.044518360900210059 0 0.10266856499169109 0.044518360900210059 0 0.099999999999814668 0 0 0.14999999999970359 0 0 0.049999999999899652 0 0 0.053064897599215843 0.048131547304697528 0 0.099999999999814668 0 0 0.053064897599215843 0.048131547304697528 0 0.10266856499169109 0.044518360900210059 0 0.099999999999814668 0 0 0.053064897599215843 0.048131547304697528 0 0.083411279318303222 0.089699755330707398 0 0.10266856499169109 0.044518360900210059 0 0.044081577119474857 0.2271058242433576 0 0 0.20000000000083221 0 0 0.25000000000104028 0 0.044081577119474857 0.2271058242433576 0 0 0.20000000000083221 0 0.038512288486115001 0.1844147282893184 0 0.044081577119474857 0.2271058242433576 0 0.038512288486115001 0.1844147282893184 0 0.083105206071467416 0.20007701332709979 0 0.038512288486115001 0.1844147282893184 0 0 0.15000000000062411 0 0.065374659239632718 0.1448908038746782 0 0.044310582753132287 0.101412518374475 0 0 0.15000000000062411 0 0.065374659239632718 0.1448908038746782 0 0.038512288486115001 0.1844147282893184 0 0.065374659239632718 0.1448908038746782 0 0.083105206071467416 0.20007701332709979 0 0 0.20000000000083221 0 0.038512288486115001 0.1844147282893184 0 0 0.15000000000062411 0 0.065374659239632718 0.1448908038746782 0 0.1053400320299198 0.12877248826361379 0 0.106902708054812 0.16453234188234539 0 0.1053400320299198 0.12877248826361379 0 0.106902708054812 0.16453234188234539 0 0.14332333627550789 0.14578431753966009 0 0.065374659239632718 0.1448908038746782 0 0.106902708054812 0.16453234188234539 0 0.083105206071467416 0.20007701332709979 0 0.083105206071467416 0.20007701332709979 0 0.095326043202144745 0.24554465089224409 0 0.13737030665753211 0.20313708640667491 0 0.106902708054812 0.16453234188234539 0 0.083105206071467416 0.20007701332709979 0 0.13737030665753211 0.20313708640667491 0 0.044081577119474857 0.2271058242433576 0 0.083105206071467416 0.20007701332709979 0 0.095326043202144745 0.24554465089224409 0 0.044081577119474857 0.2271058242433576 0 0.095326043202144745 0.24554465089224409 0 0.049706944316556423 0.27522722923869108 0 0.095326043202144745 0.24554465089224409 0 0.14377654328998779 0.2442024734791064 0 0.13737030665753211 0.20313708640667491 0 0.17933913398461551 0.2350063570234002 0 0.14377654328998779 0.2442024734791064 0 0.13737030665753211 0.20313708640667491 0 0.17933913398461551 0.2350063570234002 0 0.13737030665753211 0.20313708640667491 0 0.18124454140915969 0.18790916706335251 0 0.18124454140915969 0.18790916706335251 0 0.14332333627550789 0.14578431753966009 0 0.18652628422869419 0.14162325200928061 0 0.106902708054812 0.16453234188234539 0 0.13737030665753211 0.20313708640667491 0 0.14332333627550789 0.14578431753966009 0 0.13737030665753211 0.20313708640667491 0 0.18124454140915969 0.18790916706335251 0 0.14332333627550789 0.14578431753966009 0 0.14332333627550789 0.14578431753966009 0 0.18652628422869419 0.14162325200928061 0 0.16141998738593399 0.10404039647458049 0 0.18652628422869419 0.14162325200928061 0 0.22985637510995899 0.1298347970200906 0 0.2185883431182947 0.18019736283949719 0 0.22985637510995899 0.1298347970200906 0 0.2185883431182947 0.18019736283949719 0 0.25557216766470708 0.15874861286892261 0 0.2185883431182947 0.18019736283949719 0 0.25557216766470708 0.15874861286892261 0 0.26429849586623999 0.19346700179430079 0 0.18124454140915969 0.18790916706335251 0 0.18652628422869419 0.14162325200928061 0 0.2185883431182947 0.18019736283949719 0 0.17933913398461551 0.2350063570234002 0 0.18124454140915969 0.18790916706335251 0 0.224700362040408 0.22206622194729711 0 0.18124454140915969 0.18790916706335251 0 0.2185883431182947 0.18019736283949719 0 0.224700362040408 0.22206622194729711 0 0.2185883431182947 0.18019736283949719 0 0.224700362040408 0.22206622194729711 0 0.26429849586623999 0.19346700179430079 0 0.224700362040408 0.22206622194729711 0 0.25195515620380449 0.25883339815888678 0 0.21049769590865089 0.26857363548218488 0 0.17933913398461551 0.2350063570234002 0 0.224700362040408 0.22206622194729711 0 0.21049769590865089 0.26857363548218488 0 0.184418230509967 0.038773194583122873 0 0.14999999999970359 0 0 0.14618258501891079 0.062070108745602003 0 0.184418230509967 0.038773194583122873 0 0.14618258501891079 0.062070108745602003 0 0.19922788606653311 0.085920220746880993 0 0.184418230509967 0.038773194583122873 0 0.14999999999970359 0 0 0.19999999999955789 0 0 0.10266856499169109 0.044518360900210059 0 0.14999999999970359 0 0 0.14618258501891079 0.062070108745602003 0 0.12372429750337779 0.095814237875728972 0 0.14618258501891079 0.062070108745602003 0 0.16141998738593399 0.10404039647458049 0 0.12372429750337779 0.095814237875728972 0 0.14332333627550789 0.14578431753966009 0 0.16141998738593399 0.10404039647458049 0 0.18652628422869419 0.14162325200928061 0 0.16141998738593399 0.10404039647458049 0 0.19922788606653311 0.085920220746880993 0 0.14618258501891079 0.062070108745602003 0 0.16141998738593399 0.10404039647458049 0 0.19922788606653311 0.085920220746880993 0 0.18652628422869419 0.14162325200928061 0 0.22985637510995899 0.1298347970200906 0 0.19922788606653311 0.085920220746880993 0 0.22985637510995899 0.1298347970200906 0 0.19922788606653311 0.085920220746880993 0 0.24218496799700481 0.089025544070598317 0 0.22985637510995899 0.1298347970200906 0 0.24218496799700481 0.089025544070598317 0 0.27474541102162192 0.11822029332053539 0 0.19922788606653311 0.085920220746880993 0 0.24218496799700481 0.089025544070598317 0 0.22668068146512929 0.045875643423131329 0 0.24218496799700481 0.089025544070598317 0 0.22668068146512929 0.045875643423131329 0 0.27499999999933927 0.060310814194988557 0 0.184418230509967 0.038773194583122873 0 0.19922788606653311 0.085920220746880993 0 0.22668068146512929 0.045875643423131329 0 0.184418230509967 0.038773194583122873 0 0.22668068146512929 0.045875643423131329 0 0.19999999999955789 0 0 0.22668068146512929 0.045875643423131329 0 0.19999999999955789 0 0 0.24999999999941211 0 0 0.24999999999941211 0 0 0.27499999999933927 0.060310814194988557 0 0.29999999999926641 0 0 0.22668068146512929 0.045875643423131329 0 0.24999999999941211 0 0 0.27499999999933927 0.060310814194988557 0 0.27499999999933927 0.060310814194988557 0 0.29999999999926641 0 0 0.32541448401678508 0.046215317981507749 0 0.29999999999926641 0 0 0.32541448401678508 0.046215317981507749 0 0.34999999999912063 0 0 0.32541448401678508 0.046215317981507749 0 0.3615861437013822 0.03582617922508851 0 0.35312867752657662 0.084946736076730367 0 0.3615861437013822 0.03582617922508851 0 0.35312867752657662 0.084946736076730367 0 0.39591832466117061 0.056982757562006353 0 0.32541448401678508 0.046215317981507749 0 0.3615861437013822 0.03582617922508851 0 0.34999999999912063 0 0 0.3615861437013822 0.03582617922508851 0 0.34999999999912063 0 0 0.3999999999989749 0 0 0.35312867752657662 0.084946736076730367 0 0.36246644853392812 0.1399454205365751 0 0.39823268594401579 0.1116623613130045 0 0.35312867752657662 0.084946736076730367 0 0.32215584939770009 0.1218492143506909 0 0.36246644853392812 0.1399454205365751 0 0.32541448401678508 0.046215317981507749 0 0.35312867752657662 0.084946736076730367 0 0.3096713403101819 0.085471541595262421 0 0.35312867752657662 0.084946736076730367 0 0.32215584939770009 0.1218492143506909 0 0.3096713403101819 0.085471541595262421 0 0.32215584939770009 0.1218492143506909 0 0.3096713403101819 0.085471541595262421 0 0.27474541102162192 0.11822029332053539 0 0.27499999999933927 0.060310814194988557 0 0.32541448401678508 0.046215317981507749 0 0.3096713403101819 0.085471541595262421 0 0.27499999999933927 0.060310814194988557 0 0.3096713403101819 0.085471541595262421 0 0.27474541102162192 0.11822029332053539 0 0.24218496799700481 0.089025544070598317 0 0.27499999999933927 0.060310814194988557 0 0.27474541102162192 0.11822029332053539 0 0.22985637510995899 0.1298347970200906 0 0.27474541102162192 0.11822029332053539 0 0.25557216766470708 0.15874861286892261 0 0.27474541102162192 0.11822029332053539 0 0.25557216766470708 0.15874861286892261 0 0.29336099386129338 0.15892013001050981 0 0.25557216766470708 0.15874861286892261 0 0.29336099386129338 0.15892013001050981 0 0.26429849586623999 0.19346700179430079 0 0.29336099386129338 0.15892013001050981 0 0.31255190597181792 0.19850845631528771 0 0.33084213324567391 0.16272720141332131 0 0.29336099386129338 0.15892013001050981 0 0.26429849586623999 0.19346700179430079 0 0.31255190597181792 0.19850845631528771 0 0.32215584939770009 0.1218492143506909 0 0.27474541102162192 0.11822029332053539 0 0.29336099386129338 0.15892013001050981 0 0.224700362040408 0.22206622194729711 0 0.28040350263641872 0.23054717217092141 0 0.25195515620380449 0.25883339815888678 0 0.224700362040408 0.22206622194729711 0 0.28040350263641872 0.23054717217092141 0 0.26429849586623999 0.19346700179430079 0 0.28040350263641872 0.23054717217092141 0 0.26429849586623999 0.19346700179430079 0 0.31255190597181792 0.19850845631528771 0 0.28040350263641872 0.23054717217092141 0 0.33758650185219202 0.23837101504325639 0 0.29132859388405002 0.27203693976649962 0 0.28040350263641872 0.23054717217092141 0 0.33758650185219202 0.23837101504325639 0 0.31255190597181792 0.19850845631528771 0 0.33758650185219202 0.23837101504325639 0 0.31255190597181792 0.19850845631528771 0 0.3572130504031617 0.1874703368446563 0 0.33758650185219202 0.23837101504325639 0 0.3572130504031617 0.1874703368446563 0 0.38831533174504851 0.2189834941785925 0 0.33758650185219202 0.23837101504325639 0 0.38831533174504851 0.2189834941785925 0 0.3786248352540974 0.27082301512024259 0 0.32215584939770009 0.1218492143506909 0 0.29336099386129338 0.15892013001050981 0 0.33084213324567391 0.16272720141332131 0 0.32215584939770009 0.1218492143506909 0 0.33084213324567391 0.16272720141332131 0 0.36246644853392812 0.1399454205365751 0 0.31255190597181792 0.19850845631528771 0 0.33084213324567391 0.16272720141332131 0 0.3572130504031617 0.1874703368446563 0 0.3572130504031617 0.1874703368446563 0 0.36246644853392812 0.1399454205365751 0 0.39801143831225599 0.16651381068160659 0 0.33084213324567391 0.16272720141332131 0 0.3572130504031617 0.1874703368446563 0 0.36246644853392812 0.1399454205365751 0 0.36246644853392812 0.1399454205365751 0 0.39801143831225599 0.16651381068160659 0 0.39823268594401579 0.1116623613130045 0 0.39801143831225599 0.16651381068160659 0 0.42905200079338551 0.19982395548231649 0 0.44288491854585582 0.14116182884956319 0 0.39801143831225599 0.16651381068160659 0 0.44288491854585582 0.14116182884956319 0 0.39823268594401579 0.1116623613130045 0 0.38831533174504851 0.2189834941785925 0 0.42377727103934271 0.25099357235810238 0 0.3786248352540974 0.27082301512024259 0 0.3572130504031617 0.1874703368446563 0 0.39801143831225599 0.16651381068160659 0 0.38831533174504851 0.2189834941785925 0 0.39801143831225599 0.16651381068160659 0 0.38831533174504851 0.2189834941785925 0 0.42905200079338551 0.19982395548231649 0 0.38831533174504851 0.2189834941785925 0 0.42905200079338551 0.19982395548231649 0 0.42377727103934271 0.25099357235810238 0 0.42905200079338551 0.19982395548231649 0 0.46429753744194407 0.22870891180733599 0 0.42377727103934271 0.25099357235810238 0 0.42905200079338551 0.19982395548231649 0 0.46429753744194407 0.22870891180733599 0 0.47357141910802508 0.1873585799078378 0 0.47357141910802508 0.1873585799078378 0 0.51729576145820033 0.1683240575987815 0 0.50760557329222289 0.20700468884612061 0 0.46429753744194407 0.22870891180733599 0 0.47357141910802508 0.1873585799078378 0 0.50760557329222289 0.20700468884612061 0 0.46429753744194407 0.22870891180733599 0 0.49695729691142171 0.25014895411178018 0 0.50760557329222289 0.20700468884612061 0 0.44288491854585582 0.14116182884956319 0 0.47357141910802508 0.1873585799078378 0 0.48466639505193998 0.1421439844745814 0 0.42905200079338551 0.19982395548231649 0 0.44288491854585582 0.14116182884956319 0 0.47357141910802508 0.1873585799078378 0 0.47357141910802508 0.1873585799078378 0 0.48466639505193998 0.1421439844745814 0 0.51729576145820033 0.1683240575987815 0 0.44288491854585582 0.14116182884956319 0 0.48466639505193998 0.1421439844745814 0 0.47881186583059909 0.093591717165689425 0 0.48466639505193998 0.1421439844745814 0 0.47881186583059909 0.093591717165689425 0 0.51076801031701946 0.1202837388510348 0 0.44288491854585582 0.14116182884956319 0 0.47881186583059909 0.093591717165689425 0 0.43698630808430822 0.080423614171545449 0 0.47881186583059909 0.093591717165689425 0 0.47040171442036788 0.044141676406503738 0 0.43698630808430822 0.080423614171545449 0 0.47881186583059909 0.093591717165689425 0 0.47040171442036788 0.044141676406503738 0 0.52375890611712683 0.059318771819432882 0 0.47040171442036788 0.044141676406503738 0 0.49999999999869432 0 0 0.52375890611712683 0.059318771819432882 0 0.47040171442036788 0.044141676406503738 0 0.49999999999869432 0 0 0.44999999999882923 0 0 0.47040171442036788 0.044141676406503738 0 0.44999999999882923 0 0 0.4320097814748517 0.037406712692169303 0 0.47040171442036788 0.044141676406503738 0 0.4320097814748517 0.037406712692169303 0 0.43698630808430822 0.080423614171545449 0 0.4320097814748517 0.037406712692169303 0 0.3999999999989749 0 0 0.39591832466117061 0.056982757562006353 0 0.4320097814748517 0.037406712692169303 0 0.39591832466117061 0.056982757562006353 0 0.43698630808430822 0.080423614171545449 0 0.44999999999882923 0 0 0.4320097814748517 0.037406712692169303 0 0.3999999999989749 0 0 0.3615861437013822 0.03582617922508851 0 0.3999999999989749 0 0 0.39591832466117061 0.056982757562006353 0 0.35312867752657662 0.084946736076730367 0 0.39591832466117061 0.056982757562006353 0 0.39823268594401579 0.1116623613130045 0 0.44288491854585582 0.14116182884956319 0 0.39823268594401579 0.1116623613130045 0 0.43698630808430822 0.080423614171545449 0 0.39591832466117061 0.056982757562006353 0 0.39823268594401579 0.1116623613130045 0 0.43698630808430822 0.080423614171545449 0 0.42161023666869668 0.39493916313643851 0 0.38707855792647411 0.42299362914874578 0 0.43249999999999988 0.43937499999999979 0 0.42161023666869668 0.39493916313643851 0 0.38083244760691543 0.38531983672244652 0 0.38707855792647411 0.42299362914874578 0 0.42161023666869668 0.39493916313643851 0 0.38083244760691543 0.38531983672244652 0 0.40076539126862748 0.34589349467022118 0 0.38707855792647411 0.42299362914874578 0 0.3908716102680424 0.47010282357248828 0 0.43249999999999988 0.43937499999999979 0 0.3908716102680424 0.47010282357248828 0 0.43507373378304309 0.49699695397193322 0 0.38244435121258652 0.51653317813019495 0 0.3908716102680424 0.47010282357248828 0 0.43507373378304309 0.49699695397193322 0 0.43249999999999988 0.43937499999999979 0 0.43507373378304309 0.49699695397193322 0 0.43249999999999988 0.43937499999999979 0 0.46111841286828259 0.46690301029591341 0 0.43249999999999988 0.43937499999999979 0 0.46111841286828259 0.46690301029591341 0 0.48858720058566618 0.43964267759203868 0 0.43507373378304309 0.49699695397193322 0 0.46111841286828259 0.46690301029591341 0 0.49102375406324739 0.49123754822244059 0 0.46111841286828259 0.46690301029591341 0 0.49102375406324739 0.49123754822244059 0 0.48858720058566618 0.43964267759203868 0 0.48858720058566618 0.43964267759203868 0 0.46655310992796922 0.39650496622958609 0 0.52289427570932567 0.3932284363388488 0 0.43249999999999988 0.43937499999999979 0 0.48858720058566618 0.43964267759203868 0 0.46655310992796922 0.39650496622958609 0 0.42161023666869668 0.39493916313643851 0 0.43249999999999988 0.43937499999999979 0 0.46655310992796922 0.39650496622958609 0 0.42161023666869668 0.39493916313643851 0 0.46655310992796922 0.39650496622958609 0 0.4409427642593301 0.35743108089689513 0 0.46655310992796922 0.39650496622958609 0 0.49077833859261139 0.35229981449445641 0 0.52289427570932567 0.3932284363388488 0 0.49077833859261139 0.35229981449445641 0 0.46226845272279993 0.31901800744800313 0 0.5 0.29999999999999999 0 0.49077833859261139 0.35229981449445641 0 0.46226845272279993 0.31901800744800313 0 0.4409427642593301 0.35743108089689513 0 0.46226845272279993 0.31901800744800313 0 0.4409427642593301 0.35743108089689513 0 0.41914690343363781 0.30688979866601612 0 0.46655310992796922 0.39650496622958609 0 0.49077833859261139 0.35229981449445641 0 0.4409427642593301 0.35743108089689513 0 0.49695729691142171 0.25014895411178018 0 0.4604742573284204 0.27846934318264788 0 0.5 0.29999999999999999 0 0.46429753744194407 0.22870891180733599 0 0.49695729691142171 0.25014895411178018 0 0.4604742573284204 0.27846934318264788 0 0.46226845272279993 0.31901800744800313 0 0.4604742573284204 0.27846934318264788 0 0.5 0.29999999999999999 0 0.46226845272279993 0.31901800744800313 0 0.4604742573284204 0.27846934318264788 0 0.41914690343363781 0.30688979866601612 0 0.46429753744194407 0.22870891180733599 0 0.4604742573284204 0.27846934318264788 0 0.42377727103934271 0.25099357235810238 0 0.4604742573284204 0.27846934318264788 0 0.42377727103934271 0.25099357235810238 0 0.41914690343363781 0.30688979866601612 0 0.42377727103934271 0.25099357235810238 0 0.41914690343363781 0.30688979866601612 0 0.3786248352540974 0.27082301512024259 0 0.41914690343363781 0.30688979866601612 0 0.3786248352540974 0.27082301512024259 0 0.36575549820117997 0.31677992835137742 0 0.42161023666869668 0.39493916313643851 0 0.4409427642593301 0.35743108089689513 0 0.40076539126862748 0.34589349467022118 0 0.4409427642593301 0.35743108089689513 0 0.41914690343363781 0.30688979866601612 0 0.40076539126862748 0.34589349467022118 0 0.41914690343363781 0.30688979866601612 0 0.40076539126862748 0.34589349467022118 0 0.36575549820117997 0.31677992835137742 0 0.40076539126862748 0.34589349467022118 0 0.36575549820117997 0.31677992835137742 0 0.33277555741076909 0.36432196682010132 0 0.38083244760691543 0.38531983672244652 0 0.40076539126862748 0.34589349467022118 0 0.33277555741076909 0.36432196682010132 0 0.36575549820117997 0.31677992835137742 0 0.32752639306529541 0.32610012995269699 0 0.33277555741076909 0.36432196682010132 0 0.32752639306529541 0.32610012995269699 0 0.33277555741076909 0.36432196682010132 0 0.29644548887253103 0.34914008784168082 0 0.33758650185219202 0.23837101504325639 0 0.3786248352540974 0.27082301512024259 0 0.33402499257867951 0.28911035184473982 0 0.3786248352540974 0.27082301512024259 0 0.36575549820117997 0.31677992835137742 0 0.33402499257867951 0.28911035184473982 0 0.36575549820117997 0.31677992835137742 0 0.32752639306529541 0.32610012995269699 0 0.33402499257867951 0.28911035184473982 0 0.32752639306529541 0.32610012995269699 0 0.33402499257867951 0.28911035184473982 0 0.29348325746214782 0.31350119524708198 0 0.33758650185219202 0.23837101504325639 0 0.33402499257867951 0.28911035184473982 0 0.29132859388405002 0.27203693976649962 0 0.33402499257867951 0.28911035184473982 0 0.29132859388405002 0.27203693976649962 0 0.29348325746214782 0.31350119524708198 0 0.29132859388405002 0.27203693976649962 0 0.29348325746214782 0.31350119524708198 0 0.24432083401701241 0.3006253385567515 0 0.29132859388405002 0.27203693976649962 0 0.25195515620380449 0.25883339815888678 0 0.24432083401701241 0.3006253385567515 0 0.28040350263641872 0.23054717217092141 0 0.29132859388405002 0.27203693976649962 0 0.25195515620380449 0.25883339815888678 0 0.33277555741076909 0.36432196682010132 0 0.29644548887253103 0.34914008784168082 0 0.27866744612395528 0.38416094670951489 0 0.32752639306529541 0.32610012995269699 0 0.29644548887253103 0.34914008784168082 0 0.29348325746214782 0.31350119524708198 0 0.29644548887253103 0.34914008784168082 0 0.29348325746214782 0.31350119524708198 0 0.25966125648670141 0.34351016742083729 0 0.29348325746214782 0.31350119524708198 0 0.25966125648670141 0.34351016742083729 0 0.24432083401701241 0.3006253385567515 0 0.29644548887253103 0.34914008784168082 0 0.25966125648670141 0.34351016742083729 0 0.27866744612395528 0.38416094670951489 0 0.25966125648670141 0.34351016742083729 0 0.27866744612395528 0.38416094670951489 0 0.22033343844674469 0.36963382230740238 0 0.27866744612395528 0.38416094670951489 0 0.29124338931648802 0.43334555462578611 0 0.24049127783545701 0.41270748208749802 0 0.29124338931648802 0.43334555462578611 0 0.25982634974572738 0.46097799597715272 0 0.24049127783545701 0.41270748208749802 0 0.27866744612395528 0.38416094670951489 0 0.29124338931648802 0.43334555462578611 0 0.31778888742534622 0.40581751814196781 0 0.33277555741076909 0.36432196682010132 0 0.27866744612395528 0.38416094670951489 0 0.31778888742534622 0.40581751814196781 0 0.33277555741076909 0.36432196682010132 0 0.31778888742534622 0.40581751814196781 0 0.35221190152536241 0.40457127605439203 0 0.31778888742534622 0.40581751814196781 0 0.35221190152536241 0.40457127605439203 0 0.34258405725730701 0.4444034294386992 0 0.29124338931648802 0.43334555462578611 0 0.31778888742534622 0.40581751814196781 0 0.34258405725730701 0.4444034294386992 0 0.38707855792647411 0.42299362914874578 0 0.35221190152536241 0.40457127605439203 0 0.34258405725730701 0.4444034294386992 0 0.38083244760691543 0.38531983672244652 0 0.38707855792647411 0.42299362914874578 0 0.35221190152536241 0.40457127605439203 0 0.38083244760691543 0.38531983672244652 0 0.33277555741076909 0.36432196682010132 0 0.35221190152536241 0.40457127605439203 0 0.3908716102680424 0.47010282357248828 0 0.35024835142131061 0.48654922671676981 0 0.38244435121258652 0.51653317813019495 0 0.3908716102680424 0.47010282357248828 0 0.35024835142131061 0.48654922671676981 0 0.34258405725730701 0.4444034294386992 0 0.38707855792647411 0.42299362914874578 0 0.3908716102680424 0.47010282357248828 0 0.34258405725730701 0.4444034294386992 0 0.29124338931648802 0.43334555462578611 0 0.34258405725730701 0.4444034294386992 0 0.31068898841644388 0.47541502461811092 0 0.35024835142131061 0.48654922671676981 0 0.31068898841644388 0.47541502461811092 0 0.33190227185843768 0.52715113583864037 0 0.35024835142131061 0.48654922671676981 0 0.34258405725730701 0.4444034294386992 0 0.31068898841644388 0.47541502461811092 0 0.31068898841644388 0.47541502461811092 0 0.25982634974572738 0.46097799597715272 0 0.28307294598219601 0.50789252727458634 0 0.29124338931648802 0.43334555462578611 0 0.31068898841644388 0.47541502461811092 0 0.25982634974572738 0.46097799597715272 0 0.25982634974572738 0.46097799597715272 0 0.23975172658309729 0.49475499200540818 0 0.28307294598219601 0.50789252727458634 0 0.23975172658309729 0.49475499200540818 0 0.19604738184454831 0.47787523520405789 0 0.22278230690790279 0.44824268025881547 0 0.19604738184454831 0.47787523520405789 0 0.22278230690790279 0.44824268025881547 0 0.191953871957803 0.42546416763755879 0 0.25982634974572738 0.46097799597715272 0 0.22278230690790279 0.44824268025881547 0 0.24049127783545701 0.41270748208749802 0 0.25982634974572738 0.46097799597715272 0 0.23975172658309729 0.49475499200540818 0 0.22278230690790279 0.44824268025881547 0 0.27866744612395528 0.38416094670951489 0 0.24049127783545701 0.41270748208749802 0 0.22033343844674469 0.36963382230740238 0 0.191953871957803 0.42546416763755879 0 0.1650278706801647 0.38791388161335733 0 0.22033343844674469 0.36963382230740238 0 0.24049127783545701 0.41270748208749802 0 0.191953871957803 0.42546416763755879 0 0.22033343844674469 0.36963382230740238 0 0.22278230690790279 0.44824268025881547 0 0.24049127783545701 0.41270748208749802 0 0.191953871957803 0.42546416763755879 0 0.191953871957803 0.42546416763755879 0 0.13773355295499351 0.42497777642586831 0 0.15801167086041079 0.46008690540259539 0 0.191953871957803 0.42546416763755879 0 0.1650278706801647 0.38791388161335733 0 0.13773355295499351 0.42497777642586831 0 0.1650278706801647 0.38791388161335733 0 0.13773355295499351 0.42497777642586831 0 0.1117088112799664 0.38831403004970022 0 0.13773355295499351 0.42497777642586831 0 0.15801167086041079 0.46008690540259539 0 0.113541300460994 0.46208784312094731 0 0.15801167086041079 0.46008690540259539 0 0.113541300460994 0.46208784312094731 0 0.1216098864341134 0.50637075089503902 0 0.15801167086041079 0.46008690540259539 0 0.1216098864341134 0.50637075089503902 0 0.16618607197337229 0.50652878253548905 0 0.19604738184454831 0.47787523520405789 0 0.15801167086041079 0.46008690540259539 0 0.16618607197337229 0.50652878253548905 0 0.19604738184454831 0.47787523520405789 0 0.191953871957803 0.42546416763755879 0 0.15801167086041079 0.46008690540259539 0 0.25195515620380449 0.25883339815888678 0 0.21049769590865089 0.26857363548218488 0 0.24432083401701241 0.3006253385567515 0 0.21049769590865089 0.26857363548218488 0 0.24432083401701241 0.3006253385567515 0 0.19670163708476801 0.31472518408333222 0 0.21049769590865089 0.26857363548218488 0 0.19670163708476801 0.31472518408333222 0 0.168349569971391 0.28054490850913671 0 0.19670163708476801 0.31472518408333222 0 0.22615676742807109 0.33458786033114157 0 0.18434624290945251 0.35208838264196463 0 0.24432083401701241 0.3006253385567515 0 0.19670163708476801 0.31472518408333222 0 0.22615676742807109 0.33458786033114157 0 0.25966125648670141 0.34351016742083729 0 0.24432083401701241 0.3006253385567515 0 0.22615676742807109 0.33458786033114157 0 0.25966125648670141 0.34351016742083729 0 0.22615676742807109 0.33458786033114157 0 0.22033343844674469 0.36963382230740238 0 0.22615676742807109 0.33458786033114157 0 0.22033343844674469 0.36963382230740238 0 0.18434624290945251 0.35208838264196463 0 0.1650278706801647 0.38791388161335733 0 0.22033343844674469 0.36963382230740238 0 0.18434624290945251 0.35208838264196463 0 0.1650278706801647 0.38791388161335733 0 0.18434624290945251 0.35208838264196463 0 0.14223753364722069 0.3341983344262433 0 0.1650278706801647 0.38791388161335733 0 0.14223753364722069 0.3341983344262433 0 0.1117088112799664 0.38831403004970022 0 0.19670163708476801 0.31472518408333222 0 0.18434624290945251 0.35208838264196463 0 0.14223753364722069 0.3341983344262433 0 0.19670163708476801 0.31472518408333222 0 0.14223753364722069 0.3341983344262433 0 0.168349569971391 0.28054490850913671 0 0.14223753364722069 0.3341983344262433 0 0.168349569971391 0.28054490850913671 0 0.1247745017231483 0.27198077544791172 0 0.14377654328998779 0.2442024734791064 0 0.168349569971391 0.28054490850913671 0 0.1247745017231483 0.27198077544791172 0 0.17933913398461551 0.2350063570234002 0 0.21049769590865089 0.26857363548218488 0 0.168349569971391 0.28054490850913671 0 0.17933913398461551 0.2350063570234002 0 0.14377654328998779 0.2442024734791064 0 0.168349569971391 0.28054490850913671 0 0.095326043202144745 0.24554465089224409 0 0.093851963071650835 0.30582068233324772 0 0.049706944316556423 0.27522722923869108 0 0.095326043202144745 0.24554465089224409 0 0.14377654328998779 0.2442024734791064 0 0.1247745017231483 0.27198077544791172 0 0.095326043202144745 0.24554465089224409 0 0.1247745017231483 0.27198077544791172 0 0.093851963071650835 0.30582068233324772 0 0.14223753364722069 0.3341983344262433 0 0.1247745017231483 0.27198077544791172 0 0.093851963071650835 0.30582068233324772 0 0.093851963071650835 0.30582068233324772 0 0.046389130980076937 0.32668781832131749 0 0.049706944316556423 0.27522722923869108 0 0.093851963071650835 0.30582068233324772 0 0.087545339447545459 0.35122518864182262 0 0.046389130980076937 0.32668781832131749 0 0.14223753364722069 0.3341983344262433 0 0.093851963071650835 0.30582068233324772 0 0.087545339447545459 0.35122518864182262 0 0.14223753364722069 0.3341983344262433 0 0.087545339447545459 0.35122518864182262 0 0.1117088112799664 0.38831403004970022 0 0.087545339447545459 0.35122518864182262 0 0.1117088112799664 0.38831403004970022 0 0.050583896093752537 0.38543522283434112 0 0.087545339447545459 0.35122518864182262 0 0.046389130980076937 0.32668781832131749 0 0.050583896093752537 0.38543522283434112 0 0 0.35000000000145642 0 0.046389130980076937 0.32668781832131749 0 0.050583896093752537 0.38543522283434112 0 0 0.35000000000145642 0 0.046389130980076937 0.32668781832131749 0 0 0.30000000000124832 0 0.046389130980076937 0.32668781832131749 0 0 0.30000000000124832 0 0.049706944316556423 0.27522722923869108 0 0 0.30000000000124832 0 0 0.25000000000104028 0 0.049706944316556423 0.27522722923869108 0 0.044081577119474857 0.2271058242433576 0 0 0.25000000000104028 0 0.049706944316556423 0.27522722923869108 0 0.068743045408989428 0.48853989837882689 0 0.113541300460994 0.46208784312094731 0 0.078358742472063481 0.43365249433908948 0 0.068743045408989428 0.48853989837882689 0 0.113541300460994 0.46208784312094731 0 0.1216098864341134 0.50637075089503902 0 0.13773355295499351 0.42497777642586831 0 0.113541300460994 0.46208784312094731 0 0.078358742472063481 0.43365249433908948 0 0.13773355295499351 0.42497777642586831 0 0.1117088112799664 0.38831403004970022 0 0.078358742472063481 0.43365249433908948 0 0.1117088112799664 0.38831403004970022 0 0.078358742472063481 0.43365249433908948 0 0.050583896093752537 0.38543522283434112 0 0.078358742472063481 0.43365249433908948 0 0.035463093262830522 0.42673416072819947 0 0.050583896093752537 0.38543522283434112 0 0 0.35000000000145642 0 0.050583896093752537 0.38543522283434112 0 0 0.40000000000166441 0 0.035463093262830522 0.42673416072819947 0 0.050583896093752537 0.38543522283434112 0 0 0.40000000000166441 0 0.035463093262830522 0.42673416072819947 0 0 0.40000000000166441 0 0 0.45000000000187229 0 0.035463093262830522 0.42673416072819947 0 0 0.45000000000187229 0 0.033550201249889847 0.46247875832467239 0 0.068743045408989428 0.48853989837882689 0 0.033550201249889847 0.46247875832467239 0 0 0.50000000000205869 0 0.068743045408989428 0.48853989837882689 0 0.078358742472063481 0.43365249433908948 0 0.033550201249889847 0.46247875832467239 0 0.078358742472063481 0.43365249433908948 0 0.035463093262830522 0.42673416072819947 0 0.033550201249889847 0.46247875832467239 0 0 0.45000000000187229 0 0.033550201249889847 0.46247875832467239 0 0 0.50000000000205869 0 0.068743045408989428 0.48853989837882689 0 0 0.50000000000205869 0 0.044576108720083309 0.53509043209532614 0 0 0.50000000000205869 0 0 0.55000000000173355 0 0.044576108720083309 0.53509043209532614 0 0 0.55000000000173355 0 0.044576108720083309 0.53509043209532614 0 0.034381862692950467 0.57372682250960894 0 0.044576108720083309 0.53509043209532614 0 0.077693244765132896 0.56932317963405099 0 0.034381862692950467 0.57372682250960894 0 0.068743045408989428 0.48853989837882689 0 0.044576108720083309 0.53509043209532614 0 0.085622222639554768 0.53333248912060549 0 0.068743045408989428 0.48853989837882689 0 0.085622222639554768 0.53333248912060549 0 0.1216098864341134 0.50637075089503902 0 0.044576108720083309 0.53509043209532614 0 0.085622222639554768 0.53333248912060549 0 0.077693244765132896 0.56932317963405099 0 0.085622222639554768 0.53333248912060549 0 0.1154888278694548 0.56733818459978413 0 0.077693244765132896 0.56932317963405099 0 0.085622222639554768 0.53333248912060549 0 0.1216098864341134 0.50637075089503902 0 0.1154888278694548 0.56733818459978413 0 0.1024350934457823 0.60772393977513839 0 0.1154888278694548 0.56733818459978413 0 0.077693244765132896 0.56932317963405099 0 0.1024350934457823 0.60772393977513839 0 0.050069554451969707 0.61308520079857043 0 0.086179601630648681 0.64647209519980475 0 0.1024350934457823 0.60772393977513839 0 0.077693244765132896 0.56932317963405099 0 0.050069554451969707 0.61308520079857043 0 0.077693244765132896 0.56932317963405099 0 0.050069554451969707 0.61308520079857043 0 0.034381862692950467 0.57372682250960894 0 0 0.55000000000173355 0 0.034381862692950467 0.57372682250960894 0 0 0.60000000000138687 0 0.050069554451969707 0.61308520079857043 0 0 0.60000000000138687 0 0 0.65000000000104008 0 0.050069554451969707 0.61308520079857043 0 0.034381862692950467 0.57372682250960894 0 0 0.60000000000138687 0 0 0.65000000000104008 0 0.046634677244967337 0.671418230738282 0 0 0.7000000000006934 0 0.050069554451969707 0.61308520079857043 0 0.046634677244967337 0.671418230738282 0 0.086179601630648681 0.64647209519980475 0 0.050069554451969707 0.61308520079857043 0 0 0.65000000000104008 0 0.046634677244967337 0.671418230738282 0 0 0.7000000000006934 0 0.049706944316475897 0.72477277076253799 0 0 0.75000000000034661 0 0.046634677244967337 0.671418230738282 0 0 0.7000000000006934 0 0.049706944316475897 0.72477277076253799 0 0.049706944316475897 0.72477277076253799 0 0 0.75000000000034661 0 0.04408157711937423 0.7728941757575627 0 0.049706944316475897 0.72477277076253799 0 0.1020579365089687 0.69352219419301997 0 0.090953281884486245 0.7564451946902494 0 0.1020579365089687 0.69352219419301997 0 0.1215415378367805 0.72939333680004137 0 0.090953281884486245 0.7564451946902494 0 0.046634677244967337 0.671418230738282 0 0.049706944316475897 0.72477277076253799 0 0.1020579365089687 0.69352219419301997 0 0.1215415378367805 0.72939333680004137 0 0.090953281884486245 0.7564451946902494 0 0.14335651144331049 0.75565258250209677 0 0.046634677244967337 0.671418230738282 0 0.1020579365089687 0.69352219419301997 0 0.086179601630648681 0.64647209519980475 0 0.1020579365089687 0.69352219419301997 0 0.086179601630648681 0.64647209519980475 0 0.1241190223511371 0.64391885572885044 0 0.1024350934457823 0.60772393977513839 0 0.086179601630648681 0.64647209519980475 0 0.1241190223511371 0.64391885572885044 0 0.1020579365089687 0.69352219419301997 0 0.1241190223511371 0.64391885572885044 0 0.16500388252850301 0.66612077714085194 0 0.1241190223511371 0.64391885572885044 0 0.16500388252850301 0.66612077714085194 0 0.15720202157091859 0.60665697304410315 0 0.16500388252850301 0.66612077714085194 0 0.19914261668318661 0.62286739485272158 0 0.15720202157091859 0.60665697304410315 0 0.1020579365089687 0.69352219419301997 0 0.16500388252850301 0.66612077714085194 0 0.15332765547575641 0.71200081858233666 0 0.1215415378367805 0.72939333680004137 0 0.15332765547575641 0.71200081858233666 0 0.14335651144331049 0.75565258250209677 0 0.1020579365089687 0.69352219419301997 0 0.1215415378367805 0.72939333680004137 0 0.15332765547575641 0.71200081858233666 0 0.16500388252850301 0.66612077714085194 0 0.15332765547575641 0.71200081858233666 0 0.19068556247388771 0.71028988922845504 0 0.15332765547575641 0.71200081858233666 0 0.14335651144331049 0.75565258250209677 0 0.18269480424590959 0.75905448272264375 0 0.15332765547575641 0.71200081858233666 0 0.19068556247388771 0.71028988922845504 0 0.18269480424590959 0.75905448272264375 0 0.19068556247388771 0.71028988922845504 0 0.2248999640082178 0.72584299459689172 0 0.18269480424590959 0.75905448272264375 0 0.19068556247388771 0.71028988922845504 0 0.2248999640082178 0.72584299459689172 0 0.2236846579037573 0.67380363126050236 0 0.2248999640082178 0.72584299459689172 0 0.2236846579037573 0.67380363126050236 0 0.26439878998046262 0.7048065392091396 0 0.2248999640082178 0.72584299459689172 0 0.22556077506376701 0.77837424984191617 0 0.25676291524611189 0.7436741304886243 0 0.2248999640082178 0.72584299459689172 0 0.25676291524611189 0.7436741304886243 0 0.26439878998046262 0.7048065392091396 0 0.16500388252850301 0.66612077714085194 0 0.2236846579037573 0.67380363126050236 0 0.19914261668318661 0.62286739485272158 0 0.16500388252850301 0.66612077714085194 0 0.19068556247388771 0.71028988922845504 0 0.2236846579037573 0.67380363126050236 0 0.2236846579037573 0.67380363126050236 0 0.2459498854893499 0.63248470766216769 0 0.19914261668318661 0.62286739485272158 0 0.2236846579037573 0.67380363126050236 0 0.2459498854893499 0.63248470766216769 0 0.27820712747429932 0.65530134213254643 0 0.2459498854893499 0.63248470766216769 0 0.19914261668318661 0.62286739485272158 0 0.22549374774072969 0.58452645269293457 0 0.2459498854893499 0.63248470766216769 0 0.22549374774072969 0.58452645269293457 0 0.26573297623774761 0.59828298563722948 0 0.19914261668318661 0.62286739485272158 0 0.22549374774072969 0.58452645269293457 0 0.18381867841758909 0.57774125163628387 0 0.22549374774072969 0.58452645269293457 0 0.20050006573841939 0.53248514016039872 0 0.18381867841758909 0.57774125163628387 0 0.22549374774072969 0.58452645269293457 0 0.25115337790845271 0.54719303014923271 0 0.26573297623774761 0.59828298563722948 0 0.22549374774072969 0.58452645269293457 0 0.20050006573841939 0.53248514016039872 0 0.25115337790845271 0.54719303014923271 0 0.23975172658309729 0.49475499200540818 0 0.20050006573841939 0.53248514016039872 0 0.25115337790845271 0.54719303014923271 0 0.19604738184454831 0.47787523520405789 0 0.20050006573841939 0.53248514016039872 0 0.16618607197337229 0.50652878253548905 0 0.23975172658309729 0.49475499200540818 0 0.19604738184454831 0.47787523520405789 0 0.20050006573841939 0.53248514016039872 0 0.20050006573841939 0.53248514016039872 0 0.14934928745814749 0.55042914607228977 0 0.18381867841758909 0.57774125163628387 0 0.20050006573841939 0.53248514016039872 0 0.16618607197337229 0.50652878253548905 0 0.14934928745814749 0.55042914607228977 0 0.1216098864341134 0.50637075089503902 0 0.16618607197337229 0.50652878253548905 0 0.14934928745814749 0.55042914607228977 0 0.1216098864341134 0.50637075089503902 0 0.1154888278694548 0.56733818459978413 0 0.14934928745814749 0.55042914607228977 0 0.1154888278694548 0.56733818459978413 0 0.14934928745814749 0.55042914607228977 0 0.15720202157091859 0.60665697304410315 0 0.1024350934457823 0.60772393977513839 0 0.1154888278694548 0.56733818459978413 0 0.15720202157091859 0.60665697304410315 0 0.1024350934457823 0.60772393977513839 0 0.1241190223511371 0.64391885572885044 0 0.15720202157091859 0.60665697304410315 0 0.19914261668318661 0.62286739485272158 0 0.15720202157091859 0.60665697304410315 0 0.18381867841758909 0.57774125163628387 0 0.14934928745814749 0.55042914607228977 0 0.15720202157091859 0.60665697304410315 0 0.18381867841758909 0.57774125163628387 0 0.10000000000041601 1 0 0.10266856499240549 0.95548163909968886 0 0.15000000000062411 1 0 0.10266856499240549 0.95548163909968886 0 0.053064897599294662 0.95186845269532028 0 0.083411279318375747 0.91030024466934134 0 0.10000000000041601 1 0 0.050000000000207989 1 0 0.053064897599294662 0.95186845269532028 0 0.10000000000041601 1 0 0.10266856499240549 0.95548163909968886 0 0.053064897599294662 0.95186845269532028 0 0.050000000000207989 1 0 0.025766224399875661 0.97546711317377799 0 0.053064897599294662 0.95186845269532028 0 0.050000000000207989 1 0 0 1 0 0.025766224399875661 0.97546711317377799 0 0 1 0 0.025766224399875661 0.97546711317377799 0 0 0.94999999999979179 0 0.025766224399875661 0.97546711317377799 0 0 0.94999999999979179 0 0.053064897599294662 0.95186845269532028 0 0 0.94999999999979179 0 0.053064897599294662 0.95186845269532028 0 0.0443105827531413 0.89858748162559932 0 0.053064897599294662 0.95186845269532028 0 0.0443105827531413 0.89858748162559932 0 0.083411279318375747 0.91030024466934134 0 0 0.94999999999979179 0 0 0.89999999999958358 0 0.0443105827531413 0.89858748162559932 0 0 0.89999999999958358 0 0.0443105827531413 0.89858748162559932 0 0 0.84999999999965292 0 0.0443105827531413 0.89858748162559932 0 0.083411279318375747 0.91030024466934134 0 0.065374659239661639 0.8551091961254178 0 0.083411279318375747 0.91030024466934134 0 0.10562472963403439 0.87143394428979881 0 0.065374659239661639 0.8551091961254178 0 0.10266856499240549 0.95548163909968886 0 0.083411279318375747 0.91030024466934134 0 0.1241151115713819 0.9045666525468371 0 0.10266856499240549 0.95548163909968886 0 0.1241151115713819 0.9045666525468371 0 0.14617343800780541 0.93808063414349496 0 0.1241151115713819 0.9045666525468371 0 0.10562472963403439 0.87143394428979881 0 0.14474682429600511 0.85524784522713515 0 0.083411279318375747 0.91030024466934134 0 0.1241151115713819 0.9045666525468371 0 0.10562472963403439 0.87143394428979881 0 0.10562472963403439 0.87143394428979881 0 0.1074251789111534 0.83564394292147814 0 0.14474682429600511 0.85524784522713515 0 0.1074251789111534 0.83564394292147814 0 0.065374659239661639 0.8551091961254178 0 0.083105206071452636 0.79992298667296435 0 0.10562472963403439 0.87143394428979881 0 0.1074251789111534 0.83564394292147814 0 0.065374659239661639 0.8551091961254178 0 0.065374659239661639 0.8551091961254178 0 0 0.84999999999965292 0 0.038512288486097702 0.8155852717111195 0 0.0443105827531413 0.89858748162559932 0 0.065374659239661639 0.8551091961254178 0 0 0.84999999999965292 0 0 0.84999999999965292 0 0.038512288486097702 0.8155852717111195 0 0 0.79999999999999982 0 0.065374659239661639 0.8551091961254178 0 0.038512288486097702 0.8155852717111195 0 0.083105206071452636 0.79992298667296435 0 0.038512288486097702 0.8155852717111195 0 0.04408157711937423 0.7728941757575627 0 0.083105206071452636 0.79992298667296435 0 0.038512288486097702 0.8155852717111195 0 0 0.79999999999999982 0 0.04408157711937423 0.7728941757575627 0 0 0.79999999999999982 0 0 0.75000000000034661 0 0.04408157711937423 0.7728941757575627 0 0.049706944316475897 0.72477277076253799 0 0.04408157711937423 0.7728941757575627 0 0.090953281884486245 0.7564451946902494 0 0.04408157711937423 0.7728941757575627 0 0.090953281884486245 0.7564451946902494 0 0.083105206071452636 0.79992298667296435 0 0.1074251789111534 0.83564394292147814 0 0.083105206071452636 0.79992298667296435 0 0.1382744753146134 0.79650574229207483 0 0.090953281884486245 0.7564451946902494 0 0.083105206071452636 0.79992298667296435 0 0.1382744753146134 0.79650574229207483 0 0.090953281884486245 0.7564451946902494 0 0.14335651144331049 0.75565258250209677 0 0.1382744753146134 0.79650574229207483 0 0.14335651144331049 0.75565258250209677 0 0.1382744753146134 0.79650574229207483 0 0.18269480424590959 0.75905448272264375 0 0.1382744753146134 0.79650574229207483 0 0.18269480424590959 0.75905448272264375 0 0.17777405986036951 0.81832336108265358 0 0.2248999640082178 0.72584299459689172 0 0.18269480424590959 0.75905448272264375 0 0.22556077506376701 0.77837424984191617 0 0.22556077506376701 0.77837424984191617 0 0.21858834311891909 0.81980263716112767 0 0.26104540868854792 0.81401944968719064 0 0.22556077506376701 0.77837424984191617 0 0.21858834311891909 0.81980263716112767 0 0.17777405986036951 0.81832336108265358 0 0.18269480424590959 0.75905448272264375 0 0.22556077506376701 0.77837424984191617 0 0.17777405986036951 0.81832336108265358 0 0.21858834311891909 0.81980263716112767 0 0.19741632902693801 0.86755867406447229 0 0.17777405986036951 0.81832336108265358 0 0.21858834311891909 0.81980263716112767 0 0.2401283238295133 0.85648409884788523 0 0.26104540868854792 0.81401944968719064 0 0.21858834311891909 0.81980263716112767 0 0.2401283238295133 0.85648409884788523 0 0.19741632902693801 0.86755867406447229 0 0.19741632902693801 0.86755867406447229 0 0.17777405986036951 0.81832336108265358 0 0.14474682429600511 0.85524784522713515 0 0.19741632902693801 0.86755867406447229 0 0.14474682429600511 0.85524784522713515 0 0.16206583317966519 0.89685560785156404 0 0.1382744753146134 0.79650574229207483 0 0.17777405986036951 0.81832336108265358 0 0.14474682429600511 0.85524784522713515 0 0.1074251789111534 0.83564394292147814 0 0.1382744753146134 0.79650574229207483 0 0.14474682429600511 0.85524784522713515 0 0.1241151115713819 0.9045666525468371 0 0.14474682429600511 0.85524784522713515 0 0.16206583317966519 0.89685560785156404 0 0.1241151115713819 0.9045666525468371 0 0.16206583317966519 0.89685560785156404 0 0.14617343800780541 0.93808063414349496 0 0.16206583317966519 0.89685560785156404 0 0.19901705110390991 0.9175543425573498 0 0.14617343800780541 0.93808063414349496 0 0.19741632902693801 0.86755867406447229 0 0.16206583317966519 0.89685560785156404 0 0.19901705110390991 0.9175543425573498 0 0.19741632902693801 0.86755867406447229 0 0.24536017905392571 0.90704567837671446 0 0.19901705110390991 0.9175543425573498 0 0.2401283238295133 0.85648409884788523 0 0.19741632902693801 0.86755867406447229 0 0.24536017905392571 0.90704567837671446 0 0.24536017905392571 0.90704567837671446 0 0.19901705110390991 0.9175543425573498 0 0.22850979588452081 0.95594428570238643 0 0.19901705110390991 0.9175543425573498 0 0.22850979588452081 0.95594428570238643 0 0.18474005699953849 0.96231585248064622 0 0.24536017905392571 0.90704567837671446 0 0.22850979588452081 0.95594428570238643 0 0.27609987656793722 0.94991445621608572 0 0.22850979588452081 0.95594428570238643 0 0.20000000000083221 1 0 0.25000000000104028 1 0 0.22850979588452081 0.95594428570238643 0 0.20000000000083221 1 0 0.18474005699953849 0.96231585248064622 0 0.20000000000083221 1 0 0.18474005699953849 0.96231585248064622 0 0.15000000000062411 1 0 0.19901705110390991 0.9175543425573498 0 0.18474005699953849 0.96231585248064622 0 0.14617343800780541 0.93808063414349496 0 0.18474005699953849 0.96231585248064622 0 0.14617343800780541 0.93808063414349496 0 0.15000000000062411 1 0 0.10266856499240549 0.95548163909968886 0 0.14617343800780541 0.93808063414349496 0 0.15000000000062411 1 0 0.35000000000145642 1 0 0.36184234618600131 0.96443954459096326 0 0.32544832635163229 0.95485394099568932 0 0.35000000000145642 1 0 0.36184234618600131 0.96443954459096326 0 0.40000000000166441 1 0 0.36184234618600131 0.96443954459096326 0 0.32544832635163229 0.95485394099568932 0 0.35752321586431363 0.9185439911803448 0 0.36184234618600131 0.96443954459096326 0 0.35752321586431363 0.9185439911803448 0 0.39641108128798319 0.94356127926187128 0 0.35000000000145642 1 0 0.32544832635163229 0.95485394099568932 0 0.30000000000124832 1 0 0.30000000000124832 1 0 0.25000000000104028 1 0 0.27609987656793722 0.94991445621608572 0 0.22850979588452081 0.95594428570238643 0 0.25000000000104028 1 0 0.27609987656793722 0.94991445621608572 0 0.32544832635163229 0.95485394099568932 0 0.30000000000124832 1 0 0.27609987656793722 0.94991445621608572 0 0.32544832635163229 0.95485394099568932 0 0.27609987656793722 0.94991445621608572 0 0.30864387279288652 0.89906554525974958 0 0.24536017905392571 0.90704567837671446 0 0.27270076654418179 0.87751467830216623 0 0.30864387279288652 0.89906554525974958 0 0.24536017905392571 0.90704567837671446 0 0.27609987656793722 0.94991445621608572 0 0.30864387279288652 0.89906554525974958 0 0.2401283238295133 0.85648409884788523 0 0.24536017905392571 0.90704567837671446 0 0.27270076654418179 0.87751467830216623 0 0.30864387279288652 0.89906554525974958 0 0.35752321586431363 0.9185439911803448 0 0.35864759629805099 0.87963482415279515 0 0.32544832635163229 0.95485394099568932 0 0.30864387279288652 0.89906554525974958 0 0.35752321586431363 0.9185439911803448 0 0.35752321586431363 0.9185439911803448 0 0.35864759629805099 0.87963482415279515 0 0.39767323751400468 0.89584229130535065 0 0.35864759629805099 0.87963482415279515 0 0.33403534827021109 0.84402799729020661 0 0.39536230704883951 0.84069429572832477 0 0.33403534827021109 0.84402799729020661 0 0.35642984951668422 0.80994399665655703 0 0.39536230704883951 0.84069429572832477 0 0.33403534827021109 0.84402799729020661 0 0.30857225866488791 0.81101973481716805 0 0.35642984951668422 0.80994399665655703 0 0.30864387279288652 0.89906554525974958 0 0.35864759629805099 0.87963482415279515 0 0.33403534827021109 0.84402799729020661 0 0.30864387279288652 0.89906554525974958 0 0.33403534827021109 0.84402799729020661 0 0.29209212897034281 0.84715728365233667 0 0.27270076654418179 0.87751467830216623 0 0.30864387279288652 0.89906554525974958 0 0.29209212897034281 0.84715728365233667 0 0.2401283238295133 0.85648409884788523 0 0.27270076654418179 0.87751467830216623 0 0.29209212897034281 0.84715728365233667 0 0.2401283238295133 0.85648409884788523 0 0.29209212897034281 0.84715728365233667 0 0.26104540868854792 0.81401944968719064 0 0.29209212897034281 0.84715728365233667 0 0.26104540868854792 0.81401944968719064 0 0.30857225866488791 0.81101973481716805 0 0.33403534827021109 0.84402799729020661 0 0.29209212897034281 0.84715728365233667 0 0.30857225866488791 0.81101973481716805 0 0.26104540868854792 0.81401944968719064 0 0.30857225866488791 0.81101973481716805 0 0.2792923945214143 0.77665808831789485 0 0.30857225866488791 0.81101973481716805 0 0.2792923945214143 0.77665808831789485 0 0.33123028043633618 0.77629643437932982 0 0.22556077506376701 0.77837424984191617 0 0.26104540868854792 0.81401944968719064 0 0.2792923945214143 0.77665808831789485 0 0.2792923945214143 0.77665808831789485 0 0.25676291524611189 0.7436741304886243 0 0.29904318922293632 0.74132814928635593 0 0.22556077506376701 0.77837424984191617 0 0.2792923945214143 0.77665808831789485 0 0.25676291524611189 0.7436741304886243 0 0.2792923945214143 0.77665808831789485 0 0.33123028043633618 0.77629643437932982 0 0.29904318922293632 0.74132814928635593 0 0.33123028043633618 0.77629643437932982 0 0.29904318922293632 0.74132814928635593 0 0.35415581127540569 0.73730480045900215 0 0.30857225866488791 0.81101973481716805 0 0.33123028043633618 0.77629643437932982 0 0.35642984951668422 0.80994399665655703 0 0.33123028043633618 0.77629643437932982 0 0.35642984951668422 0.80994399665655703 0 0.38586766253264881 0.78219501014812498 0 0.33123028043633618 0.77629643437932982 0 0.38586766253264881 0.78219501014812498 0 0.35415581127540569 0.73730480045900215 0 0.38586766253264881 0.78219501014812498 0 0.42676259796334498 0.76772545931379299 0 0.40326160981139969 0.73346192995102844 0 0.38586766253264881 0.78219501014812498 0 0.35415581127540569 0.73730480045900215 0 0.40326160981139969 0.73346192995102844 0 0.38586766253264881 0.78219501014812498 0 0.42609163930740518 0.80361684430568059 0 0.39536230704883951 0.84069429572832477 0 0.35642984951668422 0.80994399665655703 0 0.38586766253264881 0.78219501014812498 0 0.39536230704883951 0.84069429572832477 0 0.38586766253264881 0.78219501014812498 0 0.42609163930740518 0.80361684430568059 0 0.42676259796334498 0.76772545931379299 0 0.42676259796334498 0.76772545931379299 0 0.4656888918609538 0.78493261229743638 0 0.45582236402875981 0.73896743678908217 0 0.4656888918609538 0.78493261229743638 0 0.45582236402875981 0.73896743678908217 0 0.50945740445113552 0.75476055527778108 0 0.4656888918609538 0.78493261229743638 0 0.50731287292894423 0.78963574450233831 0 0.50945740445113552 0.75476055527778108 0 0.4656888918609538 0.78493261229743638 0 0.50627822638148745 0.8263979829520941 0 0.50731287292894423 0.78963574450233831 0 0.42609163930740518 0.80361684430568059 0 0.4656888918609538 0.78493261229743638 0 0.45677673713123867 0.84253684404072415 0 0.42609163930740518 0.80361684430568059 0 0.42676259796334498 0.76772545931379299 0 0.4656888918609538 0.78493261229743638 0 0.4656888918609538 0.78493261229743638 0 0.45677673713123867 0.84253684404072415 0 0.50627822638148745 0.8263979829520941 0 0.45677673713123867 0.84253684404072415 0 0.50202631463681879 0.87892870825713787 0 0.50627822638148745 0.8263979829520941 0 0.45677673713123867 0.84253684404072415 0 0.44003836461056539 0.88093474584252718 0 0.50202631463681879 0.87892870825713787 0 0.45677673713123867 0.84253684404072415 0 0.39536230704883951 0.84069429572832477 0 0.44003836461056539 0.88093474584252718 0 0.39536230704883951 0.84069429572832477 0 0.39767323751400468 0.89584229130535065 0 0.44003836461056539 0.88093474584252718 0 0.42609163930740518 0.80361684430568059 0 0.45677673713123867 0.84253684404072415 0 0.39536230704883951 0.84069429572832477 0 0.35864759629805099 0.87963482415279515 0 0.39536230704883951 0.84069429572832477 0 0.39767323751400468 0.89584229130535065 0 0.35752321586431363 0.9185439911803448 0 0.39767323751400468 0.89584229130535065 0 0.39641108128798319 0.94356127926187128 0 0.39767323751400468 0.89584229130535065 0 0.4367309254023824 0.92065556789053882 0 0.39641108128798319 0.94356127926187128 0 0.39767323751400468 0.89584229130535065 0 0.4367309254023824 0.92065556789053882 0 0.44003836461056539 0.88093474584252718 0 0.4367309254023824 0.92065556789053882 0 0.44003836461056539 0.88093474584252718 0 0.47401147028110507 0.91529957330468115 0 0.44003836461056539 0.88093474584252718 0 0.47401147028110507 0.91529957330468115 0 0.50202631463681879 0.87892870825713787 0 0.47401147028110507 0.91529957330468115 0 0.47135117303824892 0.95556877749289892 0 0.52122150208832174 0.94089974453840242 0 0.47401147028110507 0.91529957330468115 0 0.52122150208832174 0.94089974453840242 0 0.50202631463681879 0.87892870825713787 0 0.4367309254023824 0.92065556789053882 0 0.47401147028110507 0.91529957330468115 0 0.47135117303824892 0.95556877749289892 0 0.4367309254023824 0.92065556789053882 0 0.47135117303824892 0.95556877749289892 0 0.4308986359464303 0.96395712492906194 0 0.47135117303824892 0.95556877749289892 0 0.50000000000205869 1 0 0.52122150208832174 0.94089974453840242 0 0.47135117303824892 0.95556877749289892 0 0.45000000000187229 1 0 0.50000000000205869 1 0 0.47135117303824892 0.95556877749289892 0 0.45000000000187229 1 0 0.4308986359464303 0.96395712492906194 0 0.45000000000187229 1 0 0.4308986359464303 0.96395712492906194 0 0.40000000000166441 1 0 0.4308986359464303 0.96395712492906194 0 0.39641108128798319 0.94356127926187128 0 0.40000000000166441 1 0 0.4367309254023824 0.92065556789053882 0 0.4308986359464303 0.96395712492906194 0 0.39641108128798319 0.94356127926187128 0 0.36184234618600131 0.96443954459096326 0 0.39641108128798319 0.94356127926187128 0 0.40000000000166441 1 0 0.33122374654748771 0.57588941099433744 0 0.31502927232353312 0.6134992213375432 0 0.35765792684946668 0.6000687869219653 0 0.31502927232353312 0.6134992213375432 0 0.35765792684946668 0.6000687869219653 0 0.35864735590330371 0.63903383440414463 0 0.35765792684946668 0.6000687869219653 0 0.35864735590330371 0.63903383440414463 0 0.39743091024207589 0.6239520004230239 0 0.33122374654748771 0.57588941099433744 0 0.35765792684946668 0.6000687869219653 0 0.37272913873093971 0.56192925302619479 0 0.37272913873093971 0.56192925302619479 0 0.33190227185843768 0.52715113583864037 0 0.38244435121258652 0.51653317813019495 0 0.33122374654748771 0.57588941099433744 0 0.37272913873093971 0.56192925302619479 0 0.33190227185843768 0.52715113583864037 0 0.35024835142131061 0.48654922671676981 0 0.33190227185843768 0.52715113583864037 0 0.38244435121258652 0.51653317813019495 0 0.33122374654748771 0.57588941099433744 0 0.33190227185843768 0.52715113583864037 0 0.29110487519241501 0.56588143995431495 0 0.33190227185843768 0.52715113583864037 0 0.28307294598219601 0.50789252727458634 0 0.29110487519241501 0.56588143995431495 0 0.31068898841644388 0.47541502461811092 0 0.33190227185843768 0.52715113583864037 0 0.28307294598219601 0.50789252727458634 0 0.23975172658309729 0.49475499200540818 0 0.28307294598219601 0.50789252727458634 0 0.25115337790845271 0.54719303014923271 0 0.28307294598219601 0.50789252727458634 0 0.25115337790845271 0.54719303014923271 0 0.29110487519241501 0.56588143995431495 0 0.25115337790845271 0.54719303014923271 0 0.29110487519241501 0.56588143995431495 0 0.26573297623774761 0.59828298563722948 0 0.33122374654748771 0.57588941099433744 0 0.31502927232353312 0.6134992213375432 0 0.29110487519241501 0.56588143995431495 0 0.31502927232353312 0.6134992213375432 0 0.29110487519241501 0.56588143995431495 0 0.26573297623774761 0.59828298563722948 0 0.31502927232353312 0.6134992213375432 0 0.26573297623774761 0.59828298563722948 0 0.27820712747429932 0.65530134213254643 0 0.2459498854893499 0.63248470766216769 0 0.26573297623774761 0.59828298563722948 0 0.27820712747429932 0.65530134213254643 0 0.2236846579037573 0.67380363126050236 0 0.27820712747429932 0.65530134213254643 0 0.26439878998046262 0.7048065392091396 0 0.27820712747429932 0.65530134213254643 0 0.31378396441836959 0.70157213313026345 0 0.32263089806001177 0.66003674931826484 0 0.27820712747429932 0.65530134213254643 0 0.26439878998046262 0.7048065392091396 0 0.31378396441836959 0.70157213313026345 0 0.31502927232353312 0.6134992213375432 0 0.27820712747429932 0.65530134213254643 0 0.32263089806001177 0.66003674931826484 0 0.25676291524611189 0.7436741304886243 0 0.26439878998046262 0.7048065392091396 0 0.29904318922293632 0.74132814928635593 0 0.26439878998046262 0.7048065392091396 0 0.29904318922293632 0.74132814928635593 0 0.31378396441836959 0.70157213313026345 0 0.29904318922293632 0.74132814928635593 0 0.31378396441836959 0.70157213313026345 0 0.35415581127540569 0.73730480045900215 0 0.31378396441836959 0.70157213313026345 0 0.36622285152418499 0.69092437780804039 0 0.35415581127540569 0.73730480045900215 0 0.36622285152418499 0.69092437780804039 0 0.35415581127540569 0.73730480045900215 0 0.40326160981139969 0.73346192995102844 0 0.31502927232353312 0.6134992213375432 0 0.32263089806001177 0.66003674931826484 0 0.35864735590330371 0.63903383440414463 0 0.31378396441836959 0.70157213313026345 0 0.36622285152418499 0.69092437780804039 0 0.32263089806001177 0.66003674931826484 0 0.36622285152418499 0.69092437780804039 0 0.32263089806001177 0.66003674931826484 0 0.35864735590330371 0.63903383440414463 0 0.36622285152418499 0.69092437780804039 0 0.35864735590330371 0.63903383440414463 0 0.3977710372045391 0.65868194622830212 0 0.35864735590330371 0.63903383440414463 0 0.3977710372045391 0.65868194622830212 0 0.39743091024207589 0.6239520004230239 0 0.36622285152418499 0.69092437780804039 0 0.3977710372045391 0.65868194622830212 0 0.43323420005758778 0.6913544522562407 0 0.3977710372045391 0.65868194622830212 0 0.43323420005758778 0.6913544522562407 0 0.43846182030517877 0.64845797726506715 0 0.43846182030517877 0.64845797726506715 0 0.43545892161006339 0.61093128915313821 0 0.39743091024207589 0.6239520004230239 0 0.3977710372045391 0.65868194622830212 0 0.43846182030517877 0.64845797726506715 0 0.39743091024207589 0.6239520004230239 0 0.36622285152418499 0.69092437780804039 0 0.40326160981139969 0.73346192995102844 0 0.43323420005758778 0.6913544522562407 0 0.40326160981139969 0.73346192995102844 0 0.43323420005758778 0.6913544522562407 0 0.45582236402875981 0.73896743678908217 0 0.42676259796334498 0.76772545931379299 0 0.40326160981139969 0.73346192995102844 0 0.45582236402875981 0.73896743678908217 0 0.43323420005758778 0.6913544522562407 0 0.45582236402875981 0.73896743678908217 0 0.5 0.69999999999999996 0 0.45582236402875981 0.73896743678908217 0 0.5 0.69999999999999996 0 0.50945740445113552 0.75476055527778108 0 0.43323420005758778 0.6913544522562407 0 0.47913475093885149 0.66010775372412711 0 0.5 0.69999999999999996 0 0.43846182030517877 0.64845797726506715 0 0.47913475093885149 0.66010775372412711 0 0.47095389620662098 0.61892551373708504 0 0.43846182030517877 0.64845797726506715 0 0.47095389620662098 0.61892551373708504 0 0.43545892161006339 0.61093128915313821 0 0.43323420005758778 0.6913544522562407 0 0.43846182030517877 0.64845797726506715 0 0.47913475093885149 0.66010775372412711 0 0.47913475093885149 0.66010775372412711 0 0.47095389620662098 0.61892551373708504 0 0.50715858906372158 0.63295939104129484 0 0.47095389620662098 0.61892551373708504 0 0.5166924242153631 0.59825134841919447 0 0.50715858906372158 0.63295939104129484 0 0.47095389620662098 0.61892551373708504 0 0.46666084890304671 0.57634471035397938 0 0.5166924242153631 0.59825134841919447 0 0.47095389620662098 0.61892551373708504 0 0.46666084890304671 0.57634471035397938 0 0.43545892161006339 0.61093128915313821 0 0.43545892161006339 0.61093128915313821 0 0.4089290844030305 0.58728915500154233 0 0.39743091024207589 0.6239520004230239 0 0.46666084890304671 0.57634471035397938 0 0.43545892161006339 0.61093128915313821 0 0.4089290844030305 0.58728915500154233 0 0.46666084890304671 0.57634471035397938 0 0.4089290844030305 0.58728915500154233 0 0.42644501560315817 0.54603747078095544 0 0.37272913873093971 0.56192925302619479 0 0.4089290844030305 0.58728915500154233 0 0.42644501560315817 0.54603747078095544 0 0.35765792684946668 0.6000687869219653 0 0.37272913873093971 0.56192925302619479 0 0.4089290844030305 0.58728915500154233 0 0.35765792684946668 0.6000687869219653 0 0.4089290844030305 0.58728915500154233 0 0.39743091024207589 0.6239520004230239 0 0.37272913873093971 0.56192925302619479 0 0.38244435121258652 0.51653317813019495 0 0.42644501560315817 0.54603747078095544 0 0.43507373378304309 0.49699695397193322 0 0.38244435121258652 0.51653317813019495 0 0.42644501560315817 0.54603747078095544 0 0.46666084890304671 0.57634471035397938 0 0.47793794143994173 0.52940715638744962 0 0.53245488764484505 0.55078124999999989 0 0.43507373378304309 0.49699695397193322 0 0.49102375406324739 0.49123754822244059 0 0.47793794143994173 0.52940715638744962 0 0.43507373378304309 0.49699695397193322 0 0.42644501560315817 0.54603747078095544 0 0.47793794143994173 0.52940715638744962 0 0.46666084890304671 0.57634471035397938 0 0.42644501560315817 0.54603747078095544 0 0.47793794143994173 0.52940715638744962 0 0.49102375406324739 0.49123754822244059 0 0.47793794143994173 0.52940715638744962 0 0.53330375813596242 0.50827942741749099 0 0.47793794143994173 0.52940715638744962 0 0.53245488764484505 0.55078124999999989 0 0.53330375813596242 0.50827942741749099 0 0.53245488764484505 0.55078124999999989 0 0.53330375813596242 0.50827942741749099 0 0.57435499076887508 0.54267261987897775 0 0.53245488764484505 0.55078124999999989 0 0.57435499076887508 0.54267261987897775 0 0.57412547362576272 0.58273804879550706 0 0.53330375813596242 0.50827942741749099 0 0.57611405284611883 0.50165903596042916 0 0.57435499076887508 0.54267261987897775 0 0.57611405284611883 0.50165903596042916 0 0.57435499076887508 0.54267261987897775 0 0.62042975506801734 0.54295974692364424 0 0.57435499076887508 0.54267261987897775 0 0.62042975506801734 0.54295974692364424 0 0.57412547362576272 0.58273804879550706 0 0.57611405284611883 0.50165903596042916 0 0.62042975506801734 0.54295974692364424 0 0.61547661924074692 0.48539576058873962 0 0.5991018319127801 0.62925360607495295 0 0.6405463747586706 0.63290524857395714 0 0.63065402604362242 0.59661356661633302 0 0.57412547362576272 0.58273804879550706 0 0.5991018319127801 0.62925360607495295 0 0.63065402604362242 0.59661356661633302 0 0.62042975506801734 0.54295974692364424 0 0.57412547362576272 0.58273804879550706 0 0.63065402604362242 0.59661356661633302 0 0.57412547362576272 0.58273804879550706 0 0.5498280205245758 0.6290146943450976 0 0.5991018319127801 0.62925360607495295 0 0.46666084890304671 0.57634471035397938 0 0.53245488764484505 0.55078124999999989 0 0.5166924242153631 0.59825134841919447 0 0.57412547362576272 0.58273804879550706 0 0.5166924242153631 0.59825134841919447 0 0.5498280205245758 0.6290146943450976 0 0.53245488764484505 0.55078124999999989 0 0.57412547362576272 0.58273804879550706 0 0.5166924242153631 0.59825134841919447 0 0.5166924242153631 0.59825134841919447 0 0.50715858906372158 0.63295939104129484 0 0.5498280205245758 0.6290146943450976 0 0.47913475093885149 0.66010775372412711 0 0.50715858906372158 0.63295939104129484 0 0.52584555706968406 0.66664215091846768 0 0.50715858906372158 0.63295939104129484 0 0.52584555706968406 0.66664215091846768 0 0.5498280205245758 0.6290146943450976 0 0.47913475093885149 0.66010775372412711 0 0.52584555706968406 0.66664215091846768 0 0.5 0.69999999999999996 0 0.52584555706968406 0.66664215091846768 0 0.54999999999999993 0.69999999999999996 0 0.57484956128872922 0.66573805030881994 0 0.52584555706968406 0.66664215091846768 0 0.5498280205245758 0.6290146943450976 0 0.57484956128872922 0.66573805030881994 0 0.5 0.69999999999999996 0 0.55363780716230748 0.74348740161571747 0 0.50945740445113552 0.75476055527778108 0 0.52584555706968406 0.66664215091846768 0 0.5 0.69999999999999996 0 0.54999999999999993 0.69999999999999996 0 0.5 0.69999999999999996 0 0.54999999999999993 0.69999999999999996 0 0.5 0.69999999999999996 0 0.54999999999999993 0.69999999999999996 0 0.55363780716230748 0.74348740161571747 0 0.55363780716230748 0.74348740161571747 0 0.59999999999999976 0.69999999999999996 0 0.59636844454254345 0.75937156204589151 0 0.54999999999999993 0.69999999999999996 0 0.59999999999999976 0.69999999999999996 0 0.54999999999999993 0.69999999999999996 0 0.59999999999999976 0.69999999999999996 0 0.57484956128872922 0.66573805030881994 0 0.54999999999999993 0.69999999999999996 0 0.55363780716230748 0.74348740161571747 0 0.59999999999999976 0.69999999999999996 0 0.59999999999999976 0.69999999999999996 0 0.6499999999999998 0.69999999999999996 0 0.59999999999999976 0.69999999999999996 0 0.62460753523532009 0.66851202781000296 0 0.6499999999999998 0.69999999999999996 0 0.59999999999999976 0.69999999999999996 0 0.63221990677827677 0.73442891067859706 0 0.59636844454254345 0.75937156204589151 0 0.5498280205245758 0.6290146943450976 0 0.57484956128872922 0.66573805030881994 0 0.5991018319127801 0.62925360607495295 0 0.59999999999999976 0.69999999999999996 0 0.57484956128872922 0.66573805030881994 0 0.62460753523532009 0.66851202781000296 0 0.57484956128872922 0.66573805030881994 0 0.62460753523532009 0.66851202781000296 0 0.5991018319127801 0.62925360607495295 0 0.62460753523532009 0.66851202781000296 0 0.5991018319127801 0.62925360607495295 0 0.6405463747586706 0.63290524857395714 0 0.62460753523532009 0.66851202781000296 0 0.6405463747586706 0.63290524857395714 0 0.675261390228442 0.65996937624687813 0 0.62460753523532009 0.66851202781000296 0 0.675261390228442 0.65996937624687813 0 0.6499999999999998 0.69999999999999996 0 0.675261390228442 0.65996937624687813 0 0.6499999999999998 0.69999999999999996 0 0.69999999999999984 0.69999999999999996 0 0.6405463747586706 0.63290524857395714 0 0.675261390228442 0.65996937624687813 0 0.67529834988829951 0.61613270668143583 0 0.63221990677827677 0.73442891067859706 0 0.66427993341343905 0.73232764502436276 0 0.64753070846764316 0.77332939069435502 0 0.63221990677827677 0.73442891067859706 0 0.6499999999999998 0.69999999999999996 0 0.66427993341343905 0.73232764502436276 0 0.59999999999999976 0.69999999999999996 0 0.63221990677827677 0.73442891067859706 0 0.6499999999999998 0.69999999999999996 0 0.6499999999999998 0.69999999999999996 0 0.69999999999999984 0.69999999999999996 0 0.6499999999999998 0.69999999999999996 0 0.66427993341343905 0.73232764502436276 0 0.69999999999999984 0.69999999999999996 0 0.66427993341343905 0.73232764502436276 0 0.69999999999999984 0.69999999999999996 0 0.6916490518212759 0.75387992374886192 0 0.69999999999999984 0.69999999999999996 0 0.72501250972655151 0.74067302935308721 0 0.6916490518212759 0.75387992374886192 0 0.69999999999999984 0.69999999999999996 0 0.74999999999999989 0.69999999999999996 0 0.72501250972655151 0.74067302935308721 0 0.69999999999999984 0.69999999999999996 0 0.74999999999999989 0.69999999999999996 0 0.72500000000000064 0.67022701834392062 0 0.69999999999999984 0.69999999999999996 0 0.74999999999999989 0.69999999999999996 0 0.74999999999999989 0.69999999999999996 0 0.72501250972655151 0.74067302935308721 0 0.75841349681148107 0.75422312624214749 0 0.675261390228442 0.65996937624687813 0 0.71406021706547751 0.63292083137662503 0 0.72500000000000064 0.67022701834392062 0 0.675261390228442 0.65996937624687813 0 0.71406021706547751 0.63292083137662503 0 0.67529834988829951 0.61613270668143583 0 0.675261390228442 0.65996937624687813 0 0.69999999999999984 0.69999999999999996 0 0.72500000000000064 0.67022701834392062 0 0.71406021706547751 0.63292083137662503 0 0.72500000000000064 0.67022701834392062 0 0.74994237037456724 0.62775548192980357 0 0.72500000000000064 0.67022701834392062 0 0.74994237037456724 0.62775548192980357 0 0.7750489929959945 0.66593931409600093 0 0.71406021706547751 0.63292083137662503 0 0.74994237037456724 0.62775548192980357 0 0.71809016091162536 0.58185040402320831 0 0.74994237037456724 0.62775548192980357 0 0.71809016091162536 0.58185040402320831 0 0.77293540622714185 0.59448302402785813 0 0.71406021706547751 0.63292083137662503 0 0.71809016091162536 0.58185040402320831 0 0.67529834988829951 0.61613270668143583 0 0.71809016091162536 0.58185040402320831 0 0.67569444444444449 0.53500863336860327 0 0.67323294229744413 0.57556450033612505 0 0.71809016091162536 0.58185040402320831 0 0.67529834988829951 0.61613270668143583 0 0.67323294229744413 0.57556450033612505 0 0.71809016091162536 0.58185040402320831 0 0.7152569930854884 0.5237994455134295 0 0.77151014687832564 0.54436834383023036 0 0.7152569930854884 0.5237994455134295 0 0.77151014687832564 0.54436834383023036 0 0.73947346780852752 0.49062440112282169 0 0.7152569930854884 0.5237994455134295 0 0.67569444444444449 0.53500863336860327 0 0.69385896817107129 0.48377516041410151 0 0.71809016091162536 0.58185040402320831 0 0.7152569930854884 0.5237994455134295 0 0.67569444444444449 0.53500863336860327 0 0.62042975506801734 0.54295974692364424 0 0.67569444444444449 0.53500863336860327 0 0.67323294229744413 0.57556450033612505 0 0.67569444444444449 0.53500863336860327 0 0.6541250972820879 0.49999999999999989 0 0.69385896817107129 0.48377516041410151 0 0.62042975506801734 0.54295974692364424 0 0.67569444444444449 0.53500863336860327 0 0.6541250972820879 0.49999999999999989 0 0.62042975506801734 0.54295974692364424 0 0.61547661924074692 0.48539576058873962 0 0.6541250972820879 0.49999999999999989 0 0.62042975506801734 0.54295974692364424 0 0.63065402604362242 0.59661356661633302 0 0.67323294229744413 0.57556450033612505 0 0.6405463747586706 0.63290524857395714 0 0.63065402604362242 0.59661356661633302 0 0.67529834988829951 0.61613270668143583 0 0.63065402604362242 0.59661356661633302 0 0.67529834988829951 0.61613270668143583 0 0.67323294229744413 0.57556450033612505 0 0.60000000000138687 1 0 0.62065498684670595 0.95224934003983619 0 0.57382506491224949 0.9629411906298494 0 0.60000000000138687 1 0 0.62065498684670595 0.95224934003983619 0 0.65000000000104008 1 0 0.62065498684670595 0.95224934003983619 0 0.57382506491224949 0.9629411906298494 0 0.57724883562309992 0.92155686857100794 0 0.60000000000138687 1 0 0.57382506491224949 0.9629411906298494 0 0.55000000000173355 1 0 0.55000000000173355 1 0 0.50000000000205869 1 0 0.52122150208832174 0.94089974453840242 0 0.57382506491224949 0.9629411906298494 0 0.52122150208832174 0.94089974453840242 0 0.57724883562309992 0.92155686857100794 0 0.57382506491224949 0.9629411906298494 0 0.55000000000173355 1 0 0.52122150208832174 0.94089974453840242 0 0.52122150208832174 0.94089974453840242 0 0.54783390826260769 0.89287767010860219 0 0.57724883562309992 0.92155686857100794 0 0.52122150208832174 0.94089974453840242 0 0.50202631463681879 0.87892870825713787 0 0.54783390826260769 0.89287767010860219 0 0.54783390826260769 0.89287767010860219 0 0.5832743223239254 0.88483152652961872 0 0.55899371797446828 0.85003102233514438 0 0.54783390826260769 0.89287767010860219 0 0.5832743223239254 0.88483152652961872 0 0.57724883562309992 0.92155686857100794 0 0.5832743223239254 0.88483152652961872 0 0.57724883562309992 0.92155686857100794 0 0.61885627562261258 0.90282959257498208 0 0.62065498684670595 0.95224934003983619 0 0.57724883562309992 0.92155686857100794 0 0.61885627562261258 0.90282959257498208 0 0.5832743223239254 0.88483152652961872 0 0.61885627562261258 0.90282959257498208 0 0.61343887413683884 0.856862479058357 0 0.61343887413683884 0.856862479058357 0 0.60294066490120068 0.80851322453934582 0 0.65005442820240822 0.82644988530054031 0 0.61343887413683884 0.856862479058357 0 0.55899371797446828 0.85003102233514438 0 0.60294066490120068 0.80851322453934582 0 0.55899371797446828 0.85003102233514438 0 0.54782696902220018 0.79245182748204157 0 0.60294066490120068 0.80851322453934582 0 0.5832743223239254 0.88483152652961872 0 0.61343887413683884 0.856862479058357 0 0.55899371797446828 0.85003102233514438 0 0.50202631463681879 0.87892870825713787 0 0.54783390826260769 0.89287767010860219 0 0.55899371797446828 0.85003102233514438 0 0.50202631463681879 0.87892870825713787 0 0.55899371797446828 0.85003102233514438 0 0.50627822638148745 0.8263979829520941 0 0.55899371797446828 0.85003102233514438 0 0.50627822638148745 0.8263979829520941 0 0.54782696902220018 0.79245182748204157 0 0.50627822638148745 0.8263979829520941 0 0.54782696902220018 0.79245182748204157 0 0.50731287292894423 0.78963574450233831 0 0.54782696902220018 0.79245182748204157 0 0.50731287292894423 0.78963574450233831 0 0.50945740445113552 0.75476055527778108 0 0.55363780716230748 0.74348740161571747 0 0.54782696902220018 0.79245182748204157 0 0.50945740445113552 0.75476055527778108 0 0.55363780716230748 0.74348740161571747 0 0.54782696902220018 0.79245182748204157 0 0.59636844454254345 0.75937156204589151 0 0.54782696902220018 0.79245182748204157 0 0.60294066490120068 0.80851322453934582 0 0.59636844454254345 0.75937156204589151 0 0.60294066490120068 0.80851322453934582 0 0.59636844454254345 0.75937156204589151 0 0.64753070846764316 0.77332939069435502 0 0.63221990677827677 0.73442891067859706 0 0.59636844454254345 0.75937156204589151 0 0.64753070846764316 0.77332939069435502 0 0.60294066490120068 0.80851322453934582 0 0.64753070846764316 0.77332939069435502 0 0.65005442820240822 0.82644988530054031 0 0.64753070846764316 0.77332939069435502 0 0.68024162096458085 0.79868546898116533 0 0.65005442820240822 0.82644988530054031 0 0.64753070846764316 0.77332939069435502 0 0.68024162096458085 0.79868546898116533 0 0.6916490518212759 0.75387992374886192 0 0.66427993341343905 0.73232764502436276 0 0.64753070846764316 0.77332939069435502 0 0.6916490518212759 0.75387992374886192 0 0.72501250972655151 0.74067302935308721 0 0.6916490518212759 0.75387992374886192 0 0.72500000000000064 0.7952620967744265 0 0.72501250972655151 0.74067302935308721 0 0.72500000000000064 0.7952620967744265 0 0.75841349681148107 0.75422312624214749 0 0.68024162096458085 0.79868546898116533 0 0.6916490518212759 0.75387992374886192 0 0.72500000000000064 0.7952620967744265 0 0.68024162096458085 0.79868546898116533 0 0.72500000000000064 0.7952620967744265 0 0.68697391633157634 0.84450604838764298 0 0.72500000000000064 0.7952620967744265 0 0.72863726579783861 0.85390518901155588 0 0.68697391633157634 0.84450604838764298 0 0.72500000000000064 0.7952620967744265 0 0.72863726579783861 0.85390518901155588 0 0.76901770135486491 0.84293557325473656 0 0.72863726579783861 0.85390518901155588 0 0.68697391633157634 0.84450604838764298 0 0.7250000000005199 0.89375000000045834 0 0.68697391633157634 0.84450604838764298 0 0.66412543161245952 0.88015090885499059 0 0.7250000000005199 0.89375000000045834 0 0.68697391633157634 0.84450604838764298 0 0.65005442820240822 0.82644988530054031 0 0.66412543161245952 0.88015090885499059 0 0.68024162096458085 0.79868546898116533 0 0.68697391633157634 0.84450604838764298 0 0.65005442820240822 0.82644988530054031 0 0.61343887413683884 0.856862479058357 0 0.65005442820240822 0.82644988530054031 0 0.66412543161245952 0.88015090885499059 0 0.61885627562261258 0.90282959257498208 0 0.61343887413683884 0.856862479058357 0 0.66412543161245952 0.88015090885499059 0 0.61885627562261258 0.90282959257498208 0 0.65507451745379841 0.92229208810758578 0 0.66412543161245952 0.88015090885499059 0 0.62065498684670595 0.95224934003983619 0 0.61885627562261258 0.90282959257498208 0 0.65507451745379841 0.92229208810758578 0 0.65507451745379841 0.92229208810758578 0 0.68987011941058407 0.92105047536677087 0 0.68015064798562208 0.95924320340003011 0 0.65507451745379841 0.92229208810758578 0 0.66412543161245952 0.88015090885499059 0 0.68987011941058407 0.92105047536677087 0 0.66412543161245952 0.88015090885499059 0 0.7250000000005199 0.89375000000045834 0 0.68987011941058407 0.92105047536677087 0 0.72863726579783861 0.85390518901155588 0 0.7250000000005199 0.89375000000045834 0 0.76891166905518427 0.88835469571185499 0 0.7250000000005199 0.89375000000045834 0 0.7250000000005199 0.94981617647078953 0 0.75729602384198635 0.92353652857884294 0 0.7250000000005199 0.89375000000045834 0 0.68987011941058407 0.92105047536677087 0 0.7250000000005199 0.94981617647078953 0 0.68987011941058407 0.92105047536677087 0 0.7250000000005199 0.94981617647078953 0 0.68015064798562208 0.95924320340003011 0 0.7250000000005199 0.94981617647078953 0 0.7000000000006934 1 0 0.75000000000034661 1 0 0.7250000000005199 0.94981617647078953 0 0.75000000000034661 1 0 0.770759834363826 0.95919399014344442 0 0.7250000000005199 0.94981617647078953 0 0.7000000000006934 1 0 0.68015064798562208 0.95924320340003011 0 0.7000000000006934 1 0 0.68015064798562208 0.95924320340003011 0 0.65000000000104008 1 0 0.62065498684670595 0.95224934003983619 0 0.65507451745379841 0.92229208810758578 0 0.68015064798562208 0.95924320340003011 0 0.62065498684670595 0.95224934003983619 0 0.68015064798562208 0.95924320340003011 0 0.65000000000104008 1 0 0.84999999999965292 1 0 0.85170973911348691 0.93569607295217616 0 0.89898474358632463 0.95391965591118966 0 0.84999999999965292 1 0 0.81486180804382891 0.96321394949790495 0 0.85170973911348691 0.93569607295217616 0 0.81486180804382891 0.96321394949790495 0 0.79680861578988083 0.92656778056766709 0 0.85170973911348691 0.93569607295217616 0 0.84999999999965292 1 0 0.81486180804382891 0.96321394949790495 0 0.79999999999999982 1 0 0.81486180804382891 0.96321394949790495 0 0.79999999999999982 1 0 0.770759834363826 0.95919399014344442 0 0.79999999999999982 1 0 0.75000000000034661 1 0 0.770759834363826 0.95919399014344442 0 0.7250000000005199 0.94981617647078953 0 0.770759834363826 0.95919399014344442 0 0.75729602384198635 0.92353652857884294 0 0.81486180804382891 0.96321394949790495 0 0.770759834363826 0.95919399014344442 0 0.79680861578988083 0.92656778056766709 0 0.79680861578988083 0.92656778056766709 0 0.75729602384198635 0.92353652857884294 0 0.76891166905518427 0.88835469571185499 0 0.770759834363826 0.95919399014344442 0 0.79680861578988083 0.92656778056766709 0 0.75729602384198635 0.92353652857884294 0 0.7250000000005199 0.89375000000045834 0 0.75729602384198635 0.92353652857884294 0 0.76891166905518427 0.88835469571185499 0 0.79680861578988083 0.92656778056766709 0 0.76891166905518427 0.88835469571185499 0 0.81159157511211755 0.88795995483179491 0 0.81159157511211755 0.88795995483179491 0 0.85170973911348691 0.93569607295217616 0 0.85600844944837662 0.88483418979512773 0 0.79680861578988083 0.92656778056766709 0 0.81159157511211755 0.88795995483179491 0 0.85170973911348691 0.93569607295217616 0 0.85170973911348691 0.93569607295217616 0 0.85600844944837662 0.88483418979512773 0 0.90416666666660628 0.9041666666666166 0 0.85600844944837662 0.88483418979512773 0 0.82709327591091286 0.84937141670920724 0 0.88088768115933802 0.84674609810493673 0 0.82709327591091286 0.84937141670920724 0 0.84725310900444062 0.80779732082917555 0 0.88088768115933802 0.84674609810493673 0 0.82709327591091286 0.84937141670920724 0 0.80041942726660109 0.81543261647703358 0 0.84725310900444062 0.80779732082917555 0 0.81159157511211755 0.88795995483179491 0 0.85600844944837662 0.88483418979512773 0 0.82709327591091286 0.84937141670920724 0 0.76891166905518427 0.88835469571185499 0 0.81159157511211755 0.88795995483179491 0 0.76901770135486491 0.84293557325473656 0 0.81159157511211755 0.88795995483179491 0 0.82709327591091286 0.84937141670920724 0 0.76901770135486491 0.84293557325473656 0 0.72863726579783861 0.85390518901155588 0 0.76891166905518427 0.88835469571185499 0 0.76901770135486491 0.84293557325473656 0 0.76901770135486491 0.84293557325473656 0 0.80041942726660109 0.81543261647703358 0 0.77094201086366854 0.79647480515688507 0 0.82709327591091286 0.84937141670920724 0 0.76901770135486491 0.84293557325473656 0 0.80041942726660109 0.81543261647703358 0 0.80041942726660109 0.81543261647703358 0 0.77094201086366854 0.79647480515688507 0 0.80185942888539485 0.77452061303608133 0 0.72500000000000064 0.7952620967744265 0 0.77094201086366854 0.79647480515688507 0 0.75841349681148107 0.75422312624214749 0 0.72500000000000064 0.7952620967744265 0 0.76901770135486491 0.84293557325473656 0 0.77094201086366854 0.79647480515688507 0 0.77094201086366854 0.79647480515688507 0 0.75841349681148107 0.75422312624214749 0 0.80185942888539485 0.77452061303608133 0 0.75841349681148107 0.75422312624214749 0 0.80185942888539485 0.77452061303608133 0 0.78578450296893509 0.73292684821144505 0 0.80185942888539485 0.77452061303608133 0 0.84725310900444062 0.80779732082917555 0 0.85491058998424563 0.76004753345552634 0 0.80185942888539485 0.77452061303608133 0 0.85491058998424563 0.76004753345552634 0 0.81864958914779962 0.73589050177899629 0 0.80041942726660109 0.81543261647703358 0 0.80185942888539485 0.77452061303608133 0 0.84725310900444062 0.80779732082917555 0 0.84725310900444062 0.80779732082917555 0 0.85491058998424563 0.76004753345552634 0 0.90299850604011456 0.79563452813489832 0 0.85491058998424563 0.76004753345552634 0 0.90299850604011456 0.79563452813489832 0 0.89999166460796554 0.74528934923809909 0 0.90299850604011456 0.79563452813489832 0 0.94399509803918602 0.75600490196082126 0 0.95386563387742829 0.80414874155775029 0 0.90299850604011456 0.79563452813489832 0 0.94399509803918602 0.75600490196082126 0 0.89999166460796554 0.74528934923809909 0 0.94399509803918602 0.75600490196082126 0 0.97435614836745565 0.77499999999987745 0 0.95386563387742829 0.80414874155775029 0 0.94399509803918602 0.75600490196082126 0 0.97435614836745565 0.77499999999987745 0 0.97166519676947294 0.73337114490064459 0 0.97435614836745565 0.77499999999987745 0 0.97166519676947294 0.73337114490064459 0 1 0.74999999999993494 0 0.97435614836745565 0.77499999999987745 0 1 0.7999999999998193 0 1 0.74999999999993494 0 0.97435614836745565 0.77499999999987745 0 1 0.7999999999998193 0 0.95386563387742829 0.80414874155775029 0 1 0.84999999999982645 0 0.93677536231884972 0.85000000000000286 0 0.95391631417670719 0.89584263333814784 0 0.95386563387742829 0.80414874155775029 0 1 0.84999999999982645 0 0.93677536231884972 0.85000000000000286 0 1 0.7999999999998193 0 0.95386563387742829 0.80414874155775029 0 1 0.84999999999982645 0 0.93677536231884972 0.85000000000000286 0 0.88088768115933802 0.84674609810493673 0 0.90416666666660628 0.9041666666666166 0 0.90299850604011456 0.79563452813489832 0 0.95386563387742829 0.80414874155775029 0 0.93677536231884972 0.85000000000000286 0 0.90299850604011456 0.79563452813489832 0 0.93677536231884972 0.85000000000000286 0 0.88088768115933802 0.84674609810493673 0 0.84725310900444062 0.80779732082917555 0 0.90299850604011456 0.79563452813489832 0 0.88088768115933802 0.84674609810493673 0 0.85600844944837662 0.88483418979512773 0 0.88088768115933802 0.84674609810493673 0 0.90416666666660628 0.9041666666666166 0 0.85170973911348691 0.93569607295217616 0 0.90416666666660628 0.9041666666666166 0 0.89898474358632463 0.95391965591118966 0 0.90416666666660628 0.9041666666666166 0 0.95391631417670719 0.89584263333814784 0 0.94399509803919068 0.9439950980391687 0 0.90416666666660628 0.9041666666666166 0 0.94399509803919068 0.9439950980391687 0 0.89898474358632463 0.95391965591118966 0 0.93677536231884972 0.85000000000000286 0 0.90416666666660628 0.9041666666666166 0 0.95391631417670719 0.89584263333814784 0 1 0.84999999999982645 0 0.95391631417670719 0.89584263333814784 0 1 0.8999999999998336 0 1 0.8999999999998336 0 0.97435614836744289 0.92499999999990257 0 1 0.94999999999997109 0 0.95391631417670719 0.89584263333814784 0 1 0.8999999999998336 0 0.97435614836744289 0.92499999999990257 0 0.95391631417670719 0.89584263333814784 0 0.97435614836744289 0.92499999999990257 0 0.94399509803919068 0.9439950980391687 0 0.97435614836744289 0.92499999999990257 0 0.94399509803919068 0.9439950980391687 0 0.97166519676946206 0.96662885509935492 0 0.97435614836744289 0.92499999999990257 0 0.97166519676946206 0.96662885509935492 0 1 0.94999999999997109 0 0.97166519676946206 0.96662885509935492 0 1 0.94999999999997109 0 1 1 0 0.97166519676946206 0.96662885509935492 0 1 1 0 0.94999999999979179 1 0 0.94399509803919068 0.9439950980391687 0 0.97166519676946206 0.96662885509935492 0 0.94999999999979179 1 0 0.94999999999979179 1 0 0.89898474358632463 0.95391965591118966 0 0.89999999999958358 1 0 0.94399509803919068 0.9439950980391687 0 0.94999999999979179 1 0 0.89898474358632463 0.95391965591118966 0 0.84999999999965292 1 0 0.89898474358632463 0.95391965591118966 0 0.89999999999958358 1 0 0.81723410853263523 0.59419663659258926 0 0.86956835336234861 0.571283299838105 0 0.82862096804812391 0.55037090955459045 0 0.81723410853263523 0.59419663659258926 0 0.87159648282691515 0.61285406320581504 0 0.83758014339878906 0.63222013025741819 0 0.81723410853263523 0.59419663659258926 0 0.79884539758237771 0.62875045078114233 0 0.83758014339878906 0.63222013025741819 0 0.81723410853263523 0.59419663659258926 0 0.87159648282691515 0.61285406320581504 0 0.86956835336234861 0.571283299838105 0 0.86956835336234861 0.571283299838105 0 0.86907294890112186 0.52008116128001669 0 0.82862096804812391 0.55037090955459045 0 0.86907294890112186 0.52008116128001669 0 0.81441713509985358 0.51161854125224959 0 0.82862096804812391 0.55037090955459045 0 0.86907294890112186 0.52008116128001669 0 0.81441713509985358 0.51161854125224959 0 0.84723782639812573 0.48638347960178252 0 0.81441713509985358 0.51161854125224959 0 0.82862096804812391 0.55037090955459045 0 0.77151014687832564 0.54436834383023036 0 0.81441713509985358 0.51161854125224959 0 0.77151014687832564 0.54436834383023036 0 0.77846603114747959 0.49850927265137401 0 0.77151014687832564 0.54436834383023036 0 0.77846603114747959 0.49850927265137401 0 0.73947346780852752 0.49062440112282169 0 0.71809016091162536 0.58185040402320831 0 0.77151014687832564 0.54436834383023036 0 0.77293540622714185 0.59448302402785813 0 0.81723410853263523 0.59419663659258926 0 0.77151014687832564 0.54436834383023036 0 0.77293540622714185 0.59448302402785813 0 0.81723410853263523 0.59419663659258926 0 0.82862096804812391 0.55037090955459045 0 0.77151014687832564 0.54436834383023036 0 0.81723410853263523 0.59419663659258926 0 0.77293540622714185 0.59448302402785813 0 0.79884539758237771 0.62875045078114233 0 0.74994237037456724 0.62775548192980357 0 0.77293540622714185 0.59448302402785813 0 0.79884539758237771 0.62875045078114233 0 0.74994237037456724 0.62775548192980357 0 0.7750489929959945 0.66593931409600093 0 0.79884539758237771 0.62875045078114233 0 0.74999999999999989 0.69999999999999996 0 0.72500000000000064 0.67022701834392062 0 0.7750489929959945 0.66593931409600093 0 0.7750489929959945 0.66593931409600093 0 0.79999999999999982 0.69999999999999996 0 0.82457059160610424 0.66831947184359608 0 0.7750489929959945 0.66593931409600093 0 0.79884539758237771 0.62875045078114233 0 0.82457059160610424 0.66831947184359608 0 0.74999999999999989 0.69999999999999996 0 0.75841349681148107 0.75422312624214749 0 0.78578450296893509 0.73292684821144505 0 0.74999999999999989 0.69999999999999996 0 0.79999999999999982 0.69999999999999996 0 0.78578450296893509 0.73292684821144505 0 0.74999999999999989 0.69999999999999996 0 0.7750489929959945 0.66593931409600093 0 0.79999999999999982 0.69999999999999996 0 0.74999999999999989 0.69999999999999996 0 0.79999999999999982 0.69999999999999996 0 0.80185942888539485 0.77452061303608133 0 0.78578450296893509 0.73292684821144505 0 0.81864958914779962 0.73589050177899629 0 0.79999999999999982 0.69999999999999996 0 0.78578450296893509 0.73292684821144505 0 0.81864958914779962 0.73589050177899629 0 0.85491058998424563 0.76004753345552634 0 0.81864958914779962 0.73589050177899629 0 0.84999999999999987 0.69999999999999996 0 0.79999999999999982 0.69999999999999996 0 0.84999999999999987 0.69999999999999996 0 0.79999999999999982 0.69999999999999996 0 0.84999999999999987 0.69999999999999996 0 0.82457059160610424 0.66831947184359608 0 0.79999999999999982 0.69999999999999996 0 0.81864958914779962 0.73589050177899629 0 0.84999999999999987 0.69999999999999996 0 0.84999999999999987 0.69999999999999996 0 0.89999999999999991 0.69999999999999996 0 0.85491058998424563 0.76004753345552634 0 0.84999999999999987 0.69999999999999996 0 0.89999166460796554 0.74528934923809909 0 0.79884539758237771 0.62875045078114233 0 0.83758014339878906 0.63222013025741819 0 0.82457059160610424 0.66831947184359608 0 0.84999999999999987 0.69999999999999996 0 0.82457059160610424 0.66831947184359608 0 0.87712158428786946 0.65709029563313581 0 0.87159648282691515 0.61285406320581504 0 0.83758014339878906 0.63222013025741819 0 0.87712158428786946 0.65709029563313581 0 0.83758014339878906 0.63222013025741819 0 0.82457059160610424 0.66831947184359608 0 0.87712158428786946 0.65709029563313581 0 0.87712158428786946 0.65709029563313581 0 0.92057473616084773 0.66770436535372446 0 0.91750694127105259 0.63017627779935648 0 0.87159648282691515 0.61285406320581504 0 0.87712158428786946 0.65709029563313581 0 0.91750694127105259 0.63017627779935648 0 0.84999999999999987 0.69999999999999996 0 0.87712158428786946 0.65709029563313581 0 0.89999999999999991 0.69999999999999996 0 0.87712158428786946 0.65709029563313581 0 0.92057473616084773 0.66770436535372446 0 0.89999999999999991 0.69999999999999996 0 0.92057473616084773 0.66770436535372446 0 0.91750694127105259 0.63017627779935648 0 0.9578014258160763 0.65787212321113708 0 0.84999999999999987 0.69999999999999996 0 0.89999166460796554 0.74528934923809909 0 0.89999999999999991 0.69999999999999996 0 0.89999999999999991 0.69999999999999996 0 0.94999999999999996 0.69999999999999996 0 0.92057473616084773 0.66770436535372446 0 0.89999999999999991 0.69999999999999996 0 0.94999999999999996 0.69999999999999996 0 0.89999166460796554 0.74528934923809909 0 0.89999999999999991 0.69999999999999996 0 0.94999999999999996 0.69999999999999996 0 0.94399509803918602 0.75600490196082126 0 0.89999166460796554 0.74528934923809909 0 0.94999999999999996 0.69999999999999996 0 0.94399509803918602 0.75600490196082126 0 0.94999999999999996 0.69999999999999996 0 0.97166519676947294 0.73337114490064459 0 0.94999999999999996 0.69999999999999996 0 1 0.69999999999999996 0 0.94999999999999996 0.69999999999999996 0 1 0.69999999999999996 0 0.97166519676947294 0.73337114490064459 0 1 0.69999999999999996 0 0.97166519676947294 0.73337114490064459 0 1 0.74999999999993494 0 0.91750694127105259 0.63017627779935648 0 0.9578014258160763 0.65787212321113708 0 0.95867599106212187 0.60011091146651041 0 0.92057473616084773 0.66770436535372446 0 0.94999999999999996 0.69999999999999996 0 0.9578014258160763 0.65787212321113708 0 0.94999999999999996 0.69999999999999996 0 1 0.69999999999999996 0 0.9578014258160763 0.65787212321113708 0 1 0.69999999999999996 0 0.9578014258160763 0.65787212321113708 0 1 0.64999999999986979 0 0.9578014258160763 0.65787212321113708 0 1 0.64999999999986979 0 0.95867599106212187 0.60011091146651041 0 0.95867599106212187 0.60011091146651041 0 0.93732437411268477 0.55911392101136159 0 1 0.54999999999963112 0 1 0.64999999999986979 0 1 0.59999999999973963 0 0.95867599106212187 0.60011091146651041 0 1 0.59999999999973963 0 0.95867599106212187 0.60011091146651041 0 1 0.54999999999963112 0 0.91750694127105259 0.63017627779935648 0 0.95867599106212187 0.60011091146651041 0 0.91143117093204207 0.58709913730335972 0 0.95867599106212187 0.60011091146651041 0 0.91143117093204207 0.58709913730335972 0 0.93732437411268477 0.55911392101136159 0 0.86956835336234861 0.571283299838105 0 0.91143117093204207 0.58709913730335972 0 0.90900154012161016 0.53607784105648792 0 0.87159648282691515 0.61285406320581504 0 0.86956835336234861 0.571283299838105 0 0.91143117093204207 0.58709913730335972 0 0.87159648282691515 0.61285406320581504 0 0.91750694127105259 0.63017627779935648 0 0.91143117093204207 0.58709913730335972 0 0.86907294890112186 0.52008116128001669 0 0.90900154012161016 0.53607784105648792 0 0.91696753777131557 0.497780560203536 0 0.86956835336234861 0.571283299838105 0 0.86907294890112186 0.52008116128001669 0 0.90900154012161016 0.53607784105648792 0 0.90900154012161016 0.53607784105648792 0 0.93732437411268477 0.55911392101136159 0 0.95631871884947484 0.51827533208233789 0 0.91143117093204207 0.58709913730335972 0 0.90900154012161016 0.53607784105648792 0 0.93732437411268477 0.55911392101136159 0 0.90900154012161016 0.53607784105648792 0 0.95631871884947484 0.51827533208233789 0 0.91696753777131557 0.497780560203536 0 0.93732437411268477 0.55911392101136159 0 0.95631871884947484 0.51827533208233789 0 1 0.54999999999963112 0 0.95631871884947484 0.51827533208233789 0 1 0.54999999999963112 0 1 0.49999999999950101 0 0.95631871884947484 0.51827533208233789 0 1 0.49999999999950101 0 0.96228564064454991 0.48206450662049471 0 1 0.49999999999950101 0 1 0.44999999999963131 0 0.96228564064454991 0.48206450662049471 0 1 0.44999999999963131 0 0.93814194660195893 0.44426664081746747 0 0.96228564064454991 0.48206450662049471 0 0.93814194660195893 0.44426664081746747 0 0.96228564064454991 0.48206450662049471 0 0.91696753777131557 0.497780560203536 0 0.95631871884947484 0.51827533208233789 0 0.96228564064454991 0.48206450662049471 0 0.91696753777131557 0.497780560203536 0 1 0.39999999999978308 0 0.95871855522754235 0.40006508612975411 0 1 0.34999999999993492 0 1 0.44999999999963131 0 1 0.39999999999978308 0 0.95871855522754235 0.40006508612975411 0 1 0.44999999999963131 0 0.93814194660195893 0.44426664081746747 0 0.95871855522754235 0.40006508612975411 0 0.95871855522754235 0.40006508612975411 0 0.90594285160987287 0.4141265964174129 0 0.91750694127107502 0.36982372220068471 0 0.93814194660195893 0.44426664081746747 0 0.95871855522754235 0.40006508612975411 0 0.90594285160987287 0.4141265964174129 0 0.90594285160987287 0.4141265964174129 0 0.88594198078881503 0.46167788676578442 0 0.86411095495256451 0.42388805655111889 0 0.90594285160987287 0.4141265964174129 0 0.86411095495256451 0.42388805655111889 0 0.86844634540301924 0.38530937474099819 0 0.90594285160987287 0.4141265964174129 0 0.86844634540301924 0.38530937474099819 0 0.91750694127107502 0.36982372220068471 0 0.93814194660195893 0.44426664081746747 0 0.91696753777131557 0.497780560203536 0 0.88594198078881503 0.46167788676578442 0 0.93814194660195893 0.44426664081746747 0 0.90594285160987287 0.4141265964174129 0 0.88594198078881503 0.46167788676578442 0 0.86907294890112186 0.52008116128001669 0 0.91696753777131557 0.497780560203536 0 0.88594198078881503 0.46167788676578442 0 0.86907294890112186 0.52008116128001669 0 0.88594198078881503 0.46167788676578442 0 0.84723782639812573 0.48638347960178252 0 0.81441713509985358 0.51161854125224959 0 0.84723782639812573 0.48638347960178252 0 0.81400510706333218 0.47357325943904899 0 0.84723782639812573 0.48638347960178252 0 0.81400510706333218 0.47357325943904899 0 0.84925632466077294 0.45359738909549091 0 0.81400510706333218 0.47357325943904899 0 0.84925632466077294 0.45359738909549091 0 0.81973119833356312 0.43505687159469048 0 0.88594198078881503 0.46167788676578442 0 0.84723782639812573 0.48638347960178252 0 0.84925632466077294 0.45359738909549091 0 0.84925632466077294 0.45359738909549091 0 0.86411095495256451 0.42388805655111889 0 0.81973119833356312 0.43505687159469048 0 0.88594198078881503 0.46167788676578442 0 0.84925632466077294 0.45359738909549091 0 0.86411095495256451 0.42388805655111889 0 0.86411095495256451 0.42388805655111889 0 0.86844634540301924 0.38530937474099819 0 0.81308179852519835 0.39754945808726527 0 0.86844634540301924 0.38530937474099819 0 0.81308179852519835 0.39754945808726527 0 0.83573492347052902 0.36590755630746369 0 0.86411095495256451 0.42388805655111889 0 0.81308179852519835 0.39754945808726527 0 0.81973119833356312 0.43505687159469048 0 0.81973119833356312 0.43505687159469048 0 0.77354604466818633 0.40378688774472771 0 0.77972660463949339 0.45529290596363098 0 0.81308179852519835 0.39754945808726527 0 0.81973119833356312 0.43505687159469048 0 0.77354604466818633 0.40378688774472771 0 0.81308179852519835 0.39754945808726527 0 0.77354604466818633 0.40378688774472771 0 0.78145581580700685 0.34881365920033602 0 0.77354604466818633 0.40378688774472771 0 0.77972660463949339 0.45529290596363098 0 0.73483647259922602 0.44789725365921768 0 0.77972660463949339 0.45529290596363098 0 0.73483647259922602 0.44789725365921768 0 0.73947346780852752 0.49062440112282169 0 0.77972660463949339 0.45529290596363098 0 0.77846603114747959 0.49850927265137401 0 0.73947346780852752 0.49062440112282169 0 0.81400510706333218 0.47357325943904899 0 0.77972660463949339 0.45529290596363098 0 0.77846603114747959 0.49850927265137401 0 0.81441713509985358 0.51161854125224959 0 0.81400510706333218 0.47357325943904899 0 0.77846603114747959 0.49850927265137401 0 0.81400510706333218 0.47357325943904899 0 0.81973119833356312 0.43505687159469048 0 0.77972660463949339 0.45529290596363098 0 0.79999999999999982 0.29999999999999999 0 0.77075983436335049 0.25919399014334171 0 0.81486180804364938 0.26321394949780091 0 0.79999999999999982 0.29999999999999999 0 0.74999999999999989 0.29999999999999999 0 0.79999999999999982 0.29999999999999999 0 0.77075983436335049 0.25919399014334171 0 0.74999999999999989 0.29999999999999999 0 0.79999999999999982 0.29999999999999999 0 0.78145581580700685 0.34881365920033602 0 0.74999999999999989 0.29999999999999999 0 0.78145581580700685 0.34881365920033602 0 0.73090396928863699 0.33699297293167962 0 0.74999999999999989 0.29999999999999999 0 0.77354604466818633 0.40378688774472771 0 0.78145581580700685 0.34881365920033602 0 0.74764719760526988 0.3719647154012321 0 0.78145581580700685 0.34881365920033602 0 0.74764719760526988 0.3719647154012321 0 0.73090396928863699 0.33699297293167962 0 0.81308179852519835 0.39754945808726527 0 0.78145581580700685 0.34881365920033602 0 0.83573492347052902 0.36590755630746369 0 0.79999999999999982 0.29999999999999999 0 0.78145581580700685 0.34881365920033602 0 0.82500000000000062 0.33010209762754811 0 0.78145581580700685 0.34881365920033602 0 0.82500000000000062 0.33010209762754811 0 0.83573492347052902 0.36590755630746369 0 0.82500000000000062 0.33010209762754811 0 0.83573492347052902 0.36590755630746369 0 0.87430060258887643 0.34056085888204451 0 0.86844634540301924 0.38530937474099819 0 0.83573492347052902 0.36590755630746369 0 0.87430060258887643 0.34056085888204451 0 0.82500000000000062 0.33010209762754811 0 0.87430060258887643 0.34056085888204451 0 0.84999999999999987 0.29999999999999999 0 0.87430060258887643 0.34056085888204451 0 0.84999999999999987 0.29999999999999999 0 0.89999999999999991 0.29999999999999999 0 0.84999999999999987 0.29999999999999999 0 0.81486180804364938 0.26321394949780091 0 0.8517097391133297 0.2356960729520409 0 0.84999999999999987 0.29999999999999999 0 0.89898474358614167 0.25391965591104898 0 0.8517097391133297 0.2356960729520409 0 0.84999999999999987 0.29999999999999999 0 0.89999999999999991 0.29999999999999999 0 0.79999999999999982 0.29999999999999999 0 0.82500000000000062 0.33010209762754811 0 0.84999999999999987 0.29999999999999999 0 0.79999999999999982 0.29999999999999999 0 0.84999999999999987 0.29999999999999999 0 0.81486180804364938 0.26321394949780091 0 0.79999999999999982 0.29999999999999999 0 0.84999999999999987 0.29999999999999999 0 0.84999999999999987 0.29999999999999999 0 0.89898474358614167 0.25391965591104898 0 0.89999999999999991 0.29999999999999999 0 0.89999999999999991 0.29999999999999999 0 0.94999999999999996 0.29999999999999999 0 0.89999999999999991 0.29999999999999999 0 0.92012390126144183 0.33123581297173937 0 0.94999999999999996 0.29999999999999999 0 0.89898474358614167 0.25391965591104898 0 0.89999999999999991 0.29999999999999999 0 0.94999999999999996 0.29999999999999999 0 0.89898474358614167 0.25391965591104898 0 0.94999999999999996 0.29999999999999999 0 0.94399509803921056 0.24399509803922639 0 0.86844634540301924 0.38530937474099819 0 0.87430060258887643 0.34056085888204451 0 0.91750694127107502 0.36982372220068471 0 0.87430060258887643 0.34056085888204451 0 0.92012390126144183 0.33123581297173937 0 0.91750694127107502 0.36982372220068471 0 0.87430060258887643 0.34056085888204451 0 0.89999999999999991 0.29999999999999999 0 0.92012390126144183 0.33123581297173937 0 0.92012390126144183 0.33123581297173937 0 0.91750694127107502 0.36982372220068471 0 0.95780851984364423 0.34215720972155339 0 0.95871855522754235 0.40006508612975411 0 0.91750694127107502 0.36982372220068471 0 0.95780851984364423 0.34215720972155339 0 0.92012390126144183 0.33123581297173937 0 0.95780851984364423 0.34215720972155339 0 0.94999999999999996 0.29999999999999999 0 0.95780851984364423 0.34215720972155339 0 0.94999999999999996 0.29999999999999999 0 1 0.29999999999999999 0 0.95780851984364423 0.34215720972155339 0 1 0.34999999999993492 0 1 0.29999999999999999 0 0.95871855522754235 0.40006508612975411 0 0.95780851984364423 0.34215720972155339 0 1 0.34999999999993492 0 0.94999999999999996 0.29999999999999999 0 0.97166519676951801 0.26662885509932011 0 0.94399509803921056 0.24399509803922639 0 0.94999999999999996 0.29999999999999999 0 1 0.29999999999999999 0 0.94999999999999996 0.29999999999999999 0 1 0.29999999999999999 0 0.97166519676951801 0.26662885509932011 0 1 0.29999999999999999 0 0.97166519676951801 0.26662885509932011 0 1 0.24999999999987299 0 0.97166519676951801 0.26662885509932011 0 0.97435614836740092 0.22499999999981049 0 1 0.24999999999987299 0 0.97435614836740092 0.22499999999981049 0 1 0.24999999999987299 0 1 0.19999999999974799 0 0.97435614836740092 0.22499999999981049 0 0.94399509803921056 0.24399509803922639 0 0.95391631417672862 0.19584263333809451 0 0.97166519676951801 0.26662885509932011 0 0.97435614836740092 0.22499999999981049 0 0.94399509803921056 0.24399509803922639 0 0.97435614836740092 0.22499999999981049 0 0.95391631417672862 0.19584263333809451 0 1 0.19999999999974799 0 0.95391631417672862 0.19584263333809451 0 1 0.14999999999961891 0 0.93677536231883773 0.14999999999999089 0 1 0.14999999999961891 0 0.93677536231883773 0.14999999999999089 0 0.95386563387744361 0.1041487415577465 0 0.95391631417672862 0.19584263333809451 0 1 0.19999999999974799 0 1 0.14999999999961891 0 0.95391631417672862 0.19584263333809451 0 0.93677536231883773 0.14999999999999089 0 0.90416666666668166 0.20416666666667119 0 0.93677536231883773 0.14999999999999089 0 0.88088768115941807 0.14674609810479519 0 0.90416666666668166 0.20416666666667119 0 0.93677536231883773 0.14999999999999089 0 0.88088768115941807 0.14674609810479519 0 0.90299850604006393 0.09563452813493091 0 0.88088768115941807 0.14674609810479519 0 0.90416666666668166 0.20416666666667119 0 0.85600844944842547 0.1848341897950983 0 0.89898474358614167 0.25391965591104898 0 0.90416666666668166 0.20416666666667119 0 0.8517097391133297 0.2356960729520409 0 0.89898474358614167 0.25391965591104898 0 0.94399509803921056 0.24399509803922639 0 0.90416666666668166 0.20416666666667119 0 0.94399509803921056 0.24399509803922639 0 0.95391631417672862 0.19584263333809451 0 0.90416666666668166 0.20416666666667119 0 0.94999999999986839 0 0 0.97166519676946894 0.033371144900598393 0 0.94399509803922566 0.056004901960802607 0 0.94999999999986839 0 0 1 0 0 0.97166519676946894 0.033371144900598393 0 1 0 0 1 0.049999999999896842 0 0.97166519676946894 0.033371144900598393 0 1 0.049999999999896842 0 0.97166519676946894 0.033371144900598393 0 0.97435614836748241 0.074999999999825387 0 0.97166519676946894 0.033371144900598393 0 0.94399509803922566 0.056004901960802607 0 0.97435614836748241 0.074999999999825387 0 0.94399509803922566 0.056004901960802607 0 0.97435614836748241 0.074999999999825387 0 0.95386563387744361 0.1041487415577465 0 0.97435614836748241 0.074999999999825387 0 1 0.099999999999753911 0 0.95386563387744361 0.1041487415577465 0 1 0.049999999999896842 0 0.97435614836748241 0.074999999999825387 0 1 0.099999999999753911 0 1 0.14999999999961891 0 1 0.099999999999753911 0 0.95386563387744361 0.1041487415577465 0 0.93677536231883773 0.14999999999999089 0 0.95386563387744361 0.1041487415577465 0 0.90299850604006393 0.09563452813493091 0 0.88088768115941807 0.14674609810479519 0 0.90299850604006393 0.09563452813493091 0 0.84725310900442086 0.10779732082922661 0 0.90299850604006393 0.09563452813493091 0 0.899991664607802 0.045289349238254978 0 0.85491058998398861 0.060047533455626502 0 0.94399509803922566 0.056004901960802607 0 0.95386563387744361 0.1041487415577465 0 0.90299850604006393 0.09563452813493091 0 0.94399509803922566 0.056004901960802607 0 0.90299850604006393 0.09563452813493091 0 0.899991664607802 0.045289349238254978 0 0.94999999999986839 0 0 0.94399509803922566 0.056004901960802607 0 0.899991664607802 0.045289349238254978 0 0.899991664607802 0.045289349238254978 0 0.89999999999973679 0 0 0.84999999999960507 0 0 0.94999999999986839 0 0 0.899991664607802 0.045289349238254978 0 0.89999999999973679 0 0 0.84999999999960507 0 0 0.81864958914740749 0.035890501779055867 0 0.79999999999947335 0 0 0.899991664607802 0.045289349238254978 0 0.84999999999960507 0 0 0.85491058998398861 0.060047533455626502 0 0.85491058998398861 0.060047533455626502 0 0.81864958914740749 0.035890501779055867 0 0.80185942888501827 0.074520613036224564 0 0.84999999999960507 0 0 0.85491058998398861 0.060047533455626502 0 0.81864958914740749 0.035890501779055867 0 0.85491058998398861 0.060047533455626502 0 0.84725310900442086 0.10779732082922661 0 0.80185942888501827 0.074520613036224564 0 0.90299850604006393 0.09563452813493091 0 0.85491058998398861 0.060047533455626502 0 0.84725310900442086 0.10779732082922661 0 0.84725310900442086 0.10779732082922661 0 0.80076557130237269 0.1154587552654202 0 0.80185942888501827 0.074520613036224564 0 0.84725310900442086 0.10779732082922661 0 0.80076557130237269 0.1154587552654202 0 0.82709327591102189 0.14937141670914489 0 0.80076557130237269 0.1154587552654202 0 0.76878382444651716 0.097147941686331368 0 0.80185942888501827 0.074520613036224564 0 0.76878382444651716 0.097147941686331368 0 0.77144070960558853 0.14311854477243749 0 0.72525833953073282 0.1032114801687094 0 0.80076557130237269 0.1154587552654202 0 0.76878382444651716 0.097147941686331368 0 0.77144070960558853 0.14311854477243749 0 0.76878382444651716 0.097147941686331368 0 0.80185942888501827 0.074520613036224564 0 0.7527966693318906 0.053051678021508272 0 0.81864958914740749 0.035890501779055867 0 0.80185942888501827 0.074520613036224564 0 0.78393852574753176 0.032039079577822822 0 0.80185942888501827 0.074520613036224564 0 0.78393852574753176 0.032039079577822822 0 0.7527966693318906 0.053051678021508272 0 0.78393852574753176 0.032039079577822822 0 0.7527966693318906 0.053051678021508272 0 0.74999999999934175 0 0 0.78393852574753176 0.032039079577822822 0 0.79999999999947335 0 0 0.74999999999934175 0 0 0.81864958914740749 0.035890501779055867 0 0.78393852574753176 0.032039079577822822 0 0.79999999999947335 0 0 0.81283102246527783 0.1881007222486438 0 0.8517097391133297 0.2356960729520409 0 0.79680861578956375 0.22656778056752541 0 0.81283102246527783 0.1881007222486438 0 0.8517097391133297 0.2356960729520409 0 0.85600844944842547 0.1848341897950983 0 0.81486180804364938 0.26321394949780091 0 0.8517097391133297 0.2356960729520409 0 0.79680861578956375 0.22656778056752541 0 0.90416666666668166 0.20416666666667119 0 0.8517097391133297 0.2356960729520409 0 0.85600844944842547 0.1848341897950983 0 0.88088768115941807 0.14674609810479519 0 0.85600844944842547 0.1848341897950983 0 0.82709327591102189 0.14937141670914489 0 0.88088768115941807 0.14674609810479519 0 0.84725310900442086 0.10779732082922661 0 0.82709327591102189 0.14937141670914489 0 0.81283102246527783 0.1881007222486438 0 0.85600844944842547 0.1848341897950983 0 0.82709327591102189 0.14937141670914489 0 0.81283102246527783 0.1881007222486438 0 0.77144070960558853 0.14311854477243749 0 0.76587607630038135 0.18880039518954719 0 0.81283102246527783 0.1881007222486438 0 0.82709327591102189 0.14937141670914489 0 0.77144070960558853 0.14311854477243749 0 0.80076557130237269 0.1154587552654202 0 0.82709327591102189 0.14937141670914489 0 0.77144070960558853 0.14311854477243749 0 0.77144070960558853 0.14311854477243749 0 0.76587607630038135 0.18880039518954719 0 0.72634814642510737 0.16106886917518889 0 0.76587607630038135 0.18880039518954719 0 0.79680861578956375 0.22656778056752541 0 0.75668890529066124 0.2244279804069782 0 0.81283102246527783 0.1881007222486438 0 0.76587607630038135 0.18880039518954719 0 0.79680861578956375 0.22656778056752541 0 0.77075983436335049 0.25919399014334171 0 0.81486180804364938 0.26321394949780091 0 0.79680861578956375 0.22656778056752541 0 0.77075983436335049 0.25919399014334171 0 0.79680861578956375 0.22656778056752541 0 0.75668890529066124 0.2244279804069782 0 0.77075983436335049 0.25919399014334171 0 0.75668890529066124 0.2244279804069782 0 0.72500000000000064 0.2498161764706 0 0.75668890529066124 0.2244279804069782 0 0.72500000000000064 0.2498161764706 0 0.72500000000001008 0.19776155966387679 0 0.72500000000000064 0.2498161764706 0 0.69397719155551807 0.2245125647000914 0 0.72500000000001008 0.19776155966387679 0 0.72500000000000064 0.2498161764706 0 0.69397719155551807 0.2245125647000914 0 0.67933712972090698 0.25920070958121938 0 0.69397719155551807 0.2245125647000914 0 0.72500000000001008 0.19776155966387679 0 0.6865991819015953 0.189116534044597 0 0.76587607630038135 0.18880039518954719 0 0.75668890529066124 0.2244279804069782 0 0.72500000000001008 0.19776155966387679 0 0.76587607630038135 0.18880039518954719 0 0.72500000000001008 0.19776155966387679 0 0.72634814642510737 0.16106886917518889 0 0.77144070960558853 0.14311854477243749 0 0.72634814642510737 0.16106886917518889 0 0.72525833953073282 0.1032114801687094 0 0.72634814642510737 0.16106886917518889 0 0.68391457121233579 0.14440470121196541 0 0.72525833953073282 0.1032114801687094 0 0.72500000000001008 0.19776155966387679 0 0.72634814642510737 0.16106886917518889 0 0.6865991819015953 0.189116534044597 0 0.72634814642510737 0.16106886917518889 0 0.68391457121233579 0.14440470121196541 0 0.6865991819015953 0.189116534044597 0 0.68391457121233579 0.14440470121196541 0 0.64011864159029941 0.18789607982138171 0 0.6865991819015953 0.189116534044597 0 0.68391457121233579 0.14440470121196541 0 0.65290632656860115 0.11434202593454081 0 0.6236733212988993 0.14864538214901801 0 0.68391457121233579 0.14440470121196541 0 0.64011864159029941 0.18789607982138171 0 0.6236733212988993 0.14864538214901801 0 0.64011864159029941 0.18789607982138171 0 0.65394964615507722 0.22666784374016369 0 0.59814117807200873 0.23398510860739519 0 0.65394964615507722 0.22666784374016369 0 0.59814117807200873 0.23398510860739519 0 0.62657463266645097 0.26524202571255862 0 0.69397719155551807 0.2245125647000914 0 0.65394964615507722 0.22666784374016369 0 0.67933712972090698 0.25920070958121938 0 0.64011864159029941 0.18789607982138171 0 0.65394964615507722 0.22666784374016369 0 0.6865991819015953 0.189116534044597 0 0.69397719155551807 0.2245125647000914 0 0.65394964615507722 0.22666784374016369 0 0.6865991819015953 0.189116534044597 0 0.69999999999921003 0 0 0.72683645290270404 0.027797073151180601 0 0.7010294155333181 0.056779085686491267 0 0.69999999999921003 0 0 0.7010294155333181 0.056779085686491267 0 0.66369801598854572 0.036327466368102787 0 0.7527966693318906 0.053051678021508272 0 0.74999999999934175 0 0 0.72683645290270404 0.027797073151180601 0 0.69999999999921003 0 0 0.74999999999934175 0 0 0.72683645290270404 0.027797073151180601 0 0.7527966693318906 0.053051678021508272 0 0.72683645290270404 0.027797073151180601 0 0.7010294155333181 0.056779085686491267 0 0.7010294155333181 0.056779085686491267 0 0.72525833953073282 0.1032114801687094 0 0.68330259535470161 0.10038702501083881 0 0.7527966693318906 0.053051678021508272 0 0.7010294155333181 0.056779085686491267 0 0.72525833953073282 0.1032114801687094 0 0.76878382444651716 0.097147941686331368 0 0.7527966693318906 0.053051678021508272 0 0.72525833953073282 0.1032114801687094 0 0.68391457121233579 0.14440470121196541 0 0.72525833953073282 0.1032114801687094 0 0.68330259535470161 0.10038702501083881 0 0.68330259535470161 0.10038702501083881 0 0.65290632656860115 0.11434202593454081 0 0.65408113592120842 0.073941773121567966 0 0.68391457121233579 0.14440470121196541 0 0.68330259535470161 0.10038702501083881 0 0.65290632656860115 0.11434202593454081 0 0.65290632656860115 0.11434202593454081 0 0.61956000905586006 0.1043312481793135 0 0.6236733212988993 0.14864538214901801 0 0.65290632656860115 0.11434202593454081 0 0.65408113592120842 0.073941773121567966 0 0.61956000905586006 0.1043312481793135 0 0.65408113592120842 0.073941773121567966 0 0.61940220174112337 0.047251958781050582 0 0.61956000905586006 0.1043312481793135 0 0.7010294155333181 0.056779085686491267 0 0.68330259535470161 0.10038702501083881 0 0.65408113592120842 0.073941773121567966 0 0.7010294155333181 0.056779085686491267 0 0.65408113592120842 0.073941773121567966 0 0.66369801598854572 0.036327466368102787 0 0.65408113592120842 0.073941773121567966 0 0.66369801598854572 0.036327466368102787 0 0.61940220174112337 0.047251958781050582 0 0.66369801598854572 0.036327466368102787 0 0.64999999999907843 0 0 0.61940220174112337 0.047251958781050582 0 0.69999999999921003 0 0 0.66369801598854572 0.036327466368102787 0 0.64999999999907843 0 0 0.59999999999894682 0 0 0.57396793757665954 0.037011367187645222 0 0.5499999999988151 0 0 0.64999999999907843 0 0 0.59999999999894682 0 0 0.61940220174112337 0.047251958781050582 0 0.59999999999894682 0 0 0.61940220174112337 0.047251958781050582 0 0.57396793757665954 0.037011367187645222 0 0.61940220174112337 0.047251958781050582 0 0.57396793757665954 0.037011367187645222 0 0.57667858002728545 0.078486105337742612 0 0.61940220174112337 0.047251958781050582 0 0.57667858002728545 0.078486105337742612 0 0.61956000905586006 0.1043312481793135 0 0.61956000905586006 0.1043312481793135 0 0.58516465772821369 0.11653801664834119 0 0.6236733212988993 0.14864538214901801 0 0.57667858002728545 0.078486105337742612 0 0.61956000905586006 0.1043312481793135 0 0.58516465772821369 0.11653801664834119 0 0.58516465772821369 0.11653801664834119 0 0.54979595918804436 0.1060565713905809 0 0.56202748619534593 0.15054058349222879 0 0.57667858002728545 0.078486105337742612 0 0.58516465772821369 0.11653801664834119 0 0.54979595918804436 0.1060565713905809 0 0.54979595918804436 0.1060565713905809 0 0.51076801031701946 0.1202837388510348 0 0.52375890611712683 0.059318771819432882 0 0.47881186583059909 0.093591717165689425 0 0.51076801031701946 0.1202837388510348 0 0.52375890611712683 0.059318771819432882 0 0.57667858002728545 0.078486105337742612 0 0.54979595918804436 0.1060565713905809 0 0.52375890611712683 0.059318771819432882 0 0.57396793757665954 0.037011367187645222 0 0.52375890611712683 0.059318771819432882 0 0.5499999999988151 0 0 0.57396793757665954 0.037011367187645222 0 0.57667858002728545 0.078486105337742612 0 0.52375890611712683 0.059318771819432882 0 0.49999999999869432 0 0 0.52375890611712683 0.059318771819432882 0 0.5499999999988151 0 0 0.59814117807200873 0.23398510860739519 0 0.59443395090188023 0.18455690917515069 0 0.55306006949600994 0.20198184231352201 0 0.59814117807200873 0.23398510860739519 0 0.55306006949600994 0.20198184231352201 0 0.54248833945060504 0.2520322959927106 0 0.64011864159029941 0.18789607982138171 0 0.59814117807200873 0.23398510860739519 0 0.59443395090188023 0.18455690917515069 0 0.64011864159029941 0.18789607982138171 0 0.59443395090188023 0.18455690917515069 0 0.6236733212988993 0.14864538214901801 0 0.58516465772821369 0.11653801664834119 0 0.6236733212988993 0.14864538214901801 0 0.56202748619534593 0.15054058349222879 0 0.59443395090188023 0.18455690917515069 0 0.6236733212988993 0.14864538214901801 0 0.56202748619534593 0.15054058349222879 0 0.59443395090188023 0.18455690917515069 0 0.56202748619534593 0.15054058349222879 0 0.55306006949600994 0.20198184231352201 0 0.56202748619534593 0.15054058349222879 0 0.51729576145820033 0.1683240575987815 0 0.55306006949600994 0.20198184231352201 0 0.54979595918804436 0.1060565713905809 0 0.51076801031701946 0.1202837388510348 0 0.56202748619534593 0.15054058349222879 0 0.48466639505193998 0.1421439844745814 0 0.51076801031701946 0.1202837388510348 0 0.51729576145820033 0.1683240575987815 0 0.51076801031701946 0.1202837388510348 0 0.56202748619534593 0.15054058349222879 0 0.51729576145820033 0.1683240575987815 0 0.51729576145820033 0.1683240575987815 0 0.50760557329222289 0.20700468884612061 0 0.55306006949600994 0.20198184231352201 0 0.50760557329222289 0.20700468884612061 0 0.55306006949600994 0.20198184231352201 0 0.54248833945060504 0.2520322959927106 0 0.49695729691142171 0.25014895411178018 0 0.50760557329222289 0.20700468884612061 0 0.54248833945060504 0.2520322959927106 0 0.49695729691142171 0.25014895411178018 0 0.5 0.29999999999999999 0 0.54248833945060504 0.2520322959927106 0 0.5 0.29999999999999999 0 0.54999999999999993 0.29999999999999999 0 0.52752007115234678 0.33170632466418198 0 0.5 0.29999999999999999 0 0.54999999999999993 0.29999999999999999 0 0.54248833945060504 0.2520322959927106 0 0.5 0.29999999999999999 0 0.54999999999999993 0.29999999999999999 0 0.54999999999999993 0.29999999999999999 0 0.54248833945060504 0.2520322959927106 0 0.5794309697024993 0.27124795968204829 0 0.59814117807200873 0.23398510860739519 0 0.54248833945060504 0.2520322959927106 0 0.5794309697024993 0.27124795968204829 0 0.54999999999999993 0.29999999999999999 0 0.59999999999999976 0.29999999999999999 0 0.54999999999999993 0.29999999999999999 0 0.5794309697024993 0.27124795968204829 0 0.59999999999999976 0.29999999999999999 0 0.59999999999999976 0.29999999999999999 0 0.6499999999999998 0.29999999999999999 0 0.5794309697024993 0.27124795968204829 0 0.59999999999999976 0.29999999999999999 0 0.62657463266645097 0.26524202571255862 0 0.59814117807200873 0.23398510860739519 0 0.5794309697024993 0.27124795968204829 0 0.62657463266645097 0.26524202571255862 0 0.61959173890754571 0.33832250091341232 0 0.56836770495988642 0.3523062350852913 0 0.6084546825910605 0.37989672713932537 0 0.59999999999999976 0.29999999999999999 0 0.61959173890754571 0.33832250091341232 0 0.6499999999999998 0.29999999999999999 0 0.59999999999999976 0.29999999999999999 0 0.61959173890754571 0.33832250091341232 0 0.56836770495988642 0.3523062350852913 0 0.54999999999999993 0.29999999999999999 0 0.59999999999999976 0.29999999999999999 0 0.56836770495988642 0.3523062350852913 0 0.56836770495988642 0.3523062350852913 0 0.52752007115234678 0.33170632466418198 0 0.52289427570932567 0.3932284363388488 0 0.54999999999999993 0.29999999999999999 0 0.56836770495988642 0.3523062350852913 0 0.52752007115234678 0.33170632466418198 0 0.49077833859261139 0.35229981449445641 0 0.5 0.29999999999999999 0 0.52752007115234678 0.33170632466418198 0 0.49077833859261139 0.35229981449445641 0 0.52752007115234678 0.33170632466418198 0 0.52289427570932567 0.3932284363388488 0 0.56836770495988642 0.3523062350852913 0 0.52289427570932567 0.3932284363388488 0 0.57744073070774993 0.41535148636609359 0 0.52289427570932567 0.3932284363388488 0 0.53823865529665704 0.45873898050322898 0 0.57744073070774993 0.41535148636609359 0 0.48858720058566618 0.43964267759203868 0 0.52289427570932567 0.3932284363388488 0 0.53823865529665704 0.45873898050322898 0 0.49102375406324739 0.49123754822244059 0 0.53330375813596242 0.50827942741749099 0 0.53823865529665704 0.45873898050322898 0 0.49102375406324739 0.49123754822244059 0 0.48858720058566618 0.43964267759203868 0 0.53823865529665704 0.45873898050322898 0 0.53330375813596242 0.50827942741749099 0 0.57611405284611883 0.50165903596042916 0 0.53823865529665704 0.45873898050322898 0 0.57611405284611883 0.50165903596042916 0 0.57975577671020095 0.46172033326338591 0 0.61547661924074692 0.48539576058873962 0 0.57611405284611883 0.50165903596042916 0 0.53823865529665704 0.45873898050322898 0 0.57975577671020095 0.46172033326338591 0 0.57975577671020095 0.46172033326338591 0 0.61209567303293111 0.44669033081290321 0 0.57744073070774993 0.41535148636609359 0 0.53823865529665704 0.45873898050322898 0 0.57975577671020095 0.46172033326338591 0 0.57744073070774993 0.41535148636609359 0 0.57975577671020095 0.46172033326338591 0 0.61209567303293111 0.44669033081290321 0 0.61547661924074692 0.48539576058873962 0 0.56836770495988642 0.3523062350852913 0 0.57744073070774993 0.41535148636609359 0 0.6084546825910605 0.37989672713932537 0 0.61209567303293111 0.44669033081290321 0 0.57744073070774993 0.41535148636609359 0 0.63912439215427275 0.41063340167983359 0 0.57744073070774993 0.41535148636609359 0 0.6084546825910605 0.37989672713932537 0 0.63912439215427275 0.41063340167983359 0 0.6084546825910605 0.37989672713932537 0 0.63912439215427275 0.41063340167983359 0 0.65481233915350323 0.35652751921065562 0 0.63912439215427275 0.41063340167983359 0 0.65178832218679827 0.45929119821019959 0 0.6879972333610942 0.43038561374960838 0 0.63912439215427275 0.41063340167983359 0 0.68128176404677243 0.38629093627004979 0 0.6879972333610942 0.43038561374960838 0 0.63912439215427275 0.41063340167983359 0 0.68128176404677243 0.38629093627004979 0 0.65481233915350323 0.35652751921065562 0 0.61547661924074692 0.48539576058873962 0 0.6541250972820879 0.49999999999999989 0 0.65178832218679827 0.45929119821019959 0 0.61209567303293111 0.44669033081290321 0 0.61547661924074692 0.48539576058873962 0 0.65178832218679827 0.45929119821019959 0 0.61209567303293111 0.44669033081290321 0 0.63912439215427275 0.41063340167983359 0 0.65178832218679827 0.45929119821019959 0 0.65178832218679827 0.45929119821019959 0 0.69385896817107129 0.48377516041410151 0 0.6879972333610942 0.43038561374960838 0 0.6541250972820879 0.49999999999999989 0 0.65178832218679827 0.45929119821019959 0 0.69385896817107129 0.48377516041410151 0 0.7152569930854884 0.5237994455134295 0 0.69385896817107129 0.48377516041410151 0 0.73947346780852752 0.49062440112282169 0 0.69385896817107129 0.48377516041410151 0 0.73483647259922602 0.44789725365921768 0 0.6879972333610942 0.43038561374960838 0 0.69385896817107129 0.48377516041410151 0 0.73483647259922602 0.44789725365921768 0 0.73947346780852752 0.49062440112282169 0 0.68128176404677243 0.38629093627004979 0 0.72622533758026719 0.40265885511101601 0 0.71508799138962864 0.36622814920737751 0 0.73483647259922602 0.44789725365921768 0 0.6879972333610942 0.43038561374960838 0 0.72622533758026719 0.40265885511101601 0 0.68128176404677243 0.38629093627004979 0 0.6879972333610942 0.43038561374960838 0 0.72622533758026719 0.40265885511101601 0 0.77354604466818633 0.40378688774472771 0 0.73483647259922602 0.44789725365921768 0 0.72622533758026719 0.40265885511101601 0 0.72622533758026719 0.40265885511101601 0 0.74764719760526988 0.3719647154012321 0 0.71508799138962864 0.36622814920737751 0 0.77354604466818633 0.40378688774472771 0 0.72622533758026719 0.40265885511101601 0 0.74764719760526988 0.3719647154012321 0 0.74764719760526988 0.3719647154012321 0 0.71508799138962864 0.36622814920737751 0 0.73090396928863699 0.33699297293167962 0 0.71508799138962864 0.36622814920737751 0 0.68887083591306764 0.33632058575757479 0 0.73090396928863699 0.33699297293167962 0 0.68128176404677243 0.38629093627004979 0 0.71508799138962864 0.36622814920737751 0 0.68887083591306764 0.33632058575757479 0 0.68887083591306764 0.33632058575757479 0 0.73090396928863699 0.33699297293167962 0 0.69999999999999984 0.29999999999999999 0 0.72500000000000064 0.2498161764706 0 0.74999999999999989 0.29999999999999999 0 0.69999999999999984 0.29999999999999999 0 0.74999999999999989 0.29999999999999999 0 0.69999999999999984 0.29999999999999999 0 0.73090396928863699 0.33699297293167962 0 0.74999999999999989 0.29999999999999999 0 0.69999999999999984 0.29999999999999999 0 0.77075983436335049 0.25919399014334171 0 0.72500000000000064 0.2498161764706 0 0.74999999999999989 0.29999999999999999 0 0.72500000000000064 0.2498161764706 0 0.69999999999999984 0.29999999999999999 0 0.67933712972090698 0.25920070958121938 0 0.69999999999999984 0.29999999999999999 0 0.67933712972090698 0.25920070958121938 0 0.6499999999999998 0.29999999999999999 0 0.68887083591306764 0.33632058575757479 0 0.69999999999999984 0.29999999999999999 0 0.6499999999999998 0.29999999999999999 0 0.69999999999999984 0.29999999999999999 0 0.6499999999999998 0.29999999999999999 0 0.67933712972090698 0.25920070958121938 0 0.62657463266645097 0.26524202571255862 0 0.6499999999999998 0.29999999999999999 0 0.65394964615507722 0.22666784374016369 0 0.67933712972090698 0.25920070958121938 0 0.62657463266645097 0.26524202571255862 0 0.59999999999999976 0.29999999999999999 0 0.62657463266645097 0.26524202571255862 0 0.6499999999999998 0.29999999999999999 0 0.61959173890754571 0.33832250091341232 0 0.6499999999999998 0.29999999999999999 0 0.65481233915350323 0.35652751921065562 0 0.61959173890754571 0.33832250091341232 0 0.6084546825910605 0.37989672713932537 0 0.65481233915350323 0.35652751921065562 0 0.68128176404677243 0.38629093627004979 0 0.68887083591306764 0.33632058575757479 0 0.65481233915350323 0.35652751921065562 0 0.68887083591306764 0.33632058575757479 0 0.6499999999999998 0.29999999999999999 0 0.65481233915350323 0.35652751921065562 0 
</DataArray>
</Points>
<Cells>
<DataArray type="UInt32" Name="connectivity" format="ascii">
0 1 2 3 4 5 6 7 8 9 10 11 12 13 14 15 16 17 18 19 20 21 22 23 24 25 26 27 28 29 30 31 32 33 34 35 36 37 38 39 40 41 42 43 44 45 46 47 48 49 50 51 52 53 54 55 56 57 58 59 60 61 62 63 64 65 66 67 68 69 70 71 72 73 74 75 76 77 78 79 80 81 82 83 84 85 86 87 88 89 90 91 92 93 94 95 96 97 98 99 100 101 102 103 104 105 106 107 108 109 110 111 112 113 114 115 116 117 118 119 120 121 122 123 124 125 126 127 128 129 130 131 132 133 134 135 136 137 138 139 140 141 142 143 144 145 146 147 148 149 150 151 152 153 154 155 156 157 158 159 160 161 162 163 164 165 166 167 168 169 170 171 172 173 174 175 176 177 178 179 180 181 182 183 184 185 186 187 188 189 190 191 192 193 194 195 196 197 198 199 200 201 202 203 204 205 206 207 208 209 210 211 212 213 214 215 216 217 218 219 220 221 222 223 224 225 226 227 228 229 230 231 232 233 234 235 236 237 238 239 240 241 242 243 244 245 246 247 248 249 250 251 252 253 254 255 256 257 258 259 260 261 262 263 264 265 266 267 268 269 270 271 272 273 274 275 276 277 278 279 280 281 282 283 284 285 286 287 288 289 290 291 292 293 294 295 296 297 298 299 300 301 302 303 304 305 306 307 308 309 310 311 312 313 314 315 316 317 318 319 320 321 322 323 324 325 326 327 328 329 330 331 332 333 334 335 336 337 338 339 340 341 342 343 344 345 346 347 348 349 350 351 352 353 354 355 356 357 358 359 360 361 362 363 364 365 366 367 368 369 370 371 372 373 374 375 376 377 378 379 380 381 382 383 384 385 386 387 388 389 390 391 392 393 394 395 396 397 398 399 400 401 402 403 404 405 406 407 408 409 410 411 412 413 414 415 416 417 418 419 420 421 422 423 424 425 426 427 428 429 430 431 432 433 434 435 436 437 438 439 440 441 442 443 444 445 446 447 448 449 450 451 452 453 454 455 456 457 458 459 460 461 462 463 464 465 466 467 468 469 470 471 472 473 474 475 476 477 478 479 480 481 482 483 484 485 486 487 488 489 490 491 492 493 494 495 496 497 498 499 500 501 502 503 504 505 506 507 508 509 510 511 512 513 514 515 516 517 518 519 520 521 522 523 524 525 526 527 528 529 530 531 532 533 534 535 536 537 538 539 540 541 542 543 544 545 546 547 548 549 550 551 552 553 554 555 556 557 558 559 560 561 562 563 564 565 566 567 568 569 570 571 572 573 574 575 576 577 578 579 580 581 582 583 584 585 586 587 588 589 590 591 592 593 594 595 596 597 598 599 600 601 602 603 604 605 606 607 608 609 610 611 612 613 614 615 616 617 618 619 620 621 622 623 624 625 626 627 628 629 630 631 632 633 634 635 636 637 638 639 640 641 642 643 644 645 646 647 648 649 650 651 652 653 654 655 656 657 658 659 660 661 662 663 664 665 666 667 668 669 670 671 672 673 674 675 676 677 678 679 680 681 682 683 684 685 686 687 688 689 690 691 692 693 694 695 696 697 698 699 700 701 702 703 704 705 706 707 708 709 710 711 712 713 714 715 716 717 718 719 720 721 722 723 724 725 726 727 728 729 730 731 732 733 734 735 736 737 738 739 740 741 742 743 744 745 746 747 748 749 750 751 752 753 754 755 756 757 758 759 760 761 762 763 764 765 766 767 768 769 770 771 772 773 774 775 776 777 778 779 780 781 782 783 784 785 786 787 788 789 790 791 792 793 794 795 796 797 798 799 800 801 802 803 804 805 806 807 808 809 810 811 812 813 814 815 816 817 818 819 820 821 822 823 824 825 826 827 828 829 830 831 832 833 834 835 836 837 838 839 840 841 842 843 844 845 846 847 848 849 850 851 852 853 854 855 856 857 858 859 860 861 862 863 864 865 866 867 868 869 870 871 872 873 874 875 876 877 878 879 880 881 882 883 884 885 886 887 888 889 890 891 892 893 894 895 896 897 898 899 900 901 902 903 904 905 906 907 908 909 910 911 912 913 914 915 916 917 918 919 920 921 922 923 924 925 926 927 928 929 930 931 932 933 934 935 936 937 938 939 940 941 942 943 944 945 946 947 948 949 950 951 952 953 954 955 956 957 958 959 960 961 962 963 964 965 966 967 968 969 970 971 972 973 974 975 976 977 978 979 980 981 982 983 984 985 986 987 988 989 990 991 992 993 994 995 996 997 998 999 1000 1001 1002 1003 1004 1005 1006 1007 1008 1009 1010 1011 1012 1013 1014 1015 1016 1017 1018 1019 1020 1021 1022 1023 1024 1025 1026 1027 1028 1029 1030 1031 1032 1033 1034 1035 1036 1037 1038 1039 1040 1041 1042 1043 1044 1045 1046 1047 1048 1049 1050 1051 1052 1053 1054 1055 1056 1057 1058 1059 1060 1061 1062 1063 1064 1065 1066 1067 1068 1069 1070 1071 1072 1073 1074 1075 1076 1077 1078 1079 1080 1081 1082 1083 1084 1085 1086 1087 1088 1089 1090 1091 1092 1093 1094 1095 1096 1097 1098 1099 1100 1101 1102 1103 1104 1105 1106 1107 1108 1109 1110 1111 1112 1113 1114 1115 1116 1117 1118 1119 1120 1121 1122 1123 1124 1125 1126 1127 1128 1129 1130 1131 1132 1133 1134 1135 1136 1137 1138 1139 1140 1141 1142 1143 1144 1145 1146 1147 1148 1149 1150 1151 1152 1153 1154 1155 1156 1157 1158 1159 1160 1161 1162 1163 1164 1165 1166 1167 1168 1169 1170 1171 1172 1173 1174 1175 1176 1177 1178 1179 1180 1181 1182 1183 1184 1185 1186 1187 1188 1189 1190 1191 1192 1193 1194 1195 1196 1197 1198 1199 1200 1201 1202 1203 1204 1205 1206 1207 1208 1209 1210 1211 1212 1213 1214 1215 1216 1217 1218 1219 1220 1221 1222 1223 1224 1225 1226 1227 1228 1229 1230 1231 1232 1233 1234 1235 1236 1237 1238 1239 1240 1241 1242 1243 1244 1245 1246 1247 1248 1249 1250 1251 1252 1253 1254 1255 1256 1257 1258 1259 1260 1261 1262 1263 1264 1265 1266 1267 1268 1269 1270 1271 1272 1273 1274 1275 1276 1277 1278 1279 1280 1281 1282 1283 1284 1285 1286 1287 1288 1289 1290 1291 1292 1293 1294 1295 1296 1297 1298 1299 1300 1301 1302 1303 1304 1305 1306 1307 1308 1309 1310 1311 1312 1313 1314 1315 1316 1317 1318 1319 1320 1321 1322 1323 1324 1325 1326 1327 1328 1329 1330 1331 1332 1333 1334 1335 1336 1337 1338 1339 1340 1341 1342 1343 1344 1345 1346 1347 1348 1349 1350 1351 1352 1353 1354 1355 1356 1357 1358 1359 1360 1361 1362 1363 1364 1365 1366 1367 1368 1369 1370 1371 1372 1373 1374 1375 1376 1377 1378 1379 1380 1381 1382 1383 1384 1385 1386 1387 1388 1389 1390 1391 1392 1393 1394 1395 1396 1397 1398 1399 1400 1401 1402 1403 1404 1405 1406 1407 1408 1409 1410 1411 1412 1413 1414 1415 1416 1417 1418 1419 1420 1421 1422 1423 1424 1425 1426 1427 1428 1429 1430 1431 1432 1433 1434 1435 1436 1437 1438 1439 1440 1441 1442 1443 1444 1445 1446 1447 1448 1449 1450 1451 1452 1453 1454 1455 1456 1457 1458 1459 1460 1461 1462 1463 1464 1465 1466 1467 1468 1469 1470 1471 1472 1473 1474 1475 1476 1477 1478 1479 1480 1481 1482 1483 1484 1485 1486 1487 1488 1489 1490 1491 1492 1493 1494 1495 1496 1497 1498 1499 1500 1501 1502 1503 1504 1505 1506 1507 1508 1509 1510 1511 1512 1513 1514 1515 1516 1517 1518 1519 1520 1521 1522 1523 1524 1525 1526 1527 1528 1529 1530 1531 1532 1533 1534 1535 1536 1537 1538 1539 1540 1541 1542 1543 1544 1545 1546 1547 1548 1549 1550 1551 1552 1553 1554 1555 1556 1557 1558 1559 1560 1561 1562 1563 1564 1565 1566 1567 1568 1569 1570 1571 1572 1573 1574 1575 1576 1577 1578 1579 1580 1581 1582 1583 1584 1585 1586 1587 1588 1589 1590 1591 1592 1593 1594 1595 1596 1597 1598 1599 1600 1601 1602 1603 1604 1605 1606 1607 1608 1609 1610 1611 1612 1613 1614 1615 1616 1617 1618 1619 1620 1621 1622 1623 1624 1625 1626 1627 1628 1629 1630 1631 1632 1633 1634 1635 1636 1637 1638 1639 1640 1641 1642 1643 1644 1645 1646 1647 1648 1649 1650 1651 1652 1653 1654 1655 1656 1657 1658 1659 1660 1661 1662 1663 1664 1665 1666 1667 1668 1669 1670 1671 1672 1673 1674 1675 1676 1677 1678 1679 1680 1681 1682 1683 1684 1685 1686 1687 1688 1689 1690 1691 1692 1693 1694 1695 1696 1697 1698 1699 1700 1701 1702 1703 1704 1705 1706 1707 1708 1709 1710 1711 1712 1713 1714 1715 1716 1717 1718 1719 1720 1721 1722 1723 1724 1725 1726 1727 1728 1729 1730 1731 1732 1733 1734 1735 1736 1737 1738 1739 1740 1741 1742 1743 1744 1745 1746 1747 1748 1749 1750 1751 1752 1753 1754 1755 1756 1757 1758 1759 1760 1761 1762 1763 1764 1765 1766 1767 1768 1769 1770 1771 1772 1773 1774 1775 1776 1777 1778 1779 1780 1781 1782 1783 1784 1785 1786 1787 1788 1789 1790 1791 1792 1793 1794 1795 1796 1797 1798 1799 1800 1801 1802 1803 1804 1805 1806 1807 1808 1809 1810 1811 1812 1813 1814 1815 1816 1817 1818 1819 1820 1821 1822 1823 1824 1825 1826 1827 1828 1829 1830 1831 1832 1833 1834 1835 1836 1837 1838 1839 1840 1841 1842 1843 1844 1845 1846 1847 1848 1849 1850 1851 1852 1853 1854 1855 1856 1857 1858 1859 1860 1861 1862 1863 1864 1865 1866 1867 1868 1869 1870 1871 1872 1873 1874 1875 1876 1877 1878 1879 1880 1881 1882 1883 1884 1885 1886 1887 1888 1889 1890 1891 1892 1893 1894 1895 1896 1897 1898 1899 1900 1901 1902 1903 1904 1905 1906 1907 1908 1909 1910 1911 1912 1913 1914 1915 1916 1917 1918 1919 1920 1921 1922 1923 1924 1925 1926 1927 1928 1929 1930 1931 1932 1933 1934 1935 1936 1937 1938 1939 1940 1941 1942 1943 1944 1945 1946 1947 1948 1949 1950 1951 1952 1953 1954 1955 1956 1957 1958 1959 1960 1961 1962 1963 1964 1965 1966 1967 1968 1969 1970 1971 1972 1973 1974 1975 1976 1977 1978 1979 1980 1981 1982 1983 1984 1985 1986 1987 1988 1989 1990 1991 1992 1993 1994 1995 1996 1997 1998 1999 2000 2001 2002 2003 2004 2005 2006 2007 2008 2009 2010 2011 2012 2013 2014 2015 2016 2017 2018 2019 2020 2021 2022 2023 2024 2025 2026 2027 2028 2029 2030 2031 2032 2033 2034 2035 2036 2037 2038 2039 2040 2041 2042 2043 2044 2045 2046 2047 2048 2049 2050 2051 2052 2053 2054 2055 2056 2057 2058 2059 2060 2061 2062 2063 2064 2065 2066 2067 2068 2069 2070 2071 2072 2073 2074 2075 2076 2077 2078 2079 2080 2081 2082 2083 2084 2085 2086 2087 2088 2089 2090 2091 2092 2093 2094 2095 2096 2097 2098 2099 2100 2101 2102 2103 2104 2105 2106 2107 2108 2109 2110 2111 2112 2113 2114 2115 2116 2117 2118 2119 2120 2121 2122 2123 2124 2125 2126 2127 2128 2129 2130 2131 2132 2133 2134 2135 2136 2137 2138 2139 2140 2141 2142 2143 2144 2145 2146 2147 2148 2149 2150 2151 2152 2153 2154 2155 2156 2157 2158 2159 2160 2161 2162 2163 2164 2165 2166 2167 2168 2169 2170 2171 2172 2173 2174 2175 2176 2177 2178 2179 2180 2181 2182 2183 2184 2185 2186 2187 2188 2189 2190 2191 2192 2193 2194 2195 2196 2197 2198 2199 2200 2201 2202 2203 2204 2205 2206 2207 2208 2209 2210 2211 2212 2213 2214 2215 2216 2217 2218 2219 2220 2221 2222 2223 2224 2225 2226 2227 2228 2229 2230 2231 2232 2233 2234 2235 2236 2237 2238 2239 2240 2241 2242 2243 2244 2245 2246 2247 2248 2249 2250 2251 2252 2253 2254 2255 2256 2257 2258 2259 2260 2261 2262 2263 2264 2265 2266 2267 2268 2269 2270 2271 2272 2273 2274 2275 2276 2277 2278 2279 2280 2281 2282 2283 2284 2285 2286 2287 2288 2289 2290 2291 2292 2293 2294 2295 2296 2297 2298 2299 2300 2301 2302 2303 2304 2305 2306 2307 2308 2309 2310 2311 2312 2313 2314 2315 2316 2317 2318 2319 2320 2321 2322 2323 2324 2325 2326 2327 2328 2329 2330 2331 2332 2333 2334 2335 2336 2337 2338 2339 2340 2341 2342 2343 2344 2345 2346 2347 2348 2349 2350 2351 2352 2353 2354 2355 2356 2357 2358 2359 2360 2361 2362 2363 2364 2365 2366 2367 2368 2369 2370 2371 2372 2373 2374 2375 2376 2377 2378 2379 2380 2381 2382 2383 2384 2385 2386 2387 2388 2389 2390 2391 2392 2393 2394 2395 2396 2397 2398 2399 2400 2401 2402 2403 2404 2405 2406 2407 2408 2409 2410 2411 2412 2413 2414 2415 2416 2417 2418 2419 2420 2421 2422 2423 2424 2425 2426 2427 2428 2429 2430 2431 2432 2433 2434 2435 2436 2437 2438 2439 2440 2441 2442 2443 2444 2445 2446 2447 2448 2449 2450 2451 2452 2453 2454 2455 2456 2457 2458 2459 2460 2461 2462 2463 2464 2465 2466 2467 2468 2469 2470 2471 2472 2473 2474 2475 2476 2477 2478 2479 2480 2481 2482 2483 2484 2485 2486 2487 2488 2489 2490 2491 2492 2493 2494 2495 2496 2497 2498 2499 2500 2501 2502 2503 2504 2505 2506 2507 2508 2509 2510 2511 2512 2513 2514 2515 2516 2517 2518 2519 2520 2521 2522 2523 2524 2525 2526 2527 2528 2529 2530 2531 2532 2533 2534 2535 2536 2537 2538 2539 2540 2541 2542 2543 2544 2545 2546 2547 2548 2549 2550 2551 2552 2553 2554 2555 2556 2557 2558 2559 2560 2561 2562 2563 2564 2565 2566 2567 2568 2569 2570 2571 2572 2573 2574 2575 2576 2577 2578 2579 2580 2581 2582 2583 2584 2585 2586 2587 2588 2589 2590 2591 2592 2593 2594 2595 2596 2597 2598 2599 2600 2601 2602 2603 2604 2605 2606 2607 2608 2609 2610 2611 2612 2613 2614 2615 2616 2617 2618 2619 2620 2621 2622 2623 2624 2625 2626 2627 2628 2629 2630 2631 2632 2633 2634 2635 2636 2637 2638 2639 2640 2641 2642 2643 2644 2645 2646 2647 2648 2649 2650 2651 2652 2653 2654 2655 2656 2657 2658 2659 2660 2661 2662 2663 2664 2665 2666 2667 2668 2669 2670 2671 2672 2673 2674 2675 2676 2677 2678 2679 2680 2681 2682 2683 2684 2685 2686 2687 2688 2689 2690 2691 2692 2693 2694 2695 2696 2697 2698 2699 2700 2701 2702 2703 2704 2705 2706 2707 2708 2709 2710 2711 2712 2713 2714 2715 2716 2717 2718 2719 2720 2721 2722 2723 2724 2725 2726 2727 2728 2729 2730 2731 2732 2733 2734 2735 2736 2737 2738 2739 2740 2741 2742 2743 2744 2745 2746 2747 2748 2749 2750 2751 2752 2753 2754 2755 2756 2757 2758 2759 2760 2761 2762 2763 2764 2765 2766 2767 2768 2769 2770 2771 2772 2773 2774 2775 2776 2777 2778 2779 2780 2781 2782 2783 2784 2785 2786 2787 2788 2789 2790 2791 2792 2793 2794 2795 2796 2797 2798 2799 2800 2801 2802 2803 2804 2805 2806 2807 2808 2809 2810 2811 2812 2813 2814 2815 2816 2817 2818 2819 2820 2821 2822 2823 2824 2825 2826 2827 2828 2829 2830 2831 2832 2833 2834 2835 2836 2837 2838 2839 2840 2841 2842 2843 2844 2845 2846 2847 2848 2849 2850 2851 2852 2853 2854 2855 2856 2857 2858 2859 2860 2861 2862 2863 2864 2865 2866 2867 2868 2869 2870 2871 2872 2873 2874 2875 2876 2877 2878 2879 2880 2881 2882 2883 2884 2885 2886 2887 2888 2889 2890 2891 2892 2893 2894 2895 2896 2897 2898 2899 2900 2901 2902 2903 2904 2905 2906 2907 2908 2909 2910 2911 2912 2913 2914 2915 2916 2917 2918 2919 2920 2921 2922 2923 2924 2925 2926 2927 2928 2929 2930 2931 2932 2933 2934 2935 2936 2937 2938 2939 2940 2941 2942 2943 2944 2945 2946 2947 2948 2949 2950 2951 2952 2953 2954 2955 2956 2957 2958 2959 2960 2961 2962 2963 2964 2965 2966 2967 2968 2969 2970 2971 2972 2973 2974 2975 2976 2977 2978 2979 2980 2981 2982 2983 2984 2985 2986 2987 2988 2989 2990 2991 2992 2993 2994 2995 2996 2997 2998 2999 3000 3001 3002 3003 3004 3005 3006 3007 3008 3009 3010 3011 3012 3013 3014 3015 3016 3017 3018 3019 3020 3021 3022 3023 3024 3025 3026 3027 3028 3029 3030 3031 3032 3033 3034 3035 3036 3037 3038 3039 3040 3041 3042 3043 3044 3045 3046 3047 3048 3049 3050 3051 3052 3053 3054 3055 3056 3057 3058 3059 3060 3061 3062 3063 3064 3065 3066 3067 3068 3069 3070 3071 3072 3073 3074 3075 3076 3077 3078 3079 3080 3081 3082 3083 3084 3085 3086 3087 3088 3089 3090 3091 3092 3093 3094 3095 3096 3097 3098 3099 3100 3101 3102 3103 3104 3105 3106 3107 3108 3109 3110 3111 3112 3113 3114 3115 3116 3117 3118 3119 3120 3121 3122 3123 3124 3125 3126 3127 3128 3129 3130 3131 3132 3133 3134 3135 3136 3137 3138 3139 3140 3141 
</DataArray>
<DataArray type="UInt32" Name="offsets" format="ascii">
3 6 9 12 15 18 21 24 27 30 33 36 39 42 45 48 51 54 57 60 63 66 69 72 75 78 81 84 87 90 93 96 99 102 105 108 111 114 117 120 123 126 129 132 135 138 141 144 147 150 153 156 159 162 165 168 171 174 177 180 183 186 189 192 195 198 201 204 207 210 213 216 219 222 225 228 231 234 237 240 243 246 249 252 255 258 261 264 267 270 273 276 279 282 285 288 291 294 297 300 303 306 309 312 315 318 321 324 327 330 333 336 339 342 345 348 351 354 357 360 363 366 369 372 375 378 381 384 387 390 393 396 399 402 405 408 411 414 417 420 423 426 429 432 435 438 441 444 447 450 453 456 459 462 465 468 471 474 477 480 483 486 489 492 495 498 501 504 507 510 513 516 519 522 525 528 531 534 537 540 543 546 549 552 555 558 561 564 567 570 573 576 579 582 585 588 591 594 597 600 603 606 609 612 615 618 621 624 627 630 633 636 639 642 645 648 651 654 657 660 663 666 669 672 675 678 681 684 687 690 693 696 699 702 705 708 711 714 717 720 723 726 729 732 735 738 741 744 747 750 753 756 759 762 765 768 771 774 777 780 783 786 789 792 795 798 801 804 807 810 813 816 819 822 825 828 831 834 837 840 843 846 849 852 855 858 861 864 867 870 873 876 879 882 885 888 891 894 897 900 903 906 909 912 915 918 921 924 927 930 933 936 939 942 945 948 951 954 957 960 963 966 969 972 975 978 981 984 987 990 993 996 999 1002 1005 1008 1011 1014 1017 1020 1023 1026 1029 1032 1035 1038 1041 1044 1047 1050 1053 1056 1059 1062 1065 1068 1071 1074 1077 1080 1083 1086 1089 1092 1095 1098 1101 1104 1107 1110 1113 1116 1119 1122 1125 1128 1131 1134 1137 1140 1143 1146 1149 1152 1155 1158 1161 1164 1167 1170 1173 1176 1179 1182 1185 1188 1191 1194 1197 1200 1203 1206 1209 1212 1215 1218 1221 1224 1227 1230 1233 1236 1239 1242 1245 1248 1251 1254 1257 1260 1263 1266 1269 1272 1275 1278 1281 1284 1287 1290 1293 1296 1299 1302 1305 1308 1311 1314 1317 1320 1323 1326 1329 1332 1335 1338 1341 1344 1347 1350 1353 1356 1359 1362 1365 1368 1371 1374 1377 1380 1383 1386 1389 1392 1395 1398 1401 1404 1407 1410 1413 1416 1419 1422 1425 1428 1431 1434 1437 1440 1443 1446 1449 1452 1455 1458 1461 1464 1467 1470 1473 1476 1479 1482 1485 1488 1491 1494 1497 1500 1503 1506 1509 1512 1515 1518 1521 1524 1527 1530 1533 1536 1539 1542 1545 1548 1551 1554 1557 1560 1563 1566 1569 1572 1575 1578 1581 1584 1587 1590 1593 1596 1599 1602 1605 1608 1611 1614 1616 1619 1622 1624 1627 1630 1632 1635 1638 1641 1644 1647 1650 1653 1656 1659 1662 1665 1668 1671 1673 1676 1679 1682 1685 1688 1690 1693 1696 1699 1702 1705 1708 1711 1714 1717 1720 1723 1726 1729 1732 1735 1738 1741 1744 1747 1750 1753 1756 1759 1762 1765 1768 1771 1774 1777 1780 1783 1786 1789 1792 1795 1798 1801 1804 1807 1810 1813 1816 1819 1822 1825 1828 1831 1834 1837 1840 1843 1846 1849 1852 1855 1858 1861 1864 1867 1870 1873 1876 1879 1882 1885 1888 1891 1894 1897 1900 1903 1906 1909 1912 1915 1918 1921 1924 1927 1930 1933 1936 1939 1942 1945 1948 1951 1954 1957 1960 1963 1966 1969 1972 1975 1978 1981 1984 1987 1990 1993 1996 1999 2002 2005 2008 2011 2014 2017 2020 2023 2026 2029 2032 2035 2038 2041 2044 2047 2050 2053 2056 2059 2062 2065 2068 2071 2074 2077 2080 2083 2086 2089 2092 2095 2098 2101 2104 2107 2110 2113 2116 2119 2122 2125 2128 2131 2134 2137 2140 2143 2146 2149 2152 2155 2158 2161 2164 2167 2170 2173 2176 2179 2182 2185 2188 2191 2194 2196 2199 2202 2205 2207 2210 2213 2215 2218 2221 2224 2227 2230 2233 2236 2239 2242 2245 2248 2250 2253 2256 2259 2262 2264 2267 2270 2273 2276 2279 2282 2285 2288 2291 2294 2297 2300 2303 2306 2309 2312 2315 2318 2321 2324 2327 2330 2333 2336 2339 2342 2345 2348 2351 2354 2357 2360 2363 2366 2369 2372 2375 2378 2381 2384 2387 2390 2393 2396 2399 2402 2405 2408 2411 2414 2417 2420 2423 2426 2429 2432 2435 2438 2440 2443 2446 2449 2452 2455 2458 2461 2464 2467 2470 2473 2476 2479 2482 2484 2487 2490 2492 2495 2497 2500 2503 2506 2509 2512 2515 2518 2521 2524 2527 2530 2533 2536 2538 2541 2544 2547 2550 2553 2556 2559 2562 2565 2568 2571 2574 2577 2580 2583 2586 2589 2592 2595 2598 2601 2604 2607 2610 2613 2616 2619 2622 2625 2628 2631 2634 2637 2640 2643 2646 2649 2652 2655 2658 2661 2664 2667 2670 2673 2676 2679 2682 2685 2688 2691 2694 2697 2700 2703 2706 2709 2712 2715 2718 2721 2724 2727 2730 2733 2736 2739 2742 2745 2748 2751 2754 2757 2760 2763 2766 2769 2772 2775 2778 2781 2784 2787 2790 2793 2796 2799 2802 2805 2808 2811 2814 2817 2820 2823 2826 2829 2832 2835 2838 2841 2844 2847 2850 2853 2856 2859 2862 2865 2868 2871 2874 2877 2880 2883 2886 2889 2892 2895 2898 2901 2904 2907 2910 2913 2916 2919 2922 2925 2928 2931 2934 2937 2940 2943 2946 2948 2951 2954 2956 2959 2961 2964 2967 2970 2973 2976 2979 2982 2985 2988 2991 2994 2997 3000 3003 3006 3009 3012 3015 3018 3021 3024 3027 3030 3033 3036 3039 3042 3045 3048 3051 3054 3057 3060 3063 3066 3069 3072 3075 3078 3081 3084 3087 3090 3093 3096 3099 3102 3104 3107 3110 3113 3116 3119 3121 3124 3127 3130 3133 3136 3139 3142 
</DataArray>
<DataArray type="UInt32" Name="types" format="ascii">
5 5 5 5 5 5 5 5 5 5 5 5 5 5 5 5 5 5 5 5 5 5 5 5 5 5 5 5 5 5 5 5 5 5 5 5 5 5 5 5 5 5 5 5 5 5 5 5 5 5 5 5 5 5 5 5 5 5 5 5 5 5 5 5 5 5 5 5 5 5 5 5 5 5 5 5 5 5 5 5 5 5 5 5 5 5 5 5 5 5 5 5 5 5 5 5 5 5 5 5 5 5 5 5 5 5 5 5 5 5 5 5 5 5 5 5 5 5 5 5 5 5 5 5 5 5 5 5 5 5 5 5 5 5 5 5 5 5 5 5 5 5 5 5 5 5 5 5 5 5 5 5 5 5 5 5 5 5 5 5 5 5 5 5 5 5 5 5 5 5 5 5 5 5 5 5 5 5 5 5 5 5 5 5 5 5 5 5 5 5 5 5 5 5 5 5 5 5 5 5 5 5 5 5 5 5 5 5 5 5 5 5 5 5 5 5 5 5 5 5 5 5 5 5 5 5 5 5 5 5 5 5 5 5 5 5 5 5 5 5 5 5 5 5 5 5 5 5 5 5 5 5 5 5 5 5 5 5 5 5 5 5 5 5 5 5 5 5 5 5 5 5 5 5 5 5 5 5 5 5 5 5 5 5 5 5 5 5 5 5 5 5 5 5 5 5 5 5 5 5 5 5 5 5 5 5 5 5 5 5 5 5 5 5 5 5 5 5 5 5 5 5 5 5 5 5 5 5 5 5 5 5 5 5 5 5 5 5 5 5 5 5 5 5 5 5 5 5 5 5 5 5 5 5 5 5 5 5 5 5 5 5 5 5 5 5 5 5 5 5 5 5 5 5 5 5 5 5 5 5 5 5 5 5 5 5 5 5 5 5 5 5 5 5 5 5 5 5 5 5 5 5 5 5 5 5 5 5 5 5 5 5 5 5 5 5 5 5 5 5 5 5 5 5 5 5 5 5 5 5 5 5 5 5 5 5 5 5 5 5 5 5 5 5 5 5 5 5 5 5 5 5 5 5 5 5 5 5 5 5 5 5 5 5 5 5 5 5 5 5 5 5 5 5 5 5 5 5 5 5 5 5 5 5 5 5 5 5 5 5 5 5 5 5 5 5 5 5 5 5 5 5 5 5 5 5 5 5 5 5 5 5 5 5 5 5 5 5 5 5 5 5 5 5 5 5 5 5 5 5 5 5 5 5 5 5 5 5 3 5 5 3 5 5 3 5 5 5 5 5 5 5 5 5 5 5 5 5 3 5 5 5 5 5 3 5 5 5 5 5 5 5 5 5 5 5 5 5 5 5 5 5 5 5 5 5 5 5 5 5 5 5 5 5 5 5 5 5 5 5 5 5 5 5 5 5 5 5 5 5 5 5 5 5 5 5 5 5 5 5 5 5 5 5 5 5 5 5 5 5 5 5 5 5 5 5 5 5 5 5 5 5 5 5 5 5 5 5 5 5 5 5 5 5 5 5 5 5 5 5 5 5 5 5 5 5 5 5 5 5 5 5 5 5 5 5 5 5 5 5 5 5 5 5 5 5 5 5 5 5 5 5 5 5 5 5 5 5 5 5 5 5 5 5 5 5 5 5 5 5 5 5 5 5 5 5 5 5 5 5 5 5 5 5 5 5 5 5 5 5 5 5 5 3 5 5 5 3 5 5 3 5 5 5 5 5 5 5 5 5 5 5 3 5 5 5 5 3 5 5 5 5 5 5 5 5 5 5 5 5 5 5 5 5 5 5 5 5 5 5 5 5 5 5 5 5 5 5 5 5 5 5 5 5 5 5 5 5 5 5 5 5 5 5 5 5 5 5 5 5 5 5 5 5 5 5 3 5 5 5 5 5 5 5 5 5 5 5 5 5 5 3 5 5 3 5 3 5 5 5 5 5 5 5 5 5 5 5 5 5 3 5 5 5 5 5 5 5 5 5 5 5 5 5 5 5 5 5 5 5 5 5 5 5 5 5 5 5 5 5 5 5 5 5 5 5 5 5 5 5 5 5 5 5 5 5 5 5 5 5 5 5 5 5 5 5 5 5 5 5 5 5 5 5 5 5 5 5 5 5 5 5 5 5 5 5 5 5 5 5 5 5 5 5 5 5 5 5 5 5 5 5 5 5 5 5 5 5 5 5 5 5 5 5 5 5 5 5 5 5 5 5 5 5 5 5 5 5 5 5 5 5 5 5 5 5 5 5 5 5 5 5 5 5 5 5 5 3 5 5 3 5 3 5 5 5 5 5 5 5 5 5 5 5 5 5 5 5 5 5 5 5 5 5 5 5 5 5 5 5 5 5 5 5 5 5 5 5 5 5 5 5 5 5 5 5 5 5 5 5 3 5 5 5 5 5 3 5 5 5 5 5 5 5 
</DataArray>
</Cells>
<PointData Scalars="" Vectors="displacement," Tensors="">
<DataArray type="Float64" Name="displacement" NumberOfComponents="3" format="ascii">
-0.0001554009495051796 -0.00038062432642574226 0 -4.3971932879689973e-07 -1.0897356724852062e-06 0 -2.4087276864775751e-08 -6.5318230084423626e-07 0 -0.0001554009495051796 -0.00038062432642574226 0 -4.3971932879689973e-07 -1.0897356724852062e-06 0 -0.00051733918741873864 -0.00095550693944465494 0 -0.0001554009495051796 -0.00038062432642574226 0 -2.4087276864775751e-08 -6.5318230084423626e-07 0 -0.00022388392341119882 -0.00068892912590973545 0 -0.0001554009495051796 -0.00038062432642574226 0 -0.00022388392341119882 -0.00068892912590973545 0 -0.00051733918741873864 -0.00095550693944465494 0 -0.00051733918741873864 -0.00095550693944465494 0 -0.00077758470003344419 -0.0018081975330861083 0 -0.00053836185012891096 -0.001618358143358646 0 -0.00077758470003344419 -0.0018081975330861083 0 -0.00053836185012891096 -0.001618358143358646 0 -0.00098798553694868087 -0.0026644374736478293 0 -0.00022388392341119882 -0.00068892912590973545 0 -0.00053836185012891096 -0.001618358143358646 0 -0.00029649553589420854 -0.0012699891005665859 0 -0.00022388392341119882 -0.00068892912590973545 0 -0.00051733918741873864 -0.00095550693944465494 0 -0.00053836185012891096 -0.001618358143358646 0 -0.00053836185012891096 -0.001618358143358646 0 -0.00029649553589420854 -0.0012699891005665859 0 -0.0006023406108927249 -0.002238676125550195 0 -0.00029649553589420854 -0.0012699891005665859 0 -0.0006023406108927249 -0.002238676125550195 0 -0.00035467909649091145 -0.0017739741279093897 0 -0.00029649553589420854 -0.0012699891005665859 0 -0.00018333252982840332 -0.0012338322603541031 0 -0.00035467909649091145 -0.0017739741279093897 0 -0.00018333252982840332 -0.0012338322603541031 0 -0.00035467909649091145 -0.0017739741279093897 0 -0.00027135048408841991 -0.0018217612570565643 0 -0.00018333252982840332 -0.0012338322603541031 0 -9.6875817756598829e-05 -0.00057982122170910345 0 -4.7495160173690492e-05 -0.00074102476771510943 0 -0.00029649553589420854 -0.0012699891005665859 0 -0.00018333252982840332 -0.0012338322603541031 0 -9.6875817756598829e-05 -0.00057982122170910345 0 -9.6875817756598829e-05 -0.00057982122170910345 0 -2.7212948028204599e-08 -6.2458902802083238e-07 0 5.0512646262301556e-08 -5.3332845734464917e-07 0 -2.4087276864775751e-08 -6.5318230084423626e-07 0 -0.00022388392341119882 -0.00068892912590973545 0 -2.7212948028204599e-08 -6.2458902802083238e-07 0 -0.00022388392341119882 -0.00068892912590973545 0 -9.6875817756598829e-05 -0.00057982122170910345 0 -2.7212948028204599e-08 -6.2458902802083238e-07 0 -0.00022388392341119882 -0.00068892912590973545 0 -0.00029649553589420854 -0.0012699891005665859 0 -9.6875817756598829e-05 -0.00057982122170910345 0 -0.0010766626666013483 -0.0037730850783151523 0 -0.0012087896249562613 -0.0035586827365616833 0 -0.0014690935185494199 -0.0045058992528171265 0 -0.0010766626666013483 -0.0037730850783151523 0 -0.0012087896249562613 -0.0035586827365616833 0 -0.00091284762511930869 -0.0030610483014656062 0 -0.0010766626666013483 -0.0037730850783151523 0 -0.00091284762511930869 -0.0030610483014656062 0 -0.00074202002524047022 -0.0030188103262182319 0 -0.00091284762511930869 -0.0030610483014656062 0 -0.00098798553694868087 -0.0026644374736478293 0 -0.0006023406108927249 -0.002238676125550195 0 -0.00053836185012891096 -0.001618358143358646 0 -0.00098798553694868087 -0.0026644374736478293 0 -0.0006023406108927249 -0.002238676125550195 0 -0.00091284762511930869 -0.0030610483014656062 0 -0.0006023406108927249 -0.002238676125550195 0 -0.00074202002524047022 -0.0030188103262182319 0 -0.0012087896249562613 -0.0035586827365616833 0 -0.00091284762511930869 -0.0030610483014656062 0 -0.00098798553694868087 -0.0026644374736478293 0 -0.0006023406108927249 -0.002238676125550195 0 -0.00035467909649091145 -0.0017739741279093897 0 -0.00047846181204392951 -0.0022996240128686884 0 -0.00035467909649091145 -0.0017739741279093897 0 -0.00047846181204392951 -0.0022996240128686884 0 -0.00027135048408841991 -0.0018217612570565643 0 -0.0006023406108927249 -0.002238676125550195 0 -0.00047846181204392951 -0.0022996240128686884 0 -0.00074202002524047022 -0.0030188103262182319 0 -0.00074202002524047022 -0.0030188103262182319 0 -0.00088980117766821203 -0.0036429223201299458 0 -0.00050475564718411431 -0.002638061244682193 0 -0.00047846181204392951 -0.0022996240128686884 0 -0.00074202002524047022 -0.0030188103262182319 0 -0.00050475564718411431 -0.002638061244682193 0 -0.0010766626666013483 -0.0037730850783151523 0 -0.00074202002524047022 -0.0030188103262182319 0 -0.00088980117766821203 -0.0036429223201299458 0 -0.0010766626666013483 -0.0037730850783151523 0 -0.00088980117766821203 -0.0036429223201299458 0 -0.0013093620636137468 -0.0045931988408916902 0 -0.00088980117766821203 -0.0036429223201299458 0 -0.00068105130945375408 -0.0031468582534784221 0 -0.00050475564718411431 -0.002638061244682193 0 -0.0005125930794563884 -0.0026805339043330591 0 -0.00068105130945375408 -0.0031468582534784221 0 -0.00050475564718411431 -0.002638061244682193 0 -0.0005125930794563884 -0.0026805339043330591 0 -0.00050475564718411431 -0.002638061244682193 0 -0.00030505614161689741 -0.0021087778601572207 0 -0.00030505614161689741 -0.0021087778601572207 0 -0.00027135048408841991 -0.0018217612570565643 0 -0.00014159467652896418 -0.001535215398530268 0 -0.00047846181204392951 -0.0022996240128686884 0 -0.00050475564718411431 -0.002638061244682193 0 -0.00027135048408841991 -0.0018217612570565643 0 -0.00050475564718411431 -0.002638061244682193 0 -0.00030505614161689741 -0.0021087778601572207 0 -0.00027135048408841991 -0.0018217612570565643 0 -0.00027135048408841991 -0.0018217612570565643 0 -0.00014159467652896418 -0.001535215398530268 0 -0.00010305484636407826 -0.001205100917945534 0 -0.00014159467652896418 -0.001535215398530268 0 -3.3547526495656001e-05 -0.0011963644324337597 0 -0.00019866170095857169 -0.0017566563188224442 0 -3.3547526495656001e-05 -0.0011963644324337597 0 -0.00019866170095857169 -0.0017566563188224442 0 -8.0032003771136556e-05 -0.0013254046755528887 0 -0.00019866170095857169 -0.0017566563188224442 0 -8.0032003771136556e-05 -0.0013254046755528887 0 -0.00018740756185456087 -0.0015580498931332969 0 -0.00030505614161689741 -0.0021087778601572207 0 -0.00014159467652896418 -0.001535215398530268 0 -0.00019866170095857169 -0.0017566563188224442 0 -0.0005125930794563884 -0.0026805339043330591 0 -0.00030505614161689741 -0.0021087778601572207 0 -0.0003503936674757832 -0.0021232388735984331 0 -0.00030505614161689741 -0.0021087778601572207 0 -0.00019866170095857169 -0.0017566563188224442 0 -0.0003503936674757832 -0.0021232388735984331 0 -0.00019866170095857169 -0.0017566563188224442 0 -0.0003503936674757832 -0.0021232388735984331 0 -0.00018740756185456087 -0.0015580498931332969 0 -0.0003503936674757832 -0.0021232388735984331 0 -0.0005019920602575839 -0.0021877964135213887 0 -0.00060570161636095917 -0.0027257509883509834 0 -0.0005125930794563884 -0.0026805339043330591 0 -0.0003503936674757832 -0.0021232388735984331 0 -0.00060570161636095917 -0.0027257509883509834 0 2.245915365066075e-05 -0.0004006166745937723 0 5.0512646262301556e-08 -5.3332845734464917e-07 0 -4.7495160173690492e-05 -0.00074102476771510943 0 2.245915365066075e-05 -0.0004006166745937723 0 -4.7495160173690492e-05 -0.00074102476771510943 0 1.0010889743251957e-05 -0.00087357647753678435 0 2.245915365066075e-05 -0.0004006166745937723 0 5.0512646262301556e-08 -5.3332845734464917e-07 0 2.116254336532254e-08 -4.8306725705610651e-07 0 -9.6875817756598829e-05 -0.00057982122170910345 0 5.0512646262301556e-08 -5.3332845734464917e-07 0 -4.7495160173690492e-05 -0.00074102476771510943 0 -0.00018333252982840332 -0.0012338322603541031 0 -4.7495160173690492e-05 -0.00074102476771510943 0 -0.00010305484636407826 -0.001205100917945534 0 -0.00018333252982840332 -0.0012338322603541031 0 -0.00027135048408841991 -0.0018217612570565643 0 -0.00010305484636407826 -0.001205100917945534 0 -0.00014159467652896418 -0.001535215398530268 0 -0.00010305484636407826 -0.001205100917945534 0 1.0010889743251957e-05 -0.00087357647753678435 0 -4.7495160173690492e-05 -0.00074102476771510943 0 -0.00010305484636407826 -0.001205100917945534 0 1.0010889743251957e-05 -0.00087357647753678435 0 -0.00014159467652896418 -0.001535215398530268 0 -3.3547526495656001e-05 -0.0011963644324337597 0 1.0010889743251957e-05 -0.00087357647753678435 0 -3.3547526495656001e-05 -0.0011963644324337597 0 1.0010889743251957e-05 -0.00087357647753678435 0 5.0886052636701259e-05 -0.00077434503376852613 0 -3.3547526495656001e-05 -0.0011963644324337597 0 5.0886052636701259e-05 -0.00077434503376852613 0 3.4685284581678105e-05 -0.00090741660590207729 0 1.0010889743251957e-05 -0.00087357647753678435 0 5.0886052636701259e-05 -0.00077434503376852613 0 6.0407503891515122e-05 -0.0004133511952622068 0 5.0886052636701259e-05 -0.00077434503376852613 0 6.0407503891515122e-05 -0.0004133511952622068 0 9.0941437416870258e-05 -0.00045866545325590842 0 2.245915365066075e-05 -0.0004006166745937723 0 1.0010889743251957e-05 -0.00087357647753678435 0 6.0407503891515122e-05 -0.0004133511952622068 0 2.245915365066075e-05 -0.0004006166745937723 0 6.0407503891515122e-05 -0.0004133511952622068 0 2.116254336532254e-08 -4.8306725705610651e-07 0 6.0407503891515122e-05 -0.0004133511952622068 0 2.116254336532254e-08 -4.8306725705610651e-07 0 5.0298705097099947e-08 -4.1630847166875063e-07 0 5.0298705097099947e-08 -4.1630847166875063e-07 0 9.0941437416870258e-05 -0.00045866545325590842 0 5.6938315084081064e-08 -3.3723428243822904e-07 0 6.0407503891515122e-05 -0.0004133511952622068 0 5.0298705097099947e-08 -4.1630847166875063e-07 0 9.0941437416870258e-05 -0.00045866545325590842 0 9.0941437416870258e-05 -0.00045866545325590842 0 5.6938315084081064e-08 -3.3723428243822904e-07 0 8.0743667847632728e-05 -0.00028851331314937119 0 5.6938315084081064e-08 -3.3723428243822904e-07 0 8.0743667847632728e-05 -0.00028851331314937119 0 3.6485068157886439e-08 -2.8127517844267177e-07 0 8.0743667847632728e-05 -0.00028851331314937119 0 6.1664316054144361e-05 -0.00018970458216106389 0 8.2491571763161062e-05 -0.00045979872768214466 0 6.1664316054144361e-05 -0.00018970458216106389 0 8.2491571763161062e-05 -0.00045979872768214466 0 6.7404469638446615e-05 -0.00025149801730019492 0 8.0743667847632728e-05 -0.00028851331314937119 0 6.1664316054144361e-05 -0.00018970458216106389 0 3.6485068157886439e-08 -2.8127517844267177e-07 0 6.1664316054144361e-05 -0.00018970458216106389 0 3.6485068157886439e-08 -2.8127517844267177e-07 0 4.930221054666549e-08 -2.2729864522022498e-07 0 8.2491571763161062e-05 -0.00045979872768214466 0 -9.8386794602814834e-06 -0.00071019571671664193 0 3.0161450536470613e-05 -0.00047143297070974737 0 8.2491571763161062e-05 -0.00045979872768214466 0 3.7366103221296617e-05 -0.00075987566618311326 0 -9.8386794602814834e-06 -0.00071019571671664193 0 8.0743667847632728e-05 -0.00028851331314937119 0 8.2491571763161062e-05 -0.00045979872768214466 0 8.4154818739005176e-05 -0.00056506476527999573 0 8.2491571763161062e-05 -0.00045979872768214466 0 3.7366103221296617e-05 -0.00075987566618311326 0 8.4154818739005176e-05 -0.00056506476527999573 0 3.7366103221296617e-05 -0.00075987566618311326 0 8.4154818739005176e-05 -0.00056506476527999573 0 3.4685284581678105e-05 -0.00090741660590207729 0 9.0941437416870258e-05 -0.00045866545325590842 0 8.0743667847632728e-05 -0.00028851331314937119 0 8.4154818739005176e-05 -0.00056506476527999573 0 9.0941437416870258e-05 -0.00045866545325590842 0 8.4154818739005176e-05 -0.00056506476527999573 0 3.4685284581678105e-05 -0.00090741660590207729 0 5.0886052636701259e-05 -0.00077434503376852613 0 9.0941437416870258e-05 -0.00045866545325590842 0 3.4685284581678105e-05 -0.00090741660590207729 0 -3.3547526495656001e-05 -0.0011963644324337597 0 3.4685284581678105e-05 -0.00090741660590207729 0 -8.0032003771136556e-05 -0.0013254046755528887 0 3.4685284581678105e-05 -0.00090741660590207729 0 -8.0032003771136556e-05 -0.0013254046755528887 0 -5.3814357995189025e-05 -0.0011256696888357017 0 -8.0032003771136556e-05 -0.0013254046755528887 0 -5.3814357995189025e-05 -0.0011256696888357017 0 -0.00018740756185456087 -0.0015580498931332969 0 -5.3814357995189025e-05 -0.0011256696888357017 0 -0.00019455866827251735 -0.0012723457210818234 0 -6.9165533071959844e-05 -0.00096616410028662876 0 -5.3814357995189025e-05 -0.0011256696888357017 0 -0.00018740756185456087 -0.0015580498931332969 0 -0.00019455866827251735 -0.0012723457210818234 0 3.7366103221296617e-05 -0.00075987566618311326 0 3.4685284581678105e-05 -0.00090741660590207729 0 -5.3814357995189025e-05 -0.0011256696888357017 0 -0.0003503936674757832 -0.0021232388735984331 0 -0.00034532866855045751 -0.0017111803284029557 0 -0.0005019920602575839 -0.0021877964135213887 0 -0.0003503936674757832 -0.0021232388735984331 0 -0.00034532866855045751 -0.0017111803284029557 0 -0.00018740756185456087 -0.0015580498931332969 0 -0.00034532866855045751 -0.0017111803284029557 0 -0.00018740756185456087 -0.0015580498931332969 0 -0.00019455866827251735 -0.0012723457210818234 0 -0.00034532866855045751 -0.0017111803284029557 0 -0.00040335662879262903 -0.0013083866689103556 0 -0.00056118859295723063 -0.0018702925728762798 0 -0.00034532866855045751 -0.0017111803284029557 0 -0.00040335662879262903 -0.0013083866689103556 0 -0.00019455866827251735 -0.0012723457210818234 0 -0.00040335662879262903 -0.0013083866689103556 0 -0.00019455866827251735 -0.0012723457210818234 0 -0.00016920700052128128 -0.00095880169513576602 0 -0.00040335662879262903 -0.0013083866689103556 0 -0.00016920700052128128 -0.00095880169513576602 0 -0.00034536934127883396 -0.00092036190833233607 0 -0.00040335662879262903 -0.0013083866689103556 0 -0.00034536934127883396 -0.00092036190833233607 0 -0.00066860012821354188 -0.0011362427576695143 0 3.7366103221296617e-05 -0.00075987566618311326 0 -5.3814357995189025e-05 -0.0011256696888357017 0 -6.9165533071959844e-05 -0.00096616410028662876 0 3.7366103221296617e-05 -0.00075987566618311326 0 -6.9165533071959844e-05 -0.00096616410028662876 0 -9.8386794602814834e-06 -0.00071019571671664193 0 -0.00019455866827251735 -0.0012723457210818234 0 -6.9165533071959844e-05 -0.00096616410028662876 0 -0.00016920700052128128 -0.00095880169513576602 0 -0.00016920700052128128 -0.00095880169513576602 0 -9.8386794602814834e-06 -0.00071019571671664193 0 -0.00010734707875465486 -0.00068109435102440944 0 -6.9165533071959844e-05 -0.00096616410028662876 0 -0.00016920700052128128 -0.00095880169513576602 0 -9.8386794602814834e-06 -0.00071019571671664193 0 -9.8386794602814834e-06 -0.00071019571671664193 0 -0.00010734707875465486 -0.00068109435102440944 0 3.0161450536470613e-05 -0.00047143297070974737 0 -0.00010734707875465486 -0.00068109435102440944 0 -0.00026412661342606943 -0.00066032162597401748 0 -5.8279218490168295e-05 -0.00044689979990779463 0 -0.00010734707875465486 -0.00068109435102440944 0 -5.8279218490168295e-05 -0.00044689979990779463 0 3.0161450536470613e-05 -0.00047143297070974737 0 -0.00034536934127883396 -0.00092036190833233607 0 -0.0006062183773490968 -0.0008193226587442005 0 -0.00066860012821354188 -0.0011362427576695143 0 -0.00016920700052128128 -0.00095880169513576602 0 -0.00010734707875465486 -0.00068109435102440944 0 -0.00034536934127883396 -0.00092036190833233607 0 -0.00010734707875465486 -0.00068109435102440944 0 -0.00034536934127883396 -0.00092036190833233607 0 -0.00026412661342606943 -0.00066032162597401748 0 -0.00034536934127883396 -0.00092036190833233607 0 -0.00026412661342606943 -0.00066032162597401748 0 -0.0006062183773490968 -0.0008193226587442005 0 -0.00026412661342606943 -0.00066032162597401748 0 -0.00044773078454474652 -0.00058770927138549769 0 -0.0006062183773490968 -0.0008193226587442005 0 -0.00026412661342606943 -0.00066032162597401748 0 -0.00044773078454474652 -0.00058770927138549769 0 -0.00022770653726755094 -0.00046896864684693843 0 -0.00022770653726755094 -0.00046896864684693843 0 -0.00018076563783403748 -0.00033596487617399524 0 -0.00031114846065229536 -0.00040627316922418069 0 -0.00044773078454474652 -0.00058770927138549769 0 -0.00022770653726755094 -0.00046896864684693843 0 -0.00031114846065229536 -0.00040627316922418069 0 -0.00044773078454474652 -0.00058770927138549769 0 -0.00059414482335544817 -0.00050828318878914978 0 -0.00031114846065229536 -0.00040627316922418069 0 -5.8279218490168295e-05 -0.00044689979990779463 0 -0.00022770653726755094 -0.00046896864684693843 0 -9.8788818927093703e-05 -0.00035067576932212456 0 -0.00026412661342606943 -0.00066032162597401748 0 -5.8279218490168295e-05 -0.00044689979990779463 0 -0.00022770653726755094 -0.00046896864684693843 0 -0.00022770653726755094 -0.00046896864684693843 0 -9.8788818927093703e-05 -0.00035067576932212456 0 -0.00018076563783403748 -0.00033596487617399524 0 -5.8279218490168295e-05 -0.00044689979990779463 0 -9.8788818927093703e-05 -0.00035067576932212456 0 -1.3512851214611923e-05 -0.00025292371376992034 0 -9.8788818927093703e-05 -0.00035067576932212456 0 -1.3512851214611923e-05 -0.00025292371376992034 0 -8.1393246639474765e-05 -0.00026982677289624774 0 -5.8279218490168295e-05 -0.00044689979990779463 0 -1.3512851214611923e-05 -0.00025292371376992034 0 3.5094339267915959e-05 -0.00028019635867589798 0 -1.3512851214611923e-05 -0.00025292371376992034 0 1.778835292327711e-05 -0.0001356209369714606 0 3.5094339267915959e-05 -0.00028019635867589798 0 -1.3512851214611923e-05 -0.00025292371376992034 0 1.778835292327711e-05 -0.0001356209369714606 0 -2.8753255326605877e-05 -0.00014720835914153787 0 1.778835292327711e-05 -0.0001356209369714606 0 2.5599884366504126e-08 -1.5189992544198433e-07 0 -2.8753255326605877e-05 -0.00014720835914153787 0 1.778835292327711e-05 -0.0001356209369714606 0 2.5599884366504126e-08 -1.5189992544198433e-07 0 1.6217518229263071e-08 -1.767913201394328e-07 0 1.778835292327711e-05 -0.0001356209369714606 0 1.6217518229263071e-08 -1.767913201394328e-07 0 3.7131380929721408e-05 -0.00014147763711801187 0 1.778835292327711e-05 -0.0001356209369714606 0 3.7131380929721408e-05 -0.00014147763711801187 0 3.5094339267915959e-05 -0.00028019635867589798 0 3.7131380929721408e-05 -0.00014147763711801187 0 4.930221054666549e-08 -2.2729864522022498e-07 0 6.7404469638446615e-05 -0.00025149801730019492 0 3.7131380929721408e-05 -0.00014147763711801187 0 6.7404469638446615e-05 -0.00025149801730019492 0 3.5094339267915959e-05 -0.00028019635867589798 0 1.6217518229263071e-08 -1.767913201394328e-07 0 3.7131380929721408e-05 -0.00014147763711801187 0 4.930221054666549e-08 -2.2729864522022498e-07 0 6.1664316054144361e-05 -0.00018970458216106389 0 4.930221054666549e-08 -2.2729864522022498e-07 0 6.7404469638446615e-05 -0.00025149801730019492 0 8.2491571763161062e-05 -0.00045979872768214466 0 6.7404469638446615e-05 -0.00025149801730019492 0 3.0161450536470613e-05 -0.00047143297070974737 0 -5.8279218490168295e-05 -0.00044689979990779463 0 3.0161450536470613e-05 -0.00047143297070974737 0 3.5094339267915959e-05 -0.00028019635867589798 0 6.7404469638446615e-05 -0.00025149801730019492 0 3.0161450536470613e-05 -0.00047143297070974737 0 3.5094339267915959e-05 -0.00028019635867589798 0 -0.0017993221929073491 -0.00067919187989133308 0 -0.0017951757496089385 -0.0010096001289360489 0 -0.0020696017542894906 -0.00040616335550319109 0 -0.0017993221929073491 -0.00067919187989133308 0 -0.001546085124354582 -0.001169014590152836 0 -0.0017951757496089385 -0.0010096001289360489 0 -0.0017993221929073491 -0.00067919187989133308 0 -0.001546085124354582 -0.001169014590152836 0 -0.0013506685528839059 -0.00098611953224617176 0 -0.0017951757496089385 -0.0010096001289360489 0 -0.0020590265025809879 -0.00084395874340218162 0 -0.0020696017542894906 -0.00040616335550319109 0 -0.0020590265025809879 -0.00084395874340218162 0 -0.0022835969855132536 -9.0791226147439065e-05 0 -0.0023040449980345069 -0.00085917486463389951 0 -0.0020590265025809879 -0.00084395874340218162 0 -0.0022835969855132536 -9.0791226147439065e-05 0 -0.0020696017542894906 -0.00040616335550319109 0 -0.0022835969855132536 -9.0791226147439065e-05 0 -0.0020696017542894906 -0.00040616335550319109 0 -0.0022889825880411151 -9.3646346302336909e-05 0 -0.0020696017542894906 -0.00040616335550319109 0 -0.0022889825880411151 -9.3646346302336909e-05 0 -0.0023469210139101843 -8.2557603918917115e-05 0 -0.0022835969855132536 -9.0791226147439065e-05 0 -0.0022889825880411151 -9.3646346302336909e-05 0 -0.0024529029310806452 0.0001721408486433667 0 -0.0022889825880411151 -9.3646346302336909e-05 0 -0.0024529029310806452 0.0001721408486433667 0 -0.0023469210139101843 -8.2557603918917115e-05 0 -0.0023469210139101843 -8.2557603918917115e-05 0 -0.0020798159982256892 -0.00033274949318546271 0 -0.0024294703000284435 -0.00021729699962672958 0 -0.0020696017542894906 -0.00040616335550319109 0 -0.0023469210139101843 -8.2557603918917115e-05 0 -0.0020798159982256892 -0.00033274949318546271 0 -0.0017993221929073491 -0.00067919187989133308 0 -0.0020696017542894906 -0.00040616335550319109 0 -0.0020798159982256892 -0.00033274949318546271 0 -0.0017993221929073491 -0.00067919187989133308 0 -0.0020798159982256892 -0.00033274949318546271 0 -0.0016746784147755776 -0.00064483847395983688 0 -0.0020798159982256892 -0.00033274949318546271 0 -0.0020433110626591881 -0.00037402269259401155 0 -0.0024294703000284435 -0.00021729699962672958 0 -0.0020433110626591881 -0.00037402269259401155 0 -0.0014243238357359383 -0.00064184695165402984 0 -0.0013615199243636584 -0.00051245649747711647 0 -0.0020433110626591881 -0.00037402269259401155 0 -0.0014243238357359383 -0.00064184695165402984 0 -0.0016746784147755776 -0.00064483847395983688 0 -0.0014243238357359383 -0.00064184695165402984 0 -0.0016746784147755776 -0.00064483847395983688 0 -0.0010879886693046731 -0.00088527029423177042 0 -0.0020798159982256892 -0.00033274949318546271 0 -0.0020433110626591881 -0.00037402269259401155 0 -0.0016746784147755776 -0.00064483847395983688 0 -0.00059414482335544817 -0.00050828318878914978 0 -0.00093705903266077856 -0.00069571367462377257 0 -0.0013615199243636584 -0.00051245649747711647 0 -0.00044773078454474652 -0.00058770927138549769 0 -0.00059414482335544817 -0.00050828318878914978 0 -0.00093705903266077856 -0.00069571367462377257 0 -0.0014243238357359383 -0.00064184695165402984 0 -0.00093705903266077856 -0.00069571367462377257 0 -0.0013615199243636584 -0.00051245649747711647 0 -0.0014243238357359383 -0.00064184695165402984 0 -0.00093705903266077856 -0.00069571367462377257 0 -0.0010879886693046731 -0.00088527029423177042 0 -0.00044773078454474652 -0.00058770927138549769 0 -0.00093705903266077856 -0.00069571367462377257 0 -0.0006062183773490968 -0.0008193226587442005 0 -0.00093705903266077856 -0.00069571367462377257 0 -0.0006062183773490968 -0.0008193226587442005 0 -0.0010879886693046731 -0.00088527029423177042 0 -0.0006062183773490968 -0.0008193226587442005 0 -0.0010879886693046731 -0.00088527029423177042 0 -0.00066860012821354188 -0.0011362427576695143 0 -0.0010879886693046731 -0.00088527029423177042 0 -0.00066860012821354188 -0.0011362427576695143 0 -0.00098730568273221295 -0.0013199374056536786 0 -0.0017993221929073491 -0.00067919187989133308 0 -0.0016746784147755776 -0.00064483847395983688 0 -0.0013506685528839059 -0.00098611953224617176 0 -0.0016746784147755776 -0.00064483847395983688 0 -0.0010879886693046731 -0.00088527029423177042 0 -0.0013506685528839059 -0.00098611953224617176 0 -0.0010879886693046731 -0.00088527029423177042 0 -0.0013506685528839059 -0.00098611953224617176 0 -0.00098730568273221295 -0.0013199374056536786 0 -0.0013506685528839059 -0.00098611953224617176 0 -0.00098730568273221295 -0.0013199374056536786 0 -0.0012370513071882849 -0.0017377385565995377 0 -0.001546085124354582 -0.001169014590152836 0 -0.0013506685528839059 -0.00098611953224617176 0 -0.0012370513071882849 -0.0017377385565995377 0 -0.00098730568273221295 -0.0013199374056536786 0 -0.00096105525955793357 -0.0017231407441287857 0 -0.0012370513071882849 -0.0017377385565995377 0 -0.00096105525955793357 -0.0017231407441287857 0 -0.0012370513071882849 -0.0017377385565995377 0 -0.0010752457632767531 -0.0022174660771582893 0 -0.00040335662879262903 -0.0013083866689103556 0 -0.00066860012821354188 -0.0011362427576695143 0 -0.00071170761833027154 -0.001539741001731526 0 -0.00066860012821354188 -0.0011362427576695143 0 -0.00098730568273221295 -0.0013199374056536786 0 -0.00071170761833027154 -0.001539741001731526 0 -0.00098730568273221295 -0.0013199374056536786 0 -0.00096105525955793357 -0.0017231407441287857 0 -0.00071170761833027154 -0.001539741001731526 0 -0.00096105525955793357 -0.0017231407441287857 0 -0.00071170761833027154 -0.001539741001731526 0 -0.00082613079916377802 -0.0020794757052262935 0 -0.00040335662879262903 -0.0013083866689103556 0 -0.00071170761833027154 -0.001539741001731526 0 -0.00056118859295723063 -0.0018702925728762798 0 -0.00071170761833027154 -0.001539741001731526 0 -0.00056118859295723063 -0.0018702925728762798 0 -0.00082613079916377802 -0.0020794757052262935 0 -0.00056118859295723063 -0.0018702925728762798 0 -0.00082613079916377802 -0.0020794757052262935 0 -0.00074116318850505421 -0.0026032290752481808 0 -0.00056118859295723063 -0.0018702925728762798 0 -0.0005019920602575839 -0.0021877964135213887 0 -0.00074116318850505421 -0.0026032290752481808 0 -0.00034532866855045751 -0.0017111803284029557 0 -0.00056118859295723063 -0.0018702925728762798 0 -0.0005019920602575839 -0.0021877964135213887 0 -0.0012370513071882849 -0.0017377385565995377 0 -0.0010752457632767531 -0.0022174660771582893 0 -0.0013176782199118896 -0.0026484928835429169 0 -0.00096105525955793357 -0.0017231407441287857 0 -0.0010752457632767531 -0.0022174660771582893 0 -0.00082613079916377802 -0.0020794757052262935 0 -0.0010752457632767531 -0.0022174660771582893 0 -0.00082613079916377802 -0.0020794757052262935 0 -0.0010168560709244859 -0.0027018792158815348 0 -0.00082613079916377802 -0.0020794757052262935 0 -0.0010168560709244859 -0.0027018792158815348 0 -0.00074116318850505421 -0.0026032290752481808 0 -0.0010752457632767531 -0.0022174660771582893 0 -0.0010168560709244859 -0.0027018792158815348 0 -0.0013176782199118896 -0.0026484928835429169 0 -0.0010168560709244859 -0.0027018792158815348 0 -0.0013176782199118896 -0.0026484928835429169 0 -0.0012640402003466079 -0.0035741695311041653 0 -0.0013176782199118896 -0.0026484928835429169 0 -0.0017245473262146704 -0.0026725703683303536 0 -0.0016120257363339066 -0.0035737531466164324 0 -0.0017245473262146704 -0.0026725703683303536 0 -0.0020505572217443713 -0.0035328763599731562 0 -0.0016120257363339066 -0.0035737531466164324 0 -0.0013176782199118896 -0.0026484928835429169 0 -0.0017245473262146704 -0.0026725703683303536 0 -0.0015095253400591059 -0.0020815667672932549 0 -0.0012370513071882849 -0.0017377385565995377 0 -0.0013176782199118896 -0.0026484928835429169 0 -0.0015095253400591059 -0.0020815667672932549 0 -0.0012370513071882849 -0.0017377385565995377 0 -0.0015095253400591059 -0.0020815667672932549 0 -0.001568237021375668 -0.0015304934642304531 0 -0.0015095253400591059 -0.0020815667672932549 0 -0.001568237021375668 -0.0015304934642304531 0 -0.0018131957110233291 -0.0016995268115215783 0 -0.0017245473262146704 -0.0026725703683303536 0 -0.0015095253400591059 -0.0020815667672932549 0 -0.0018131957110233291 -0.0016995268115215783 0 -0.0017951757496089385 -0.0010096001289360489 0 -0.001568237021375668 -0.0015304934642304531 0 -0.0018131957110233291 -0.0016995268115215783 0 -0.001546085124354582 -0.001169014590152836 0 -0.0017951757496089385 -0.0010096001289360489 0 -0.001568237021375668 -0.0015304934642304531 0 -0.001546085124354582 -0.001169014590152836 0 -0.0012370513071882849 -0.0017377385565995377 0 -0.001568237021375668 -0.0015304934642304531 0 -0.0020590265025809879 -0.00084395874340218162 0 -0.0021197666164423697 -0.0015720737550748323 0 -0.0023040449980345069 -0.00085917486463389951 0 -0.0020590265025809879 -0.00084395874340218162 0 -0.0021197666164423697 -0.0015720737550748323 0 -0.0018131957110233291 -0.0016995268115215783 0 -0.0017951757496089385 -0.0010096001289360489 0 -0.0020590265025809879 -0.00084395874340218162 0 -0.0018131957110233291 -0.0016995268115215783 0 -0.0017245473262146704 -0.0026725703683303536 0 -0.0018131957110233291 -0.0016995268115215783 0 -0.0020700239102097117 -0.0024242045965197799 0 -0.0021197666164423697 -0.0015720737550748323 0 -0.0020700239102097117 -0.0024242045965197799 0 -0.002517846773269607 -0.0020598412656799544 0 -0.0021197666164423697 -0.0015720737550748323 0 -0.0018131957110233291 -0.0016995268115215783 0 -0.0020700239102097117 -0.0024242045965197799 0 -0.0020700239102097117 -0.0024242045965197799 0 -0.0020505572217443713 -0.0035328763599731562 0 -0.002517439046320691 -0.0032920430225095972 0 -0.0017245473262146704 -0.0026725703683303536 0 -0.0020700239102097117 -0.0024242045965197799 0 -0.0020505572217443713 -0.0035328763599731562 0 -0.0020505572217443713 -0.0035328763599731562 0 -0.0025588220472880967 -0.0043363382025409045 0 -0.002517439046320691 -0.0032920430225095972 0 -0.0025588220472880967 -0.0043363382025409045 0 -0.0025405418911064251 -0.0052878884855117872 0 -0.0020301329541651206 -0.0042901638161537874 0 -0.0025405418911064251 -0.0052878884855117872 0 -0.0020301329541651206 -0.0042901638161537874 0 -0.0018794771464996352 -0.0047255876990756384 0 -0.0020505572217443713 -0.0035328763599731562 0 -0.0020301329541651206 -0.0042901638161537874 0 -0.0016120257363339066 -0.0035737531466164324 0 -0.0020505572217443713 -0.0035328763599731562 0 -0.0025588220472880967 -0.0043363382025409045 0 -0.0020301329541651206 -0.0042901638161537874 0 -0.0013176782199118896 -0.0026484928835429169 0 -0.0016120257363339066 -0.0035737531466164324 0 -0.0012640402003466079 -0.0035741695311041653 0 -0.0018794771464996352 -0.0047255876990756384 0 -0.0016045688334918487 -0.0047888971305654971 0 -0.0012640402003466079 -0.0035741695311041653 0 -0.0016120257363339066 -0.0035737531466164324 0 -0.0018794771464996352 -0.0047255876990756384 0 -0.0012640402003466079 -0.0035741695311041653 0 -0.0020301329541651206 -0.0042901638161537874 0 -0.0016120257363339066 -0.0035737531466164324 0 -0.0018794771464996352 -0.0047255876990756384 0 -0.0018794771464996352 -0.0047255876990756384 0 -0.002134944432435826 -0.0058696854253159972 0 -0.0024829361440326745 -0.005954356196736359 0 -0.0018794771464996352 -0.0047255876990756384 0 -0.0016045688334918487 -0.0047888971305654971 0 -0.002134944432435826 -0.0058696854253159972 0 -0.0016045688334918487 -0.0047888971305654971 0 -0.002134944432435826 -0.0058696854253159972 0 -0.0018558292109072786 -0.0057734806293413075 0 -0.002134944432435826 -0.0058696854253159972 0 -0.0024829361440326745 -0.005954356196736359 0 -0.0027932154077168403 -0.007030728012257949 0 -0.0024829361440326745 -0.005954356196736359 0 -0.0027932154077168403 -0.007030728012257949 0 -0.0034948777443569242 -0.0076458770379145167 0 -0.0024829361440326745 -0.005954356196736359 0 -0.0034948777443569242 -0.0076458770379145167 0 -0.0032026601013695386 -0.0064695599040118868 0 -0.0025405418911064251 -0.0052878884855117872 0 -0.0024829361440326745 -0.005954356196736359 0 -0.0032026601013695386 -0.0064695599040118868 0 -0.0025405418911064251 -0.0052878884855117872 0 -0.0018794771464996352 -0.0047255876990756384 0 -0.0024829361440326745 -0.005954356196736359 0 -0.0005019920602575839 -0.0021877964135213887 0 -0.00060570161636095917 -0.0027257509883509834 0 -0.00074116318850505421 -0.0026032290752481808 0 -0.00060570161636095917 -0.0027257509883509834 0 -0.00074116318850505421 -0.0026032290752481808 0 -0.00091601217098460322 -0.003384294981240273 0 -0.00060570161636095917 -0.0027257509883509834 0 -0.00091601217098460322 -0.003384294981240273 0 -0.0007819739674505313 -0.0033534437517512916 0 -0.00091601217098460322 -0.003384294981240273 0 -0.0009933978109627384 -0.0031548162110435125 0 -0.0012207570320194297 -0.0040062986052751192 0 -0.00074116318850505421 -0.0026032290752481808 0 -0.00091601217098460322 -0.003384294981240273 0 -0.0009933978109627384 -0.0031548162110435125 0 -0.0010168560709244859 -0.0027018792158815348 0 -0.00074116318850505421 -0.0026032290752481808 0 -0.0009933978109627384 -0.0031548162110435125 0 -0.0010168560709244859 -0.0027018792158815348 0 -0.0009933978109627384 -0.0031548162110435125 0 -0.0012640402003466079 -0.0035741695311041653 0 -0.0009933978109627384 -0.0031548162110435125 0 -0.0012640402003466079 -0.0035741695311041653 0 -0.0012207570320194297 -0.0040062986052751192 0 -0.0016045688334918487 -0.0047888971305654971 0 -0.0012640402003466079 -0.0035741695311041653 0 -0.0012207570320194297 -0.0040062986052751192 0 -0.0016045688334918487 -0.0047888971305654971 0 -0.0012207570320194297 -0.0040062986052751192 0 -0.0012230505085634536 -0.0044217333462842363 0 -0.0016045688334918487 -0.0047888971305654971 0 -0.0012230505085634536 -0.0044217333462842363 0 -0.0018558292109072786 -0.0057734806293413075 0 -0.00091601217098460322 -0.003384294981240273 0 -0.0012207570320194297 -0.0040062986052751192 0 -0.0012230505085634536 -0.0044217333462842363 0 -0.00091601217098460322 -0.003384294981240273 0 -0.0012230505085634536 -0.0044217333462842363 0 -0.0007819739674505313 -0.0033534437517512916 0 -0.0012230505085634536 -0.0044217333462842363 0 -0.0007819739674505313 -0.0033534437517512916 0 -0.00090030838425971405 -0.0037443987279309537 0 -0.00068105130945375408 -0.0031468582534784221 0 -0.0007819739674505313 -0.0033534437517512916 0 -0.00090030838425971405 -0.0037443987279309537 0 -0.0005125930794563884 -0.0026805339043330591 0 -0.00060570161636095917 -0.0027257509883509834 0 -0.0007819739674505313 -0.0033534437517512916 0 -0.0005125930794563884 -0.0026805339043330591 0 -0.00068105130945375408 -0.0031468582534784221 0 -0.0007819739674505313 -0.0033534437517512916 0 -0.00088980117766821203 -0.0036429223201299458 0 -0.0012569473402239257 -0.004652570333543749 0 -0.0013093620636137468 -0.0045931988408916902 0 -0.00088980117766821203 -0.0036429223201299458 0 -0.00068105130945375408 -0.0031468582534784221 0 -0.00090030838425971405 -0.0037443987279309537 0 -0.00088980117766821203 -0.0036429223201299458 0 -0.00090030838425971405 -0.0037443987279309537 0 -0.0012569473402239257 -0.004652570333543749 0 -0.0012230505085634536 -0.0044217333462842363 0 -0.00090030838425971405 -0.0037443987279309537 0 -0.0012569473402239257 -0.004652570333543749 0 -0.0012569473402239257 -0.004652570333543749 0 -0.0016938653932920601 -0.0056045270024199442 0 -0.0013093620636137468 -0.0045931988408916902 0 -0.0012569473402239257 -0.004652570333543749 0 -0.0016478322909650801 -0.0055162260773596854 0 -0.0016938653932920601 -0.0056045270024199442 0 -0.0012230505085634536 -0.0044217333462842363 0 -0.0012569473402239257 -0.004652570333543749 0 -0.0016478322909650801 -0.0055162260773596854 0 -0.0012230505085634536 -0.0044217333462842363 0 -0.0016478322909650801 -0.0055162260773596854 0 -0.0018558292109072786 -0.0057734806293413075 0 -0.0016478322909650801 -0.0055162260773596854 0 -0.0018558292109072786 -0.0057734806293413075 0 -0.0022123496576793317 -0.0067505627206419375 0 -0.0016478322909650801 -0.0055162260773596854 0 -0.0016938653932920601 -0.0056045270024199442 0 -0.0022123496576793317 -0.0067505627206419375 0 -0.0022220595688154619 -0.0066014475661519984 0 -0.0016938653932920601 -0.0056045270024199442 0 -0.0022123496576793317 -0.0067505627206419375 0 -0.0022220595688154619 -0.0066014475661519984 0 -0.0016938653932920601 -0.0056045270024199442 0 -0.001801159267587345 -0.0055122431591049879 0 -0.0016938653932920601 -0.0056045270024199442 0 -0.001801159267587345 -0.0055122431591049879 0 -0.0013093620636137468 -0.0045931988408916902 0 -0.001801159267587345 -0.0055122431591049879 0 -0.0014690935185494199 -0.0045058992528171265 0 -0.0013093620636137468 -0.0045931988408916902 0 -0.0010766626666013483 -0.0037730850783151523 0 -0.0014690935185494199 -0.0045058992528171265 0 -0.0013093620636137468 -0.0045931988408916902 0 -0.0035471138691777668 -0.008607289317515374 0 -0.0027932154077168403 -0.007030728012257949 0 -0.0025981914208700317 -0.0072415336003569235 0 -0.0035471138691777668 -0.008607289317515374 0 -0.0027932154077168403 -0.007030728012257949 0 -0.0034948777443569242 -0.0076458770379145167 0 -0.002134944432435826 -0.0058696854253159972 0 -0.0027932154077168403 -0.007030728012257949 0 -0.0025981914208700317 -0.0072415336003569235 0 -0.002134944432435826 -0.0058696854253159972 0 -0.0018558292109072786 -0.0057734806293413075 0 -0.0025981914208700317 -0.0072415336003569235 0 -0.0018558292109072786 -0.0057734806293413075 0 -0.0025981914208700317 -0.0072415336003569235 0 -0.0022123496576793317 -0.0067505627206419375 0 -0.0025981914208700317 -0.0072415336003569235 0 -0.0028230638104440198 -0.007891100704241075 0 -0.0022123496576793317 -0.0067505627206419375 0 -0.0022220595688154619 -0.0066014475661519984 0 -0.0022123496576793317 -0.0067505627206419375 0 -0.0027690284774094342 -0.0077653989813827023 0 -0.0028230638104440198 -0.007891100704241075 0 -0.0022123496576793317 -0.0067505627206419375 0 -0.0027690284774094342 -0.0077653989813827023 0 -0.0028230638104440198 -0.007891100704241075 0 -0.0027690284774094342 -0.0077653989813827023 0 -0.0034519234944686825 -0.0090487184096799799 0 -0.0028230638104440198 -0.007891100704241075 0 -0.0034519234944686825 -0.0090487184096799799 0 -0.0033679056806057298 -0.0087572431714326732 0 -0.0035471138691777668 -0.008607289317515374 0 -0.0033679056806057298 -0.0087572431714326732 0 -0.0043535656824385876 -0.010437353056397385 0 -0.0035471138691777668 -0.008607289317515374 0 -0.0025981914208700317 -0.0072415336003569235 0 -0.0033679056806057298 -0.0087572431714326732 0 -0.0025981914208700317 -0.0072415336003569235 0 -0.0028230638104440198 -0.007891100704241075 0 -0.0033679056806057298 -0.0087572431714326732 0 -0.0034519234944686825 -0.0090487184096799799 0 -0.0033679056806057298 -0.0087572431714326732 0 -0.0043535656824385876 -0.010437353056397385 0 -0.0035471138691777668 -0.008607289317515374 0 -0.0043535656824385876 -0.010437353056397385 0 -0.0047342002779674963 -0.010299710382267156 0 -0.0043535656824385876 -0.010437353056397385 0 -0.0055240310569408674 -0.011874272727492209 0 -0.0047342002779674963 -0.010299710382267156 0 -0.0055240310569408674 -0.011874272727492209 0 -0.0047342002779674963 -0.010299710382267156 0 -0.0058525148908752387 -0.01157545503461448 0 -0.0047342002779674963 -0.010299710382267156 0 -0.0053414563637357703 -0.010173314044007748 0 -0.0058525148908752387 -0.01157545503461448 0 -0.0035471138691777668 -0.008607289317515374 0 -0.0047342002779674963 -0.010299710382267156 0 -0.0043754125204721389 -0.0091516127957933218 0 -0.0035471138691777668 -0.008607289317515374 0 -0.0043754125204721389 -0.0091516127957933218 0 -0.0034948777443569242 -0.0076458770379145167 0 -0.0047342002779674963 -0.010299710382267156 0 -0.0043754125204721389 -0.0091516127957933218 0 -0.0053414563637357703 -0.010173314044007748 0 -0.0043754125204721389 -0.0091516127957933218 0 -0.004965798515577575 -0.0089991240029439548 0 -0.0053414563637357703 -0.010173314044007748 0 -0.0043754125204721389 -0.0091516127957933218 0 -0.0034948777443569242 -0.0076458770379145167 0 -0.004965798515577575 -0.0089991240029439548 0 -0.0063064244524685276 -0.010245020639978376 0 -0.004965798515577575 -0.0089991240029439548 0 -0.0053414563637357703 -0.010173314044007748 0 -0.0063064244524685276 -0.010245020639978376 0 -0.0069373849770561361 -0.012082811133746329 0 -0.007849176476988318 -0.011642745678476507 0 -0.0063064244524685276 -0.010245020639978376 0 -0.0053414563637357703 -0.010173314044007748 0 -0.0069373849770561361 -0.012082811133746329 0 -0.0053414563637357703 -0.010173314044007748 0 -0.0069373849770561361 -0.012082811133746329 0 -0.0058525148908752387 -0.01157545503461448 0 -0.0055240310569408674 -0.011874272727492209 0 -0.0058525148908752387 -0.01157545503461448 0 -0.0069860970669740115 -0.013405660535578677 0 -0.0069373849770561361 -0.012082811133746329 0 -0.0069860970669740115 -0.013405660535578677 0 -0.0087662588328965806 -0.014882348615275929 0 -0.0069373849770561361 -0.012082811133746329 0 -0.0058525148908752387 -0.01157545503461448 0 -0.0069860970669740115 -0.013405660535578677 0 -0.0087662588328965806 -0.014882348615275929 0 -0.0091988790704329738 -0.013663923090057725 0 -0.010870832201651045 -0.016319956694891596 0 -0.0069373849770561361 -0.012082811133746329 0 -0.0091988790704329738 -0.013663923090057725 0 -0.007849176476988318 -0.011642745678476507 0 -0.0069373849770561361 -0.012082811133746329 0 -0.0087662588328965806 -0.014882348615275929 0 -0.0091988790704329738 -0.013663923090057725 0 -0.010870832201651045 -0.016319956694891596 0 -0.011606720442577791 -0.014792373658925415 0 -0.013251799528885555 -0.017616373379585527 0 -0.0091988790704329738 -0.013663923090057725 0 -0.010870832201651045 -0.016319956694891596 0 -0.011606720442577791 -0.014792373658925415 0 -0.011606720442577791 -0.014792373658925415 0 -0.013251799528885555 -0.017616373379585527 0 -0.014100797334152719 -0.01607177858972909 0 -0.011606720442577791 -0.014792373658925415 0 -0.0096799583133459887 -0.012074457971987305 0 -0.01288027788856856 -0.013778985369600965 0 -0.0096799583133459887 -0.012074457971987305 0 -0.011255414477558286 -0.012088342650989301 0 -0.01288027788856856 -0.013778985369600965 0 -0.0091988790704329738 -0.013663923090057725 0 -0.011606720442577791 -0.014792373658925415 0 -0.0096799583133459887 -0.012074457971987305 0 -0.011255414477558286 -0.012088342650989301 0 -0.01288027788856856 -0.013778985369600965 0 -0.012438079405234963 -0.011742616609789923 0 -0.0091988790704329738 -0.013663923090057725 0 -0.0096799583133459887 -0.012074457971987305 0 -0.007849176476988318 -0.011642745678476507 0 -0.0096799583133459887 -0.012074457971987305 0 -0.007849176476988318 -0.011642745678476507 0 -0.0074031970080531851 -0.010267656998543172 0 -0.0063064244524685276 -0.010245020639978376 0 -0.007849176476988318 -0.011642745678476507 0 -0.0074031970080531851 -0.010267656998543172 0 -0.0096799583133459887 -0.012074457971987305 0 -0.0074031970080531851 -0.010267656998543172 0 -0.0078615410261145512 -0.00929440110496366 0 -0.0074031970080531851 -0.010267656998543172 0 -0.0078615410261145512 -0.00929440110496366 0 -0.0057449399936743036 -0.0084475263100463119 0 -0.0078615410261145512 -0.00929440110496366 0 -0.0058579128014971541 -0.0073380493862632741 0 -0.0057449399936743036 -0.0084475263100463119 0 -0.0096799583133459887 -0.012074457971987305 0 -0.0078615410261145512 -0.00929440110496366 0 -0.010071621686531779 -0.010581540769079828 0 -0.011255414477558286 -0.012088342650989301 0 -0.010071621686531779 -0.010581540769079828 0 -0.012438079405234963 -0.011742616609789923 0 -0.0096799583133459887 -0.012074457971987305 0 -0.011255414477558286 -0.012088342650989301 0 -0.010071621686531779 -0.010581540769079828 0 -0.0078615410261145512 -0.00929440110496366 0 -0.010071621686531779 -0.010581540769079828 0 -0.0095814639265537627 -0.0092036385188072854 0 -0.010071621686531779 -0.010581540769079828 0 -0.012438079405234963 -0.011742616609789923 0 -0.012251377150299258 -0.010384409132172215 0 -0.010071621686531779 -0.010581540769079828 0 -0.0095814639265537627 -0.0092036385188072854 0 -0.012251377150299258 -0.010384409132172215 0 -0.0095814639265537627 -0.0092036385188072854 0 -0.0099330141687127907 -0.0082630344583263151 0 -0.012251377150299258 -0.010384409132172215 0 -0.0095814639265537627 -0.0092036385188072854 0 -0.0099330141687127907 -0.0082630344583263151 0 -0.0074789061405803473 -0.0073764975360201945 0 -0.0099330141687127907 -0.0082630344583263151 0 -0.0074789061405803473 -0.0073764975360201945 0 -0.0082890487195197253 -0.0064087962448442009 0 -0.0099330141687127907 -0.0082630344583263151 0 -0.012980099787319571 -0.0091275141400221846 0 -0.010519665121422611 -0.0073595495911982353 0 -0.0099330141687127907 -0.0082630344583263151 0 -0.010519665121422611 -0.0073595495911982353 0 -0.0082890487195197253 -0.0064087962448442009 0 -0.0078615410261145512 -0.00929440110496366 0 -0.0074789061405803473 -0.0073764975360201945 0 -0.0058579128014971541 -0.0073380493862632741 0 -0.0078615410261145512 -0.00929440110496366 0 -0.0095814639265537627 -0.0092036385188072854 0 -0.0074789061405803473 -0.0073764975360201945 0 -0.0074789061405803473 -0.0073764975360201945 0 -0.005614054644722484 -0.005871706427094503 0 -0.0058579128014971541 -0.0073380493862632741 0 -0.0074789061405803473 -0.0073764975360201945 0 -0.005614054644722484 -0.005871706427094503 0 -0.0059131150345424913 -0.0050692844376295657 0 -0.005614054644722484 -0.005871706427094503 0 -0.0058579128014971541 -0.0073380493862632741 0 -0.0044266450491207377 -0.0058518914372288977 0 -0.005614054644722484 -0.005871706427094503 0 -0.0044266450491207377 -0.0058518914372288977 0 -0.0043430568450398286 -0.0047148504240736985 0 -0.0058579128014971541 -0.0073380493862632741 0 -0.0044266450491207377 -0.0058518914372288977 0 -0.0046610564568522351 -0.0070897824997195203 0 -0.0044266450491207377 -0.0058518914372288977 0 -0.0034511758186800898 -0.0058869557178695192 0 -0.0046610564568522351 -0.0070897824997195203 0 -0.0044266450491207377 -0.0058518914372288977 0 -0.0033507910706828147 -0.0045673899455391017 0 -0.0043430568450398286 -0.0047148504240736985 0 -0.0044266450491207377 -0.0058518914372288977 0 -0.0034511758186800898 -0.0058869557178695192 0 -0.0033507910706828147 -0.0045673899455391017 0 -0.0025588220472880967 -0.0043363382025409045 0 -0.0034511758186800898 -0.0058869557178695192 0 -0.0033507910706828147 -0.0045673899455391017 0 -0.0025405418911064251 -0.0052878884855117872 0 -0.0034511758186800898 -0.0058869557178695192 0 -0.0032026601013695386 -0.0064695599040118868 0 -0.0025588220472880967 -0.0043363382025409045 0 -0.0025405418911064251 -0.0052878884855117872 0 -0.0034511758186800898 -0.0058869557178695192 0 -0.0034511758186800898 -0.0058869557178695192 0 -0.0042596911159367198 -0.0076757386037033561 0 -0.0046610564568522351 -0.0070897824997195203 0 -0.0034511758186800898 -0.0058869557178695192 0 -0.0032026601013695386 -0.0064695599040118868 0 -0.0042596911159367198 -0.0076757386037033561 0 -0.0034948777443569242 -0.0076458770379145167 0 -0.0032026601013695386 -0.0064695599040118868 0 -0.0042596911159367198 -0.0076757386037033561 0 -0.0034948777443569242 -0.0076458770379145167 0 -0.004965798515577575 -0.0089991240029439548 0 -0.0042596911159367198 -0.0076757386037033561 0 -0.004965798515577575 -0.0089991240029439548 0 -0.0042596911159367198 -0.0076757386037033561 0 -0.0057449399936743036 -0.0084475263100463119 0 -0.0063064244524685276 -0.010245020639978376 0 -0.004965798515577575 -0.0089991240029439548 0 -0.0057449399936743036 -0.0084475263100463119 0 -0.0063064244524685276 -0.010245020639978376 0 -0.0074031970080531851 -0.010267656998543172 0 -0.0057449399936743036 -0.0084475263100463119 0 -0.0058579128014971541 -0.0073380493862632741 0 -0.0057449399936743036 -0.0084475263100463119 0 -0.0046610564568522351 -0.0070897824997195203 0 -0.0042596911159367198 -0.0076757386037033561 0 -0.0057449399936743036 -0.0084475263100463119 0 -0.0046610564568522351 -0.0070897824997195203 0 -0.026075030800181559 -0.016596389993483032 0 -0.023920247045545125 -0.016096293281841662 0 -0.026158389981942191 -0.014444993249406261 0 -0.023920247045545125 -0.016096293281841662 0 -0.023802870621396219 -0.018288394745759978 0 -0.021543621728502927 -0.016470904933000772 0 -0.026075030800181559 -0.016596389993483032 0 -0.026173508844894396 -0.018897230096522066 0 -0.023802870621396219 -0.018288394745759978 0 -0.026075030800181559 -0.016596389993483032 0 -0.023920247045545125 -0.016096293281841662 0 -0.023802870621396219 -0.018288394745759978 0 -0.026173508844894396 -0.018897230096522066 0 -0.025043621230892175 -0.019843620925314245 0 -0.023802870621396219 -0.018288394745759978 0 -0.026173508844894396 -0.018897230096522066 0 -0.026326719394743132 -0.021331479916036858 0 -0.025043621230892175 -0.019843620925314245 0 -0.026326719394743132 -0.021331479916036858 0 -0.025043621230892175 -0.019843620925314245 0 -0.023868551584363941 -0.020859630332745429 0 -0.025043621230892175 -0.019843620925314245 0 -0.023868551584363941 -0.020859630332745429 0 -0.023802870621396219 -0.018288394745759978 0 -0.023868551584363941 -0.020859630332745429 0 -0.023802870621396219 -0.018288394745759978 0 -0.02103150618585856 -0.018116428261911021 0 -0.023802870621396219 -0.018288394745759978 0 -0.02103150618585856 -0.018116428261911021 0 -0.021543621728502927 -0.016470904933000772 0 -0.023868551584363941 -0.020859630332745429 0 -0.021273621468662372 -0.020311609256373403 0 -0.02103150618585856 -0.018116428261911021 0 -0.021273621468662372 -0.020311609256373403 0 -0.02103150618585856 -0.018116428261911021 0 -0.01856750039521244 -0.01962063978718084 0 -0.02103150618585856 -0.018116428261911021 0 -0.021543621728502927 -0.016470904933000772 0 -0.018537190631061934 -0.016524922654618784 0 -0.021543621728502927 -0.016470904933000772 0 -0.01930855656496059 -0.015059939135598707 0 -0.018537190631061934 -0.016524922654618784 0 -0.023920247045545125 -0.016096293281841662 0 -0.021543621728502927 -0.016470904933000772 0 -0.021184020471416563 -0.014702993043375061 0 -0.023920247045545125 -0.016096293281841662 0 -0.021184020471416563 -0.014702993043375061 0 -0.023068977928225712 -0.014117827840082572 0 -0.021184020471416563 -0.014702993043375061 0 -0.01930855656496059 -0.015059939135598707 0 -0.018241914893472058 -0.013292411155138878 0 -0.021543621728502927 -0.016470904933000772 0 -0.021184020471416563 -0.014702993043375061 0 -0.01930855656496059 -0.015059939135598707 0 -0.01930855656496059 -0.015059939135598707 0 -0.017236006263156935 -0.014485445747042273 0 -0.018241914893472058 -0.013292411155138878 0 -0.017236006263156935 -0.014485445747042273 0 -0.018537190631061934 -0.016524922654618784 0 -0.015330844780231691 -0.014886934387926367 0 -0.01930855656496059 -0.015059939135598707 0 -0.017236006263156935 -0.014485445747042273 0 -0.018537190631061934 -0.016524922654618784 0 -0.018537190631061934 -0.016524922654618784 0 -0.01856750039521244 -0.01962063978718084 0 -0.016455988522389681 -0.017143535722849976 0 -0.02103150618585856 -0.018116428261911021 0 -0.018537190631061934 -0.016524922654618784 0 -0.01856750039521244 -0.01962063978718084 0 -0.01856750039521244 -0.01962063978718084 0 -0.016455988522389681 -0.017143535722849976 0 -0.015844885050896065 -0.018738603220823272 0 -0.018537190631061934 -0.016524922654618784 0 -0.016455988522389681 -0.017143535722849976 0 -0.015330844780231691 -0.014886934387926367 0 -0.016455988522389681 -0.017143535722849976 0 -0.014100797334152719 -0.01607177858972909 0 -0.015330844780231691 -0.014886934387926367 0 -0.016455988522389681 -0.017143535722849976 0 -0.015844885050896065 -0.018738603220823272 0 -0.014100797334152719 -0.01607177858972909 0 -0.015844885050896065 -0.018738603220823272 0 -0.013251799528885555 -0.017616373379585527 0 -0.014100797334152719 -0.01607177858972909 0 -0.011606720442577791 -0.014792373658925415 0 -0.014100797334152719 -0.01607177858972909 0 -0.01288027788856856 -0.013778985369600965 0 -0.014100797334152719 -0.01607177858972909 0 -0.01288027788856856 -0.013778985369600965 0 -0.015330844780231691 -0.014886934387926367 0 -0.017236006263156935 -0.014485445747042273 0 -0.015330844780231691 -0.014886934387926367 0 -0.01477493216233154 -0.012657344008205529 0 -0.01288027788856856 -0.013778985369600965 0 -0.015330844780231691 -0.014886934387926367 0 -0.01477493216233154 -0.012657344008205529 0 -0.01288027788856856 -0.013778985369600965 0 -0.012438079405234963 -0.011742616609789923 0 -0.01477493216233154 -0.012657344008205529 0 -0.012438079405234963 -0.011742616609789923 0 -0.01477493216233154 -0.012657344008205529 0 -0.012251377150299258 -0.010384409132172215 0 -0.01477493216233154 -0.012657344008205529 0 -0.012251377150299258 -0.010384409132172215 0 -0.015826870397059215 -0.011526602335470456 0 -0.0099330141687127907 -0.0082630344583263151 0 -0.012251377150299258 -0.010384409132172215 0 -0.012980099787319571 -0.0091275141400221846 0 -0.012980099787319571 -0.0091275141400221846 0 -0.015695672874210347 -0.0099939451082442666 0 -0.01502528811166463 -0.0082795976508123949 0 -0.012980099787319571 -0.0091275141400221846 0 -0.015695672874210347 -0.0099939451082442666 0 -0.015826870397059215 -0.011526602335470456 0 -0.012251377150299258 -0.010384409132172215 0 -0.012980099787319571 -0.0091275141400221846 0 -0.015826870397059215 -0.011526602335470456 0 -0.015695672874210347 -0.0099939451082442666 0 -0.018888030663981207 -0.01142913631171031 0 -0.015826870397059215 -0.011526602335470456 0 -0.015695672874210347 -0.0099939451082442666 0 -0.018101019658834296 -0.0096293595574820905 0 -0.01502528811166463 -0.0082795976508123949 0 -0.015695672874210347 -0.0099939451082442666 0 -0.018101019658834296 -0.0096293595574820905 0 -0.018888030663981207 -0.01142913631171031 0 -0.018888030663981207 -0.01142913631171031 0 -0.015826870397059215 -0.011526602335470456 0 -0.018241914893472058 -0.013292411155138878 0 -0.018888030663981207 -0.01142913631171031 0 -0.018241914893472058 -0.013292411155138878 0 -0.020713963350903569 -0.013108242120131092 0 -0.01477493216233154 -0.012657344008205529 0 -0.015826870397059215 -0.011526602335470456 0 -0.018241914893472058 -0.013292411155138878 0 -0.017236006263156935 -0.014485445747042273 0 -0.01477493216233154 -0.012657344008205529 0 -0.018241914893472058 -0.013292411155138878 0 -0.021184020471416563 -0.014702993043375061 0 -0.018241914893472058 -0.013292411155138878 0 -0.020713963350903569 -0.013108242120131092 0 -0.021184020471416563 -0.014702993043375061 0 -0.020713963350903569 -0.013108242120131092 0 -0.023068977928225712 -0.014117827840082572 0 -0.020713963350903569 -0.013108242120131092 0 -0.022041197660506651 -0.011836290750965005 0 -0.023068977928225712 -0.014117827840082572 0 -0.018888030663981207 -0.01142913631171031 0 -0.020713963350903569 -0.013108242120131092 0 -0.022041197660506651 -0.011836290750965005 0 -0.018888030663981207 -0.01142913631171031 0 -0.021574521390849297 -0.0099307183681833482 0 -0.022041197660506651 -0.011836290750965005 0 -0.018101019658834296 -0.0096293595574820905 0 -0.018888030663981207 -0.01142913631171031 0 -0.021574521390849297 -0.0099307183681833482 0 -0.021574521390849297 -0.0099307183681833482 0 -0.022041197660506651 -0.011836290750965005 0 -0.024523297549623048 -0.010931688999685212 0 -0.022041197660506651 -0.011836290750965005 0 -0.024523297549623048 -0.010931688999685212 0 -0.024505029498914855 -0.012753075809164384 0 -0.021574521390849297 -0.0099307183681833482 0 -0.024523297549623048 -0.010931688999685212 0 -0.02474568423480366 -0.0088479034117957527 0 -0.024523297549623048 -0.010931688999685212 0 -0.026472701248137061 -0.012357088468299903 0 -0.027152075224710987 -0.010190638219082622 0 -0.024523297549623048 -0.010931688999685212 0 -0.026472701248137061 -0.012357088468299903 0 -0.024505029498914855 -0.012753075809164384 0 -0.026472701248137061 -0.012357088468299903 0 -0.024505029498914855 -0.012753075809164384 0 -0.026158389981942191 -0.014444993249406261 0 -0.022041197660506651 -0.011836290750965005 0 -0.024505029498914855 -0.012753075809164384 0 -0.023068977928225712 -0.014117827840082572 0 -0.024505029498914855 -0.012753075809164384 0 -0.023068977928225712 -0.014117827840082572 0 -0.026158389981942191 -0.014444993249406261 0 -0.023920247045545125 -0.016096293281841662 0 -0.023068977928225712 -0.014117827840082572 0 -0.026158389981942191 -0.014444993249406261 0 -0.029729363730330624 -0.0048605621131192012 0 -0.027530761685634113 -0.0042108128897423479 0 -0.025929870006399243 -0.0063815297684810847 0 -0.029729363730330624 -0.0048605621131192012 0 -0.027530761685634113 -0.0042108128897423479 0 -0.031762140301303844 -0.001386116524609656 0 -0.027530761685634113 -0.0042108128897423479 0 -0.025929870006399243 -0.0063815297684810847 0 -0.023607366048672199 -0.0044909159047830018 0 -0.027530761685634113 -0.0042108128897423479 0 -0.023607366048672199 -0.0044909159047830018 0 -0.026666365879985422 -0.001802039968743057 0 -0.029729363730330624 -0.0048605621131192012 0 -0.025929870006399243 -0.0063815297684810847 0 -0.028212647234066971 -0.0077579520630574441 0 -0.028212647234066971 -0.0077579520630574441 0 -0.027152075224710987 -0.010190638219082622 0 -0.02474568423480366 -0.0088479034117957527 0 -0.024523297549623048 -0.010931688999685212 0 -0.027152075224710987 -0.010190638219082622 0 -0.02474568423480366 -0.0088479034117957527 0 -0.025929870006399243 -0.0063815297684810847 0 -0.028212647234066971 -0.0077579520630574441 0 -0.02474568423480366 -0.0088479034117957527 0 -0.025929870006399243 -0.0063815297684810847 0 -0.02474568423480366 -0.0088479034117957527 0 -0.021447861864261744 -0.0070782591210398101 0 -0.021574521390849297 -0.0099307183681833482 0 -0.019610540683525864 -0.0085288366697836588 0 -0.021447861864261744 -0.0070782591210398101 0 -0.021574521390849297 -0.0099307183681833482 0 -0.02474568423480366 -0.0088479034117957527 0 -0.021447861864261744 -0.0070782591210398101 0 -0.018101019658834296 -0.0096293595574820905 0 -0.021574521390849297 -0.0099307183681833482 0 -0.019610540683525864 -0.0085288366697836588 0 -0.021447861864261744 -0.0070782591210398101 0 -0.023607366048672199 -0.0044909159047830018 0 -0.020139983846879123 -0.0042708939561695346 0 -0.025929870006399243 -0.0063815297684810847 0 -0.021447861864261744 -0.0070782591210398101 0 -0.023607366048672199 -0.0044909159047830018 0 -0.023607366048672199 -0.0044909159047830018 0 -0.020139983846879123 -0.0042708939561695346 0 -0.022071133261522258 -0.0017101718933426754 0 -0.020139983846879123 -0.0042708939561695346 0 -0.016970068008227136 -0.0054098877306223807 0 -0.016550391434448402 -0.0018674871651280377 0 -0.016970068008227136 -0.0054098877306223807 0 -0.013906319337400785 -0.0039422588257524479 0 -0.016550391434448402 -0.0018674871651280377 0 -0.016970068008227136 -0.0054098877306223807 0 -0.014430400945780859 -0.0062652198754003744 0 -0.013906319337400785 -0.0039422588257524479 0 -0.021447861864261744 -0.0070782591210398101 0 -0.020139983846879123 -0.0042708939561695346 0 -0.016970068008227136 -0.0054098877306223807 0 -0.021447861864261744 -0.0070782591210398101 0 -0.016970068008227136 -0.0054098877306223807 0 -0.017281505354522917 -0.0073951049048490832 0 -0.019610540683525864 -0.0085288366697836588 0 -0.021447861864261744 -0.0070782591210398101 0 -0.017281505354522917 -0.0073951049048490832 0 -0.018101019658834296 -0.0096293595574820905 0 -0.019610540683525864 -0.0085288366697836588 0 -0.017281505354522917 -0.0073951049048490832 0 -0.018101019658834296 -0.0096293595574820905 0 -0.017281505354522917 -0.0073951049048490832 0 -0.01502528811166463 -0.0082795976508123949 0 -0.017281505354522917 -0.0073951049048490832 0 -0.01502528811166463 -0.0082795976508123949 0 -0.014430400945780859 -0.0062652198754003744 0 -0.016970068008227136 -0.0054098877306223807 0 -0.017281505354522917 -0.0073951049048490832 0 -0.014430400945780859 -0.0062652198754003744 0 -0.01502528811166463 -0.0082795976508123949 0 -0.014430400945780859 -0.0062652198754003744 0 -0.012282604657432866 -0.0070139116688061921 0 -0.014430400945780859 -0.0062652198754003744 0 -0.012282604657432866 -0.0070139116688061921 0 -0.01153698460488858 -0.0047857637388716932 0 -0.012980099787319571 -0.0091275141400221846 0 -0.01502528811166463 -0.0082795976508123949 0 -0.012282604657432866 -0.0070139116688061921 0 -0.012282604657432866 -0.0070139116688061921 0 -0.010519665121422611 -0.0073595495911982353 0 -0.0097083636028774782 -0.005657914880220158 0 -0.012980099787319571 -0.0091275141400221846 0 -0.012282604657432866 -0.0070139116688061921 0 -0.010519665121422611 -0.0073595495911982353 0 -0.012282604657432866 -0.0070139116688061921 0 -0.01153698460488858 -0.0047857637388716932 0 -0.0097083636028774782 -0.005657914880220158 0 -0.01153698460488858 -0.0047857637388716932 0 -0.0097083636028774782 -0.005657914880220158 0 -0.0083587633140740497 -0.0031941534487046736 0 -0.014430400945780859 -0.0062652198754003744 0 -0.01153698460488858 -0.0047857637388716932 0 -0.013906319337400785 -0.0039422588257524479 0 -0.01153698460488858 -0.0047857637388716932 0 -0.013906319337400785 -0.0039422588257524479 0 -0.011083019642037712 -0.0021066972406683471 0 -0.01153698460488858 -0.0047857637388716932 0 -0.011083019642037712 -0.0021066972406683471 0 -0.0083587633140740497 -0.0031941534487046736 0 -0.011083019642037712 -0.0021066972406683471 0 -0.0090764917668917783 0.00045111785279925722 0 -0.0068912566048424089 -0.00068911432664742992 0 -0.011083019642037712 -0.0021066972406683471 0 -0.0083587633140740497 -0.0031941534487046736 0 -0.0068912566048424089 -0.00068911432664742992 0 -0.011083019642037712 -0.0021066972406683471 0 -0.012677763493240212 0.00044012448979144933 0 -0.016550391434448402 -0.0018674871651280377 0 -0.013906319337400785 -0.0039422588257524479 0 -0.011083019642037712 -0.0021066972406683471 0 -0.016550391434448402 -0.0018674871651280377 0 -0.011083019642037712 -0.0021066972406683471 0 -0.012677763493240212 0.00044012448979144933 0 -0.0090764917668917783 0.00045111785279925722 0 -0.0090764917668917783 0.00045111785279925722 0 -0.010318247627006833 0.0036746059150839089 0 -0.0056614423412127829 0.0022863778571339272 0 -0.010318247627006833 0.0036746059150839089 0 -0.0056614423412127829 0.0022863778571339272 0 -0.0063316442045513932 0.0079081957524540277 0 -0.010318247627006833 0.0036746059150839089 0 -0.010514421949928911 0.0083816985946889976 0 -0.0063316442045513932 0.0079081957524540277 0 -0.010318247627006833 0.0036746059150839089 0 -0.015060378873955201 0.0085884619147685529 0 -0.010514421949928911 0.0083816985946889976 0 -0.012677763493240212 0.00044012448979144933 0 -0.010318247627006833 0.0036746059150839089 0 -0.01686382197660519 0.0031658494413928564 0 -0.012677763493240212 0.00044012448979144933 0 -0.0090764917668917783 0.00045111785279925722 0 -0.010318247627006833 0.0036746059150839089 0 -0.010318247627006833 0.0036746059150839089 0 -0.01686382197660519 0.0031658494413928564 0 -0.015060378873955201 0.0085884619147685529 0 -0.01686382197660519 0.0031658494413928564 0 -0.021552223992295519 0.0083387653969610176 0 -0.015060378873955201 0.0085884619147685529 0 -0.01686382197660519 0.0031658494413928564 0 -0.02100803852524628 0.0016861441136275536 0 -0.021552223992295519 0.0083387653969610176 0 -0.01686382197660519 0.0031658494413928564 0 -0.016550391434448402 -0.0018674871651280377 0 -0.02100803852524628 0.0016861441136275536 0 -0.016550391434448402 -0.0018674871651280377 0 -0.022071133261522258 -0.0017101718933426754 0 -0.02100803852524628 0.0016861441136275536 0 -0.012677763493240212 0.00044012448979144933 0 -0.01686382197660519 0.0031658494413928564 0 -0.016550391434448402 -0.0018674871651280377 0 -0.020139983846879123 -0.0042708939561695346 0 -0.016550391434448402 -0.0018674871651280377 0 -0.022071133261522258 -0.0017101718933426754 0 -0.023607366048672199 -0.0044909159047830018 0 -0.022071133261522258 -0.0017101718933426754 0 -0.026666365879985422 -0.001802039968743057 0 -0.022071133261522258 -0.0017101718933426754 0 -0.025279397363551372 0.0014883380836846116 0 -0.026666365879985422 -0.001802039968743057 0 -0.022071133261522258 -0.0017101718933426754 0 -0.025279397363551372 0.0014883380836846116 0 -0.02100803852524628 0.0016861441136275536 0 -0.025279397363551372 0.0014883380836846116 0 -0.02100803852524628 0.0016861441136275536 0 -0.025481433713419151 0.0052881177601315698 0 -0.02100803852524628 0.0016861441136275536 0 -0.025481433713419151 0.0052881177601315698 0 -0.021552223992295519 0.0083387653969610176 0 -0.025481433713419151 0.0052881177601315698 0 -0.030093849217159976 0.0051112129217092267 0 -0.02987167310752244 0.011130154703689939 0 -0.025481433713419151 0.0052881177601315698 0 -0.02987167310752244 0.011130154703689939 0 -0.021552223992295519 0.0083387653969610176 0 -0.025279397363551372 0.0014883380836846116 0 -0.025481433713419151 0.0052881177601315698 0 -0.030093849217159976 0.0051112129217092267 0 -0.025279397363551372 0.0014883380836846116 0 -0.030093849217159976 0.0051112129217092267 0 -0.029635745482408361 0.0010986977187255034 0 -0.030093849217159976 0.0051112129217092267 0 -0.036718158878872274 0.0087926590930126145 0 -0.02987167310752244 0.011130154703689939 0 -0.030093849217159976 0.0051112129217092267 0 -0.034159094237453141 0.0031400409314210386 0 -0.036718158878872274 0.0087926590930126145 0 -0.030093849217159976 0.0051112129217092267 0 -0.034159094237453141 0.0031400409314210386 0 -0.029635745482408361 0.0010986977187255034 0 -0.034159094237453141 0.0031400409314210386 0 -0.029635745482408361 0.0010986977187255034 0 -0.031762140301303844 -0.001386116524609656 0 -0.029635745482408361 0.0010986977187255034 0 -0.026666365879985422 -0.001802039968743057 0 -0.031762140301303844 -0.001386116524609656 0 -0.025279397363551372 0.0014883380836846116 0 -0.029635745482408361 0.0010986977187255034 0 -0.026666365879985422 -0.001802039968743057 0 -0.027530761685634113 -0.0042108128897423479 0 -0.026666365879985422 -0.001802039968743057 0 -0.031762140301303844 -0.001386116524609656 0 -0.0031694530336886656 -0.002308937503674429 0 -0.0040834101955343587 -0.0031498215083433662 0 -0.0032714998088690041 -0.0015543999899888276 0 -0.0040834101955343587 -0.0031498215083433662 0 -0.0032714998088690041 -0.0015543999899888276 0 -0.0040005965115336595 -0.0017710140490168327 0 -0.0032714998088690041 -0.0015543999899888276 0 -0.0040005965115336595 -0.0017710140490168327 0 -0.0031026515908006099 -0.00024882906535217034 0 -0.0031694530336886656 -0.002308937503674429 0 -0.0032714998088690041 -0.0015543999899888276 0 -0.0026686138764037415 -0.0010187346264762009 0 -0.0026686138764037415 -0.0010187346264762009 0 -0.002517846773269607 -0.0020598412656799544 0 -0.0023040449980345069 -0.00085917486463389951 0 -0.0031694530336886656 -0.002308937503674429 0 -0.0026686138764037415 -0.0010187346264762009 0 -0.002517846773269607 -0.0020598412656799544 0 -0.0021197666164423697 -0.0015720737550748323 0 -0.002517846773269607 -0.0020598412656799544 0 -0.0023040449980345069 -0.00085917486463389951 0 -0.0031694530336886656 -0.002308937503674429 0 -0.002517846773269607 -0.0020598412656799544 0 -0.0033599369639368635 -0.0035008477187818527 0 -0.002517846773269607 -0.0020598412656799544 0 -0.002517439046320691 -0.0032920430225095972 0 -0.0033599369639368635 -0.0035008477187818527 0 -0.0020700239102097117 -0.0024242045965197799 0 -0.002517846773269607 -0.0020598412656799544 0 -0.002517439046320691 -0.0032920430225095972 0 -0.0025588220472880967 -0.0043363382025409045 0 -0.002517439046320691 -0.0032920430225095972 0 -0.0033507910706828147 -0.0045673899455391017 0 -0.002517439046320691 -0.0032920430225095972 0 -0.0033507910706828147 -0.0045673899455391017 0 -0.0033599369639368635 -0.0035008477187818527 0 -0.0033507910706828147 -0.0045673899455391017 0 -0.0033599369639368635 -0.0035008477187818527 0 -0.0043430568450398286 -0.0047148504240736985 0 -0.0031694530336886656 -0.002308937503674429 0 -0.0040834101955343587 -0.0031498215083433662 0 -0.0033599369639368635 -0.0035008477187818527 0 -0.0040834101955343587 -0.0031498215083433662 0 -0.0033599369639368635 -0.0035008477187818527 0 -0.0043430568450398286 -0.0047148504240736985 0 -0.0040834101955343587 -0.0031498215083433662 0 -0.0043430568450398286 -0.0047148504240736985 0 -0.0059131150345424913 -0.0050692844376295657 0 -0.005614054644722484 -0.005871706427094503 0 -0.0043430568450398286 -0.0047148504240736985 0 -0.0059131150345424913 -0.0050692844376295657 0 -0.0074789061405803473 -0.0073764975360201945 0 -0.0059131150345424913 -0.0050692844376295657 0 -0.0082890487195197253 -0.0064087962448442009 0 -0.0059131150345424913 -0.0050692844376295657 0 -0.0072418123104800022 -0.0044153893750872768 0 -0.0053331715736151149 -0.0034303427953495959 0 -0.0059131150345424913 -0.0050692844376295657 0 -0.0082890487195197253 -0.0064087962448442009 0 -0.0072418123104800022 -0.0044153893750872768 0 -0.0040834101955343587 -0.0031498215083433662 0 -0.0059131150345424913 -0.0050692844376295657 0 -0.0053331715736151149 -0.0034303427953495959 0 -0.010519665121422611 -0.0073595495911982353 0 -0.0082890487195197253 -0.0064087962448442009 0 -0.0097083636028774782 -0.005657914880220158 0 -0.0082890487195197253 -0.0064087962448442009 0 -0.0097083636028774782 -0.005657914880220158 0 -0.0072418123104800022 -0.0044153893750872768 0 -0.0097083636028774782 -0.005657914880220158 0 -0.0072418123104800022 -0.0044153893750872768 0 -0.0083587633140740497 -0.0031941534487046736 0 -0.0072418123104800022 -0.0044153893750872768 0 -0.0055406997901567383 -0.0020279659473668955 0 -0.0083587633140740497 -0.0031941534487046736 0 -0.0055406997901567383 -0.0020279659473668955 0 -0.0083587633140740497 -0.0031941534487046736 0 -0.0068912566048424089 -0.00068911432664742992 0 -0.0040834101955343587 -0.0031498215083433662 0 -0.0053331715736151149 -0.0034303427953495959 0 -0.0040005965115336595 -0.0017710140490168327 0 -0.0072418123104800022 -0.0044153893750872768 0 -0.0055406997901567383 -0.0020279659473668955 0 -0.0053331715736151149 -0.0034303427953495959 0 -0.0055406997901567383 -0.0020279659473668955 0 -0.0053331715736151149 -0.0034303427953495959 0 -0.0040005965115336595 -0.0017710140490168327 0 -0.0055406997901567383 -0.0020279659473668955 0 -0.0040005965115336595 -0.0017710140490168327 0 -0.0036912503429942676 -0.00028833331577774319 0 -0.0040005965115336595 -0.0017710140490168327 0 -0.0036912503429942676 -0.00028833331577774319 0 -0.0031026515908006099 -0.00024882906535217034 0 -0.0055406997901567383 -0.0020279659473668955 0 -0.0036912503429942676 -0.00028833331577774319 0 -0.0035400710507696789 0.0011653887898520497 0 -0.0036912503429942676 -0.00028833331577774319 0 -0.0035400710507696789 0.0011653887898520497 0 -0.0026883847474555352 0.0012240388455745698 0 -0.0026883847474555352 0.0012240388455745698 0 -0.0025981010936473271 0.00080117963657357408 0 -0.0031026515908006099 -0.00024882906535217034 0 -0.0036912503429942676 -0.00028833331577774319 0 -0.0026883847474555352 0.0012240388455745698 0 -0.0031026515908006099 -0.00024882906535217034 0 -0.0055406997901567383 -0.0020279659473668955 0 -0.0068912566048424089 -0.00068911432664742992 0 -0.0035400710507696789 0.0011653887898520497 0 -0.0068912566048424089 -0.00068911432664742992 0 -0.0035400710507696789 0.0011653887898520497 0 -0.0056614423412127829 0.0022863778571339272 0 -0.0090764917668917783 0.00045111785279925722 0 -0.0068912566048424089 -0.00068911432664742992 0 -0.0056614423412127829 0.0022863778571339272 0 -0.0035400710507696789 0.0011653887898520497 0 -0.0056614423412127829 0.0022863778571339272 0 -0.00068381389494657802 0.0047116357760246547 0 -0.0056614423412127829 0.0022863778571339272 0 -0.00068381389494657802 0.0047116357760246547 0 -0.0063316442045513932 0.0079081957524540277 0 -0.0035400710507696789 0.0011653887898520497 0 -0.0020149354098832639 0.002928438851164603 0 -0.00068381389494657802 0.0047116357760246547 0 -0.0026883847474555352 0.0012240388455745698 0 -0.0020149354098832639 0.002928438851164603 0 -0.0023914941782204654 0.001686668175684994 0 -0.0026883847474555352 0.0012240388455745698 0 -0.0023914941782204654 0.001686668175684994 0 -0.0025981010936473271 0.00080117963657357408 0 -0.0035400710507696789 0.0011653887898520497 0 -0.0026883847474555352 0.0012240388455745698 0 -0.0020149354098832639 0.002928438851164603 0 -0.0020149354098832639 0.002928438851164603 0 -0.0023914941782204654 0.001686668175684994 0 -0.0022904605915433029 0.0016045503334914633 0 -0.0023914941782204654 0.001686668175684994 0 -0.0024565942486613518 0.00089669679595731546 0 -0.0022904605915433029 0.0016045503334914633 0 -0.0023914941782204654 0.001686668175684994 0 -0.0024712235585494947 0.0009666678769343983 0 -0.0024565942486613518 0.00089669679595731546 0 -0.0023914941782204654 0.001686668175684994 0 -0.0024712235585494947 0.0009666678769343983 0 -0.0025981010936473271 0.00080117963657357408 0 -0.0025981010936473271 0.00080117963657357408 0 -0.0026678822925333538 2.1848149780241942e-05 0 -0.0031026515908006099 -0.00024882906535217034 0 -0.0024712235585494947 0.0009666678769343983 0 -0.0025981010936473271 0.00080117963657357408 0 -0.0026678822925333538 2.1848149780241942e-05 0 -0.0024712235585494947 0.0009666678769343983 0 -0.0026678822925333538 2.1848149780241942e-05 0 -0.0024177954962672395 0.00011574658401916011 0 -0.0026686138764037415 -0.0010187346264762009 0 -0.0026678822925333538 2.1848149780241942e-05 0 -0.0024177954962672395 0.00011574658401916011 0 -0.0032714998088690041 -0.0015543999899888276 0 -0.0026686138764037415 -0.0010187346264762009 0 -0.0026678822925333538 2.1848149780241942e-05 0 -0.0032714998088690041 -0.0015543999899888276 0 -0.0026678822925333538 2.1848149780241942e-05 0 -0.0031026515908006099 -0.00024882906535217034 0 -0.0026686138764037415 -0.0010187346264762009 0 -0.0023040449980345069 -0.00085917486463389951 0 -0.0024177954962672395 0.00011574658401916011 0 -0.0022835969855132536 -9.0791226147439065e-05 0 -0.0023040449980345069 -0.00085917486463389951 0 -0.0024177954962672395 0.00011574658401916011 0 -0.0024712235585494947 0.0009666678769343983 0 -0.0024755351778461975 0.00045750256556502589 0 -0.0024989865776240613 0.00024647936580750692 0 -0.0022835969855132536 -9.0791226147439065e-05 0 -0.0024529029310806452 0.0001721408486433667 0 -0.0024755351778461975 0.00045750256556502589 0 -0.0022835969855132536 -9.0791226147439065e-05 0 -0.0024177954962672395 0.00011574658401916011 0 -0.0024755351778461975 0.00045750256556502589 0 -0.0024712235585494947 0.0009666678769343983 0 -0.0024177954962672395 0.00011574658401916011 0 -0.0024755351778461975 0.00045750256556502589 0 -0.0024529029310806452 0.0001721408486433667 0 -0.0024755351778461975 0.00045750256556502589 0 -0.0025367828000944976 1.5477816445528529e-05 0 -0.0024755351778461975 0.00045750256556502589 0 -0.0024989865776240613 0.00024647936580750692 0 -0.0025367828000944976 1.5477816445528529e-05 0 -0.0024989865776240613 0.00024647936580750692 0 -0.0025367828000944976 1.5477816445528529e-05 0 -0.0023993112236041997 -0.00058277525902066267 0 -0.0024989865776240613 0.00024647936580750692 0 -0.0023993112236041997 -0.00058277525902066267 0 -0.0022319470910982546 -0.00055521465456232042 0 -0.0025367828000944976 1.5477816445528529e-05 0 -0.0025461559619132986 -0.00061222625857479949 0 -0.0023993112236041997 -0.00058277525902066267 0 -0.0025461559619132986 -0.00061222625857479949 0 -0.0023993112236041997 -0.00058277525902066267 0 -0.0021957109049152625 -0.0016329011866844853 0 -0.0023993112236041997 -0.00058277525902066267 0 -0.0021957109049152625 -0.0016329011866844853 0 -0.0022319470910982546 -0.00055521465456232042 0 -0.0025461559619132986 -0.00061222625857479949 0 -0.0021957109049152625 -0.0016329011866844853 0 -0.0025207769041932586 -0.0013188424902234701 0 -0.0013567484023392538 -0.0015806673304646691 0 -0.0007051027467820406 -0.0028839856735110091 0 -0.0014677221107239455 -0.0022846397334449113 0 -0.0022319470910982546 -0.00055521465456232042 0 -0.0013567484023392538 -0.0015806673304646691 0 -0.0014677221107239455 -0.0022846397334449113 0 -0.0021957109049152625 -0.0016329011866844853 0 -0.0022319470910982546 -0.00055521465456232042 0 -0.0014677221107239455 -0.0022846397334449113 0 -0.0022319470910982546 -0.00055521465456232042 0 -0.002079432159331492 0.00026851781426898521 0 -0.0013567484023392538 -0.0015806673304646691 0 -0.0024712235585494947 0.0009666678769343983 0 -0.0024989865776240613 0.00024647936580750692 0 -0.0024565942486613518 0.00089669679595731546 0 -0.0022319470910982546 -0.00055521465456232042 0 -0.0024565942486613518 0.00089669679595731546 0 -0.002079432159331492 0.00026851781426898521 0 -0.0024989865776240613 0.00024647936580750692 0 -0.0022319470910982546 -0.00055521465456232042 0 -0.0024565942486613518 0.00089669679595731546 0 -0.0024565942486613518 0.00089669679595731546 0 -0.0022904605915433029 0.0016045503334914633 0 -0.002079432159331492 0.00026851781426898521 0 -0.0020149354098832639 0.002928438851164603 0 -0.0022904605915433029 0.0016045503334914633 0 -0.0018261764066870357 0.0017067626043647788 0 -0.0022904605915433029 0.0016045503334914633 0 -0.0018261764066870357 0.0017067626043647788 0 -0.002079432159331492 0.00026851781426898521 0 -0.0020149354098832639 0.002928438851164603 0 -0.0018261764066870357 0.0017067626043647788 0 -0.00068381389494657802 0.0047116357760246547 0 -0.0018261764066870357 0.0017067626043647788 0 0.00023842944837797664 -4.9645461985134159e-05 0 -0.00086013150476896435 -0.00099509146366158073 0 -0.0018261764066870357 0.0017067626043647788 0 -0.002079432159331492 0.00026851781426898521 0 -0.00086013150476896435 -0.00099509146366158073 0 -0.00068381389494657802 0.0047116357760246547 0 -0.0035345491006401825 0.015681538039475029 0 -0.0063316442045513932 0.0079081957524540277 0 -0.0018261764066870357 0.0017067626043647788 0 -0.00068381389494657802 0.0047116357760246547 0 0.00023842944837797664 -4.9645461985134159e-05 0 -0.15776099693415588 -0.024369922011428326 0 0.04196072985859943 0.030718224697771399 0 -0.00068381389494657802 0.0047116357760246547 0 0.0034655228459038864 0.015795437531240752 0 -0.0035345491006401825 0.015681538039475029 0 -0.0035345491006401825 0.015681538039475029 0 0.0061250167735228452 0.025063901745163417 0 -0.0044151009396249047 0.02346175404856244 0 0.04196072985859943 0.030718224697771399 0 -0.011382629151933173 0.00065189909440236868 0 0.00023842944837797664 -4.9645461985134159e-05 0 0.00067403547320407273 -0.0020932160075805583 0 -0.00086013150476896435 -0.00099509146366158073 0 0.0034655228459038864 0.015795437531240752 0 -0.0035345491006401825 0.015681538039475029 0 0.0061250167735228452 0.025063901745163417 0 -0.011382629151933173 0.00065189909440236868 0 0.0025463193865125954 0.019935144702616578 0 0.00067403547320407273 -0.0020932160075805583 0 -4.9222437464509588e-05 -0.0027061636014668101 0 0.0011303276995428616 -0.0036014821132738708 0 0.0061250167735228452 0.025063901745163417 0 0.0012903886167699443 0.030748672453680913 0 -0.0044151009396249047 0.02346175404856244 0 -0.002079432159331492 0.00026851781426898521 0 -0.00086013150476896435 -0.00099509146366158073 0 -0.0013567484023392538 -0.0015806673304646691 0 0.00067403547320407273 -0.0020932160075805583 0 -0.00086013150476896435 -0.00099509146366158073 0 -4.9222437464509588e-05 -0.0027061636014668101 0 -0.00086013150476896435 -0.00099509146366158073 0 -4.9222437464509588e-05 -0.0027061636014668101 0 -0.0013567484023392538 -0.0015806673304646691 0 -4.9222437464509588e-05 -0.0027061636014668101 0 -0.0013567484023392538 -0.0015806673304646691 0 -0.0007051027467820406 -0.0028839856735110091 0 -4.9222437464509588e-05 -0.0027061636014668101 0 -0.0007051027467820406 -0.0028839856735110091 0 0.00033748186889782201 -0.0040680712087253317 0 -4.9222437464509588e-05 -0.0027061636014668101 0 0.00033748186889782201 -0.0040680712087253317 0 0.0011303276995428616 -0.0036014821132738708 0 0.00033748186889782201 -0.0040680712087253317 0 0.0011303276995428616 -0.0036014821132738708 0 0.0016589853402908781 -0.0049475518022458606 0 -0.0007051027467820406 -0.0028839856735110091 0 0.00033748186889782201 -0.0040680712087253317 0 -0.00062609888183137209 -0.00367729248590217 0 0.0012903886167699443 0.030748672453680913 0 0.0028088906371386956 0.037153051974656924 0 -0.0052139030518268768 0.033194992962618033 0 0.0012903886167699443 0.030748672453680913 0 0.0084836483467740174 0.034745342507828597 0 0.0028088906371386956 0.037153051974656924 0 0.0061250167735228452 0.025063901745163417 0 0.0012903886167699443 0.030748672453680913 0 0.0084836483467740174 0.034745342507828597 0 0.0025463193865125954 0.019935144702616578 0 -0.0017978333597417808 0.017671465447145922 0 0.0084836483467740174 0.034745342507828597 0 0.0028088906371386956 0.037153051974656924 0 0.010439049488911506 0.044884491307850716 0 0.0028088906371386956 0.037153051974656924 0 0.010439049488911506 0.044884491307850716 0 -0.00046494592361347566 0.042453228821559164 0 0.010439049488911506 0.044884491307850716 0 0.0030246510092997317 0.049662956334926601 0 -0.00046494592361347566 0.042453228821559164 0 0.010439049488911506 0.044884491307850716 0 0.012125878133895866 0.055493730445018048 0 0.0030246510092997317 0.049662956334926601 0 0.0016589853402908781 -0.0049475518022458606 0 0.0022091096279862918 -0.0062837577572205337 0 0.001153496384246539 -0.0054610171042793242 0 -0.0017978333597417808 0.017671465447145922 0 -0.0016823400855130711 0.024174978913260176 0 0.012125878133895866 0.055493730445018048 0 0.0030246510092997317 0.049662956334926601 0 0.0011303642051090324 0.056685808716395537 0 0.00033748186889782201 -0.0040680712087253317 0 0.00015548152158230435 -0.0048626895050439675 0 0.001153496384246539 -0.0054610171042793242 0 0.00033748186889782201 -0.0040680712087253317 0 0.00015548152158230435 -0.0048626895050439675 0 -0.00062609888183137209 -0.00367729248590217 0 0.00033748186889782201 -0.0040680712087253317 0 0.0016589853402908781 -0.0049475518022458606 0 0.001153496384246539 -0.0054610171042793242 0 0.00015548152158230435 -0.0048626895050439675 0 0.001153496384246539 -0.0054610171042793242 0 0.00042016020352263087 -0.0057563727208449844 0 0.001153496384246539 -0.0054610171042793242 0 0.00042016020352263087 -0.0057563727208449844 0 0.0016102348469344294 -0.0067614706804241167 0 0.00015548152158230435 -0.0048626895050439675 0 0.00042016020352263087 -0.0057563727208449844 0 -0.00083262429188679351 -0.0044431657974343787 0 0.00042016020352263087 -0.0057563727208449844 0 -0.00083262429188679351 -0.0044431657974343787 0 -5.2654614885459607e-05 -0.0059972023263480554 0 0.00015548152158230435 -0.0048626895050439675 0 -0.00083262429188679351 -0.0044431657974343787 0 -0.00062609888183137209 -0.00367729248590217 0 -0.00083262429188679351 -0.0044431657974343787 0 -0.0018595594109595583 -0.0029380005777733267 0 -0.001339510993345591 -0.0032390006886273909 0 -0.00083262429188679351 -0.0044431657974343787 0 -0.00062609888183137209 -0.00367729248590217 0 -0.001339510993345591 -0.0032390006886273909 0 -0.00083262429188679351 -0.0044431657974343787 0 -0.0017178437218981874 -0.0037863937464921392 0 -0.001011186636178025 -0.0053533681352295522 0 -0.0017178437218981874 -0.0037863937464921392 0 -0.001011186636178025 -0.0053533681352295522 0 -0.0019917620469056849 -0.0040136983024380247 0 -0.0017178437218981874 -0.0037863937464921392 0 -0.0018595594109595583 -0.0029380005777733267 0 -0.0022848083097069937 -0.0029384578945800912 0 -0.00083262429188679351 -0.0044431657974343787 0 -0.0017178437218981874 -0.0037863937464921392 0 -0.0018595594109595583 -0.0029380005777733267 0 -0.0021957109049152625 -0.0016329011866844853 0 -0.0018595594109595583 -0.0029380005777733267 0 -0.001339510993345591 -0.0032390006886273909 0 -0.0018595594109595583 -0.0029380005777733267 0 -0.0023121871126619057 -0.002174915656535722 0 -0.0022848083097069937 -0.0029384578945800912 0 -0.0021957109049152625 -0.0016329011866844853 0 -0.0018595594109595583 -0.0029380005777733267 0 -0.0023121871126619057 -0.002174915656535722 0 -0.0021957109049152625 -0.0016329011866844853 0 -0.0025207769041932586 -0.0013188424902234701 0 -0.0023121871126619057 -0.002174915656535722 0 -0.0021957109049152625 -0.0016329011866844853 0 -0.0014677221107239455 -0.0022846397334449113 0 -0.001339510993345591 -0.0032390006886273909 0 -0.0007051027467820406 -0.0028839856735110091 0 -0.0014677221107239455 -0.0022846397334449113 0 -0.00062609888183137209 -0.00367729248590217 0 -0.0014677221107239455 -0.0022846397334449113 0 -0.00062609888183137209 -0.00367729248590217 0 -0.001339510993345591 -0.0032390006886273909 0 -0.041650087339972282 0.023650437054910357 0 -0.034364688644741695 0.027068373514061213 0 -0.034667943849841662 0.01909874719734049 0 -0.041650087339972282 0.023650437054910357 0 -0.034364688644741695 0.027068373514061213 0 -0.043686637475446113 0.032637920383916968 0 -0.034364688644741695 0.027068373514061213 0 -0.034667943849841662 0.01909874719734049 0 -0.028581671701064931 0.019521256829897471 0 -0.041650087339972282 0.023650437054910357 0 -0.034667943849841662 0.01909874719734049 0 -0.039140036763909668 0.015630430256180803 0 -0.039140036763909668 0.015630430256180803 0 -0.036718158878872274 0.0087926590930126145 0 -0.02987167310752244 0.011130154703689939 0 -0.034667943849841662 0.01909874719734049 0 -0.02987167310752244 0.011130154703689939 0 -0.028581671701064931 0.019521256829897471 0 -0.034667943849841662 0.01909874719734049 0 -0.039140036763909668 0.015630430256180803 0 -0.02987167310752244 0.011130154703689939 0 -0.02987167310752244 0.011130154703689939 0 -0.023993904305278254 0.014911263240978009 0 -0.028581671701064931 0.019521256829897471 0 -0.02987167310752244 0.011130154703689939 0 -0.021552223992295519 0.0083387653969610176 0 -0.023993904305278254 0.014911263240978009 0 -0.023993904305278254 0.014911263240978009 0 -0.02329185495995852 0.020545162861437257 0 -0.018232304271001368 0.016428919552072176 0 -0.023993904305278254 0.014911263240978009 0 -0.02329185495995852 0.020545162861437257 0 -0.028581671701064931 0.019521256829897471 0 -0.02329185495995852 0.020545162861437257 0 -0.028581671701064931 0.019521256829897471 0 -0.026395019469189367 0.026789503163058788 0 -0.034364688644741695 0.027068373514061213 0 -0.028581671701064931 0.019521256829897471 0 -0.026395019469189367 0.026789503163058788 0 -0.02329185495995852 0.020545162861437257 0 -0.026395019469189367 0.026789503163058788 0 -0.019176936864686949 0.025943015097121876 0 -0.019176936864686949 0.025943015097121876 0 -0.011914826478159226 0.024242533123553425 0 -0.014131053363112009 0.033131632771352962 0 -0.019176936864686949 0.025943015097121876 0 -0.018232304271001368 0.016428919552072176 0 -0.011914826478159226 0.024242533123553425 0 -0.018232304271001368 0.016428919552072176 0 -0.010493554243510584 0.014544589327409216 0 -0.011914826478159226 0.024242533123553425 0 -0.02329185495995852 0.020545162861437257 0 -0.019176936864686949 0.025943015097121876 0 -0.018232304271001368 0.016428919552072176 0 -0.021552223992295519 0.0083387653969610176 0 -0.023993904305278254 0.014911263240978009 0 -0.018232304271001368 0.016428919552072176 0 -0.021552223992295519 0.0083387653969610176 0 -0.018232304271001368 0.016428919552072176 0 -0.015060378873955201 0.0085884619147685529 0 -0.018232304271001368 0.016428919552072176 0 -0.015060378873955201 0.0085884619147685529 0 -0.010493554243510584 0.014544589327409216 0 -0.015060378873955201 0.0085884619147685529 0 -0.010493554243510584 0.014544589327409216 0 -0.010514421949928911 0.0083816985946889976 0 -0.010493554243510584 0.014544589327409216 0 -0.010514421949928911 0.0083816985946889976 0 -0.0063316442045513932 0.0079081957524540277 0 -0.0035345491006401825 0.015681538039475029 0 -0.010493554243510584 0.014544589327409216 0 -0.0063316442045513932 0.0079081957524540277 0 -0.0035345491006401825 0.015681538039475029 0 -0.010493554243510584 0.014544589327409216 0 -0.0044151009396249047 0.02346175404856244 0 -0.010493554243510584 0.014544589327409216 0 -0.011914826478159226 0.024242533123553425 0 -0.0044151009396249047 0.02346175404856244 0 -0.011914826478159226 0.024242533123553425 0 -0.0044151009396249047 0.02346175404856244 0 -0.0052139030518268768 0.033194992962618033 0 0.0012903886167699443 0.030748672453680913 0 -0.0044151009396249047 0.02346175404856244 0 -0.0052139030518268768 0.033194992962618033 0 -0.011914826478159226 0.024242533123553425 0 -0.0052139030518268768 0.033194992962618033 0 -0.014131053363112009 0.033131632771352962 0 -0.0052139030518268768 0.033194992962618033 0 -0.008917166395528732 0.039518198504741212 0 -0.014131053363112009 0.033131632771352962 0 -0.0052139030518268768 0.033194992962618033 0 -0.008917166395528732 0.039518198504741212 0 -0.00046494592361347566 0.042453228821559164 0 0.0028088906371386956 0.037153051974656924 0 -0.0052139030518268768 0.033194992962618033 0 -0.00046494592361347566 0.042453228821559164 0 0.0030246510092997317 0.049662956334926601 0 -0.00046494592361347566 0.042453228821559164 0 -0.007529128435937258 0.0488985019402189 0 0.0030246510092997317 0.049662956334926601 0 -0.007529128435937258 0.0488985019402189 0 0.0011303642051090324 0.056685808716395537 0 -0.008917166395528732 0.039518198504741212 0 -0.00046494592361347566 0.042453228821559164 0 -0.007529128435937258 0.0488985019402189 0 -0.008917166395528732 0.039518198504741212 0 -0.007529128435937258 0.0488985019402189 0 -0.01689341723294353 0.040374779786734837 0 -0.007529128435937258 0.0488985019402189 0 -0.018332286427709132 0.049085821342967614 0 -0.01689341723294353 0.040374779786734837 0 -0.007529128435937258 0.0488985019402189 0 -0.018332286427709132 0.049085821342967614 0 -0.015994807734014179 0.057909397152974766 0 -0.018332286427709132 0.049085821342967614 0 -0.01689341723294353 0.040374779786734837 0 -0.025599917099262844 0.047940547250891516 0 -0.01689341723294353 0.040374779786734837 0 -0.02301166600680752 0.035493427372518198 0 -0.025599917099262844 0.047940547250891516 0 -0.01689341723294353 0.040374779786734837 0 -0.014131053363112009 0.033131632771352962 0 -0.02301166600680752 0.035493427372518198 0 -0.008917166395528732 0.039518198504741212 0 -0.01689341723294353 0.040374779786734837 0 -0.014131053363112009 0.033131632771352962 0 -0.019176936864686949 0.025943015097121876 0 -0.014131053363112009 0.033131632771352962 0 -0.02301166600680752 0.035493427372518198 0 -0.026395019469189367 0.026789503163058788 0 -0.019176936864686949 0.025943015097121876 0 -0.02301166600680752 0.035493427372518198 0 -0.026395019469189367 0.026789503163058788 0 -0.030075393087077813 0.03359308209442359 0 -0.02301166600680752 0.035493427372518198 0 -0.034364688644741695 0.027068373514061213 0 -0.026395019469189367 0.026789503163058788 0 -0.030075393087077813 0.03359308209442359 0 -0.030075393087077813 0.03359308209442359 0 -0.030312299217688854 0.040505123915436002 0 -0.037046446750057381 0.038427194130584007 0 -0.030075393087077813 0.03359308209442359 0 -0.02301166600680752 0.035493427372518198 0 -0.030312299217688854 0.040505123915436002 0 -0.02301166600680752 0.035493427372518198 0 -0.025599917099262844 0.047940547250891516 0 -0.030312299217688854 0.040505123915436002 0 -0.018332286427709132 0.049085821342967614 0 -0.025599917099262844 0.047940547250891516 0 -0.024675096846737143 0.057442661937439431 0 -0.025599917099262844 0.047940547250891516 0 -0.036083084929549231 0.04765948224078681 0 -0.031417061109309613 0.054662954273242151 0 -0.025599917099262844 0.047940547250891516 0 -0.030312299217688854 0.040505123915436002 0 -0.036083084929549231 0.04765948224078681 0 -0.030312299217688854 0.040505123915436002 0 -0.036083084929549231 0.04765948224078681 0 -0.037046446750057381 0.038427194130584007 0 -0.036083084929549231 0.04765948224078681 0 -0.045397328205345144 0.042463108471262508 0 -0.046607337524523271 0.052833861938235277 0 -0.036083084929549231 0.04765948224078681 0 -0.046607337524523271 0.052833861938235277 0 -0.038594140782567274 0.057403455167215567 0 -0.036083084929549231 0.04765948224078681 0 -0.045397328205345144 0.042463108471262508 0 -0.037046446750057381 0.038427194130584007 0 -0.045397328205345144 0.042463108471262508 0 -0.037046446750057381 0.038427194130584007 0 -0.043686637475446113 0.032637920383916968 0 -0.034364688644741695 0.027068373514061213 0 -0.030075393087077813 0.03359308209442359 0 -0.037046446750057381 0.038427194130584007 0 -0.034364688644741695 0.027068373514061213 0 -0.037046446750057381 0.038427194130584007 0 -0.043686637475446113 0.032637920383916968 0 -0.047952633683739698 0.074583178521111237 0 -0.034264495975240644 0.075420975824150679 0 -0.038195238249752357 0.085833908670544745 0 -0.047952633683739698 0.074583178521111237 0 -0.039862528852560912 0.067028852899717217 0 -0.034264495975240644 0.075420975824150679 0 -0.039862528852560912 0.067028852899717217 0 -0.032249549742181055 0.063282582850682861 0 -0.034264495975240644 0.075420975824150679 0 -0.047952633683739698 0.074583178521111237 0 -0.039862528852560912 0.067028852899717217 0 -0.04747691217376377 0.063588016171830214 0 -0.039862528852560912 0.067028852899717217 0 -0.04747691217376377 0.063588016171830214 0 -0.038594140782567274 0.057403455167215567 0 -0.04747691217376377 0.063588016171830214 0 -0.046607337524523271 0.052833861938235277 0 -0.038594140782567274 0.057403455167215567 0 -0.036083084929549231 0.04765948224078681 0 -0.038594140782567274 0.057403455167215567 0 -0.031417061109309613 0.054662954273242151 0 -0.039862528852560912 0.067028852899717217 0 -0.038594140782567274 0.057403455167215567 0 -0.032249549742181055 0.063282582850682861 0 -0.032249549742181055 0.063282582850682861 0 -0.031417061109309613 0.054662954273242151 0 -0.024675096846737143 0.057442661937439431 0 -0.038594140782567274 0.057403455167215567 0 -0.032249549742181055 0.063282582850682861 0 -0.031417061109309613 0.054662954273242151 0 -0.025599917099262844 0.047940547250891516 0 -0.031417061109309613 0.054662954273242151 0 -0.024675096846737143 0.057442661937439431 0 -0.032249549742181055 0.063282582850682861 0 -0.024675096846737143 0.057442661937439431 0 -0.024573498443682253 0.066876719534159926 0 -0.024573498443682253 0.066876719534159926 0 -0.034264495975240644 0.075420975824150679 0 -0.023882610381219218 0.076871334155993634 0 -0.032249549742181055 0.063282582850682861 0 -0.024573498443682253 0.066876719534159926 0 -0.034264495975240644 0.075420975824150679 0 -0.034264495975240644 0.075420975824150679 0 -0.023882610381219218 0.076871334155993634 0 -0.027724594323980157 0.087444362633613951 0 -0.023882610381219218 0.076871334155993634 0 -0.016878206702371907 0.070758251204672121 0 -0.015959819386571854 0.082907053660828581 0 -0.016878206702371907 0.070758251204672121 0 -0.0082791029965578432 0.07581291744691919 0 -0.015959819386571854 0.082907053660828581 0 -0.016878206702371907 0.070758251204672121 0 -0.010360228393857977 0.065197093190785371 0 -0.0082791029965578432 0.07581291744691919 0 -0.024573498443682253 0.066876719534159926 0 -0.023882610381219218 0.076871334155993634 0 -0.016878206702371907 0.070758251204672121 0 -0.024675096846737143 0.057442661937439431 0 -0.024573498443682253 0.066876719534159926 0 -0.015994807734014179 0.057909397152974766 0 -0.024573498443682253 0.066876719534159926 0 -0.016878206702371907 0.070758251204672121 0 -0.015994807734014179 0.057909397152974766 0 -0.018332286427709132 0.049085821342967614 0 -0.024675096846737143 0.057442661937439431 0 -0.015994807734014179 0.057909397152974766 0 -0.015994807734014179 0.057909397152974766 0 -0.010360228393857977 0.065197093190785371 0 -0.0070319549933077537 0.058926104167495358 0 -0.016878206702371907 0.070758251204672121 0 -0.015994807734014179 0.057909397152974766 0 -0.010360228393857977 0.065197093190785371 0 -0.010360228393857977 0.065197093190785371 0 -0.0070319549933077537 0.058926104167495358 0 -0.0021357225858225563 0.066027893631395149 0 -0.007529128435937258 0.0488985019402189 0 -0.0070319549933077537 0.058926104167495358 0 0.0011303642051090324 0.056685808716395537 0 -0.007529128435937258 0.0488985019402189 0 -0.015994807734014179 0.057909397152974766 0 -0.0070319549933077537 0.058926104167495358 0 -0.0070319549933077537 0.058926104167495358 0 0.0011303642051090324 0.056685808716395537 0 -0.0021357225858225563 0.066027893631395149 0 0.0011303642051090324 0.056685808716395537 0 -0.0021357225858225563 0.066027893631395149 0 0.0061746858780469755 0.062967827702298376 0 -0.0021357225858225563 0.066027893631395149 0 -0.0082791029965578432 0.07581291744691919 0 0.0017520488011129147 0.078169813353453049 0 -0.0021357225858225563 0.066027893631395149 0 0.0017520488011129147 0.078169813353453049 0 0.0062627265261023567 0.070256451298722197 0 -0.010360228393857977 0.065197093190785371 0 -0.0021357225858225563 0.066027893631395149 0 -0.0082791029965578432 0.07581291744691919 0 -0.0082791029965578432 0.07581291744691919 0 0.0017520488011129147 0.078169813353453049 0 -0.0050782885514762521 0.088584098322066901 0 0.0017520488011129147 0.078169813353453049 0 -0.0050782885514762521 0.088584098322066901 0 0.0057243252393511844 0.088591385129905151 0 -0.0050782885514762521 0.088584098322066901 0 0.0040998973124737673 0.098432439671933894 0 -0.0063120633593495403 0.099948426252605457 0 -0.0050782885514762521 0.088584098322066901 0 0.0040998973124737673 0.098432439671933894 0 0.0057243252393511844 0.088591385129905151 0 0.0040998973124737673 0.098432439671933894 0 0.00034459358463500135 0.10499563288353045 0 -0.0063120633593495403 0.099948426252605457 0 0.0040998973124737673 0.098432439671933894 0 0.00034459358463500135 0.10499563288353045 0 0.0096694801373361904 0.10502147091979444 0 0.00034459358463500135 0.10499563288353045 0 0.0096694801373361904 0.10502147091979444 0 0.0063930635007008324 0.11124387196628456 0 0.00034459358463500135 0.10499563288353045 0 -0.0048885481338809779 0.11028679238660143 0 0.0063930635007008324 0.11124387196628456 0 0.00034459358463500135 0.10499563288353045 0 -0.0048885481338809779 0.11028679238660143 0 -0.0063120633593495403 0.099948426252605457 0 -0.015750955326849597 0.10937305499900303 0 -0.01623020461301997 0.095448716103645304 0 -0.025764617866579933 0.098623769074386358 0 -0.0063120633593495403 0.099948426252605457 0 -0.015750955326849597 0.10937305499900303 0 -0.01623020461301997 0.095448716103645304 0 -0.0048885481338809779 0.11028679238660143 0 -0.0063120633593495403 0.099948426252605457 0 -0.015750955326849597 0.10937305499900303 0 -0.01623020461301997 0.095448716103645304 0 -0.015959819386571854 0.082907053660828581 0 -0.027724594323980157 0.087444362633613951 0 -0.0050782885514762521 0.088584098322066901 0 -0.0063120633593495403 0.099948426252605457 0 -0.01623020461301997 0.095448716103645304 0 -0.0050782885514762521 0.088584098322066901 0 -0.01623020461301997 0.095448716103645304 0 -0.015959819386571854 0.082907053660828581 0 -0.0082791029965578432 0.07581291744691919 0 -0.0050782885514762521 0.088584098322066901 0 -0.015959819386571854 0.082907053660828581 0 -0.023882610381219218 0.076871334155993634 0 -0.015959819386571854 0.082907053660828581 0 -0.027724594323980157 0.087444362633613951 0 -0.034264495975240644 0.075420975824150679 0 -0.027724594323980157 0.087444362633613951 0 -0.038195238249752357 0.085833908670544745 0 -0.027724594323980157 0.087444362633613951 0 -0.025764617866579933 0.098623769074386358 0 -0.036019691444073694 0.09587910867131097 0 -0.027724594323980157 0.087444362633613951 0 -0.036019691444073694 0.09587910867131097 0 -0.038195238249752357 0.085833908670544745 0 -0.01623020461301997 0.095448716103645304 0 -0.027724594323980157 0.087444362633613951 0 -0.025764617866579933 0.098623769074386358 0 -0.015750955326849597 0.10937305499900303 0 -0.025764617866579933 0.098623769074386358 0 -0.026388231725433794 0.10862875702424447 0 -0.026388231725433794 0.10862875702424447 0 -0.031863993244948409 0.10274263895591218 0 -0.037134506764207258 0.10804565568821894 0 -0.025764617866579933 0.098623769074386358 0 -0.026388231725433794 0.10862875702424447 0 -0.031863993244948409 0.10274263895591218 0 -0.025764617866579933 0.098623769074386358 0 -0.031863993244948409 0.10274263895591218 0 -0.036019691444073694 0.09587910867131097 0 -0.031863993244948409 0.10274263895591218 0 -0.036019691444073694 0.09587910867131097 0 -0.040824186706023793 0.10173250400534259 0 -0.031863993244948409 0.10274263895591218 0 -0.040824186706023793 0.10173250400534259 0 -0.037134506764207258 0.10804565568821894 0 -0.040824186706023793 0.10173250400534259 0 -0.037134506764207258 0.10804565568821894 0 -0.04794865367724177 0.10757752805497292 0 -0.040824186706023793 0.10173250400534259 0 -0.04794865367724177 0.10757752805497292 0 -0.048101702772161609 0.096700929965491914 0 -0.036019691444073694 0.09587910867131097 0 -0.040824186706023793 0.10173250400534259 0 -0.048101702772161609 0.096700929965491914 0 -0.048101702772161609 0.096700929965491914 0 -0.038195238249752357 0.085833908670544745 0 -0.048128877483165709 0.085696683290761008 0 -0.036019691444073694 0.09587910867131097 0 -0.048101702772161609 0.096700929965491914 0 -0.038195238249752357 0.085833908670544745 0 -0.047952633683739698 0.074583178521111237 0 -0.038195238249752357 0.085833908670544745 0 -0.048128877483165709 0.085696683290761008 0 0.00035786380445655523 -0.007124225064655024 0 0.00036700528793389938 -0.0081639115965702527 0 -0.00042036398189876909 -0.006834890090733077 0 0.00035786380445655523 -0.007124225064655024 0 0.0013681031599906211 -0.0088182710009980184 0 0.001471450394702486 -0.0081376077184459241 0 0.00035786380445655523 -0.007124225064655024 0 0.00095876117150938496 -0.0070539057623882481 0 0.001471450394702486 -0.0081376077184459241 0 0.00035786380445655523 -0.007124225064655024 0 0.0013681031599906211 -0.0088182710009980184 0 0.00036700528793389938 -0.0081639115965702527 0 0.00036700528793389938 -0.0081639115965702527 0 -0.00067735722779499919 -0.0073709004870964748 0 -0.00042036398189876909 -0.006834890090733077 0 -0.00067735722779499919 -0.0073709004870964748 0 -0.0012192049457805674 -0.005970375931627761 0 -0.00042036398189876909 -0.006834890090733077 0 -0.00067735722779499919 -0.0073709004870964748 0 -0.0012192049457805674 -0.005970375931627761 0 -0.0013963134644121222 -0.0063746688229409411 0 -0.0012192049457805674 -0.005970375931627761 0 -0.00042036398189876909 -0.006834890090733077 0 -0.001011186636178025 -0.0053533681352295522 0 -0.0012192049457805674 -0.005970375931627761 0 -0.001011186636178025 -0.0053533681352295522 0 -0.0016457375232206296 -0.0049926994447786052 0 -0.001011186636178025 -0.0053533681352295522 0 -0.0016457375232206296 -0.0049926994447786052 0 -0.0019917620469056849 -0.0040136983024380247 0 -0.00083262429188679351 -0.0044431657974343787 0 -0.001011186636178025 -0.0053533681352295522 0 -5.2654614885459607e-05 -0.0059972023263480554 0 0.00035786380445655523 -0.007124225064655024 0 -0.001011186636178025 -0.0053533681352295522 0 -5.2654614885459607e-05 -0.0059972023263480554 0 0.00035786380445655523 -0.007124225064655024 0 -0.00042036398189876909 -0.006834890090733077 0 -0.001011186636178025 -0.0053533681352295522 0 0.00035786380445655523 -0.007124225064655024 0 -5.2654614885459607e-05 -0.0059972023263480554 0 0.00095876117150938496 -0.0070539057623882481 0 0.00042016020352263087 -0.0057563727208449844 0 -5.2654614885459607e-05 -0.0059972023263480554 0 0.00095876117150938496 -0.0070539057623882481 0 0.00042016020352263087 -0.0057563727208449844 0 0.0016102348469344294 -0.0067614706804241167 0 0.00095876117150938496 -0.0070539057623882481 0 0.0022091096279862918 -0.0062837577572205337 0 0.001153496384246539 -0.0054610171042793242 0 0.0016102348469344294 -0.0067614706804241167 0 0.0016102348469344294 -0.0067614706804241167 0 0.0028127445943298772 -0.0076416778913108033 0 0.002258348518746327 -0.0081354483082546059 0 0.0016102348469344294 -0.0067614706804241167 0 0.00095876117150938496 -0.0070539057623882481 0 0.002258348518746327 -0.0081354483082546059 0 0.012125878133895866 0.055493730445018048 0 0.0011303642051090324 0.056685808716395537 0 0.0061746858780469755 0.062967827702298376 0 0.012125878133895866 0.055493730445018048 0 0.013592374498447527 0.066445833715442451 0 0.0061746858780469755 0.062967827702298376 0 0.0022091096279862918 -0.0062837577572205337 0 0.0016102348469344294 -0.0067614706804241167 0 0.0028127445943298772 -0.0076416778913108033 0 -0.0016823400855130711 0.024174978913260176 0 -0.0030390311566303595 0.032133256539994264 0 -0.0021357225858225563 0.066027893631395149 0 0.0061746858780469755 0.062967827702298376 0 0.0062627265261023567 0.070256451298722197 0 0.013592374498447527 0.066445833715442451 0 0.0061746858780469755 0.062967827702298376 0 0.0062627265261023567 0.070256451298722197 0 0.0017520488011129147 0.078169813353453049 0 0.0062627265261023567 0.070256451298722197 0 0.014772825227004922 0.077668342197201576 0 -0.0030390311566303595 0.032133256539994264 0 -0.0049895724892762509 0.028035257390628607 0 0.0028127445943298772 -0.0076416778913108033 0 0.0034777015784857599 -0.0090665812253524318 0 0.002258348518746327 -0.0081354483082546059 0 0.013592374498447527 0.066445833715442451 0 0.0062627265261023567 0.070256451298722197 0 0.014772825227004922 0.077668342197201576 0 -0.0049895724892762509 0.028035257390628607 0 -0.0054085306142587402 0.050914423165091073 0 0.0017520488011129147 0.078169813353453049 0 0.014772825227004922 0.077668342197201576 0 0.0057243252393511844 0.088591385129905151 0 0.00095876117150938496 -0.0070539057623882481 0 0.001471450394702486 -0.0081376077184459241 0 0.002258348518746327 -0.0081354483082546059 0 0.0034777015784857599 -0.0090665812253524318 0 0.002258348518746327 -0.0081354483082546059 0 0.0026229896786394225 -0.0095313626847900908 0 0.0013681031599906211 -0.0088182710009980184 0 0.001471450394702486 -0.0081376077184459241 0 0.0026229896786394225 -0.0095313626847900908 0 0.001471450394702486 -0.0081376077184459241 0 0.002258348518746327 -0.0081354483082546059 0 0.0026229896786394225 -0.0095313626847900908 0 0.0026229896786394225 -0.0095313626847900908 0 0.0035780066389411325 -0.010947221236721271 0 0.0023957821630676123 -0.010361621560114722 0 0.0013681031599906211 -0.0088182710009980184 0 0.0026229896786394225 -0.0095313626847900908 0 0.0023957821630676123 -0.010361621560114722 0 0.0034777015784857599 -0.0090665812253524318 0 0.0026229896786394225 -0.0095313626847900908 0 0.0042490073273979733 -0.010559656622221704 0 0.0026229896786394225 -0.0095313626847900908 0 0.0035780066389411325 -0.010947221236721271 0 0.0042490073273979733 -0.010559656622221704 0 0.0035780066389411325 -0.010947221236721271 0 0.0023957821630676123 -0.010361621560114722 0 0.0038636341936221269 -0.01202491299401256 0 0.014772825227004922 0.077668342197201576 0 0.0057243252393511844 0.088591385129905151 0 0.015819925559022195 0.089011659067322377 0 -0.0054085306142587402 0.050914423165091073 0 -0.013687890437524608 0.028224624748549757 0 0.0035780066389411325 -0.010947221236721271 0 0.0042490073273979733 -0.010559656622221704 0 0.005160267390858648 -0.01219258957020582 0 0.0057243252393511844 0.088591385129905151 0 0.015819925559022195 0.089011659067322377 0 0.016788589164825632 0.10041835976112139 0 0.0040998973124737673 0.098432439671933894 0 0.0057243252393511844 0.088591385129905151 0 0.016788589164825632 0.10041835976112139 0 0.0040998973124737673 0.098432439671933894 0 0.016788589164825632 0.10041835976112139 0 0.0096694801373361904 0.10502147091979444 0 -0.013687890437524608 0.028224624748549757 0 0.0047308568777476648 0.066245884721944398 0 0.016788589164825632 0.10041835976112139 0 0.017915642690634205 0.11187865370490255 0 0.0096694801373361904 0.10502147091979444 0 0.017915642690634205 0.11187865370490255 0 0.0096694801373361904 0.10502147091979444 0 0.0063930635007008324 0.11124387196628456 0 0.0023957821630676123 -0.010361621560114722 0 0.0038636341936221269 -0.01202491299401256 0 0.0020417906664042858 -0.011061340653425053 0 0.0035780066389411325 -0.010947221236721271 0 0.005160267390858648 -0.01219258957020582 0 0.0038636341936221269 -0.01202491299401256 0 0.005160267390858648 -0.01219258957020582 0 0.0062075221422871188 -0.013972293157644805 0 0.0038636341936221269 -0.01202491299401256 0 0.0062075221422871188 -0.013972293157644805 0 0.0038636341936221269 -0.01202491299401256 0 0.0043199018437968433 -0.013323420462968418 0 0.0038636341936221269 -0.01202491299401256 0 0.0043199018437968433 -0.013323420462968418 0 0.0020417906664042858 -0.011061340653425053 0 0.0020417906664042858 -0.011061340653425053 0 0.00074547158576424965 -0.0096915785806551882 0 0.0011506012267739234 -0.011105929375932294 0 0.0043199018437968433 -0.013323420462968418 0 0.0026131953238787559 -0.012311022986607353 0 0.0020417906664042858 -0.011061340653425053 0 0.0026131953238787559 -0.012311022986607353 0 0.0020417906664042858 -0.011061340653425053 0 0.0011506012267739234 -0.011105929375932294 0 0.0023957821630676123 -0.010361621560114722 0 0.0020417906664042858 -0.011061340653425053 0 0.0011552922356386089 -0.0095076865977739185 0 0.0020417906664042858 -0.011061340653425053 0 0.0011552922356386089 -0.0095076865977739185 0 0.00074547158576424965 -0.0096915785806551882 0 0.00036700528793389938 -0.0081639115965702527 0 0.0011552922356386089 -0.0095076865977739185 0 -3.4693197284616128e-05 -0.0085780861019959468 0 0.0013681031599906211 -0.0088182710009980184 0 0.00036700528793389938 -0.0081639115965702527 0 0.0011552922356386089 -0.0095076865977739185 0 0.0013681031599906211 -0.0088182710009980184 0 0.0023957821630676123 -0.010361621560114722 0 0.0011552922356386089 -0.0095076865977739185 0 -0.00067735722779499919 -0.0073709004870964748 0 -3.4693197284616128e-05 -0.0085780861019959468 0 -0.00070639421882827164 -0.0080889230379824796 0 0.00036700528793389938 -0.0081639115965702527 0 -0.00067735722779499919 -0.0073709004870964748 0 -3.4693197284616128e-05 -0.0085780861019959468 0 -3.4693197284616128e-05 -0.0085780861019959468 0 0.00074547158576424965 -0.0096915785806551882 0 6.1836839110407655e-06 -0.0093416356745326893 0 0.0011552922356386089 -0.0095076865977739185 0 -3.4693197284616128e-05 -0.0085780861019959468 0 0.00074547158576424965 -0.0096915785806551882 0 -3.4693197284616128e-05 -0.0085780861019959468 0 6.1836839110407655e-06 -0.0093416356745326893 0 -0.00070639421882827164 -0.0080889230379824796 0 0.00074547158576424965 -0.0096915785806551882 0 6.1836839110407655e-06 -0.0093416356745326893 0 0.0011506012267739234 -0.011105929375932294 0 6.1836839110407655e-06 -0.0093416356745326893 0 0.0011506012267739234 -0.011105929375932294 0 6.4843867045410921e-05 -0.0098734264039378756 0 6.1836839110407655e-06 -0.0093416356745326893 0 6.4843867045410921e-05 -0.0098734264039378756 0 -0.00060211865930702652 -0.0087256702589719789 0 6.4843867045410921e-05 -0.0098734264039378756 0 -0.00076076845297292511 -0.0086907917879711517 0 -0.00060211865930702652 -0.0087256702589719789 0 -0.00076076845297292511 -0.0086907917879711517 0 -0.0013693728092101548 -0.0075650675623597074 0 -0.00060211865930702652 -0.0087256702589719789 0 -0.0013693728092101548 -0.0075650675623597074 0 -0.00060211865930702652 -0.0087256702589719789 0 -0.00070639421882827164 -0.0080889230379824796 0 6.1836839110407655e-06 -0.0093416356745326893 0 -0.00060211865930702652 -0.0087256702589719789 0 -0.00070639421882827164 -0.0080889230379824796 0 -0.001309850801768836 -0.0076410713691982745 0 -0.0017412479328130382 -0.0071089573894298329 0 -0.0017447810581642765 -0.0068017871640194292 0 -0.00076076845297292511 -0.0086907917879711517 0 -0.001309850801768836 -0.0076410713691982745 0 -0.0017412479328130382 -0.0071089573894298329 0 -0.00076076845297292511 -0.0086907917879711517 0 -0.0013693728092101548 -0.0075650675623597074 0 -0.0017412479328130382 -0.0071089573894298329 0 -0.0017412479328130382 -0.0071089573894298329 0 -0.0020274062439438216 -0.0064812456601452476 0 -0.0024580296821663798 -0.0060174877380224784 0 -0.0013693728092101548 -0.0075650675623597074 0 -0.0017412479328130382 -0.0071089573894298329 0 -0.0020274062439438216 -0.0064812456601452476 0 -0.0020274062439438216 -0.0064812456601452476 0 -0.0015189659834847033 -0.0068380867895196772 0 -0.0021919284334193634 -0.0058533480689298379 0 -0.0020274062439438216 -0.0064812456601452476 0 -0.0021919284334193634 -0.0058533480689298379 0 -0.0026525836802809935 -0.0054370134961130431 0 -0.0020274062439438216 -0.0064812456601452476 0 -0.0026525836802809935 -0.0054370134961130431 0 -0.0024580296821663798 -0.0060174877380224784 0 -0.0013693728092101548 -0.0075650675623597074 0 -0.00070639421882827164 -0.0080889230379824796 0 -0.0015189659834847033 -0.0068380867895196772 0 -0.0013693728092101548 -0.0075650675623597074 0 -0.0020274062439438216 -0.0064812456601452476 0 -0.0015189659834847033 -0.0068380867895196772 0 -0.00067735722779499919 -0.0073709004870964748 0 -0.00070639421882827164 -0.0080889230379824796 0 -0.0015189659834847033 -0.0068380867895196772 0 -0.00067735722779499919 -0.0073709004870964748 0 -0.0015189659834847033 -0.0068380867895196772 0 -0.0013963134644121222 -0.0063746688229409411 0 -0.0012192049457805674 -0.005970375931627761 0 -0.0013963134644121222 -0.0063746688229409411 0 -0.0017965757955149266 -0.005480172541643658 0 -0.0013963134644121222 -0.0063746688229409411 0 -0.0017965757955149266 -0.005480172541643658 0 -0.0018721204454693401 -0.0059622171827848893 0 -0.0017965757955149266 -0.005480172541643658 0 -0.0018721204454693401 -0.0059622171827848893 0 -0.0022955908870767915 -0.0051367620281948315 0 -0.0015189659834847033 -0.0068380867895196772 0 -0.0013963134644121222 -0.0063746688229409411 0 -0.0018721204454693401 -0.0059622171827848893 0 -0.0018721204454693401 -0.0059622171827848893 0 -0.0021919284334193634 -0.0058533480689298379 0 -0.0022955908870767915 -0.0051367620281948315 0 -0.0015189659834847033 -0.0068380867895196772 0 -0.0018721204454693401 -0.0059622171827848893 0 -0.0021919284334193634 -0.0058533480689298379 0 -0.0021919284334193634 -0.0058533480689298379 0 -0.0026525836802809935 -0.0054370134961130431 0 -0.0028100013837117515 -0.0045982293941547493 0 -0.0026525836802809935 -0.0054370134961130431 0 -0.0028100013837117515 -0.0045982293941547493 0 -0.0030932057875616608 -0.0046612962073025524 0 -0.0021919284334193634 -0.0058533480689298379 0 -0.0028100013837117515 -0.0045982293941547493 0 -0.0022955908870767915 -0.0051367620281948315 0 -0.0022955908870767915 -0.0051367620281948315 0 -0.0028717857495899383 -0.0039223450713291742 0 -0.0022250978359366061 -0.0045423855118124495 0 -0.0028100013837117515 -0.0045982293941547493 0 -0.0022955908870767915 -0.0051367620281948315 0 -0.0028717857495899383 -0.0039223450713291742 0 -0.0028100013837117515 -0.0045982293941547493 0 -0.0028717857495899383 -0.0039223450713291742 0 -0.0035124876252767118 -0.0036346964913720539 0 -0.0028717857495899383 -0.0039223450713291742 0 -0.0022250978359366061 -0.0045423855118124495 0 -0.0024896693723211252 -0.0035257684476926146 0 -0.0022250978359366061 -0.0045423855118124495 0 -0.0024896693723211252 -0.0035257684476926146 0 -0.0019917620469056849 -0.0040136983024380247 0 -0.0022250978359366061 -0.0045423855118124495 0 -0.0016457375232206296 -0.0049926994447786052 0 -0.0019917620469056849 -0.0040136983024380247 0 -0.0017965757955149266 -0.005480172541643658 0 -0.0022250978359366061 -0.0045423855118124495 0 -0.0016457375232206296 -0.0049926994447786052 0 -0.0012192049457805674 -0.005970375931627761 0 -0.0017965757955149266 -0.005480172541643658 0 -0.0016457375232206296 -0.0049926994447786052 0 -0.0017965757955149266 -0.005480172541643658 0 -0.0022955908870767915 -0.0051367620281948315 0 -0.0022250978359366061 -0.0045423855118124495 0 0.0014135329073242306 -0.0026586604015220259 0 0.00075034813131498825 -0.0020099974881800761 0 0.001104544281707451 -0.0025770131526060666 0 -0.0035688689864270227 -0.0034246955178452352 0 -0.0032963328825842027 -0.0025295944418572852 0 0.0014135329073242306 -0.0026586604015220259 0 0.00075034813131498825 -0.0020099974881800761 0 0.0010342885542297864 -0.00197993934241773 0 -0.0040745243257588491 -0.0036369082478796546 0 -0.0035124876252767118 -0.0036346964913720539 0 -0.0041458819858440849 -0.0029996914949227951 0 -0.0035124876252767118 -0.0036346964913720539 0 -0.0036724901261910876 -0.0028254588280565585 0 -0.0041458819858440849 -0.0029996914949227951 0 -0.0028717857495899383 -0.0039223450713291742 0 -0.0035124876252767118 -0.0036346964913720539 0 -0.0032929545366744565 -0.0032411467439142148 0 -0.0035124876252767118 -0.0036346964913720539 0 -0.0032929545366744565 -0.0032411467439142148 0 -0.0036724901261910876 -0.0028254588280565585 0 -0.0028100013837117515 -0.0045982293941547493 0 -0.0035124876252767118 -0.0036346964913720539 0 -0.0030932057875616608 -0.0046612962073025524 0 -0.0040745243257588491 -0.0036369082478796546 0 -0.0035124876252767118 -0.0036346964913720539 0 -0.0035953380427382986 -0.0041849920087451749 0 -0.0035124876252767118 -0.0036346964913720539 0 -0.0035953380427382986 -0.0041849920087451749 0 -0.0030932057875616608 -0.0046612962073025524 0 -0.0035953380427382986 -0.0041849920087451749 0 -0.0030932057875616608 -0.0046612962073025524 0 -0.0031755083075634041 -0.0050008458747214822 0 -0.0026525836802809935 -0.0054370134961130431 0 -0.0030932057875616608 -0.0046612962073025524 0 -0.0031755083075634041 -0.0050008458747214822 0 -0.0035953380427382986 -0.0041849920087451749 0 -0.0031755083075634041 -0.0050008458747214822 0 -0.0038639220412371878 -0.0043456597542044914 0 -0.0031755083075634041 -0.0050008458747214822 0 -0.0038639220412371878 -0.0043456597542044914 0 -0.0034764616047503584 -0.004976950463433041 0 0.0018200122487857749 -0.0033259076018664698 0 0.001104544281707451 -0.0025770131526060666 0 0.0010992394613973874 -0.0027432766861437228 0 0.0018200122487857749 -0.0033259076018664698 0 0.0017237465131669564 -0.0035308520260799825 0 0.0010992394613973874 -0.0027432766861437228 0 -0.0040618737313934099 -0.0022764107442070302 0 -0.0037505390490821431 -0.0080083860360993606 0 -0.0040745243257588491 -0.0036369082478796546 0 -0.0035953380427382986 -0.0041849920087451749 0 -0.0038639220412371878 -0.0043456597542044914 0 0.0014135329073242306 -0.0026586604015220259 0 0.0018200122487857749 -0.0033259076018664698 0 0.001104544281707451 -0.0025770131526060666 0 -0.0035688689864270227 -0.0034246955178452352 0 -0.0040618737313934099 -0.0022764107442070302 0 0.0018200122487857749 -0.0033259076018664698 0 0.0017237465131669564 -0.0035308520260799825 0 0.0023302360990154077 -0.0039987026172377269 0 -0.0037505390490821431 -0.0080083860360993606 0 -0.006579987968015886 0.00065738812481327968 0 -0.0034764616047503584 -0.004976950463433041 0 -0.002871093628161828 -0.0055648943333052366 0 -0.0029132315401223159 -0.0056780038917151835 0 0.0017237465131669564 -0.0035308520260799825 0 0.0023302360990154077 -0.0039987026172377269 0 0.0029029101898608214 -0.0046582517395358045 0 0.0017237465131669564 -0.0035308520260799825 0 0.0029029101898608214 -0.0046582517395358045 0 0.002085889071432086 -0.0039552716939639408 0 -0.0026525836802809935 -0.0054370134961130431 0 -0.0031755083075634041 -0.0050008458747214822 0 -0.0024580296821663798 -0.0060174877380224784 0 -0.0031755083075634041 -0.0050008458747214822 0 -0.002871093628161828 -0.0055648943333052366 0 -0.0024580296821663798 -0.0060174877380224784 0 -0.0031755083075634041 -0.0050008458747214822 0 -0.0034764616047503584 -0.004976950463433041 0 -0.002871093628161828 -0.0055648943333052366 0 -0.002871093628161828 -0.0055648943333052366 0 -0.0024580296821663798 -0.0060174877380224784 0 -0.0023313847469945432 -0.006210184288366438 0 -0.0017412479328130382 -0.0071089573894298329 0 -0.0024580296821663798 -0.0060174877380224784 0 -0.0023313847469945432 -0.006210184288366438 0 -0.002871093628161828 -0.0055648943333052366 0 -0.0023313847469945432 -0.006210184288366438 0 -0.0029132315401223159 -0.0056780038917151835 0 -0.0023313847469945432 -0.006210184288366438 0 -0.0029132315401223159 -0.0056780038917151835 0 -0.0021769645778071879 -0.0062826990546134172 0 -0.0023313847469945432 -0.006210184288366438 0 -0.0017447810581642765 -0.0068017871640194292 0 -0.0021769645778071879 -0.0062826990546134172 0 -0.0017412479328130382 -0.0071089573894298329 0 -0.0023313847469945432 -0.006210184288366438 0 -0.0017447810581642765 -0.0068017871640194292 0 0.0029029101898608214 -0.0046582517395358045 0 0.0027390254752044877 -0.0046003142647514069 0 0.002085889071432086 -0.0039552716939639408 0 -0.006579987968015886 0.00065738812481327968 0 0.0015700126210821321 -0.012799769015792556 0 0.0029029101898608214 -0.0046582517395358045 0 0.003662016095343635 -0.0053044512085739471 0 0.0027390254752044877 -0.0046003142647514069 0 0.003662016095343635 -0.0053044512085739471 0 0.0027390254752044877 -0.0046003142647514069 0 0.0028381790549442251 -0.0048084584085176267 0 0.0027390254752044877 -0.0046003142647514069 0 0.002153136515595741 -0.0040616389941376665 0 0.0028381790549442251 -0.0048084584085176267 0 0.002153136515595741 -0.0040616389941376665 0 0.0028381790549442251 -0.0048084584085176267 0 0.0020421696539344499 -0.0039875064597144254 0 0.002153136515595741 -0.0040616389941376665 0 0.002085889071432086 -0.0039552716939639408 0 0.0015696526424095322 -0.0033576013170795982 0 0.0027390254752044877 -0.0046003142647514069 0 0.002153136515595741 -0.0040616389941376665 0 0.002085889071432086 -0.0039552716939639408 0 0.002153136515595741 -0.0040616389941376665 0 0.0015696526424095322 -0.0033576013170795982 0 0.0020421696539344499 -0.0039875064597144254 0 0.0015696526424095322 -0.0033576013170795982 0 0.001427586424575987 -0.0030588005924141988 0 0.00095798894286934391 -0.0024263748189727557 0 0.001427586424575987 -0.0030588005924141988 0 0.00095798894286934391 -0.0024263748189727557 0 0.00070011666682939571 -0.0017870001169764357 0 0.0015696526424095322 -0.0033576013170795982 0 0.0020421696539344499 -0.0039875064597144254 0 0.001427586424575987 -0.0030588005924141988 0 0.0015696526424095322 -0.0033576013170795982 0 0.00095798894286934391 -0.0024263748189727557 0 0.0012177121257486241 -0.0029326149123430297 0 0.00095798894286934391 -0.0024263748189727557 0 0.00056362823326579355 -0.0019011098151549726 0 0.0012177121257486241 -0.0029326149123430297 0 0.00095798894286934391 -0.0024263748189727557 0 0.00056362823326579355 -0.0019011098151549726 0 0.00033445406636080474 -0.0013084289664348162 0 0.00056362823326579355 -0.0019011098151549726 0 0.0012177121257486241 -0.0029326149123430297 0 0.00069927235287942763 -0.0021871712200116746 0 0.0017237465131669564 -0.0035308520260799825 0 0.0012177121257486241 -0.0029326149123430297 0 0.0010992394613973874 -0.0027432766861437228 0 0.0017237465131669564 -0.0035308520260799825 0 0.002085889071432086 -0.0039552716939639408 0 0.0012177121257486241 -0.0029326149123430297 0 0.002085889071432086 -0.0039552716939639408 0 0.0015696526424095322 -0.0033576013170795982 0 0.0012177121257486241 -0.0029326149123430297 0 -8.9683191228792745e-08 -6.4469188202911023e-07 0 0.0002423056115949715 -0.00057885323135085064 0 0.00028808102630517465 -0.00088227556442328835 0 -8.9683191228792745e-08 -6.4469188202911023e-07 0 5.6462924052267538e-07 -1.2983444082997633e-06 0 0.0002423056115949715 -0.00057885323135085064 0 5.6462924052267538e-07 -1.2983444082997633e-06 0 0.00059140143477374443 -0.0011138122451238256 0 0.0002423056115949715 -0.00057885323135085064 0 0.00059140143477374443 -0.0011138122451238256 0 0.0002423056115949715 -0.00057885323135085064 0 0.00061472183854458299 -0.0014055065261632676 0 0.0002423056115949715 -0.00057885323135085064 0 0.00028808102630517465 -0.00088227556442328835 0 0.00061472183854458299 -0.0014055065261632676 0 0.00028808102630517465 -0.00088227556442328835 0 0.00061472183854458299 -0.0014055065261632676 0 0.00070011666682939571 -0.0017870001169764357 0 0.00061472183854458299 -0.0014055065261632676 0 0.00099801480913725652 -0.0021008704176205891 0 0.00070011666682939571 -0.0017870001169764357 0 0.00059140143477374443 -0.0011138122451238256 0 0.00061472183854458299 -0.0014055065261632676 0 0.00099801480913725652 -0.0021008704176205891 0 0.001427586424575987 -0.0030588005924141988 0 0.00099801480913725652 -0.0021008704176205891 0 0.00070011666682939571 -0.0017870001169764357 0 0.00095798894286934391 -0.0024263748189727557 0 0.00070011666682939571 -0.0017870001169764357 0 0.00033445406636080474 -0.0013084289664348162 0 0.00056362823326579355 -0.0019011098151549726 0 0.00033445406636080474 -0.0013084289664348162 0 0.0001729157106889795 -0.0011850545396741214 0 0.00033445406636080474 -0.0013084289664348162 0 8.9761121749159023e-05 -0.00057725427341230573 0 2.9667865758296294e-05 -0.00066099720474493799 0 0.00028808102630517465 -0.00088227556442328835 0 0.00070011666682939571 -0.0017870001169764357 0 0.00033445406636080474 -0.0013084289664348162 0 0.00028808102630517465 -0.00088227556442328835 0 0.00033445406636080474 -0.0013084289664348162 0 8.9761121749159023e-05 -0.00057725427341230573 0 -8.9683191228792745e-08 -6.4469188202911023e-07 0 0.00028808102630517465 -0.00088227556442328835 0 8.9761121749159023e-05 -0.00057725427341230573 0 8.9761121749159023e-05 -0.00057725427341230573 0 9.8343687657660865e-08 -6.9584504070272467e-07 0 -1.095465049559878e-07 -4.5275794717941932e-07 0 -8.9683191228792745e-08 -6.4469188202911023e-07 0 8.9761121749159023e-05 -0.00057725427341230573 0 9.8343687657660865e-08 -6.9584504070272467e-07 0 -1.095465049559878e-07 -4.5275794717941932e-07 0 -4.1154971389074747e-05 -0.00032387710570959974 0 -2.1023285817691379e-08 -4.2342286842235328e-07 0 8.9761121749159023e-05 -0.00057725427341230573 0 -1.095465049559878e-07 -4.5275794717941932e-07 0 2.9667865758296294e-05 -0.00066099720474493799 0 2.9667865758296294e-05 -0.00066099720474493799 0 -4.1154971389074747e-05 -0.00032387710570959974 0 -4.9331105276733863e-05 -0.00064028019238041912 0 -1.095465049559878e-07 -4.5275794717941932e-07 0 2.9667865758296294e-05 -0.00066099720474493799 0 -4.1154971389074747e-05 -0.00032387710570959974 0 2.9667865758296294e-05 -0.00066099720474493799 0 0.0001729157106889795 -0.0011850545396741214 0 -4.9331105276733863e-05 -0.00064028019238041912 0 0.00033445406636080474 -0.0013084289664348162 0 2.9667865758296294e-05 -0.00066099720474493799 0 0.0001729157106889795 -0.0011850545396741214 0 0.0001729157106889795 -0.0011850545396741214 0 5.3505810632953433e-05 -0.0010251294382259146 0 -4.9331105276733863e-05 -0.00064028019238041912 0 0.0001729157106889795 -0.0011850545396741214 0 5.3505810632953433e-05 -0.0010251294382259146 0 0.00030567435258257726 -0.0015341707359056728 0 5.3505810632953433e-05 -0.0010251294382259146 0 -6.5701059038052902e-05 -0.00072274229895311981 0 -4.9331105276733863e-05 -0.00064028019238041912 0 -6.5701059038052902e-05 -0.00072274229895311981 0 5.0791870890243488e-05 -0.0010916975497574648 0 -0.00013004067229981241 -0.0005827526000978028 0 5.3505810632953433e-05 -0.0010251294382259146 0 -6.5701059038052902e-05 -0.00072274229895311981 0 5.0791870890243488e-05 -0.0010916975497574648 0 -6.5701059038052902e-05 -0.00072274229895311981 0 -4.9331105276733863e-05 -0.00064028019238041912 0 -0.00011108903786700759 -0.00034938667766159316 0 -4.1154971389074747e-05 -0.00032387710570959974 0 -4.9331105276733863e-05 -0.00064028019238041912 0 -6.7279949855909033e-05 -0.00024491502850928018 0 -4.9331105276733863e-05 -0.00064028019238041912 0 -6.7279949855909033e-05 -0.00024491502850928018 0 -0.00011108903786700759 -0.00034938667766159316 0 -6.7279949855909033e-05 -0.00024491502850928018 0 -0.00011108903786700759 -0.00034938667766159316 0 -7.8010765742008119e-08 -3.1557382550274419e-07 0 -6.7279949855909033e-05 -0.00024491502850928018 0 -2.1023285817691379e-08 -4.2342286842235328e-07 0 -7.8010765742008119e-08 -3.1557382550274419e-07 0 -4.1154971389074747e-05 -0.00032387710570959974 0 -6.7279949855909033e-05 -0.00024491502850928018 0 -2.1023285817691379e-08 -4.2342286842235328e-07 0 0.00045180790385536233 -0.001824098794193315 0 0.0010992394613973874 -0.0027432766861437228 0 0.00064228443808282253 -0.0020392395832206575 0 0.00045180790385536233 -0.001824098794193315 0 0.0010992394613973874 -0.0027432766861437228 0 0.00069927235287942763 -0.0021871712200116746 0 0.001104544281707451 -0.0025770131526060666 0 0.0010992394613973874 -0.0027432766861437228 0 0.00064228443808282253 -0.0020392395832206575 0 0.0012177121257486241 -0.0029326149123430297 0 0.0010992394613973874 -0.0027432766861437228 0 0.00069927235287942763 -0.0021871712200116746 0 0.00056362823326579355 -0.0019011098151549726 0 0.00069927235287942763 -0.0021871712200116746 0 0.00030567435258257726 -0.0015341707359056728 0 0.00056362823326579355 -0.0019011098151549726 0 0.0001729157106889795 -0.0011850545396741214 0 0.00030567435258257726 -0.0015341707359056728 0 0.00045180790385536233 -0.001824098794193315 0 0.00069927235287942763 -0.0021871712200116746 0 0.00030567435258257726 -0.0015341707359056728 0 0.00045180790385536233 -0.001824098794193315 0 5.0791870890243488e-05 -0.0010916975497574648 0 0.00023808953402161174 -0.0014265240896965052 0 0.00045180790385536233 -0.001824098794193315 0 0.00030567435258257726 -0.0015341707359056728 0 5.0791870890243488e-05 -0.0010916975497574648 0 5.3505810632953433e-05 -0.0010251294382259146 0 0.00030567435258257726 -0.0015341707359056728 0 5.0791870890243488e-05 -0.0010916975497574648 0 5.0791870890243488e-05 -0.0010916975497574648 0 0.00023808953402161174 -0.0014265240896965052 0 -1.1150363300663679e-05 -0.00094124033627528418 0 0.00023808953402161174 -0.0014265240896965052 0 0.00064228443808282253 -0.0020392395832206575 0 0.00040546720000814179 -0.0016119656807194176 0 0.00045180790385536233 -0.001824098794193315 0 0.00023808953402161174 -0.0014265240896965052 0 0.00064228443808282253 -0.0020392395832206575 0 0.00075034813131498825 -0.0020099974881800761 0 0.001104544281707451 -0.0025770131526060666 0 0.00064228443808282253 -0.0020392395832206575 0 0.00075034813131498825 -0.0020099974881800761 0 0.00064228443808282253 -0.0020392395832206575 0 0.00040546720000814179 -0.0016119656807194176 0 0.00075034813131498825 -0.0020099974881800761 0 0.00040546720000814179 -0.0016119656807194176 0 0.00039607066579548027 -0.0014490917342791121 0 0.00040546720000814179 -0.0016119656807194176 0 0.00039607066579548027 -0.0014490917342791121 0 0.00012136235770488276 -0.0011565328154848056 0 0.00039607066579548027 -0.0014490917342791121 0 0.00011774297720636216 -0.0010486805384617535 0 0.00012136235770488276 -0.0011565328154848056 0 0.00039607066579548027 -0.0014490917342791121 0 0.00011774297720636216 -0.0010486805384617535 0 0.00022337530747947281 -0.0010645621074764251 0 0.00011774297720636216 -0.0010486805384617535 0 0.00012136235770488276 -0.0011565328154848056 0 -2.9380365931480596e-05 -0.00083496509953806953 0 0.00023808953402161174 -0.0014265240896965052 0 0.00040546720000814179 -0.0016119656807194176 0 0.00012136235770488276 -0.0011565328154848056 0 0.00023808953402161174 -0.0014265240896965052 0 0.00012136235770488276 -0.0011565328154848056 0 -1.1150363300663679e-05 -0.00094124033627528418 0 5.0791870890243488e-05 -0.0010916975497574648 0 -1.1150363300663679e-05 -0.00094124033627528418 0 -0.00013004067229981241 -0.0005827526000978028 0 -1.1150363300663679e-05 -0.00094124033627528418 0 -0.00012491361526516088 -0.00062180130986401493 0 -0.00013004067229981241 -0.0005827526000978028 0 0.00012136235770488276 -0.0011565328154848056 0 -1.1150363300663679e-05 -0.00094124033627528418 0 -2.9380365931480596e-05 -0.00083496509953806953 0 -1.1150363300663679e-05 -0.00094124033627528418 0 -0.00012491361526516088 -0.00062180130986401493 0 -2.9380365931480596e-05 -0.00083496509953806953 0 -0.00012491361526516088 -0.00062180130986401493 0 -0.00013371039230721955 -0.00057641180502760944 0 -2.9380365931480596e-05 -0.00083496509953806953 0 -0.00012491361526516088 -0.00062180130986401493 0 -0.00016117511909978356 -0.00039696220138813425 0 -0.00016759168788889252 -0.00040526500063096309 0 -0.00012491361526516088 -0.00062180130986401493 0 -0.00013371039230721955 -0.00057641180502760944 0 -0.00016759168788889252 -0.00040526500063096309 0 -0.00013371039230721955 -0.00057641180502760944 0 -3.0484993131542246e-05 -0.00077303684672614293 0 -0.00022332286946148366 -0.0005014228756861105 0 -3.0484993131542246e-05 -0.00077303684672614293 0 -0.00022332286946148366 -0.0005014228756861105 0 -4.3254503136241067e-05 -0.00072335962279633558 0 0.00011774297720636216 -0.0010486805384617535 0 -3.0484993131542246e-05 -0.00077303684672614293 0 0.00022337530747947281 -0.0010645621074764251 0 -0.00013371039230721955 -0.00057641180502760944 0 -3.0484993131542246e-05 -0.00077303684672614293 0 -2.9380365931480596e-05 -0.00083496509953806953 0 0.00011774297720636216 -0.0010486805384617535 0 -3.0484993131542246e-05 -0.00077303684672614293 0 -2.9380365931480596e-05 -0.00083496509953806953 0 -6.3353320037977259e-08 -2.4857035085429197e-07 0 -7.3124268893594863e-05 -0.00015602124060420814 0 -0.00013201720357865394 -0.00027158627187542743 0 -6.3353320037977259e-08 -2.4857035085429197e-07 0 -0.00013201720357865394 -0.00027158627187542743 0 -8.7820550753968821e-05 -0.00014128123918476311 0 -0.00011108903786700759 -0.00034938667766159316 0 -7.8010765742008119e-08 -3.1557382550274419e-07 0 -7.3124268893594863e-05 -0.00015602124060420814 0 -6.3353320037977259e-08 -2.4857035085429197e-07 0 -7.8010765742008119e-08 -3.1557382550274419e-07 0 -7.3124268893594863e-05 -0.00015602124060420814 0 -0.00011108903786700759 -0.00034938667766159316 0 -7.3124268893594863e-05 -0.00015602124060420814 0 -0.00013201720357865394 -0.00027158627187542743 0 -0.00013201720357865394 -0.00027158627187542743 0 -0.00013004067229981241 -0.0005827526000978028 0 -0.00015244856032854343 -0.00042981666105771575 0 -0.00011108903786700759 -0.00034938667766159316 0 -0.00013201720357865394 -0.00027158627187542743 0 -0.00013004067229981241 -0.0005827526000978028 0 -6.5701059038052902e-05 -0.00072274229895311981 0 -0.00011108903786700759 -0.00034938667766159316 0 -0.00013004067229981241 -0.0005827526000978028 0 -0.00012491361526516088 -0.00062180130986401493 0 -0.00013004067229981241 -0.0005827526000978028 0 -0.00015244856032854343 -0.00042981666105771575 0 -0.00015244856032854343 -0.00042981666105771575 0 -0.00016117511909978356 -0.00039696220138813425 0 -0.00014171225868809026 -0.00026486514468374749 0 -0.00012491361526516088 -0.00062180130986401493 0 -0.00015244856032854343 -0.00042981666105771575 0 -0.00016117511909978356 -0.00039696220138813425 0 -0.00016117511909978356 -0.00039696220138813425 0 -0.00015093243426014672 -0.00029237891208838066 0 -0.00016759168788889252 -0.00040526500063096309 0 -0.00016117511909978356 -0.00039696220138813425 0 -0.00014171225868809026 -0.00026486514468374749 0 -0.00015093243426014672 -0.00029237891208838066 0 -0.00014171225868809026 -0.00026486514468374749 0 -9.341238742398297e-05 -0.00014470421626884382 0 -0.00015093243426014672 -0.00029237891208838066 0 -0.00013201720357865394 -0.00027158627187542743 0 -0.00015244856032854343 -0.00042981666105771575 0 -0.00014171225868809026 -0.00026486514468374749 0 -0.00013201720357865394 -0.00027158627187542743 0 -0.00014171225868809026 -0.00026486514468374749 0 -8.7820550753968821e-05 -0.00014128123918476311 0 -0.00014171225868809026 -0.00026486514468374749 0 -8.7820550753968821e-05 -0.00014128123918476311 0 -9.341238742398297e-05 -0.00014470421626884382 0 -8.7820550753968821e-05 -0.00014128123918476311 0 -5.6472335522627748e-08 -1.8588522733044399e-07 0 -9.341238742398297e-05 -0.00014470421626884382 0 -6.3353320037977259e-08 -2.4857035085429197e-07 0 -8.7820550753968821e-05 -0.00014128123918476311 0 -5.6472335522627748e-08 -1.8588522733044399e-07 0 -2.4141964548879752e-08 -1.5189123133433342e-07 0 -4.7242144726990957e-05 -9.6147550550209547e-05 0 -3.6792636871087638e-08 -1.3568005296861241e-07 0 -5.6472335522627748e-08 -1.8588522733044399e-07 0 -2.4141964548879752e-08 -1.5189123133433342e-07 0 -9.341238742398297e-05 -0.00014470421626884382 0 -2.4141964548879752e-08 -1.5189123133433342e-07 0 -9.341238742398297e-05 -0.00014470421626884382 0 -4.7242144726990957e-05 -9.6147550550209547e-05 0 -9.341238742398297e-05 -0.00014470421626884382 0 -4.7242144726990957e-05 -9.6147550550209547e-05 0 -9.8224346680000693e-05 -0.00018673880969383009 0 -9.341238742398297e-05 -0.00014470421626884382 0 -9.8224346680000693e-05 -0.00018673880969383009 0 -0.00015093243426014672 -0.00029237891208838066 0 -0.00015093243426014672 -0.00029237891208838066 0 -0.00014255379240462435 -0.00026848888407893191 0 -0.00016759168788889252 -0.00040526500063096309 0 -9.8224346680000693e-05 -0.00018673880969383009 0 -0.00015093243426014672 -0.00029237891208838066 0 -0.00014255379240462435 -0.00026848888407893191 0 -0.00014255379240462435 -0.00026848888407893191 0 -0.00010018700559861003 -0.00023166574738747294 0 -0.0001661846760393293 -0.00029505218056405543 0 -9.8224346680000693e-05 -0.00018673880969383009 0 -0.00014255379240462435 -0.00026848888407893191 0 -0.00010018700559861003 -0.00023166574738747294 0 -0.00010018700559861003 -0.00023166574738747294 0 -8.1393246639474765e-05 -0.00026982677289624774 0 -2.8753255326605877e-05 -0.00014720835914153787 0 -1.3512851214611923e-05 -0.00025292371376992034 0 -8.1393246639474765e-05 -0.00026982677289624774 0 -2.8753255326605877e-05 -0.00014720835914153787 0 -9.8224346680000693e-05 -0.00018673880969383009 0 -0.00010018700559861003 -0.00023166574738747294 0 -2.8753255326605877e-05 -0.00014720835914153787 0 -4.7242144726990957e-05 -9.6147550550209547e-05 0 -2.8753255326605877e-05 -0.00014720835914153787 0 -3.6792636871087638e-08 -1.3568005296861241e-07 0 -4.7242144726990957e-05 -9.6147550550209547e-05 0 -9.8224346680000693e-05 -0.00018673880969383009 0 -2.8753255326605877e-05 -0.00014720835914153787 0 2.5599884366504126e-08 -1.5189992544198433e-07 0 -2.8753255326605877e-05 -0.00014720835914153787 0 -3.6792636871087638e-08 -1.3568005296861241e-07 0 -0.00022332286946148366 -0.0005014228756861105 0 -0.00020004754888264904 -0.00040744325584373179 0 -0.00026364254316176916 -0.00034748439648599959 0 -0.00022332286946148366 -0.0005014228756861105 0 -0.00026364254316176916 -0.00034748439648599959 0 -0.00047157471422548029 -0.0003815001939173692 0 -0.00013371039230721955 -0.00057641180502760944 0 -0.00022332286946148366 -0.0005014228756861105 0 -0.00020004754888264904 -0.00040744325584373179 0 -0.00013371039230721955 -0.00057641180502760944 0 -0.00020004754888264904 -0.00040744325584373179 0 -0.00016759168788889252 -0.00040526500063096309 0 -0.00014255379240462435 -0.00026848888407893191 0 -0.00016759168788889252 -0.00040526500063096309 0 -0.0001661846760393293 -0.00029505218056405543 0 -0.00020004754888264904 -0.00040744325584373179 0 -0.00016759168788889252 -0.00040526500063096309 0 -0.0001661846760393293 -0.00029505218056405543 0 -0.00020004754888264904 -0.00040744325584373179 0 -0.0001661846760393293 -0.00029505218056405543 0 -0.00026364254316176916 -0.00034748439648599959 0 -0.0001661846760393293 -0.00029505218056405543 0 -0.00018076563783403748 -0.00033596487617399524 0 -0.00026364254316176916 -0.00034748439648599959 0 -0.00010018700559861003 -0.00023166574738747294 0 -8.1393246639474765e-05 -0.00026982677289624774 0 -0.0001661846760393293 -0.00029505218056405543 0 -9.8788818927093703e-05 -0.00035067576932212456 0 -8.1393246639474765e-05 -0.00026982677289624774 0 -0.00018076563783403748 -0.00033596487617399524 0 -8.1393246639474765e-05 -0.00026982677289624774 0 -0.0001661846760393293 -0.00029505218056405543 0 -0.00018076563783403748 -0.00033596487617399524 0 -0.00018076563783403748 -0.00033596487617399524 0 -0.00031114846065229536 -0.00040627316922418069 0 -0.00026364254316176916 -0.00034748439648599959 0 -0.00031114846065229536 -0.00040627316922418069 0 -0.00026364254316176916 -0.00034748439648599959 0 -0.00047157471422548029 -0.0003815001939173692 0 -0.00059414482335544817 -0.00050828318878914978 0 -0.00031114846065229536 -0.00040627316922418069 0 -0.00047157471422548029 -0.0003815001939173692 0 -0.00059414482335544817 -0.00050828318878914978 0 -0.0013615199243636584 -0.00051245649747711647 0 -0.00047157471422548029 -0.0003815001939173692 0 -0.0013615199243636584 -0.00051245649747711647 0 -0.0025303110121191776 -0.00053899665125105832 0 -0.0022144724989206083 -0.00029366826335792555 0 -0.0013615199243636584 -0.00051245649747711647 0 -0.00067818471788790881 -0.00057106371130259334 0 -0.00047157471422548029 -0.0003815001939173692 0 -0.014890878629030041 0.0015763077356070229 0 0.0016735490880841783 -0.0019731750787434343 0 -0.00067818471788790881 -0.00057106371130259334 0 -0.00047157471422548029 -0.0003815001939173692 0 -0.00032190126373374744 -0.00051964150945116847 0 -0.00022332286946148366 -0.0005014228756861105 0 -0.00047157471422548029 -0.0003815001939173692 0 -0.00032190126373374744 -0.00051964150945116847 0 0.0016735490880841783 -0.0019731750787434343 0 -0.0032957772525001356 -0.00025506764572514549 0 -0.00067818471788790881 -0.00057106371130259334 0 -0.00032190126373374744 -0.00051964150945116847 0 -0.00012189805169474464 -0.00068497584595608632 0 -0.0032957772525001356 -0.00025506764572514549 0 -0.0024324060580211888 -0.0015066126356642249 0 -0.00032190126373374744 -0.00051964150945116847 0 -0.00012189805169474464 -0.00068497584595608632 0 -4.3254503136241067e-05 -0.00072335962279633558 0 -0.00022332286946148366 -0.0005014228756861105 0 -0.00032190126373374744 -0.00051964150945116847 0 -4.3254503136241067e-05 -0.00072335962279633558 0 -0.0031516805310339334 -0.0011358186470441112 0 -0.0026478373884590528 -0.00050303693483465543 0 -0.0028746486084722371 -0.00096926294378101648 0 -0.0032348825718187635 -0.00097746337035935845 0 -0.0031516805310339334 -0.0011358186470441112 0 -0.0037510608676345767 -0.0016254579777180804 0 -0.0032348825718187635 -0.00097746337035935845 0 -0.0031516805310339334 -0.0011358186470441112 0 -0.0026478373884590528 -0.00050303693483465543 0 -0.0025303110121191776 -0.00053899665125105832 0 -0.0032348825718187635 -0.00097746337035935845 0 -0.0026478373884590528 -0.00050303693483465543 0 -0.0026478373884590528 -0.00050303693483465543 0 -0.0022144724989206083 -0.00029366826335792555 0 -0.0024294703000284435 -0.00021729699962672958 0 -0.0025303110121191776 -0.00053899665125105832 0 -0.0026478373884590528 -0.00050303693483465543 0 -0.0022144724989206083 -0.00029366826335792555 0 -0.0020433110626591881 -0.00037402269259401155 0 -0.0013615199243636584 -0.00051245649747711647 0 -0.0022144724989206083 -0.00029366826335792555 0 -0.0020433110626591881 -0.00037402269259401155 0 -0.0022144724989206083 -0.00029366826335792555 0 -0.0024294703000284435 -0.00021729699962672958 0 -0.0026478373884590528 -0.00050303693483465543 0 -0.0024294703000284435 -0.00021729699962672958 0 -0.0026903964652717697 -0.00059036000982665236 0 -0.0024294703000284435 -0.00021729699962672958 0 -0.0025622269133880817 -0.00018111187777967265 0 -0.0026903964652717697 -0.00059036000982665236 0 -0.0023469210139101843 -8.2557603918917115e-05 0 -0.0024294703000284435 -0.00021729699962672958 0 -0.0025622269133880817 -0.00018111187777967265 0 -0.0024529029310806452 0.0001721408486433667 0 -0.0025367828000944976 1.5477816445528529e-05 0 -0.0025622269133880817 -0.00018111187777967265 0 -0.0024529029310806452 0.0001721408486433667 0 -0.0023469210139101843 -8.2557603918917115e-05 0 -0.0025622269133880817 -0.00018111187777967265 0 -0.0025367828000944976 1.5477816445528529e-05 0 -0.0025461559619132986 -0.00061222625857479949 0 -0.0025622269133880817 -0.00018111187777967265 0 -0.0025461559619132986 -0.00061222625857479949 0 -0.0026080617403632825 -0.0006639135918059568 0 -0.0025207769041932586 -0.0013188424902234701 0 -0.0025461559619132986 -0.00061222625857479949 0 -0.0025622269133880817 -0.00018111187777967265 0 -0.0026080617403632825 -0.0006639135918059568 0 -0.0026080617403632825 -0.0006639135918059568 0 -0.0026703159721472407 -0.0011503473183648197 0 -0.0026903964652717697 -0.00059036000982665236 0 -0.0025622269133880817 -0.00018111187777967265 0 -0.0026080617403632825 -0.0006639135918059568 0 -0.0026903964652717697 -0.00059036000982665236 0 -0.0026080617403632825 -0.0006639135918059568 0 -0.0026703159721472407 -0.0011503473183648197 0 -0.0025207769041932586 -0.0013188424902234701 0 -0.0026478373884590528 -0.00050303693483465543 0 -0.0026903964652717697 -0.00059036000982665236 0 -0.0028746486084722371 -0.00096926294378101648 0 -0.0026703159721472407 -0.0011503473183648197 0 -0.0026903964652717697 -0.00059036000982665236 0 -0.002845243734875678 -0.0014893957354201561 0 -0.0026903964652717697 -0.00059036000982665236 0 -0.0028746486084722371 -0.00096926294378101648 0 -0.002845243734875678 -0.0014893957354201561 0 -0.0028746486084722371 -0.00096926294378101648 0 -0.002845243734875678 -0.0014893957354201561 0 -0.003223305719058267 -0.0016623221177137994 0 -0.002845243734875678 -0.0014893957354201561 0 -0.002592980970005924 -0.001906622493175081 0 -0.0027485825765300844 -0.0024653572830925087 0 -0.002845243734875678 -0.0014893957354201561 0 -0.0030902027028710615 -0.0021560635242821309 0 -0.0027485825765300844 -0.0024653572830925087 0 -0.002845243734875678 -0.0014893957354201561 0 -0.0030902027028710615 -0.0021560635242821309 0 -0.003223305719058267 -0.0016623221177137994 0 -0.0025207769041932586 -0.0013188424902234701 0 -0.0023121871126619057 -0.002174915656535722 0 -0.002592980970005924 -0.001906622493175081 0 -0.0026703159721472407 -0.0011503473183648197 0 -0.0025207769041932586 -0.0013188424902234701 0 -0.002592980970005924 -0.001906622493175081 0 -0.0026703159721472407 -0.0011503473183648197 0 -0.002845243734875678 -0.0014893957354201561 0 -0.002592980970005924 -0.001906622493175081 0 -0.002592980970005924 -0.001906622493175081 0 -0.0022848083097069937 -0.0029384578945800912 0 -0.0027485825765300844 -0.0024653572830925087 0 -0.0023121871126619057 -0.002174915656535722 0 -0.002592980970005924 -0.001906622493175081 0 -0.0022848083097069937 -0.0029384578945800912 0 -0.0017178437218981874 -0.0037863937464921392 0 -0.0022848083097069937 -0.0029384578945800912 0 -0.0019917620469056849 -0.0040136983024380247 0 -0.0022848083097069937 -0.0029384578945800912 0 -0.0024896693723211252 -0.0035257684476926146 0 -0.0027485825765300844 -0.0024653572830925087 0 -0.0022848083097069937 -0.0029384578945800912 0 -0.0024896693723211252 -0.0035257684476926146 0 -0.0019917620469056849 -0.0040136983024380247 0 -0.0030902027028710615 -0.0021560635242821309 0 -0.0029709455515598815 -0.0030380282202295029 0 -0.0033414483972845216 -0.0026717231483044156 0 -0.0024896693723211252 -0.0035257684476926146 0 -0.0027485825765300844 -0.0024653572830925087 0 -0.0029709455515598815 -0.0030380282202295029 0 -0.0030902027028710615 -0.0021560635242821309 0 -0.0027485825765300844 -0.0024653572830925087 0 -0.0029709455515598815 -0.0030380282202295029 0 -0.0028717857495899383 -0.0039223450713291742 0 -0.0024896693723211252 -0.0035257684476926146 0 -0.0029709455515598815 -0.0030380282202295029 0 -0.0029709455515598815 -0.0030380282202295029 0 -0.0032929545366744565 -0.0032411467439142148 0 -0.0033414483972845216 -0.0026717231483044156 0 -0.0028717857495899383 -0.0039223450713291742 0 -0.0029709455515598815 -0.0030380282202295029 0 -0.0032929545366744565 -0.0032411467439142148 0 -0.0032929545366744565 -0.0032411467439142148 0 -0.0033414483972845216 -0.0026717231483044156 0 -0.0036724901261910876 -0.0028254588280565585 0 -0.0033414483972845216 -0.0026717231483044156 0 -0.0035655380458447139 -0.0021842619759482084 0 -0.0036724901261910876 -0.0028254588280565585 0 -0.0030902027028710615 -0.0021560635242821309 0 -0.0033414483972845216 -0.0026717231483044156 0 -0.0035655380458447139 -0.0021842619759482084 0 -0.0035655380458447139 -0.0021842619759482084 0 -0.0036724901261910876 -0.0028254588280565585 0 -0.0040469309771892659 -0.0023635046843908602 0 0.00039607066579548027 -0.0014490917342791121 0 0.0010342885542297864 -0.00197993934241773 0 0.00066945349889844824 -0.0013852568378581774 0 -0.0032963328825842027 -0.0025295944418572852 0 -0.0030780201540260934 -0.0019179150128152528 0 -0.0036724901261910876 -0.0028254588280565585 0 -0.0041458819858440849 -0.0029996914949227951 0 -0.0040469309771892659 -0.0023635046843908602 0 0.00075034813131498825 -0.0020099974881800761 0 0.00039607066579548027 -0.0014490917342791121 0 0.0010342885542297864 -0.00197993934241773 0 0.00039607066579548027 -0.0014490917342791121 0 0.00066945349889844824 -0.0013852568378581774 0 0.00022337530747947281 -0.0010645621074764251 0 0.00066945349889844824 -0.0013852568378581774 0 0.00022337530747947281 -0.0010645621074764251 0 0.00028974023935256004 -0.00097107573393422769 0 -0.0035655380458447139 -0.0021842619759482084 0 -0.0040469309771892659 -0.0023635046843908602 0 -0.0037510608676345767 -0.0016254579777180804 0 -0.0030780201540260934 -0.0019179150128152528 0 -0.0024324060580211888 -0.0015066126356642249 0 0.00022337530747947281 -0.0010645621074764251 0 -4.3254503136241067e-05 -0.00072335962279633558 0 0.00028974023935256004 -0.00097107573393422769 0 -3.0484993131542246e-05 -0.00077303684672614293 0 0.00022337530747947281 -0.0010645621074764251 0 -4.3254503136241067e-05 -0.00072335962279633558 0 -0.00012189805169474464 -0.00068497584595608632 0 -4.3254503136241067e-05 -0.00072335962279633558 0 0.00028974023935256004 -0.00097107573393422769 0 -0.0031516805310339334 -0.0011358186470441112 0 -0.0037510608676345767 -0.0016254579777180804 0 -0.003223305719058267 -0.0016623221177137994 0 -0.0031516805310339334 -0.0011358186470441112 0 -0.0028746486084722371 -0.00096926294378101648 0 -0.003223305719058267 -0.0016623221177137994 0 -0.0030902027028710615 -0.0021560635242821309 0 -0.0035655380458447139 -0.0021842619759482084 0 -0.003223305719058267 -0.0016623221177137994 0 -0.0035655380458447139 -0.0021842619759482084 0 -0.0037510608676345767 -0.0016254579777180804 0 -0.003223305719058267 -0.0016623221177137994 0 
</DataArray>
</PointData>
<CellData Scalars="region_id,cross_section_updated,displacement_divergence," Vectors="" Tensors="stress,">
<DataArray type="Float64" Name="region_id" format="ascii">
1 1 1 1 1 1 1 1 1 1 1 1 1 1 1 1 1 1 1 1 1 1 1 1 1 1 1 1 1 1 1 1 1 1 1 1 1 1 1 1 1 1 1 1 1 1 1 1 1 1 1 1 1 1 1 1 1 1 1 1 1 1 1 1 1 1 1 1 1 1 1 1 1 1 1 1 1 1 1 1 1 1 1 1 1 1 1 1 1 1 1 1 1 1 1 1 1 1 1 1 1 1 1 1 1 1 1 1 1 1 1 1 1 1 1 1 1 1 1 1 1 1 1 1 1 1 1 1 1 1 1 1 1 1 1 1 1 1 1 1 1 1 1 1 1 1 1 1 1 1 1 1 1 1 1 1 1 1 1 1 1 1 1 1 1 1 1 1 1 1 1 1 1 1 1 1 1 1 1 1 1 1 1 1 1 1 1 1 1 1 1 1 1 1 1 1 1 1 1 1 1 1 1 1 1 1 1 1 1 1 1 1 1 1 1 1 1 1 1 1 1 1 1 1 1 1 1 1 1 1 1 1 1 1 1 1 1 1 1 1 1 1 1 1 1 1 1 1 1 1 1 1 1 1 1 1 1 1 1 1 1 1 1 1 1 1 1 1 1 1 1 1 1 1 1 1 1 1 1 1 1 1 1 1 1 1 1 1 1 1 1 1 1 1 1 1 1 1 1 1 1 1 1 1 1 1 1 1 1 1 1 1 1 1 1 1 1 1 1 1 1 1 1 1 1 1 1 1 1 1 1 1 1 1 1 1 1 1 1 1 1 1 1 1 1 1 1 1 1 1 1 1 1 1 1 1 1 1 1 1 1 1 1 1 1 1 1 1 1 1 1 1 1 1 1 1 1 1 1 1 1 1 1 1 1 1 1 1 1 1 1 1 1 1 1 1 1 1 1 1 1 1 1 1 1 1 1 1 1 1 1 1 1 1 1 1 1 1 1 1 1 1 1 1 1 1 1 1 1 1 1 1 1 1 1 1 1 1 1 1 1 1 1 1 1 1 1 1 1 1 1 1 1 1 1 1 1 1 1 1 1 1 1 1 1 1 1 1 1 1 1 1 1 1 1 1 1 1 1 1 1 1 1 1 1 1 1 1 1 1 1 1 1 1 1 1 1 1 1 1 1 1 1 1 1 1 1 1 1 1 1 1 1 1 1 1 1 1 1 1 1 1 1 1 1 1 1 1 1 1 1 1 1 1 1 1 1 1 3 1 1 3 1 1 3 1 1 1 1 1 1 1 1 1 1 1 1 1 3 1 1 1 1 1 3 1 1 1 1 1 1 1 1 1 1 1 1 1 1 1 1 1 1 1 1 1 1 1 1 1 1 1 1 1 1 1 1 1 1 1 1 1 1 1 1 1 1 1 1 1 1 1 1 1 1 1 1 1 1 1 1 1 1 1 1 1 1 1 1 1 1 1 1 1 1 1 1 1 1 1 1 1 1 1 1 1 1 1 1 1 1 1 1 1 1 1 1 1 1 1 1 1 1 1 1 1 1 1 1 1 1 1 1 1 1 1 1 1 1 1 1 1 1 1 1 1 1 1 1 1 1 1 1 1 1 1 1 1 1 1 1 1 1 1 1 1 1 1 1 1 1 1 1 1 1 1 1 1 1 1 1 1 1 1 1 1 1 1 1 1 1 1 1 3 1 1 1 3 1 1 3 1 1 1 1 1 1 1 1 1 1 1 3 1 1 1 1 3 1 1 1 1 1 1 1 1 1 1 1 1 1 1 1 1 1 1 1 1 1 1 1 1 1 1 1 1 1 1 1 1 1 1 1 1 1 1 1 1 1 1 1 1 1 1 1 1 1 1 1 1 1 1 1 1 1 1 2 1 1 1 1 1 1 1 1 1 1 1 1 1 1 2 1 1 2 1 2 1 1 1 1 1 1 1 1 1 1 1 1 1 2 1 1 1 1 1 1 1 1 1 1 1 1 1 1 1 1 1 1 1 1 1 1 1 1 1 1 1 1 1 1 1 1 1 1 1 1 1 1 1 1 1 1 1 1 1 1 1 1 1 1 1 1 1 1 1 1 1 1 1 1 1 1 1 1 1 1 1 1 1 1 1 1 1 1 1 1 1 1 1 1 1 1 1 1 1 1 1 1 1 1 1 1 1 1 1 1 1 1 1 1 1 1 1 1 1 1 1 1 1 1 1 1 1 1 1 1 1 1 1 1 1 1 1 1 1 1 1 1 1 1 1 1 1 1 1 1 2 1 1 2 1 2 1 1 1 1 1 1 1 1 1 1 1 1 1 1 1 1 1 1 1 1 1 1 1 1 1 1 1 1 1 1 1 1 1 1 1 1 1 1 1 1 1 1 1 1 1 1 1 2 1 1 1 1 1 2 1 1 1 1 1 1 1 
</DataArray>
<DataArray type="Float64" Name="stress" NumberOfComponents="9" format="ascii">
-618.18694365014642 -252.65875697250516 0 -252.65875697250516 -1857.2208760828105 0 0 0 -618.8519549332392 -304.05087728535489 -275.73051733778311 0 -275.73051733778311 -2137.4403271339443 0 0 0 -610.3728011048247 -382.87036209129133 -144.90915887646241 0 -144.90915887646241 -1660.6216340596991 0 0 0 -510.87299903774766 -99.620475047444302 -182.00893491540319 0 -182.00893491540319 -1967.8229096368991 0 0 0 -516.86084617108588 -14.389066846098329 -15.079372080057738 0 -15.079372080057738 -1823.8696220428981 0 0 0 -459.56467222224921 -21.041982124690549 24.886884422573473 0 24.886884422573473 -1833.6592005656321 0 0 0 -463.67529567258089 -114.72597500262381 -50.559187076686612 0 -50.559187076686612 -1831.0167489304513 0 0 0 -486.43568098326887 -26.216601907314953 -23.504989540885866 0 -23.504989540885866 -1791.6955017950472 0 0 0 -454.4780259255906 -47.119431175877025 5.8465964785169717 0 5.8465964785169717 -1746.7524203859825 0 0 0 -448.46796289046461 -85.959010465586971 47.572607016693837 0 47.572607016693837 -1718.1701279321151 0 0 0 -451.03228459942557 -188.13917837945201 -9.2355636366190765 0 -9.2355636366190765 -1625.2723680757144 0 0 0 -453.35288661379127 -112.7704309410426 67.427465490370651 0 67.427465490370651 -1496.1762374372342 0 0 0 -402.23666709456916 -277.32072691635437 -34.187256978980372 0 -34.187256978980372 -1527.8760810782037 0 0 0 -451.29920199863943 -167.62355350412122 -0.29755529915732382 0 -0.29755529915732382 -1548.0204519971751 0 0 0 -428.91100137532396 -520.22929748984757 -86.94974005989117 0 -86.94974005989117 -1561.1853362730028 0 0 0 -520.35365844071259 -572.00465097381004 -186.01697414865995 0 -186.01697414865995 -1715.9939486259841 0 0 0 -571.99964989994851 -236.41394622571366 -42.894604092994506 0 -42.894604092994506 -1474.5383634837101 0 0 0 -427.7380774273559 -314.65190137710351 -92.468901583664774 0 -92.468901583664774 -1683.2712374008952 0 0 0 -499.48078469449956 -13.946858327787595 63.162189540458712 0 63.162189540458712 -2025.377520779135 0 0 0 -509.83109477673042 1.1398162778391452 50.613100958735686 0 50.613100958735686 -1860.2690739360296 0 0 0 -464.78231441454727 -53.100719642995273 103.47257568025998 0 103.47257568025998 -1896.0177762838496 0 0 0 -487.27962398171098 -22.203099589319891 43.916056778520442 0 43.916056778520442 -1852.6842600461323 0 0 0 -468.7218399088631 -2.7179108104016905 41.168878069316179 0 41.168878069316179 -1791.5091742961149 0 0 0 -448.55677127662921 -12.68374494349996 96.959079710653441 0 96.959079710653441 -1740.4999297150139 0 0 0 -438.29591866462852 -7.7275425877323869 50.70580254443837 0 50.70580254443837 -1910.2990750708577 0 0 0 -479.50665441464798 -31.642052521124697 77.314538575306187 0 77.314538575306187 -1604.5932135828734 0 0 0 -409.05881652599965 -139.2054781123725 72.134115826622292 0 72.134115826622292 -1639.6609252274434 0 0 0 -444.71660083495408 -53.038850788133004 81.553048077443464 0 81.553048077443464 -1736.4472415220953 0 0 0 -447.37152307755741 -79.02117288501006 136.67442204375084 0 136.67442204375084 -1717.2928599768557 0 0 0 -449.07850821546629 -44.880117664662748 141.4557898491712 0 141.4557898491712 -1611.8149980854837 0 0 0 -414.17377893753678 1.7143322306410482 143.86428024990869 0 143.86428024990869 -1700.9739679352961 0 0 0 -424.81490892616375 -49.280228449832066 142.404889412594 0 142.404889412594 -1947.1897029692991 0 0 0 -499.11748285478325 -56.490822294906593 196.35816490760374 0 196.35816490760374 -1504.3731379440551 0 0 0 -390.21599005974031 -136.68950488361361 187.51005343049212 0 187.51005343049212 -1525.6460273429284 0 0 0 -415.58388305663539 -104.88332518940342 147.17421628365082 0 147.17421628365082 -1295.5268616731355 0 0 0 -350.10254671563484 -147.42402640639853 91.008797641627325 0 91.008797641627325 -1303.9865441848469 0 0 0 -362.85264264781154 -88.566128799236367 97.812612128060209 0 97.812612128060209 -1479.9343541282892 0 0 0 -392.12512073188145 -147.86204929523569 146.33005242547182 0 146.33005242547182 -1485.652151140901 0 0 0 -408.37855010903422 -169.13588756240893 103.52892915092755 0 103.52892915092755 -1380.7026303918715 0 0 0 -387.45962948857027 -194.67416828468981 88.289938199032633 0 88.289938199032633 -1129.7621933909804 0 0 0 -331.1090904189175 -211.32185539153755 121.69787944007362 0 121.69787944007362 -1114.2874865327717 0 0 0 -331.40233548107739 -188.16558035356707 135.29348878070061 0 135.29348878070061 -959.40173824068188 0 0 0 -286.89182964856218 -203.04409108927024 150.08628876359353 0 150.08628876359353 -1303.824532022973 0 0 0 -376.71715577806111 -189.66326205017754 184.55682139360647 0 184.55682139360647 -1319.6281981641016 0 0 0 -377.32286505356979 -148.71509653500425 139.05657746060342 0 139.05657746060342 -1098.6880882664263 0 0 0 -311.85079620035754 -229.52786485207369 134.77977898644008 0 134.77977898644008 -1122.4071560124517 0 0 0 -337.98375521613139 -230.84274190461292 224.36302953808104 0 224.36302953808104 -1110.2873559291202 0 0 0 -335.28252445843327 -139.08352995469841 183.69756774538689 0 183.69756774538689 -1121.7304683108323 0 0 0 -315.20349956638256 -303.11336404999406 40.748575392015368 0 40.748575392015368 -1362.425819761391 0 0 0 -416.38479595284628 -262.62044182226697 65.534888769229042 0 65.534888769229042 -1236.0593366869398 0 0 0 -374.66994462730179 -412.84833845205515 23.178714639411133 0 23.178714639411133 -1238.3571746976245 0 0 0 -412.80137828741982 -305.47711709188781 16.049590863762262 0 16.049590863762262 -1367.261636808576 0 0 0 -418.18468847511593 -177.17479745625724 46.839563923884498 0 46.839563923884498 -1372.038829544377 0 0 0 -387.30340675015844 -197.83424887249294 32.067259371133559 0 32.067259371133559 -1473.2880492802797 0 0 0 -417.78057453819315 -216.46253804695061 46.530799373194213 0 46.530799373194213 -1255.1447255436867 0 0 0 -367.90181589765939 -244.37783229431716 36.107147121999674 0 36.107147121999674 -1375.3364316335117 0 0 0 -404.92856598195726 -206.2092134164252 103.86771157937355 0 103.86771157937355 -1216.7298385831259 0 0 0 -355.73476299988783 -248.18427115881695 49.951264725095712 0 49.951264725095712 -1089.374179761093 0 0 0 -334.38961272997756 -236.16061105065262 93.356485229660734 0 93.356485229660734 -1050.3075811018794 0 0 0 -321.61704803813291 -258.45719091020425 96.598197000621767 0 96.598197000621767 -1093.2231256046027 0 0 0 -337.92007912870173 -265.97232038613816 49.909016702954318 0 49.909016702954318 -1048.0791705520176 0 0 0 -328.51287273453892 -300.25265084668229 35.40772914316932 0 35.40772914316932 -1219.0965385533693 0 0 0 -379.8372973500127 -301.21461911061215 88.897621805398387 0 88.897621805398387 -1143.6484063523478 0 0 0 -361.21575636573999 -359.9500930681458 52.692053063913093 0 52.692053063913093 -1080.0367506395216 0 0 0 -359.99671092691682 -303.9353134780784 60.342875947462232 0 60.342875947462232 -911.8484339381522 0 0 0 -303.94593685405761 -304.2486506890483 117.65824284616252 0 117.65824284616252 -979.10683863084137 0 0 0 -320.83887232997245 -250.79688010388756 120.95452668970557 0 120.95452668970557 -831.6750298451326 0 0 0 -270.61797748725502 -249.49410722737895 69.889251087618717 0 69.889251087618717 -748.35142090180875 0 0 0 -249.46138203229691 -262.80950162629375 62.513540343950467 0 62.513540343950467 -651.85516956250797 0 0 0 -228.66616779720042 -220.26055934919856 73.820741548294734 0 73.820741548294734 -633.56118802456353 0 0 0 -213.45543684344045 -229.51701667518424 113.60130092997217 0 113.60130092997217 -678.7720285215911 0 0 0 -227.0722612991938 -211.47470070486142 68.847460436748648 0 68.847460436748648 -634.50613182587279 0 0 0 -211.49520813268353 -222.65275149460069 42.557005937006977 0 42.557005937006977 -608.95100639484065 0 0 0 -207.90093947236034 -260.41674126755368 77.780597559494367 0 77.780597559494367 -636.66423506229967 0 0 0 -224.27024408246325 -248.60515074853745 96.819102048811487 0 96.819102048811487 -733.8458890885754 0 0 0 -245.61275995927824 -252.87026018206325 43.203135538247068 0 43.203135538247068 -741.46405190199721 0 0 0 -248.58357802101511 -244.76001137160733 91.043504693969226 0 91.043504693969226 -785.21599673378319 0 0 0 -257.49400202634763 -280.45476398720729 63.575391997804928 0 63.575391997804928 -777.21694798814588 0 0 0 -264.41792799383825 -248.60595838275191 63.095321888962758 0 63.095321888962758 -908.25396851293317 0 0 0 -289.2149817239212 -264.82527321415887 75.208434337307153 0 75.208434337307153 -913.51811869681671 0 0 0 -294.58584797774387 -223.57867567543212 75.524527932239266 0 75.524527932239266 -957.94359066745801 0 0 0 -295.38056658572236 -227.23421095539345 112.959179354149 0 112.959179354149 -907.34323985280616 0 0 0 -283.64436270204999 -236.5071024693957 82.046856060605194 0 82.046856060605194 -936.28595890032375 0 0 0 -293.1982653424302 -248.78472357698502 53.65388477673514 0 53.65388477673514 -730.04432932284226 0 0 0 -244.70726322495693 -248.82361623357349 119.01382956976227 0 119.01382956976227 -821.71992379114818 0 0 0 -267.63588500618027 -253.55453237335337 54.80440620780351 0 54.80440620780351 -834.60684039287889 0 0 0 -272.04034319155801 -229.20034198537633 156.64447913135115 0 156.64447913135115 -946.84234789256789 0 0 0 -294.01067246948651 -219.4966367545187 159.66891897192141 0 159.66891897192141 -911.83805110064441 0 0 0 -282.83367196379072 -243.49070790803108 90.416361419576333 0 90.416361419576333 -829.95159254100895 0 0 0 -268.36057511226005 -273.80819016642431 109.26168502654627 0 109.26168502654627 -720.86285146144928 0 0 0 -248.66776040696823 -272.28583185600246 112.332398080247 0 112.332398080247 -712.49312301478312 0 0 0 -246.19473871769651 -259.48199314148457 41.641041345013377 0 41.641041345013377 -577.08406745412458 0 0 0 -209.14151514890233 -270.39005501357389 40.571749875266732 0 40.571749875266732 -580.36015464997297 0 0 0 -212.68755241588673 -278.03228628428735 1.5468261162559998 0 1.5468261162559998 -406.80566381734207 0 0 0 -171.20948752540744 -261.04713683593553 91.950530178365739 0 91.950530178365739 -735.76281261235317 0 0 0 -249.20248736207242 -234.87019850195622 50.436063808948575 0 50.436063808948575 -704.22030827828678 0 0 0 -234.77262669506081 -268.47123930697489 77.436710443883157 0 77.436710443883157 -696.08618096950295 0 0 0 -241.13935506911935 -216.17056607012452 39.611948178401576 0 39.611948178401576 -578.53645613504614 0 0 0 -198.67675555129264 -258.83358673526789 51.268485427388043 0 51.268485427388043 -588.84210366092157 0 0 0 -211.91892259904716 -256.31908746183717 46.17174319394212 0 46.17174319394212 -491.58017983377863 0 0 0 -186.97481682390389 -234.17864304434661 -4.0435640939616633 0 -4.0435640939616633 -374.32689929071557 0 0 0 -152.12638558376554 -191.23044345296836 22.330282811054758 0 22.330282811054758 -470.14135161671948 0 0 0 -165.342948767422 -301.66525137832275 -34.292537319988696 0 -34.292537319988696 -432.0166031031722 0 0 0 -183.42046362037365 -253.85732027837992 9.2052565177693282 0 9.2052565177693282 -473.80060485981971 0 0 0 -181.91448128454988 -166.38973269404531 3.1046133496529364 0 3.1046133496529364 -450.37128300684498 0 0 0 -154.19025392522261 -247.99636587114486 -65.490376082230398 0 -65.490376082230398 -357.23682309664605 0 0 0 -151.30829724194768 -76.938281072663585 -96.476918686724559 0 -96.476918686724559 -310.38705505736743 0 0 0 -96.831334032507698 -167.43353974261623 -70.138533834694414 0 -70.138533834694414 -272.92192054854877 0 0 0 -110.08886507279124 -100.43728802700412 -38.216527480896019 0 -38.216527480896019 -159.86142682095556 0 0 0 -65.074678711989975 -21.213935291855805 -83.972549643060006 0 -83.972549643060006 -239.2459148604413 0 0 0 -65.114962538074266 -79.011264857351932 -126.73340511307657 0 -126.73340511307657 -188.27843848957821 0 0 0 -66.822425836732521 -189.25751080635732 -28.818773551335312 0 -28.818773551335312 -280.61776764195031 0 0 0 -117.46881961207694 -133.53557643734902 -1.5680881954172037 0 -1.5680881954172037 -344.26156258319787 0 0 0 -119.44928475513669 -106.26456190063863 -30.671152491813473 0 -30.671152491813473 -258.72344080964399 0 0 0 -91.247000677570668 -203.61138355977042 28.516633915795445 0 28.516633915795445 -312.94279005474925 0 0 0 -129.13854340362994 -174.40292070500811 -15.456898835481184 0 -15.456898835481184 -289.37733655405202 0 0 0 -115.94506431476498 -199.80409065946148 3.783979713237585 0 3.783979713237585 -375.56221795234819 0 0 0 -143.84157715295245 -227.02022469301278 40.722587491626484 0 40.722587491626484 -355.51568155404499 0 0 0 -145.63397656176448 -185.44563623095391 -1.1375393685846689 0 -1.1375393685846689 -323.56717772805166 0 0 0 -127.25320348975143 -207.42794892804829 15.899594075776875 0 15.899594075776875 -357.10792801235345 0 0 0 -141.13396923510044 -122.72252802042946 16.121075123587229 0 16.121075123587229 -368.22763120456693 0 0 0 -122.73753980624909 -211.65203876104843 57.733337404583835 0 57.733337404583835 -434.90912179785755 0 0 0 -161.64029013972646 -193.07713625572453 29.771785879189494 0 29.771785879189494 -417.37921036885143 0 0 0 -152.61408665614397 -199.10373968624992 74.017944921733019 0 74.017944921733019 -531.5047611008265 0 0 0 -182.65212519676911 -232.25910265289551 50.772205760878165 0 50.772205760878165 -436.47931900915211 0 0 0 -167.18460541551195 -151.1567504791303 39.715915119521775 0 39.715915119521775 -453.25850940655897 0 0 0 -151.10381497142234 -238.3640848631922 80.888125871897302 0 80.888125871897302 -543.09763440449512 0 0 0 -195.36542981692185 -257.72792571132362 61.23414704354019 0 61.23414704354019 -524.78731253345893 0 0 0 -195.62880956119562 -243.3351150290577 43.498881004924215 0 43.498881004924215 -400.02403762196286 0 0 0 -160.83978816275516 -212.60065563377034 38.908442964585674 0 38.908442964585674 -507.29540921807387 0 0 0 -179.97401621296106 -379.80005043884591 283.78117867312085 0 283.78117867312085 211.38388930725819 0 0 0 -42.10404028289679 -487.52814199222871 226.1093980004427 0 226.1093980004427 86.139937131446914 0 0 0 -100.34705121519539 -489.20781468410803 179.04986080238558 0 179.04986080238558 -26.402986345939098 0 0 0 -128.90270025751158 -396.2674453091804 284.37022087623757 0 284.37022087623757 136.6682552322589 0 0 0 -64.899797519230347 -102.4576122223325 397.65800732825085 0 397.65800732825085 231.44429733149195 0 0 0 32.246671277289806 -154.22196485379698 420.31358039408047 0 420.31358039408047 465.2528245118873 0 0 0 77.757714914522325 -304.89825817904307 95.468245604918025 0 95.468245604918025 454.01250824318208 0 0 0 37.27856251603518 -376.45696470115121 116.03265418320663 0 116.03265418320663 448.5046882412114 0 0 0 18.011930885014927 -213.44927281869414 99.648579691808806 0 99.648579691808806 416.21020569788237 0 0 0 50.690233219797022 -287.55843832895442 127.93310345527944 0 127.93310345527944 405.19232117125358 0 0 0 29.40847071057496 -580.56144806064219 -24.687298619791903 0 -24.687298619791903 298.85703669615975 0 0 0 -70.426102841120951 -476.83707397132434 83.228322292559184 0 83.228322292559184 146.09350666096361 0 0 0 -82.685891827590069 -558.06032563785971 118.67174624350224 0 118.67174624350224 271.77987693447449 0 0 0 -71.570112175846077 -601.94188129214274 47.172167343301496 0 47.172167343301496 119.70642832978342 0 0 0 -120.55886324058986 -690.21622962123581 -87.730075124486788 0 -87.730075124486788 -3.4738175965746905 0 0 0 -173.42251180445263 -503.42207728562283 -350.30617601192256 0 -350.30617601192256 212.85884881826087 0 0 0 -72.640807116840222 -902.17469180532078 -220.51834612795159 0 -220.51834612795159 31.775488097315019 0 0 0 -217.59980092700141 -513.56298178449947 -179.23771837763024 0 -179.23771837763024 110.76752166010419 0 0 0 -100.69886503109876 -785.70686857095893 27.590197346097284 0 27.590197346097284 180.29809627584871 0 0 0 -151.35219307377758 -307.33013105524054 -416.06948105881793 0 -416.06948105881793 -142.90351101103988 0 0 0 -112.55841051656995 149.79595949905888 -240.71276419973259 0 -240.71276419973259 -151.49584235535826 0 0 0 -0.42497071407501608 -469.54582700039686 -312.69100753335022 0 -312.69100753335022 -33.737835631234262 0 0 0 -125.82091565790783 -493.3818125827969 -259.23630817970513 0 -259.23630817970513 -47.953136163152848 0 0 0 -135.3337371864875 -259.85433760575887 -209.2776027264531 0 -209.2776027264531 -279.43861937621136 0 0 0 -134.82323924549252 -323.44022689923895 -192.61792908537075 0 -192.61792908537075 -198.28643865080562 0 0 0 -130.43166638751131 -324.16064121768136 -83.178455105392686 0 -83.178455105392686 -174.29123240099426 0 0 0 -124.61296840466888 -473.70873745664005 -2.6249010094827554 0 -2.6249010094827554 -351.10754200951715 0 0 0 -206.20406986653916 -622.58233163750629 44.516399334742573 0 44.516399334742573 114.16903092502707 0 0 0 -127.10332517812003 -598.02380762741097 -45.747822059923237 0 -45.747822059923237 -66.159375381045265 0 0 0 -166.04579575211403 -357.126997146772 1.6974714285474874 0 1.6974714285474874 27.171984210069922 0 0 0 -82.488753234175476 -512.53354080665315 111.35860974235629 0 111.35860974235629 -317.87888103806017 0 0 0 -207.60310546117842 -375.14640182232756 185.22882749983023 0 185.22882749983023 -7.6051400007349912 0 0 0 -95.687885455765581 -354.98281486762585 128.78078788717471 0 128.78078788717471 -307.24396845374758 0 0 0 -165.55669583034341 -276.00397903552442 286.65315201322255 0 286.65315201322255 -340.43265908701642 0 0 0 -154.10915953063517 -350.09570429801465 48.110976756742389 0 48.110976756742389 -547.7312473200559 0 0 0 -224.45673790451747 -320.59441877697168 33.616798966995702 0 33.616798966995702 -283.23877332602342 0 0 0 -150.9582980257486 -421.88889534274699 103.49774842736588 0 103.49774842736588 -486.66725902803319 0 0 0 -227.13903859269544 -282.62148737437678 182.71239289367531 0 182.71239289367531 -406.60785862603143 0 0 0 -172.30733650010211 -284.09972190271208 126.08553093178421 0 126.08553093178421 -511.40285355316894 0 0 0 -198.87564386397028 -341.41165278668268 145.12763842064544 0 145.12763842064544 -707.16900266666471 0 0 0 -262.14516386333662 -233.69990547420912 230.13080600599233 0 230.13080600599233 -683.31349571432725 0 0 0 -229.25335029713392 -272.14643140990893 203.52533953604677 0 203.52533953604677 -941.77325670562823 0 0 0 -303.4799220288844 -229.66766794502121 199.32484488331193 0 199.32484488331193 -773.67166349670174 0 0 0 -250.83483286043077 -339.47509839210079 302.42471460692923 0 302.42471460692923 -606.34478887670775 0 0 0 -236.45497181720248 -366.11082451808443 216.23365569683733 0 216.23365569683733 -643.89376651711609 0 0 0 -252.50114775879956 -264.12229227347257 279.70264136393098 0 279.70264136393098 -624.62557820291363 0 0 0 -222.186967619097 -275.62463922168627 240.33873381043395 0 240.33873381043395 -811.1252307752884 0 0 0 -271.68746749924321 -267.46347812126305 271.8557881679572 0 271.8557881679572 -645.65668098714741 0 0 0 -228.2800397771025 -151.01795183324953 388.03072526920096 0 388.03072526920096 -787.47693358599281 0 0 0 -234.62372135481041 -70.948298364997072 457.58605362853814 0 457.58605362853814 -622.40399438409895 0 0 0 -173.33807318727418 -87.633303103986691 440.34018437075815 0 440.34018437075815 -827.59410994509653 0 0 0 -228.80685326227103 -240.82956845046488 360.83395684445532 0 360.83395684445532 -601.50018799588565 0 0 0 -210.58243911158797 -228.64458837754773 358.04909635615638 0 358.04909635615638 -347.53092747486153 0 0 0 -144.04387896310209 -337.77869552988329 345.58024820648757 0 345.58024820648757 -383.23479292514094 0 0 0 -180.2533721137562 -248.52877924882432 375.00941995747485 0 375.00941995747485 -123.10272109610833 0 0 0 -92.907875086233389 -110.15608809481046 467.02868520129664 0 467.02868520129664 -318.72640711001941 0 0 0 -107.22062380120724 -369.27458322864777 335.50322485606307 0 335.50322485606307 -182.92607086642511 0 0 0 -138.05016352376833 -319.65958041697513 314.38747542119859 0 314.38747542119859 98.566234447263469 0 0 0 -55.273336492428143 -459.9061460874957 226.18639892002034 0 226.18639892002034 -229.7905345986992 0 0 0 -172.42417017154867 43.247221441302941 551.96709633459909 0 551.96709633459909 351.21470104521086 0 0 0 98.615480621628535 -170.80379574960853 432.25407895263413 0 432.25407895263413 -80.316321686876108 0 0 0 -62.780029359121045 -177.22899861168111 445.32008588035114 0 445.32008588035114 173.78376596893293 0 0 0 -0.86130816068695992 -121.2971395534737 456.09435846495137 0 456.09435846495137 -378.83901626311945 0 0 0 -125.0340389541484 78.995770501209336 516.30479331199592 0 516.30479331199592 -189.4525104577715 0 0 0 -27.61418498914054 62.250975544140204 575.20141002615469 0 575.20141002615469 -79.651880721813768 0 0 0 -4.3502262944184054 77.205697944357325 492.37832314867978 0 492.37832314867978 -677.72192676502164 0 0 0 -150.12905720516528 77.026465179598972 556.46857008276356 0 556.46857008276356 -486.49181060447609 0 0 0 -102.36633635621979 240.47149477895937 570.72094115068967 0 570.72094115068967 -774.85497191569993 0 0 0 -133.59586928418548 138.72119772789574 509.46038530434498 0 509.46038530434498 -1063.2904002371997 0 0 0 -231.14230062732622 62.2356249722543 416.85258363895355 0 416.85258363895355 -1318.608102912729 0 0 0 -314.09311948511822 17.352007519277322 523.61486804099513 0 523.61486804099513 -902.39378681526432 0 0 0 -221.26044482399584 74.004271413147762 439.92613990455084 0 439.92613990455084 -1006.0594185654609 0 0 0 -233.01378678807851 -187.41707163617048 372.0667945555922 0 372.0667945555922 -957.93572501398194 0 0 0 -286.33819916253788 -92.202241511233296 348.74395810746864 0 348.74395810746864 -1243.4279977971964 0 0 0 -333.90755982710743 -33.313790947495818 465.74875985488438 0 465.74875985488438 -1065.0492313636387 0 0 0 -274.59075557778306 -49.746022485341655 433.23304132465455 0 433.23304132465455 -1039.5626949836906 0 0 0 -272.32717936725885 -7.9321944432685996 341.34836700370761 0 341.34836700370761 -1567.9786572167286 0 0 0 -393.97771291500067 35.719726805827577 418.1355344031731 0 418.1355344031731 -1431.4828106690484 0 0 0 -348.94077096580531 -70.253292733604667 297.94837968331785 0 297.94837968331785 -1692.5496460037593 0 0 0 -440.70073468434066 124.84841968081537 395.87847032586978 0 395.87847032586978 -1662.5119019116755 0 0 0 -384.41587055771515 19.493136889587731 256.41500324795663 0 256.41500324795663 -1929.7866733022493 0 0 0 -477.57338410316606 163.81807405531163 391.32764996797505 0 391.32764996797505 -1625.1966632133117 0 0 0 -365.34464728950024 131.7176057408069 326.02028212840105 0 326.02028212840105 -1604.0304499587874 0 0 0 -368.07821105449511 43.827801319302068 417.02865596648917 0 417.02865596648917 -1324.6807723598718 0 0 0 -320.21324276014235 -171.31410480798195 224.6272447562078 0 224.6272447562078 -900.7919917718209 0 0 0 -268.02652414495105 -189.71946666256554 287.49366093928029 0 287.49366093928029 -1159.2961214937623 0 0 0 -337.25389703908195 -131.12972727374404 234.56124170975454 0 234.56124170975454 -1188.0531126150531 0 0 0 -329.79570997219935 -178.33889304971808 326.79654694346186 0 326.79654694346186 -1286.70597438185 0 0 0 -366.26121685789212 -144.97290451512072 291.35299858729172 0 291.35299858729172 -994.87582585652672 0 0 0 -284.96218259291072 -181.29842816242103 351.61704793821991 0 351.61704793821991 -901.76734250595746 0 0 0 -270.76644266709468 -216.4394616366767 339.62672732230862 0 339.62672732230862 -1064.9624807262917 0 0 0 -320.35048559074176 -84.496016437291701 367.04121221505648 0 367.04121221505648 -1011.9893966110076 0 0 0 -274.12135326207476 -104.77720893802416 357.78718924482177 0 357.78718924482177 -1333.0720108708174 0 0 0 -359.46230495221062 -88.081597419066611 275.40849521519476 0 275.40849521519476 -1463.4562716282462 0 0 0 -387.88446726182701 -27.621547467231721 371.32370659622939 0 371.32370659622939 -1569.0412750036749 0 0 0 -399.16570561772664 -99.113831771632249 308.64733450150015 0 308.64733450150015 -1284.8995502604894 0 0 0 -346.00334550803063 -123.30071569827851 312.44479109622102 0 312.44479109622102 -1415.2021520941817 0 0 0 -384.62571694811459 -93.109868640365448 218.53805343221529 0 218.53805343221529 -1544.3601439040394 0 0 0 -409.3675031361015 -90.717963453459106 252.6093109678568 0 252.6093109678568 -1475.7567727332134 0 0 0 -391.61868404666848 -157.886368118262 248.61514775919431 0 248.61514775919431 -1333.234541049982 0 0 0 -372.78022729206077 -84.91682983877854 192.80668803203469 0 192.80668803203469 -1349.3890380797857 0 0 0 -358.57646697964083 -21.930472825711021 165.25643208677866 0 165.25643208677866 -1767.693194925117 0 0 0 -447.40591693770682 -91.235130961259529 191.50322987009298 0 191.50322987009298 -1607.7414438046471 0 0 0 -424.74414369147689 -58.751653575335695 214.93231903401875 0 214.93231903401875 -1776.7071015148367 0 0 0 -458.86468877254356 -47.738570175248242 276.36038779383216 0 276.36038779383216 -1576.9447575823401 0 0 0 -406.1708319393972 -24.613738484518308 186.82916937384812 0 186.82916937384812 -2023.6651718065586 0 0 0 -512.06972757276981 1.1126101062468479 185.90400582677921 0 185.90400582677921 -1844.0482476070597 0 0 0 -460.73390937520389 -41.050312719957219 274.25754671478626 0 274.25754671478626 -1824.4371671725257 0 0 0 -466.37186997312074 -63.562777880403701 238.91524687534252 0 238.91524687534252 -1792.477363362781 0 0 0 -464.0100353107955 38.785732220814225 284.88613695269578 0 284.88613695269578 -1896.3698915600889 0 0 0 -464.39603983481766 -21.723511257254358 203.48610396487538 0 203.48610396487538 -2197.667939739229 0 0 0 -554.8478627491204 -7.3160547034985939 79.095404056806728 0 79.095404056806728 -2169.2054173530087 0 0 0 -544.13036801412636 -12.665595282107461 85.00435952195312 0 85.00435952195312 -2327.8579334513215 0 0 0 -585.13088218335724 2.0691500912698757 76.911694059206184 0 76.911694059206184 -2033.7936856950291 0 0 0 -507.93113390094004 -14.988102232403307 72.687072235960386 0 72.687072235960386 -2151.8630341493053 0 0 0 -541.71278409542799 7.0457336368704091 71.516366999045431 0 71.516366999045431 -1906.902371703618 0 0 0 -474.96415951668678 51.022869106165672 274.81001283969408 0 274.81001283969408 -2209.8862479446907 0 0 0 -539.71584470963171 76.368818337888115 291.76075192703593 0 291.76075192703593 -1929.8913083496918 0 0 0 -463.38062250295025 -26.207647330358213 260.03831733594325 0 260.03831733594325 -1921.503266744463 0 0 0 -486.92772851870495 37.878629062936398 346.85298838778635 0 346.85298838778635 -1825.964063012616 0 0 0 -447.02135848741955 -31.321765004729059 209.79600078462136 0 209.79600078462136 -2136.4265424569112 0 0 0 -541.93707686541029 30.577511147480436 254.14363954668795 0 254.14363954668795 -2212.9148194901463 0 0 0 -545.5843270856667 11.469020874687885 96.810282713250672 0 96.810282713250672 -2479.2733455236103 0 0 0 -616.95108116223037 -1.3212647983891657 60.467938975023571 0 60.467938975023571 -2417.5086124101372 0 0 0 -604.70746930213227 26.034929344646116 85.854034440218129 0 85.854034440218129 -2729.0698039079252 0 0 0 -675.75871864082001 29.587077111007602 101.64949599450301 0 101.64949599450301 -2475.7548114372039 0 0 0 -611.54193358154953 50.902496587006681 158.76148110359918 0 158.76148110359918 -2612.0821749366951 0 0 0 -640.29491958742346 -35.591532844920721 159.56517628791153 0 159.56517628791153 -2290.7659997312003 0 0 0 -581.58938314402963 -12.649780531814031 162.15971524968222 0 162.15971524968222 -2481.0825859241522 0 0 0 -623.43309161399156 -5.5361792143576167 39.389837178779089 0 39.389837178779089 -2964.2659727242026 0 0 0 -742.45053798464141 -4.1771051719042589 50.367066422959851 0 50.367066422959851 -2632.9688407582362 0 0 0 -659.28648648253511 37.130749617834958 92.057816779606583 0 92.057816779606583 -3053.051715149611 0 0 0 -753.98024138294318 18.127136914274161 0.41316481902140367 0 0.41316481902140367 -2766.5630852624163 0 0 0 -687.10898708703644 86.015207063192065 130.91399012246438 0 130.91399012246438 -2654.2325045449033 0 0 0 -642.05432437042691 45.465130396926725 222.98899251873081 0 222.98899251873081 -2366.9189740849415 0 0 0 -580.36346092200347 122.3503448925826 156.71752016425125 0 156.71752016425125 -2281.5738086646679 0 0 0 -539.80586594302213 22.159781997543178 74.274146712940365 0 74.274146712940365 -2385.9431022060162 0 0 0 -590.94583005211825 163.68632353306566 199.27053998744304 0 199.27053998744304 -2270.3328535490473 0 0 0 -526.66163250399586 51.10974484891176 153.1710168421223 0 153.1710168421223 -2058.610521307517 0 0 0 -501.875194114652 153.77481277158768 -21.820804675238833 0 -21.820804675238833 -2206.6204565621156 0 0 0 -513.21141094763152 107.39781097330706 -140.33639631803408 0 -140.33639631803408 -2343.6178759297618 0 0 0 -559.05501623911186 148.21322246732325 75.500162158070452 0 75.500162158070452 -2400.1587647305169 0 0 0 -562.98638556579681 46.015845648834329 -46.292260778020136 0 -46.292260778020136 -2628.8930497722904 0 0 0 -645.71930103086106 49.933343673446871 23.437905292987125 0 23.437905292987125 -3250.3162093826286 0 0 0 -800.09571642729497 51.944089120948775 -58.585324092113751 0 -58.585324092113751 -3132.9532070023379 0 0 0 -770.25227947034728 49.470777006193202 82.042886515935606 0 82.042886515935606 -2772.291061024107 0 0 0 -680.70507100447776 56.495120168083304 -110.36940493096245 0 -110.36940493096245 -3048.0655298119818 0 0 0 -747.89260241097509 204.72223623295042 -114.10227709712126 0 -114.10227709712126 -2601.0791738088697 0 0 0 -599.08923439397938 0.77247122473818308 -28.790769266147436 0 -28.790769266147436 -2655.0216808724617 0 0 0 -663.56230241193225 34.205687773079262 -158.61969147780928 0 -158.61969147780928 -2754.287031441876 0 0 0 -680.02033591719919 5.7888367562700296 -123.71596548810885 0 -123.71596548810885 -2515.0634998410314 0 0 0 -627.31866577119217 18.227606369127898 -197.3244501158897 0 -197.3244501158897 -2255.6412731064192 0 0 0 -559.35341668432375 62.778367144233926 -385.36008768722149 0 -385.36008768722149 -2116.4281302023082 0 0 0 -513.41244076451949 335.78841390798152 -482.15053291571348 0 -482.15053291571348 -2079.0910006841368 0 0 0 -435.82564669403837 210.98850007310023 -307.68667142912454 0 -307.68667142912454 -2418.9886828981585 0 0 0 -552.00004570626595 164.12246441393654 -513.13298640468383 0 -513.13298640468383 -1959.1232796780932 0 0 0 -448.75020381603827 76.805474670307376 -168.42528012575258 0 -168.42528012575258 -2298.2660270550841 0 0 0 -555.36513809619282 234.7471388051149 -283.62089576595645 0 -283.62089576595645 -2154.4792030719909 0 0 0 -479.93301606671912 261.78370588533107 -43.906007693241918 0 -43.906007693241918 -2203.2123596088077 0 0 0 -485.35716343087188 493.11663326004464 -235.21007548711623 0 -235.21007548711623 -2055.5223128493999 0 0 0 -390.60141989733938 301.08027622469854 -111.3443104337648 0 -111.3443104337648 -1894.0157344791951 0 0 0 -398.23386456362459 652.25906981636672 -138.34468642594129 0 -138.34468642594129 -1772.8594617960825 0 0 0 -280.15009799492782 312.29549822600529 -398.80868177469802 0 -398.80868177469802 -1912.9033176645498 0 0 0 -400.15195485963523 318.4720928614388 -587.63708843777385 0 -587.63708843777385 -1816.2861345074125 0 0 0 -374.45351041149297 416.18717059115352 -522.83999090669931 0 -522.83999090669931 -2010.3115673391258 0 0 0 -398.53109918699283 569.66427668527149 -373.66562733558021 0 -373.66562733558021 -1824.8177777903447 0 0 0 -313.78837527626774 376.19976668495519 -639.43002725159022 0 -639.43002725159022 -1831.8755989692581 0 0 0 -363.91895807107676 550.91400198483461 -678.1371048451656 0 -678.1371048451656 -1769.1245706663867 0 0 0 -304.55264217038712 898.37142270289678 -667.71393700895669 0 -667.71393700895669 -1657.0776563743348 0 0 0 -189.67655841786018 639.15293937656588 -472.33946108450573 0 -472.33946108450573 -1692.8261792953163 0 0 0 -263.41830997968646 1239.8474821729169 -405.34209794573871 0 -405.34209794573871 -1497.0590325509593 0 0 0 -64.302887594510082 1020.555937568136 -814.08576842890943 0 -814.08576842890943 -1465.9345509684154 0 0 0 -111.34465335007096 800.91326657842183 -683.38281825201557 0 -683.38281825201557 -1548.4448388934397 0 0 0 -186.88289307875402 664.27166716518786 -93.208798002093431 0 -93.208798002093431 -1657.3552062974122 0 0 0 -248.27088478305632 775.33301692909845 -446.64960477949626 0 -446.64960477949626 -1698.3821983870421 0 0 0 -230.76229536448773 861.12392271526323 -126.60688051474244 0 -126.60688051474244 -1589.2556314965932 0 0 0 -182.03292719533101 1301.6590006787301 14.685980749974078 0 14.685980749974078 -1343.5110281593352 0 0 0 -10.46300687015173 750.38562502689547 194.25234181004453 0 194.25234181004453 -1360.4061022919595 0 0 0 -152.50511931626716 897.19476218861973 128.91914849673685 0 128.91914849673685 -1257.6343809342216 0 0 0 -90.10990468639875 602.95358791168337 91.736516856872186 0 91.736516856872186 -1559.0773120461163 0 0 0 -239.03093103360879 539.7125362022025 353.57479522131052 0 353.57479522131052 -1392.8628872392437 0 0 0 -213.28758775925962 673.77594825615142 409.06982995603221 0 409.06982995603221 -1069.679782714571 0 0 0 -98.975958614605588 485.0700972627244 286.29956041083278 0 286.29956041083278 -1305.6045201314246 0 0 0 -205.13360571717499 385.58295511773849 503.65673982567705 0 503.65673982567705 -1018.042763657937 0 0 0 -158.11495213504986 160.27720001181285 391.84563449990401 0 391.84563449990401 -1350.9871573866496 0 0 0 -297.67748934370877 219.77152893630591 386.91113527505672 0 386.91113527505672 -1330.4327847291661 0 0 0 -277.66531394821413 257.08685108198642 217.71969640639009 0 217.71969640639009 -1591.1906735811899 0 0 0 -333.5259556248011 370.49370021400773 338.15425494029705 0 338.15425494029705 -1609.7848407729307 0 0 0 -309.82278513973142 102.57483168912768 196.6339905803199 0 196.6339905803199 -1814.4545854668904 0 0 0 -427.96993844444114 342.94847975357493 251.2617217065399 0 251.2617217065399 -1937.6042336906717 0 0 0 -398.66393848427401 142.21133381568961 108.5061535726295 0 108.5061535726295 -1865.5258825302444 0 0 0 -430.82863717863893 345.18408082823589 94.115240475561222 0 94.115240475561222 -2057.6991777995026 0 0 0 -428.1287742428176 343.89848424060801 -143.73143667988006 0 -143.73143667988006 -2024.4478756940025 0 0 0 -420.13734786334953 376.99666830778733 136.84984700448058 0 136.84984700448058 -1652.794711236962 0 0 0 -318.94951073229458 528.82015614227339 138.82928325967441 0 138.82928325967441 -1754.7699542867995 0 0 0 -306.48744953613141 -546.23279646638548 -218.96548188102679 0 -218.96548188102679 -1105.1996261333352 0 0 0 -412.85810564993153 -253.82285603749187 -330.45614656508701 0 -330.45614656508701 -1245.3861854981151 0 0 0 -374.80226038390174 -152.41938797025978 -124.44381636427534 0 -124.44381636427534 -1087.5176500703164 0 0 0 -309.98425951014542 -203.36528001722877 -140.72122806025254 0 -140.72122806025254 -979.48467057671542 0 0 0 -295.7124876484861 -17.000902974110431 -13.684307530951628 0 -13.684307530951628 -1024.0337390282075 0 0 0 -260.25866050057994 -12.894730382045964 -15.915793670146332 0 -15.915793670146332 -1019.2317101739609 0 0 0 -258.03161013900171 -18.967955376934697 -16.163370966522052 0 -16.163370966522052 -1012.9350961431628 0 0 0 -257.97576288002165 -22.460428430062166 -14.232503355413428 0 -14.232503355413428 -1017.1832128862734 0 0 0 -259.91091032908298 -79.71083113496752 -146.8224844110033 0 -146.8224844110033 -1226.9925016996858 0 0 0 -326.67583320866106 -113.21716531851689 -286.54840171145042 0 -286.54840171145042 -1175.573700817622 0 0 0 -322.19771653403859 18.740439836734367 -108.28845614480633 0 -108.28845614480633 -1162.8648163098769 0 0 0 -286.03109411828518 -104.12509664501522 -200.88671232795679 0 -200.88671232795679 -1508.7765664945109 0 0 0 -403.22541578488199 -138.0615997171808 -372.5441367363037 0 -372.5441367363037 -1556.5066454244952 0 0 0 -423.64206128541991 -98.16140716769678 -563.03215073061619 0 -563.03215073061619 -1375.0006378414 0 0 0 -368.29051125227033 -224.36867843809523 -443.97944236207877 0 -443.97944236207877 -1103.2844038798685 0 0 0 -331.91327057949093 -673.15284456447353 -527.59077980666734 0 -527.59077980666734 -1277.4712204249117 0 0 0 -487.65601624734791 -94.388500182781172 -720.87718292474347 0 -720.87718292474347 -1282.8285380093439 0 0 0 -344.30425954802831 -403.56353067557939 -615.00773714187517 0 -615.00773714187517 -1466.1852543304703 0 0 0 -467.43719625151425 -157.75594235324138 -735.24033073983446 0 -735.24033073983446 -1553.5830527744324 0 0 0 -427.83474878191669 -91.763443503641611 -629.53141539709668 0 -629.53141539709668 -1797.1649954606037 0 0 0 -472.23210974106041 -49.137970112674566 -625.84454180899229 0 -625.84454180899229 -1502.9338628062178 0 0 0 -388.01795822971985 -118.08939821012245 -289.01604647056683 0 -289.01604647056683 -1901.7078977731435 0 0 0 -504.94932399581376 45.418022290135923 -267.10242725227727 0 -267.10242725227727 -1389.0905445411991 0 0 0 -335.91813056276624 34.551720736275456 -235.85185050176915 0 -235.85185050176915 -1870.1607679971276 0 0 0 -458.9022618152103 47.439188625494353 -442.50863887001651 0 -442.50863887001651 -1598.0479480957802 0 0 0 -387.652189867571 -39.356768392713775 -422.96844897315532 0 -422.96844897315532 -2081.580494886829 0 0 0 -530.23431581988712 -12.469029168236375 -215.10759434576721 0 -215.10759434576721 -2000.3035173633325 0 0 0 -503.1931366328954 23.235738564769004 -206.6175203724888 0 -206.6175203724888 -2386.3450818022066 0 0 0 -590.77733580935751 111.95880653332574 -383.69366701406398 0 -383.69366701406398 -2283.9044040379622 0 0 0 -542.98639937615803 90.760171637852181 -499.21934052023698 0 -499.21934052023698 -1866.2374850485066 0 0 0 -443.86932835266452 155.18972883535844 -732.51427008157043 0 -732.51427008157043 -1614.0548010247294 0 0 0 -364.71626804734387 63.41559703226585 -635.48867118854287 0 -635.48867118854287 -1940.8656774331903 0 0 0 -469.36252010023463 206.91020154813123 -706.55413778519539 0 -706.55413778519539 -1807.2612777885661 0 0 0 -400.08776906010644 434.62669720179451 -797.35158648902143 0 -797.35158648902143 -1764.7804783983711 0 0 0 -332.53844529914591 121.42484718143714 -889.85242485255912 0 -889.85242485255912 -1682.6063709942646 0 0 0 -390.29538095321004 426.56701238348705 -846.91637022897794 0 -846.91637022897794 -1662.7459434692173 0 0 0 -309.04473277143279 264.67814010447751 -1038.2638932480986 0 -1038.2638932480986 -1453.0517375580157 0 0 0 -297.09339936338597 86.545402706249433 -1061.4299977788651 0 -1061.4299977788651 -1518.3976537621629 0 0 0 -357.96306276398013 529.42594436427862 -914.99809930039328 0 -914.99809930039328 -1554.6916418890178 0 0 0 -256.31642438118342 138.08386797604089 -1054.2949642169515 0 -1054.2949642169515 -1361.1614869185178 0 0 0 -305.76940473562081 251.91099218538329 -1226.447637795658 0 -1226.447637795658 -1276.2089622602834 0 0 0 -256.07449251872458 -365.66911521339625 -1099.7333227761374 0 -1099.7333227761374 -1492.3834934376882 0 0 0 -464.51315216276907 -235.50926261854693 -986.64463659252033 0 -986.64463659252033 -1505.8800769006975 0 0 0 -435.3473348798143 -241.04914680363254 -884.6623761436008 0 -884.6623761436008 -1297.3172668705811 0 0 0 -384.59160341855204 167.80105733845994 -915.21428418349933 0 -915.21428418349933 -1530.2271558475659 0 0 0 -340.60652462727921 -92.799854466015859 -781.45467815672964 0 -781.45467815672964 -1653.7314045582971 0 0 0 -436.6328147560771 -447.09557910273361 -798.38717904652549 0 -798.38717904652549 -1433.95541609664 0 0 0 -470.26274879984339 -258.38526292167444 -664.24236310607739 0 -664.24236310607739 -1045.5619365920793 0 0 0 -325.9867998784357 -755.81765678596639 -751.0840679426592 0 -751.0840679426592 -1236.1638874251075 0 0 0 -497.99538605277303 -448.64578288137272 -934.13296668740077 0 -934.13296668740077 -1153.7894262207701 0 0 0 -400.60880227553935 -879.78315974756879 -957.81082786623028 0 -957.81082786623028 -1295.0866088993316 0 0 0 -543.71744216172374 -330.3305265532772 -1169.1509616024741 0 -1169.1509616024741 -1182.190316868222 0 0 0 -378.13021085537457 -742.58286364530977 -883.29335396934539 0 -883.29335396934539 -976.58923082477122 0 0 0 -429.79302361751979 -1363.2570504870964 -694.03391041932991 0 -694.03391041932991 -1260.8004068816699 0 0 0 -656.01436434219431 -1770.1991891690327 -866.71072040804302 0 -866.71072040804302 -1190.3224141356704 0 0 0 -740.13040082617454 -1803.0957038082825 -388.49870802759233 0 -388.49870802759233 -1061.2936613698257 0 0 0 -716.09734129452863 -1148.2221446204039 -336.30545008078661 0 -336.30545008078661 -1021.6455092473989 0 0 0 -542.46691346695115 -1010.4110170083559 -316.44719933075612 0 -316.44719933075612 -1019.6409473862823 0 0 0 -507.51299109865886 -570.9145885813291 -621.86401697829751 0 -621.86401697829751 -1007.3137821001164 0 0 0 -394.55709267036082 -1045.2820341932929 -369.79373004826266 0 -369.79373004826266 -1177.4886495190585 0 0 0 -555.69267092808695 -361.55167491488646 -302.126420550901 0 -302.126420550901 -963.06823161338252 0 0 0 -331.15497663206588 -2997.8216224630864 -441.97817491557635 0 -441.97817491557635 -843.2263195651185 0 0 0 -960.26198550704567 -4683.8827712558905 -235.09437239799774 0 -235.09437239799774 -1041.8782595931623 0 0 0 -1431.4402577122614 -2622.0679290214102 -956.02804401063963 0 -956.02804401063963 -820.4270838151424 0 0 0 -860.6237532091327 -3040.3589248638928 -547.739229265532 0 -547.739229265532 -1059.3199308709313 0 0 0 -1024.919713933712 -3553.0668490583303 -388.62342551221627 0 -388.62342551221627 -952.21497112800898 0 0 0 -1126.3204550465884 -2603.5761552389104 -417.81220007094942 0 -417.81220007094942 -1023.0676058667013 0 0 0 -906.66094027640611 -1553.4969658409668 -432.1905235955619 0 -432.1905235955619 -973.70380977519198 0 0 0 -631.80019390404277 -2238.55432651609 -418.78492111385367 0 -418.78492111385367 -980.00520622489239 0 0 0 -804.63988318524343 -2079.9278232007719 -1005.6234806551922 0 -1005.6234806551922 -975.49153037223732 0 0 0 -763.85483839324752 -1127.451535930074 -1157.7562327367623 0 -1157.7562327367623 -1069.0936720425434 0 0 0 -549.13630199315321 -1065.3620762417504 -995.92843617256494 0 -995.92843617256494 -1045.9622300854735 0 0 0 -527.83107658180779 -660.96826137059452 -1125.9374386852196 0 -1125.9374386852196 -1301.2115685915487 0 0 0 -490.54495749053513 -1191.4453985825194 -1392.1604123548491 0 -1392.1604123548491 -832.15145913016022 0 0 0 -505.89921442816831 -1816.0108497453648 -867.08342751656301 0 -867.08342751656301 -1024.220634955228 0 0 0 -710.05787117515047 -1627.7462258409062 -892.48592408246259 0 -892.48592408246259 -938.74538650733018 0 0 0 -641.62290308705929 -74.290656650272808 -1320.5543394804088 0 -1320.5543394804088 -840.89295450589407 0 0 0 -228.7959027890405 31.692122142037874 -1243.2037420019537 0 -1243.2037420019537 -554.3555846412969 0 0 0 -130.66586562481473 634.32487441619605 -1425.9350863818304 0 -1425.9350863818304 -997.57806953176168 0 0 0 -90.813298778893568 -1013.2295132304353 -1214.9350530910285 0 -1214.9350530910285 -911.12771188981606 0 0 0 -481.08930628006146 -182.75373689230491 -1361.4130307116693 0 -1361.4130307116693 -997.38903680245312 0 0 0 -295.03569342368883 -778.55676472878622 -1348.4672810431712 0 -1348.4672810431712 -1151.6476774730545 0 0 0 -482.55111055045745 -175.28710580501684 -1371.3619126566382 0 -1371.3619126566382 -1248.9380728189572 0 0 0 -356.05629465599304 -100.69618607158191 -1201.0132631092154 0 -1201.0132631092154 -1274.6565166795008 0 0 0 -343.83817568777158 439.62524240422954 -1349.9412672703725 0 -1349.9412672703725 -1164.5266057606332 0 0 0 -181.22534083909977 -209.71559255930515 -1263.4413585458524 0 -1263.4413585458524 -1138.9641926537952 0 0 0 -337.16994630327281 432.27349802592835 -1116.4417119006221 0 -1116.4417119006221 -1306.1459046874079 0 0 0 -218.46810166537034 1073.4380342495442 -1259.985501449512 0 -1259.985501449512 -1208.0525783638168 0 0 0 -33.653636028571782 700.68722419458118 -1170.8840169228547 0 -1170.8840169228547 -1355.5293921160901 0 0 0 -163.71054198037655 1220.0721494147806 -991.50620988172159 0 -991.50620988172159 -1341.5752280943416 0 0 0 -30.375769669889905 682.41262374515736 -886.42421825528936 0 -886.42421825528936 -1483.4099658164305 0 0 0 -200.24933551781942 1090.1572843453141 -891.64434752833995 0 -891.64434752833995 -1178.4099948609437 0 0 0 -22.063177628906487 1716.8001542548548 -1061.0685166477056 0 -1061.0685166477056 -1047.6679850323844 0 0 0 167.28304230561776 661.69194318225618 -1161.0585837377498 0 -1161.0585837377498 -963.06932451792454 0 0 0 -75.344345333917772 1570.0834962236988 -1319.1211935342849 0 -1319.1211935342849 -829.05207432300085 0 0 0 185.25785547517467 1479.5194506871439 -872.03852030397752 0 -872.03852030397752 -709.37268150712771 0 0 0 192.53669229500474 2249.2440551493401 -743.87830253895686 0 -743.87830253895686 -76.106711166732794 0 0 0 543.28433599565278 2410.4905753605653 -1095.0480206736902 0 -1095.0480206736902 -390.49118552596747 0 0 0 504.99984745864919 1059.3213717420629 -1133.4699628634198 0 -1133.4699628634198 -369.31622207590317 0 0 0 172.50128741654021 603.45327649680348 -1485.4630213616088 0 -1485.4630213616088 -356.80776044972345 0 0 0 61.661379011767167 1673.2136169457583 -1489.1772544104449 0 -1489.1772544104449 650.39863176051995 0 0 0 580.90306217656871 2257.329402978894 -1105.0370725996668 0 -1105.0370725996668 2216.8770756503627 0 0 0 1118.5516196573144 2549.592784985221 -115.55606460924355 0 -115.55606460924355 1726.9221746233211 0 0 0 1069.1287399021362 1868.8866322954145 -344.54407530724575 0 -344.54407530724575 2797.8154603071125 0 0 0 1166.6755231506322 1458.7545516799564 -452.17786862255343 0 -452.17786862255343 1422.6938943329915 0 0 0 720.3621115032347 937.13235436598416 -1160.4762029062438 0 -1160.4762029062438 750.29520299051546 0 0 0 421.85688933912434 1531.4592624989989 -713.66102667882251 0 -713.66102667882251 641.85601928112806 0 0 0 543.32882044503174 264.234869751426 -55.9661743612387 0 -55.9661743612387 999.78037641792889 0 0 0 316.00381154233924 -306.64140757441419 -519.23381976100791 0 -519.23381976100791 348.43469933042797 0 0 0 10.448322939002537 -1159.0573115678467 -230.49081453257804 0 -230.49081453257804 505.94142643022769 0 0 0 -163.27897128440372 -331.89860452589437 -1067.6318730567571 0 -1067.6318730567571 -406.44747258419102 0 0 0 -184.58651927751998 -1218.2115956474236 -787.89303665070224 0 -787.89303665070224 -459.33941783297098 0 0 0 -419.38775337009508 -8.6846502517830686 -969.98426806380076 0 -969.98426806380076 589.02847622542595 0 0 0 145.08595649340975 -961.70416931183513 -1367.9037521807236 0 -1367.9037521807236 -309.38662268092185 0 0 0 -317.77269799818862 -1975.6655334723425 -1101.0851439075709 0 -1101.0851439075709 -668.6592141634469 0 0 0 -661.0811869089473 -2464.6179475060017 -604.06543491191519 0 -604.06543491191519 -796.27489423860743 0 0 0 -815.22321043615023 -1505.8087633010557 -1113.8208920826353 0 -1113.8208920826353 -315.63165689666675 0 0 0 -455.36010504943192 -2392.5663192807933 -274.37327712532988 0 -274.37327712532988 -418.91220868172354 0 0 0 -702.86963199062825 -1560.3503400154718 -417.89490555481643 0 -417.89490555481643 -652.6397034086458 0 0 0 -553.24751085602838 -3431.796588400829 210.26350241235923 0 210.26350241235923 -754.4775886334553 0 0 0 -1046.5685442585702 -2590.0743623826356 -294.34802329339573 0 -294.34802329339573 -2.639192811686371 0 0 0 -648.17838879857754 -2555.6345754034583 -549.404422087331 0 -549.404422087331 -599.85128703988266 0 0 0 -788.87146561083773 -3793.8336036490518 -197.73863548941938 0 -197.73863548941938 -785.99543916337279 0 0 0 -1144.9572607031048 -3804.8238139275027 -232.00453883024966 0 -232.00453883024966 -816.71780135199515 0 0 0 -1155.3854038198742 -5743.2708715542831 -121.51000705270508 0 -121.51000705270508 -851.79890964145488 0 0 0 -1648.7674452989327 -3891.3874156183783 -308.590419536279 0 -308.590419536279 -906.05770216098767 0 0 0 -1199.3612794448425 -5406.1825875670429 -382.80232021539609 0 -382.80232021539609 -878.04257140936602 0 0 0 -1571.0562897441005 -3993.7852590072434 -210.39807464678529 0 -210.39807464678529 -1107.2686754115848 0 0 0 -1275.2634836047043 -2870.4456039466431 -843.61880983028323 0 -843.61880983028323 -726.57472126063067 0 0 0 -899.25508130181765 -3298.8754488333134 -683.62942096900133 0 -683.62942096900133 -797.77790314347862 0 0 0 -1024.1633379941966 1292.409205580673 660.94602375602585 0 660.94602375602585 -339.60560448206797 0 0 0 238.20090027465108 1307.270583354132 653.94381861052898 0 653.94381861052898 -253.08306178720159 0 0 0 263.54688039173266 1626.8622301621747 704.52029135543478 0 704.52029135543478 -150.16119461457248 0 0 0 369.17525888690045 852.92412660222192 706.83382081022751 0 706.83382081022751 67.642409999537449 0 0 0 230.1416341504397 385.25115341380877 665.59814994982469 0 665.59814994982469 303.67101498579314 0 0 0 172.23054209990039 724.67677736861936 649.62807662962962 0 649.62807662962962 -259.7895533896417 0 0 0 116.22180599474427 231.22990304387997 589.51758802666109 0 589.51758802666109 -73.694369500078778 0 0 0 39.383883385950298 779.37574026603772 704.79318368908616 0 704.79318368908616 -239.51786172163608 0 0 0 134.96446963610077 426.0538762382248 513.13547392343798 0 513.13547392343798 -658.62684624355188 0 0 0 -58.143242501331315 329.84114046789614 658.71348671737042 0 658.71348671737042 -310.50532685110329 0 0 0 4.8339534041986099 297.99017145161633 433.86491883557164 0 433.86491883557164 -1002.3861742469016 0 0 0 -176.09900069882133 530.50450808661026 593.80901547672511 0 593.80901547672511 -655.59154112926171 0 0 0 -31.271758260662409 741.55499648419936 401.12469260547982 0 401.12469260547982 -1045.9151968894585 0 0 0 -76.090050101315683 825.87928859746103 470.65610569809905 0 470.65610569809905 -646.05554877212398 0 0 0 44.955934956333749 1007.9745020513847 550.69637016664001 0 550.69637016664001 -747.06079447944649 0 0 0 65.228426892984317 1207.0322573098838 213.53205254249679 0 213.53205254249679 -1103.2355680360743 0 0 0 25.949172318452383 897.23694303789398 178.16514016356632 0 178.16514016356632 -1172.1394955164005 0 0 0 -68.725638119626637 973.76963076109587 -302.59197302667781 0 -302.59197302667781 -1472.7018948452878 0 0 0 -124.73306602104731 1486.3228641652927 -146.67596624781163 0 -146.67596624781163 -1158.4896447454294 0 0 0 81.958304854966173 1564.0674282257614 -142.05431760014017 0 -142.05431760014017 -1195.2574379637467 0 0 0 92.202497565504814 1453.229136228249 348.00159123842923 0 348.00159123842923 -824.15161895025813 0 0 0 157.26937931949897 1272.1992116307638 -595.73773906158294 0 -595.73773906158294 -1361.21413366856 0 0 0 -22.253730509449269 1440.5407165184297 -650.27360322100003 0 -650.27360322100003 -1300.3801296939546 0 0 0 35.040146706119231 1858.2229948447061 -433.32882342401422 0 -433.32882342401422 -989.8401931042672 0 0 0 217.09570043511064 1985.2376493086049 -502.44234225917785 0 -502.44234225917785 -835.90885322576651 0 0 0 287.33219902070869 2593.5067218746749 -160.83953926454103 0 -160.83953926454103 -428.12145051304213 0 0 0 541.34631784040721 1842.9590808822049 352.71412061475939 0 352.71412061475939 -705.63880219849682 0 0 0 284.33006967092717 2312.3810086096751 69.805661174404236 0 69.805661174404236 -792.11276867720153 0 0 0 380.06705998311827 1747.1105179677877 298.67047094075474 0 298.67047094075474 -565.53295626033741 0 0 0 295.39439042686286 2501.4943880960718 412.21958674045197 0 412.21958674045197 -372.98737797714193 0 0 0 532.12675252973224 1919.2774080371166 861.96758056891611 0 861.96758056891611 478.0447860096566 0 0 0 599.33054851169345 3312.9048353524267 789.11332082528929 0 789.11332082528929 327.64206227576233 0 0 0 910.13672440704715 2563.8798037300839 824.1538251394918 0 824.1538251394918 1202.5822622328465 0 0 0 941.61551649073294 1806.1560963330664 1090.2142521026715 0 1090.2142521026715 1542.5499645293362 0 0 0 837.17651521560106 2380.6060566708497 785.76218941040952 0 785.76218941040952 633.77190941856179 0 0 0 753.59449152235277 3224.3124277040388 -414.05584768392907 0 -414.05584768392907 0.053120695845791488 0 0 0 806.09138709997103 3404.43859155785 -63.571556915411293 0 -63.571556915411293 762.95417396758376 0 0 0 1041.8481913813582 3649.5923724291988 -1150.7084096126919 0 -1150.7084096126919 578.67808035395001 0 0 0 1057.0676131957869 6136.7697457030317 -630.06186485174294 0 -630.06186485174294 1857.5604105969251 0 0 0 1998.5825390749899 3956.9000254750931 -562.65306302485897 0 -562.65306302485897 5844.7087712881821 0 0 0 2450.4021991908189 5676.3495825561313 2502.2155142200841 0 2502.2155142200841 3827.9426989386675 0 0 0 2376.0730703736999 2699.3775728789847 1659.3310210536376 0 1659.3310210536376 3368.6540097569059 0 0 0 1517.0078956589728 1155.2086012812013 795.83870131773324 0 795.83870131773324 1392.2308978244391 0 0 0 636.85987477641038 2723.8456305290892 945.40004802180692 0 945.40004802180692 1293.3800915948173 0 0 0 1004.3064305309761 1228.2786146790727 -232.58565969411211 0 -232.58565969411211 3946.1479696363831 0 0 0 1293.6066460788643 816.18089223441507 -167.0328689967381 0 -167.0328689967381 2178.0739685768895 0 0 0 748.56371520282642 647.28166968284859 -291.2291658490758 0 -291.2291658490758 2118.4246799592506 0 0 0 691.42658741052492 1252.0685350952817 917.80742493691241 0 917.80742493691241 1988.3746903542383 0 0 0 810.11080636237989 1295.0292746218577 779.10424969815085 0 779.10424969815085 584.22953288703286 0 0 0 469.81470187722243 873.96038482330084 717.18608905504527 0 717.18608905504527 1575.3922201117571 0 0 0 612.33815123376451 497.84319348505278 492.35681261785095 0 492.35681261785095 708.01589745136994 0 0 0 301.46477273410551 700.7903389697392 748.72829375560445 0 748.72829375560445 1049.9105155382613 0 0 0 437.67521362699995 958.51135522227651 713.80522170603354 0 713.80522170603354 95.127353967883636 0 0 0 263.40967729754038 1245.8067029174845 899.81230005972122 0 899.81230005972122 676.64356798303527 0 0 0 480.61256772512991 336.73504942645684 557.22517830133859 0 557.22517830133859 226.69818254802468 0 0 0 140.85830799362029 209.63807673158539 577.52547828909405 0 577.52547828909405 843.66487046634666 0 0 0 263.32573679948308 311.43188438508162 -297.39699358469943 0 -297.39699358469943 1070.6314512129652 0 0 0 345.51583389951168 -7.2107887050300974 159.16227065832103 0 159.16227065832103 1002.3635311519043 0 0 0 248.78818561171886 -26.970007042589742 214.73675150295753 0 214.73675150295753 599.37841016377456 0 0 0 143.10210078029624 397.54112617598287 432.03622430276369 0 432.03622430276369 1571.3360062317938 0 0 0 492.21928310194392 34.127154523520808 -280.86384186727855 0 -280.86384186727855 592.96301095043657 0 0 0 156.77254136848927 119.91376796170738 -203.24809453777206 0 -203.24809453777206 607.02830148841088 0 0 0 181.73551736252949 509.67996378528858 -714.86779491198877 0 -714.86779491198877 709.55956465638928 0 0 0 304.80988211041938 405.90398793393331 -619.37506946600377 0 -619.37506946600377 196.65090926130847 0 0 0 150.6387242988103 44.029581821568627 -442.14890572944489 0 -442.14890572944489 24.255814908600996 0 0 0 17.071349182542804 517.07557198893551 -760.85011891399608 0 -760.85011891399608 144.69077547705993 0 0 0 165.4415868664986 549.41902311197418 -743.71277434445744 0 -743.71277434445744 242.58564505589652 0 0 0 198.00116704196762 194.00585564299899 -564.49463972113767 0 -564.49463972113767 -338.20047547887816 0 0 0 -36.048654958969792 1380.0503179276047 -543.63314020268524 0 -543.63314020268524 -408.06624202588409 0 0 0 242.99601897543016 971.41355769160964 -627.80446173618566 0 -627.80446173618566 -366.43487676988525 0 0 0 151.2446702304311 1017.5674636432543 -697.42925032996436 0 -697.42925032996436 -367.70443966588255 0 0 0 162.465755994343 1677.6456496059677 -1062.0416063893297 0 -1062.0416063893297 356.61429924976574 0 0 0 508.56498721393348 451.79954733302077 -223.71102205602563 0 -223.71102205602563 1382.9506710946389 0 0 0 458.687554606915 882.42438434497012 -704.87033351169794 0 -704.87033351169794 856.8128292548181 0 0 0 434.80930339994723 780.44628351377958 -851.94814154758797 0 -851.94814154758797 881.55257306499561 0 0 0 415.49971414469371 1147.4687208286084 -955.4917147343815 0 -955.4917147343815 1673.266019311935 0 0 0 705.18368503513602 1035.6975449527238 -652.06458437345054 0 -652.06458437345054 2374.1238450596611 0 0 0 852.45534750309616 1486.3919957609278 -760.6081363817932 0 -760.6081363817932 2565.8934742203328 0 0 0 1013.0713674953153 2438.3901004064046 -49.755649932584106 0 -49.755649932584106 7531.5950643271244 0 0 0 2492.4962911833823 1967.1794721122667 -335.07467863993514 0 -335.07467863993514 -684.23416327217524 0 0 0 320.73632721002269 2533.5995448177791 -1422.1142972470329 0 -1422.1142972470329 1177.1769616224508 0 0 0 927.69412661005731 5324.1504468656676 2941.1599550607607 0 2941.1599550607607 4633.9741051637211 0 0 0 2489.5311380073472 2865.3611356865672 -1867.5564418527179 0 -1867.5564418527179 2693.7260097825415 0 0 0 1389.7717863672769 6.3778297423487231 0.76341451342618971 0 0.76341451342618971 6.351298712309811 0 0 0 3.182282113664634 9111.8971189416188 2150.6486894619015 0 2150.6486894619015 779.93621538185107 0 0 0 2472.9583335808675 4705.2946383981052 520.8930943594969 0 520.8930943594969 -84.455268627978512 0 0 0 1155.209842442533 3.0199794583442001 0.62727686495751578 0 0.62727686495751578 12.473913351706697 0 0 0 3.8734732025127245 963.50859325742101 -99.563393046782494 0 -99.563393046782494 102.64722088523831 0 0 0 266.53895353566486 5657.7596280085199 798.08129499046481 0 798.08129499046481 -47.48225273584012 0 0 0 1402.5693438181713 6.8846890023073435 1.4346961596207064 0 1.4346961596207064 19.7626143004615 0 0 0 6.6618258256922109 930.78891034504204 -2.5690729123434721 0 -2.5690729123434721 -127.90351753312189 0 0 0 200.72134820298015 3857.9351467638953 697.06560403311232 0 697.06560403311232 -335.31536185315053 0 0 0 880.65494622768892 1391.7396503060947 -567.98790424545587 0 -567.98790424545587 -481.99215364509473 0 0 0 227.43687416525017 1442.8163567126846 8.9007569734994831 0 8.9007569734994831 -276.22913848921962 0 0 0 291.64680455586586 1535.344511072856 -418.02083016221764 0 -418.02083016221764 -188.51944820338758 0 0 0 336.70626571736739 1278.3089516806472 -247.39856494584819 0 -247.39856494584819 -505.97295481108995 0 0 0 193.08399921738919 1089.4866104205967 -182.01538755367619 0 -182.01538755367619 -449.24137517958752 0 0 0 160.06130881025206 1236.0445372676186 -13.305696249334346 0 -13.305696249334346 -221.96313244348494 0 0 0 253.52035120603432 1055.4589155238086 -17.728242812404915 0 -17.728242812404915 -217.0321542158772 0 0 0 209.60669032698252 1189.0073786316534 -205.96463074824987 0 -205.96463074824987 -556.97713953499624 0 0 0 158.00755977416384 3645.1342169891286 703.38979022959438 0 703.38979022959438 -421.41179162374465 0 0 0 805.93060634134599 3647.0571606747144 318.09852326469263 0 318.09852326469263 -210.91769180190749 0 0 0 859.03486721819718 5017.1500543040856 362.37363770035518 0 362.37363770035518 -43.791905895224772 0 0 0 1243.3395371022161 8.713627107209799 1.5952290455414131 0 1.5952290455414131 26.418907097389681 0 0 0 8.78313355114987 4089.1229903912299 398.76507320252131 0 398.76507320252131 -247.19833850624855 0 0 0 960.48116297125125 3712.1490951205342 294.93010573333595 0 294.93010573333595 -198.91219254433236 0 0 0 878.30922564405046 2634.3775802395357 514.34128084539407 0 514.34128084539407 -443.55241161565937 0 0 0 547.70629215596637 3528.330199554206 365.80807017229756 0 365.80807017229756 -210.71272923724609 0 0 0 829.40436757922726 1112.5425779371662 -20.294383688586482 0 -20.294383688586482 -183.16770743914822 0 0 0 232.34371762450519 11.163724969815005 1.9217113731819335 0 1.9217113731819335 33.48378333989438 0 0 0 11.161877077427345 2817.9380479748434 314.059863003582 0 314.059863003582 -271.85961274562578 0 0 0 636.51960880731349 1057.5983019106025 -117.36586368250846 0 -117.36586368250846 -535.96523534639164 0 0 0 130.40826664105316 919.26372000189531 -188.82890939372464 0 -188.82890939372464 -646.8529952835288 0 0 0 68.102681179592309 1106.2077766239718 -27.546416427228905 0 -27.546416427228905 -201.31679729103598 0 0 0 226.22274483323463 957.47529833439557 -100.78140123718458 0 -100.78140123718458 -574.81208515953494 0 0 0 95.665803293714816 990.21538796218783 -116.33132921685319 0 -116.33132921685319 -602.75494408129816 0 0 0 96.865110970221849 821.51727799587752 -249.17504189561339 0 -249.17504189561339 -824.49719198335151 0 0 0 -0.74497849686804329 707.4594503643998 -205.80374710352407 0 -205.80374710352407 -899.96490661499774 0 0 0 -48.126364062650737 956.2726690076413 -235.34441897347006 0 -235.34441897347006 -777.40976357078534 0 0 0 44.715726359214216 771.7612140930546 -487.67255365442452 0 -487.67255365442452 -700.06126858551033 0 0 0 17.924986376885045 687.70817522211019 -335.20154738152405 0 -335.20154738152405 -784.62368556458023 0 0 0 -24.228877585616829 448.18617187454117 -369.92134484432745 0 -369.92134484432745 -931.68032774741209 0 0 0 -120.87353896821705 478.23819067002751 -408.37903479648321 0 -408.37903479648321 -975.69069711458906 0 0 0 -124.36312661114061 453.88218435398448 -527.8922171858253 0 -527.8922171858253 -749.19303841599958 0 0 0 -73.827713515503547 530.28711787907957 -377.80231012132981 0 -377.80231012132981 -903.46081952368877 0 0 0 -93.293425411152526 602.34806842005628 -463.69100298343346 0 -463.69100298343346 -752.09068867253882 0 0 0 -37.435655063120521 254.01003688550281 -498.96717265224925 0 -498.96717265224925 -763.9645878084475 0 0 0 -127.48863773073617 609.23280677235471 -645.57380797227597 0 -645.57380797227597 -507.01552002594326 0 0 0 25.554321686603089 257.9810073210698 -616.27761098953511 0 -616.27761098953511 -305.38622683863207 0 0 0 -11.851304879390597 777.92033850781627 -563.86008999283558 0 -563.86008999283558 -508.462772287402 0 0 0 67.364391555103794 952.79387264418642 -367.78769604938498 0 -367.78769604938498 -652.61484991047382 0 0 0 75.044755683427184 993.05153859368556 -402.76904343891829 0 -402.76904343891829 -674.36543972138134 0 0 0 79.671524718075943 -3685.5780325186997 180.615128676327 0 180.615128676327 -987.66011153649015 0 0 0 -1168.309536013795 -4640.778783601645 382.37644201251896 0 382.37644201251896 -888.41548368206713 0 0 0 -1382.298566820924 -3157.0210052488437 869.2206817922015 0 869.2206817922015 -631.5972446548476 0 0 0 -947.15456247592374 -5642.8606609223789 298.01582362601403 0 298.01582362601403 -864.25829585510655 0 0 0 -1626.7797391943714 -5430.3360620745152 140.69444938687866 0 140.69444938687866 -790.98972188345579 0 0 0 -1555.3314459894937 -3337.9700316696108 44.513585674788374 0 44.513585674788374 -873.17004853429535 0 0 0 -1052.7850200509711 -3719.6311334525344 359.39722910757609 0 359.39722910757609 -920.62222932557052 0 0 0 -1160.0633406945235 -2643.1107945152544 640.41056785683759 0 640.41056785683759 -319.12006566349737 0 0 0 -740.55771504468794 -1619.4664158730398 531.18949064282606 0 531.18949064282606 -469.02199238242611 0 0 0 -522.12210206387181 -1112.8286185470333 918.97416843952942 0 918.97416843952942 307.47856693654467 0 0 0 -201.33751290262262 -1681.6024458668762 492.39622197216613 0 492.39622197216613 -759.78017549782817 0 0 0 -610.34565534118155 -1556.8698267475993 1154.1431637972601 0 1154.1431637972601 -429.06722826588884 0 0 0 -496.48426375336567 -2393.0088226178777 552.87806974478372 0 552.87806974478372 -872.71676650356676 0 0 0 -816.43139728036476 -1089.7717057388982 826.39163993327929 0 826.39163993327929 -620.43388927273918 0 0 0 -427.55139875290843 1074.1083297977893 1539.0688208799947 0 1539.0688208799947 -315.95285061345203 0 0 0 189.53886979608797 70.568776095853536 982.7585124433981 0 982.7585124433981 -280.47977657761658 0 0 0 -52.477750120444398 1642.4072113394618 1569.7098911056892 0 1569.7098911056892 389.21376464419154 0 0 0 507.90524399591459 -42.276657438595066 1167.1040212541557 0 1167.1040212541557 -439.71568981371092 0 0 0 -120.49808681307513 -1301.3931172309331 219.14040845632735 0 219.14040845632735 -241.06373509865807 0 0 0 -385.61421308240097 -270.83924385462615 865.02616106602818 0 865.02616106602818 659.59765823451016 0 0 0 97.189603594971231 181.00226186706095 496.25069601336145 0 496.25069601336145 513.76263261001441 0 0 0 173.69122361926929 1486.563180352854 1121.1038165929986 0 1121.1038165929986 1550.052029750881 0 0 0 759.15380252593604 1971.0128719367221 1245.4573099019399 0 1245.4573099019399 3092.5675379490895 0 0 0 1265.8951024714534 3250.3874219788295 1460.6438118713068 0 1460.6438118713068 826.11041304951459 0 0 0 1019.1244587570865 3641.7731724860614 1767.5480664559327 0 1767.5480664559327 1049.2323508256532 0 0 0 1172.75138082793 2015.226325687654 922.63021164928432 0 922.63021164928432 -176.79012815652823 0 0 0 459.60904938278327 2844.2716042934157 1468.859782648 0 1468.859782648 -109.678000802307 0 0 0 683.64840087277526 3496.0629852168568 538.99101232010071 0 538.99101232010071 -267.51421368058072 0 0 0 807.13719288406719 1647.7601209934946 957.13398057509039 0 957.13398057509039 -554.06240004306892 0 0 0 273.42443023760279 1675.9701778014096 1318.2437192719044 0 1318.2437192719044 -590.49969909156789 0 0 0 271.36761967746497 2764.6207602761642 889.20064138232192 0 889.20064138232192 -529.71292838464433 0 0 0 558.72695797288179 2601.8587224330731 760.82343753545865 0 760.82343753545865 -539.05572929088521 0 0 0 515.70074828555153 2809.6838685921102 689.89192409909992 0 689.89192409909992 -552.03019012129516 0 0 0 564.41341961771104 2047.6350835535261 903.73644038190832 0 903.73644038190832 -805.91573626635545 0 0 0 310.42983682179272 1533.9534526684238 971.70170351877459 0 971.70170351877459 -810.2111886814746 0 0 0 180.93556599673502 1621.5481760084513 1280.5734264195885 0 1280.5734264195885 -735.62439559263294 0 0 0 221.48094510395458 458.29879501654978 1066.2919024294679 0 1066.2919024294679 -904.56749292170753 0 0 0 -111.5671744762858 517.98464304205436 1241.8673623253926 0 1241.8673623253926 -913.9534606370853 0 0 0 -98.992204398757622 399.05324665048101 1176.3753850167213 0 1176.3753850167213 -876.29600179192494 0 0 0 -119.31068878535007 -643.68826071640069 1265.4187057701311 0 1265.4187057701311 -762.92361904617428 0 0 0 -351.65296994064556 492.94541589286746 1326.4563247268234 0 1326.4563247268234 -744.16934090442373 0 0 0 -62.805981252888159 896.8439338667622 1032.7046583880219 0 1032.7046583880219 -865.36489593701481 0 0 0 7.8697594824288899 -200.69452577900302 1030.7325628101062 0 1030.7325628101062 -720.58777382726112 0 0 0 -230.32057490156876 -605.39863800849162 1346.9032261444991 0 1346.9032261444991 -629.32989247586193 0 0 0 -308.6821326210902 -1412.1236119046989 811.7742921729623 0 811.7742921729623 -924.86929425031121 0 0 0 -584.2482265387589 -1879.5019900448121 1111.7777759188393 0 1111.7777759188393 -756.42219674600346 0 0 0 -658.98104669770214 -1741.9869638268428 752.94929331204457 0 752.94929331204457 -995.49812850108719 0 0 0 -684.37127308199706 -1644.5749401445082 1126.8374733812525 0 1126.8374733812525 -809.40697736398943 0 0 0 -613.49547937712668 -656.02586938702007 1180.3506456646719 0 1180.3506456646719 -984.52912212340743 0 0 0 -410.13874787760142 -527.49556637568821 1310.0570797646869 0 1310.0570797646869 -1145.6307365753491 0 0 0 -418.28157573775025 -1120.9014696789741 1031.7909165358578 0 1031.7909165358578 -908.36384463891443 0 0 0 -507.3163285794721 -1540.3027415892357 831.23789998965367 0 831.23789998965367 -1048.1642686090199 0 0 0 -647.11675254956208 -2060.8131026858391 995.71820217823552 0 995.71820217823552 -914.63041031459579 0 0 0 -743.86087825011782 -2912.7877691313988 390.27181851331261 0 390.27181851331261 -994.30366460046935 0 0 0 -976.77285843295977 -1722.2518066734665 420.06265421523858 0 420.06265421523858 -926.91698221051774 0 0 0 -662.29219722099879 -2394.559776192742 410.34361479813379 0 410.34361479813379 -917.12141655742744 0 0 0 -827.92029818754236 -3972.7307185055997 330.84488603229693 0 330.84488603229693 -969.77148408706125 0 0 0 -1235.6255506481702 -2931.1089386549465 759.49883364330162 0 759.49883364330162 -830.80586431405391 0 0 0 -940.47870074224556 -2891.6359309308464 417.63506717798509 0 417.63506717798509 -1043.2341888241644 0 0 0 -983.7175299387527 -413.51903751130862 404.18826763723337 0 404.18826763723337 -895.1201499112567 0 0 0 -327.15979685564503 -1147.109709525721 375.18958136597939 0 375.18958136597939 -1141.2458428997488 0 0 0 -572.08888810637291 -573.90912956816464 628.94975399747636 0 628.94975399747636 -968.7180077082885 0 0 0 -385.65678431910783 -1329.4950620930758 362.73205545602832 0 362.73205545602832 -943.86752241212525 0 0 0 -568.340646126293 -1351.7849806370104 315.14572040057101 0 315.14572040057101 -1002.0944492919007 0 0 0 -588.46985748222141 -2189.4189871696653 394.49210439214539 0 394.49210439214539 -1002.9792063311615 0 0 0 -798.0995483752049 -1925.9448902912554 720.91150196604394 0 720.91150196604394 -1051.9593918976607 0 0 0 -744.47607054722903 -1455.9345740799326 643.30715883233825 0 643.30715883233825 -1076.2265348593355 0 0 0 -633.04027723480249 -1017.7691095082482 999.56689749102588 0 999.56689749102588 -1065.98366486546 0 0 0 -520.93819359341433 -922.60171151826944 779.77479417956056 0 779.77479417956056 -913.23741047244403 0 0 0 -458.95978049767291 -626.15788627842267 917.43067442696338 0 917.43067442696338 -1049.8637700959807 0 0 0 -419.00541409360449 -274.2312042788617 894.02560640015872 0 894.02560640015872 -996.62261854167446 0 0 0 -317.71345570513949 -238.5162185755471 813.1216612888602 0 813.1216612888602 -1098.6517858750303 0 0 0 -334.29200111263344 -728.32301846814516 891.25450916989939 0 891.25450916989939 -1088.742312310249 0 0 0 -454.26633269459853 -134.33580363694819 778.8990384752251 0 778.8990384752251 -1072.319540340035 0 0 0 -301.66383599425353 405.40703169172048 877.71183452416153 0 877.71183452416153 -1071.2878146497533 0 0 0 -166.47019573950092 363.12378403611365 874.47908476152952 0 874.47908476152952 -1197.6777872856183 0 0 0 -208.63850081237615 889.5501885107733 936.38732581721706 0 936.38732581721706 -1054.7286332506046 0 0 0 -41.294611184966925 -231.80449796469475 1019.5915288923688 0 1019.5915288923688 -1196.2395874706563 0 0 0 -357.01102135883411 -316.86816728742269 1193.5198657521078 0 1193.5198657521078 -1146.7282476459513 0 0 0 -365.89910373333987 342.90172884870299 1028.6446492554751 0 1028.6446492554751 -1081.5476137985243 0 0 0 -184.66147123746305 325.80399214381032 990.20420783675945 0 990.20420783675945 -933.77303417064832 0 0 0 -151.99226050670404 794.95722028596356 1138.6187714995758 0 1138.6187714995758 -1093.1756866650248 0 0 0 -74.55461659476714 358.81067732395604 1007.3048384661379 0 1007.3048384661379 -1051.8404172946175 0 0 0 -173.25743499267264 1420.5141790806738 813.40790030114294 0 813.40790030114294 -863.60158800616045 0 0 0 139.22814776862651 1453.9960706052661 825.44905139904517 0 825.44905139904517 -772.96342294817441 0 0 0 170.25816191427293 1394.4326955665892 1054.0507855213655 0 1054.0507855213655 -903.61085239940439 0 0 0 122.70546079178894 1601.6537632568507 899.12262332519458 0 899.12262332519458 -795.64716158895317 0 0 0 201.50165041697619 2195.2677834344358 483.77918329123349 0 483.77918329123349 -509.08071809928515 0 0 0 421.54676633379131 1474.8668311262591 714.49214331560506 0 714.49214331560506 -920.09720894927159 0 0 0 138.69240554425051 1449.0021827917226 610.5578104612614 0 610.5578104612614 -725.47229654644616 0 0 0 180.88247156131547 911.60754672237817 961.31460372974107 0 961.31460372974107 -1018.7882135084874 0 0 0 -26.795166696523665 917.24640114587419 723.70413842362905 0 723.70413842362905 -1089.1397306613617 0 0 0 -42.973332378873238 1555.9183676270331 443.05996888221853 0 443.05996888221853 -940.98111925050034 0 0 0 153.73431209413684 891.28328585976851 283.58812254572695 0 283.58812254572695 -1284.1710375424882 0 0 0 -98.22193792067992 1319.3918655065499 459.15562472933379 0 459.15562472933379 -1021.6389757250145 0 0 0 74.43822244538751 1010.4845807887032 255.21170690110739 0 255.21170690110739 -1233.2197889843374 0 0 0 -55.683802048908547 1449.5186825119454 23.120610669604503 0 23.120610669604503 -1139.1662487460999 0 0 0 77.588108441457734 1358.1217750320084 143.07186141933198 0 143.07186141933198 -1189.9976569676037 0 0 0 42.031029516119816 1141.9940685597103 -25.55030500034627 0 -25.55030500034627 -1661.1050804755068 0 0 0 -129.7777529789455 654.71928102089441 78.705128752451856 0 78.705128752451856 -1560.8439371183049 0 0 0 -226.53116402431624 386.08134834995144 376.81344026698474 0 376.81344026698474 -1267.3890180612507 0 0 0 -220.32691742782481 267.69522722164402 270.00417290374025 0 270.00417290374025 -1622.5473814438155 0 0 0 -338.7130385555356 627.32632975488377 208.03885731797891 0 208.03885731797891 -1740.1976502913167 0 0 0 -278.21783013411914 381.56863891691319 691.57481252662592 0 691.57481252662592 -1179.2695852577162 0 0 0 -199.42523658520076 790.32395435638318 545.43364271082828 0 545.43364271082828 -1228.9549528633652 0 0 0 -109.65774962674186 338.64291170141223 619.77608838463493 0 619.77608838463493 -1343.0086125713424 0 0 0 -251.09142521747708 924.83283295549336 742.29630059019109 0 742.29630059019109 -1100.868867863901 0 0 0 -44.009008727094624 -123.0227535205122 730.10033875233057 0 730.10033875233057 -1313.5386441208975 0 0 0 -359.14034941033606 -595.71962656144751 524.08185134654923 0 524.08185134654923 -1165.4029678512015 0 0 0 -440.28064860317681 24.380437412881292 427.64477203374918 0 427.64477203374918 -1173.957596890803 0 0 0 -287.39428986948042 -136.44263085363491 434.77361641101743 0 434.77361641101743 -1041.6499061329232 0 0 0 -294.52313424664317 -36.491442280144838 511.57755205218564 0 511.57755205218564 -1494.1051467080542 0 0 0 -382.64914724704431 83.79715068040241 228.08615720705711 0 228.08615720705711 -1559.9032959245087 0 0 0 -369.02653631105204 13.746324155858019 129.54332693155447 0 129.54332693155447 -1239.3674087990366 0 0 0 -306.40527116080921 217.22729918692494 198.94493916267311 0 198.94493916267311 -1172.2658816708135 0 0 0 -238.75964562097215 21.884274885764171 258.67450189644296 0 258.67450189644296 -1268.8645898249815 0 0 0 -311.74507873479888 -125.58626506160363 187.17951352267119 0 187.17951352267119 -1114.8192264083191 0 0 0 -310.10137286748795 76.298668218254534 72.447094878938515 0 72.447094878938515 -1068.0799973321482 0 0 0 -247.94533227845204 19.962468667072244 41.120671674936602 0 41.120671674936602 -992.01812803526991 0 0 0 -243.01391484204214 -14.69038312540215 57.644203116229619 0 57.644203116229619 -1023.5853568591701 0 0 0 -259.56893499613216 21.188518696420942 106.32746079361823 0 106.32746079361823 -929.20522714714753 0 0 0 -227.00417711268528 -247.85823422667454 180.03202784003224 0 180.03202784003224 -917.49285310544656 0 0 0 -291.33777183304483 -271.77185752560126 214.80569568827923 0 214.80569568827923 -1054.989118953119 0 0 0 -331.69024411968803 -737.98842581019562 271.02392752478772 0 271.02392752478772 -1086.0049611025315 0 0 0 -455.99834672817087 545.4169594145169 -223.59874386752881 0 -223.59874386752881 -1234.0435385163692 0 0 0 -172.15664477546306 765.3175707829887 -130.93390178960408 0 -130.93390178960408 -1048.5010856436384 0 0 0 -70.795878715163781 846.85476434919383 -142.25052704723294 0 -142.25052704723294 -1026.4119486200088 0 0 0 -44.889296067703071 680.79151727653243 -105.14561619282358 0 -105.14561619282358 -1315.7577695899272 0 0 0 -158.74156307834892 452.70660850551212 -174.30717932779498 0 -174.30717932779498 -1475.6757961587409 0 0 0 -255.74229691330856 307.42945969309039 -220.08963329107519 0 -220.08963329107519 -1358.1890359558638 0 0 0 -262.68989406569381 305.4945178587468 -272.78042631395215 0 -272.78042631395215 -1434.7185136623448 0 0 0 -282.30599895090018 488.21798391638026 -281.82757448445182 0 -281.82757448445182 -1257.3552306771853 0 0 0 -192.28431169020109 320.91181549166868 -329.39266046376179 0 -329.39266046376179 -1104.892080277501 0 0 0 -195.99506619645854 254.40608848065347 -323.4403012813068 0 -323.4403012813068 -1123.2638670490003 0 0 0 -217.21444464208673 700.82863813047788 -267.89452907614077 0 -267.89452907614077 -1059.272776613514 0 0 0 -89.611034620758801 641.82014652200996 -266.40216777729711 0 -266.40216777729711 -1079.0130486020462 0 0 0 -109.2982255200086 470.91940905754257 -186.97632140573387 0 -186.97632140573387 -1228.3446003665167 0 0 0 -189.35629782724425 667.66427884047334 -124.68457892628157 0 -124.68457892628157 -1008.80246805766 0 0 0 -85.284547304297121 831.35691372075235 -191.6503777759599 0 -191.6503777759599 -890.19662385180163 0 0 0 -14.709927532762777 902.54720874148825 -84.001291573789786 0 -84.001291573789786 -658.84629317344479 0 0 0 60.925228892010637 1144.6280048879216 -20.838429818345503 0 -20.838429818345503 -197.16722721286169 0 0 0 236.8651944187659 1187.9900293945266 -32.555265419650823 0 -32.555265419650823 -214.05064175365987 0 0 0 243.48484691021713 1041.8238933091993 -86.560268579099102 0 -86.560268579099102 -676.17917399293219 0 0 0 91.411179829065532 2352.9057158987398 543.94599928188836 0 543.94599928188836 -512.7276882484075 0 0 0 460.0445069125908 3077.1387446209701 257.07375597478955 0 257.07375597478955 -154.16049926771666 0 0 0 730.744561338317 1210.821821860708 -27.89148936438869 0 -27.89148936438869 -230.79831901683792 0 0 0 245.0058757109673 13.553939395192367 2.1333060620165951 0 2.1333060620165951 40.748646414128615 0 0 0 13.575646452330243 2070.0797599811995 592.86465326082543 0 592.86465326082543 -651.63226543435303 0 0 0 354.61187363671343 2275.3723261086707 276.35885700257495 0 276.35885700257495 -256.10566443257267 0 0 0 504.81666541901359 2144.7738870520479 253.89132044433791 0 253.89132044433791 -356.29347222435172 0 0 0 447.12010370692587 16.035430510947226 2.1746913620687591 0 2.1746913620687591 48.231126178131014 0 0 0 16.066639172269561 1335.2395658373971 -27.360652989415939 0 -27.360652989415939 -250.00600108545405 0 0 0 271.30839118798576 2414.825278476339 318.39378570429835 0 318.39378570429835 -310.40882733826584 0 0 0 526.1041127845092 18.620568916210228 2.4696375142100377 0 2.4696375142100377 55.88852006862956 0 0 0 18.627272246209948 1590.4845325691394 384.15360018498905 0 384.15360018498905 -566.22468859302899 0 0 0 256.06496099402739 923.28314975629655 -54.820893176683398 0 -54.820893176683398 -727.9021935314413 0 0 0 48.845239056214268 1277.6570485260145 2.5932073696531006 0 2.5932073696531006 -308.85427652386352 0 0 0 242.20069300053729 960.33347653786677 -16.432054502660321 0 -16.432054502660321 -1036.326295172712 0 0 0 -18.998204658710165 1095.4348233054093 -97.574410953788174 0 -97.574410953788174 -734.23773047390932 0 0 0 90.299273207876013 1220.7263462545361 38.111912710964134 0 38.111912710964134 -1001.5572886052614 0 0 0 54.792264412319128 970.61873622042413 -82.375049906473578 0 -82.375049906473578 -1010.9630384813254 0 0 0 -10.08607556522611 1529.4257361093287 -7.6960680113115814 0 -7.6960680113115814 -348.07958471017082 0 0 0 295.33653784978651 1452.0918685422876 -25.488146550816055 0 -25.488146550816055 -324.3256339031941 0 0 0 281.941558659777 1360.2799087237165 -85.969465517842764 0 -85.969465517842764 -928.76122216530257 0 0 0 107.87967163960298 2143.5208769538731 158.27387954606093 0 158.27387954606093 -270.87949404891697 0 0 0 468.16034572623903 21.019521866328752 2.1384056132267988 0 2.1384056132267988 63.588444627675258 0 0 0 21.151991623501004 1834.8048135897579 -10.84074903103101 0 -10.84074903103101 -327.64996537904153 0 0 0 376.78871205268024 1955.2820665487002 208.96938962121203 0 208.96938962121203 -333.60087749590139 0 0 0 405.42029726319606 1687.4481603585882 68.44459917745553 0 68.44459917745553 -630.94768892665161 0 0 0 264.12511785798415 1663.9290475326161 181.55032450557337 0 181.55032450557337 -606.0822295094913 0 0 0 264.46170450577119 24.288239554953993 2.637814312018564 0 2.637814312018564 71.68591883668455 0 0 0 23.993539597909638 2270.2064181304449 49.619922294426942 0 49.619922294426942 -402.52331078355201 0 0 0 466.92077683673415 1845.7297895873489 -135.92522638707305 0 -135.92522638707305 -738.95777919102693 0 0 0 276.69300259907322 1066.4875495772412 90.270783936434782 0 90.270783936434782 -1471.5693442846168 0 0 0 -101.27044867684344 1600.8707658326557 92.470294590919366 0 92.470294590919366 -514.00762509862398 0 0 0 271.71578518350725 2090.545481496838 -37.474346909782128 0 -37.474346909782128 -430.79396465168247 0 0 0 414.93787921128933 1623.5123643391289 182.40437994099011 0 182.40437994099011 -843.09096052631503 0 0 0 195.10535095320301 1321.3772606882731 -87.395473065983879 0 -87.395473065983879 -1393.8320758515911 0 0 0 -18.113703790830186 428.62157065800466 30.81510083851299 0 30.81510083851299 -2004.7315266067089 0 0 0 -394.02748898717573 860.36679155057936 153.54855521393074 0 153.54855521393074 -1872.9923523811231 0 0 0 -253.15639020763592 704.63744032731847 -42.15513206818747 0 -42.15513206818747 -2335.9872226587722 0 0 0 -407.83744558286344 720.53362643688342 -53.068500878412124 0 -53.068500878412124 -1445.0321257222422 0 0 0 -181.12462482133924 648.26401036684365 -85.732666819477799 0 -85.732666819477799 -1811.7840952051047 0 0 0 -290.8800212095648 544.38190212371228 -113.61953787075981 0 -113.61953787075981 -1631.560099793267 0 0 0 -271.79454941738823 612.14376696293209 -121.82421704270018 0 -121.82421704270018 -1336.3233922473341 0 0 0 -181.04490632110185 822.81313443004728 -21.01133644962556 0 -21.01133644962556 -1424.8973786432434 0 0 0 -150.52106105329949 300.71161979358203 -156.16227663925974 0 -156.16227663925974 -1776.5885091780146 0 0 0 -368.96922234610884 344.3655399339782 -152.09188579335569 0 -152.09188579335569 -1512.3536699799565 0 0 0 -291.99703251149504 336.97150090921878 -41.517524007434076 0 -41.517524007434076 -1965.9464758622053 0 0 0 -407.24374373824594 390.28799180844055 -103.35424631968999 0 -103.35424631968999 -1683.9184345571477 0 0 0 -323.40761068717654 271.61658496346354 -139.8925692912162 0 -139.8925692912162 -1775.9950265202242 0 0 0 -376.09461038919108 352.8330249621722 -115.96936624241062 0 -115.96936624241062 -2063.464066938659 0 0 0 -427.65776049412034 265.36671418463902 -30.890395897323287 0 -30.890395897323287 -2540.88410218637 0 0 0 -568.87934700043388 261.93931804256499 -97.566027884933646 0 -97.566027884933646 -2091.3292589581142 0 0 0 -457.34748522888731 233.73122280721691 -106.89259548601149 0 -106.89259548601149 -2445.043439799847 0 0 0 -552.82805424815797 203.69389565278107 -56.897971005131694 0 -56.897971005131694 -2095.4966744671692 0 0 0 -472.95069470359704 206.00399589598419 -192.21971855908851 0 -192.21971855908851 -1828.9115779944332 0 0 0 -405.7268955246127 214.42828601218957 -117.5876190782983 0 -117.5876190782983 -2114.8873161082711 0 0 0 -475.11475752401907 584.23592565231502 -168.71067256401398 0 -168.71067256401398 -1595.7276625028699 0 0 0 -252.87293421263803 416.31890000311262 -77.654424988279061 0 -77.654424988279061 -2100.6305933879016 0 0 0 -421.07792334619705 321.57435582913149 -162.92338617392875 0 -162.92338617392875 -1814.2356711854191 0 0 0 -373.16532883907257 449.8168320161376 -152.51536408007632 0 -152.51536408007632 -1406.0051619221449 0 0 0 -239.0470824765016 325.83628152227175 -169.23101896424123 0 -169.23101896424123 -1822.1397466059834 0 0 0 -374.0758662709286 242.44620490235275 -195.79488817134734 0 -195.79488817134734 -1553.4927501281718 0 0 0 -327.76163630645533 315.44148852185663 -211.3686476701339 0 -211.3686476701339 -1261.7507070196225 0 0 0 -236.57730462444215 328.8822393294131 -190.96590809106146 0 -190.96590809106146 -1466.2082888092136 0 0 0 -284.33151236995127 262.41323792212461 -169.08220790900305 0 -169.08220790900305 -1792.6333274811523 0 0 0 -382.55502238975805 276.11774308524764 -210.86604948424838 0 -210.86604948424838 -1565.8598322465241 0 0 0 -322.43552229031775 224.47378351169027 -231.27945941260759 0 -231.27945941260759 -1583.1597362499451 0 0 0 -339.67148818456371 270.06466340208135 -210.96560582902839 0 -210.96560582902839 -1555.34643669042 0 0 0 -321.32044332208443 240.59988119266563 -277.31788177913768 0 -277.31788177913768 -1268.7096609437758 0 0 0 -257.02744493777664 199.78354335807671 -266.199116546396 0 -266.199116546396 -1416.8347609575612 0 0 0 -304.26280439986931 202.990633273208 -265.99501081153448 0 -265.99501081153448 -1207.6592076388661 0 0 0 -251.16714359141406 206.79004897774121 -236.74689886298893 0 -236.74689886298893 -1409.6814553844488 0 0 0 -300.72285160167667 155.4298501948274 -235.0323082024106 0 -235.0323082024106 -1380.4455556957573 0 0 0 -306.253926375231 222.1160563115518 -269.87935259103529 0 -269.87935259103529 -1425.069552813824 0 0 0 -300.73837412556804 162.23434874613616 -216.4121298506775 0 -216.4121298506775 -1312.6104342777769 0 0 0 -287.59402138290949 266.7340694408058 -176.95528443731723 0 -176.95528443731723 -1033.005569943416 0 0 0 -191.56787512565188 224.64038245625306 -247.33654063965196 0 -247.33654063965196 -1098.9369841792031 0 0 0 -218.57415043073706 132.43110385005593 -308.48022650611665 0 -308.48022650611665 -987.15913817211913 0 0 0 -213.68200858051569 -5.7507563718562551 -230.46944173634256 0 -230.46944173634256 -1177.2878632058164 0 0 0 -295.7596548944183 102.82070741099324 -247.26851156173984 0 -247.26851156173984 -805.29614060875792 0 0 0 -175.61885829944094 87.938613251626577 -359.71697444788697 0 -359.71697444788697 -984.94334586243531 0 0 0 -224.25118315270214 120.54624627052226 -397.17459323951641 0 -397.17459323951641 -933.15789085984761 0 0 0 -203.15291114733145 291.77143437347252 -371.22710590098222 0 -371.22710590098222 -1085.3503619263963 0 0 0 -198.39473188823092 190.54385786374223 -316.29294724089596 0 -316.29294724089596 -1114.7421136564117 0 0 0 -231.04956394816691 257.0642172775166 -299.13767191947773 0 -299.13767191947773 -1262.5930889231422 0 0 0 -251.38221791140617 140.56247400733184 -288.66112113647796 0 -288.66112113647796 -1236.2855584107524 0 0 0 -273.93077110085403 554.89314481732026 -38.976589733978017 0 -38.976589733978017 -577.75311248415801 0 0 0 -5.7149919167095504 -0.4061408662647682 -2.1408063632392942 0 -2.1408063632392942 -1.2009802881483598 0 0 0 -0.40178028860328219 663.41437592010766 -110.29408948881792 0 -110.29408948881792 -436.92073204412281 0 0 0 56.623410968996041 -20.590818728901468 -27.529618992560245 0 -27.529618992560245 -518.46148073220866 0 0 0 -134.76307486527685 -108.33120085320206 -95.608974353667236 0 -95.608974353667236 -374.33462748135935 0 0 0 -120.66645708364058 -108.49488329166604 -199.80980262342655 0 -199.80980262342655 -853.48294428376653 0 0 0 -240.494456893858 -105.40217087333986 -175.27645827364267 0 -175.27645827364267 -542.28886186639465 0 0 0 -161.92275818493408 103.48038194203764 -165.18075031910848 0 -165.18075031910848 -970.60948346995428 0 0 0 -216.78227538197916 209.35099994247253 -87.340669170781439 0 -87.340669170781439 -536.45781507024276 0 0 0 -81.776703781942388 101.242738322484 -133.22024649695641 0 -133.22024649695641 -865.22271372279647 0 0 0 -190.99499385007857 353.73193995566771 -96.357934574862156 0 -96.357934574862156 -832.23839984957249 0 0 0 -119.62661497347608 251.19213123501413 -166.47015574358102 0 -166.47015574358102 -1188.1857482446085 0 0 0 -234.24840425239836 389.81538121226095 -57.339958907748724 0 -57.339958907748724 -632.41397314584901 0 0 0 -60.649647983397699 586.35095403222113 -11.844498157227463 0 -11.844498157227463 -720.69393141904038 0 0 0 -33.585744346704814 632.54817811469275 -3.0011409316514346 0 -3.0011409316514346 -788.24762663018009 0 0 0 -38.924862128871609 679.60939321309638 -63.615540074191586 0 -63.615540074191586 -776.88885571100036 0 0 0 -24.319865624476051 -0.39212796733119748 -2.3439822010928841 0 -2.3439822010928841 -1.1963093216615119 0 0 0 -0.39710932224817719 248.04414145733563 -70.178498036883866 0 -70.178498036883866 -603.72219656662492 0 0 0 -88.919513777322663 671.11192580982242 -66.436922480481556 0 -66.436922480481556 -588.13200792441421 0 0 0 20.744979471352053 -0.41143211361832366 -2.2252120264321027 0 -2.2252120264321027 -1.2027440371771219 0 0 0 -0.40354403769886149 830.2785508246252 -20.766417045082562 0 -20.766417045082562 -774.59698899577234 0 0 0 13.920390457212307 -0.46750677372934968 -2.2552416934624793 0 -2.2552416934624793 -1.2214355903762861 0 0 0 -0.42223559102640884 960.16923616236863 -75.911868221854093 0 -75.911868221854093 -724.16470513236709 0 0 0 59.001132757499818 979.92565820732989 -11.270441022169052 0 -11.270441022169052 -725.33720678865268 0 0 0 63.64711285466953 869.29606857281806 59.733944991003227 0 59.733944991003227 -912.85220819203096 0 0 0 -10.889034904802884 486.80037290902703 -112.80749282913075 0 -112.80749282913075 -1094.4260610087097 0 0 0 -151.90642202492188 563.82551823068025 -143.62271676877276 0 -143.62271676877276 -1170.9378190224015 0 0 0 -151.77807519792987 738.00593651857844 -36.743261816990525 0 -36.743261816990525 -781.18835911051428 0 0 0 -10.795605647984303 814.71503279229796 -80.360984847710824 0 -80.360984847710824 -1076.8769117793997 0 0 0 -65.540469746774988 592.39224995152426 -209.52268144387972 0 -209.52268144387972 -1432.4822232223396 0 0 0 -210.02249331770327 909.34953827173013 -97.888189473967486 0 -97.888189473967486 -762.29231673027971 0 0 0 36.764305385363514 1351.695466390915 -40.782136069688022 0 -40.782136069688022 -657.02215964406651 0 0 0 173.66832668671179 1060.3256075560821 -137.93461968475469 0 -137.93461968475469 -753.94609754890553 0 0 0 76.594877501793235 831.49549392799861 -46.708804156690348 0 -46.708804156690348 -1359.6572828250951 0 0 0 -132.04044722427273 1094.4424974333479 -43.273108929377031 0 -43.273108929377031 -810.54766332346117 0 0 0 70.973708527471445 -0.20399998550541776 -2.4386817377516383 0 -2.4386817377516383 -1.1335999942185255 0 0 0 -0.33439999493098616 1416.7877617166896 73.74031516498755 0 73.74031516498755 -607.91450993993203 0 0 0 202.21831294418917 1183.4937701926565 132.3675567381797 0 132.3675567381797 -663.62005005324318 0 0 0 129.9684300348531 908.97498353176979 -26.594673925570532 0 -26.594673925570532 -1184.3439626258591 0 0 0 -68.842244773521486 686.42748895079785 112.16957671394312 0 112.16957671394312 -1522.5549944588529 0 0 0 -209.03187637701376 626.02292095628945 -4.2088078918905012 0 -4.2088078918905012 -1399.5858910126062 0 0 0 -193.39074251407919 829.31323418690795 109.13843946560064 0 109.13843946560064 -1187.1716372999156 0 0 0 -89.464600778251963 460.32435518010925 56.931162700989262 0 56.931162700989262 -1504.9423572423129 0 0 0 -261.15450051555081 228.35729114145738 22.50640604668547 0 22.50640604668547 -1691.7103377318435 0 0 0 -365.83826164759625 184.37627794001469 -64.411202232888556 0 -64.411202232888556 -1823.6533773320825 0 0 0 -409.8192748480169 354.38517501615434 11.943040077424342 0 11.943040077424342 -1863.1107918966509 0 0 0 -377.18140422012402 406.59061002490773 -46.821365501214586 0 -46.821365501214586 -1583.0266812472764 0 0 0 -294.10901780559209 205.88133827374395 7.2805799074194937 0 7.2805799074194937 -1477.6019613519657 0 0 0 -317.93015576955531 184.3219029770346 -46.317145958882485 0 -46.317145958882485 -1568.0920257939056 0 0 0 -345.9425307042178 329.12231195077402 -59.2854684949275 0 -59.2854684949275 -1379.4347034050074 0 0 0 -262.57809786355847 542.57266470067191 -18.365429133282305 0 -18.365429133282305 -1230.1481110739774 0 0 0 -171.89386159332605 731.14946135409673 -43.876332557986643 0 -43.876332557986643 -1176.2252812758879 0 0 0 -111.26895498044769 515.03426019309779 64.593407419327377 0 64.593407419327377 -1393.9890400241459 0 0 0 -219.73869495776228 -302.64459392517426 134.03676544122993 0 134.03676544122993 -1803.989175872983 0 0 0 -526.65844244953939 -691.15423120920218 289.68201923073769 0 289.68201923073769 -2077.6502931908049 0 0 0 -692.20113110000182 -243.75134143568991 239.79348137814247 0 239.79348137814247 -2454.6134353432471 0 0 0 -674.59119419473427 106.99004854333998 38.403562954815129 0 38.403562954815129 -2030.7024254446114 0 0 0 -480.92809422531775 -135.86204330817714 143.43325399420564 0 143.43325399420564 -2128.8798429256162 0 0 0 -566.1854715584484 43.742974628665252 40.203838805259466 0 40.203838805259466 -1852.5224226199944 0 0 0 -452.19486199783228 97.847507506833608 -21.843087442771548 0 -21.843087442771548 -2002.1879430861936 0 0 0 -476.08510889484023 52.596441675132837 10.463101670195329 0 10.463101670195329 -2088.1919541074053 0 0 0 -508.89887810806817 101.23064903256412 2.6062033517121108 0 2.6062033517121108 -2009.8408232210315 0 0 0 -477.15254354711669 48.582256249429633 46.285273322810554 0 46.285273322810554 -1735.9640872404418 0 0 0 -421.8454577477529 -40.855769022367667 43.911643877293955 0 43.911643877293955 -1492.1883672409074 0 0 0 -383.26103406581888 -229.9759832565075 73.908210824317507 0 73.908210824317507 -1607.7024887773894 0 0 0 -459.41961800847429 16.774345618397774 34.040337857034729 0 34.040337857034729 -1857.0723804448758 0 0 0 -460.07450870661944 -168.01030273450505 48.546621471941137 0 48.546621471941137 -1583.1999378926917 0 0 0 -437.80256015679907 -262.09705497753635 98.639365635700699 0 98.639365635700699 -1801.0491309988056 0 0 0 -515.78654649408543 -508.72319067672487 78.996610988968342 0 78.996610988968342 -1527.5000692628985 0 0 0 -509.05581498490579 -509.67334832497409 79.231944896684354 0 79.231944896684354 -1527.8166729500522 0 0 0 -509.37250531875657 -360.68971301141812 -45.830495139904464 0 -45.830495139904464 -1081.5025904317708 0 0 0 -360.54807586079727 -259.69680586220022 -52.852726923253897 0 -52.852726923253897 -1245.1245462521933 0 0 0 -376.20533802859848 -184.52900861464809 -99.359116532813971 0 -99.359116532813971 -1073.243165294896 0 0 0 -314.44304347738603 -227.25028594059302 -69.060273868405034 0 -69.060273868405034 -1230.9599843793674 0 0 0 -364.55256757999018 -172.1337875104598 -6.1024735703779243 0 -6.1024735703779243 -1288.5984212063081 0 0 0 -365.18305217919192 -27.895471363852607 -47.381554973049333 0 -47.381554973049333 -1261.6502049530895 0 0 0 -322.38641907923545 -21.886690652119682 -96.779474391721294 0 -96.779474391721294 -1024.3256821969794 0 0 0 -261.55309321227492 -33.94791207229764 -16.748537372128908 0 -16.748537372128908 -1178.2399417088773 0 0 0 -303.04696344529384 -109.76217805379804 -57.562971458476909 0 -57.562971458476909 -1050.7667834032118 0 0 0 -290.13224036425243 -93.103466514424937 -74.826206981133168 0 -74.826206981133168 -860.62282619152961 0 0 0 -238.43157317648848 -26.889456488318501 -105.12654867291462 0 -105.12654867291462 -834.07318924718311 0 0 0 -215.24066143387529 -185.04439614620304 -78.499757808881498 0 -78.499757808881498 -862.58205196151687 0 0 0 -261.90661202692979 -261.42984574876527 -47.721158386898026 0 -47.721158386898026 -1021.2232857776471 0 0 0 -320.6632828816031 -175.81318275012461 -96.396044260169219 0 -96.396044260169219 -948.87261220279129 0 0 0 -281.17144873822895 -261.57914426903488 -125.59765099789645 0 -125.59765099789645 -783.15051817024892 0 0 0 -261.18241560982096 -305.1482172019775 -84.034534174599131 0 -84.034534174599131 -915.80937147744748 0 0 0 -305.2393971698562 -220.33348064282737 -119.3643772864163 0 -119.3643772864163 -959.76453267562499 0 0 0 -295.02450332961314 432.65890524075598 -130.0090711900084 0 -130.0090711900084 -946.55749785852595 0 0 0 -128.47464815444232 295.266247663277 -35.741823856298652 0 -35.741823856298652 -1151.6329417232428 0 0 0 -214.0916735149915 449.64607670220721 -81.47209388313081 0 -81.47209388313081 -821.09962936269312 0 0 0 -92.863388165121705 409.455981966031 -89.609454356360629 0 -89.609454356360629 -1126.4661123705664 0 0 0 -179.25253260113391 121.50722679845433 -20.415754039979902 0 -20.415754039979902 -1277.91059581129 0 0 0 -289.10084225320918 128.97057037351215 -70.156604116678636 0 -70.156604116678636 -1235.8176308010309 0 0 0 -276.71176510687951 307.27152835520883 -127.19960856921271 0 -127.19960856921271 -1058.7377958416264 0 0 0 -187.86656687160439 219.479683289278 -157.16069798579019 0 -157.16069798579019 -820.295275275123 0 0 0 -150.20389799646114 78.894495886210166 -63.368893982424538 0 -63.368893982424538 -1040.3804923230693 0 0 0 -240.37149910921482 104.96867380175865 -104.46647692903969 0 -104.46647692903969 -997.81543570116628 0 0 0 -223.21169047485193 53.86958379226283 -83.52938189817678 0 -83.52938189817678 -849.26659476806662 0 0 0 -198.84925274395093 355.32567291781879 -163.83697443592018 0 -163.83697443592018 -718.18759585239513 0 0 0 -90.715480733644199 191.44507561546834 -68.544744761129465 0 -68.544744761129465 -915.01966041548712 0 0 0 -180.89364620000515 515.27925257507422 -119.84809074638605 0 -119.84809074638605 -759.77513624312633 0 0 0 -61.123970917013139 367.22866798272196 -102.54657648163038 0 -102.54657648163038 -655.82872549971898 0 0 0 -72.150014379249569 464.07498561303908 -136.29434584622618 0 -136.29434584622618 -599.93541472483957 0 0 0 -33.965107277950324 318.13626394134155 -174.60911931193471 0 -174.60911931193471 -493.44577823284453 0 0 0 -43.827378572875659 335.2666129074172 -121.82278822415651 0 -121.82278822415651 -487.73566191079362 0 0 0 -38.117262250844078 403.45474974268086 -169.66794305628446 0 -169.66794305628446 -334.09828623187605 0 0 0 17.339115877701261 196.28984727084799 -154.29870709444845 0 -154.29870709444845 -414.96342237404315 0 0 0 -54.668393775798677 201.31871034363581 -98.014672767394586 0 -98.014672767394586 -713.92568658724645 0 0 0 -128.15174406090267 194.84723475466126 -168.35942833901677 0 -168.35942833901677 -592.0905227771791 0 0 0 -99.310822005629461 17.540725469041263 -149.84162307472334 0 -149.84162307472334 -643.49314762728909 0 0 0 -156.48810553956196 -17.41990598566764 -124.53425026090343 0 -124.53425026090343 -656.40699317649887 0 0 0 -168.45672479054178 125.45542034320349 -130.81459943389109 0 -130.81459943389109 -611.45761999105662 0 0 0 -121.5005499119633 49.575271026764767 -150.75683801793377 0 -150.75683801793377 -454.91154546835969 0 0 0 -101.33406861039873 85.413472779835729 -137.63937921035404 0 -137.63937921035404 -445.18326856726321 0 0 0 -89.942448946856757 -51.887662499788632 -135.94922385524521 0 -135.94922385524521 -392.35322333671843 0 0 0 -111.06022145912686 -21.240489669364024 -129.58047432132491 0 -129.58047432132491 -302.81915357792218 0 0 0 -81.014910811821551 308.68599967084799 -156.75070657344742 0 -156.75070657344742 -236.96185907546146 0 0 0 17.931035148846632 355.90767626044249 -113.65159150522464 0 -113.65159150522464 -136.11480864282066 0 0 0 54.948216904405399 337.14748330281759 -94.257861085246844 0 -94.257861085246844 -254.81095776339225 0 0 0 20.584131384856391 138.78251292422135 -144.06057263201217 0 -144.06057263201217 -286.13279923390087 0 0 0 -36.837571577419851 283.95033939908262 -151.37523142757243 0 -151.37523142757243 -390.82737137105687 0 0 0 -26.719257992993676 -229.0787885391305 -127.56575509664725 0 -127.56575509664725 -584.4172758765236 0 0 0 -203.37401610391353 -179.6941214361936 -128.27340195934761 0 -128.27340195934761 -567.93593455118514 0 0 0 -186.90751399684467 -188.36146817023166 -129.14096815866534 0 -129.14096815866534 -758.42708919611982 0 0 0 -236.69713934158787 -224.14036577132154 -105.1769704079795 0 -105.1769704079795 -672.32728966145919 0 0 0 -224.11691385819518 -194.54709507497648 -147.96969552988631 0 -147.96969552988631 -671.84360924212649 0 0 0 -216.59767607927574 -132.89836284346234 -142.20136567453022 0 -142.20136567453022 -574.87377283689796 0 0 0 -176.94303392008999 -181.00915931061246 -83.032459314086267 0 -83.032459314086267 -668.65591725802562 0 0 0 -212.41626914215954 -92.754421076403787 -148.59174165296974 0 -148.59174165296974 -772.22555137383017 0 0 0 -216.24499311255852 -113.50380462905446 -109.43992163898508 0 -109.43992163898508 -498.09008204298721 0 0 0 -152.89847166801053 -125.81485077371593 -123.86991449635748 0 -123.86991449635748 -398.82439879892252 0 0 0 -131.15981239315971 -104.28094366971879 -97.843932647343763 0 -97.843932647343763 -495.44732358444014 0 0 0 -149.93206681353968 -116.8233387013849 -111.87563730319637 0 -111.87563730319637 -286.51089730787066 0 0 0 -100.8335590023139 -152.60847430463775 -104.89915500640763 0 -104.89915500640763 -406.26396524419522 0 0 0 -139.71810988720824 -177.54643800749847 -99.317739780337348 0 -99.317739780337348 -334.71302337685978 0 0 0 -128.06486534608959 -168.24069199188864 -87.112753102998852 0 -87.112753102998852 -517.96290925016115 0 0 0 -171.55090031051242 -188.58304433631201 -120.20245972083761 0 -120.20245972083761 -453.7596587945971 0 0 0 -160.58567578272726 -168.51103138762539 -91.08312983249607 0 -91.08312983249607 -427.96578547615263 0 0 0 -149.11920421594454 -194.76349280453775 -122.3841206509932 0 -122.3841206509932 -446.80740124744534 0 0 0 -160.39272351299576 -155.35702646066849 -96.684680672538136 0 -96.684680672538136 -466.02704108110726 0 0 0 -155.34601688544393 -103.72597793506735 -51.03666235153289 0 -51.03666235153289 -311.25889810806399 0 0 0 -103.74621901078282 -122.43369206488119 -79.072129849774527 0 -79.072129849774527 -367.09416182041213 0 0 0 -122.38196347132332 -190.97681697991715 -85.440643570879828 0 -85.440643570879828 -371.66919581919194 0 0 0 -140.66150319977726 -175.86321634565445 -70.609224076305054 0 -70.609224076305054 -287.52947981849167 0 0 0 -115.84817404103651 -178.12694867178175 -76.468870401065018 0 -76.468870401065018 -335.07497768483125 0 0 0 -128.30048158915326 -139.94910248404491 -75.588348547700207 0 -75.588348547700207 -303.04972759280622 0 0 0 -110.74970751921279 -146.95357721219204 -95.17414252560647 0 -95.17414252560647 -246.02758924263219 0 0 0 -98.245291613706058 -148.64117480482361 -77.216197848473286 0 -77.216197848473286 -181.77843709448439 0 0 0 -82.604902974826985 -191.62734805088064 -55.777816889554913 0 -55.777816889554913 -282.73460750947805 0 0 0 -118.59048889008967 -181.79580591914203 -31.289036651758956 0 -31.289036651758956 -269.1088217996741 0 0 0 -112.72615692970403 -215.04131080830319 -5.6046222351087351 0 -5.6046222351087351 -264.00914375588673 0 0 0 -119.76261364104745 -183.831218562679 -44.57650282515111 0 -44.57650282515111 -247.14394272696694 0 0 0 -107.74379032241151 -188.15917476603502 -36.422389827483201 0 -36.422389827483201 -332.15302503655181 0 0 0 -130.07804995064672 -194.11715596531405 -45.038067788559061 0 -45.038067788559061 -298.00771569701578 0 0 0 -123.03121791558246 -99.318461856773013 -19.3732701540427 0 -19.3732701540427 -297.55607343439942 0 0 0 -99.218633822793109 86.22203733441367 -109.97162001425795 0 -109.97162001425795 -156.61946881332213 0 0 0 -17.599357869727125 352.36548011690434 -239.93338938805837 0 -239.93338938805837 -12.488282242403443 0 0 0 84.969299468625195 114.04587323288175 -166.48907321922928 0 -166.48907321922928 -136.15917723735754 0 0 0 -5.5283260011189554 55.96195433746135 -128.95151588053869 0 -128.95151588053869 -290.62684376169 0 0 0 -58.666222356057176 -87.033730852059165 -103.05016509434392 0 -103.05016509434392 -246.65826940699617 0 0 0 -83.423000064763841 -68.439220788719496 -111.26758589455031 0 -111.26758589455031 -188.70694456009215 0 0 0 -64.28654133720292 40.822709207535382 -151.31151339652919 0 -151.31151339652919 -132.81066681671496 0 0 0 -22.996989402294929 -92.038988043575074 -57.089158951400151 0 -57.089158951400151 -129.22363806128692 0 0 0 -55.315656526215491 -173.08796997113944 -32.461106160182212 0 -32.461106160182212 -221.90652944518001 0 0 0 -98.748624854079907 -179.40126824564206 -7.7076353288837254 0 -7.7076353288837254 -231.95397703642391 0 0 0 -102.8388113205165 -113.47710385763088 -66.242209278164495 0 -66.242209278164495 -189.72664756639824 0 0 0 -75.800937856007295 21.569454668014217 -82.95361067978871 0 -82.95361067978871 -156.66927756984367 0 0 0 -33.774955725457332 55.360677467580729 -111.21353328677188 0 -111.21353328677188 -25.936769502462994 0 0 0 7.3559769912794195 285.59795019841039 -119.28457958018879 0 -119.28457958018879 -81.88897676885523 0 0 0 50.927243357388818 390.28742958452381 -512.07951720562392 0 -512.07951720562392 102.96893003837408 0 0 0 123.3140899057245 -2510.6513985869174 -285.71979080434016 0 -285.71979080434016 -51.691234125420124 0 0 0 -640.5856581780846 1489.2707706691667 -304.78399847219254 0 -304.78399847219254 94.46699056269631 0 0 0 395.93444030796582 0.40395967722104875 -0.39882112136105752 0 -0.39882112136105752 0.15175565776783495 0 0 0 0.13892883374722095 675.39276399036237 -288.52152893677044 0 -288.52152893677044 -165.78545306754376 0 0 0 127.40182773070471 441.37189942484167 -129.91706202903441 0 -129.91706202903441 -53.028284242189102 0 0 0 97.085903795663171 -0.17134792504437171 -0.9792773034069111 0 -0.9792773034069111 -0.19600688933571697 0 0 0 -0.091838703595022192 1170.2675656477559 -131.25532449642503 0 -131.25532449642503 -49.431966692996866 0 0 0 280.20889973868964 -0.16865304496993055 -1.4407694853417436 0 -1.4407694853417436 -0.56121489135644353 0 0 0 -0.18246698408159345 650.01265138831104 -85.27061546996913 0 -85.27061546996913 -43.263389250718546 0 0 0 151.68731553439824 600.92014160008273 -173.5496769965315 0 -173.5496769965315 -102.66489445320053 0 0 0 124.56381178672058 -1007.8620724898271 -312.05781735831789 0 -312.05781735831789 -255.74148770255351 0 0 0 -315.90089004809511 -1139.0937649985322 -220.44159415677677 0 -220.44159415677677 -113.74020177439297 0 0 0 -313.20849169323117 -896.72761849680069 -220.49307520251364 0 -220.49307520251364 -94.554545243221469 0 0 0 -247.82054093500528 -1540.2958150870231 -242.71675521945477 0 -242.71675521945477 -111.62946318370177 0 0 0 -412.98131956768128 -989.85682289317822 -387.08160558191997 0 -387.08160558191997 -241.98410069705255 0 0 0 -307.96023089755761 -1260.9501124533006 -194.12461447054108 0 -194.12461447054108 -97.898931875519395 0 0 0 -339.71226108220503 -1458.681185489879 -452.16732944827424 0 -452.16732944827424 -127.2815754368799 0 0 0 -396.49069023168994 -770.29762335754367 -40.17840256652778 0 -40.17840256652778 -100.21618041951177 0 0 0 -217.62845094426376 -591.74388128896408 -266.10143856684749 0 -266.10143856684749 -242.65148317653336 0 0 0 -208.59884111637433 -430.0822379125193 -352.23980958478597 0 -352.23980958478597 110.55540626217783 0 0 0 -79.881707912585583 -424.37176511102064 -141.03139166010658 0 -141.03139166010658 -22.204504512230358 0 0 0 -111.64406740581276 -114.35393822045299 -191.85236342387316 0 -191.85236342387316 330.97307711127826 0 0 0 54.15478472270658 -228.49859937944498 -233.55699025451429 0 -233.55699025451429 470.31902056242353 0 0 0 60.45510529574458 84.872503646335502 -550.76402355114828 0 -550.76402355114828 299.96257146677601 0 0 0 96.208768778278369 146.01283089400903 -657.072810074892 0 -657.072810074892 10.685221670019416 0 0 0 39.174513141007253 -135.59664684359575 -408.22932533288679 0 -408.22932533288679 -20.422087645819374 0 0 0 -39.004683622354037 -161.63353816216778 -543.65544682165114 0 -543.65544682165114 -140.95691147387606 0 0 0 -75.647612409010719 -188.68439095069027 -388.76588563617833 0 -388.76588563617833 -170.552712185872 0 0 0 -89.809275784140254 -131.75812370057747 -500.97464344254331 0 -500.97464344254331 -355.47432748298115 0 0 0 -121.80811279588943 -678.90164944263847 -467.8553742032409 0 -467.8553742032409 -192.12346967209686 0 0 0 -217.75627977868385 -336.92680701077961 -461.92790442506305 0 -461.92790442506305 -284.5770239796193 0 0 0 -155.37595774759984 -360.13565367963292 -461.11669161485668 0 -461.11669161485668 -355.81448729359454 0 0 0 -178.98753524330687 -615.32088743087661 -399.71987490796266 0 -399.71987490796266 -347.36592807499437 0 0 0 -240.67170387646797 -166.73371989629879 -529.01441724303299 0 -529.01441724303299 -458.17992015084269 0 0 0 -156.22841001178506 -316.82478753030409 -412.95073034620521 0 -412.95073034620521 -557.19480438700612 0 0 0 -218.50489797932778 -322.69983982942563 -416.32819654159027 0 -416.32819654159027 -285.53515267140574 0 0 0 -152.05874812520801 124.82555364696145 -534.47457945238125 0 -534.47457945238125 -538.33861528366378 0 0 0 -103.37826540917581 -21.535694649525141 -575.06520908155562 0 -575.06520908155562 -302.18068492636996 0 0 0 -80.929094893973598 -118.09039389502868 -508.13640076029242 0 -508.13640076029242 -459.78695204917358 0 0 0 -144.46933648605045 27.37921501400433 -490.83640640510066 0 -490.83640640510066 -693.76000859132455 0 0 0 -166.5951983943296 196.56695935692562 -588.19337274552709 0 -588.19337274552709 -506.40325358243547 0 0 0 -77.459073556376893 187.40499600049793 -420.14241255359229 0 -420.14241255359229 -932.97870804277682 0 0 0 -186.39342801057023 19.375660556413777 -469.12503039952844 0 -469.12503039952844 -702.72401796474242 0 0 0 -170.8370893520821 209.91753786930485 -443.28964076779585 0 -443.28964076779585 -890.90840605579979 0 0 0 -170.24771704662317 -324.37874536842992 -297.21515397895109 0 -297.21515397895109 -594.92004485753387 0 0 0 -229.82469755649072 -78.437357061316106 -388.53184249222591 0 -388.53184249222591 -769.40228063694667 0 0 0 -211.95990942456592 -191.83064459483586 -411.88449267027818 0 -411.88449267027818 -518.56358679907203 0 0 0 -177.59855784847679 -68.257822632280295 -329.13084593893154 0 -329.13084593893154 -796.86155115485417 0 0 0 -216.27984344678316 -237.41208239867547 -253.77201442724026 0 -253.77201442724026 -609.94351374778944 0 0 0 -211.83889903661657 -34.966986805916349 -271.1733887515914 0 -271.1733887515914 -685.76583543910056 0 0 0 -180.183205561254 -208.87817053371691 -229.56685403691711 0 -229.56685403691711 -478.90703195846618 0 0 0 -171.94630062304623 -442.99901594118273 -213.82194759724325 0 -213.82194759724325 -464.28611286206706 0 0 0 -226.82128220081268 -312.6752425248651 -287.28725051109154 0 -287.28725051109154 -309.6466396241085 0 0 0 -155.5804705372434 -318.78440045072648 -113.80885812993688 0 -113.80885812993688 -78.579000479051501 0 0 0 -99.340850232445064 689.48331581756258 -112.44139374551719 0 -112.44139374551719 -266.49440666787382 0 0 0 105.74722728742222 -0.40483950529294388 -1.9842044386646536 0 -1.9842044386646536 -1.2005465012511136 0 0 0 -0.40134650163601437 -311.81025671203145 -37.940610662084509 0 -37.940610662084509 -302.14431474525418 0 0 0 -153.48864286432229 487.16553856109658 -54.751785181962418 0 -54.751785181962418 -368.8271813421461 0 0 0 29.584589304737619 525.01489734926747 -36.895429157364106 0 -36.895429157364106 -172.35414000678907 0 0 0 88.165189335619743 764.70993802609405 -47.850859644175898 0 -47.850859644175898 -136.0350470154001 0 0 0 157.1687227526736 -693.60631465551103 -132.80466726992654 0 -132.80466726992654 -187.25024281652054 0 0 0 -220.21413936800752 -0.34202075636742491 -1.7547275356321785 0 -1.7547275356321785 -0.98474296695796082 0 0 0 -0.33169093083134638 582.35986375581797 -41.15150382968578 0 -41.15150382968578 -80.037812268412836 0 0 0 125.5805128718514 511.35265582360887 -133.40358315027441 0 -133.40358315027441 -212.84904618671044 0 0 0 74.625902409224523 857.11160294819001 -67.6056338057125 0 -67.6056338057125 -63.150253858177848 0 0 0 198.49033727250298 -835.05307099388574 -213.48509402002765 0 -213.48509402002765 -209.11995375177867 0 0 0 -261.04325618641633 -577.33951382065425 -382.99700798898402 0 -382.99700798898402 -192.28698384201084 0 0 0 -192.40662441566616 -658.41270352372783 -307.89139995466849 0 -307.89139995466849 -426.15830893295231 0 0 0 -271.14275311416975 -490.23809834563258 -210.18483345984464 0 -210.18483345984464 -97.159447318046659 0 0 0 -146.84938641591975 
</DataArray>
<DataArray type="Float64" Name="cross_section_updated" format="ascii">
1 1 1 1 1 1 1 1 1 1 1 1 1 1 1 1 1 1 1 1 1 1 1 1 1 1 1 1 1 1 1 1 1 1 1 1 1 1 1 1 1 1 1 1 1 1 1 1 1 1 1 1 1 1 1 1 1 1 1 1 1 1 1 1 1 1 1 1 1 1 1 1 1 1 1 1 1 1 1 1 1 1 1 1 1 1 1 1 1 1 1 1 1 1 1 1 1 1 1 1 1 1 1 1 1 1 1 1 1 1 1 1 1 1 1 1 1 1 1 1 1 1 1 1 1 1 1 1 1 1 1 1 1 1 1 1 1 1 1 1 1 1 1 1 1 1 1 1 1 1 1 1 1 1 1 1 1 1 1 1 1 1 1 1 1 1 1 1 1 1 1 1 1 1 1 1 1 1 1 1 1 1 1 1 1 1 1 1 1 1 1 1 1 1 1 1 1 1 1 1 1 1 1 1 1 1 1 1 1 1 1 1 1 1 1 1 1 1 1 1 1 1 1 1 1 1 1 1 1 1 1 1 1 1 1 1 1 1 1 1 1 1 1 1 1 1 1 1 1 1 1 1 1 1 1 1 1 1 1 1 1 1 1 1 1 1 1 1 1 1 1 1 1 1 1 1 1 1 1 1 1 1 1 1 1 1 1 1 1 1 1 1 1 1 1 1 1 1 1 1 1 1 1 1 1 1 1 1 1 1 1 1 1 1 1 1 1 1 1 1 1 1 1 1 1 1 1 1 1 1 1 1 1 1 1 1 1 1 1 1 1 1 1 1 1 1 1 1 1 1 1 1 1 1 1 1 1 1 1 1 1 1 1 1 1 1 1 1 1 1 1 1 1 1 1 1 1 1 1 1 1 1 1 1 1 1 1 1 1 1 1 1 1 1 1 1 1 1 1 1 1 1 1 1 1 1 1 1 1 1 1 1 1 1 1 1 1 1 1 1 1 1 1 1 1 1 1 1 1 1 1 1 1 1 1 1 1 1 1 1 1 1 1 1 1 1 1 1 1 1 1 1 1 1 1 1 1 1 1 1 1 1 1 1 1 1 1 1 1 1 1 1 1 1 1 1 1 1 1 1 1 1 1 1 1 1 1 1 1 1 1 1 1 1 1 1 1 1 1 1 1 1 1 1 1 1 1 1 1 1 1 1 1 1 1 1 1 1 1 1 1 1 1 1 1 1 1 1 1 1 1 1 1 1 1 1 1 1 0.0099225414966129435 1 1 0.023501100372984932 1 1 0.03475197118692322 1 1 1 1 1 1 1 1 1 1 1 1 1 0.046089433865599522 1 1 1 1 1 0.05780476565616758 1 1 1 1 1 1 1 1 1 1 1 1 1 1 1 1 1 1 1 1 1 1 1 1 1 1 1 1 1 1 1 1 1 1 1 1 1 1 1 1 1 1 1 1 1 1 1 1 1 1 1 1 1 1 1 1 1 1 1 1 1 1 1 1 1 1 1 1 1 1 1 1 1 1 1 1 1 1 1 1 1 1 1 1 1 1 1 1 1 1 1 1 1 1 1 1 1 1 1 1 1 1 1 1 1 1 1 1 1 1 1 1 1 1 1 1 1 1 1 1 1 1 1 1 1 1 1 1 1 1 1 1 1 1 1 1 1 1 1 1 1 1 1 1 1 1 1 1 1 1 1 1 1 1 1 1 1 1 1 1 1 1 1 1 1 1 1 1 0.069932499904495918 1 1 1 0.082411217514653634 1 1 0.095153119556049048 1 1 1 1 1 1 1 1 1 1 1 0.10809113251043566 1 1 1 1 0.12123094809693727 1 1 1 1 1 1 1 1 1 1 1 1 1 1 1 1 1 1 1 1 1 1 1 1 1 1 1 1 1 1 1 1 1 1 1 1 1 1 1 1 1 1 1 1 1 1 1 1 1 1 1 1 1 1 1 1 1 1 1.0000005686511618e-06 1 1 1 1 1 1 1 1 1 1 1 1 1 1 1.0000007333314971e-06 1 1 1.0000006521746277e-06 1 1.0000008126530291e-06 1 1 1 1 1 1 1 1 1 1 1 1 1 1.0000008905750729e-06 1 1 1 1 1 1 1 1 1 1 1 1 1 1 1 1 1 1 1 1 1 1 1 1 1 1 1 1 1 1 1 1 1 1 1 1 1 1 1 1 1 1 1 1 1 1 1 1 1 1 1 1 1 1 1 1 1 1 1 1 1 1 1 1 1 1 1 1 1 1 1 1 1 1 1 1 1 1 1 1 1 1 1 1 1 1 1 1 1 1 1 1 1 1 1 1 1 1 1 1 1 1 1 1 1 1 1 1 1 1 1 1 1 1 1 1 1 1 1 1 1 1 1 1 1 1 1 1 1 1 1 1 1 1 1 1 0.0010160335300257676 1 1 0.00086978976782413125 1 0.00052656511590643733 1 1 1 1 1 1 1 1 1 1 1 1 1 1 1 1 1 1 1 1 1 1 1 1 1 1 1 1 1 1 1 1 1 1 1 1 1 1 1 1 1 1 1 1 1 1 1 1.0000004811265562e-06 1 1 1 1 1 0.00018368495484173209 1 1 1 1 1 1 1 
</DataArray>
<DataArray type="Float64" Name="displacement_divergence" format="ascii">
-0.015471298873330982 -0.015259320027620621 -0.012771824975943693 -0.01292152115427715 -0.011489116805556232 -0.011591882391814516 -0.012160892024581722 -0.011361950648139763 -0.011211699072261626 -0.011275807114985634 -0.011333822165344773 -0.010055916677364232 -0.011282480049965987 -0.010722775034383097 -0.013008841461017816 -0.014299991247498714 -0.0106934519356839 -0.012487019617362489 -0.01274577736941826 -0.011619557860363686 -0.012181990599542782 -0.011718045997721568 -0.011213919281915719 -0.010957397966615698 -0.011987666360366196 -0.010226470413149981 -0.011117915020873861 -0.011184288076938928 -0.011226962705386655 -0.010354344473438415 -0.010620372723154095 -0.012477937071369571 -0.0097553997514935181 -0.010389597076415888 -0.0087525636678908725 -0.0090713160661952986 -0.0098031280182970353 -0.010209463752725856 -0.0096864907372142504 -0.0082777272604729335 -0.0082850583870269379 -0.0071722957412140576 -0.009417928894451524 -0.0094330716263392577 -0.0077962699050089512 -0.0084495938804032902 -0.0083820631114608357 -0.007880087489159561 -0.010409619898821157 -0.0093667486156825443 -0.010320034457185497 -0.010454617211877898 -0.0096825851687539644 -0.010444514363454834 -0.0091975453974414822 -0.010123214149548927 -0.0088933690749971941 -0.0083597403182494381 -0.0080404262009533267 -0.0084480019782175453 -0.0082128218183634763 -0.0094959324337503207 -0.0090303939091434995 -0.0089999177731729212 -0.0075986484213514411 -0.0080209718082493095 -0.0067654494371813759 -0.0062365345508074242 -0.0057166541949300095 -0.0053363859210860103 -0.0056768065324798453 -0.0052873802033170901 -0.0051975234868090088 -0.0056067561020615823 -0.0061403189989819558 -0.0062145894505253804 -0.0064373500506586905 -0.0066104481998459606 -0.007230374543098033 -0.0073646461994435961 -0.0073845141646430544 -0.0070911090675512458 -0.0073299566335607511 -0.0061176815806239255 -0.006690897125154513 -0.0068010085797889468 -0.0073502668117371578 -0.0070708417990947708 -0.0067090143778064989 -0.0062166940101742035 -0.0061548684679424148 -0.0052285378787225584 -0.0053171888103971665 -0.0042802371881351872 -0.0062300621840518031 -0.0058693156673765203 -0.006028483876727983 -0.0049669188887823167 -0.0052979730649761816 -0.004674370420597599 -0.0038031596395941385 -0.0041335737191855477 -0.0045855115905093398 -0.0045478620321137506 -0.0038547563481305656 -0.003782707431048693 -0.0024207833508126941 -0.002752221626819781 -0.0016268669677997494 -0.0016278740634518567 -0.0016705606459183168 -0.0029367204903019218 -0.0029862321188784172 -0.0022811750169392667 -0.0032284635850907484 -0.0028986266078691253 -0.0035960394288238121 -0.0036408494140441113 -0.0031813300872437864 -0.0035283492308775108 -0.0030684384951562274 -0.0040410072534931615 -0.0038153521664035985 -0.0045663031299192263 -0.0041796151353877976 -0.0037775953742855582 -0.0048841357454230457 -0.0048907202390298899 -0.0040209947040688787 -0.0044993504053240253 -0.0010526010070724253 -0.0025086762803798943 -0.0032225675064377866 -0.0016224949379807637 0.0008061667819322417 0.0019439428728630628 0.00093196406290088542 0.00045029827212536263 0.0012672558304949273 0.00073521176776438586 -0.0017606525710280208 -0.0020671472956897445 -0.0017892528043961474 -0.0030139715810147474 -0.0043355627951113147 -0.0018160201779210041 -0.0054399950231750378 -0.0025174716257774718 -0.0037838048268444427 -0.0028139602629142536 -1.0624267851875105e-05 -0.003145522891447696 -0.0033833434296621848 -0.0033705809811373131 -0.0032607916596877808 -0.0031153242101167201 -0.0051551017466634763 -0.0031775831294530033 -0.0041511448938028571 -0.0020622188308543881 -0.0051900776365294624 -0.0023921971363941325 -0.0041389173957585776 -0.0038527289882658716 -0.0056114184476129397 -0.0037739574506437199 -0.005678475964817381 -0.0043076834125025457 -0.004971891096599259 -0.0065536290965834132 -0.0057313337574283474 -0.0075869980507221046 -0.0062708708215107566 -0.0059113742954300594 -0.0063125286939700043 -0.0055546741904774054 -0.0067921866874810985 -0.0057070009944275579 -0.0058655930338702492 -0.0043334518296818496 -0.0057201713315567781 -0.0052645609777897014 -0.0036010969740775459 -0.0045063343028439035 -0.0023226968771558401 -0.0026805155950301723 -0.0034512540880941925 -0.0013818334123106967 -0.0043106042542887177 0.0024653870155407105 -0.0015695007339780326 -2.1532704017175608e-05 -0.0031258509738537055 -0.00069035462472850223 -0.00010875565736046151 -0.003753226430129139 -0.0025591584089054778 -0.0033398967321046358 -0.0057785575156831526 -0.0078523279871279411 -0.0055315111205999079 -0.0058253446697019776 -0.0071584549790634361 -0.0083476889956776851 -0.0068647688894445807 -0.0068081794841814564 -0.0098494428228750042 -0.0087235192741451084 -0.0110175183671085 -0.0096103967639428606 -0.011939334602579121 -0.0091336161822375139 -0.0092019552763623891 -0.0080053310690035469 -0.0067006631036237718 -0.0084313474259770441 -0.0082448927493049967 -0.0091565304214473037 -0.0071240545648228043 -0.0067691610666773677 -0.0080087621397685466 -0.006853033831551867 -0.0089865576238052636 -0.0096971116815456823 -0.009979142640443181 -0.0086500836377007492 -0.0096156429237028579 -0.01023418757840254 -0.009790467101166711 -0.0093195056823015127 -0.0089644116744910379 -0.011185147923442685 -0.010618603592286918 -0.011471617219313571 -0.010154270798484938 -0.012801743189319231 -0.011518347734380076 -0.011659296749327988 -0.011600250882769891 -0.011609900995870462 -0.013871196568728025 -0.013603259200353171 -0.01462827205458396 -0.012698278347523503 -0.013542819602385662 -0.011874103987917162 -0.013492896117740766 -0.011584515562573811 -0.012173193212967628 -0.011175533962185527 -0.013548426921635257 -0.01363960817714166 -0.015423777029055757 -0.015117686732553329 -0.016893967966020496 -0.015288548339538743 -0.016007372989685548 -0.014539734578600742 -0.015585827290349769 -0.018561263449616033 -0.016482162162063385 -0.01884950603457362 -0.017177724677175821 -0.016051358109260616 -0.014509086523050066 -0.013495146648575512 -0.014773645751303022 -0.013166540812599881 -0.012546879852866261 -0.012830285273690789 -0.013976375405977792 -0.014074659639145004 -0.016142982525771565 -0.020002392910682398 -0.019256306986758676 -0.017017626775111969 -0.018697315060274444 -0.014977230859849533 -0.01658905756029827 -0.017000508397929992 -0.015682966644279761 -0.01398383541710807 -0.012835311019112949 -0.010895641167350922 -0.013800001142656639 -0.011218755095400962 -0.013884128452404776 -0.011998325401667953 -0.012133929085771794 -0.0097650354974334885 -0.0099558466140906021 -0.0070037524498731824 -0.010003798871490888 -0.0093613377602873027 -0.009963277479674848 -0.0078447093819066782 -0.0090979739517769512 -0.0076138160542596756 -0.0047419139604464866 -0.0065854577494920963 -0.0016075721898627126 -0.002783616333751817 -0.0046720723269688957 -0.0062067721195764036 -0.0057690573841121112 -0.0045508231798832566 -0.00026157517175381256 -0.0038126279829066301 -0.0022527476171599684 -0.0059757732758402016 -0.0053321896939815122 -0.0024743989653651377 -0.0051283401429293579 -0.0039528738033762501 -0.0074419372335926895 -0.006941632848705373 -0.0083381488906200396 -0.0077455696284933206 -0.010699248461111033 -0.0099665984621068425 -0.01077071592946599 -0.010703219356070388 -0.010503433696583783 -0.0079737377683073707 -0.0076621862384032915 -0.01032145264124823 -0.0093700565095976018 -0.0077496064877537463 -0.0073928121912122217 -0.0065064665125144638 -0.0064507902534749473 -0.0064493940720006249 -0.006497772758227105 -0.008166895830216625 -0.0080549429133509182 -0.0071507773529571605 -0.010080635394622062 -0.010591051532135631 -0.0092072627813068741 -0.0082978317644872845 -0.012191400406183689 -0.0086076064887008197 -0.011685929906287862 -0.010695868719548016 -0.011805802743526661 -0.0097004489557431031 -0.012623733099895451 -0.0083979532640691412 -0.011472556545380153 -0.0096913047466893332 -0.013255857895497172 -0.012579828415822392 -0.014769433395233927 -0.013574659984403832 -0.011096733208816545 -0.0091179067011835369 -0.011734063002505839 -0.01000219422650267 -0.0083134611324786056 -0.0097573845238301815 -0.0077261183192858518 -0.007427334984084738 -0.0089490765690993929 -0.0064079106095295824 -0.007644235118390505 -0.0064018623129681318 -0.011612828804069289 -0.010883683371995329 -0.0096147900854637869 -0.0085151631156818453 -0.010915820368901957 -0.011756568719996169 -0.0081496699969609288 -0.012449884651319298 -0.010015220056888402 -0.013592936054043103 -0.0094532552713842699 -0.010744825590437934 -0.01640035910855478 -0.018503260020654444 -0.017902433532363274 -0.013561672836673699 -0.012687824777466522 -0.0098639273167589886 -0.013892316773202185 -0.0082788744158016347 -0.024006549637676115 -0.035786006442806571 -0.021515593830228288 -0.025622992848342685 -0.028158011376164638 -0.022666523506910091 -0.015795004847601157 -0.020115997079631076 -0.019096370959831299 -0.013728407549828847 -0.013195776914545182 -0.012263623937263508 -0.012647480360704205 -0.017751446779378788 -0.016040572577176431 -0.0057198975697260526 -0.0032666466406204263 -0.0022703324694722596 -0.012027232657001549 -0.0073758923355922712 -0.01206377776376158 -0.0089014073663998272 -0.0085959543921943493 -0.0045306335209775173 -0.0084292486575817671 -0.0054617025416342779 -0.0008413409007142908 -0.0040927635495094372 -0.00075939424174727155 -0.0050062333879454246 -0.00055157944072267706 0.0041820760576404478 -0.0018836086333480079 0.004631446386879387 0.0048134173073751119 0.013582108399891313 0.012624996186466285 0.0043125321854134771 0.0015415344752942838 0.014522576554414251 0.027963790491432876 0.026728218497553406 0.029166888078765801 0.01800905278758097 0.010546422233478119 0.013583220511125821 0.0079000952885585826 0.00026120807347509989 -0.0040819742821101151 -0.00461466298193796 -0.010484693834252384 0.0036271489123352665 -0.0079443174499546458 -0.016527029672723702 -0.020380580260903846 -0.011384002626235758 -0.017571740799765565 -0.013831187771400674 -0.026164213606464259 -0.016204459719964481 -0.019721786640271022 -0.028623931517577882 -0.028884635095496838 -0.041219186132473315 -0.029984031986120995 -0.039276407243602499 -0.031881587090117694 -0.02248137703254546 -0.025604083449854931 0.0059550225068662685 0.0065886720097933227 0.009229381472172506 0.005753540853760987 0.0043057635524974998 0.0029055451498686061 0.00098459708464876047 0.0033741117409025259 -0.0014535810625332726 0.00012084883510497108 -0.0044024750174705418 -0.00078179395651656325 -0.0019022512525329049 0.0011238983739083261 0.0016307106723246131 0.0006487293079613099 -0.0017181409529906516 -0.0031183266505261931 0.0020489576213741645 0.0023050624391375979 0.003931734482987434 -0.00055634326273619819 0.00087600366765300253 0.0054273925108777564 0.0071833049755177375 0.013533657946010164 0.0071082517417731745 0.0095016764995779768 0.0073848597606715714 0.013303168813243315 0.014983263712792337 0.022753418110176189 0.023540387912268323 0.020929412880390023 0.018839862288058815 0.020152284677499271 0.026046204784533952 0.026426690329894677 0.049964563476874717 0.061260054979770481 0.059401826759342496 0.037925197391474333 0.015921496869410259 0.025107660763274402 0.032340166151971592 0.018714092880070657 0.01728566468526312 0.020252770159059491 0.01174536754693057 0.015308453780844115 0.0075366193183526338 0.010941880340675 0.0065852419324384974 0.012015314193128245 0.0035214576998405054 0.0065831434199870743 0.0086378958474877983 0.0062197046402929675 0.0035775525195074149 0.012305482077548604 0.0039193135342122367 0.0045433879340632428 0.0076202470527604923 0.0037659681074702599 0.00042678372956356236 0.004136039671662475 0.0049500291760491994 -0.0009012163739742507 0.0060749004743857471 0.0037811167557607744 0.0040616438998585663 0.012714124680348337 0.011467188865172874 0.010870232584998673 0.010387492853617345 0.017629592125878394 0.021311383687577394 0.025326784187382899 0.062312407279584592 0.0080184081802505674 0.023192353165251436 0.062238278450183676 0.034744294659181933 7.9557052841615841 0.061823958339521701 0.028880246061063208 9.6836830062818109 0.0066634738383916196 0.035064233595454214 16.654564564230526 0.0050180337050744969 0.02201637365569209 0.0056859218541312484 0.0072911701138966348 0.0084176566429341806 0.0048270999804347348 0.0040015327202562873 0.0063380087801508389 0.0052401672581745828 0.0039501889943540924 0.020148265158533629 0.021475871680455061 0.031083488427555483 21.95783387787467 0.024012029074281294 0.021957730641101292 0.013692657303899236 0.020735109189480738 0.0058085929406126169 27.904692693568361 0.015912990220182666 0.0032602066660263329 0.0017025670294897877 0.0056555686208308587 0.0023916450823428595 0.0024216277742555581 -1.86244624217069e-05 -0.0012031591015662646 0.0011178931589803645 0.00044812465942212221 -0.00060572193964041066 -0.0030218384742054256 -0.0031090781652785282 -0.0018456928378875886 -0.0023323356352788257 -0.0009358913765780269 -0.003187215943268408 0.00063885804216508302 -0.00029628262198475551 0.0016841097888775827 0.0018761188920856792 0.0019917881179518926 -0.029207738400344851 -0.034557464170523244 -0.02367886406189823 -0.040669493479859348 -0.038883286149737517 -0.026319625501274369 -0.029001583517363178 -0.018513942876117184 -0.01305305255159675 -0.0050334378225655452 -0.015258641383529392 -0.012412106593834238 -0.020410784932009096 -0.010688784968822862 0.0047384717449021341 -0.0013119437530111355 0.012697631099897841 -0.0030124521703269735 -0.0096403553270600351 0.002429740089874316 0.0043422805904817507 0.018978845063148342 0.031647377561786205 0.025478111468927127 0.029318784520698249 0.011490226234569578 0.017091210021819472 0.020178429822101718 0.0068356107559400803 0.0067841904919365703 0.013968173949322038 0.0128925187071387 0.014110335490442716 0.007760745920545039 0.0045233891499185663 0.0055370236275988916 -0.0027891793619073402 -0.0024748051099689472 -0.0029827672196336419 -0.0087913242485160858 -0.0015701495313221736 0.00019674398706090446 -0.0057580143725393107 -0.0077170533155273696 -0.014606205663468819 -0.016474526167442501 -0.017109281827049738 -0.015337386984428159 -0.010253468696939771 -0.010457039393443751 -0.012682908214486616 -0.016177918813738756 -0.018596521956252832 -0.024419321460824261 -0.016557304930525096 -0.020698007454688527 -0.030890638766204181 -0.023511967518556331 -0.024592938248468643 -0.0081789949213913957 -0.014302222202659198 -0.0096414196079777081 -0.014208516153157547 -0.014711746437055417 -0.019952488709380267 -0.018611901763680772 -0.015826006930870884 -0.013023454839835802 -0.011473994512442021 -0.010475135352340237 -0.007942836392628605 -0.0083573000278156506 -0.011356658317364932 -0.0075415958998561738 -0.0041617548934871351 -0.0052159625203097582 -0.0010323652796242477 -0.0089252755339710443 -0.0091474775933333419 -0.0046165367809364311 -0.0037998065126674252 -0.0018638654148688261 -0.0043314358748172133 0.0034807036942157143 0.0042564540478566837 0.0030676365197950251 0.0050375412604242165 0.010538669158344893 0.0034673101386062388 0.0045220617890331383 -0.00066987916741330367 -0.001074333309472153 0.0038433578023537862 -0.0024555484480170975 0.0018609555611346362 -0.0013920950512229524 0.001939702711036162 0.0010507757379031868 -0.0032444438244731977 -0.005663279100608154 -0.005508172935695832 -0.00846782596388862 -0.0069554457533529401 -0.0049856309146301125 -0.0027414437406685366 -0.0062772856304370572 -0.0011002252181777639 -0.0089785087352585169 -0.011007016215079268 -0.0071848572467372307 -0.0073630783561660085 -0.009566228681176181 -0.0092256634077760857 -0.0076601317790201406 -0.0059689911405240714 -0.0077936269683700488 -0.0077525343216864329 -0.0061986333069617983 -0.0060753478710511288 -0.006489223374903208 -0.0056751044278169349 -0.0072834442958258361 -0.0082922561029921127 -0.011399958668204313 -0.0043039161193865472 -0.0017698969678791032 -0.0011222324016925966 -0.0039685390769587103 -0.0063935574228326901 -0.0065672473516423524 -0.0070576499737724785 -0.0048071077922550096 -0.0048998766549114559 -0.0054303611160521938 -0.002240275865518962 -0.0027324556380002168 -0.0047339074456810432 -0.0021321136826074616 -0.00036774818831904199 0.0015231307223003004 0.005921629860469152 0.0060871211727553942 0.0022852794957266415 0.011501112672814562 0.01826861403345803 0.0061251468927741581 33.939116130825617 0.0088652968409178579 0.012620416635475307 0.011178002592673097 40.166597930673895 0.0067827097796996361 0.013152602819613168 46.568180615524874 0.0064016240248508383 0.0012211309764053602 0.0060550173250134287 -0.00047495511646777899 0.0022574818301969307 0.0013698066103079998 -0.00025215188913066747 0.0073834134462446854 0.0070485389664944331 0.0026969917909900991 0.011704008643155683 52.879979058752511 0.0094197178013169514 0.010135507431580005 0.0066031279464497938 0.0066115426126445165 59.983848994774078 0.011673019420917807 0.0069173250649776641 -0.0025317612169211134 0.0067928946295877368 0.010373446980282197 0.0048776337738300479 -0.00045284259477071376 -0.0098506872246794247 -0.0063289097551908757 -0.010195936139571593 -0.0045281156205335404 -0.0072720005302391311 -0.0067948637354346975 -0.0045261226580275461 -0.003763026526332508 -0.0092242305586527074 -0.0072999258127874065 -0.010181093593456148 -0.0080851902671794235 -0.0094023652597297336 -0.01069144401235303 -0.014221983675010819 -0.011433687130722126 -0.013820701356203946 -0.011823767367589944 -0.010143172388115324 -0.011877868938100531 -0.0063218233553159753 -0.010526948083654926 -0.0093291332209768096 -0.0059761770619125576 -0.0093518966567732176 -0.008194040907661404 -0.0059144326156110871 -0.0071082878092487284 -0.0095638755597439451 -0.0080608880572579505 -0.0084917872046141041 -0.0080330110830521551 -0.0064256861234444629 -0.0076065701099967409 -0.0062791785897853836 -0.0075180712900419222 -0.0076563481593807658 -0.0075184593531392452 -0.0071898505345727275 -0.0047891968781412775 -0.0054643537607684256 -0.0053420502145129084 -0.007393991372360454 -0.0043904714574860143 -0.0056062795788175326 -0.0050788227786832951 -0.0049598682972057835 -0.0057762390987041862 -0.0062845554477851708 -0.0068482692775213433 -0.00014287479791773999 -1.004450721508205 0.0014155852742249071 -0.0033690768716319111 -0.0030166614270910191 -0.0060123614223464416 -0.0040480689546233684 -0.0054195568845494674 -0.0020444175945485768 -0.0047748748462519419 -0.0029906653743369191 -0.0058562101063099614 -0.0015162411995849334 -0.00083964360866762427 -0.0009731215532218021 -0.0006079966406118964 -0.9927733056204433 -0.0022229878444330747 0.0005186244867838169 -1.0088600942471531 0.00034800976143031792 -1.0555889775660212 0.0014750283189375324 0.0015911778213667351 -0.00027222587262008824 -0.0037976605506230381 -0.0037944518799482574 -0.0002698901411996163 -0.0016385117436693731 -0.0052505623329426043 0.00091910763463409761 0.0043417081671677862 0.0019148719375448597 -0.0033010111806068684 0.0017743427131868203 -0.83599998732746439 0.0050554578236046976 0.0032492107508713119 -0.001721056119338038 -0.0052257969094253315 -0.0048347685628519765 -0.0022366150194562829 -0.0065288625128887556 -0.0091459565411899091 -0.010245481871200432 -0.0094295351055031021 -0.0073527254451398114 -0.0079482538942388936 -0.0086485632676054497 -0.0065644524465889587 -0.0042973465398331544 -0.0027817238745111925 -0.0054934673739440599 -0.013166461061238484 -0.017305028277500044 -0.016864779854868357 -0.012023202355632943 -0.014154636788961211 -0.011304871549945805 -0.011902127722371009 -0.012722471952701701 -0.011928813588677915 -0.010546136443693822 -0.0095815258516454716 -0.011485490450211857 -0.011501862717665484 -0.010945064003919976 -0.012894663662352137 -0.012726395374622643 -0.012734312632968913 -0.0090137018965199319 -0.0094051334507149614 -0.0078610760869346503 -0.0091138141894997523 -0.0091295763044798028 -0.0080596604769808886 -0.0065388273303068727 -0.0075761740861323423 -0.0072533060091063157 -0.005960789329412213 -0.0053810165358468831 -0.0065476653006732461 -0.0080165820720400766 -0.007029286218455724 -0.0065295603902455236 -0.0076309849292464042 -0.0073756125832403268 -0.0032118662038610676 -0.0053522918378747925 -0.0023215847041280491 -0.0044813133150283443 -0.0072275210563302293 -0.0069177941276719855 -0.0046966641717901131 -0.0037550974499115305 -0.0060092874777303686 -0.0055802922618712995 -0.0049712313185987737 -0.0022678870183411096 -0.004522341155000123 -0.0015280992729253193 -0.0018037503594812328 -0.00084912768194875254 -0.0010956844643218965 -0.00095293155627110618 0.00043347789694252875 -0.0013667098443949713 -0.0032037936015225669 -0.0024827705501407372 -0.0039122026384890499 -0.0042114181197635426 -0.0030375137477990778 -0.0025333517152599655 -0.0022485612236714213 -0.0027765055364781703 -0.0020253727702955375 0.00044827587872116716 0.0013737054226101338 0.0005146032846214052 -0.00092093928943549723 -0.00066798144982484903 -0.0050843504025978384 -0.0046726878499211179 -0.005917428483539695 -0.005602922846454879 -0.0054149419019818949 -0.0044235758480022517 -0.0053104067285539881 -0.0054061248278139632 -0.0038224617917002636 -0.0032789953098289913 -0.0037483016703384925 -0.0025208389750578462 -0.0034929527471802045 -0.0032016216336522396 -0.0042887725077628107 -0.0040146418945681828 -0.0037279801053986114 -0.0040098180878248941 -0.0038836504221360984 -0.0025936554752695705 -0.0030595490867830833 -0.003516537579994432 -0.0028962043510259135 -0.0032075120397288318 -0.0027687426879803197 -0.0024561322903426525 -0.0020651225743706734 -0.0029647622222522419 -0.0028181539232425999 -0.0029940653410261858 -0.0026935947580602891 -0.0032519512487661681 -0.003075780447889562 -0.002480465845569828 -0.00043998394674317563 0.0021242324867156307 -0.00013820815002797346 -0.0014666555589014276 -0.0020855750016190956 -0.0016071635334300718 -0.00057492473505737357 -0.0013828914131553873 -0.0024687156213519974 -0.0025709702830129123 -0.0018950234464001833 -0.00084437389313643313 0.00018389942478198428 0.0012731810839347185 0.0030828522476431127 -0.016014641454452107 0.009898361007699143 0.34732208436805234 0.0031850456932676174 0.002427147594891578 -0.22959675898755538 0.0070052224934672447 -0.4561674602039838 0.0037921828883599584 0.003114095294668013 -0.0078975222512023859 -0.0078302122923307668 -0.0061955135233751303 -0.010324532989192031 -0.0076990057724389376 -0.0084928065270551203 -0.0099122672557922457 -0.0054407112736065853 -0.0052149710279093629 -0.0019970426978146313 -0.0027911016851453192 0.0013538696180676562 0.0015113776323936116 0.0024052192194569527 0.00097936282852517697 -0.00097511709055885833 -0.0018911903102252631 -0.0022452318946035114 -0.0030452028198972476 -0.0054439069944671077 -0.0038843989436899914 -0.0044746883810826699 -0.0060167925969116902 -0.0039057102502946302 -0.0054626224494831871 -0.0038014687031301883 -0.0025844566352293957 -0.0020232273723493526 -0.0036117334121512669 -0.0041648799598582378 -0.0019364768389094249 -0.0046598357002642227 -0.004270927233802041 -0.0042561929261655945 -0.0057456174389122761 -0.0052989977356141527 -0.004439963946211916 -0.0054069960861695826 -0.0052959724759154003 -0.0045045801390313084 -0.0042986575155761486 -0.0056705320550203206 -0.0038895117634310805 -0.002483521255811097 0.002643680682185557 -1.0033662540900359 -0.0038372160716080433 0.00073961473261844463 0.0022041297333904898 0.0039292180688168445 -0.0055053534842002001 -0.82922732707836611 0.0031395128217962774 0.0018656475602306186 0.0049622584318125759 -0.0065260814046604089 -0.0048101656103916469 -0.0067785688278542353 -0.0036712346603979956 
</DataArray>
</CellData>
</Piece>
</UnstructuredGrid>
</VTKFile>
