<?xml version="1.0"?>
<VTKFile type="UnstructuredGrid" version="0.1" byte_order="LittleEndian">
<UnstructuredGrid>
<Piece NumberOfPoints="3142" NumberOfCells="1054">
<Points>
<DataArray type="Float64" NumberOfComponents="3" format="ascii">
0.02576622439977887 0.024532886826226379 0 0 0 0 0.049999999999899652 0 0 0.02576622439977887 0.024532886826226379 0 0 0 0 0 0.050000000000207989 0 0.02576622439977887 0.024532886826226379 0 0.049999999999899652 0 0 0.053064897599215843 0.048131547304697528 0 0.02576622439977887 0.024532886826226379 0 0.053064897599215843 0.048131547304697528 0 0 0.050000000000207989 0 0 0.050000000000207989 0 0 0.10000000000041601 0 0.044310582753132287 0.101412518374475 0 0 0.10000000000041601 0 0.044310582753132287 0.101412518374475 0 0 0.15000000000062411 0 0.053064897599215843 0.048131547304697528 0 0.044310582753132287 0.101412518374475 0 0.083411279318303222 0.089699755330707398 0 0.053064897599215843 0.048131547304697528 0 0 0.050000000000207989 0 0.044310582753132287 0.101412518374475 0 0.044310582753132287 0.101412518374475 0 0.083411279318303222 0.089699755330707398 0 0.065374659239632718 0.1448908038746782 0 0.083411279318303222 0.089699755330707398 0 0.065374659239632718 0.1448908038746782 0 0.1053400320299198 0.12877248826361379 0 0.083411279318303222 0.089699755330707398 0 0.12372429750337779 0.095814237875728972 0 0.1053400320299198 0.12877248826361379 0 0.12372429750337779 0.095814237875728972 0 0.1053400320299198 0.12877248826361379 0 0.14332333627550789 0.14578431753966009 0 0.12372429750337779 0.095814237875728972 0 0.10266856499169109 0.044518360900210059 0 0.14618258501891079 0.062070108745602003 0 0.083411279318303222 0.089699755330707398 0 0.12372429750337779 0.095814237875728972 0 0.10266856499169109 0.044518360900210059 0 0.10266856499169109 0.044518360900210059 0 0.099999999999814668 0 0 0.14999999999970359 0 0 0.049999999999899652 0 0 0.053064897599215843 0.048131547304697528 0 0.099999999999814668 0 0 0.053064897599215843 0.048131547304697528 0 0.10266856499169109 0.044518360900210059 0 0.099999999999814668 0 0 0.053064897599215843 0.048131547304697528 0 0.083411279318303222 0.089699755330707398 0 0.10266856499169109 0.044518360900210059 0 0.044081577119474857 0.2271058242433576 0 0 0.20000000000083221 0 0 0.25000000000104028 0 0.044081577119474857 0.2271058242433576 0 0 0.20000000000083221 0 0.038512288486115001 0.1844147282893184 0 0.044081577119474857 0.2271058242433576 0 0.038512288486115001 0.1844147282893184 0 0.083105206071467416 0.20007701332709979 0 0.038512288486115001 0.1844147282893184 0 0 0.15000000000062411 0 0.065374659239632718 0.1448908038746782 0 0.044310582753132287 0.101412518374475 0 0 0.15000000000062411 0 0.065374659239632718 0.1448908038746782 0 0.038512288486115001 0.1844147282893184 0 0.065374659239632718 0.1448908038746782 0 0.083105206071467416 0.20007701332709979 0 0 0.20000000000083221 0 0.038512288486115001 0.1844147282893184 0 0 0.15000000000062411 0 0.065374659239632718 0.1448908038746782 0 0.1053400320299198 0.12877248826361379 0 0.106902708054812 0.16453234188234539 0 0.1053400320299198 0.12877248826361379 0 0.106902708054812 0.16453234188234539 0 0.14332333627550789 0.14578431753966009 0 0.065374659239632718 0.1448908038746782 0 0.106902708054812 0.16453234188234539 0 0.083105206071467416 0.20007701332709979 0 0.083105206071467416 0.20007701332709979 0 0.095326043202144745 0.24554465089224409 0 0.13737030665753211 0.20313708640667491 0 0.106902708054812 0.16453234188234539 0 0.083105206071467416 0.20007701332709979 0 0.13737030665753211 0.20313708640667491 0 0.044081577119474857 0.2271058242433576 0 0.083105206071467416 0.20007701332709979 0 0.095326043202144745 0.24554465089224409 0 0.044081577119474857 0.2271058242433576 0 0.095326043202144745 0.24554465089224409 0 0.049706944316556423 0.27522722923869108 0 0.095326043202144745 0.24554465089224409 0 0.14377654328998779 0.2442024734791064 0 0.13737030665753211 0.20313708640667491 0 0.17933913398461551 0.2350063570234002 0 0.14377654328998779 0.2442024734791064 0 0.13737030665753211 0.20313708640667491 0 0.17933913398461551 0.2350063570234002 0 0.13737030665753211 0.20313708640667491 0 0.18124454140915969 0.18790916706335251 0 0.18124454140915969 0.18790916706335251 0 0.14332333627550789 0.14578431753966009 0 0.18652628422869419 0.14162325200928061 0 0.106902708054812 0.16453234188234539 0 0.13737030665753211 0.20313708640667491 0 0.14332333627550789 0.14578431753966009 0 0.13737030665753211 0.20313708640667491 0 0.18124454140915969 0.18790916706335251 0 0.14332333627550789 0.14578431753966009 0 0.14332333627550789 0.14578431753966009 0 0.18652628422869419 0.14162325200928061 0 0.16141998738593399 0.10404039647458049 0 0.18652628422869419 0.14162325200928061 0 0.22985637510995899 0.1298347970200906 0 0.2185883431182947 0.18019736283949719 0 0.22985637510995899 0.1298347970200906 0 0.2185883431182947 0.18019736283949719 0 0.25557216766470708 0.15874861286892261 0 0.2185883431182947 0.18019736283949719 0 0.25557216766470708 0.15874861286892261 0 0.26429849586623999 0.19346700179430079 0 0.18124454140915969 0.18790916706335251 0 0.18652628422869419 0.14162325200928061 0 0.2185883431182947 0.18019736283949719 0 0.17933913398461551 0.2350063570234002 0 0.18124454140915969 0.18790916706335251 0 0.224700362040408 0.22206622194729711 0 0.18124454140915969 0.18790916706335251 0 0.2185883431182947 0.18019736283949719 0 0.224700362040408 0.22206622194729711 0 0.2185883431182947 0.18019736283949719 0 0.224700362040408 0.22206622194729711 0 0.26429849586623999 0.19346700179430079 0 0.224700362040408 0.22206622194729711 0 0.25195515620380449 0.25883339815888678 0 0.21049769590865089 0.26857363548218488 0 0.17933913398461551 0.2350063570234002 0 0.224700362040408 0.22206622194729711 0 0.21049769590865089 0.26857363548218488 0 0.184418230509967 0.038773194583122873 0 0.14999999999970359 0 0 0.14618258501891079 0.062070108745602003 0 0.184418230509967 0.038773194583122873 0 0.14618258501891079 0.062070108745602003 0 0.19922788606653311 0.085920220746880993 0 0.184418230509967 0.038773194583122873 0 0.14999999999970359 0 0 0.19999999999955789 0 0 0.10266856499169109 0.044518360900210059 0 0.14999999999970359 0 0 0.14618258501891079 0.062070108745602003 0 0.12372429750337779 0.095814237875728972 0 0.14618258501891079 0.062070108745602003 0 0.16141998738593399 0.10404039647458049 0 0.12372429750337779 0.095814237875728972 0 0.14332333627550789 0.14578431753966009 0 0.16141998738593399 0.10404039647458049 0 0.18652628422869419 0.14162325200928061 0 0.16141998738593399 0.10404039647458049 0 0.19922788606653311 0.085920220746880993 0 0.14618258501891079 0.062070108745602003 0 0.16141998738593399 0.10404039647458049 0 0.19922788606653311 0.085920220746880993 0 0.18652628422869419 0.14162325200928061 0 0.22985637510995899 0.1298347970200906 0 0.19922788606653311 0.085920220746880993 0 0.22985637510995899 0.1298347970200906 0 0.19922788606653311 0.085920220746880993 0 0.24218496799700481 0.089025544070598317 0 0.22985637510995899 0.1298347970200906 0 0.24218496799700481 0.089025544070598317 0 0.27474541102162192 0.11822029332053539 0 0.19922788606653311 0.085920220746880993 0 0.24218496799700481 0.089025544070598317 0 0.22668068146512929 0.045875643423131329 0 0.24218496799700481 0.089025544070598317 0 0.22668068146512929 0.045875643423131329 0 0.27499999999933927 0.060310814194988557 0 0.184418230509967 0.038773194583122873 0 0.19922788606653311 0.085920220746880993 0 0.22668068146512929 0.045875643423131329 0 0.184418230509967 0.038773194583122873 0 0.22668068146512929 0.045875643423131329 0 0.19999999999955789 0 0 0.22668068146512929 0.045875643423131329 0 0.19999999999955789 0 0 0.24999999999941211 0 0 0.24999999999941211 0 0 0.27499999999933927 0.060310814194988557 0 0.29999999999926641 0 0 0.22668068146512929 0.045875643423131329 0 0.24999999999941211 0 0 0.27499999999933927 0.060310814194988557 0 0.27499999999933927 0.060310814194988557 0 0.29999999999926641 0 0 0.32541448401678508 0.046215317981507749 0 0.29999999999926641 0 0 0.32541448401678508 0.046215317981507749 0 0.34999999999912063 0 0 0.32541448401678508 0.046215317981507749 0 0.3615861437013822 0.03582617922508851 0 0.35312867752657662 0.084946736076730367 0 0.3615861437013822 0.03582617922508851 0 0.35312867752657662 0.084946736076730367 0 0.39591832466117061 0.056982757562006353 0 0.32541448401678508 0.046215317981507749 0 0.3615861437013822 0.03582617922508851 0 0.34999999999912063 0 0 0.3615861437013822 0.03582617922508851 0 0.34999999999912063 0 0 0.3999999999989749 0 0 0.35312867752657662 0.084946736076730367 0 0.36246644853392812 0.1399454205365751 0 0.39823268594401579 0.1116623613130045 0 0.35312867752657662 0.084946736076730367 0 0.32215584939770009 0.1218492143506909 0 0.36246644853392812 0.1399454205365751 0 0.32541448401678508 0.046215317981507749 0 0.35312867752657662 0.084946736076730367 0 0.3096713403101819 0.085471541595262421 0 0.35312867752657662 0.084946736076730367 0 0.32215584939770009 0.1218492143506909 0 0.3096713403101819 0.085471541595262421 0 0.32215584939770009 0.1218492143506909 0 0.3096713403101819 0.085471541595262421 0 0.27474541102162192 0.11822029332053539 0 0.27499999999933927 0.060310814194988557 0 0.32541448401678508 0.046215317981507749 0 0.3096713403101819 0.085471541595262421 0 0.27499999999933927 0.060310814194988557 0 0.3096713403101819 0.085471541595262421 0 0.27474541102162192 0.11822029332053539 0 0.24218496799700481 0.089025544070598317 0 0.27499999999933927 0.060310814194988557 0 0.27474541102162192 0.11822029332053539 0 0.22985637510995899 0.1298347970200906 0 0.27474541102162192 0.11822029332053539 0 0.25557216766470708 0.15874861286892261 0 0.27474541102162192 0.11822029332053539 0 0.25557216766470708 0.15874861286892261 0 0.29336099386129338 0.15892013001050981 0 0.25557216766470708 0.15874861286892261 0 0.29336099386129338 0.15892013001050981 0 0.26429849586623999 0.19346700179430079 0 0.29336099386129338 0.15892013001050981 0 0.31255190597181792 0.19850845631528771 0 0.33084213324567391 0.16272720141332131 0 0.29336099386129338 0.15892013001050981 0 0.26429849586623999 0.19346700179430079 0 0.31255190597181792 0.19850845631528771 0 0.32215584939770009 0.1218492143506909 0 0.27474541102162192 0.11822029332053539 0 0.29336099386129338 0.15892013001050981 0 0.224700362040408 0.22206622194729711 0 0.28040350263641872 0.23054717217092141 0 0.25195515620380449 0.25883339815888678 0 0.224700362040408 0.22206622194729711 0 0.28040350263641872 0.23054717217092141 0 0.26429849586623999 0.19346700179430079 0 0.28040350263641872 0.23054717217092141 0 0.26429849586623999 0.19346700179430079 0 0.31255190597181792 0.19850845631528771 0 0.28040350263641872 0.23054717217092141 0 0.33758650185219202 0.23837101504325639 0 0.29132859388405002 0.27203693976649962 0 0.28040350263641872 0.23054717217092141 0 0.33758650185219202 0.23837101504325639 0 0.31255190597181792 0.19850845631528771 0 0.33758650185219202 0.23837101504325639 0 0.31255190597181792 0.19850845631528771 0 0.3572130504031617 0.1874703368446563 0 0.33758650185219202 0.23837101504325639 0 0.3572130504031617 0.1874703368446563 0 0.38831533174504851 0.2189834941785925 0 0.33758650185219202 0.23837101504325639 0 0.38831533174504851 0.2189834941785925 0 0.3786248352540974 0.27082301512024259 0 0.32215584939770009 0.1218492143506909 0 0.29336099386129338 0.15892013001050981 0 0.33084213324567391 0.16272720141332131 0 0.32215584939770009 0.1218492143506909 0 0.33084213324567391 0.16272720141332131 0 0.36246644853392812 0.1399454205365751 0 0.31255190597181792 0.19850845631528771 0 0.33084213324567391 0.16272720141332131 0 0.3572130504031617 0.1874703368446563 0 0.3572130504031617 0.1874703368446563 0 0.36246644853392812 0.1399454205365751 0 0.39801143831225599 0.16651381068160659 0 0.33084213324567391 0.16272720141332131 0 0.3572130504031617 0.1874703368446563 0 0.36246644853392812 0.1399454205365751 0 0.36246644853392812 0.1399454205365751 0 0.39801143831225599 0.16651381068160659 0 0.39823268594401579 0.1116623613130045 0 0.39801143831225599 0.16651381068160659 0 0.42905200079338551 0.19982395548231649 0 0.44288491854585582 0.14116182884956319 0 0.39801143831225599 0.16651381068160659 0 0.44288491854585582 0.14116182884956319 0 0.39823268594401579 0.1116623613130045 0 0.38831533174504851 0.2189834941785925 0 0.42377727103934271 0.25099357235810238 0 0.3786248352540974 0.27082301512024259 0 0.3572130504031617 0.1874703368446563 0 0.39801143831225599 0.16651381068160659 0 0.38831533174504851 0.2189834941785925 0 0.39801143831225599 0.16651381068160659 0 0.38831533174504851 0.2189834941785925 0 0.42905200079338551 0.19982395548231649 0 0.38831533174504851 0.2189834941785925 0 0.42905200079338551 0.19982395548231649 0 0.42377727103934271 0.25099357235810238 0 0.42905200079338551 0.19982395548231649 0 0.46429753744194407 0.22870891180733599 0 0.42377727103934271 0.25099357235810238 0 0.42905200079338551 0.19982395548231649 0 0.46429753744194407 0.22870891180733599 0 0.47357141910802508 0.1873585799078378 0 0.47357141910802508 0.1873585799078378 0 0.51729576145820033 0.1683240575987815 0 0.50760557329222289 0.20700468884612061 0 0.46429753744194407 0.22870891180733599 0 0.47357141910802508 0.1873585799078378 0 0.50760557329222289 0.20700468884612061 0 0.46429753744194407 0.22870891180733599 0 0.49695729691142171 0.25014895411178018 0 0.50760557329222289 0.20700468884612061 0 0.44288491854585582 0.14116182884956319 0 0.47357141910802508 0.1873585799078378 0 0.48466639505193998 0.1421439844745814 0 0.42905200079338551 0.19982395548231649 0 0.44288491854585582 0.14116182884956319 0 0.47357141910802508 0.1873585799078378 0 0.47357141910802508 0.1873585799078378 0 0.48466639505193998 0.1421439844745814 0 0.51729576145820033 0.1683240575987815 0 0.44288491854585582 0.14116182884956319 0 0.48466639505193998 0.1421439844745814 0 0.47881186583059909 0.093591717165689425 0 0.48466639505193998 0.1421439844745814 0 0.47881186583059909 0.093591717165689425 0 0.51076801031701946 0.1202837388510348 0 0.44288491854585582 0.14116182884956319 0 0.47881186583059909 0.093591717165689425 0 0.43698630808430822 0.080423614171545449 0 0.47881186583059909 0.093591717165689425 0 0.47040171442036788 0.044141676406503738 0 0.43698630808430822 0.080423614171545449 0 0.47881186583059909 0.093591717165689425 0 0.47040171442036788 0.044141676406503738 0 0.52375890611712683 0.059318771819432882 0 0.47040171442036788 0.044141676406503738 0 0.49999999999869432 0 0 0.52375890611712683 0.059318771819432882 0 0.47040171442036788 0.044141676406503738 0 0.49999999999869432 0 0 0.44999999999882923 0 0 0.47040171442036788 0.044141676406503738 0 0.44999999999882923 0 0 0.4320097814748517 0.037406712692169303 0 0.47040171442036788 0.044141676406503738 0 0.4320097814748517 0.037406712692169303 0 0.43698630808430822 0.080423614171545449 0 0.4320097814748517 0.037406712692169303 0 0.3999999999989749 0 0 0.39591832466117061 0.056982757562006353 0 0.4320097814748517 0.037406712692169303 0 0.39591832466117061 0.056982757562006353 0 0.43698630808430822 0.080423614171545449 0 0.44999999999882923 0 0 0.4320097814748517 0.037406712692169303 0 0.3999999999989749 0 0 0.3615861437013822 0.03582617922508851 0 0.3999999999989749 0 0 0.39591832466117061 0.056982757562006353 0 0.35312867752657662 0.084946736076730367 0 0.39591832466117061 0.056982757562006353 0 0.39823268594401579 0.1116623613130045 0 0.44288491854585582 0.14116182884956319 0 0.39823268594401579 0.1116623613130045 0 0.43698630808430822 0.080423614171545449 0 0.39591832466117061 0.056982757562006353 0 0.39823268594401579 0.1116623613130045 0 0.43698630808430822 0.080423614171545449 0 0.42161023666869668 0.39493916313643851 0 0.38707855792647411 0.42299362914874578 0 0.43249999999999988 0.43937499999999979 0 0.42161023666869668 0.39493916313643851 0 0.38083244760691543 0.38531983672244652 0 0.38707855792647411 0.42299362914874578 0 0.42161023666869668 0.39493916313643851 0 0.38083244760691543 0.38531983672244652 0 0.40076539126862748 0.34589349467022118 0 0.38707855792647411 0.42299362914874578 0 0.3908716102680424 0.47010282357248828 0 0.43249999999999988 0.43937499999999979 0 0.3908716102680424 0.47010282357248828 0 0.43507373378304309 0.49699695397193322 0 0.38244435121258652 0.51653317813019495 0 0.3908716102680424 0.47010282357248828 0 0.43507373378304309 0.49699695397193322 0 0.43249999999999988 0.43937499999999979 0 0.43507373378304309 0.49699695397193322 0 0.43249999999999988 0.43937499999999979 0 0.46111841286828259 0.46690301029591341 0 0.43249999999999988 0.43937499999999979 0 0.46111841286828259 0.46690301029591341 0 0.48858720058566618 0.43964267759203868 0 0.43507373378304309 0.49699695397193322 0 0.46111841286828259 0.46690301029591341 0 0.49102375406324739 0.49123754822244059 0 0.46111841286828259 0.46690301029591341 0 0.49102375406324739 0.49123754822244059 0 0.48858720058566618 0.43964267759203868 0 0.48858720058566618 0.43964267759203868 0 0.46655310992796922 0.39650496622958609 0 0.52289427570932567 0.3932284363388488 0 0.43249999999999988 0.43937499999999979 0 0.48858720058566618 0.43964267759203868 0 0.46655310992796922 0.39650496622958609 0 0.42161023666869668 0.39493916313643851 0 0.43249999999999988 0.43937499999999979 0 0.46655310992796922 0.39650496622958609 0 0.42161023666869668 0.39493916313643851 0 0.46655310992796922 0.39650496622958609 0 0.4409427642593301 0.35743108089689513 0 0.46655310992796922 0.39650496622958609 0 0.49077833859261139 0.35229981449445641 0 0.52289427570932567 0.3932284363388488 0 0.49077833859261139 0.35229981449445641 0 0.46226845272279993 0.31901800744800313 0 0.5 0.29999999999999999 0 0.49077833859261139 0.35229981449445641 0 0.46226845272279993 0.31901800744800313 0 0.4409427642593301 0.35743108089689513 0 0.46226845272279993 0.31901800744800313 0 0.4409427642593301 0.35743108089689513 0 0.41914690343363781 0.30688979866601612 0 0.46655310992796922 0.39650496622958609 0 0.49077833859261139 0.35229981449445641 0 0.4409427642593301 0.35743108089689513 0 0.49695729691142171 0.25014895411178018 0 0.4604742573284204 0.27846934318264788 0 0.5 0.29999999999999999 0 0.46429753744194407 0.22870891180733599 0 0.49695729691142171 0.25014895411178018 0 0.4604742573284204 0.27846934318264788 0 0.46226845272279993 0.31901800744800313 0 0.4604742573284204 0.27846934318264788 0 0.5 0.29999999999999999 0 0.46226845272279993 0.31901800744800313 0 0.4604742573284204 0.27846934318264788 0 0.41914690343363781 0.30688979866601612 0 0.46429753744194407 0.22870891180733599 0 0.4604742573284204 0.27846934318264788 0 0.42377727103934271 0.25099357235810238 0 0.4604742573284204 0.27846934318264788 0 0.42377727103934271 0.25099357235810238 0 0.41914690343363781 0.30688979866601612 0 0.42377727103934271 0.25099357235810238 0 0.41914690343363781 0.30688979866601612 0 0.3786248352540974 0.27082301512024259 0 0.41914690343363781 0.30688979866601612 0 0.3786248352540974 0.27082301512024259 0 0.36575549820117997 0.31677992835137742 0 0.42161023666869668 0.39493916313643851 0 0.4409427642593301 0.35743108089689513 0 0.40076539126862748 0.34589349467022118 0 0.4409427642593301 0.35743108089689513 0 0.41914690343363781 0.30688979866601612 0 0.40076539126862748 0.34589349467022118 0 0.41914690343363781 0.30688979866601612 0 0.40076539126862748 0.34589349467022118 0 0.36575549820117997 0.31677992835137742 0 0.40076539126862748 0.34589349467022118 0 0.36575549820117997 0.31677992835137742 0 0.33277555741076909 0.36432196682010132 0 0.38083244760691543 0.38531983672244652 0 0.40076539126862748 0.34589349467022118 0 0.33277555741076909 0.36432196682010132 0 0.36575549820117997 0.31677992835137742 0 0.32752639306529541 0.32610012995269699 0 0.33277555741076909 0.36432196682010132 0 0.32752639306529541 0.32610012995269699 0 0.33277555741076909 0.36432196682010132 0 0.29644548887253103 0.34914008784168082 0 0.33758650185219202 0.23837101504325639 0 0.3786248352540974 0.27082301512024259 0 0.33402499257867951 0.28911035184473982 0 0.3786248352540974 0.27082301512024259 0 0.36575549820117997 0.31677992835137742 0 0.33402499257867951 0.28911035184473982 0 0.36575549820117997 0.31677992835137742 0 0.32752639306529541 0.32610012995269699 0 0.33402499257867951 0.28911035184473982 0 0.32752639306529541 0.32610012995269699 0 0.33402499257867951 0.28911035184473982 0 0.29348325746214782 0.31350119524708198 0 0.33758650185219202 0.23837101504325639 0 0.33402499257867951 0.28911035184473982 0 0.29132859388405002 0.27203693976649962 0 0.33402499257867951 0.28911035184473982 0 0.29132859388405002 0.27203693976649962 0 0.29348325746214782 0.31350119524708198 0 0.29132859388405002 0.27203693976649962 0 0.29348325746214782 0.31350119524708198 0 0.24432083401701241 0.3006253385567515 0 0.29132859388405002 0.27203693976649962 0 0.25195515620380449 0.25883339815888678 0 0.24432083401701241 0.3006253385567515 0 0.28040350263641872 0.23054717217092141 0 0.29132859388405002 0.27203693976649962 0 0.25195515620380449 0.25883339815888678 0 0.33277555741076909 0.36432196682010132 0 0.29644548887253103 0.34914008784168082 0 0.27866744612395528 0.38416094670951489 0 0.32752639306529541 0.32610012995269699 0 0.29644548887253103 0.34914008784168082 0 0.29348325746214782 0.31350119524708198 0 0.29644548887253103 0.34914008784168082 0 0.29348325746214782 0.31350119524708198 0 0.25966125648670141 0.34351016742083729 0 0.29348325746214782 0.31350119524708198 0 0.25966125648670141 0.34351016742083729 0 0.24432083401701241 0.3006253385567515 0 0.29644548887253103 0.34914008784168082 0 0.25966125648670141 0.34351016742083729 0 0.27866744612395528 0.38416094670951489 0 0.25966125648670141 0.34351016742083729 0 0.27866744612395528 0.38416094670951489 0 0.22033343844674469 0.36963382230740238 0 0.27866744612395528 0.38416094670951489 0 0.29124338931648802 0.43334555462578611 0 0.24049127783545701 0.41270748208749802 0 0.29124338931648802 0.43334555462578611 0 0.25982634974572738 0.46097799597715272 0 0.24049127783545701 0.41270748208749802 0 0.27866744612395528 0.38416094670951489 0 0.29124338931648802 0.43334555462578611 0 0.31778888742534622 0.40581751814196781 0 0.33277555741076909 0.36432196682010132 0 0.27866744612395528 0.38416094670951489 0 0.31778888742534622 0.40581751814196781 0 0.33277555741076909 0.36432196682010132 0 0.31778888742534622 0.40581751814196781 0 0.35221190152536241 0.40457127605439203 0 0.31778888742534622 0.40581751814196781 0 0.35221190152536241 0.40457127605439203 0 0.34258405725730701 0.4444034294386992 0 0.29124338931648802 0.43334555462578611 0 0.31778888742534622 0.40581751814196781 0 0.34258405725730701 0.4444034294386992 0 0.38707855792647411 0.42299362914874578 0 0.35221190152536241 0.40457127605439203 0 0.34258405725730701 0.4444034294386992 0 0.38083244760691543 0.38531983672244652 0 0.38707855792647411 0.42299362914874578 0 0.35221190152536241 0.40457127605439203 0 0.38083244760691543 0.38531983672244652 0 0.33277555741076909 0.36432196682010132 0 0.35221190152536241 0.40457127605439203 0 0.3908716102680424 0.47010282357248828 0 0.35024835142131061 0.48654922671676981 0 0.38244435121258652 0.51653317813019495 0 0.3908716102680424 0.47010282357248828 0 0.35024835142131061 0.48654922671676981 0 0.34258405725730701 0.4444034294386992 0 0.38707855792647411 0.42299362914874578 0 0.3908716102680424 0.47010282357248828 0 0.34258405725730701 0.4444034294386992 0 0.29124338931648802 0.43334555462578611 0 0.34258405725730701 0.4444034294386992 0 0.31068898841644388 0.47541502461811092 0 0.35024835142131061 0.48654922671676981 0 0.31068898841644388 0.47541502461811092 0 0.33190227185843768 0.52715113583864037 0 0.35024835142131061 0.48654922671676981 0 0.34258405725730701 0.4444034294386992 0 0.31068898841644388 0.47541502461811092 0 0.31068898841644388 0.47541502461811092 0 0.25982634974572738 0.46097799597715272 0 0.28307294598219601 0.50789252727458634 0 0.29124338931648802 0.43334555462578611 0 0.31068898841644388 0.47541502461811092 0 0.25982634974572738 0.46097799597715272 0 0.25982634974572738 0.46097799597715272 0 0.23975172658309729 0.49475499200540818 0 0.28307294598219601 0.50789252727458634 0 0.23975172658309729 0.49475499200540818 0 0.19604738184454831 0.47787523520405789 0 0.22278230690790279 0.44824268025881547 0 0.19604738184454831 0.47787523520405789 0 0.22278230690790279 0.44824268025881547 0 0.191953871957803 0.42546416763755879 0 0.25982634974572738 0.46097799597715272 0 0.22278230690790279 0.44824268025881547 0 0.24049127783545701 0.41270748208749802 0 0.25982634974572738 0.46097799597715272 0 0.23975172658309729 0.49475499200540818 0 0.22278230690790279 0.44824268025881547 0 0.27866744612395528 0.38416094670951489 0 0.24049127783545701 0.41270748208749802 0 0.22033343844674469 0.36963382230740238 0 0.191953871957803 0.42546416763755879 0 0.1650278706801647 0.38791388161335733 0 0.22033343844674469 0.36963382230740238 0 0.24049127783545701 0.41270748208749802 0 0.191953871957803 0.42546416763755879 0 0.22033343844674469 0.36963382230740238 0 0.22278230690790279 0.44824268025881547 0 0.24049127783545701 0.41270748208749802 0 0.191953871957803 0.42546416763755879 0 0.191953871957803 0.42546416763755879 0 0.13773355295499351 0.42497777642586831 0 0.15801167086041079 0.46008690540259539 0 0.191953871957803 0.42546416763755879 0 0.1650278706801647 0.38791388161335733 0 0.13773355295499351 0.42497777642586831 0 0.1650278706801647 0.38791388161335733 0 0.13773355295499351 0.42497777642586831 0 0.1117088112799664 0.38831403004970022 0 0.13773355295499351 0.42497777642586831 0 0.15801167086041079 0.46008690540259539 0 0.113541300460994 0.46208784312094731 0 0.15801167086041079 0.46008690540259539 0 0.113541300460994 0.46208784312094731 0 0.1216098864341134 0.50637075089503902 0 0.15801167086041079 0.46008690540259539 0 0.1216098864341134 0.50637075089503902 0 0.16618607197337229 0.50652878253548905 0 0.19604738184454831 0.47787523520405789 0 0.15801167086041079 0.46008690540259539 0 0.16618607197337229 0.50652878253548905 0 0.19604738184454831 0.47787523520405789 0 0.191953871957803 0.42546416763755879 0 0.15801167086041079 0.46008690540259539 0 0.25195515620380449 0.25883339815888678 0 0.21049769590865089 0.26857363548218488 0 0.24432083401701241 0.3006253385567515 0 0.21049769590865089 0.26857363548218488 0 0.24432083401701241 0.3006253385567515 0 0.19670163708476801 0.31472518408333222 0 0.21049769590865089 0.26857363548218488 0 0.19670163708476801 0.31472518408333222 0 0.168349569971391 0.28054490850913671 0 0.19670163708476801 0.31472518408333222 0 0.22615676742807109 0.33458786033114157 0 0.18434624290945251 0.35208838264196463 0 0.24432083401701241 0.3006253385567515 0 0.19670163708476801 0.31472518408333222 0 0.22615676742807109 0.33458786033114157 0 0.25966125648670141 0.34351016742083729 0 0.24432083401701241 0.3006253385567515 0 0.22615676742807109 0.33458786033114157 0 0.25966125648670141 0.34351016742083729 0 0.22615676742807109 0.33458786033114157 0 0.22033343844674469 0.36963382230740238 0 0.22615676742807109 0.33458786033114157 0 0.22033343844674469 0.36963382230740238 0 0.18434624290945251 0.35208838264196463 0 0.1650278706801647 0.38791388161335733 0 0.22033343844674469 0.36963382230740238 0 0.18434624290945251 0.35208838264196463 0 0.1650278706801647 0.38791388161335733 0 0.18434624290945251 0.35208838264196463 0 0.14223753364722069 0.3341983344262433 0 0.1650278706801647 0.38791388161335733 0 0.14223753364722069 0.3341983344262433 0 0.1117088112799664 0.38831403004970022 0 0.19670163708476801 0.31472518408333222 0 0.18434624290945251 0.35208838264196463 0 0.14223753364722069 0.3341983344262433 0 0.19670163708476801 0.31472518408333222 0 0.14223753364722069 0.3341983344262433 0 0.168349569971391 0.28054490850913671 0 0.14223753364722069 0.3341983344262433 0 0.168349569971391 0.28054490850913671 0 0.1247745017231483 0.27198077544791172 0 0.14377654328998779 0.2442024734791064 0 0.168349569971391 0.28054490850913671 0 0.1247745017231483 0.27198077544791172 0 0.17933913398461551 0.2350063570234002 0 0.21049769590865089 0.26857363548218488 0 0.168349569971391 0.28054490850913671 0 0.17933913398461551 0.2350063570234002 0 0.14377654328998779 0.2442024734791064 0 0.168349569971391 0.28054490850913671 0 0.095326043202144745 0.24554465089224409 0 0.093851963071650835 0.30582068233324772 0 0.049706944316556423 0.27522722923869108 0 0.095326043202144745 0.24554465089224409 0 0.14377654328998779 0.2442024734791064 0 0.1247745017231483 0.27198077544791172 0 0.095326043202144745 0.24554465089224409 0 0.1247745017231483 0.27198077544791172 0 0.093851963071650835 0.30582068233324772 0 0.14223753364722069 0.3341983344262433 0 0.1247745017231483 0.27198077544791172 0 0.093851963071650835 0.30582068233324772 0 0.093851963071650835 0.30582068233324772 0 0.046389130980076937 0.32668781832131749 0 0.049706944316556423 0.27522722923869108 0 0.093851963071650835 0.30582068233324772 0 0.087545339447545459 0.35122518864182262 0 0.046389130980076937 0.32668781832131749 0 0.14223753364722069 0.3341983344262433 0 0.093851963071650835 0.30582068233324772 0 0.087545339447545459 0.35122518864182262 0 0.14223753364722069 0.3341983344262433 0 0.087545339447545459 0.35122518864182262 0 0.1117088112799664 0.38831403004970022 0 0.087545339447545459 0.35122518864182262 0 0.1117088112799664 0.38831403004970022 0 0.050583896093752537 0.38543522283434112 0 0.087545339447545459 0.35122518864182262 0 0.046389130980076937 0.32668781832131749 0 0.050583896093752537 0.38543522283434112 0 0 0.35000000000145642 0 0.046389130980076937 0.32668781832131749 0 0.050583896093752537 0.38543522283434112 0 0 0.35000000000145642 0 0.046389130980076937 0.32668781832131749 0 0 0.30000000000124832 0 0.046389130980076937 0.32668781832131749 0 0 0.30000000000124832 0 0.049706944316556423 0.27522722923869108 0 0 0.30000000000124832 0 0 0.25000000000104028 0 0.049706944316556423 0.27522722923869108 0 0.044081577119474857 0.2271058242433576 0 0 0.25000000000104028 0 0.049706944316556423 0.27522722923869108 0 0.068743045408989428 0.48853989837882689 0 0.113541300460994 0.46208784312094731 0 0.078358742472063481 0.43365249433908948 0 0.068743045408989428 0.48853989837882689 0 0.113541300460994 0.46208784312094731 0 0.1216098864341134 0.50637075089503902 0 0.13773355295499351 0.42497777642586831 0 0.113541300460994 0.46208784312094731 0 0.078358742472063481 0.43365249433908948 0 0.13773355295499351 0.42497777642586831 0 0.1117088112799664 0.38831403004970022 0 0.078358742472063481 0.43365249433908948 0 0.1117088112799664 0.38831403004970022 0 0.078358742472063481 0.43365249433908948 0 0.050583896093752537 0.38543522283434112 0 0.078358742472063481 0.43365249433908948 0 0.035463093262830522 0.42673416072819947 0 0.050583896093752537 0.38543522283434112 0 0 0.35000000000145642 0 0.050583896093752537 0.38543522283434112 0 0 0.40000000000166441 0 0.035463093262830522 0.42673416072819947 0 0.050583896093752537 0.38543522283434112 0 0 0.40000000000166441 0 0.035463093262830522 0.42673416072819947 0 0 0.40000000000166441 0 0 0.45000000000187229 0 0.035463093262830522 0.42673416072819947 0 0 0.45000000000187229 0 0.033550201249889847 0.46247875832467239 0 0.068743045408989428 0.48853989837882689 0 0.033550201249889847 0.46247875832467239 0 0 0.50000000000205869 0 0.068743045408989428 0.48853989837882689 0 0.078358742472063481 0.43365249433908948 0 0.033550201249889847 0.46247875832467239 0 0.078358742472063481 0.43365249433908948 0 0.035463093262830522 0.42673416072819947 0 0.033550201249889847 0.46247875832467239 0 0 0.45000000000187229 0 0.033550201249889847 0.46247875832467239 0 0 0.50000000000205869 0 0.068743045408989428 0.48853989837882689 0 0 0.50000000000205869 0 0.044576108720083309 0.53509043209532614 0 0 0.50000000000205869 0 0 0.55000000000173355 0 0.044576108720083309 0.53509043209532614 0 0 0.55000000000173355 0 0.044576108720083309 0.53509043209532614 0 0.034381862692950467 0.57372682250960894 0 0.044576108720083309 0.53509043209532614 0 0.077693244765132896 0.56932317963405099 0 0.034381862692950467 0.57372682250960894 0 0.068743045408989428 0.48853989837882689 0 0.044576108720083309 0.53509043209532614 0 0.085622222639554768 0.53333248912060549 0 0.068743045408989428 0.48853989837882689 0 0.085622222639554768 0.53333248912060549 0 0.1216098864341134 0.50637075089503902 0 0.044576108720083309 0.53509043209532614 0 0.085622222639554768 0.53333248912060549 0 0.077693244765132896 0.56932317963405099 0 0.085622222639554768 0.53333248912060549 0 0.1154888278694548 0.56733818459978413 0 0.077693244765132896 0.56932317963405099 0 0.085622222639554768 0.53333248912060549 0 0.1216098864341134 0.50637075089503902 0 0.1154888278694548 0.56733818459978413 0 0.1024350934457823 0.60772393977513839 0 0.1154888278694548 0.56733818459978413 0 0.077693244765132896 0.56932317963405099 0 0.1024350934457823 0.60772393977513839 0 0.050069554451969707 0.61308520079857043 0 0.086179601630648681 0.64647209519980475 0 0.1024350934457823 0.60772393977513839 0 0.077693244765132896 0.56932317963405099 0 0.050069554451969707 0.61308520079857043 0 0.077693244765132896 0.56932317963405099 0 0.050069554451969707 0.61308520079857043 0 0.034381862692950467 0.57372682250960894 0 0 0.55000000000173355 0 0.034381862692950467 0.57372682250960894 0 0 0.60000000000138687 0 0.050069554451969707 0.61308520079857043 0 0 0.60000000000138687 0 0 0.65000000000104008 0 0.050069554451969707 0.61308520079857043 0 0.034381862692950467 0.57372682250960894 0 0 0.60000000000138687 0 0 0.65000000000104008 0 0.046634677244967337 0.671418230738282 0 0 0.7000000000006934 0 0.050069554451969707 0.61308520079857043 0 0.046634677244967337 0.671418230738282 0 0.086179601630648681 0.64647209519980475 0 0.050069554451969707 0.61308520079857043 0 0 0.65000000000104008 0 0.046634677244967337 0.671418230738282 0 0 0.7000000000006934 0 0.049706944316475897 0.72477277076253799 0 0 0.75000000000034661 0 0.046634677244967337 0.671418230738282 0 0 0.7000000000006934 0 0.049706944316475897 0.72477277076253799 0 0.049706944316475897 0.72477277076253799 0 0 0.75000000000034661 0 0.04408157711937423 0.7728941757575627 0 0.049706944316475897 0.72477277076253799 0 0.1020579365089687 0.69352219419301997 0 0.090953281884486245 0.7564451946902494 0 0.1020579365089687 0.69352219419301997 0 0.1215415378367805 0.72939333680004137 0 0.090953281884486245 0.7564451946902494 0 0.046634677244967337 0.671418230738282 0 0.049706944316475897 0.72477277076253799 0 0.1020579365089687 0.69352219419301997 0 0.1215415378367805 0.72939333680004137 0 0.090953281884486245 0.7564451946902494 0 0.14335651144331049 0.75565258250209677 0 0.046634677244967337 0.671418230738282 0 0.1020579365089687 0.69352219419301997 0 0.086179601630648681 0.64647209519980475 0 0.1020579365089687 0.69352219419301997 0 0.086179601630648681 0.64647209519980475 0 0.1241190223511371 0.64391885572885044 0 0.1024350934457823 0.60772393977513839 0 0.086179601630648681 0.64647209519980475 0 0.1241190223511371 0.64391885572885044 0 0.1020579365089687 0.69352219419301997 0 0.1241190223511371 0.64391885572885044 0 0.16500388252850301 0.66612077714085194 0 0.1241190223511371 0.64391885572885044 0 0.16500388252850301 0.66612077714085194 0 0.15720202157091859 0.60665697304410315 0 0.16500388252850301 0.66612077714085194 0 0.19914261668318661 0.62286739485272158 0 0.15720202157091859 0.60665697304410315 0 0.1020579365089687 0.69352219419301997 0 0.16500388252850301 0.66612077714085194 0 0.15332765547575641 0.71200081858233666 0 0.1215415378367805 0.72939333680004137 0 0.15332765547575641 0.71200081858233666 0 0.14335651144331049 0.75565258250209677 0 0.1020579365089687 0.69352219419301997 0 0.1215415378367805 0.72939333680004137 0 0.15332765547575641 0.71200081858233666 0 0.16500388252850301 0.66612077714085194 0 0.15332765547575641 0.71200081858233666 0 0.19068556247388771 0.71028988922845504 0 0.15332765547575641 0.71200081858233666 0 0.14335651144331049 0.75565258250209677 0 0.18269480424590959 0.75905448272264375 0 0.15332765547575641 0.71200081858233666 0 0.19068556247388771 0.71028988922845504 0 0.18269480424590959 0.75905448272264375 0 0.19068556247388771 0.71028988922845504 0 0.2248999640082178 0.72584299459689172 0 0.18269480424590959 0.75905448272264375 0 0.19068556247388771 0.71028988922845504 0 0.2248999640082178 0.72584299459689172 0 0.2236846579037573 0.67380363126050236 0 0.2248999640082178 0.72584299459689172 0 0.2236846579037573 0.67380363126050236 0 0.26439878998046262 0.7048065392091396 0 0.2248999640082178 0.72584299459689172 0 0.22556077506376701 0.77837424984191617 0 0.25676291524611189 0.7436741304886243 0 0.2248999640082178 0.72584299459689172 0 0.25676291524611189 0.7436741304886243 0 0.26439878998046262 0.7048065392091396 0 0.16500388252850301 0.66612077714085194 0 0.2236846579037573 0.67380363126050236 0 0.19914261668318661 0.62286739485272158 0 0.16500388252850301 0.66612077714085194 0 0.19068556247388771 0.71028988922845504 0 0.2236846579037573 0.67380363126050236 0 0.2236846579037573 0.67380363126050236 0 0.2459498854893499 0.63248470766216769 0 0.19914261668318661 0.62286739485272158 0 0.2236846579037573 0.67380363126050236 0 0.2459498854893499 0.63248470766216769 0 0.27820712747429932 0.65530134213254643 0 0.2459498854893499 0.63248470766216769 0 0.19914261668318661 0.62286739485272158 0 0.22549374774072969 0.58452645269293457 0 0.2459498854893499 0.63248470766216769 0 0.22549374774072969 0.58452645269293457 0 0.26573297623774761 0.59828298563722948 0 0.19914261668318661 0.62286739485272158 0 0.22549374774072969 0.58452645269293457 0 0.18381867841758909 0.57774125163628387 0 0.22549374774072969 0.58452645269293457 0 0.20050006573841939 0.53248514016039872 0 0.18381867841758909 0.57774125163628387 0 0.22549374774072969 0.58452645269293457 0 0.25115337790845271 0.54719303014923271 0 0.26573297623774761 0.59828298563722948 0 0.22549374774072969 0.58452645269293457 0 0.20050006573841939 0.53248514016039872 0 0.25115337790845271 0.54719303014923271 0 0.23975172658309729 0.49475499200540818 0 0.20050006573841939 0.53248514016039872 0 0.25115337790845271 0.54719303014923271 0 0.19604738184454831 0.47787523520405789 0 0.20050006573841939 0.53248514016039872 0 0.16618607197337229 0.50652878253548905 0 0.23975172658309729 0.49475499200540818 0 0.19604738184454831 0.47787523520405789 0 0.20050006573841939 0.53248514016039872 0 0.20050006573841939 0.53248514016039872 0 0.14934928745814749 0.55042914607228977 0 0.18381867841758909 0.57774125163628387 0 0.20050006573841939 0.53248514016039872 0 0.16618607197337229 0.50652878253548905 0 0.14934928745814749 0.55042914607228977 0 0.1216098864341134 0.50637075089503902 0 0.16618607197337229 0.50652878253548905 0 0.14934928745814749 0.55042914607228977 0 0.1216098864341134 0.50637075089503902 0 0.1154888278694548 0.56733818459978413 0 0.14934928745814749 0.55042914607228977 0 0.1154888278694548 0.56733818459978413 0 0.14934928745814749 0.55042914607228977 0 0.15720202157091859 0.60665697304410315 0 0.1024350934457823 0.60772393977513839 0 0.1154888278694548 0.56733818459978413 0 0.15720202157091859 0.60665697304410315 0 0.1024350934457823 0.60772393977513839 0 0.1241190223511371 0.64391885572885044 0 0.15720202157091859 0.60665697304410315 0 0.19914261668318661 0.62286739485272158 0 0.15720202157091859 0.60665697304410315 0 0.18381867841758909 0.57774125163628387 0 0.14934928745814749 0.55042914607228977 0 0.15720202157091859 0.60665697304410315 0 0.18381867841758909 0.57774125163628387 0 0.10000000000041601 1 0 0.10266856499240549 0.95548163909968886 0 0.15000000000062411 1 0 0.10266856499240549 0.95548163909968886 0 0.053064897599294662 0.95186845269532028 0 0.083411279318375747 0.91030024466934134 0 0.10000000000041601 1 0 0.050000000000207989 1 0 0.053064897599294662 0.95186845269532028 0 0.10000000000041601 1 0 0.10266856499240549 0.95548163909968886 0 0.053064897599294662 0.95186845269532028 0 0.050000000000207989 1 0 0.025766224399875661 0.97546711317377799 0 0.053064897599294662 0.95186845269532028 0 0.050000000000207989 1 0 0 1 0 0.025766224399875661 0.97546711317377799 0 0 1 0 0.025766224399875661 0.97546711317377799 0 0 0.94999999999979179 0 0.025766224399875661 0.97546711317377799 0 0 0.94999999999979179 0 0.053064897599294662 0.95186845269532028 0 0 0.94999999999979179 0 0.053064897599294662 0.95186845269532028 0 0.0443105827531413 0.89858748162559932 0 0.053064897599294662 0.95186845269532028 0 0.0443105827531413 0.89858748162559932 0 0.083411279318375747 0.91030024466934134 0 0 0.94999999999979179 0 0 0.89999999999958358 0 0.0443105827531413 0.89858748162559932 0 0 0.89999999999958358 0 0.0443105827531413 0.89858748162559932 0 0 0.84999999999965292 0 0.0443105827531413 0.89858748162559932 0 0.083411279318375747 0.91030024466934134 0 0.065374659239661639 0.8551091961254178 0 0.083411279318375747 0.91030024466934134 0 0.10562472963403439 0.87143394428979881 0 0.065374659239661639 0.8551091961254178 0 0.10266856499240549 0.95548163909968886 0 0.083411279318375747 0.91030024466934134 0 0.1241151115713819 0.9045666525468371 0 0.10266856499240549 0.95548163909968886 0 0.1241151115713819 0.9045666525468371 0 0.14617343800780541 0.93808063414349496 0 0.1241151115713819 0.9045666525468371 0 0.10562472963403439 0.87143394428979881 0 0.14474682429600511 0.85524784522713515 0 0.083411279318375747 0.91030024466934134 0 0.1241151115713819 0.9045666525468371 0 0.10562472963403439 0.87143394428979881 0 0.10562472963403439 0.87143394428979881 0 0.1074251789111534 0.83564394292147814 0 0.14474682429600511 0.85524784522713515 0 0.1074251789111534 0.83564394292147814 0 0.065374659239661639 0.8551091961254178 0 0.083105206071452636 0.79992298667296435 0 0.10562472963403439 0.87143394428979881 0 0.1074251789111534 0.83564394292147814 0 0.065374659239661639 0.8551091961254178 0 0.065374659239661639 0.8551091961254178 0 0 0.84999999999965292 0 0.038512288486097702 0.8155852717111195 0 0.0443105827531413 0.89858748162559932 0 0.065374659239661639 0.8551091961254178 0 0 0.84999999999965292 0 0 0.84999999999965292 0 0.038512288486097702 0.8155852717111195 0 0 0.79999999999999982 0 0.065374659239661639 0.8551091961254178 0 0.038512288486097702 0.8155852717111195 0 0.083105206071452636 0.79992298667296435 0 0.038512288486097702 0.8155852717111195 0 0.04408157711937423 0.7728941757575627 0 0.083105206071452636 0.79992298667296435 0 0.038512288486097702 0.8155852717111195 0 0 0.79999999999999982 0 0.04408157711937423 0.7728941757575627 0 0 0.79999999999999982 0 0 0.75000000000034661 0 0.04408157711937423 0.7728941757575627 0 0.049706944316475897 0.72477277076253799 0 0.04408157711937423 0.7728941757575627 0 0.090953281884486245 0.7564451946902494 0 0.04408157711937423 0.7728941757575627 0 0.090953281884486245 0.7564451946902494 0 0.083105206071452636 0.79992298667296435 0 0.1074251789111534 0.83564394292147814 0 0.083105206071452636 0.79992298667296435 0 0.1382744753146134 0.79650574229207483 0 0.090953281884486245 0.7564451946902494 0 0.083105206071452636 0.79992298667296435 0 0.1382744753146134 0.79650574229207483 0 0.090953281884486245 0.7564451946902494 0 0.14335651144331049 0.75565258250209677 0 0.1382744753146134 0.79650574229207483 0 0.14335651144331049 0.75565258250209677 0 0.1382744753146134 0.79650574229207483 0 0.18269480424590959 0.75905448272264375 0 0.1382744753146134 0.79650574229207483 0 0.18269480424590959 0.75905448272264375 0 0.17777405986036951 0.81832336108265358 0 0.2248999640082178 0.72584299459689172 0 0.18269480424590959 0.75905448272264375 0 0.22556077506376701 0.77837424984191617 0 0.22556077506376701 0.77837424984191617 0 0.21858834311891909 0.81980263716112767 0 0.26104540868854792 0.81401944968719064 0 0.22556077506376701 0.77837424984191617 0 0.21858834311891909 0.81980263716112767 0 0.17777405986036951 0.81832336108265358 0 0.18269480424590959 0.75905448272264375 0 0.22556077506376701 0.77837424984191617 0 0.17777405986036951 0.81832336108265358 0 0.21858834311891909 0.81980263716112767 0 0.19741632902693801 0.86755867406447229 0 0.17777405986036951 0.81832336108265358 0 0.21858834311891909 0.81980263716112767 0 0.2401283238295133 0.85648409884788523 0 0.26104540868854792 0.81401944968719064 0 0.21858834311891909 0.81980263716112767 0 0.2401283238295133 0.85648409884788523 0 0.19741632902693801 0.86755867406447229 0 0.19741632902693801 0.86755867406447229 0 0.17777405986036951 0.81832336108265358 0 0.14474682429600511 0.85524784522713515 0 0.19741632902693801 0.86755867406447229 0 0.14474682429600511 0.85524784522713515 0 0.16206583317966519 0.89685560785156404 0 0.1382744753146134 0.79650574229207483 0 0.17777405986036951 0.81832336108265358 0 0.14474682429600511 0.85524784522713515 0 0.1074251789111534 0.83564394292147814 0 0.1382744753146134 0.79650574229207483 0 0.14474682429600511 0.85524784522713515 0 0.1241151115713819 0.9045666525468371 0 0.14474682429600511 0.85524784522713515 0 0.16206583317966519 0.89685560785156404 0 0.1241151115713819 0.9045666525468371 0 0.16206583317966519 0.89685560785156404 0 0.14617343800780541 0.93808063414349496 0 0.16206583317966519 0.89685560785156404 0 0.19901705110390991 0.9175543425573498 0 0.14617343800780541 0.93808063414349496 0 0.19741632902693801 0.86755867406447229 0 0.16206583317966519 0.89685560785156404 0 0.19901705110390991 0.9175543425573498 0 0.19741632902693801 0.86755867406447229 0 0.24536017905392571 0.90704567837671446 0 0.19901705110390991 0.9175543425573498 0 0.2401283238295133 0.85648409884788523 0 0.19741632902693801 0.86755867406447229 0 0.24536017905392571 0.90704567837671446 0 0.24536017905392571 0.90704567837671446 0 0.19901705110390991 0.9175543425573498 0 0.22850979588452081 0.95594428570238643 0 0.19901705110390991 0.9175543425573498 0 0.22850979588452081 0.95594428570238643 0 0.18474005699953849 0.96231585248064622 0 0.24536017905392571 0.90704567837671446 0 0.22850979588452081 0.95594428570238643 0 0.27609987656793722 0.94991445621608572 0 0.22850979588452081 0.95594428570238643 0 0.20000000000083221 1 0 0.25000000000104028 1 0 0.22850979588452081 0.95594428570238643 0 0.20000000000083221 1 0 0.18474005699953849 0.96231585248064622 0 0.20000000000083221 1 0 0.18474005699953849 0.96231585248064622 0 0.15000000000062411 1 0 0.19901705110390991 0.9175543425573498 0 0.18474005699953849 0.96231585248064622 0 0.14617343800780541 0.93808063414349496 0 0.18474005699953849 0.96231585248064622 0 0.14617343800780541 0.93808063414349496 0 0.15000000000062411 1 0 0.10266856499240549 0.95548163909968886 0 0.14617343800780541 0.93808063414349496 0 0.15000000000062411 1 0 0.35000000000145642 1 0 0.36184234618600131 0.96443954459096326 0 0.32544832635163229 0.95485394099568932 0 0.35000000000145642 1 0 0.36184234618600131 0.96443954459096326 0 0.40000000000166441 1 0 0.36184234618600131 0.96443954459096326 0 0.32544832635163229 0.95485394099568932 0 0.35752321586431363 0.9185439911803448 0 0.36184234618600131 0.96443954459096326 0 0.35752321586431363 0.9185439911803448 0 0.39641108128798319 0.94356127926187128 0 0.35000000000145642 1 0 0.32544832635163229 0.95485394099568932 0 0.30000000000124832 1 0 0.30000000000124832 1 0 0.25000000000104028 1 0 0.27609987656793722 0.94991445621608572 0 0.22850979588452081 0.95594428570238643 0 0.25000000000104028 1 0 0.27609987656793722 0.94991445621608572 0 0.32544832635163229 0.95485394099568932 0 0.30000000000124832 1 0 0.27609987656793722 0.94991445621608572 0 0.32544832635163229 0.95485394099568932 0 0.27609987656793722 0.94991445621608572 0 0.30864387279288652 0.89906554525974958 0 0.24536017905392571 0.90704567837671446 0 0.27270076654418179 0.87751467830216623 0 0.30864387279288652 0.89906554525974958 0 0.24536017905392571 0.90704567837671446 0 0.27609987656793722 0.94991445621608572 0 0.30864387279288652 0.89906554525974958 0 0.2401283238295133 0.85648409884788523 0 0.24536017905392571 0.90704567837671446 0 0.27270076654418179 0.87751467830216623 0 0.30864387279288652 0.89906554525974958 0 0.35752321586431363 0.9185439911803448 0 0.35864759629805099 0.87963482415279515 0 0.32544832635163229 0.95485394099568932 0 0.30864387279288652 0.89906554525974958 0 0.35752321586431363 0.9185439911803448 0 0.35752321586431363 0.9185439911803448 0 0.35864759629805099 0.87963482415279515 0 0.39767323751400468 0.89584229130535065 0 0.35864759629805099 0.87963482415279515 0 0.33403534827021109 0.84402799729020661 0 0.39536230704883951 0.84069429572832477 0 0.33403534827021109 0.84402799729020661 0 0.35642984951668422 0.80994399665655703 0 0.39536230704883951 0.84069429572832477 0 0.33403534827021109 0.84402799729020661 0 0.30857225866488791 0.81101973481716805 0 0.35642984951668422 0.80994399665655703 0 0.30864387279288652 0.89906554525974958 0 0.35864759629805099 0.87963482415279515 0 0.33403534827021109 0.84402799729020661 0 0.30864387279288652 0.89906554525974958 0 0.33403534827021109 0.84402799729020661 0 0.29209212897034281 0.84715728365233667 0 0.27270076654418179 0.87751467830216623 0 0.30864387279288652 0.89906554525974958 0 0.29209212897034281 0.84715728365233667 0 0.2401283238295133 0.85648409884788523 0 0.27270076654418179 0.87751467830216623 0 0.29209212897034281 0.84715728365233667 0 0.2401283238295133 0.85648409884788523 0 0.29209212897034281 0.84715728365233667 0 0.26104540868854792 0.81401944968719064 0 0.29209212897034281 0.84715728365233667 0 0.26104540868854792 0.81401944968719064 0 0.30857225866488791 0.81101973481716805 0 0.33403534827021109 0.84402799729020661 0 0.29209212897034281 0.84715728365233667 0 0.30857225866488791 0.81101973481716805 0 0.26104540868854792 0.81401944968719064 0 0.30857225866488791 0.81101973481716805 0 0.2792923945214143 0.77665808831789485 0 0.30857225866488791 0.81101973481716805 0 0.2792923945214143 0.77665808831789485 0 0.33123028043633618 0.77629643437932982 0 0.22556077506376701 0.77837424984191617 0 0.26104540868854792 0.81401944968719064 0 0.2792923945214143 0.77665808831789485 0 0.2792923945214143 0.77665808831789485 0 0.25676291524611189 0.7436741304886243 0 0.29904318922293632 0.74132814928635593 0 0.22556077506376701 0.77837424984191617 0 0.2792923945214143 0.77665808831789485 0 0.25676291524611189 0.7436741304886243 0 0.2792923945214143 0.77665808831789485 0 0.33123028043633618 0.77629643437932982 0 0.29904318922293632 0.74132814928635593 0 0.33123028043633618 0.77629643437932982 0 0.29904318922293632 0.74132814928635593 0 0.35415581127540569 0.73730480045900215 0 0.30857225866488791 0.81101973481716805 0 0.33123028043633618 0.77629643437932982 0 0.35642984951668422 0.80994399665655703 0 0.33123028043633618 0.77629643437932982 0 0.35642984951668422 0.80994399665655703 0 0.38586766253264881 0.78219501014812498 0 0.33123028043633618 0.77629643437932982 0 0.38586766253264881 0.78219501014812498 0 0.35415581127540569 0.73730480045900215 0 0.38586766253264881 0.78219501014812498 0 0.42676259796334498 0.76772545931379299 0 0.40326160981139969 0.73346192995102844 0 0.38586766253264881 0.78219501014812498 0 0.35415581127540569 0.73730480045900215 0 0.40326160981139969 0.73346192995102844 0 0.38586766253264881 0.78219501014812498 0 0.42609163930740518 0.80361684430568059 0 0.39536230704883951 0.84069429572832477 0 0.35642984951668422 0.80994399665655703 0 0.38586766253264881 0.78219501014812498 0 0.39536230704883951 0.84069429572832477 0 0.38586766253264881 0.78219501014812498 0 0.42609163930740518 0.80361684430568059 0 0.42676259796334498 0.76772545931379299 0 0.42676259796334498 0.76772545931379299 0 0.4656888918609538 0.78493261229743638 0 0.45582236402875981 0.73896743678908217 0 0.4656888918609538 0.78493261229743638 0 0.45582236402875981 0.73896743678908217 0 0.50945740445113552 0.75476055527778108 0 0.4656888918609538 0.78493261229743638 0 0.50731287292894423 0.78963574450233831 0 0.50945740445113552 0.75476055527778108 0 0.4656888918609538 0.78493261229743638 0 0.50627822638148745 0.8263979829520941 0 0.50731287292894423 0.78963574450233831 0 0.42609163930740518 0.80361684430568059 0 0.4656888918609538 0.78493261229743638 0 0.45677673713123867 0.84253684404072415 0 0.42609163930740518 0.80361684430568059 0 0.42676259796334498 0.76772545931379299 0 0.4656888918609538 0.78493261229743638 0 0.4656888918609538 0.78493261229743638 0 0.45677673713123867 0.84253684404072415 0 0.50627822638148745 0.8263979829520941 0 0.45677673713123867 0.84253684404072415 0 0.50202631463681879 0.87892870825713787 0 0.50627822638148745 0.8263979829520941 0 0.45677673713123867 0.84253684404072415 0 0.44003836461056539 0.88093474584252718 0 0.50202631463681879 0.87892870825713787 0 0.45677673713123867 0.84253684404072415 0 0.39536230704883951 0.84069429572832477 0 0.44003836461056539 0.88093474584252718 0 0.39536230704883951 0.84069429572832477 0 0.39767323751400468 0.89584229130535065 0 0.44003836461056539 0.88093474584252718 0 0.42609163930740518 0.80361684430568059 0 0.45677673713123867 0.84253684404072415 0 0.39536230704883951 0.84069429572832477 0 0.35864759629805099 0.87963482415279515 0 0.39536230704883951 0.84069429572832477 0 0.39767323751400468 0.89584229130535065 0 0.35752321586431363 0.9185439911803448 0 0.39767323751400468 0.89584229130535065 0 0.39641108128798319 0.94356127926187128 0 0.39767323751400468 0.89584229130535065 0 0.4367309254023824 0.92065556789053882 0 0.39641108128798319 0.94356127926187128 0 0.39767323751400468 0.89584229130535065 0 0.4367309254023824 0.92065556789053882 0 0.44003836461056539 0.88093474584252718 0 0.4367309254023824 0.92065556789053882 0 0.44003836461056539 0.88093474584252718 0 0.47401147028110507 0.91529957330468115 0 0.44003836461056539 0.88093474584252718 0 0.47401147028110507 0.91529957330468115 0 0.50202631463681879 0.87892870825713787 0 0.47401147028110507 0.91529957330468115 0 0.47135117303824892 0.95556877749289892 0 0.52122150208832174 0.94089974453840242 0 0.47401147028110507 0.91529957330468115 0 0.52122150208832174 0.94089974453840242 0 0.50202631463681879 0.87892870825713787 0 0.4367309254023824 0.92065556789053882 0 0.47401147028110507 0.91529957330468115 0 0.47135117303824892 0.95556877749289892 0 0.4367309254023824 0.92065556789053882 0 0.47135117303824892 0.95556877749289892 0 0.4308986359464303 0.96395712492906194 0 0.47135117303824892 0.95556877749289892 0 0.50000000000205869 1 0 0.52122150208832174 0.94089974453840242 0 0.47135117303824892 0.95556877749289892 0 0.45000000000187229 1 0 0.50000000000205869 1 0 0.47135117303824892 0.95556877749289892 0 0.45000000000187229 1 0 0.4308986359464303 0.96395712492906194 0 0.45000000000187229 1 0 0.4308986359464303 0.96395712492906194 0 0.40000000000166441 1 0 0.4308986359464303 0.96395712492906194 0 0.39641108128798319 0.94356127926187128 0 0.40000000000166441 1 0 0.4367309254023824 0.92065556789053882 0 0.4308986359464303 0.96395712492906194 0 0.39641108128798319 0.94356127926187128 0 0.36184234618600131 0.96443954459096326 0 0.39641108128798319 0.94356127926187128 0 0.40000000000166441 1 0 0.33122374654748771 0.57588941099433744 0 0.31502927232353312 0.6134992213375432 0 0.35765792684946668 0.6000687869219653 0 0.31502927232353312 0.6134992213375432 0 0.35765792684946668 0.6000687869219653 0 0.35864735590330371 0.63903383440414463 0 0.35765792684946668 0.6000687869219653 0 0.35864735590330371 0.63903383440414463 0 0.39743091024207589 0.6239520004230239 0 0.33122374654748771 0.57588941099433744 0 0.35765792684946668 0.6000687869219653 0 0.37272913873093971 0.56192925302619479 0 0.37272913873093971 0.56192925302619479 0 0.33190227185843768 0.52715113583864037 0 0.38244435121258652 0.51653317813019495 0 0.33122374654748771 0.57588941099433744 0 0.37272913873093971 0.56192925302619479 0 0.33190227185843768 0.52715113583864037 0 0.35024835142131061 0.48654922671676981 0 0.33190227185843768 0.52715113583864037 0 0.38244435121258652 0.51653317813019495 0 0.33122374654748771 0.57588941099433744 0 0.33190227185843768 0.52715113583864037 0 0.29110487519241501 0.56588143995431495 0 0.33190227185843768 0.52715113583864037 0 0.28307294598219601 0.50789252727458634 0 0.29110487519241501 0.56588143995431495 0 0.31068898841644388 0.47541502461811092 0 0.33190227185843768 0.52715113583864037 0 0.28307294598219601 0.50789252727458634 0 0.23975172658309729 0.49475499200540818 0 0.28307294598219601 0.50789252727458634 0 0.25115337790845271 0.54719303014923271 0 0.28307294598219601 0.50789252727458634 0 0.25115337790845271 0.54719303014923271 0 0.29110487519241501 0.56588143995431495 0 0.25115337790845271 0.54719303014923271 0 0.29110487519241501 0.56588143995431495 0 0.26573297623774761 0.59828298563722948 0 0.33122374654748771 0.57588941099433744 0 0.31502927232353312 0.6134992213375432 0 0.29110487519241501 0.56588143995431495 0 0.31502927232353312 0.6134992213375432 0 0.29110487519241501 0.56588143995431495 0 0.26573297623774761 0.59828298563722948 0 0.31502927232353312 0.6134992213375432 0 0.26573297623774761 0.59828298563722948 0 0.27820712747429932 0.65530134213254643 0 0.2459498854893499 0.63248470766216769 0 0.26573297623774761 0.59828298563722948 0 0.27820712747429932 0.65530134213254643 0 0.2236846579037573 0.67380363126050236 0 0.27820712747429932 0.65530134213254643 0 0.26439878998046262 0.7048065392091396 0 0.27820712747429932 0.65530134213254643 0 0.31378396441836959 0.70157213313026345 0 0.32263089806001177 0.66003674931826484 0 0.27820712747429932 0.65530134213254643 0 0.26439878998046262 0.7048065392091396 0 0.31378396441836959 0.70157213313026345 0 0.31502927232353312 0.6134992213375432 0 0.27820712747429932 0.65530134213254643 0 0.32263089806001177 0.66003674931826484 0 0.25676291524611189 0.7436741304886243 0 0.26439878998046262 0.7048065392091396 0 0.29904318922293632 0.74132814928635593 0 0.26439878998046262 0.7048065392091396 0 0.29904318922293632 0.74132814928635593 0 0.31378396441836959 0.70157213313026345 0 0.29904318922293632 0.74132814928635593 0 0.31378396441836959 0.70157213313026345 0 0.35415581127540569 0.73730480045900215 0 0.31378396441836959 0.70157213313026345 0 0.36622285152418499 0.69092437780804039 0 0.35415581127540569 0.73730480045900215 0 0.36622285152418499 0.69092437780804039 0 0.35415581127540569 0.73730480045900215 0 0.40326160981139969 0.73346192995102844 0 0.31502927232353312 0.6134992213375432 0 0.32263089806001177 0.66003674931826484 0 0.35864735590330371 0.63903383440414463 0 0.31378396441836959 0.70157213313026345 0 0.36622285152418499 0.69092437780804039 0 0.32263089806001177 0.66003674931826484 0 0.36622285152418499 0.69092437780804039 0 0.32263089806001177 0.66003674931826484 0 0.35864735590330371 0.63903383440414463 0 0.36622285152418499 0.69092437780804039 0 0.35864735590330371 0.63903383440414463 0 0.3977710372045391 0.65868194622830212 0 0.35864735590330371 0.63903383440414463 0 0.3977710372045391 0.65868194622830212 0 0.39743091024207589 0.6239520004230239 0 0.36622285152418499 0.69092437780804039 0 0.3977710372045391 0.65868194622830212 0 0.43323420005758778 0.6913544522562407 0 0.3977710372045391 0.65868194622830212 0 0.43323420005758778 0.6913544522562407 0 0.43846182030517877 0.64845797726506715 0 0.43846182030517877 0.64845797726506715 0 0.43545892161006339 0.61093128915313821 0 0.39743091024207589 0.6239520004230239 0 0.3977710372045391 0.65868194622830212 0 0.43846182030517877 0.64845797726506715 0 0.39743091024207589 0.6239520004230239 0 0.36622285152418499 0.69092437780804039 0 0.40326160981139969 0.73346192995102844 0 0.43323420005758778 0.6913544522562407 0 0.40326160981139969 0.73346192995102844 0 0.43323420005758778 0.6913544522562407 0 0.45582236402875981 0.73896743678908217 0 0.42676259796334498 0.76772545931379299 0 0.40326160981139969 0.73346192995102844 0 0.45582236402875981 0.73896743678908217 0 0.43323420005758778 0.6913544522562407 0 0.45582236402875981 0.73896743678908217 0 0.5 0.69999999999999996 0 0.45582236402875981 0.73896743678908217 0 0.5 0.69999999999999996 0 0.50945740445113552 0.75476055527778108 0 0.43323420005758778 0.6913544522562407 0 0.47913475093885149 0.66010775372412711 0 0.5 0.69999999999999996 0 0.43846182030517877 0.64845797726506715 0 0.47913475093885149 0.66010775372412711 0 0.47095389620662098 0.61892551373708504 0 0.43846182030517877 0.64845797726506715 0 0.47095389620662098 0.61892551373708504 0 0.43545892161006339 0.61093128915313821 0 0.43323420005758778 0.6913544522562407 0 0.43846182030517877 0.64845797726506715 0 0.47913475093885149 0.66010775372412711 0 0.47913475093885149 0.66010775372412711 0 0.47095389620662098 0.61892551373708504 0 0.50715858906372158 0.63295939104129484 0 0.47095389620662098 0.61892551373708504 0 0.5166924242153631 0.59825134841919447 0 0.50715858906372158 0.63295939104129484 0 0.47095389620662098 0.61892551373708504 0 0.46666084890304671 0.57634471035397938 0 0.5166924242153631 0.59825134841919447 0 0.47095389620662098 0.61892551373708504 0 0.46666084890304671 0.57634471035397938 0 0.43545892161006339 0.61093128915313821 0 0.43545892161006339 0.61093128915313821 0 0.4089290844030305 0.58728915500154233 0 0.39743091024207589 0.6239520004230239 0 0.46666084890304671 0.57634471035397938 0 0.43545892161006339 0.61093128915313821 0 0.4089290844030305 0.58728915500154233 0 0.46666084890304671 0.57634471035397938 0 0.4089290844030305 0.58728915500154233 0 0.42644501560315817 0.54603747078095544 0 0.37272913873093971 0.56192925302619479 0 0.4089290844030305 0.58728915500154233 0 0.42644501560315817 0.54603747078095544 0 0.35765792684946668 0.6000687869219653 0 0.37272913873093971 0.56192925302619479 0 0.4089290844030305 0.58728915500154233 0 0.35765792684946668 0.6000687869219653 0 0.4089290844030305 0.58728915500154233 0 0.39743091024207589 0.6239520004230239 0 0.37272913873093971 0.56192925302619479 0 0.38244435121258652 0.51653317813019495 0 0.42644501560315817 0.54603747078095544 0 0.43507373378304309 0.49699695397193322 0 0.38244435121258652 0.51653317813019495 0 0.42644501560315817 0.54603747078095544 0 0.46666084890304671 0.57634471035397938 0 0.47793794143994173 0.52940715638744962 0 0.53245488764484505 0.55078124999999989 0 0.43507373378304309 0.49699695397193322 0 0.49102375406324739 0.49123754822244059 0 0.47793794143994173 0.52940715638744962 0 0.43507373378304309 0.49699695397193322 0 0.42644501560315817 0.54603747078095544 0 0.47793794143994173 0.52940715638744962 0 0.46666084890304671 0.57634471035397938 0 0.42644501560315817 0.54603747078095544 0 0.47793794143994173 0.52940715638744962 0 0.49102375406324739 0.49123754822244059 0 0.47793794143994173 0.52940715638744962 0 0.53330375813596242 0.50827942741749099 0 0.47793794143994173 0.52940715638744962 0 0.53245488764484505 0.55078124999999989 0 0.53330375813596242 0.50827942741749099 0 0.53245488764484505 0.55078124999999989 0 0.53330375813596242 0.50827942741749099 0 0.57435499076887508 0.54267261987897775 0 0.53245488764484505 0.55078124999999989 0 0.57435499076887508 0.54267261987897775 0 0.57412547362576272 0.58273804879550706 0 0.53330375813596242 0.50827942741749099 0 0.57611405284611883 0.50165903596042916 0 0.57435499076887508 0.54267261987897775 0 0.57611405284611883 0.50165903596042916 0 0.57435499076887508 0.54267261987897775 0 0.62042975506801734 0.54295974692364424 0 0.57435499076887508 0.54267261987897775 0 0.62042975506801734 0.54295974692364424 0 0.57412547362576272 0.58273804879550706 0 0.57611405284611883 0.50165903596042916 0 0.62042975506801734 0.54295974692364424 0 0.61547661924074692 0.48539576058873962 0 0.5991018319127801 0.62925360607495295 0 0.6405463747586706 0.63290524857395714 0 0.63065402604362242 0.59661356661633302 0 0.57412547362576272 0.58273804879550706 0 0.5991018319127801 0.62925360607495295 0 0.63065402604362242 0.59661356661633302 0 0.62042975506801734 0.54295974692364424 0 0.57412547362576272 0.58273804879550706 0 0.63065402604362242 0.59661356661633302 0 0.57412547362576272 0.58273804879550706 0 0.5498280205245758 0.6290146943450976 0 0.5991018319127801 0.62925360607495295 0 0.46666084890304671 0.57634471035397938 0 0.53245488764484505 0.55078124999999989 0 0.5166924242153631 0.59825134841919447 0 0.57412547362576272 0.58273804879550706 0 0.5166924242153631 0.59825134841919447 0 0.5498280205245758 0.6290146943450976 0 0.53245488764484505 0.55078124999999989 0 0.57412547362576272 0.58273804879550706 0 0.5166924242153631 0.59825134841919447 0 0.5166924242153631 0.59825134841919447 0 0.50715858906372158 0.63295939104129484 0 0.5498280205245758 0.6290146943450976 0 0.47913475093885149 0.66010775372412711 0 0.50715858906372158 0.63295939104129484 0 0.52584555706968406 0.66664215091846768 0 0.50715858906372158 0.63295939104129484 0 0.52584555706968406 0.66664215091846768 0 0.5498280205245758 0.6290146943450976 0 0.47913475093885149 0.66010775372412711 0 0.52584555706968406 0.66664215091846768 0 0.5 0.69999999999999996 0 0.52584555706968406 0.66664215091846768 0 0.54999999999999993 0.69999999999999996 0 0.57484956128872922 0.66573805030881994 0 0.52584555706968406 0.66664215091846768 0 0.5498280205245758 0.6290146943450976 0 0.57484956128872922 0.66573805030881994 0 0.5 0.69999999999999996 0 0.55363780716230748 0.74348740161571747 0 0.50945740445113552 0.75476055527778108 0 0.52584555706968406 0.66664215091846768 0 0.5 0.69999999999999996 0 0.54999999999999993 0.69999999999999996 0 0.5 0.69999999999999996 0 0.54999999999999993 0.69999999999999996 0 0.5 0.69999999999999996 0 0.54999999999999993 0.69999999999999996 0 0.55363780716230748 0.74348740161571747 0 0.55363780716230748 0.74348740161571747 0 0.59999999999999976 0.69999999999999996 0 0.59636844454254345 0.75937156204589151 0 0.54999999999999993 0.69999999999999996 0 0.59999999999999976 0.69999999999999996 0 0.54999999999999993 0.69999999999999996 0 0.59999999999999976 0.69999999999999996 0 0.57484956128872922 0.66573805030881994 0 0.54999999999999993 0.69999999999999996 0 0.55363780716230748 0.74348740161571747 0 0.59999999999999976 0.69999999999999996 0 0.59999999999999976 0.69999999999999996 0 0.6499999999999998 0.69999999999999996 0 0.59999999999999976 0.69999999999999996 0 0.62460753523532009 0.66851202781000296 0 0.6499999999999998 0.69999999999999996 0 0.59999999999999976 0.69999999999999996 0 0.63221990677827677 0.73442891067859706 0 0.59636844454254345 0.75937156204589151 0 0.5498280205245758 0.6290146943450976 0 0.57484956128872922 0.66573805030881994 0 0.5991018319127801 0.62925360607495295 0 0.59999999999999976 0.69999999999999996 0 0.57484956128872922 0.66573805030881994 0 0.62460753523532009 0.66851202781000296 0 0.57484956128872922 0.66573805030881994 0 0.62460753523532009 0.66851202781000296 0 0.5991018319127801 0.62925360607495295 0 0.62460753523532009 0.66851202781000296 0 0.5991018319127801 0.62925360607495295 0 0.6405463747586706 0.63290524857395714 0 0.62460753523532009 0.66851202781000296 0 0.6405463747586706 0.63290524857395714 0 0.675261390228442 0.65996937624687813 0 0.62460753523532009 0.66851202781000296 0 0.675261390228442 0.65996937624687813 0 0.6499999999999998 0.69999999999999996 0 0.675261390228442 0.65996937624687813 0 0.6499999999999998 0.69999999999999996 0 0.69999999999999984 0.69999999999999996 0 0.6405463747586706 0.63290524857395714 0 0.675261390228442 0.65996937624687813 0 0.67529834988829951 0.61613270668143583 0 0.63221990677827677 0.73442891067859706 0 0.66427993341343905 0.73232764502436276 0 0.64753070846764316 0.77332939069435502 0 0.63221990677827677 0.73442891067859706 0 0.6499999999999998 0.69999999999999996 0 0.66427993341343905 0.73232764502436276 0 0.59999999999999976 0.69999999999999996 0 0.63221990677827677 0.73442891067859706 0 0.6499999999999998 0.69999999999999996 0 0.6499999999999998 0.69999999999999996 0 0.69999999999999984 0.69999999999999996 0 0.6499999999999998 0.69999999999999996 0 0.66427993341343905 0.73232764502436276 0 0.69999999999999984 0.69999999999999996 0 0.66427993341343905 0.73232764502436276 0 0.69999999999999984 0.69999999999999996 0 0.6916490518212759 0.75387992374886192 0 0.69999999999999984 0.69999999999999996 0 0.72501250972655151 0.74067302935308721 0 0.6916490518212759 0.75387992374886192 0 0.69999999999999984 0.69999999999999996 0 0.74999999999999989 0.69999999999999996 0 0.72501250972655151 0.74067302935308721 0 0.69999999999999984 0.69999999999999996 0 0.74999999999999989 0.69999999999999996 0 0.72500000000000064 0.67022701834392062 0 0.69999999999999984 0.69999999999999996 0 0.74999999999999989 0.69999999999999996 0 0.74999999999999989 0.69999999999999996 0 0.72501250972655151 0.74067302935308721 0 0.75841349681148107 0.75422312624214749 0 0.675261390228442 0.65996937624687813 0 0.71406021706547751 0.63292083137662503 0 0.72500000000000064 0.67022701834392062 0 0.675261390228442 0.65996937624687813 0 0.71406021706547751 0.63292083137662503 0 0.67529834988829951 0.61613270668143583 0 0.675261390228442 0.65996937624687813 0 0.69999999999999984 0.69999999999999996 0 0.72500000000000064 0.67022701834392062 0 0.71406021706547751 0.63292083137662503 0 0.72500000000000064 0.67022701834392062 0 0.74994237037456724 0.62775548192980357 0 0.72500000000000064 0.67022701834392062 0 0.74994237037456724 0.62775548192980357 0 0.7750489929959945 0.66593931409600093 0 0.71406021706547751 0.63292083137662503 0 0.74994237037456724 0.62775548192980357 0 0.71809016091162536 0.58185040402320831 0 0.74994237037456724 0.62775548192980357 0 0.71809016091162536 0.58185040402320831 0 0.77293540622714185 0.59448302402785813 0 0.71406021706547751 0.63292083137662503 0 0.71809016091162536 0.58185040402320831 0 0.67529834988829951 0.61613270668143583 0 0.71809016091162536 0.58185040402320831 0 0.67569444444444449 0.53500863336860327 0 0.67323294229744413 0.57556450033612505 0 0.71809016091162536 0.58185040402320831 0 0.67529834988829951 0.61613270668143583 0 0.67323294229744413 0.57556450033612505 0 0.71809016091162536 0.58185040402320831 0 0.7152569930854884 0.5237994455134295 0 0.77151014687832564 0.54436834383023036 0 0.7152569930854884 0.5237994455134295 0 0.77151014687832564 0.54436834383023036 0 0.73947346780852752 0.49062440112282169 0 0.7152569930854884 0.5237994455134295 0 0.67569444444444449 0.53500863336860327 0 0.69385896817107129 0.48377516041410151 0 0.71809016091162536 0.58185040402320831 0 0.7152569930854884 0.5237994455134295 0 0.67569444444444449 0.53500863336860327 0 0.62042975506801734 0.54295974692364424 0 0.67569444444444449 0.53500863336860327 0 0.67323294229744413 0.57556450033612505 0 0.67569444444444449 0.53500863336860327 0 0.6541250972820879 0.49999999999999989 0 0.69385896817107129 0.48377516041410151 0 0.62042975506801734 0.54295974692364424 0 0.67569444444444449 0.53500863336860327 0 0.6541250972820879 0.49999999999999989 0 0.62042975506801734 0.54295974692364424 0 0.61547661924074692 0.48539576058873962 0 0.6541250972820879 0.49999999999999989 0 0.62042975506801734 0.54295974692364424 0 0.63065402604362242 0.59661356661633302 0 0.67323294229744413 0.57556450033612505 0 0.6405463747586706 0.63290524857395714 0 0.63065402604362242 0.59661356661633302 0 0.67529834988829951 0.61613270668143583 0 0.63065402604362242 0.59661356661633302 0 0.67529834988829951 0.61613270668143583 0 0.67323294229744413 0.57556450033612505 0 0.60000000000138687 1 0 0.62065498684670595 0.95224934003983619 0 0.57382506491224949 0.9629411906298494 0 0.60000000000138687 1 0 0.62065498684670595 0.95224934003983619 0 0.65000000000104008 1 0 0.62065498684670595 0.95224934003983619 0 0.57382506491224949 0.9629411906298494 0 0.57724883562309992 0.92155686857100794 0 0.60000000000138687 1 0 0.57382506491224949 0.9629411906298494 0 0.55000000000173355 1 0 0.55000000000173355 1 0 0.50000000000205869 1 0 0.52122150208832174 0.94089974453840242 0 0.57382506491224949 0.9629411906298494 0 0.52122150208832174 0.94089974453840242 0 0.57724883562309992 0.92155686857100794 0 0.57382506491224949 0.9629411906298494 0 0.55000000000173355 1 0 0.52122150208832174 0.94089974453840242 0 0.52122150208832174 0.94089974453840242 0 0.54783390826260769 0.89287767010860219 0 0.57724883562309992 0.92155686857100794 0 0.52122150208832174 0.94089974453840242 0 0.50202631463681879 0.87892870825713787 0 0.54783390826260769 0.89287767010860219 0 0.54783390826260769 0.89287767010860219 0 0.5832743223239254 0.88483152652961872 0 0.55899371797446828 0.85003102233514438 0 0.54783390826260769 0.89287767010860219 0 0.5832743223239254 0.88483152652961872 0 0.57724883562309992 0.92155686857100794 0 0.5832743223239254 0.88483152652961872 0 0.57724883562309992 0.92155686857100794 0 0.61885627562261258 0.90282959257498208 0 0.62065498684670595 0.95224934003983619 0 0.57724883562309992 0.92155686857100794 0 0.61885627562261258 0.90282959257498208 0 0.5832743223239254 0.88483152652961872 0 0.61885627562261258 0.90282959257498208 0 0.61343887413683884 0.856862479058357 0 0.61343887413683884 0.856862479058357 0 0.60294066490120068 0.80851322453934582 0 0.65005442820240822 0.82644988530054031 0 0.61343887413683884 0.856862479058357 0 0.55899371797446828 0.85003102233514438 0 0.60294066490120068 0.80851322453934582 0 0.55899371797446828 0.85003102233514438 0 0.54782696902220018 0.79245182748204157 0 0.60294066490120068 0.80851322453934582 0 0.5832743223239254 0.88483152652961872 0 0.61343887413683884 0.856862479058357 0 0.55899371797446828 0.85003102233514438 0 0.50202631463681879 0.87892870825713787 0 0.54783390826260769 0.89287767010860219 0 0.55899371797446828 0.85003102233514438 0 0.50202631463681879 0.87892870825713787 0 0.55899371797446828 0.85003102233514438 0 0.50627822638148745 0.8263979829520941 0 0.55899371797446828 0.85003102233514438 0 0.50627822638148745 0.8263979829520941 0 0.54782696902220018 0.79245182748204157 0 0.50627822638148745 0.8263979829520941 0 0.54782696902220018 0.79245182748204157 0 0.50731287292894423 0.78963574450233831 0 0.54782696902220018 0.79245182748204157 0 0.50731287292894423 0.78963574450233831 0 0.50945740445113552 0.75476055527778108 0 0.55363780716230748 0.74348740161571747 0 0.54782696902220018 0.79245182748204157 0 0.50945740445113552 0.75476055527778108 0 0.55363780716230748 0.74348740161571747 0 0.54782696902220018 0.79245182748204157 0 0.59636844454254345 0.75937156204589151 0 0.54782696902220018 0.79245182748204157 0 0.60294066490120068 0.80851322453934582 0 0.59636844454254345 0.75937156204589151 0 0.60294066490120068 0.80851322453934582 0 0.59636844454254345 0.75937156204589151 0 0.64753070846764316 0.77332939069435502 0 0.63221990677827677 0.73442891067859706 0 0.59636844454254345 0.75937156204589151 0 0.64753070846764316 0.77332939069435502 0 0.60294066490120068 0.80851322453934582 0 0.64753070846764316 0.77332939069435502 0 0.65005442820240822 0.82644988530054031 0 0.64753070846764316 0.77332939069435502 0 0.68024162096458085 0.79868546898116533 0 0.65005442820240822 0.82644988530054031 0 0.64753070846764316 0.77332939069435502 0 0.68024162096458085 0.79868546898116533 0 0.6916490518212759 0.75387992374886192 0 0.66427993341343905 0.73232764502436276 0 0.64753070846764316 0.77332939069435502 0 0.6916490518212759 0.75387992374886192 0 0.72501250972655151 0.74067302935308721 0 0.6916490518212759 0.75387992374886192 0 0.72500000000000064 0.7952620967744265 0 0.72501250972655151 0.74067302935308721 0 0.72500000000000064 0.7952620967744265 0 0.75841349681148107 0.75422312624214749 0 0.68024162096458085 0.79868546898116533 0 0.6916490518212759 0.75387992374886192 0 0.72500000000000064 0.7952620967744265 0 0.68024162096458085 0.79868546898116533 0 0.72500000000000064 0.7952620967744265 0 0.68697391633157634 0.84450604838764298 0 0.72500000000000064 0.7952620967744265 0 0.72863726579783861 0.85390518901155588 0 0.68697391633157634 0.84450604838764298 0 0.72500000000000064 0.7952620967744265 0 0.72863726579783861 0.85390518901155588 0 0.76901770135486491 0.84293557325473656 0 0.72863726579783861 0.85390518901155588 0 0.68697391633157634 0.84450604838764298 0 0.7250000000005199 0.89375000000045834 0 0.68697391633157634 0.84450604838764298 0 0.66412543161245952 0.88015090885499059 0 0.7250000000005199 0.89375000000045834 0 0.68697391633157634 0.84450604838764298 0 0.65005442820240822 0.82644988530054031 0 0.66412543161245952 0.88015090885499059 0 0.68024162096458085 0.79868546898116533 0 0.68697391633157634 0.84450604838764298 0 0.65005442820240822 0.82644988530054031 0 0.61343887413683884 0.856862479058357 0 0.65005442820240822 0.82644988530054031 0 0.66412543161245952 0.88015090885499059 0 0.61885627562261258 0.90282959257498208 0 0.61343887413683884 0.856862479058357 0 0.66412543161245952 0.88015090885499059 0 0.61885627562261258 0.90282959257498208 0 0.65507451745379841 0.92229208810758578 0 0.66412543161245952 0.88015090885499059 0 0.62065498684670595 0.95224934003983619 0 0.61885627562261258 0.90282959257498208 0 0.65507451745379841 0.92229208810758578 0 0.65507451745379841 0.92229208810758578 0 0.68987011941058407 0.92105047536677087 0 0.68015064798562208 0.95924320340003011 0 0.65507451745379841 0.92229208810758578 0 0.66412543161245952 0.88015090885499059 0 0.68987011941058407 0.92105047536677087 0 0.66412543161245952 0.88015090885499059 0 0.7250000000005199 0.89375000000045834 0 0.68987011941058407 0.92105047536677087 0 0.72863726579783861 0.85390518901155588 0 0.7250000000005199 0.89375000000045834 0 0.76891166905518427 0.88835469571185499 0 0.7250000000005199 0.89375000000045834 0 0.7250000000005199 0.94981617647078953 0 0.75729602384198635 0.92353652857884294 0 0.7250000000005199 0.89375000000045834 0 0.68987011941058407 0.92105047536677087 0 0.7250000000005199 0.94981617647078953 0 0.68987011941058407 0.92105047536677087 0 0.7250000000005199 0.94981617647078953 0 0.68015064798562208 0.95924320340003011 0 0.7250000000005199 0.94981617647078953 0 0.7000000000006934 1 0 0.75000000000034661 1 0 0.7250000000005199 0.94981617647078953 0 0.75000000000034661 1 0 0.770759834363826 0.95919399014344442 0 0.7250000000005199 0.94981617647078953 0 0.7000000000006934 1 0 0.68015064798562208 0.95924320340003011 0 0.7000000000006934 1 0 0.68015064798562208 0.95924320340003011 0 0.65000000000104008 1 0 0.62065498684670595 0.95224934003983619 0 0.65507451745379841 0.92229208810758578 0 0.68015064798562208 0.95924320340003011 0 0.62065498684670595 0.95224934003983619 0 0.68015064798562208 0.95924320340003011 0 0.65000000000104008 1 0 0.84999999999965292 1 0 0.85170973911348691 0.93569607295217616 0 0.89898474358632463 0.95391965591118966 0 0.84999999999965292 1 0 0.81486180804382891 0.96321394949790495 0 0.85170973911348691 0.93569607295217616 0 0.81486180804382891 0.96321394949790495 0 0.79680861578988083 0.92656778056766709 0 0.85170973911348691 0.93569607295217616 0 0.84999999999965292 1 0 0.81486180804382891 0.96321394949790495 0 0.79999999999999982 1 0 0.81486180804382891 0.96321394949790495 0 0.79999999999999982 1 0 0.770759834363826 0.95919399014344442 0 0.79999999999999982 1 0 0.75000000000034661 1 0 0.770759834363826 0.95919399014344442 0 0.7250000000005199 0.94981617647078953 0 0.770759834363826 0.95919399014344442 0 0.75729602384198635 0.92353652857884294 0 0.81486180804382891 0.96321394949790495 0 0.770759834363826 0.95919399014344442 0 0.79680861578988083 0.92656778056766709 0 0.79680861578988083 0.92656778056766709 0 0.75729602384198635 0.92353652857884294 0 0.76891166905518427 0.88835469571185499 0 0.770759834363826 0.95919399014344442 0 0.79680861578988083 0.92656778056766709 0 0.75729602384198635 0.92353652857884294 0 0.7250000000005199 0.89375000000045834 0 0.75729602384198635 0.92353652857884294 0 0.76891166905518427 0.88835469571185499 0 0.79680861578988083 0.92656778056766709 0 0.76891166905518427 0.88835469571185499 0 0.81159157511211755 0.88795995483179491 0 0.81159157511211755 0.88795995483179491 0 0.85170973911348691 0.93569607295217616 0 0.85600844944837662 0.88483418979512773 0 0.79680861578988083 0.92656778056766709 0 0.81159157511211755 0.88795995483179491 0 0.85170973911348691 0.93569607295217616 0 0.85170973911348691 0.93569607295217616 0 0.85600844944837662 0.88483418979512773 0 0.90416666666660628 0.9041666666666166 0 0.85600844944837662 0.88483418979512773 0 0.82709327591091286 0.84937141670920724 0 0.88088768115933802 0.84674609810493673 0 0.82709327591091286 0.84937141670920724 0 0.84725310900444062 0.80779732082917555 0 0.88088768115933802 0.84674609810493673 0 0.82709327591091286 0.84937141670920724 0 0.80041942726660109 0.81543261647703358 0 0.84725310900444062 0.80779732082917555 0 0.81159157511211755 0.88795995483179491 0 0.85600844944837662 0.88483418979512773 0 0.82709327591091286 0.84937141670920724 0 0.76891166905518427 0.88835469571185499 0 0.81159157511211755 0.88795995483179491 0 0.76901770135486491 0.84293557325473656 0 0.81159157511211755 0.88795995483179491 0 0.82709327591091286 0.84937141670920724 0 0.76901770135486491 0.84293557325473656 0 0.72863726579783861 0.85390518901155588 0 0.76891166905518427 0.88835469571185499 0 0.76901770135486491 0.84293557325473656 0 0.76901770135486491 0.84293557325473656 0 0.80041942726660109 0.81543261647703358 0 0.77094201086366854 0.79647480515688507 0 0.82709327591091286 0.84937141670920724 0 0.76901770135486491 0.84293557325473656 0 0.80041942726660109 0.81543261647703358 0 0.80041942726660109 0.81543261647703358 0 0.77094201086366854 0.79647480515688507 0 0.80185942888539485 0.77452061303608133 0 0.72500000000000064 0.7952620967744265 0 0.77094201086366854 0.79647480515688507 0 0.75841349681148107 0.75422312624214749 0 0.72500000000000064 0.7952620967744265 0 0.76901770135486491 0.84293557325473656 0 0.77094201086366854 0.79647480515688507 0 0.77094201086366854 0.79647480515688507 0 0.75841349681148107 0.75422312624214749 0 0.80185942888539485 0.77452061303608133 0 0.75841349681148107 0.75422312624214749 0 0.80185942888539485 0.77452061303608133 0 0.78578450296893509 0.73292684821144505 0 0.80185942888539485 0.77452061303608133 0 0.84725310900444062 0.80779732082917555 0 0.85491058998424563 0.76004753345552634 0 0.80185942888539485 0.77452061303608133 0 0.85491058998424563 0.76004753345552634 0 0.81864958914779962 0.73589050177899629 0 0.80041942726660109 0.81543261647703358 0 0.80185942888539485 0.77452061303608133 0 0.84725310900444062 0.80779732082917555 0 0.84725310900444062 0.80779732082917555 0 0.85491058998424563 0.76004753345552634 0 0.90299850604011456 0.79563452813489832 0 0.85491058998424563 0.76004753345552634 0 0.90299850604011456 0.79563452813489832 0 0.89999166460796554 0.74528934923809909 0 0.90299850604011456 0.79563452813489832 0 0.94399509803918602 0.75600490196082126 0 0.95386563387742829 0.80414874155775029 0 0.90299850604011456 0.79563452813489832 0 0.94399509803918602 0.75600490196082126 0 0.89999166460796554 0.74528934923809909 0 0.94399509803918602 0.75600490196082126 0 0.97435614836745565 0.77499999999987745 0 0.95386563387742829 0.80414874155775029 0 0.94399509803918602 0.75600490196082126 0 0.97435614836745565 0.77499999999987745 0 0.97166519676947294 0.73337114490064459 0 0.97435614836745565 0.77499999999987745 0 0.97166519676947294 0.73337114490064459 0 1 0.74999999999993494 0 0.97435614836745565 0.77499999999987745 0 1 0.7999999999998193 0 1 0.74999999999993494 0 0.97435614836745565 0.77499999999987745 0 1 0.7999999999998193 0 0.95386563387742829 0.80414874155775029 0 1 0.84999999999982645 0 0.93677536231884972 0.85000000000000286 0 0.95391631417670719 0.89584263333814784 0 0.95386563387742829 0.80414874155775029 0 1 0.84999999999982645 0 0.93677536231884972 0.85000000000000286 0 1 0.7999999999998193 0 0.95386563387742829 0.80414874155775029 0 1 0.84999999999982645 0 0.93677536231884972 0.85000000000000286 0 0.88088768115933802 0.84674609810493673 0 0.90416666666660628 0.9041666666666166 0 0.90299850604011456 0.79563452813489832 0 0.95386563387742829 0.80414874155775029 0 0.93677536231884972 0.85000000000000286 0 0.90299850604011456 0.79563452813489832 0 0.93677536231884972 0.85000000000000286 0 0.88088768115933802 0.84674609810493673 0 0.84725310900444062 0.80779732082917555 0 0.90299850604011456 0.79563452813489832 0 0.88088768115933802 0.84674609810493673 0 0.85600844944837662 0.88483418979512773 0 0.88088768115933802 0.84674609810493673 0 0.90416666666660628 0.9041666666666166 0 0.85170973911348691 0.93569607295217616 0 0.90416666666660628 0.9041666666666166 0 0.89898474358632463 0.95391965591118966 0 0.90416666666660628 0.9041666666666166 0 0.95391631417670719 0.89584263333814784 0 0.94399509803919068 0.9439950980391687 0 0.90416666666660628 0.9041666666666166 0 0.94399509803919068 0.9439950980391687 0 0.89898474358632463 0.95391965591118966 0 0.93677536231884972 0.85000000000000286 0 0.90416666666660628 0.9041666666666166 0 0.95391631417670719 0.89584263333814784 0 1 0.84999999999982645 0 0.95391631417670719 0.89584263333814784 0 1 0.8999999999998336 0 1 0.8999999999998336 0 0.97435614836744289 0.92499999999990257 0 1 0.94999999999997109 0 0.95391631417670719 0.89584263333814784 0 1 0.8999999999998336 0 0.97435614836744289 0.92499999999990257 0 0.95391631417670719 0.89584263333814784 0 0.97435614836744289 0.92499999999990257 0 0.94399509803919068 0.9439950980391687 0 0.97435614836744289 0.92499999999990257 0 0.94399509803919068 0.9439950980391687 0 0.97166519676946206 0.96662885509935492 0 0.97435614836744289 0.92499999999990257 0 0.97166519676946206 0.96662885509935492 0 1 0.94999999999997109 0 0.97166519676946206 0.96662885509935492 0 1 0.94999999999997109 0 1 1 0 0.97166519676946206 0.96662885509935492 0 1 1 0 0.94999999999979179 1 0 0.94399509803919068 0.9439950980391687 0 0.97166519676946206 0.96662885509935492 0 0.94999999999979179 1 0 0.94999999999979179 1 0 0.89898474358632463 0.95391965591118966 0 0.89999999999958358 1 0 0.94399509803919068 0.9439950980391687 0 0.94999999999979179 1 0 0.89898474358632463 0.95391965591118966 0 0.84999999999965292 1 0 0.89898474358632463 0.95391965591118966 0 0.89999999999958358 1 0 0.81723410853263523 0.59419663659258926 0 0.86956835336234861 0.571283299838105 0 0.82862096804812391 0.55037090955459045 0 0.81723410853263523 0.59419663659258926 0 0.87159648282691515 0.61285406320581504 0 0.83758014339878906 0.63222013025741819 0 0.81723410853263523 0.59419663659258926 0 0.79884539758237771 0.62875045078114233 0 0.83758014339878906 0.63222013025741819 0 0.81723410853263523 0.59419663659258926 0 0.87159648282691515 0.61285406320581504 0 0.86956835336234861 0.571283299838105 0 0.86956835336234861 0.571283299838105 0 0.86907294890112186 0.52008116128001669 0 0.82862096804812391 0.55037090955459045 0 0.86907294890112186 0.52008116128001669 0 0.81441713509985358 0.51161854125224959 0 0.82862096804812391 0.55037090955459045 0 0.86907294890112186 0.52008116128001669 0 0.81441713509985358 0.51161854125224959 0 0.84723782639812573 0.48638347960178252 0 0.81441713509985358 0.51161854125224959 0 0.82862096804812391 0.55037090955459045 0 0.77151014687832564 0.54436834383023036 0 0.81441713509985358 0.51161854125224959 0 0.77151014687832564 0.54436834383023036 0 0.77846603114747959 0.49850927265137401 0 0.77151014687832564 0.54436834383023036 0 0.77846603114747959 0.49850927265137401 0 0.73947346780852752 0.49062440112282169 0 0.71809016091162536 0.58185040402320831 0 0.77151014687832564 0.54436834383023036 0 0.77293540622714185 0.59448302402785813 0 0.81723410853263523 0.59419663659258926 0 0.77151014687832564 0.54436834383023036 0 0.77293540622714185 0.59448302402785813 0 0.81723410853263523 0.59419663659258926 0 0.82862096804812391 0.55037090955459045 0 0.77151014687832564 0.54436834383023036 0 0.81723410853263523 0.59419663659258926 0 0.77293540622714185 0.59448302402785813 0 0.79884539758237771 0.62875045078114233 0 0.74994237037456724 0.62775548192980357 0 0.77293540622714185 0.59448302402785813 0 0.79884539758237771 0.62875045078114233 0 0.74994237037456724 0.62775548192980357 0 0.7750489929959945 0.66593931409600093 0 0.79884539758237771 0.62875045078114233 0 0.74999999999999989 0.69999999999999996 0 0.72500000000000064 0.67022701834392062 0 0.7750489929959945 0.66593931409600093 0 0.7750489929959945 0.66593931409600093 0 0.79999999999999982 0.69999999999999996 0 0.82457059160610424 0.66831947184359608 0 0.7750489929959945 0.66593931409600093 0 0.79884539758237771 0.62875045078114233 0 0.82457059160610424 0.66831947184359608 0 0.74999999999999989 0.69999999999999996 0 0.75841349681148107 0.75422312624214749 0 0.78578450296893509 0.73292684821144505 0 0.74999999999999989 0.69999999999999996 0 0.79999999999999982 0.69999999999999996 0 0.78578450296893509 0.73292684821144505 0 0.74999999999999989 0.69999999999999996 0 0.7750489929959945 0.66593931409600093 0 0.79999999999999982 0.69999999999999996 0 0.74999999999999989 0.69999999999999996 0 0.79999999999999982 0.69999999999999996 0 0.80185942888539485 0.77452061303608133 0 0.78578450296893509 0.73292684821144505 0 0.81864958914779962 0.73589050177899629 0 0.79999999999999982 0.69999999999999996 0 0.78578450296893509 0.73292684821144505 0 0.81864958914779962 0.73589050177899629 0 0.85491058998424563 0.76004753345552634 0 0.81864958914779962 0.73589050177899629 0 0.84999999999999987 0.69999999999999996 0 0.79999999999999982 0.69999999999999996 0 0.84999999999999987 0.69999999999999996 0 0.79999999999999982 0.69999999999999996 0 0.84999999999999987 0.69999999999999996 0 0.82457059160610424 0.66831947184359608 0 0.79999999999999982 0.69999999999999996 0 0.81864958914779962 0.73589050177899629 0 0.84999999999999987 0.69999999999999996 0 0.84999999999999987 0.69999999999999996 0 0.89999999999999991 0.69999999999999996 0 0.85491058998424563 0.76004753345552634 0 0.84999999999999987 0.69999999999999996 0 0.89999166460796554 0.74528934923809909 0 0.79884539758237771 0.62875045078114233 0 0.83758014339878906 0.63222013025741819 0 0.82457059160610424 0.66831947184359608 0 0.84999999999999987 0.69999999999999996 0 0.82457059160610424 0.66831947184359608 0 0.87712158428786946 0.65709029563313581 0 0.87159648282691515 0.61285406320581504 0 0.83758014339878906 0.63222013025741819 0 0.87712158428786946 0.65709029563313581 0 0.83758014339878906 0.63222013025741819 0 0.82457059160610424 0.66831947184359608 0 0.87712158428786946 0.65709029563313581 0 0.87712158428786946 0.65709029563313581 0 0.92057473616084773 0.66770436535372446 0 0.91750694127105259 0.63017627779935648 0 0.87159648282691515 0.61285406320581504 0 0.87712158428786946 0.65709029563313581 0 0.91750694127105259 0.63017627779935648 0 0.84999999999999987 0.69999999999999996 0 0.87712158428786946 0.65709029563313581 0 0.89999999999999991 0.69999999999999996 0 0.87712158428786946 0.65709029563313581 0 0.92057473616084773 0.66770436535372446 0 0.89999999999999991 0.69999999999999996 0 0.92057473616084773 0.66770436535372446 0 0.91750694127105259 0.63017627779935648 0 0.9578014258160763 0.65787212321113708 0 0.84999999999999987 0.69999999999999996 0 0.89999166460796554 0.74528934923809909 0 0.89999999999999991 0.69999999999999996 0 0.89999999999999991 0.69999999999999996 0 0.94999999999999996 0.69999999999999996 0 0.92057473616084773 0.66770436535372446 0 0.89999999999999991 0.69999999999999996 0 0.94999999999999996 0.69999999999999996 0 0.89999166460796554 0.74528934923809909 0 0.89999999999999991 0.69999999999999996 0 0.94999999999999996 0.69999999999999996 0 0.94399509803918602 0.75600490196082126 0 0.89999166460796554 0.74528934923809909 0 0.94999999999999996 0.69999999999999996 0 0.94399509803918602 0.75600490196082126 0 0.94999999999999996 0.69999999999999996 0 0.97166519676947294 0.73337114490064459 0 0.94999999999999996 0.69999999999999996 0 1 0.69999999999999996 0 0.94999999999999996 0.69999999999999996 0 1 0.69999999999999996 0 0.97166519676947294 0.73337114490064459 0 1 0.69999999999999996 0 0.97166519676947294 0.73337114490064459 0 1 0.74999999999993494 0 0.91750694127105259 0.63017627779935648 0 0.9578014258160763 0.65787212321113708 0 0.95867599106212187 0.60011091146651041 0 0.92057473616084773 0.66770436535372446 0 0.94999999999999996 0.69999999999999996 0 0.9578014258160763 0.65787212321113708 0 0.94999999999999996 0.69999999999999996 0 1 0.69999999999999996 0 0.9578014258160763 0.65787212321113708 0 1 0.69999999999999996 0 0.9578014258160763 0.65787212321113708 0 1 0.64999999999986979 0 0.9578014258160763 0.65787212321113708 0 1 0.64999999999986979 0 0.95867599106212187 0.60011091146651041 0 0.95867599106212187 0.60011091146651041 0 0.93732437411268477 0.55911392101136159 0 1 0.54999999999963112 0 1 0.64999999999986979 0 1 0.59999999999973963 0 0.95867599106212187 0.60011091146651041 0 1 0.59999999999973963 0 0.95867599106212187 0.60011091146651041 0 1 0.54999999999963112 0 0.91750694127105259 0.63017627779935648 0 0.95867599106212187 0.60011091146651041 0 0.91143117093204207 0.58709913730335972 0 0.95867599106212187 0.60011091146651041 0 0.91143117093204207 0.58709913730335972 0 0.93732437411268477 0.55911392101136159 0 0.86956835336234861 0.571283299838105 0 0.91143117093204207 0.58709913730335972 0 0.90900154012161016 0.53607784105648792 0 0.87159648282691515 0.61285406320581504 0 0.86956835336234861 0.571283299838105 0 0.91143117093204207 0.58709913730335972 0 0.87159648282691515 0.61285406320581504 0 0.91750694127105259 0.63017627779935648 0 0.91143117093204207 0.58709913730335972 0 0.86907294890112186 0.52008116128001669 0 0.90900154012161016 0.53607784105648792 0 0.91696753777131557 0.497780560203536 0 0.86956835336234861 0.571283299838105 0 0.86907294890112186 0.52008116128001669 0 0.90900154012161016 0.53607784105648792 0 0.90900154012161016 0.53607784105648792 0 0.93732437411268477 0.55911392101136159 0 0.95631871884947484 0.51827533208233789 0 0.91143117093204207 0.58709913730335972 0 0.90900154012161016 0.53607784105648792 0 0.93732437411268477 0.55911392101136159 0 0.90900154012161016 0.53607784105648792 0 0.95631871884947484 0.51827533208233789 0 0.91696753777131557 0.497780560203536 0 0.93732437411268477 0.55911392101136159 0 0.95631871884947484 0.51827533208233789 0 1 0.54999999999963112 0 0.95631871884947484 0.51827533208233789 0 1 0.54999999999963112 0 1 0.49999999999950101 0 0.95631871884947484 0.51827533208233789 0 1 0.49999999999950101 0 0.96228564064454991 0.48206450662049471 0 1 0.49999999999950101 0 1 0.44999999999963131 0 0.96228564064454991 0.48206450662049471 0 1 0.44999999999963131 0 0.93814194660195893 0.44426664081746747 0 0.96228564064454991 0.48206450662049471 0 0.93814194660195893 0.44426664081746747 0 0.96228564064454991 0.48206450662049471 0 0.91696753777131557 0.497780560203536 0 0.95631871884947484 0.51827533208233789 0 0.96228564064454991 0.48206450662049471 0 0.91696753777131557 0.497780560203536 0 1 0.39999999999978308 0 0.95871855522754235 0.40006508612975411 0 1 0.34999999999993492 0 1 0.44999999999963131 0 1 0.39999999999978308 0 0.95871855522754235 0.40006508612975411 0 1 0.44999999999963131 0 0.93814194660195893 0.44426664081746747 0 0.95871855522754235 0.40006508612975411 0 0.95871855522754235 0.40006508612975411 0 0.90594285160987287 0.4141265964174129 0 0.91750694127107502 0.36982372220068471 0 0.93814194660195893 0.44426664081746747 0 0.95871855522754235 0.40006508612975411 0 0.90594285160987287 0.4141265964174129 0 0.90594285160987287 0.4141265964174129 0 0.88594198078881503 0.46167788676578442 0 0.86411095495256451 0.42388805655111889 0 0.90594285160987287 0.4141265964174129 0 0.86411095495256451 0.42388805655111889 0 0.86844634540301924 0.38530937474099819 0 0.90594285160987287 0.4141265964174129 0 0.86844634540301924 0.38530937474099819 0 0.91750694127107502 0.36982372220068471 0 0.93814194660195893 0.44426664081746747 0 0.91696753777131557 0.497780560203536 0 0.88594198078881503 0.46167788676578442 0 0.93814194660195893 0.44426664081746747 0 0.90594285160987287 0.4141265964174129 0 0.88594198078881503 0.46167788676578442 0 0.86907294890112186 0.52008116128001669 0 0.91696753777131557 0.497780560203536 0 0.88594198078881503 0.46167788676578442 0 0.86907294890112186 0.52008116128001669 0 0.88594198078881503 0.46167788676578442 0 0.84723782639812573 0.48638347960178252 0 0.81441713509985358 0.51161854125224959 0 0.84723782639812573 0.48638347960178252 0 0.81400510706333218 0.47357325943904899 0 0.84723782639812573 0.48638347960178252 0 0.81400510706333218 0.47357325943904899 0 0.84925632466077294 0.45359738909549091 0 0.81400510706333218 0.47357325943904899 0 0.84925632466077294 0.45359738909549091 0 0.81973119833356312 0.43505687159469048 0 0.88594198078881503 0.46167788676578442 0 0.84723782639812573 0.48638347960178252 0 0.84925632466077294 0.45359738909549091 0 0.84925632466077294 0.45359738909549091 0 0.86411095495256451 0.42388805655111889 0 0.81973119833356312 0.43505687159469048 0 0.88594198078881503 0.46167788676578442 0 0.84925632466077294 0.45359738909549091 0 0.86411095495256451 0.42388805655111889 0 0.86411095495256451 0.42388805655111889 0 0.86844634540301924 0.38530937474099819 0 0.81308179852519835 0.39754945808726527 0 0.86844634540301924 0.38530937474099819 0 0.81308179852519835 0.39754945808726527 0 0.83573492347052902 0.36590755630746369 0 0.86411095495256451 0.42388805655111889 0 0.81308179852519835 0.39754945808726527 0 0.81973119833356312 0.43505687159469048 0 0.81973119833356312 0.43505687159469048 0 0.77354604466818633 0.40378688774472771 0 0.77972660463949339 0.45529290596363098 0 0.81308179852519835 0.39754945808726527 0 0.81973119833356312 0.43505687159469048 0 0.77354604466818633 0.40378688774472771 0 0.81308179852519835 0.39754945808726527 0 0.77354604466818633 0.40378688774472771 0 0.78145581580700685 0.34881365920033602 0 0.77354604466818633 0.40378688774472771 0 0.77972660463949339 0.45529290596363098 0 0.73483647259922602 0.44789725365921768 0 0.77972660463949339 0.45529290596363098 0 0.73483647259922602 0.44789725365921768 0 0.73947346780852752 0.49062440112282169 0 0.77972660463949339 0.45529290596363098 0 0.77846603114747959 0.49850927265137401 0 0.73947346780852752 0.49062440112282169 0 0.81400510706333218 0.47357325943904899 0 0.77972660463949339 0.45529290596363098 0 0.77846603114747959 0.49850927265137401 0 0.81441713509985358 0.51161854125224959 0 0.81400510706333218 0.47357325943904899 0 0.77846603114747959 0.49850927265137401 0 0.81400510706333218 0.47357325943904899 0 0.81973119833356312 0.43505687159469048 0 0.77972660463949339 0.45529290596363098 0 0.79999999999999982 0.29999999999999999 0 0.77075983436335049 0.25919399014334171 0 0.81486180804364938 0.26321394949780091 0 0.79999999999999982 0.29999999999999999 0 0.74999999999999989 0.29999999999999999 0 0.79999999999999982 0.29999999999999999 0 0.77075983436335049 0.25919399014334171 0 0.74999999999999989 0.29999999999999999 0 0.79999999999999982 0.29999999999999999 0 0.78145581580700685 0.34881365920033602 0 0.74999999999999989 0.29999999999999999 0 0.78145581580700685 0.34881365920033602 0 0.73090396928863699 0.33699297293167962 0 0.74999999999999989 0.29999999999999999 0 0.77354604466818633 0.40378688774472771 0 0.78145581580700685 0.34881365920033602 0 0.74764719760526988 0.3719647154012321 0 0.78145581580700685 0.34881365920033602 0 0.74764719760526988 0.3719647154012321 0 0.73090396928863699 0.33699297293167962 0 0.81308179852519835 0.39754945808726527 0 0.78145581580700685 0.34881365920033602 0 0.83573492347052902 0.36590755630746369 0 0.79999999999999982 0.29999999999999999 0 0.78145581580700685 0.34881365920033602 0 0.82500000000000062 0.33010209762754811 0 0.78145581580700685 0.34881365920033602 0 0.82500000000000062 0.33010209762754811 0 0.83573492347052902 0.36590755630746369 0 0.82500000000000062 0.33010209762754811 0 0.83573492347052902 0.36590755630746369 0 0.87430060258887643 0.34056085888204451 0 0.86844634540301924 0.38530937474099819 0 0.83573492347052902 0.36590755630746369 0 0.87430060258887643 0.34056085888204451 0 0.82500000000000062 0.33010209762754811 0 0.87430060258887643 0.34056085888204451 0 0.84999999999999987 0.29999999999999999 0 0.87430060258887643 0.34056085888204451 0 0.84999999999999987 0.29999999999999999 0 0.89999999999999991 0.29999999999999999 0 0.84999999999999987 0.29999999999999999 0 0.81486180804364938 0.26321394949780091 0 0.8517097391133297 0.2356960729520409 0 0.84999999999999987 0.29999999999999999 0 0.89898474358614167 0.25391965591104898 0 0.8517097391133297 0.2356960729520409 0 0.84999999999999987 0.29999999999999999 0 0.89999999999999991 0.29999999999999999 0 0.79999999999999982 0.29999999999999999 0 0.82500000000000062 0.33010209762754811 0 0.84999999999999987 0.29999999999999999 0 0.79999999999999982 0.29999999999999999 0 0.84999999999999987 0.29999999999999999 0 0.81486180804364938 0.26321394949780091 0 0.79999999999999982 0.29999999999999999 0 0.84999999999999987 0.29999999999999999 0 0.84999999999999987 0.29999999999999999 0 0.89898474358614167 0.25391965591104898 0 0.89999999999999991 0.29999999999999999 0 0.89999999999999991 0.29999999999999999 0 0.94999999999999996 0.29999999999999999 0 0.89999999999999991 0.29999999999999999 0 0.92012390126144183 0.33123581297173937 0 0.94999999999999996 0.29999999999999999 0 0.89898474358614167 0.25391965591104898 0 0.89999999999999991 0.29999999999999999 0 0.94999999999999996 0.29999999999999999 0 0.89898474358614167 0.25391965591104898 0 0.94999999999999996 0.29999999999999999 0 0.94399509803921056 0.24399509803922639 0 0.86844634540301924 0.38530937474099819 0 0.87430060258887643 0.34056085888204451 0 0.91750694127107502 0.36982372220068471 0 0.87430060258887643 0.34056085888204451 0 0.92012390126144183 0.33123581297173937 0 0.91750694127107502 0.36982372220068471 0 0.87430060258887643 0.34056085888204451 0 0.89999999999999991 0.29999999999999999 0 0.92012390126144183 0.33123581297173937 0 0.92012390126144183 0.33123581297173937 0 0.91750694127107502 0.36982372220068471 0 0.95780851984364423 0.34215720972155339 0 0.95871855522754235 0.40006508612975411 0 0.91750694127107502 0.36982372220068471 0 0.95780851984364423 0.34215720972155339 0 0.92012390126144183 0.33123581297173937 0 0.95780851984364423 0.34215720972155339 0 0.94999999999999996 0.29999999999999999 0 0.95780851984364423 0.34215720972155339 0 0.94999999999999996 0.29999999999999999 0 1 0.29999999999999999 0 0.95780851984364423 0.34215720972155339 0 1 0.34999999999993492 0 1 0.29999999999999999 0 0.95871855522754235 0.40006508612975411 0 0.95780851984364423 0.34215720972155339 0 1 0.34999999999993492 0 0.94999999999999996 0.29999999999999999 0 0.97166519676951801 0.26662885509932011 0 0.94399509803921056 0.24399509803922639 0 0.94999999999999996 0.29999999999999999 0 1 0.29999999999999999 0 0.94999999999999996 0.29999999999999999 0 1 0.29999999999999999 0 0.97166519676951801 0.26662885509932011 0 1 0.29999999999999999 0 0.97166519676951801 0.26662885509932011 0 1 0.24999999999987299 0 0.97166519676951801 0.26662885509932011 0 0.97435614836740092 0.22499999999981049 0 1 0.24999999999987299 0 0.97435614836740092 0.22499999999981049 0 1 0.24999999999987299 0 1 0.19999999999974799 0 0.97435614836740092 0.22499999999981049 0 0.94399509803921056 0.24399509803922639 0 0.95391631417672862 0.19584263333809451 0 0.97166519676951801 0.26662885509932011 0 0.97435614836740092 0.22499999999981049 0 0.94399509803921056 0.24399509803922639 0 0.97435614836740092 0.22499999999981049 0 0.95391631417672862 0.19584263333809451 0 1 0.19999999999974799 0 0.95391631417672862 0.19584263333809451 0 1 0.14999999999961891 0 0.93677536231883773 0.14999999999999089 0 1 0.14999999999961891 0 0.93677536231883773 0.14999999999999089 0 0.95386563387744361 0.1041487415577465 0 0.95391631417672862 0.19584263333809451 0 1 0.19999999999974799 0 1 0.14999999999961891 0 0.95391631417672862 0.19584263333809451 0 0.93677536231883773 0.14999999999999089 0 0.90416666666668166 0.20416666666667119 0 0.93677536231883773 0.14999999999999089 0 0.88088768115941807 0.14674609810479519 0 0.90416666666668166 0.20416666666667119 0 0.93677536231883773 0.14999999999999089 0 0.88088768115941807 0.14674609810479519 0 0.90299850604006393 0.09563452813493091 0 0.88088768115941807 0.14674609810479519 0 0.90416666666668166 0.20416666666667119 0 0.85600844944842547 0.1848341897950983 0 0.89898474358614167 0.25391965591104898 0 0.90416666666668166 0.20416666666667119 0 0.8517097391133297 0.2356960729520409 0 0.89898474358614167 0.25391965591104898 0 0.94399509803921056 0.24399509803922639 0 0.90416666666668166 0.20416666666667119 0 0.94399509803921056 0.24399509803922639 0 0.95391631417672862 0.19584263333809451 0 0.90416666666668166 0.20416666666667119 0 0.94999999999986839 0 0 0.97166519676946894 0.033371144900598393 0 0.94399509803922566 0.056004901960802607 0 0.94999999999986839 0 0 1 0 0 0.97166519676946894 0.033371144900598393 0 1 0 0 1 0.049999999999896842 0 0.97166519676946894 0.033371144900598393 0 1 0.049999999999896842 0 0.97166519676946894 0.033371144900598393 0 0.97435614836748241 0.074999999999825387 0 0.97166519676946894 0.033371144900598393 0 0.94399509803922566 0.056004901960802607 0 0.97435614836748241 0.074999999999825387 0 0.94399509803922566 0.056004901960802607 0 0.97435614836748241 0.074999999999825387 0 0.95386563387744361 0.1041487415577465 0 0.97435614836748241 0.074999999999825387 0 1 0.099999999999753911 0 0.95386563387744361 0.1041487415577465 0 1 0.049999999999896842 0 0.97435614836748241 0.074999999999825387 0 1 0.099999999999753911 0 1 0.14999999999961891 0 1 0.099999999999753911 0 0.95386563387744361 0.1041487415577465 0 0.93677536231883773 0.14999999999999089 0 0.95386563387744361 0.1041487415577465 0 0.90299850604006393 0.09563452813493091 0 0.88088768115941807 0.14674609810479519 0 0.90299850604006393 0.09563452813493091 0 0.84725310900442086 0.10779732082922661 0 0.90299850604006393 0.09563452813493091 0 0.899991664607802 0.045289349238254978 0 0.85491058998398861 0.060047533455626502 0 0.94399509803922566 0.056004901960802607 0 0.95386563387744361 0.1041487415577465 0 0.90299850604006393 0.09563452813493091 0 0.94399509803922566 0.056004901960802607 0 0.90299850604006393 0.09563452813493091 0 0.899991664607802 0.045289349238254978 0 0.94999999999986839 0 0 0.94399509803922566 0.056004901960802607 0 0.899991664607802 0.045289349238254978 0 0.899991664607802 0.045289349238254978 0 0.89999999999973679 0 0 0.84999999999960507 0 0 0.94999999999986839 0 0 0.899991664607802 0.045289349238254978 0 0.89999999999973679 0 0 0.84999999999960507 0 0 0.81864958914740749 0.035890501779055867 0 0.79999999999947335 0 0 0.899991664607802 0.045289349238254978 0 0.84999999999960507 0 0 0.85491058998398861 0.060047533455626502 0 0.85491058998398861 0.060047533455626502 0 0.81864958914740749 0.035890501779055867 0 0.80185942888501827 0.074520613036224564 0 0.84999999999960507 0 0 0.85491058998398861 0.060047533455626502 0 0.81864958914740749 0.035890501779055867 0 0.85491058998398861 0.060047533455626502 0 0.84725310900442086 0.10779732082922661 0 0.80185942888501827 0.074520613036224564 0 0.90299850604006393 0.09563452813493091 0 0.85491058998398861 0.060047533455626502 0 0.84725310900442086 0.10779732082922661 0 0.84725310900442086 0.10779732082922661 0 0.80076557130237269 0.1154587552654202 0 0.80185942888501827 0.074520613036224564 0 0.84725310900442086 0.10779732082922661 0 0.80076557130237269 0.1154587552654202 0 0.82709327591102189 0.14937141670914489 0 0.80076557130237269 0.1154587552654202 0 0.76878382444651716 0.097147941686331368 0 0.80185942888501827 0.074520613036224564 0 0.76878382444651716 0.097147941686331368 0 0.77144070960558853 0.14311854477243749 0 0.72525833953073282 0.1032114801687094 0 0.80076557130237269 0.1154587552654202 0 0.76878382444651716 0.097147941686331368 0 0.77144070960558853 0.14311854477243749 0 0.76878382444651716 0.097147941686331368 0 0.80185942888501827 0.074520613036224564 0 0.7527966693318906 0.053051678021508272 0 0.81864958914740749 0.035890501779055867 0 0.80185942888501827 0.074520613036224564 0 0.78393852574753176 0.032039079577822822 0 0.80185942888501827 0.074520613036224564 0 0.78393852574753176 0.032039079577822822 0 0.7527966693318906 0.053051678021508272 0 0.78393852574753176 0.032039079577822822 0 0.7527966693318906 0.053051678021508272 0 0.74999999999934175 0 0 0.78393852574753176 0.032039079577822822 0 0.79999999999947335 0 0 0.74999999999934175 0 0 0.81864958914740749 0.035890501779055867 0 0.78393852574753176 0.032039079577822822 0 0.79999999999947335 0 0 0.81283102246527783 0.1881007222486438 0 0.8517097391133297 0.2356960729520409 0 0.79680861578956375 0.22656778056752541 0 0.81283102246527783 0.1881007222486438 0 0.8517097391133297 0.2356960729520409 0 0.85600844944842547 0.1848341897950983 0 0.81486180804364938 0.26321394949780091 0 0.8517097391133297 0.2356960729520409 0 0.79680861578956375 0.22656778056752541 0 0.90416666666668166 0.20416666666667119 0 0.8517097391133297 0.2356960729520409 0 0.85600844944842547 0.1848341897950983 0 0.88088768115941807 0.14674609810479519 0 0.85600844944842547 0.1848341897950983 0 0.82709327591102189 0.14937141670914489 0 0.88088768115941807 0.14674609810479519 0 0.84725310900442086 0.10779732082922661 0 0.82709327591102189 0.14937141670914489 0 0.81283102246527783 0.1881007222486438 0 0.85600844944842547 0.1848341897950983 0 0.82709327591102189 0.14937141670914489 0 0.81283102246527783 0.1881007222486438 0 0.77144070960558853 0.14311854477243749 0 0.76587607630038135 0.18880039518954719 0 0.81283102246527783 0.1881007222486438 0 0.82709327591102189 0.14937141670914489 0 0.77144070960558853 0.14311854477243749 0 0.80076557130237269 0.1154587552654202 0 0.82709327591102189 0.14937141670914489 0 0.77144070960558853 0.14311854477243749 0 0.77144070960558853 0.14311854477243749 0 0.76587607630038135 0.18880039518954719 0 0.72634814642510737 0.16106886917518889 0 0.76587607630038135 0.18880039518954719 0 0.79680861578956375 0.22656778056752541 0 0.75668890529066124 0.2244279804069782 0 0.81283102246527783 0.1881007222486438 0 0.76587607630038135 0.18880039518954719 0 0.79680861578956375 0.22656778056752541 0 0.77075983436335049 0.25919399014334171 0 0.81486180804364938 0.26321394949780091 0 0.79680861578956375 0.22656778056752541 0 0.77075983436335049 0.25919399014334171 0 0.79680861578956375 0.22656778056752541 0 0.75668890529066124 0.2244279804069782 0 0.77075983436335049 0.25919399014334171 0 0.75668890529066124 0.2244279804069782 0 0.72500000000000064 0.2498161764706 0 0.75668890529066124 0.2244279804069782 0 0.72500000000000064 0.2498161764706 0 0.72500000000001008 0.19776155966387679 0 0.72500000000000064 0.2498161764706 0 0.69397719155551807 0.2245125647000914 0 0.72500000000001008 0.19776155966387679 0 0.72500000000000064 0.2498161764706 0 0.69397719155551807 0.2245125647000914 0 0.67933712972090698 0.25920070958121938 0 0.69397719155551807 0.2245125647000914 0 0.72500000000001008 0.19776155966387679 0 0.6865991819015953 0.189116534044597 0 0.76587607630038135 0.18880039518954719 0 0.75668890529066124 0.2244279804069782 0 0.72500000000001008 0.19776155966387679 0 0.76587607630038135 0.18880039518954719 0 0.72500000000001008 0.19776155966387679 0 0.72634814642510737 0.16106886917518889 0 0.77144070960558853 0.14311854477243749 0 0.72634814642510737 0.16106886917518889 0 0.72525833953073282 0.1032114801687094 0 0.72634814642510737 0.16106886917518889 0 0.68391457121233579 0.14440470121196541 0 0.72525833953073282 0.1032114801687094 0 0.72500000000001008 0.19776155966387679 0 0.72634814642510737 0.16106886917518889 0 0.6865991819015953 0.189116534044597 0 0.72634814642510737 0.16106886917518889 0 0.68391457121233579 0.14440470121196541 0 0.6865991819015953 0.189116534044597 0 0.68391457121233579 0.14440470121196541 0 0.64011864159029941 0.18789607982138171 0 0.6865991819015953 0.189116534044597 0 0.68391457121233579 0.14440470121196541 0 0.65290632656860115 0.11434202593454081 0 0.6236733212988993 0.14864538214901801 0 0.68391457121233579 0.14440470121196541 0 0.64011864159029941 0.18789607982138171 0 0.6236733212988993 0.14864538214901801 0 0.64011864159029941 0.18789607982138171 0 0.65394964615507722 0.22666784374016369 0 0.59814117807200873 0.23398510860739519 0 0.65394964615507722 0.22666784374016369 0 0.59814117807200873 0.23398510860739519 0 0.62657463266645097 0.26524202571255862 0 0.69397719155551807 0.2245125647000914 0 0.65394964615507722 0.22666784374016369 0 0.67933712972090698 0.25920070958121938 0 0.64011864159029941 0.18789607982138171 0 0.65394964615507722 0.22666784374016369 0 0.6865991819015953 0.189116534044597 0 0.69397719155551807 0.2245125647000914 0 0.65394964615507722 0.22666784374016369 0 0.6865991819015953 0.189116534044597 0 0.69999999999921003 0 0 0.72683645290270404 0.027797073151180601 0 0.7010294155333181 0.056779085686491267 0 0.69999999999921003 0 0 0.7010294155333181 0.056779085686491267 0 0.66369801598854572 0.036327466368102787 0 0.7527966693318906 0.053051678021508272 0 0.74999999999934175 0 0 0.72683645290270404 0.027797073151180601 0 0.69999999999921003 0 0 0.74999999999934175 0 0 0.72683645290270404 0.027797073151180601 0 0.7527966693318906 0.053051678021508272 0 0.72683645290270404 0.027797073151180601 0 0.7010294155333181 0.056779085686491267 0 0.7010294155333181 0.056779085686491267 0 0.72525833953073282 0.1032114801687094 0 0.68330259535470161 0.10038702501083881 0 0.7527966693318906 0.053051678021508272 0 0.7010294155333181 0.056779085686491267 0 0.72525833953073282 0.1032114801687094 0 0.76878382444651716 0.097147941686331368 0 0.7527966693318906 0.053051678021508272 0 0.72525833953073282 0.1032114801687094 0 0.68391457121233579 0.14440470121196541 0 0.72525833953073282 0.1032114801687094 0 0.68330259535470161 0.10038702501083881 0 0.68330259535470161 0.10038702501083881 0 0.65290632656860115 0.11434202593454081 0 0.65408113592120842 0.073941773121567966 0 0.68391457121233579 0.14440470121196541 0 0.68330259535470161 0.10038702501083881 0 0.65290632656860115 0.11434202593454081 0 0.65290632656860115 0.11434202593454081 0 0.61956000905586006 0.1043312481793135 0 0.6236733212988993 0.14864538214901801 0 0.65290632656860115 0.11434202593454081 0 0.65408113592120842 0.073941773121567966 0 0.61956000905586006 0.1043312481793135 0 0.65408113592120842 0.073941773121567966 0 0.61940220174112337 0.047251958781050582 0 0.61956000905586006 0.1043312481793135 0 0.7010294155333181 0.056779085686491267 0 0.68330259535470161 0.10038702501083881 0 0.65408113592120842 0.073941773121567966 0 0.7010294155333181 0.056779085686491267 0 0.65408113592120842 0.073941773121567966 0 0.66369801598854572 0.036327466368102787 0 0.65408113592120842 0.073941773121567966 0 0.66369801598854572 0.036327466368102787 0 0.61940220174112337 0.047251958781050582 0 0.66369801598854572 0.036327466368102787 0 0.64999999999907843 0 0 0.61940220174112337 0.047251958781050582 0 0.69999999999921003 0 0 0.66369801598854572 0.036327466368102787 0 0.64999999999907843 0 0 0.59999999999894682 0 0 0.57396793757665954 0.037011367187645222 0 0.5499999999988151 0 0 0.64999999999907843 0 0 0.59999999999894682 0 0 0.61940220174112337 0.047251958781050582 0 0.59999999999894682 0 0 0.61940220174112337 0.047251958781050582 0 0.57396793757665954 0.037011367187645222 0 0.61940220174112337 0.047251958781050582 0 0.57396793757665954 0.037011367187645222 0 0.57667858002728545 0.078486105337742612 0 0.61940220174112337 0.047251958781050582 0 0.57667858002728545 0.078486105337742612 0 0.61956000905586006 0.1043312481793135 0 0.61956000905586006 0.1043312481793135 0 0.58516465772821369 0.11653801664834119 0 0.6236733212988993 0.14864538214901801 0 0.57667858002728545 0.078486105337742612 0 0.61956000905586006 0.1043312481793135 0 0.58516465772821369 0.11653801664834119 0 0.58516465772821369 0.11653801664834119 0 0.54979595918804436 0.1060565713905809 0 0.56202748619534593 0.15054058349222879 0 0.57667858002728545 0.078486105337742612 0 0.58516465772821369 0.11653801664834119 0 0.54979595918804436 0.1060565713905809 0 0.54979595918804436 0.1060565713905809 0 0.51076801031701946 0.1202837388510348 0 0.52375890611712683 0.059318771819432882 0 0.47881186583059909 0.093591717165689425 0 0.51076801031701946 0.1202837388510348 0 0.52375890611712683 0.059318771819432882 0 0.57667858002728545 0.078486105337742612 0 0.54979595918804436 0.1060565713905809 0 0.52375890611712683 0.059318771819432882 0 0.57396793757665954 0.037011367187645222 0 0.52375890611712683 0.059318771819432882 0 0.5499999999988151 0 0 0.57396793757665954 0.037011367187645222 0 0.57667858002728545 0.078486105337742612 0 0.52375890611712683 0.059318771819432882 0 0.49999999999869432 0 0 0.52375890611712683 0.059318771819432882 0 0.5499999999988151 0 0 0.59814117807200873 0.23398510860739519 0 0.59443395090188023 0.18455690917515069 0 0.55306006949600994 0.20198184231352201 0 0.59814117807200873 0.23398510860739519 0 0.55306006949600994 0.20198184231352201 0 0.54248833945060504 0.2520322959927106 0 0.64011864159029941 0.18789607982138171 0 0.59814117807200873 0.23398510860739519 0 0.59443395090188023 0.18455690917515069 0 0.64011864159029941 0.18789607982138171 0 0.59443395090188023 0.18455690917515069 0 0.6236733212988993 0.14864538214901801 0 0.58516465772821369 0.11653801664834119 0 0.6236733212988993 0.14864538214901801 0 0.56202748619534593 0.15054058349222879 0 0.59443395090188023 0.18455690917515069 0 0.6236733212988993 0.14864538214901801 0 0.56202748619534593 0.15054058349222879 0 0.59443395090188023 0.18455690917515069 0 0.56202748619534593 0.15054058349222879 0 0.55306006949600994 0.20198184231352201 0 0.56202748619534593 0.15054058349222879 0 0.51729576145820033 0.1683240575987815 0 0.55306006949600994 0.20198184231352201 0 0.54979595918804436 0.1060565713905809 0 0.51076801031701946 0.1202837388510348 0 0.56202748619534593 0.15054058349222879 0 0.48466639505193998 0.1421439844745814 0 0.51076801031701946 0.1202837388510348 0 0.51729576145820033 0.1683240575987815 0 0.51076801031701946 0.1202837388510348 0 0.56202748619534593 0.15054058349222879 0 0.51729576145820033 0.1683240575987815 0 0.51729576145820033 0.1683240575987815 0 0.50760557329222289 0.20700468884612061 0 0.55306006949600994 0.20198184231352201 0 0.50760557329222289 0.20700468884612061 0 0.55306006949600994 0.20198184231352201 0 0.54248833945060504 0.2520322959927106 0 0.49695729691142171 0.25014895411178018 0 0.50760557329222289 0.20700468884612061 0 0.54248833945060504 0.2520322959927106 0 0.49695729691142171 0.25014895411178018 0 0.5 0.29999999999999999 0 0.54248833945060504 0.2520322959927106 0 0.5 0.29999999999999999 0 0.54999999999999993 0.29999999999999999 0 0.52752007115234678 0.33170632466418198 0 0.5 0.29999999999999999 0 0.54999999999999993 0.29999999999999999 0 0.54248833945060504 0.2520322959927106 0 0.5 0.29999999999999999 0 0.54999999999999993 0.29999999999999999 0 0.54999999999999993 0.29999999999999999 0 0.54248833945060504 0.2520322959927106 0 0.5794309697024993 0.27124795968204829 0 0.59814117807200873 0.23398510860739519 0 0.54248833945060504 0.2520322959927106 0 0.5794309697024993 0.27124795968204829 0 0.54999999999999993 0.29999999999999999 0 0.59999999999999976 0.29999999999999999 0 0.54999999999999993 0.29999999999999999 0 0.5794309697024993 0.27124795968204829 0 0.59999999999999976 0.29999999999999999 0 0.59999999999999976 0.29999999999999999 0 0.6499999999999998 0.29999999999999999 0 0.5794309697024993 0.27124795968204829 0 0.59999999999999976 0.29999999999999999 0 0.62657463266645097 0.26524202571255862 0 0.59814117807200873 0.23398510860739519 0 0.5794309697024993 0.27124795968204829 0 0.62657463266645097 0.26524202571255862 0 0.61959173890754571 0.33832250091341232 0 0.56836770495988642 0.3523062350852913 0 0.6084546825910605 0.37989672713932537 0 0.59999999999999976 0.29999999999999999 0 0.61959173890754571 0.33832250091341232 0 0.6499999999999998 0.29999999999999999 0 0.59999999999999976 0.29999999999999999 0 0.61959173890754571 0.33832250091341232 0 0.56836770495988642 0.3523062350852913 0 0.54999999999999993 0.29999999999999999 0 0.59999999999999976 0.29999999999999999 0 0.56836770495988642 0.3523062350852913 0 0.56836770495988642 0.3523062350852913 0 0.52752007115234678 0.33170632466418198 0 0.52289427570932567 0.3932284363388488 0 0.54999999999999993 0.29999999999999999 0 0.56836770495988642 0.3523062350852913 0 0.52752007115234678 0.33170632466418198 0 0.49077833859261139 0.35229981449445641 0 0.5 0.29999999999999999 0 0.52752007115234678 0.33170632466418198 0 0.49077833859261139 0.35229981449445641 0 0.52752007115234678 0.33170632466418198 0 0.52289427570932567 0.3932284363388488 0 0.56836770495988642 0.3523062350852913 0 0.52289427570932567 0.3932284363388488 0 0.57744073070774993 0.41535148636609359 0 0.52289427570932567 0.3932284363388488 0 0.53823865529665704 0.45873898050322898 0 0.57744073070774993 0.41535148636609359 0 0.48858720058566618 0.43964267759203868 0 0.52289427570932567 0.3932284363388488 0 0.53823865529665704 0.45873898050322898 0 0.49102375406324739 0.49123754822244059 0 0.53330375813596242 0.50827942741749099 0 0.53823865529665704 0.45873898050322898 0 0.49102375406324739 0.49123754822244059 0 0.48858720058566618 0.43964267759203868 0 0.53823865529665704 0.45873898050322898 0 0.53330375813596242 0.50827942741749099 0 0.57611405284611883 0.50165903596042916 0 0.53823865529665704 0.45873898050322898 0 0.57611405284611883 0.50165903596042916 0 0.57975577671020095 0.46172033326338591 0 0.61547661924074692 0.48539576058873962 0 0.57611405284611883 0.50165903596042916 0 0.53823865529665704 0.45873898050322898 0 0.57975577671020095 0.46172033326338591 0 0.57975577671020095 0.46172033326338591 0 0.61209567303293111 0.44669033081290321 0 0.57744073070774993 0.41535148636609359 0 0.53823865529665704 0.45873898050322898 0 0.57975577671020095 0.46172033326338591 0 0.57744073070774993 0.41535148636609359 0 0.57975577671020095 0.46172033326338591 0 0.61209567303293111 0.44669033081290321 0 0.61547661924074692 0.48539576058873962 0 0.56836770495988642 0.3523062350852913 0 0.57744073070774993 0.41535148636609359 0 0.6084546825910605 0.37989672713932537 0 0.61209567303293111 0.44669033081290321 0 0.57744073070774993 0.41535148636609359 0 0.63912439215427275 0.41063340167983359 0 0.57744073070774993 0.41535148636609359 0 0.6084546825910605 0.37989672713932537 0 0.63912439215427275 0.41063340167983359 0 0.6084546825910605 0.37989672713932537 0 0.63912439215427275 0.41063340167983359 0 0.65481233915350323 0.35652751921065562 0 0.63912439215427275 0.41063340167983359 0 0.65178832218679827 0.45929119821019959 0 0.6879972333610942 0.43038561374960838 0 0.63912439215427275 0.41063340167983359 0 0.68128176404677243 0.38629093627004979 0 0.6879972333610942 0.43038561374960838 0 0.63912439215427275 0.41063340167983359 0 0.68128176404677243 0.38629093627004979 0 0.65481233915350323 0.35652751921065562 0 0.61547661924074692 0.48539576058873962 0 0.6541250972820879 0.49999999999999989 0 0.65178832218679827 0.45929119821019959 0 0.61209567303293111 0.44669033081290321 0 0.61547661924074692 0.48539576058873962 0 0.65178832218679827 0.45929119821019959 0 0.61209567303293111 0.44669033081290321 0 0.63912439215427275 0.41063340167983359 0 0.65178832218679827 0.45929119821019959 0 0.65178832218679827 0.45929119821019959 0 0.69385896817107129 0.48377516041410151 0 0.6879972333610942 0.43038561374960838 0 0.6541250972820879 0.49999999999999989 0 0.65178832218679827 0.45929119821019959 0 0.69385896817107129 0.48377516041410151 0 0.7152569930854884 0.5237994455134295 0 0.69385896817107129 0.48377516041410151 0 0.73947346780852752 0.49062440112282169 0 0.69385896817107129 0.48377516041410151 0 0.73483647259922602 0.44789725365921768 0 0.6879972333610942 0.43038561374960838 0 0.69385896817107129 0.48377516041410151 0 0.73483647259922602 0.44789725365921768 0 0.73947346780852752 0.49062440112282169 0 0.68128176404677243 0.38629093627004979 0 0.72622533758026719 0.40265885511101601 0 0.71508799138962864 0.36622814920737751 0 0.73483647259922602 0.44789725365921768 0 0.6879972333610942 0.43038561374960838 0 0.72622533758026719 0.40265885511101601 0 0.68128176404677243 0.38629093627004979 0 0.6879972333610942 0.43038561374960838 0 0.72622533758026719 0.40265885511101601 0 0.77354604466818633 0.40378688774472771 0 0.73483647259922602 0.44789725365921768 0 0.72622533758026719 0.40265885511101601 0 0.72622533758026719 0.40265885511101601 0 0.74764719760526988 0.3719647154012321 0 0.71508799138962864 0.36622814920737751 0 0.77354604466818633 0.40378688774472771 0 0.72622533758026719 0.40265885511101601 0 0.74764719760526988 0.3719647154012321 0 0.74764719760526988 0.3719647154012321 0 0.71508799138962864 0.36622814920737751 0 0.73090396928863699 0.33699297293167962 0 0.71508799138962864 0.36622814920737751 0 0.68887083591306764 0.33632058575757479 0 0.73090396928863699 0.33699297293167962 0 0.68128176404677243 0.38629093627004979 0 0.71508799138962864 0.36622814920737751 0 0.68887083591306764 0.33632058575757479 0 0.68887083591306764 0.33632058575757479 0 0.73090396928863699 0.33699297293167962 0 0.69999999999999984 0.29999999999999999 0 0.72500000000000064 0.2498161764706 0 0.74999999999999989 0.29999999999999999 0 0.69999999999999984 0.29999999999999999 0 0.74999999999999989 0.29999999999999999 0 0.69999999999999984 0.29999999999999999 0 0.73090396928863699 0.33699297293167962 0 0.74999999999999989 0.29999999999999999 0 0.69999999999999984 0.29999999999999999 0 0.77075983436335049 0.25919399014334171 0 0.72500000000000064 0.2498161764706 0 0.74999999999999989 0.29999999999999999 0 0.72500000000000064 0.2498161764706 0 0.69999999999999984 0.29999999999999999 0 0.67933712972090698 0.25920070958121938 0 0.69999999999999984 0.29999999999999999 0 0.67933712972090698 0.25920070958121938 0 0.6499999999999998 0.29999999999999999 0 0.68887083591306764 0.33632058575757479 0 0.69999999999999984 0.29999999999999999 0 0.6499999999999998 0.29999999999999999 0 0.69999999999999984 0.29999999999999999 0 0.6499999999999998 0.29999999999999999 0 0.67933712972090698 0.25920070958121938 0 0.62657463266645097 0.26524202571255862 0 0.6499999999999998 0.29999999999999999 0 0.65394964615507722 0.22666784374016369 0 0.67933712972090698 0.25920070958121938 0 0.62657463266645097 0.26524202571255862 0 0.59999999999999976 0.29999999999999999 0 0.62657463266645097 0.26524202571255862 0 0.6499999999999998 0.29999999999999999 0 0.61959173890754571 0.33832250091341232 0 0.6499999999999998 0.29999999999999999 0 0.65481233915350323 0.35652751921065562 0 0.61959173890754571 0.33832250091341232 0 0.6084546825910605 0.37989672713932537 0 0.65481233915350323 0.35652751921065562 0 0.68128176404677243 0.38629093627004979 0 0.68887083591306764 0.33632058575757479 0 0.65481233915350323 0.35652751921065562 0 0.68887083591306764 0.33632058575757479 0 0.6499999999999998 0.29999999999999999 0 0.65481233915350323 0.35652751921065562 0 
</DataArray>
</Points>
<Cells>
<DataArray type="UInt32" Name="connectivity" format="ascii">
0 1 2 3 4 5 6 7 8 9 10 11 12 13 14 15 16 17 18 19 20 21 22 23 24 25 26 27 28 29 30 31 32 33 34 35 36 37 38 39 40 41 42 43 44 45 46 47 48 49 50 51 52 53 54 55 56 57 58 59 60 61 62 63 64 65 66 67 68 69 70 71 72 73 74 75 76 77 78 79 80 81 82 83 84 85 86 87 88 89 90 91 92 93 94 95 96 97 98 99 100 101 102 103 104 105 106 107 108 109 110 111 112 113 114 115 116 117 118 119 120 121 122 123 124 125 126 127 128 129 130 131 132 133 134 135 136 137 138 139 140 141 142 143 144 145 146 147 148 149 150 151 152 153 154 155 156 157 158 159 160 161 162 163 164 165 166 167 168 169 170 171 172 173 174 175 176 177 178 179 180 181 182 183 184 185 186 187 188 189 190 191 192 193 194 195 196 197 198 199 200 201 202 203 204 205 206 207 208 209 210 211 212 213 214 215 216 217 218 219 220 221 222 223 224 225 226 227 228 229 230 231 232 233 234 235 236 237 238 239 240 241 242 243 244 245 246 247 248 249 250 251 252 253 254 255 256 257 258 259 260 261 262 263 264 265 266 267 268 269 270 271 272 273 274 275 276 277 278 279 280 281 282 283 284 285 286 287 288 289 290 291 292 293 294 295 296 297 298 299 300 301 302 303 304 305 306 307 308 309 310 311 312 313 314 315 316 317 318 319 320 321 322 323 324 325 326 327 328 329 330 331 332 333 334 335 336 337 338 339 340 341 342 343 344 345 346 347 348 349 350 351 352 353 354 355 356 357 358 359 360 361 362 363 364 365 366 367 368 369 370 371 372 373 374 375 376 377 378 379 380 381 382 383 384 385 386 387 388 389 390 391 392 393 394 395 396 397 398 399 400 401 402 403 404 405 406 407 408 409 410 411 412 413 414 415 416 417 418 419 420 421 422 423 424 425 426 427 428 429 430 431 432 433 434 435 436 437 438 439 440 441 442 443 444 445 446 447 448 449 450 451 452 453 454 455 456 457 458 459 460 461 462 463 464 465 466 467 468 469 470 471 472 473 474 475 476 477 478 479 480 481 482 483 484 485 486 487 488 489 490 491 492 493 494 495 496 497 498 499 500 501 502 503 504 505 506 507 508 509 510 511 512 513 514 515 516 517 518 519 520 521 522 523 524 525 526 527 528 529 530 531 532 533 534 535 536 537 538 539 540 541 542 543 544 545 546 547 548 549 550 551 552 553 554 555 556 557 558 559 560 561 562 563 564 565 566 567 568 569 570 571 572 573 574 575 576 577 578 579 580 581 582 583 584 585 586 587 588 589 590 591 592 593 594 595 596 597 598 599 600 601 602 603 604 605 606 607 608 609 610 611 612 613 614 615 616 617 618 619 620 621 622 623 624 625 626 627 628 629 630 631 632 633 634 635 636 637 638 639 640 641 642 643 644 645 646 647 648 649 650 651 652 653 654 655 656 657 658 659 660 661 662 663 664 665 666 667 668 669 670 671 672 673 674 675 676 677 678 679 680 681 682 683 684 685 686 687 688 689 690 691 692 693 694 695 696 697 698 699 700 701 702 703 704 705 706 707 708 709 710 711 712 713 714 715 716 717 718 719 720 721 722 723 724 725 726 727 728 729 730 731 732 733 734 735 736 737 738 739 740 741 742 743 744 745 746 747 748 749 750 751 752 753 754 755 756 757 758 759 760 761 762 763 764 765 766 767 768 769 770 771 772 773 774 775 776 777 778 779 780 781 782 783 784 785 786 787 788 789 790 791 792 793 794 795 796 797 798 799 800 801 802 803 804 805 806 807 808 809 810 811 812 813 814 815 816 817 818 819 820 821 822 823 824 825 826 827 828 829 830 831 832 833 834 835 836 837 838 839 840 841 842 843 844 845 846 847 848 849 850 851 852 853 854 855 856 857 858 859 860 861 862 863 864 865 866 867 868 869 870 871 872 873 874 875 876 877 878 879 880 881 882 883 884 885 886 887 888 889 890 891 892 893 894 895 896 897 898 899 900 901 902 903 904 905 906 907 908 909 910 911 912 913 914 915 916 917 918 919 920 921 922 923 924 925 926 927 928 929 930 931 932 933 934 935 936 937 938 939 940 941 942 943 944 945 946 947 948 949 950 951 952 953 954 955 956 957 958 959 960 961 962 963 964 965 966 967 968 969 970 971 972 973 974 975 976 977 978 979 980 981 982 983 984 985 986 987 988 989 990 991 992 993 994 995 996 997 998 999 1000 1001 1002 1003 1004 1005 1006 1007 1008 1009 1010 1011 1012 1013 1014 1015 1016 1017 1018 1019 1020 1021 1022 1023 1024 1025 1026 1027 1028 1029 1030 1031 1032 1033 1034 1035 1036 1037 1038 1039 1040 1041 1042 1043 1044 1045 1046 1047 1048 1049 1050 1051 1052 1053 1054 1055 1056 1057 1058 1059 1060 1061 1062 1063 1064 1065 1066 1067 1068 1069 1070 1071 1072 1073 1074 1075 1076 1077 1078 1079 1080 1081 1082 1083 1084 1085 1086 1087 1088 1089 1090 1091 1092 1093 1094 1095 1096 1097 1098 1099 1100 1101 1102 1103 1104 1105 1106 1107 1108 1109 1110 1111 1112 1113 1114 1115 1116 1117 1118 1119 1120 1121 1122 1123 1124 1125 1126 1127 1128 1129 1130 1131 1132 1133 1134 1135 1136 1137 1138 1139 1140 1141 1142 1143 1144 1145 1146 1147 1148 1149 1150 1151 1152 1153 1154 1155 1156 1157 1158 1159 1160 1161 1162 1163 1164 1165 1166 1167 1168 1169 1170 1171 1172 1173 1174 1175 1176 1177 1178 1179 1180 1181 1182 1183 1184 1185 1186 1187 1188 1189 1190 1191 1192 1193 1194 1195 1196 1197 1198 1199 1200 1201 1202 1203 1204 1205 1206 1207 1208 1209 1210 1211 1212 1213 1214 1215 1216 1217 1218 1219 1220 1221 1222 1223 1224 1225 1226 1227 1228 1229 1230 1231 1232 1233 1234 1235 1236 1237 1238 1239 1240 1241 1242 1243 1244 1245 1246 1247 1248 1249 1250 1251 1252 1253 1254 1255 1256 1257 1258 1259 1260 1261 1262 1263 1264 1265 1266 1267 1268 1269 1270 1271 1272 1273 1274 1275 1276 1277 1278 1279 1280 1281 1282 1283 1284 1285 1286 1287 1288 1289 1290 1291 1292 1293 1294 1295 1296 1297 1298 1299 1300 1301 1302 1303 1304 1305 1306 1307 1308 1309 1310 1311 1312 1313 1314 1315 1316 1317 1318 1319 1320 1321 1322 1323 1324 1325 1326 1327 1328 1329 1330 1331 1332 1333 1334 1335 1336 1337 1338 1339 1340 1341 1342 1343 1344 1345 1346 1347 1348 1349 1350 1351 1352 1353 1354 1355 1356 1357 1358 1359 1360 1361 1362 1363 1364 1365 1366 1367 1368 1369 1370 1371 1372 1373 1374 1375 1376 1377 1378 1379 1380 1381 1382 1383 1384 1385 1386 1387 1388 1389 1390 1391 1392 1393 1394 1395 1396 1397 1398 1399 1400 1401 1402 1403 1404 1405 1406 1407 1408 1409 1410 1411 1412 1413 1414 1415 1416 1417 1418 1419 1420 1421 1422 1423 1424 1425 1426 1427 1428 1429 1430 1431 1432 1433 1434 1435 1436 1437 1438 1439 1440 1441 1442 1443 1444 1445 1446 1447 1448 1449 1450 1451 1452 1453 1454 1455 1456 1457 1458 1459 1460 1461 1462 1463 1464 1465 1466 1467 1468 1469 1470 1471 1472 1473 1474 1475 1476 1477 1478 1479 1480 1481 1482 1483 1484 1485 1486 1487 1488 1489 1490 1491 1492 1493 1494 1495 1496 1497 1498 1499 1500 1501 1502 1503 1504 1505 1506 1507 1508 1509 1510 1511 1512 1513 1514 1515 1516 1517 1518 1519 1520 1521 1522 1523 1524 1525 1526 1527 1528 1529 1530 1531 1532 1533 1534 1535 1536 1537 1538 1539 1540 1541 1542 1543 1544 1545 1546 1547 1548 1549 1550 1551 1552 1553 1554 1555 1556 1557 1558 1559 1560 1561 1562 1563 1564 1565 1566 1567 1568 1569 1570 1571 1572 1573 1574 1575 1576 1577 1578 1579 1580 1581 1582 1583 1584 1585 1586 1587 1588 1589 1590 1591 1592 1593 1594 1595 1596 1597 1598 1599 1600 1601 1602 1603 1604 1605 1606 1607 1608 1609 1610 1611 1612 1613 1614 1615 1616 1617 1618 1619 1620 1621 1622 1623 1624 1625 1626 1627 1628 1629 1630 1631 1632 1633 1634 1635 1636 1637 1638 1639 1640 1641 1642 1643 1644 1645 1646 1647 1648 1649 1650 1651 1652 1653 1654 1655 1656 1657 1658 1659 1660 1661 1662 1663 1664 1665 1666 1667 1668 1669 1670 1671 1672 1673 1674 1675 1676 1677 1678 1679 1680 1681 1682 1683 1684 1685 1686 1687 1688 1689 1690 1691 1692 1693 1694 1695 1696 1697 1698 1699 1700 1701 1702 1703 1704 1705 1706 1707 1708 1709 1710 1711 1712 1713 1714 1715 1716 1717 1718 1719 1720 1721 1722 1723 1724 1725 1726 1727 1728 1729 1730 1731 1732 1733 1734 1735 1736 1737 1738 1739 1740 1741 1742 1743 1744 1745 1746 1747 1748 1749 1750 1751 1752 1753 1754 1755 1756 1757 1758 1759 1760 1761 1762 1763 1764 1765 1766 1767 1768 1769 1770 1771 1772 1773 1774 1775 1776 1777 1778 1779 1780 1781 1782 1783 1784 1785 1786 1787 1788 1789 1790 1791 1792 1793 1794 1795 1796 1797 1798 1799 1800 1801 1802 1803 1804 1805 1806 1807 1808 1809 1810 1811 1812 1813 1814 1815 1816 1817 1818 1819 1820 1821 1822 1823 1824 1825 1826 1827 1828 1829 1830 1831 1832 1833 1834 1835 1836 1837 1838 1839 1840 1841 1842 1843 1844 1845 1846 1847 1848 1849 1850 1851 1852 1853 1854 1855 1856 1857 1858 1859 1860 1861 1862 1863 1864 1865 1866 1867 1868 1869 1870 1871 1872 1873 1874 1875 1876 1877 1878 1879 1880 1881 1882 1883 1884 1885 1886 1887 1888 1889 1890 1891 1892 1893 1894 1895 1896 1897 1898 1899 1900 1901 1902 1903 1904 1905 1906 1907 1908 1909 1910 1911 1912 1913 1914 1915 1916 1917 1918 1919 1920 1921 1922 1923 1924 1925 1926 1927 1928 1929 1930 1931 1932 1933 1934 1935 1936 1937 1938 1939 1940 1941 1942 1943 1944 1945 1946 1947 1948 1949 1950 1951 1952 1953 1954 1955 1956 1957 1958 1959 1960 1961 1962 1963 1964 1965 1966 1967 1968 1969 1970 1971 1972 1973 1974 1975 1976 1977 1978 1979 1980 1981 1982 1983 1984 1985 1986 1987 1988 1989 1990 1991 1992 1993 1994 1995 1996 1997 1998 1999 2000 2001 2002 2003 2004 2005 2006 2007 2008 2009 2010 2011 2012 2013 2014 2015 2016 2017 2018 2019 2020 2021 2022 2023 2024 2025 2026 2027 2028 2029 2030 2031 2032 2033 2034 2035 2036 2037 2038 2039 2040 2041 2042 2043 2044 2045 2046 2047 2048 2049 2050 2051 2052 2053 2054 2055 2056 2057 2058 2059 2060 2061 2062 2063 2064 2065 2066 2067 2068 2069 2070 2071 2072 2073 2074 2075 2076 2077 2078 2079 2080 2081 2082 2083 2084 2085 2086 2087 2088 2089 2090 2091 2092 2093 2094 2095 2096 2097 2098 2099 2100 2101 2102 2103 2104 2105 2106 2107 2108 2109 2110 2111 2112 2113 2114 2115 2116 2117 2118 2119 2120 2121 2122 2123 2124 2125 2126 2127 2128 2129 2130 2131 2132 2133 2134 2135 2136 2137 2138 2139 2140 2141 2142 2143 2144 2145 2146 2147 2148 2149 2150 2151 2152 2153 2154 2155 2156 2157 2158 2159 2160 2161 2162 2163 2164 2165 2166 2167 2168 2169 2170 2171 2172 2173 2174 2175 2176 2177 2178 2179 2180 2181 2182 2183 2184 2185 2186 2187 2188 2189 2190 2191 2192 2193 2194 2195 2196 2197 2198 2199 2200 2201 2202 2203 2204 2205 2206 2207 2208 2209 2210 2211 2212 2213 2214 2215 2216 2217 2218 2219 2220 2221 2222 2223 2224 2225 2226 2227 2228 2229 2230 2231 2232 2233 2234 2235 2236 2237 2238 2239 2240 2241 2242 2243 2244 2245 2246 2247 2248 2249 2250 2251 2252 2253 2254 2255 2256 2257 2258 2259 2260 2261 2262 2263 2264 2265 2266 2267 2268 2269 2270 2271 2272 2273 2274 2275 2276 2277 2278 2279 2280 2281 2282 2283 2284 2285 2286 2287 2288 2289 2290 2291 2292 2293 2294 2295 2296 2297 2298 2299 2300 2301 2302 2303 2304 2305 2306 2307 2308 2309 2310 2311 2312 2313 2314 2315 2316 2317 2318 2319 2320 2321 2322 2323 2324 2325 2326 2327 2328 2329 2330 2331 2332 2333 2334 2335 2336 2337 2338 2339 2340 2341 2342 2343 2344 2345 2346 2347 2348 2349 2350 2351 2352 2353 2354 2355 2356 2357 2358 2359 2360 2361 2362 2363 2364 2365 2366 2367 2368 2369 2370 2371 2372 2373 2374 2375 2376 2377 2378 2379 2380 2381 2382 2383 2384 2385 2386 2387 2388 2389 2390 2391 2392 2393 2394 2395 2396 2397 2398 2399 2400 2401 2402 2403 2404 2405 2406 2407 2408 2409 2410 2411 2412 2413 2414 2415 2416 2417 2418 2419 2420 2421 2422 2423 2424 2425 2426 2427 2428 2429 2430 2431 2432 2433 2434 2435 2436 2437 2438 2439 2440 2441 2442 2443 2444 2445 2446 2447 2448 2449 2450 2451 2452 2453 2454 2455 2456 2457 2458 2459 2460 2461 2462 2463 2464 2465 2466 2467 2468 2469 2470 2471 2472 2473 2474 2475 2476 2477 2478 2479 2480 2481 2482 2483 2484 2485 2486 2487 2488 2489 2490 2491 2492 2493 2494 2495 2496 2497 2498 2499 2500 2501 2502 2503 2504 2505 2506 2507 2508 2509 2510 2511 2512 2513 2514 2515 2516 2517 2518 2519 2520 2521 2522 2523 2524 2525 2526 2527 2528 2529 2530 2531 2532 2533 2534 2535 2536 2537 2538 2539 2540 2541 2542 2543 2544 2545 2546 2547 2548 2549 2550 2551 2552 2553 2554 2555 2556 2557 2558 2559 2560 2561 2562 2563 2564 2565 2566 2567 2568 2569 2570 2571 2572 2573 2574 2575 2576 2577 2578 2579 2580 2581 2582 2583 2584 2585 2586 2587 2588 2589 2590 2591 2592 2593 2594 2595 2596 2597 2598 2599 2600 2601 2602 2603 2604 2605 2606 2607 2608 2609 2610 2611 2612 2613 2614 2615 2616 2617 2618 2619 2620 2621 2622 2623 2624 2625 2626 2627 2628 2629 2630 2631 2632 2633 2634 2635 2636 2637 2638 2639 2640 2641 2642 2643 2644 2645 2646 2647 2648 2649 2650 2651 2652 2653 2654 2655 2656 2657 2658 2659 2660 2661 2662 2663 2664 2665 2666 2667 2668 2669 2670 2671 2672 2673 2674 2675 2676 2677 2678 2679 2680 2681 2682 2683 2684 2685 2686 2687 2688 2689 2690 2691 2692 2693 2694 2695 2696 2697 2698 2699 2700 2701 2702 2703 2704 2705 2706 2707 2708 2709 2710 2711 2712 2713 2714 2715 2716 2717 2718 2719 2720 2721 2722 2723 2724 2725 2726 2727 2728 2729 2730 2731 2732 2733 2734 2735 2736 2737 2738 2739 2740 2741 2742 2743 2744 2745 2746 2747 2748 2749 2750 2751 2752 2753 2754 2755 2756 2757 2758 2759 2760 2761 2762 2763 2764 2765 2766 2767 2768 2769 2770 2771 2772 2773 2774 2775 2776 2777 2778 2779 2780 2781 2782 2783 2784 2785 2786 2787 2788 2789 2790 2791 2792 2793 2794 2795 2796 2797 2798 2799 2800 2801 2802 2803 2804 2805 2806 2807 2808 2809 2810 2811 2812 2813 2814 2815 2816 2817 2818 2819 2820 2821 2822 2823 2824 2825 2826 2827 2828 2829 2830 2831 2832 2833 2834 2835 2836 2837 2838 2839 2840 2841 2842 2843 2844 2845 2846 2847 2848 2849 2850 2851 2852 2853 2854 2855 2856 2857 2858 2859 2860 2861 2862 2863 2864 2865 2866 2867 2868 2869 2870 2871 2872 2873 2874 2875 2876 2877 2878 2879 2880 2881 2882 2883 2884 2885 2886 2887 2888 2889 2890 2891 2892 2893 2894 2895 2896 2897 2898 2899 2900 2901 2902 2903 2904 2905 2906 2907 2908 2909 2910 2911 2912 2913 2914 2915 2916 2917 2918 2919 2920 2921 2922 2923 2924 2925 2926 2927 2928 2929 2930 2931 2932 2933 2934 2935 2936 2937 2938 2939 2940 2941 2942 2943 2944 2945 2946 2947 2948 2949 2950 2951 2952 2953 2954 2955 2956 2957 2958 2959 2960 2961 2962 2963 2964 2965 2966 2967 2968 2969 2970 2971 2972 2973 2974 2975 2976 2977 2978 2979 2980 2981 2982 2983 2984 2985 2986 2987 2988 2989 2990 2991 2992 2993 2994 2995 2996 2997 2998 2999 3000 3001 3002 3003 3004 3005 3006 3007 3008 3009 3010 3011 3012 3013 3014 3015 3016 3017 3018 3019 3020 3021 3022 3023 3024 3025 3026 3027 3028 3029 3030 3031 3032 3033 3034 3035 3036 3037 3038 3039 3040 3041 3042 3043 3044 3045 3046 3047 3048 3049 3050 3051 3052 3053 3054 3055 3056 3057 3058 3059 3060 3061 3062 3063 3064 3065 3066 3067 3068 3069 3070 3071 3072 3073 3074 3075 3076 3077 3078 3079 3080 3081 3082 3083 3084 3085 3086 3087 3088 3089 3090 3091 3092 3093 3094 3095 3096 3097 3098 3099 3100 3101 3102 3103 3104 3105 3106 3107 3108 3109 3110 3111 3112 3113 3114 3115 3116 3117 3118 3119 3120 3121 3122 3123 3124 3125 3126 3127 3128 3129 3130 3131 3132 3133 3134 3135 3136 3137 3138 3139 3140 3141 
</DataArray>
<DataArray type="UInt32" Name="offsets" format="ascii">
3 6 9 12 15 18 21 24 27 30 33 36 39 42 45 48 51 54 57 60 63 66 69 72 75 78 81 84 87 90 93 96 99 102 105 108 111 114 117 120 123 126 129 132 135 138 141 144 147 150 153 156 159 162 165 168 171 174 177 180 183 186 189 192 195 198 201 204 207 210 213 216 219 222 225 228 231 234 237 240 243 246 249 252 255 258 261 264 267 270 273 276 279 282 285 288 291 294 297 300 303 306 309 312 315 318 321 324 327 330 333 336 339 342 345 348 351 354 357 360 363 366 369 372 375 378 381 384 387 390 393 396 399 402 405 408 411 414 417 420 423 426 429 432 435 438 441 444 447 450 453 456 459 462 465 468 471 474 477 480 483 486 489 492 495 498 501 504 507 510 513 516 519 522 525 528 531 534 537 540 543 546 549 552 555 558 561 564 567 570 573 576 579 582 585 588 591 594 597 600 603 606 609 612 615 618 621 624 627 630 633 636 639 642 645 648 651 654 657 660 663 666 669 672 675 678 681 684 687 690 693 696 699 702 705 708 711 714 717 720 723 726 729 732 735 738 741 744 747 750 753 756 759 762 765 768 771 774 777 780 783 786 789 792 795 798 801 804 807 810 813 816 819 822 825 828 831 834 837 840 843 846 849 852 855 858 861 864 867 870 873 876 879 882 885 888 891 894 897 900 903 906 909 912 915 918 921 924 927 930 933 936 939 942 945 948 951 954 957 960 963 966 969 972 975 978 981 984 987 990 993 996 999 1002 1005 1008 1011 1014 1017 1020 1023 1026 1029 1032 1035 1038 1041 1044 1047 1050 1053 1056 1059 1062 1065 1068 1071 1074 1077 1080 1083 1086 1089 1092 1095 1098 1101 1104 1107 1110 1113 1116 1119 1122 1125 1128 1131 1134 1137 1140 1143 1146 1149 1152 1155 1158 1161 1164 1167 1170 1173 1176 1179 1182 1185 1188 1191 1194 1197 1200 1203 1206 1209 1212 1215 1218 1221 1224 1227 1230 1233 1236 1239 1242 1245 1248 1251 1254 1257 1260 1263 1266 1269 1272 1275 1278 1281 1284 1287 1290 1293 1296 1299 1302 1305 1308 1311 1314 1317 1320 1323 1326 1329 1332 1335 1338 1341 1344 1347 1350 1353 1356 1359 1362 1365 1368 1371 1374 1377 1380 1383 1386 1389 1392 1395 1398 1401 1404 1407 1410 1413 1416 1419 1422 1425 1428 1431 1434 1437 1440 1443 1446 1449 1452 1455 1458 1461 1464 1467 1470 1473 1476 1479 1482 1485 1488 1491 1494 1497 1500 1503 1506 1509 1512 1515 1518 1521 1524 1527 1530 1533 1536 1539 1542 1545 1548 1551 1554 1557 1560 1563 1566 1569 1572 1575 1578 1581 1584 1587 1590 1593 1596 1599 1602 1605 1608 1611 1614 1616 1619 1622 1624 1627 1630 1632 1635 1638 1641 1644 1647 1650 1653 1656 1659 1662 1665 1668 1671 1673 1676 1679 1682 1685 1688 1690 1693 1696 1699 1702 1705 1708 1711 1714 1717 1720 1723 1726 1729 1732 1735 1738 1741 1744 1747 1750 1753 1756 1759 1762 1765 1768 1771 1774 1777 1780 1783 1786 1789 1792 1795 1798 1801 1804 1807 1810 1813 1816 1819 1822 1825 1828 1831 1834 1837 1840 1843 1846 1849 1852 1855 1858 1861 1864 1867 1870 1873 1876 1879 1882 1885 1888 1891 1894 1897 1900 1903 1906 1909 1912 1915 1918 1921 1924 1927 1930 1933 1936 1939 1942 1945 1948 1951 1954 1957 1960 1963 1966 1969 1972 1975 1978 1981 1984 1987 1990 1993 1996 1999 2002 2005 2008 2011 2014 2017 2020 2023 2026 2029 2032 2035 2038 2041 2044 2047 2050 2053 2056 2059 2062 2065 2068 2071 2074 2077 2080 2083 2086 2089 2092 2095 2098 2101 2104 2107 2110 2113 2116 2119 2122 2125 2128 2131 2134 2137 2140 2143 2146 2149 2152 2155 2158 2161 2164 2167 2170 2173 2176 2179 2182 2185 2188 2191 2194 2196 2199 2202 2205 2207 2210 2213 2215 2218 2221 2224 2227 2230 2233 2236 2239 2242 2245 2248 2250 2253 2256 2259 2262 2264 2267 2270 2273 2276 2279 2282 2285 2288 2291 2294 2297 2300 2303 2306 2309 2312 2315 2318 2321 2324 2327 2330 2333 2336 2339 2342 2345 2348 2351 2354 2357 2360 2363 2366 2369 2372 2375 2378 2381 2384 2387 2390 2393 2396 2399 2402 2405 2408 2411 2414 2417 2420 2423 2426 2429 2432 2435 2438 2440 2443 2446 2449 2452 2455 2458 2461 2464 2467 2470 2473 2476 2479 2482 2484 2487 2490 2492 2495 2497 2500 2503 2506 2509 2512 2515 2518 2521 2524 2527 2530 2533 2536 2538 2541 2544 2547 2550 2553 2556 2559 2562 2565 2568 2571 2574 2577 2580 2583 2586 2589 2592 2595 2598 2601 2604 2607 2610 2613 2616 2619 2622 2625 2628 2631 2634 2637 2640 2643 2646 2649 2652 2655 2658 2661 2664 2667 2670 2673 2676 2679 2682 2685 2688 2691 2694 2697 2700 2703 2706 2709 2712 2715 2718 2721 2724 2727 2730 2733 2736 2739 2742 2745 2748 2751 2754 2757 2760 2763 2766 2769 2772 2775 2778 2781 2784 2787 2790 2793 2796 2799 2802 2805 2808 2811 2814 2817 2820 2823 2826 2829 2832 2835 2838 2841 2844 2847 2850 2853 2856 2859 2862 2865 2868 2871 2874 2877 2880 2883 2886 2889 2892 2895 2898 2901 2904 2907 2910 2913 2916 2919 2922 2925 2928 2931 2934 2937 2940 2943 2946 2948 2951 2954 2956 2959 2961 2964 2967 2970 2973 2976 2979 2982 2985 2988 2991 2994 2997 3000 3003 3006 3009 3012 3015 3018 3021 3024 3027 3030 3033 3036 3039 3042 3045 3048 3051 3054 3057 3060 3063 3066 3069 3072 3075 3078 3081 3084 3087 3090 3093 3096 3099 3102 3104 3107 3110 3113 3116 3119 3121 3124 3127 3130 3133 3136 3139 3142 
</DataArray>
<DataArray type="UInt32" Name="types" format="ascii">
5 5 5 5 5 5 5 5 5 5 5 5 5 5 5 5 5 5 5 5 5 5 5 5 5 5 5 5 5 5 5 5 5 5 5 5 5 5 5 5 5 5 5 5 5 5 5 5 5 5 5 5 5 5 5 5 5 5 5 5 5 5 5 5 5 5 5 5 5 5 5 5 5 5 5 5 5 5 5 5 5 5 5 5 5 5 5 5 5 5 5 5 5 5 5 5 5 5 5 5 5 5 5 5 5 5 5 5 5 5 5 5 5 5 5 5 5 5 5 5 5 5 5 5 5 5 5 5 5 5 5 5 5 5 5 5 5 5 5 5 5 5 5 5 5 5 5 5 5 5 5 5 5 5 5 5 5 5 5 5 5 5 5 5 5 5 5 5 5 5 5 5 5 5 5 5 5 5 5 5 5 5 5 5 5 5 5 5 5 5 5 5 5 5 5 5 5 5 5 5 5 5 5 5 5 5 5 5 5 5 5 5 5 5 5 5 5 5 5 5 5 5 5 5 5 5 5 5 5 5 5 5 5 5 5 5 5 5 5 5 5 5 5 5 5 5 5 5 5 5 5 5 5 5 5 5 5 5 5 5 5 5 5 5 5 5 5 5 5 5 5 5 5 5 5 5 5 5 5 5 5 5 5 5 5 5 5 5 5 5 5 5 5 5 5 5 5 5 5 5 5 5 5 5 5 5 5 5 5 5 5 5 5 5 5 5 5 5 5 5 5 5 5 5 5 5 5 5 5 5 5 5 5 5 5 5 5 5 5 5 5 5 5 5 5 5 5 5 5 5 5 5 5 5 5 5 5 5 5 5 5 5 5 5 5 5 5 5 5 5 5 5 5 5 5 5 5 5 5 5 5 5 5 5 5 5 5 5 5 5 5 5 5 5 5 5 5 5 5 5 5 5 5 5 5 5 5 5 5 5 5 5 5 5 5 5 5 5 5 5 5 5 5 5 5 5 5 5 5 5 5 5 5 5 5 5 5 5 5 5 5 5 5 5 5 5 5 5 5 5 5 5 5 5 5 5 5 5 5 5 5 5 5 5 5 5 5 5 5 5 5 5 5 5 5 5 5 5 5 5 5 5 5 5 5 5 5 5 5 5 5 5 5 5 5 5 5 5 5 5 5 5 5 5 5 5 5 5 5 5 5 5 5 5 5 5 5 5 5 5 5 5 5 5 5 5 5 5 5 5 5 5 5 5 5 5 5 5 3 5 5 3 5 5 3 5 5 5 5 5 5 5 5 5 5 5 5 5 3 5 5 5 5 5 3 5 5 5 5 5 5 5 5 5 5 5 5 5 5 5 5 5 5 5 5 5 5 5 5 5 5 5 5 5 5 5 5 5 5 5 5 5 5 5 5 5 5 5 5 5 5 5 5 5 5 5 5 5 5 5 5 5 5 5 5 5 5 5 5 5 5 5 5 5 5 5 5 5 5 5 5 5 5 5 5 5 5 5 5 5 5 5 5 5 5 5 5 5 5 5 5 5 5 5 5 5 5 5 5 5 5 5 5 5 5 5 5 5 5 5 5 5 5 5 5 5 5 5 5 5 5 5 5 5 5 5 5 5 5 5 5 5 5 5 5 5 5 5 5 5 5 5 5 5 5 5 5 5 5 5 5 5 5 5 5 5 5 5 5 5 5 5 5 3 5 5 5 3 5 5 3 5 5 5 5 5 5 5 5 5 5 5 3 5 5 5 5 3 5 5 5 5 5 5 5 5 5 5 5 5 5 5 5 5 5 5 5 5 5 5 5 5 5 5 5 5 5 5 5 5 5 5 5 5 5 5 5 5 5 5 5 5 5 5 5 5 5 5 5 5 5 5 5 5 5 5 3 5 5 5 5 5 5 5 5 5 5 5 5 5 5 3 5 5 3 5 3 5 5 5 5 5 5 5 5 5 5 5 5 5 3 5 5 5 5 5 5 5 5 5 5 5 5 5 5 5 5 5 5 5 5 5 5 5 5 5 5 5 5 5 5 5 5 5 5 5 5 5 5 5 5 5 5 5 5 5 5 5 5 5 5 5 5 5 5 5 5 5 5 5 5 5 5 5 5 5 5 5 5 5 5 5 5 5 5 5 5 5 5 5 5 5 5 5 5 5 5 5 5 5 5 5 5 5 5 5 5 5 5 5 5 5 5 5 5 5 5 5 5 5 5 5 5 5 5 5 5 5 5 5 5 5 5 5 5 5 5 5 5 5 5 5 5 5 5 5 5 3 5 5 3 5 3 5 5 5 5 5 5 5 5 5 5 5 5 5 5 5 5 5 5 5 5 5 5 5 5 5 5 5 5 5 5 5 5 5 5 5 5 5 5 5 5 5 5 5 5 5 5 5 3 5 5 5 5 5 3 5 5 5 5 5 5 5 
</DataArray>
</Cells>
<PointData Scalars="" Vectors="displacement," Tensors="">
<DataArray type="Float64" Name="displacement" NumberOfComponents="3" format="ascii">
-0.00014782668823158976 -0.00041748399542711662 0 -4.6436515312770558e-07 -1.1629829583681111e-06 0 -1.5491758245081204e-08 -7.3101479143081276e-07 0 -0.00014782668823158976 -0.00041748399542711662 0 -4.6436515312770558e-07 -1.1629829583681111e-06 0 -0.00052212234324000074 -0.0010442298556498563 0 -0.00014782668823158976 -0.00041748399542711662 0 -1.5491758245081204e-08 -7.3101479143081276e-07 0 -0.00019483295574381209 -0.0007632775650215606 0 -0.00014782668823158976 -0.00041748399542711662 0 -0.00019483295574381209 -0.0007632775650215606 0 -0.00052212234324000074 -0.0010442298556498563 0 -0.00052212234324000074 -0.0010442298556498563 0 -0.00077317730240618007 -0.0020050817045369775 0 -0.00049815400096192694 -0.0018008149595060503 0 -0.00077317730240618007 -0.0020050817045369775 0 -0.00049815400096192694 -0.0018008149595060503 0 -0.00098212871244782282 -0.0029887137903188317 0 -0.00019483295574381209 -0.0007632775650215606 0 -0.00049815400096192694 -0.0018008149595060503 0 -0.00023375813322548358 -0.0014046165447708337 0 -0.00019483295574381209 -0.0007632775650215606 0 -0.00052212234324000074 -0.0010442298556498563 0 -0.00049815400096192694 -0.0018008149595060503 0 -0.00049815400096192694 -0.0018008149595060503 0 -0.00023375813322548358 -0.0014046165447708337 0 -0.00054399399609452901 -0.002497555409695072 0 -0.00023375813322548358 -0.0014046165447708337 0 -0.00054399399609452901 -0.002497555409695072 0 -0.00027387499391656896 -0.0019522296598024225 0 -0.00023375813322548358 -0.0014046165447708337 0 -0.00010119838456048227 -0.0013458170675827998 0 -0.00027387499391656896 -0.0019522296598024225 0 -0.00010119838456048227 -0.0013458170675827998 0 -0.00027387499391656896 -0.0019522296598024225 0 -0.00017390790399284177 -0.0019682313557028998 0 -0.00010119838456048227 -0.0013458170675827998 0 -5.3532680981424518e-05 -0.00063632093625095036 0 2.1063953672825953e-05 -0.00079907530779744378 0 -0.00023375813322548358 -0.0014046165447708337 0 -0.00010119838456048227 -0.0013458170675827998 0 -5.3532680981424518e-05 -0.00063632093625095036 0 -5.3532680981424518e-05 -0.00063632093625095036 0 -6.8429896803733992e-09 -6.8307483970978954e-07 0 8.5817019990494278e-08 -5.7053298538127271e-07 0 -1.5491758245081204e-08 -7.3101479143081276e-07 0 -0.00019483295574381209 -0.0007632775650215606 0 -6.8429896803733992e-09 -6.8307483970978954e-07 0 -0.00019483295574381209 -0.0007632775650215606 0 -5.3532680981424518e-05 -0.00063632093625095036 0 -6.8429896803733992e-09 -6.8307483970978954e-07 0 -0.00019483295574381209 -0.0007632775650215606 0 -0.00023375813322548358 -0.0014046165447708337 0 -5.3532680981424518e-05 -0.00063632093625095036 0 -0.0010797534158666746 -0.0042609413822885592 0 -0.0012302126143982298 -0.0040303325733577469 0 -0.0015461654567918849 -0.0051458618445394608 0 -0.0010797534158666746 -0.0042609413822885592 0 -0.0012302126143982298 -0.0040303325733577469 0 -0.00088792418281090986 -0.0034429185475558606 0 -0.0010797534158666746 -0.0042609413822885592 0 -0.00088792418281090986 -0.0034429185475558606 0 -0.00069322394328721166 -0.0033628693219454895 0 -0.00088792418281090986 -0.0034429185475558606 0 -0.00098212871244782282 -0.0029887137903188317 0 -0.00054399399609452901 -0.002497555409695072 0 -0.00049815400096192694 -0.0018008149595060503 0 -0.00098212871244782282 -0.0029887137903188317 0 -0.00054399399609452901 -0.002497555409695072 0 -0.00088792418281090986 -0.0034429185475558606 0 -0.00054399399609452901 -0.002497555409695072 0 -0.00069322394328721166 -0.0033628693219454895 0 -0.0012302126143982298 -0.0040303325733577469 0 -0.00088792418281090986 -0.0034429185475558606 0 -0.00098212871244782282 -0.0029887137903188317 0 -0.00054399399609452901 -0.002497555409695072 0 -0.00027387499391656896 -0.0019522296598024225 0 -0.0003991882516356493 -0.0025326260656576296 0 -0.00027387499391656896 -0.0019522296598024225 0 -0.0003991882516356493 -0.0025326260656576296 0 -0.00017390790399284177 -0.0019682313557028998 0 -0.00054399399609452901 -0.002497555409695072 0 -0.0003991882516356493 -0.0025326260656576296 0 -0.00069322394328721166 -0.0033628693219454895 0 -0.00069322394328721166 -0.0033628693219454895 0 -0.00087296439429765448 -0.0040497786887542554 0 -0.00042880136012348429 -0.0028632948385797288 0 -0.0003991882516356493 -0.0025326260656576296 0 -0.00069322394328721166 -0.0033628693219454895 0 -0.00042880136012348429 -0.0028632948385797288 0 -0.0010797534158666746 -0.0042609413822885592 0 -0.00069322394328721166 -0.0033628693219454895 0 -0.00087296439429765448 -0.0040497786887542554 0 -0.0010797534158666746 -0.0042609413822885592 0 -0.00087296439429765448 -0.0040497786887542554 0 -0.0013728232975515656 -0.0052056871880928959 0 -0.00087296439429765448 -0.0040497786887542554 0 -0.00064508054565123407 -0.00340551490960892 0 -0.00042880136012348429 -0.0028632948385797288 0 -0.00045900549970228586 -0.0028194288310496303 0 -0.00064508054565123407 -0.00340551490960892 0 -0.00042880136012348429 -0.0028632948385797288 0 -0.00045900549970228586 -0.0028194288310496303 0 -0.00042880136012348429 -0.0028632948385797288 0 -0.00021379152853463713 -0.002215644368195561 0 -0.00021379152853463713 -0.002215644368195561 0 -0.00017390790399284177 -0.0019682313557028998 0 -3.835414934429828e-05 -0.0016051229450865451 0 -0.0003991882516356493 -0.0025326260656576296 0 -0.00042880136012348429 -0.0028632948385797288 0 -0.00017390790399284177 -0.0019682313557028998 0 -0.00042880136012348429 -0.0028632948385797288 0 -0.00021379152853463713 -0.002215644368195561 0 -0.00017390790399284177 -0.0019682313557028998 0 -0.00017390790399284177 -0.0019682313557028998 0 -3.835414934429828e-05 -0.0016051229450865451 0 -8.4426245838835462e-06 -0.001285515068201694 0 -3.835414934429828e-05 -0.0016051229450865451 0 6.6206944858446294e-05 -0.0011943873438176556 0 -0.00010784412961765413 -0.0017743185260453217 0 6.6206944858446294e-05 -0.0011943873438176556 0 -0.00010784412961765413 -0.0017743185260453217 0 7.8298186653784969e-06 -0.0012712326267791969 0 -0.00010784412961765413 -0.0017743185260453217 0 7.8298186653784969e-06 -0.0012712326267791969 0 -0.00011982154377056498 -0.0014654211686371736 0 -0.00021379152853463713 -0.002215644368195561 0 -3.835414934429828e-05 -0.0016051229450865451 0 -0.00010784412961765413 -0.0017743185260453217 0 -0.00045900549970228586 -0.0028194288310496303 0 -0.00021379152853463713 -0.002215644368195561 0 -0.00028966370886432017 -0.0021230332799025407 0 -0.00021379152853463713 -0.002215644368195561 0 -0.00010784412961765413 -0.0017743185260453217 0 -0.00028966370886432017 -0.0021230332799025407 0 -0.00010784412961765413 -0.0017743185260453217 0 -0.00028966370886432017 -0.0021230332799025407 0 -0.00011982154377056498 -0.0014654211686371736 0 -0.00028966370886432017 -0.0021230332799025407 0 -0.00049935480677661928 -0.0020851304787141171 0 -0.00059810264112666151 -0.0027690016265350271 0 -0.00045900549970228586 -0.0028194288310496303 0 -0.00028966370886432017 -0.0021230332799025407 0 -0.00059810264112666151 -0.0027690016265350271 0 7.3068863234434372e-05 -0.00041974407482495932 0 8.5817019990494278e-08 -5.7053298538127271e-07 0 2.1063953672825953e-05 -0.00079907530779744378 0 7.3068863234434372e-05 -0.00041974407482495932 0 2.1063953672825953e-05 -0.00079907530779744378 0 0.00010169856598960923 -0.00090475361890191225 0 7.3068863234434372e-05 -0.00041974407482495932 0 8.5817019990494278e-08 -5.7053298538127271e-07 0 4.5909687176269841e-08 -4.9993026832745253e-07 0 -5.3532680981424518e-05 -0.00063632093625095036 0 8.5817019990494278e-08 -5.7053298538127271e-07 0 2.1063953672825953e-05 -0.00079907530779744378 0 -0.00010119838456048227 -0.0013458170675827998 0 2.1063953672825953e-05 -0.00079907530779744378 0 -8.4426245838835462e-06 -0.001285515068201694 0 -0.00010119838456048227 -0.0013458170675827998 0 -0.00017390790399284177 -0.0019682313557028998 0 -8.4426245838835462e-06 -0.001285515068201694 0 -3.835414934429828e-05 -0.0016051229450865451 0 -8.4426245838835462e-06 -0.001285515068201694 0 0.00010169856598960923 -0.00090475361890191225 0 2.1063953672825953e-05 -0.00079907530779744378 0 -8.4426245838835462e-06 -0.001285515068201694 0 0.00010169856598960923 -0.00090475361890191225 0 -3.835414934429828e-05 -0.0016051229450865451 0 6.6206944858446294e-05 -0.0011943873438176556 0 0.00010169856598960923 -0.00090475361890191225 0 6.6206944858446294e-05 -0.0011943873438176556 0 0.00010169856598960923 -0.00090475361890191225 0 0.00013843747170682523 -0.00076341333153185395 0 6.6206944858446294e-05 -0.0011943873438176556 0 0.00013843747170682523 -0.00076341333153185395 0 0.00012076205288559532 -0.00084712832379929884 0 0.00010169856598960923 -0.00090475361890191225 0 0.00013843747170682523 -0.00076341333153185395 0 0.00011938438810467906 -0.00041613573603708435 0 0.00013843747170682523 -0.00076341333153185395 0 0.00011938438810467906 -0.00041613573603708435 0 0.00015713467613410277 -0.00043301647714322271 0 7.3068863234434372e-05 -0.00041974407482495932 0 0.00010169856598960923 -0.00090475361890191225 0 0.00011938438810467906 -0.00041613573603708435 0 7.3068863234434372e-05 -0.00041974407482495932 0 0.00011938438810467906 -0.00041613573603708435 0 4.5909687176269841e-08 -4.9993026832745253e-07 0 0.00011938438810467906 -0.00041613573603708435 0 4.5909687176269841e-08 -4.9993026832745253e-07 0 8.3224161600435352e-08 -4.1209080523572539e-07 0 8.3224161600435352e-08 -4.1209080523572539e-07 0 0.00015713467613410277 -0.00043301647714322271 0 7.8674996473422722e-08 -3.0829388592640107e-07 0 0.00011938438810467906 -0.00041613573603708435 0 8.3224161600435352e-08 -4.1209080523572539e-07 0 0.00015713467613410277 -0.00043301647714322271 0 0.00015713467613410277 -0.00043301647714322271 0 7.8674996473422722e-08 -3.0829388592640107e-07 0 0.0001222413566112052 -0.00025021408766807919 0 7.8674996473422722e-08 -3.0829388592640107e-07 0 0.0001222413566112052 -0.00025021408766807919 0 5.0066491343419537e-08 -2.3433743991897351e-07 0 0.0001222413566112052 -0.00025021408766807919 0 8.4430309693498551e-05 -0.00015061751275189796 0 0.00012400859159443844 -0.00036045905090764717 0 8.4430309693498551e-05 -0.00015061751275189796 0 0.00012400859159443844 -0.00036045905090764717 0 8.1486011975041617e-05 -0.00017306535826600291 0 0.0001222413566112052 -0.00025021408766807919 0 8.4430309693498551e-05 -0.00015061751275189796 0 5.0066491343419537e-08 -2.3433743991897351e-07 0 8.4430309693498551e-05 -0.00015061751275189796 0 5.0066491343419537e-08 -2.3433743991897351e-07 0 5.9125924116743254e-08 -1.6939377730814037e-07 0 0.00012400859159443844 -0.00036045905090764717 0 1.6553338073949544e-05 -0.00051593745962893534 0 3.448904772540236e-05 -0.00029858652321800391 0 0.00012400859159443844 -0.00036045905090764717 0 9.7466052559879414e-05 -0.00063933084605822762 0 1.6553338073949544e-05 -0.00051593745962893534 0 0.0001222413566112052 -0.00025021408766807919 0 0.00012400859159443844 -0.00036045905090764717 0 0.00014797002542159171 -0.00049682342993630907 0 0.00012400859159443844 -0.00036045905090764717 0 9.7466052559879414e-05 -0.00063933084605822762 0 0.00014797002542159171 -0.00049682342993630907 0 9.7466052559879414e-05 -0.00063933084605822762 0 0.00014797002542159171 -0.00049682342993630907 0 0.00012076205288559532 -0.00084712832379929884 0 0.00015713467613410277 -0.00043301647714322271 0 0.0001222413566112052 -0.00025021408766807919 0 0.00014797002542159171 -0.00049682342993630907 0 0.00015713467613410277 -0.00043301647714322271 0 0.00014797002542159171 -0.00049682342993630907 0 0.00012076205288559532 -0.00084712832379929884 0 0.00013843747170682523 -0.00076341333153185395 0 0.00015713467613410277 -0.00043301647714322271 0 0.00012076205288559532 -0.00084712832379929884 0 6.6206944858446294e-05 -0.0011943873438176556 0 0.00012076205288559532 -0.00084712832379929884 0 7.8298186653784969e-06 -0.0012712326267791969 0 0.00012076205288559532 -0.00084712832379929884 0 7.8298186653784969e-06 -0.0012712326267791969 0 1.6914677070186058e-05 -0.0010039189067095279 0 7.8298186653784969e-06 -0.0012712326267791969 0 1.6914677070186058e-05 -0.0010039189067095279 0 -0.00011982154377056498 -0.0014654211686371736 0 1.6914677070186058e-05 -0.0010039189067095279 0 -0.00016219325906448548 -0.0010656414740984569 0 -2.7488176135612814e-05 -0.00077795720177549759 0 1.6914677070186058e-05 -0.0010039189067095279 0 -0.00011982154377056498 -0.0014654211686371736 0 -0.00016219325906448548 -0.0010656414740984569 0 9.7466052559879414e-05 -0.00063933084605822762 0 0.00012076205288559532 -0.00084712832379929884 0 1.6914677070186058e-05 -0.0010039189067095279 0 -0.00028966370886432017 -0.0021230332799025407 0 -0.00032380435550976899 -0.0015442602253850244 0 -0.00049935480677661928 -0.0020851304787141171 0 -0.00028966370886432017 -0.0021230332799025407 0 -0.00032380435550976899 -0.0015442602253850244 0 -0.00011982154377056498 -0.0014654211686371736 0 -0.00032380435550976899 -0.0015442602253850244 0 -0.00011982154377056498 -0.0014654211686371736 0 -0.00016219325906448548 -0.0010656414740984569 0 -0.00032380435550976899 -0.0015442602253850244 0 -0.00043951605993540173 -0.00097673718922761631 0 -0.00060660112964259463 -0.001615804568401517 0 -0.00032380435550976899 -0.0015442602253850244 0 -0.00043951605993540173 -0.00097673718922761631 0 -0.00016219325906448548 -0.0010656414740984569 0 -0.00043951605993540173 -0.00097673718922761631 0 -0.00016219325906448548 -0.0010656414740984569 0 -0.0001665469559504647 -0.00068418075437367719 0 -0.00043951605993540173 -0.00097673718922761631 0 -0.0001665469559504647 -0.00068418075437367719 0 -0.00040679899949074976 -0.00052454642068724337 0 -0.00043951605993540173 -0.00097673718922761631 0 -0.00040679899949074976 -0.00052454642068724337 0 -0.00080714005639374842 -0.00063337786078269921 0 9.7466052559879414e-05 -0.00063933084605822762 0 1.6914677070186058e-05 -0.0010039189067095279 0 -2.7488176135612814e-05 -0.00077795720177549759 0 9.7466052559879414e-05 -0.00063933084605822762 0 -2.7488176135612814e-05 -0.00077795720177549759 0 1.6553338073949544e-05 -0.00051593745962893534 0 -0.00016219325906448548 -0.0010656414740984569 0 -2.7488176135612814e-05 -0.00077795720177549759 0 -0.0001665469559504647 -0.00068418075437367719 0 -0.0001665469559504647 -0.00068418075437367719 0 1.6553338073949544e-05 -0.00051593745962893534 0 -0.0001281896251154647 -0.00039390915466353102 0 -2.7488176135612814e-05 -0.00077795720177549759 0 -0.0001665469559504647 -0.00068418075437367719 0 1.6553338073949544e-05 -0.00051593745962893534 0 1.6553338073949544e-05 -0.00051593745962893534 0 -0.0001281896251154647 -0.00039390915466353102 0 3.448904772540236e-05 -0.00029858652321800391 0 -0.0001281896251154647 -0.00039390915466353102 0 -0.00034770752258900619 -0.00026073078315425405 0 -0.00011004503913236577 -0.00019167284468565144 0 -0.0001281896251154647 -0.00039390915466353102 0 -0.00011004503913236577 -0.00019167284468565144 0 3.448904772540236e-05 -0.00029858652321800391 0 -0.00040679899949074976 -0.00052454642068724337 0 -0.00075531499997627614 -0.00027851978311860563 0 -0.00080714005639374842 -0.00063337786078269921 0 -0.0001665469559504647 -0.00068418075437367719 0 -0.0001281896251154647 -0.00039390915466353102 0 -0.00040679899949074976 -0.00052454642068724337 0 -0.0001281896251154647 -0.00039390915466353102 0 -0.00040679899949074976 -0.00052454642068724337 0 -0.00034770752258900619 -0.00026073078315425405 0 -0.00040679899949074976 -0.00052454642068724337 0 -0.00034770752258900619 -0.00026073078315425405 0 -0.00075531499997627614 -0.00027851978311860563 0 -0.00034770752258900619 -0.00026073078315425405 0 -0.00060372104050904251 -8.0850774371512714e-05 0 -0.00075531499997627614 -0.00027851978311860563 0 -0.00034770752258900619 -0.00026073078315425405 0 -0.00060372104050904251 -8.0850774371512714e-05 0 -0.00035115055281521602 -9.3553168635371228e-05 0 -0.00035115055281521602 -9.3553168635371228e-05 0 -0.00032335313750036869 -4.6003205263784329e-05 0 -0.00049263447865990353 -4.8224565471721671e-06 0 -0.00060372104050904251 -8.0850774371512714e-05 0 -0.00035115055281521602 -9.3553168635371228e-05 0 -0.00049263447865990353 -4.8224565471721671e-06 0 -0.00060372104050904251 -8.0850774371512714e-05 0 -0.00081452154087622599 6.4722852696632956e-05 0 -0.00049263447865990353 -4.8224565471721671e-06 0 -0.00011004503913236577 -0.00019167284468565144 0 -0.00035115055281521602 -9.3553168635371228e-05 0 -0.00019257097254654973 -9.3234975356264486e-05 0 -0.00034770752258900619 -0.00026073078315425405 0 -0.00011004503913236577 -0.00019167284468565144 0 -0.00035115055281521602 -9.3553168635371228e-05 0 -0.00035115055281521602 -9.3553168635371228e-05 0 -0.00019257097254654973 -9.3234975356264486e-05 0 -0.00032335313750036869 -4.6003205263784329e-05 0 -0.00011004503913236577 -0.00019167284468565144 0 -0.00019257097254654973 -9.3234975356264486e-05 0 -6.6684595276578478e-05 -9.9027188125772595e-05 0 -0.00019257097254654973 -9.3234975356264486e-05 0 -6.6684595276578478e-05 -9.9027188125772595e-05 0 -0.00017698431345256052 -7.2138476411332293e-05 0 -0.00011004503913236577 -0.00019167284468565144 0 -6.6684595276578478e-05 -9.9027188125772595e-05 0 1.9396986899570192e-05 -0.00015230535350904947 0 -6.6684595276578478e-05 -9.9027188125772595e-05 0 -3.1156471772460612e-06 -6.9929489307872351e-05 0 1.9396986899570192e-05 -0.00015230535350904947 0 -6.6684595276578478e-05 -9.9027188125772595e-05 0 -3.1156471772460612e-06 -6.9929489307872351e-05 0 -8.2148817327129113e-05 -6.4153470378987856e-05 0 -3.1156471772460612e-06 -6.9929489307872351e-05 0 1.7333137711831184e-08 -8.8945413328641725e-08 0 -8.2148817327129113e-05 -6.4153470378987856e-05 0 -3.1156471772460612e-06 -6.9929489307872351e-05 0 1.7333137711831184e-08 -8.8945413328641725e-08 0 1.2295402477887768e-08 -1.0790743581516236e-07 0 -3.1156471772460612e-06 -6.9929489307872351e-05 0 1.2295402477887768e-08 -1.0790743581516236e-07 0 3.4626413529705044e-05 -8.8059388939800524e-05 0 -3.1156471772460612e-06 -6.9929489307872351e-05 0 3.4626413529705044e-05 -8.8059388939800524e-05 0 1.9396986899570192e-05 -0.00015230535350904947 0 3.4626413529705044e-05 -8.8059388939800524e-05 0 5.9125924116743254e-08 -1.6939377730814037e-07 0 8.1486011975041617e-05 -0.00017306535826600291 0 3.4626413529705044e-05 -8.8059388939800524e-05 0 8.1486011975041617e-05 -0.00017306535826600291 0 1.9396986899570192e-05 -0.00015230535350904947 0 1.2295402477887768e-08 -1.0790743581516236e-07 0 3.4626413529705044e-05 -8.8059388939800524e-05 0 5.9125924116743254e-08 -1.6939377730814037e-07 0 8.4430309693498551e-05 -0.00015061751275189796 0 5.9125924116743254e-08 -1.6939377730814037e-07 0 8.1486011975041617e-05 -0.00017306535826600291 0 0.00012400859159443844 -0.00036045905090764717 0 8.1486011975041617e-05 -0.00017306535826600291 0 3.448904772540236e-05 -0.00029858652321800391 0 -0.00011004503913236577 -0.00019167284468565144 0 3.448904772540236e-05 -0.00029858652321800391 0 1.9396986899570192e-05 -0.00015230535350904947 0 8.1486011975041617e-05 -0.00017306535826600291 0 3.448904772540236e-05 -0.00029858652321800391 0 1.9396986899570192e-05 -0.00015230535350904947 0 -0.0024158711184881607 0.00042992755914209203 0 -0.002394102531386829 7.9590452818515975e-05 0 -0.0028345033525861013 0.0009731116996720019 0 -0.0024158711184881607 0.00042992755914209203 0 -0.0020252786809144031 -0.00027567969944712227 0 -0.002394102531386829 7.9590452818515975e-05 0 -0.0024158711184881607 0.00042992755914209203 0 -0.0020252786809144031 -0.00027567969944712227 0 -0.0017510281363880096 -0.00017098224005568187 0 -0.002394102531386829 7.9590452818515975e-05 0 -0.0027864530676235209 0.00048081140407763354 0 -0.0028345033525861013 0.0009731116996720019 0 -0.0027864530676235209 0.00048081140407763354 0 -0.0031671711182750567 0.0016123812553660011 0 -0.0031290064070504742 0.00063291710134503792 0 -0.0027864530676235209 0.00048081140407763354 0 -0.0031671711182750567 0.0016123812553660011 0 -0.0028345033525861013 0.0009731116996720019 0 -0.0031671711182750567 0.0016123812553660011 0 -0.0028345033525861013 0.0009731116996720019 0 -0.0031887024286507059 0.0015224096309629424 0 -0.0028345033525861013 0.0009731116996720019 0 -0.0031887024286507059 0.0015224096309629424 0 -0.003278693432965571 0.0014751034966286566 0 -0.0031671711182750567 0.0016123812553660011 0 -0.0031887024286507059 0.0015224096309629424 0 -0.0034585459753241642 0.0019837455225745759 0 -0.0031887024286507059 0.0015224096309629424 0 -0.0034585459753241642 0.0019837455225745759 0 -0.003278693432965571 0.0014751034966286566 0 -0.003278693432965571 0.0014751034966286566 0 -0.0028497002195894943 0.00094545138057527066 0 -0.0033840458084019986 0.001216527382781584 0 -0.0028345033525861013 0.0009731116996720019 0 -0.003278693432965571 0.0014751034966286566 0 -0.0028497002195894943 0.00094545138057527066 0 -0.0024158711184881607 0.00042992755914209203 0 -0.0028345033525861013 0.0009731116996720019 0 -0.0028497002195894943 0.00094545138057527066 0 -0.0024158711184881607 0.00042992755914209203 0 -0.0028497002195894943 0.00094545138057527066 0 -0.0022279379767205227 0.00034121108370895292 0 -0.0028497002195894943 0.00094545138057527066 0 -0.0027758536670680067 0.00075585600372582191 0 -0.0033840458084019986 0.001216527382781584 0 -0.0027758536670680067 0.00075585600372582191 0 -0.001844909999014546 0.00020771945639005119 0 -0.0017294858890544386 0.00030910547716292593 0 -0.0027758536670680067 0.00075585600372582191 0 -0.001844909999014546 0.00020771945639005119 0 -0.0022279379767205227 0.00034121108370895292 0 -0.001844909999014546 0.00020771945639005119 0 -0.0022279379767205227 0.00034121108370895292 0 -0.0013780544725552301 -0.00017123518254885792 0 -0.0028497002195894943 0.00094545138057527066 0 -0.0027758536670680067 0.00075585600372582191 0 -0.0022279379767205227 0.00034121108370895292 0 -0.00081452154087622599 6.4722852696632956e-05 0 -0.001189906058418941 -1.475272626648072e-05 0 -0.0017294858890544386 0.00030910547716292593 0 -0.00060372104050904251 -8.0850774371512714e-05 0 -0.00081452154087622599 6.4722852696632956e-05 0 -0.001189906058418941 -1.475272626648072e-05 0 -0.001844909999014546 0.00020771945639005119 0 -0.001189906058418941 -1.475272626648072e-05 0 -0.0017294858890544386 0.00030910547716292593 0 -0.001844909999014546 0.00020771945639005119 0 -0.001189906058418941 -1.475272626648072e-05 0 -0.0013780544725552301 -0.00017123518254885792 0 -0.00060372104050904251 -8.0850774371512714e-05 0 -0.001189906058418941 -1.475272626648072e-05 0 -0.00075531499997627614 -0.00027851978311860563 0 -0.001189906058418941 -1.475272626648072e-05 0 -0.00075531499997627614 -0.00027851978311860563 0 -0.0013780544725552301 -0.00017123518254885792 0 -0.00075531499997627614 -0.00027851978311860563 0 -0.0013780544725552301 -0.00017123518254885792 0 -0.00080714005639374842 -0.00063337786078269921 0 -0.0013780544725552301 -0.00017123518254885792 0 -0.00080714005639374842 -0.00063337786078269921 0 -0.0012243488640709128 -0.00072433986968243995 0 -0.0024158711184881607 0.00042992755914209203 0 -0.0022279379767205227 0.00034121108370895292 0 -0.0017510281363880096 -0.00017098224005568187 0 -0.0022279379767205227 0.00034121108370895292 0 -0.0013780544725552301 -0.00017123518254885792 0 -0.0017510281363880096 -0.00017098224005568187 0 -0.0013780544725552301 -0.00017123518254885792 0 -0.0017510281363880096 -0.00017098224005568187 0 -0.0012243488640709128 -0.00072433986968243995 0 -0.0017510281363880096 -0.00017098224005568187 0 -0.0012243488640709128 -0.00072433986968243995 0 -0.0015524736838772658 -0.0011195642510029625 0 -0.0020252786809144031 -0.00027567969944712227 0 -0.0017510281363880096 -0.00017098224005568187 0 -0.0015524736838772658 -0.0011195642510029625 0 -0.0012243488640709128 -0.00072433986968243995 0 -0.0011650290049433217 -0.0012333054815981486 0 -0.0015524736838772658 -0.0011195642510029625 0 -0.0011650290049433217 -0.0012333054815981486 0 -0.0015524736838772658 -0.0011195642510029625 0 -0.00129738472481185 -0.0018156716803733822 0 -0.00043951605993540173 -0.00097673718922761631 0 -0.00080714005639374842 -0.00063337786078269921 0 -0.00083534617615146532 -0.001114241863420145 0 -0.00080714005639374842 -0.00063337786078269921 0 -0.0012243488640709128 -0.00072433986968243995 0 -0.00083534617615146532 -0.001114241863420145 0 -0.0012243488640709128 -0.00072433986968243995 0 -0.0011650290049433217 -0.0012333054815981486 0 -0.00083534617615146532 -0.001114241863420145 0 -0.0011650290049433217 -0.0012333054815981486 0 -0.00083534617615146532 -0.001114241863420145 0 -0.00095708628760994671 -0.0017541116995266946 0 -0.00043951605993540173 -0.00097673718922761631 0 -0.00083534617615146532 -0.001114241863420145 0 -0.00060660112964259463 -0.001615804568401517 0 -0.00083534617615146532 -0.001114241863420145 0 -0.00060660112964259463 -0.001615804568401517 0 -0.00095708628760994671 -0.0017541116995266946 0 -0.00060660112964259463 -0.001615804568401517 0 -0.00095708628760994671 -0.0017541116995266946 0 -0.00080237888210361625 -0.002498106373340836 0 -0.00060660112964259463 -0.001615804568401517 0 -0.00049935480677661928 -0.0020851304787141171 0 -0.00080237888210361625 -0.002498106373340836 0 -0.00032380435550976899 -0.0015442602253850244 0 -0.00060660112964259463 -0.001615804568401517 0 -0.00049935480677661928 -0.0020851304787141171 0 -0.0015524736838772658 -0.0011195642510029625 0 -0.00129738472481185 -0.0018156716803733822 0 -0.0016131689969048966 -0.002269792786109664 0 -0.0011650290049433217 -0.0012333054815981486 0 -0.00129738472481185 -0.0018156716803733822 0 -0.00095708628760994671 -0.0017541116995266946 0 -0.00129738472481185 -0.0018156716803733822 0 -0.00095708628760994671 -0.0017541116995266946 0 -0.0011837651573056538 -0.0024833645718794098 0 -0.00095708628760994671 -0.0017541116995266946 0 -0.0011837651573056538 -0.0024833645718794098 0 -0.00080237888210361625 -0.002498106373340836 0 -0.00129738472481185 -0.0018156716803733822 0 -0.0011837651573056538 -0.0024833645718794098 0 -0.0016131689969048966 -0.002269792786109664 0 -0.0011837651573056538 -0.0024833645718794098 0 -0.0016131689969048966 -0.002269792786109664 0 -0.0014775437340770671 -0.0035576096632686013 0 -0.0016131689969048966 -0.002269792786109664 0 -0.0021895786147614229 -0.0021247539668220704 0 -0.0019729823276295856 -0.0034068121313808918 0 -0.0021895786147614229 -0.0021247539668220704 0 -0.0025979439456569179 -0.0031783204442820475 0 -0.0019729823276295856 -0.0034068121313808918 0 -0.0016131689969048966 -0.002269792786109664 0 -0.0021895786147614229 -0.0021247539668220704 0 -0.0019207125344762341 -0.0014315402274031335 0 -0.0015524736838772658 -0.0011195642510029625 0 -0.0016131689969048966 -0.002269792786109664 0 -0.0019207125344762341 -0.0014315402274031335 0 -0.0015524736838772658 -0.0011195642510029625 0 -0.0019207125344762341 -0.0014315402274031335 0 -0.0020369006024332755 -0.00069422431917167543 0 -0.0019207125344762341 -0.0014315402274031335 0 -0.0020369006024332755 -0.00069422431917167543 0 -0.0023766803992949508 -0.00077562652919306195 0 -0.0021895786147614229 -0.0021247539668220704 0 -0.0019207125344762341 -0.0014315402274031335 0 -0.0023766803992949508 -0.00077562652919306195 0 -0.002394102531386829 7.9590452818515975e-05 0 -0.0020369006024332755 -0.00069422431917167543 0 -0.0023766803992949508 -0.00077562652919306195 0 -0.0020252786809144031 -0.00027567969944712227 0 -0.002394102531386829 7.9590452818515975e-05 0 -0.0020369006024332755 -0.00069422431917167543 0 -0.0020252786809144031 -0.00027567969944712227 0 -0.0015524736838772658 -0.0011195642510029625 0 -0.0020369006024332755 -0.00069422431917167543 0 -0.0027864530676235209 0.00048081140407763354 0 -0.0028209426479567971 -0.00044462219786617319 0 -0.0031290064070504742 0.00063291710134503792 0 -0.0027864530676235209 0.00048081140407763354 0 -0.0028209426479567971 -0.00044462219786617319 0 -0.0023766803992949508 -0.00077562652919306195 0 -0.002394102531386829 7.9590452818515975e-05 0 -0.0027864530676235209 0.00048081140407763354 0 -0.0023766803992949508 -0.00077562652919306195 0 -0.0021895786147614229 -0.0021247539668220704 0 -0.0023766803992949508 -0.00077562652919306195 0 -0.0026948974485765257 -0.001635392786305135 0 -0.0028209426479567971 -0.00044462219786617319 0 -0.0026948974485765257 -0.001635392786305135 0 -0.0033452334551247668 -0.00094889501636413569 0 -0.0028209426479567971 -0.00044462219786617319 0 -0.0023766803992949508 -0.00077562652919306195 0 -0.0026948974485765257 -0.001635392786305135 0 -0.0026948974485765257 -0.001635392786305135 0 -0.0025979439456569179 -0.0031783204442820475 0 -0.0032696388357182828 -0.0026812632551777506 0 -0.0021895786147614229 -0.0021247539668220704 0 -0.0026948974485765257 -0.001635392786305135 0 -0.0025979439456569179 -0.0031783204442820475 0 -0.0025979439456569179 -0.0031783204442820475 0 -0.0032639815137796174 -0.0041332121630690026 0 -0.0032696388357182828 -0.0026812632551777506 0 -0.0032639815137796174 -0.0041332121630690026 0 -0.0031804164849087726 -0.005470821623351883 0 -0.0025217734871089232 -0.0042394126307769477 0 -0.0031804164849087726 -0.005470821623351883 0 -0.0025217734871089232 -0.0042394126307769477 0 -0.0022784670961979604 -0.0049024547625674698 0 -0.0025979439456569179 -0.0031783204442820475 0 -0.0025217734871089232 -0.0042394126307769477 0 -0.0019729823276295856 -0.0034068121313808918 0 -0.0025979439456569179 -0.0031783204442820475 0 -0.0032639815137796174 -0.0041332121630690026 0 -0.0025217734871089232 -0.0042394126307769477 0 -0.0016131689969048966 -0.002269792786109664 0 -0.0019729823276295856 -0.0034068121313808918 0 -0.0014775437340770671 -0.0035576096632686013 0 -0.0022784670961979604 -0.0049024547625674698 0 -0.0018749917302658971 -0.005115991767060379 0 -0.0014775437340770671 -0.0035576096632686013 0 -0.0019729823276295856 -0.0034068121313808918 0 -0.0022784670961979604 -0.0049024547625674698 0 -0.0014775437340770671 -0.0035576096632686013 0 -0.0025217734871089232 -0.0042394126307769477 0 -0.0019729823276295856 -0.0034068121313808918 0 -0.0022784670961979604 -0.0049024547625674698 0 -0.0022784670961979604 -0.0049024547625674698 0 -0.0025585071185331688 -0.0064332913478248347 0 -0.00305374523306641 -0.0064261934127176302 0 -0.0022784670961979604 -0.0049024547625674698 0 -0.0018749917302658971 -0.005115991767060379 0 -0.0025585071185331688 -0.0064332913478248347 0 -0.0018749917302658971 -0.005115991767060379 0 -0.0025585071185331688 -0.0064332913478248347 0 -0.0021525484468006141 -0.0064267503197482151 0 -0.0025585071185331688 -0.0064332913478248347 0 -0.00305374523306641 -0.0064261934127176302 0 -0.003417993673233144 -0.0078602927689240456 0 -0.00305374523306641 -0.0064261934127176302 0 -0.003417993673233144 -0.0078602927689240456 0 -0.004375296144026433 -0.008532421049233534 0 -0.00305374523306641 -0.0064261934127176302 0 -0.004375296144026433 -0.008532421049233534 0 -0.0040373851041836792 -0.0069537597626197437 0 -0.0031804164849087726 -0.005470821623351883 0 -0.00305374523306641 -0.0064261934127176302 0 -0.0040373851041836792 -0.0069537597626197437 0 -0.0031804164849087726 -0.005470821623351883 0 -0.0022784670961979604 -0.0049024547625674698 0 -0.00305374523306641 -0.0064261934127176302 0 -0.00049935480677661928 -0.0020851304787141171 0 -0.00059810264112666151 -0.0027690016265350271 0 -0.00080237888210361625 -0.002498106373340836 0 -0.00059810264112666151 -0.0027690016265350271 0 -0.00080237888210361625 -0.002498106373340836 0 -0.00098896247767346558 -0.0034909132019984405 0 -0.00059810264112666151 -0.0027690016265350271 0 -0.00098896247767346558 -0.0034909132019984405 0 -0.00078956321078705336 -0.00356245809132012 0 -0.00098896247767346558 -0.0034909132019984405 0 -0.0011201270826428828 -0.0031178845497521939 0 -0.001381185609235817 -0.0041933609097795999 0 -0.00080237888210361625 -0.002498106373340836 0 -0.00098896247767346558 -0.0034909132019984405 0 -0.0011201270826428828 -0.0031178845497521939 0 -0.0011837651573056538 -0.0024833645718794098 0 -0.00080237888210361625 -0.002498106373340836 0 -0.0011201270826428828 -0.0031178845497521939 0 -0.0011837651573056538 -0.0024833645718794098 0 -0.0011201270826428828 -0.0031178845497521939 0 -0.0014775437340770671 -0.0035576096632686013 0 -0.0011201270826428828 -0.0031178845497521939 0 -0.0014775437340770671 -0.0035576096632686013 0 -0.001381185609235817 -0.0041933609097795999 0 -0.0018749917302658971 -0.005115991767060379 0 -0.0014775437340770671 -0.0035576096632686013 0 -0.001381185609235817 -0.0041933609097795999 0 -0.0018749917302658971 -0.005115991767060379 0 -0.001381185609235817 -0.0041933609097795999 0 -0.0013400203670013884 -0.0048051823074686919 0 -0.0018749917302658971 -0.005115991767060379 0 -0.0013400203670013884 -0.0048051823074686919 0 -0.0021525484468006141 -0.0064267503197482151 0 -0.00098896247767346558 -0.0034909132019984405 0 -0.001381185609235817 -0.0041933609097795999 0 -0.0013400203670013884 -0.0048051823074686919 0 -0.00098896247767346558 -0.0034909132019984405 0 -0.0013400203670013884 -0.0048051823074686919 0 -0.00078956321078705336 -0.00356245809132012 0 -0.0013400203670013884 -0.0048051823074686919 0 -0.00078956321078705336 -0.00356245809132012 0 -0.00090633226256457472 -0.004105604835722392 0 -0.00064508054565123407 -0.00340551490960892 0 -0.00078956321078705336 -0.00356245809132012 0 -0.00090633226256457472 -0.004105604835722392 0 -0.00045900549970228586 -0.0028194288310496303 0 -0.00059810264112666151 -0.0027690016265350271 0 -0.00078956321078705336 -0.00356245809132012 0 -0.00045900549970228586 -0.0028194288310496303 0 -0.00064508054565123407 -0.00340551490960892 0 -0.00078956321078705336 -0.00356245809132012 0 -0.00087296439429765448 -0.0040497786887542554 0 -0.0013397443372692702 -0.0051991693709997292 0 -0.0013728232975515656 -0.0052056871880928959 0 -0.00087296439429765448 -0.0040497786887542554 0 -0.00064508054565123407 -0.00340551490960892 0 -0.00090633226256457472 -0.004105604835722392 0 -0.00087296439429765448 -0.0040497786887542554 0 -0.00090633226256457472 -0.004105604835722392 0 -0.0013397443372692702 -0.0051991693709997292 0 -0.0013400203670013884 -0.0048051823074686919 0 -0.00090633226256457472 -0.004105604835722392 0 -0.0013397443372692702 -0.0051991693709997292 0 -0.0013397443372692702 -0.0051991693709997292 0 -0.0018691601677112151 -0.006392443589467822 0 -0.0013728232975515656 -0.0052056871880928959 0 -0.0013397443372692702 -0.0051991693709997292 0 -0.0018486511627362468 -0.0062029670454183958 0 -0.0018691601677112151 -0.006392443589467822 0 -0.0013400203670013884 -0.0048051823074686919 0 -0.0013397443372692702 -0.0051991693709997292 0 -0.0018486511627362468 -0.0062029670454183958 0 -0.0013400203670013884 -0.0048051823074686919 0 -0.0018486511627362468 -0.0062029670454183958 0 -0.0021525484468006141 -0.0064267503197482151 0 -0.0018486511627362468 -0.0062029670454183958 0 -0.0021525484468006141 -0.0064267503197482151 0 -0.002562648788683512 -0.0077374301618133448 0 -0.0018486511627362468 -0.0062029670454183958 0 -0.0018691601677112151 -0.006392443589467822 0 -0.002562648788683512 -0.0077374301618133448 0 -0.0025242472305893535 -0.0076443117993771981 0 -0.0018691601677112151 -0.006392443589467822 0 -0.002562648788683512 -0.0077374301618133448 0 -0.0025242472305893535 -0.0076443117993771981 0 -0.0018691601677112151 -0.006392443589467822 0 -0.0019708066195512444 -0.0063399296138402722 0 -0.0018691601677112151 -0.006392443589467822 0 -0.0019708066195512444 -0.0063399296138402722 0 -0.0013728232975515656 -0.0052056871880928959 0 -0.0019708066195512444 -0.0063399296138402722 0 -0.0015461654567918849 -0.0051458618445394608 0 -0.0013728232975515656 -0.0052056871880928959 0 -0.0010797534158666746 -0.0042609413822885592 0 -0.0015461654567918849 -0.0051458618445394608 0 -0.0013728232975515656 -0.0052056871880928959 0 -0.0043810897197099274 -0.0098828682258861409 0 -0.003417993673233144 -0.0078602927689240456 0 -0.0031127796159772189 -0.008237571028063875 0 -0.0043810897197099274 -0.0098828682258861409 0 -0.003417993673233144 -0.0078602927689240456 0 -0.004375296144026433 -0.008532421049233534 0 -0.0025585071185331688 -0.0064332913478248347 0 -0.003417993673233144 -0.0078602927689240456 0 -0.0031127796159772189 -0.008237571028063875 0 -0.0025585071185331688 -0.0064332913478248347 0 -0.0021525484468006141 -0.0064267503197482151 0 -0.0031127796159772189 -0.008237571028063875 0 -0.0021525484468006141 -0.0064267503197482151 0 -0.0031127796159772189 -0.008237571028063875 0 -0.002562648788683512 -0.0077374301618133448 0 -0.0031127796159772189 -0.008237571028063875 0 -0.0033664612770684605 -0.0091293526309474422 0 -0.002562648788683512 -0.0077374301618133448 0 -0.0025242472305893535 -0.0076443117993771981 0 -0.002562648788683512 -0.0077374301618133448 0 -0.0032546184067383408 -0.009045861161711426 0 -0.0033664612770684605 -0.0091293526309474422 0 -0.002562648788683512 -0.0077374301618133448 0 -0.0032546184067383408 -0.009045861161711426 0 -0.0033664612770684605 -0.0091293526309474422 0 -0.0032546184067383408 -0.009045861161711426 0 -0.0041723602960630109 -0.010605252670749288 0 -0.0033664612770684605 -0.0091293526309474422 0 -0.0041723602960630109 -0.010605252670749288 0 -0.0040978142106979044 -0.010172350602597096 0 -0.0043810897197099274 -0.0098828682258861409 0 -0.0040978142106979044 -0.010172350602597096 0 -0.0053867263282212962 -0.012302227439194475 0 -0.0043810897197099274 -0.0098828682258861409 0 -0.0031127796159772189 -0.008237571028063875 0 -0.0040978142106979044 -0.010172350602597096 0 -0.0031127796159772189 -0.008237571028063875 0 -0.0033664612770684605 -0.0091293526309474422 0 -0.0040978142106979044 -0.010172350602597096 0 -0.0041723602960630109 -0.010605252670749288 0 -0.0040978142106979044 -0.010172350602597096 0 -0.0053867263282212962 -0.012302227439194475 0 -0.0043810897197099274 -0.0098828682258861409 0 -0.0053867263282212962 -0.012302227439194475 0 -0.0059523356895065131 -0.011996298198519606 0 -0.0053867263282212962 -0.012302227439194475 0 -0.0069635778745821154 -0.014061991737769928 0 -0.0059523356895065131 -0.011996298198519606 0 -0.0069635778745821154 -0.014061991737769928 0 -0.0059523356895065131 -0.011996298198519606 0 -0.007446530178196722 -0.013577059583844734 0 -0.0059523356895065131 -0.011996298198519606 0 -0.0068102308628871068 -0.011707070810746891 0 -0.007446530178196722 -0.013577059583844734 0 -0.0043810897197099274 -0.0098828682258861409 0 -0.0059523356895065131 -0.011996298198519606 0 -0.0055180666501753635 -0.010459568032664427 0 -0.0043810897197099274 -0.0098828682258861409 0 -0.0055180666501753635 -0.010459568032664427 0 -0.004375296144026433 -0.008532421049233534 0 -0.0059523356895065131 -0.011996298198519606 0 -0.0055180666501753635 -0.010459568032664427 0 -0.0068102308628871068 -0.011707070810746891 0 -0.0055180666501753635 -0.010459568032664427 0 -0.0063507252453156512 -0.010135718982059998 0 -0.0068102308628871068 -0.011707070810746891 0 -0.0055180666501753635 -0.010459568032664427 0 -0.004375296144026433 -0.008532421049233534 0 -0.0063507252453156512 -0.010135718982059998 0 -0.0081392279081598726 -0.011668075847575845 0 -0.0063507252453156512 -0.010135718982059998 0 -0.0068102308628871068 -0.011707070810746891 0 -0.0081392279081598726 -0.011668075847575845 0 -0.0089250036095330429 -0.014121677072185408 0 -0.010193660458661463 -0.013411702402860486 0 -0.0081392279081598726 -0.011668075847575845 0 -0.0068102308628871068 -0.011707070810746891 0 -0.0089250036095330429 -0.014121677072185408 0 -0.0068102308628871068 -0.011707070810746891 0 -0.0089250036095330429 -0.014121677072185408 0 -0.007446530178196722 -0.013577059583844734 0 -0.0069635778745821154 -0.014061991737769928 0 -0.007446530178196722 -0.013577059583844734 0 -0.0089316329676128632 -0.015946837862601419 0 -0.0089250036095330429 -0.014121677072185408 0 -0.0089316329676128632 -0.015946837862601419 0 -0.011325406533761719 -0.017757595484766225 0 -0.0089250036095330429 -0.014121677072185408 0 -0.007446530178196722 -0.013577059583844734 0 -0.0089316329676128632 -0.015946837862601419 0 -0.011325406533761719 -0.017757595484766225 0 -0.011961021033195574 -0.016044419528801313 0 -0.014153675126260838 -0.019516703389153001 0 -0.0089250036095330429 -0.014121677072185408 0 -0.011961021033195574 -0.016044419528801313 0 -0.010193660458661463 -0.013411702402860486 0 -0.0089250036095330429 -0.014121677072185408 0 -0.011325406533761719 -0.017757595484766225 0 -0.011961021033195574 -0.016044419528801313 0 -0.014153675126260838 -0.019516703389153001 0 -0.015199227446082552 -0.017376822340453842 0 -0.017352785517989997 -0.021088104550047858 0 -0.011961021033195574 -0.016044419528801313 0 -0.014153675126260838 -0.019516703389153001 0 -0.015199227446082552 -0.017376822340453842 0 -0.015199227446082552 -0.017376822340453842 0 -0.017352785517989997 -0.021088104550047858 0 -0.018542835755409947 -0.018932934253792711 0 -0.015199227446082552 -0.017376822340453842 0 -0.012672169387419472 -0.013826267202010424 0 -0.01695683178708518 -0.015901401178481815 0 -0.012672169387419472 -0.013826267202010424 0 -0.014810853924549474 -0.013716660733764343 0 -0.01695683178708518 -0.015901401178481815 0 -0.011961021033195574 -0.016044419528801313 0 -0.015199227446082552 -0.017376822340453842 0 -0.012672169387419472 -0.013826267202010424 0 -0.014810853924549474 -0.013716660733764343 0 -0.01695683178708518 -0.015901401178481815 0 -0.016423869165405097 -0.01315674723796627 0 -0.011961021033195574 -0.016044419528801313 0 -0.012672169387419472 -0.013826267202010424 0 -0.010193660458661463 -0.013411702402860486 0 -0.012672169387419472 -0.013826267202010424 0 -0.010193660458661463 -0.013411702402860486 0 -0.0096400365114047461 -0.011569535854173965 0 -0.0081392279081598726 -0.011668075847575845 0 -0.010193660458661463 -0.013411702402860486 0 -0.0096400365114047461 -0.011569535854173965 0 -0.012672169387419472 -0.013826267202010424 0 -0.0096400365114047461 -0.011569535854173965 0 -0.010307015547948987 -0.0101772182849249 0 -0.0096400365114047461 -0.011569535854173965 0 -0.010307015547948987 -0.0101772182849249 0 -0.0074525702160774462 -0.0092529525601688315 0 -0.010307015547948987 -0.0101772182849249 0 -0.0076590891685299018 -0.0076989085961584368 0 -0.0074525702160774462 -0.0092529525601688315 0 -0.012672169387419472 -0.013826267202010424 0 -0.010307015547948987 -0.0101772182849249 0 -0.013259795890835514 -0.011746688891726115 0 -0.014810853924549474 -0.013716660733764343 0 -0.013259795890835514 -0.011746688891726115 0 -0.016423869165405097 -0.01315674723796627 0 -0.012672169387419472 -0.013826267202010424 0 -0.014810853924549474 -0.013716660733764343 0 -0.013259795890835514 -0.011746688891726115 0 -0.010307015547948987 -0.0101772182849249 0 -0.013259795890835514 -0.011746688891726115 0 -0.012648028157948191 -0.009891792025599493 0 -0.013259795890835514 -0.011746688891726115 0 -0.016423869165405097 -0.01315674723796627 0 -0.016219789681951906 -0.011307875041451068 0 -0.013259795890835514 -0.011746688891726115 0 -0.012648028157948191 -0.009891792025599493 0 -0.016219789681951906 -0.011307875041451068 0 -0.012648028157948191 -0.009891792025599493 0 -0.013162897093204444 -0.0085618473328661626 0 -0.016219789681951906 -0.011307875041451068 0 -0.012648028157948191 -0.009891792025599493 0 -0.013162897093204444 -0.0085618473328661626 0 -0.0098692799739873004 -0.007560444418397076 0 -0.013162897093204444 -0.0085618473328661626 0 -0.0098692799739873004 -0.007560444418397076 0 -0.011009958254779101 -0.0061351045871782953 0 -0.013162897093204444 -0.0085618473328661626 0 -0.017247820839549437 -0.0095355514144080319 0 -0.013989306349860451 -0.0072723778657652078 0 -0.013162897093204444 -0.0085618473328661626 0 -0.013989306349860451 -0.0072723778657652078 0 -0.011009958254779101 -0.0061351045871782953 0 -0.010307015547948987 -0.0101772182849249 0 -0.0098692799739873004 -0.007560444418397076 0 -0.0076590891685299018 -0.0076989085961584368 0 -0.010307015547948987 -0.0101772182849249 0 -0.012648028157948191 -0.009891792025599493 0 -0.0098692799739873004 -0.007560444418397076 0 -0.0098692799739873004 -0.007560444418397076 0 -0.0073951757174454246 -0.0056862474496058137 0 -0.0076590891685299018 -0.0076989085961584368 0 -0.0098692799739873004 -0.007560444418397076 0 -0.0073951757174454246 -0.0056862474496058137 0 -0.0078425774145530047 -0.0045157547160607414 0 -0.0073951757174454246 -0.0056862474496058137 0 -0.0076590891685299018 -0.0076989085961584368 0 -0.0057694035447151907 -0.0058394333125912305 0 -0.0073951757174454246 -0.0056862474496058137 0 -0.0057694035447151907 -0.0058394333125912305 0 -0.005714617616707377 -0.0042560618754939137 0 -0.0076590891685299018 -0.0076989085961584368 0 -0.0057694035447151907 -0.0058394333125912305 0 -0.0060282282548121931 -0.0075306284179076314 0 -0.0057694035447151907 -0.0058394333125912305 0 -0.0044188405002954434 -0.0060781234585748677 0 -0.0060282282548121931 -0.0075306284179076314 0 -0.0057694035447151907 -0.0058394333125912305 0 -0.0043542003923969317 -0.0042499510090827112 0 -0.005714617616707377 -0.0042560618754939137 0 -0.0057694035447151907 -0.0058394333125912305 0 -0.0044188405002954434 -0.0060781234585748677 0 -0.0043542003923969317 -0.0042499510090827112 0 -0.0032639815137796174 -0.0041332121630690026 0 -0.0044188405002954434 -0.0060781234585748677 0 -0.0043542003923969317 -0.0042499510090827112 0 -0.0031804164849087726 -0.005470821623351883 0 -0.0044188405002954434 -0.0060781234585748677 0 -0.0040373851041836792 -0.0069537597626197437 0 -0.0032639815137796174 -0.0041332121630690026 0 -0.0031804164849087726 -0.005470821623351883 0 -0.0044188405002954434 -0.0060781234585748677 0 -0.0044188405002954434 -0.0060781234585748677 0 -0.0054421640745494822 -0.0084169251445861282 0 -0.0060282282548121931 -0.0075306284179076314 0 -0.0044188405002954434 -0.0060781234585748677 0 -0.0040373851041836792 -0.0069537597626197437 0 -0.0054421640745494822 -0.0084169251445861282 0 -0.004375296144026433 -0.008532421049233534 0 -0.0040373851041836792 -0.0069537597626197437 0 -0.0054421640745494822 -0.0084169251445861282 0 -0.004375296144026433 -0.008532421049233534 0 -0.0063507252453156512 -0.010135718982059998 0 -0.0054421640745494822 -0.0084169251445861282 0 -0.0063507252453156512 -0.010135718982059998 0 -0.0054421640745494822 -0.0084169251445861282 0 -0.0074525702160774462 -0.0092529525601688315 0 -0.0081392279081598726 -0.011668075847575845 0 -0.0063507252453156512 -0.010135718982059998 0 -0.0074525702160774462 -0.0092529525601688315 0 -0.0081392279081598726 -0.011668075847575845 0 -0.0096400365114047461 -0.011569535854173965 0 -0.0074525702160774462 -0.0092529525601688315 0 -0.0076590891685299018 -0.0076989085961584368 0 -0.0074525702160774462 -0.0092529525601688315 0 -0.0060282282548121931 -0.0075306284179076314 0 -0.0054421640745494822 -0.0084169251445861282 0 -0.0074525702160774462 -0.0092529525601688315 0 -0.0060282282548121931 -0.0075306284179076314 0 -0.034711252405508965 -0.018881934426693298 0 -0.031809269114852268 -0.018352695568977496 0 -0.034875510366405432 -0.015976929386063772 0 -0.031809269114852268 -0.018352695568977496 0 -0.031598534867134674 -0.021320997703586201 0 -0.028589395401853752 -0.019007177816684616 0 -0.034711252405508965 -0.018881934426693298 0 -0.034789678908754687 -0.021984152979053716 0 -0.031598534867134674 -0.021320997703586201 0 -0.034711252405508965 -0.018881934426693298 0 -0.031809269114852268 -0.018352695568977496 0 -0.031598534867134674 -0.021320997703586201 0 -0.034789678908754687 -0.021984152979053716 0 -0.033240704134168582 -0.023339223711238071 0 -0.031598534867134674 -0.021320997703586201 0 -0.034789678908754687 -0.021984152979053716 0 -0.034941514710505758 -0.025263898647525047 0 -0.033240704134168582 -0.023339223711238071 0 -0.034941514710505758 -0.025263898647525047 0 -0.033240704134168582 -0.023339223711238071 0 -0.031629644509511862 -0.024790639651355074 0 -0.033240704134168582 -0.023339223711238071 0 -0.031629644509511862 -0.024790639651355074 0 -0.031598534867134674 -0.021320997703586201 0 -0.031629644509511862 -0.024790639651355074 0 -0.031598534867134674 -0.021320997703586201 0 -0.027858283695697351 -0.021263985865589353 0 -0.031598534867134674 -0.021320997703586201 0 -0.027858283695697351 -0.021263985865589353 0 -0.028589395401853752 -0.019007177816684616 0 -0.031629644509511862 -0.024790639651355074 0 -0.028136329986398752 -0.024215332965719535 0 -0.027858283695697351 -0.021263985865589353 0 -0.028136329986398752 -0.024215332965719535 0 -0.027858283695697351 -0.021263985865589353 0 -0.024496122725118034 -0.023449248464090001 0 -0.027858283695697351 -0.021263985865589353 0 -0.028589395401853752 -0.019007177816684616 0 -0.024526836808248444 -0.019264720107495019 0 -0.028589395401853752 -0.019007177816684616 0 -0.025607364060286197 -0.017232826648280786 0 -0.024526836808248444 -0.019264720107495019 0 -0.031809269114852268 -0.018352695568977496 0 -0.028589395401853752 -0.019007177816684616 0 -0.028147991499618514 -0.01663915281760818 0 -0.031809269114852268 -0.018352695568977496 0 -0.028147991499618514 -0.01663915281760818 0 -0.03070668943770398 -0.015737225738065394 0 -0.028147991499618514 -0.01663915281760818 0 -0.025607364060286197 -0.017232826648280786 0 -0.024215612644593851 -0.014899498584464183 0 -0.028589395401853752 -0.019007177816684616 0 -0.028147991499618514 -0.01663915281760818 0 -0.025607364060286197 -0.017232826648280786 0 -0.025607364060286197 -0.017232826648280786 0 -0.022824366941997912 -0.016579047614885795 0 -0.024215612644593851 -0.014899498584464183 0 -0.022824366941997912 -0.016579047614885795 0 -0.024526836808248444 -0.019264720107495019 0 -0.020238491940613758 -0.017244174197608035 0 -0.025607364060286197 -0.017232826648280786 0 -0.022824366941997912 -0.016579047614885795 0 -0.024526836808248444 -0.019264720107495019 0 -0.024526836808248444 -0.019264720107495019 0 -0.024496122725118034 -0.023449248464090001 0 -0.02170071012458679 -0.02023055707952235 0 -0.027858283695697351 -0.021263985865589353 0 -0.024526836808248444 -0.019264720107495019 0 -0.024496122725118034 -0.023449248464090001 0 -0.024496122725118034 -0.023449248464090001 0 -0.02170071012458679 -0.02023055707952235 0 -0.020836965391400158 -0.022428355384678633 0 -0.024526836808248444 -0.019264720107495019 0 -0.02170071012458679 -0.02023055707952235 0 -0.020238491940613758 -0.017244174197608035 0 -0.02170071012458679 -0.02023055707952235 0 -0.018542835755409947 -0.018932934253792711 0 -0.020238491940613758 -0.017244174197608035 0 -0.02170071012458679 -0.02023055707952235 0 -0.020836965391400158 -0.022428355384678633 0 -0.018542835755409947 -0.018932934253792711 0 -0.020836965391400158 -0.022428355384678633 0 -0.017352785517989997 -0.021088104550047858 0 -0.018542835755409947 -0.018932934253792711 0 -0.015199227446082552 -0.017376822340453842 0 -0.018542835755409947 -0.018932934253792711 0 -0.01695683178708518 -0.015901401178481815 0 -0.018542835755409947 -0.018932934253792711 0 -0.01695683178708518 -0.015901401178481815 0 -0.020238491940613758 -0.017244174197608035 0 -0.022824366941997912 -0.016579047614885795 0 -0.020238491940613758 -0.017244174197608035 0 -0.019554035374728197 -0.014246404806593806 0 -0.01695683178708518 -0.015901401178481815 0 -0.020238491940613758 -0.017244174197608035 0 -0.019554035374728197 -0.014246404806593806 0 -0.01695683178708518 -0.015901401178481815 0 -0.016423869165405097 -0.01315674723796627 0 -0.019554035374728197 -0.014246404806593806 0 -0.016423869165405097 -0.01315674723796627 0 -0.019554035374728197 -0.014246404806593806 0 -0.016219789681951906 -0.011307875041451068 0 -0.019554035374728197 -0.014246404806593806 0 -0.016219789681951906 -0.011307875041451068 0 -0.021010187883976687 -0.01263904869075775 0 -0.013162897093204444 -0.0085618473328661626 0 -0.016219789681951906 -0.011307875041451068 0 -0.017247820839549437 -0.0095355514144080319 0 -0.017247820839549437 -0.0095355514144080319 0 -0.020879625306907772 -0.010558463916281803 0 -0.02002919099806157 -0.008254421101096943 0 -0.017247820839549437 -0.0095355514144080319 0 -0.020879625306907772 -0.010558463916281803 0 -0.021010187883976687 -0.01263904869075775 0 -0.016219789681951906 -0.011307875041451068 0 -0.017247820839549437 -0.0095355514144080319 0 -0.021010187883976687 -0.01263904869075775 0 -0.020879625306907772 -0.010558463916281803 0 -0.025138341687455965 -0.012334225189759298 0 -0.021010187883976687 -0.01263904869075775 0 -0.020879625306907772 -0.010558463916281803 0 -0.024126934985531787 -0.0099323806456667069 0 -0.02002919099806157 -0.008254421101096943 0 -0.020879625306907772 -0.010558463916281803 0 -0.024126934985531787 -0.0099323806456667069 0 -0.025138341687455965 -0.012334225189759298 0 -0.025138341687455965 -0.012334225189759298 0 -0.021010187883976687 -0.01263904869075775 0 -0.024215612644593851 -0.014899498584464183 0 -0.025138341687455965 -0.012334225189759298 0 -0.024215612644593851 -0.014899498584464183 0 -0.027555047977614721 -0.014508224830982167 0 -0.019554035374728197 -0.014246404806593806 0 -0.021010187883976687 -0.01263904869075775 0 -0.024215612644593851 -0.014899498584464183 0 -0.022824366941997912 -0.016579047614885795 0 -0.019554035374728197 -0.014246404806593806 0 -0.024215612644593851 -0.014899498584464183 0 -0.028147991499618514 -0.01663915281760818 0 -0.024215612644593851 -0.014899498584464183 0 -0.027555047977614721 -0.014508224830982167 0 -0.028147991499618514 -0.01663915281760818 0 -0.027555047977614721 -0.014508224830982167 0 -0.03070668943770398 -0.015737225738065394 0 -0.027555047977614721 -0.014508224830982167 0 -0.029375139972313242 -0.012716774022837284 0 -0.03070668943770398 -0.015737225738065394 0 -0.025138341687455965 -0.012334225189759298 0 -0.027555047977614721 -0.014508224830982167 0 -0.029375139972313242 -0.012716774022837284 0 -0.025138341687455965 -0.012334225189759298 0 -0.028791092985228469 -0.010166318714035642 0 -0.029375139972313242 -0.012716774022837284 0 -0.024126934985531787 -0.0099323806456667069 0 -0.025138341687455965 -0.012334225189759298 0 -0.028791092985228469 -0.010166318714035642 0 -0.028791092985228469 -0.010166318714035642 0 -0.029375139972313242 -0.012716774022837284 0 -0.032740234410526543 -0.011363225894855711 0 -0.029375139972313242 -0.012716774022837284 0 -0.032740234410526543 -0.011363225894855711 0 -0.032677978792834177 -0.013810804054915629 0 -0.028791092985228469 -0.010166318714035642 0 -0.032740234410526543 -0.011363225894855711 0 -0.03307568991592888 -0.0085546810978843393 0 -0.032740234410526543 -0.011363225894855711 0 -0.035347859237099273 -0.013151945996706363 0 -0.036304407895024988 -0.010216652773559856 0 -0.032740234410526543 -0.011363225894855711 0 -0.035347859237099273 -0.013151945996706363 0 -0.032677978792834177 -0.013810804054915629 0 -0.035347859237099273 -0.013151945996706363 0 -0.032677978792834177 -0.013810804054915629 0 -0.034875510366405432 -0.015976929386063772 0 -0.029375139972313242 -0.012716774022837284 0 -0.032677978792834177 -0.013810804054915629 0 -0.03070668943770398 -0.015737225738065394 0 -0.032677978792834177 -0.013810804054915629 0 -0.03070668943770398 -0.015737225738065394 0 -0.034875510366405432 -0.015976929386063772 0 -0.031809269114852268 -0.018352695568977496 0 -0.03070668943770398 -0.015737225738065394 0 -0.034875510366405432 -0.015976929386063772 0 -0.039822064106280537 -0.0030003197145605153 0 -0.036864531539893573 -0.0022248053924754552 0 -0.034698959539142336 -0.005194183772982747 0 -0.039822064106280537 -0.0030003197145605153 0 -0.036864531539893573 -0.0022248053924754552 0 -0.04255161585210452 0.0016957025938387905 0 -0.036864531539893573 -0.0022248053924754552 0 -0.034698959539142336 -0.005194183772982747 0 -0.031605563344194933 -0.0027453713251574326 0 -0.036864531539893573 -0.0022248053924754552 0 -0.031605563344194933 -0.0027453713251574326 0 -0.035716763971067843 0.00096915916291742666 0 -0.039822064106280537 -0.0030003197145605153 0 -0.034698959539142336 -0.005194183772982747 0 -0.0377637037663279 -0.0069205191904816296 0 -0.0377637037663279 -0.0069205191904816296 0 -0.036304407895024988 -0.010216652773559856 0 -0.03307568991592888 -0.0085546810978843393 0 -0.032740234410526543 -0.011363225894855711 0 -0.036304407895024988 -0.010216652773559856 0 -0.03307568991592888 -0.0085546810978843393 0 -0.034698959539142336 -0.005194183772982747 0 -0.0377637037663279 -0.0069205191904816296 0 -0.03307568991592888 -0.0085546810978843393 0 -0.034698959539142336 -0.005194183772982747 0 -0.03307568991592888 -0.0085546810978843393 0 -0.028676071915510921 -0.0063197628831150581 0 -0.028791092985228469 -0.010166318714035642 0 -0.02618240551141978 -0.0083630212343414282 0 -0.028676071915510921 -0.0063197628831150581 0 -0.028791092985228469 -0.010166318714035642 0 -0.03307568991592888 -0.0085546810978843393 0 -0.028676071915510921 -0.0063197628831150581 0 -0.024126934985531787 -0.0099323806456667069 0 -0.028791092985228469 -0.010166318714035642 0 -0.02618240551141978 -0.0083630212343414282 0 -0.028676071915510921 -0.0063197628831150581 0 -0.031605563344194933 -0.0027453713251574326 0 -0.026973530354365633 -0.0025780348836156107 0 -0.034698959539142336 -0.005194183772982747 0 -0.028676071915510921 -0.0063197628831150581 0 -0.031605563344194933 -0.0027453713251574326 0 -0.031605563344194933 -0.0027453713251574326 0 -0.026973530354365633 -0.0025780348836156107 0 -0.029584662451067036 0.00094158752576531423 0 -0.026973530354365633 -0.0025780348836156107 0 -0.022713306216716758 -0.0042500147826480487 0 -0.022225850424799135 0.00053730900087659841 0 -0.022713306216716758 -0.0042500147826480487 0 -0.018645924953534249 -0.0023888769545170733 0 -0.022225850424799135 0.00053730900087659841 0 -0.022713306216716758 -0.0042500147826480487 0 -0.019288424952762888 -0.0055331307713078091 0 -0.018645924953534249 -0.0023888769545170733 0 -0.028676071915510921 -0.0063197628831150581 0 -0.026973530354365633 -0.0025780348836156107 0 -0.022713306216716758 -0.0042500147826480487 0 -0.028676071915510921 -0.0063197628831150581 0 -0.022713306216716758 -0.0042500147826480487 0 -0.023085224582240695 -0.0069328284395292509 0 -0.02618240551141978 -0.0083630212343414282 0 -0.028676071915510921 -0.0063197628831150581 0 -0.023085224582240695 -0.0069328284395292509 0 -0.024126934985531787 -0.0099323806456667069 0 -0.02618240551141978 -0.0083630212343414282 0 -0.023085224582240695 -0.0069328284395292509 0 -0.024126934985531787 -0.0099323806456667069 0 -0.023085224582240695 -0.0069328284395292509 0 -0.02002919099806157 -0.008254421101096943 0 -0.023085224582240695 -0.0069328284395292509 0 -0.02002919099806157 -0.008254421101096943 0 -0.019288424952762888 -0.0055331307713078091 0 -0.022713306216716758 -0.0042500147826480487 0 -0.023085224582240695 -0.0069328284395292509 0 -0.019288424952762888 -0.0055331307713078091 0 -0.02002919099806157 -0.008254421101096943 0 -0.019288424952762888 -0.0055331307713078091 0 -0.016378770749411825 -0.0066787591370518536 0 -0.019288424952762888 -0.0055331307713078091 0 -0.016378770749411825 -0.0066787591370518536 0 -0.015446950228753278 -0.0036619110661150651 0 -0.017247820839549437 -0.0095355514144080319 0 -0.02002919099806157 -0.008254421101096943 0 -0.016378770749411825 -0.0066787591370518536 0 -0.016378770749411825 -0.0066787591370518536 0 -0.013989306349860451 -0.0072723778657652078 0 -0.012957370594928509 -0.0049784878491456516 0 -0.017247820839549437 -0.0095355514144080319 0 -0.016378770749411825 -0.0066787591370518536 0 -0.013989306349860451 -0.0072723778657652078 0 -0.016378770749411825 -0.0066787591370518536 0 -0.015446950228753278 -0.0036619110661150651 0 -0.012957370594928509 -0.0049784878491456516 0 -0.015446950228753278 -0.0036619110661150651 0 -0.012957370594928509 -0.0049784878491456516 0 -0.011225439223772459 -0.0016626810109282219 0 -0.019288424952762888 -0.0055331307713078091 0 -0.015446950228753278 -0.0036619110661150651 0 -0.018645924953534249 -0.0023888769545170733 0 -0.015446950228753278 -0.0036619110661150651 0 -0.018645924953534249 -0.0023888769545170733 0 -0.014914920429300271 -1.4542848957955033e-05 0 -0.015446950228753278 -0.0036619110661150651 0 -0.014914920429300271 -1.4542848957955033e-05 0 -0.011225439223772459 -0.0016626810109282219 0 -0.014914920429300271 -1.4542848957955033e-05 0 -0.012292520832735528 0.0033823988974135844 0 -0.009331348751221798 0.0017033669656166663 0 -0.014914920429300271 -1.4542848957955033e-05 0 -0.011225439223772459 -0.0016626810109282219 0 -0.009331348751221798 0.0017033669656166663 0 -0.014914920429300271 -1.4542848957955033e-05 0 -0.017104250089432928 0.0035149561964160948 0 -0.022225850424799135 0.00053730900087659841 0 -0.018645924953534249 -0.0023888769545170733 0 -0.014914920429300271 -1.4542848957955033e-05 0 -0.022225850424799135 0.00053730900087659841 0 -0.014914920429300271 -1.4542848957955033e-05 0 -0.017104250089432928 0.0035149561964160948 0 -0.012292520832735528 0.0033823988974135844 0 -0.012292520832735528 0.0033823988974135844 0 -0.014026676028476267 0.0078099647758908316 0 -0.0077680933045554982 0.0057366020584931621 0 -0.014026676028476267 0.0078099647758908316 0 -0.0077680933045554982 0.0057366020584931621 0 -0.0088013704009031763 0.013403492342641361 0 -0.014026676028476267 0.0078099647758908316 0 -0.014361474701578579 0.014173895713951792 0 -0.0088013704009031763 0.013403492342641361 0 -0.014026676028476267 0.0078099647758908316 0 -0.020396804427538752 0.014592134416312956 0 -0.014361474701578579 0.014173895713951792 0 -0.017104250089432928 0.0035149561964160948 0 -0.014026676028476267 0.0078099647758908316 0 -0.022721124817284579 0.0073432518868775613 0 -0.017104250089432928 0.0035149561964160948 0 -0.012292520832735528 0.0033823988974135844 0 -0.014026676028476267 0.0078099647758908316 0 -0.014026676028476267 0.0078099647758908316 0 -0.022721124817284579 0.0073432518868775613 0 -0.020396804427538752 0.014592134416312956 0 -0.022721124817284579 0.0073432518868775613 0 -0.028982737855438628 0.0144289577901856 0 -0.020396804427538752 0.014592134416312956 0 -0.022721124817284579 0.0073432518868775613 0 -0.028206638341706183 0.0054820770310490844 0 -0.028982737855438628 0.0144289577901856 0 -0.022721124817284579 0.0073432518868775613 0 -0.022225850424799135 0.00053730900087659841 0 -0.028206638341706183 0.0054820770310490844 0 -0.022225850424799135 0.00053730900087659841 0 -0.029584662451067036 0.00094158752576531423 0 -0.028206638341706183 0.0054820770310490844 0 -0.017104250089432928 0.0035149561964160948 0 -0.022721124817284579 0.0073432518868775613 0 -0.022225850424799135 0.00053730900087659841 0 -0.026973530354365633 -0.0025780348836156107 0 -0.022225850424799135 0.00053730900087659841 0 -0.029584662451067036 0.00094158752576531423 0 -0.031605563344194933 -0.0027453713251574326 0 -0.029584662451067036 0.00094158752576531423 0 -0.035716763971067843 0.00096915916291742666 0 -0.029584662451067036 0.00094158752576531423 0 -0.033885715984526228 0.0053421868889605038 0 -0.035716763971067843 0.00096915916291742666 0 -0.029584662451067036 0.00094158752576531423 0 -0.033885715984526228 0.0053421868889605038 0 -0.028206638341706183 0.0054820770310490844 0 -0.033885715984526228 0.0053421868889605038 0 -0.028206638341706183 0.0054820770310490844 0 -0.034172056890696786 0.010443155802699331 0 -0.028206638341706183 0.0054820770310490844 0 -0.034172056890696786 0.010443155802699331 0 -0.028982737855438628 0.0144289577901856 0 -0.034172056890696786 0.010443155802699331 0 -0.040307180334909432 0.01032102914343375 0 -0.040004360010523828 0.01835172475445114 0 -0.034172056890696786 0.010443155802699331 0 -0.040004360010523828 0.01835172475445114 0 -0.028982737855438628 0.0144289577901856 0 -0.033885715984526228 0.0053421868889605038 0 -0.034172056890696786 0.010443155802699331 0 -0.040307180334909432 0.01032102914343375 0 -0.033885715984526228 0.0053421868889605038 0 -0.040307180334909432 0.01032102914343375 0 -0.039696058821449845 0.0049444683249382894 0 -0.040307180334909432 0.01032102914343375 0 -0.049125959027797754 0.015375548960695921 0 -0.040004360010523828 0.01835172475445114 0 -0.040307180334909432 0.01032102914343375 0 -0.045746032252493636 0.0077919336488011049 0 -0.049125959027797754 0.015375548960695921 0 -0.040307180334909432 0.01032102914343375 0 -0.045746032252493636 0.0077919336488011049 0 -0.039696058821449845 0.0049444683249382894 0 -0.045746032252493636 0.0077919336488011049 0 -0.039696058821449845 0.0049444683249382894 0 -0.04255161585210452 0.0016957025938387905 0 -0.039696058821449845 0.0049444683249382894 0 -0.035716763971067843 0.00096915916291742666 0 -0.04255161585210452 0.0016957025938387905 0 -0.033885715984526228 0.0053421868889605038 0 -0.039696058821449845 0.0049444683249382894 0 -0.035716763971067843 0.00096915916291742666 0 -0.036864531539893573 -0.0022248053924754552 0 -0.035716763971067843 0.00096915916291742666 0 -0.04255161585210452 0.0016957025938387905 0 -0.0042311875459429462 -0.0010980119261725433 0 -0.0054383861284661942 -0.0020873041905980299 0 -0.0044111677875544666 1.3284608356413499e-05 0 -0.0054383861284661942 -0.0020873041905980299 0 -0.0044111677875544666 1.3284608356413499e-05 0 -0.0053925842367942671 -0.00012780404670557053 0 -0.0044111677875544666 1.3284608356413499e-05 0 -0.0053925842367942671 -0.00012780404670557053 0 -0.0042458619517686388 0.0018670012929910935 0 -0.0042311875459429462 -0.0010980119261725433 0 -0.0044111677875544666 1.3284608356413499e-05 0 -0.0036183589373577039 0.00058935457599515451 0 -0.0036183589373577039 0.00058935457599515451 0 -0.0033452334551247668 -0.00094889501636413569 0 -0.0031290064070504742 0.00063291710134503792 0 -0.0042311875459429462 -0.0010980119261725433 0 -0.0036183589373577039 0.00058935457599515451 0 -0.0033452334551247668 -0.00094889501636413569 0 -0.0028209426479567971 -0.00044462219786617319 0 -0.0033452334551247668 -0.00094889501636413569 0 -0.0031290064070504742 0.00063291710134503792 0 -0.0042311875459429462 -0.0010980119261725433 0 -0.0033452334551247668 -0.00094889501636413569 0 -0.0044263230173303778 -0.0027430571046658846 0 -0.0033452334551247668 -0.00094889501636413569 0 -0.0032696388357182828 -0.0026812632551777506 0 -0.0044263230173303778 -0.0027430571046658846 0 -0.0026948974485765257 -0.001635392786305135 0 -0.0033452334551247668 -0.00094889501636413569 0 -0.0032696388357182828 -0.0026812632551777506 0 -0.0032639815137796174 -0.0041332121630690026 0 -0.0032696388357182828 -0.0026812632551777506 0 -0.0043542003923969317 -0.0042499510090827112 0 -0.0032696388357182828 -0.0026812632551777506 0 -0.0043542003923969317 -0.0042499510090827112 0 -0.0044263230173303778 -0.0027430571046658846 0 -0.0043542003923969317 -0.0042499510090827112 0 -0.0044263230173303778 -0.0027430571046658846 0 -0.005714617616707377 -0.0042560618754939137 0 -0.0042311875459429462 -0.0010980119261725433 0 -0.0054383861284661942 -0.0020873041905980299 0 -0.0044263230173303778 -0.0027430571046658846 0 -0.0054383861284661942 -0.0020873041905980299 0 -0.0044263230173303778 -0.0027430571046658846 0 -0.005714617616707377 -0.0042560618754939137 0 -0.0054383861284661942 -0.0020873041905980299 0 -0.005714617616707377 -0.0042560618754939137 0 -0.0078425774145530047 -0.0045157547160607414 0 -0.0073951757174454246 -0.0056862474496058137 0 -0.005714617616707377 -0.0042560618754939137 0 -0.0078425774145530047 -0.0045157547160607414 0 -0.0098692799739873004 -0.007560444418397076 0 -0.0078425774145530047 -0.0045157547160607414 0 -0.011009958254779101 -0.0061351045871782953 0 -0.0078425774145530047 -0.0045157547160607414 0 -0.0096733470362044809 -0.0034535756412132799 0 -0.0071277649383494311 -0.0022855707273557978 0 -0.0078425774145530047 -0.0045157547160607414 0 -0.011009958254779101 -0.0061351045871782953 0 -0.0096733470362044809 -0.0034535756412132799 0 -0.0054383861284661942 -0.0020873041905980299 0 -0.0078425774145530047 -0.0045157547160607414 0 -0.0071277649383494311 -0.0022855707273557978 0 -0.013989306349860451 -0.0072723778657652078 0 -0.011009958254779101 -0.0061351045871782953 0 -0.012957370594928509 -0.0049784878491456516 0 -0.011009958254779101 -0.0061351045871782953 0 -0.012957370594928509 -0.0049784878491456516 0 -0.0096733470362044809 -0.0034535756412132799 0 -0.012957370594928509 -0.0049784878491456516 0 -0.0096733470362044809 -0.0034535756412132799 0 -0.011225439223772459 -0.0016626810109282219 0 -0.0096733470362044809 -0.0034535756412132799 0 -0.0074674042427222169 -0.00027149049481521565 0 -0.011225439223772459 -0.0016626810109282219 0 -0.0074674042427222169 -0.00027149049481521565 0 -0.011225439223772459 -0.0016626810109282219 0 -0.009331348751221798 0.0017033669656166663 0 -0.0054383861284661942 -0.0020873041905980299 0 -0.0071277649383494311 -0.0022855707273557978 0 -0.0053925842367942671 -0.00012780404670557053 0 -0.0096733470362044809 -0.0034535756412132799 0 -0.0074674042427222169 -0.00027149049481521565 0 -0.0071277649383494311 -0.0022855707273557978 0 -0.0074674042427222169 -0.00027149049481521565 0 -0.0071277649383494311 -0.0022855707273557978 0 -0.0053925842367942671 -0.00012780404670557053 0 -0.0074674042427222169 -0.00027149049481521565 0 -0.0053925842367942671 -0.00012780404670557053 0 -0.005033801418028728 0.0019480721344597015 0 -0.0053925842367942671 -0.00012780404670557053 0 -0.005033801418028728 0.0019480721344597015 0 -0.0042458619517686388 0.0018670012929910935 0 -0.0074674042427222169 -0.00027149049481521565 0 -0.005033801418028728 0.0019480721344597015 0 -0.0048791001916329143 0.0040354359279038262 0 -0.005033801418028728 0.0019480721344597015 0 -0.0048791001916329143 0.0040354359279038262 0 -0.0037491290679400728 0.0039463553806868192 0 -0.0037491290679400728 0.0039463553806868192 0 -0.0036275010676377279 0.0032317112960667787 0 -0.0042458619517686388 0.0018670012929910935 0 -0.005033801418028728 0.0019480721344597015 0 -0.0037491290679400728 0.0039463553806868192 0 -0.0042458619517686388 0.0018670012929910935 0 -0.0074674042427222169 -0.00027149049481521565 0 -0.009331348751221798 0.0017033669656166663 0 -0.0048791001916329143 0.0040354359279038262 0 -0.009331348751221798 0.0017033669656166663 0 -0.0048791001916329143 0.0040354359279038262 0 -0.0077680933045554982 0.0057366020584931621 0 -0.012292520832735528 0.0033823988974135844 0 -0.009331348751221798 0.0017033669656166663 0 -0.0077680933045554982 0.0057366020584931621 0 -0.0048791001916329143 0.0040354359279038262 0 -0.0077680933045554982 0.0057366020584931621 0 -0.0011401363555126017 0.0088468579886469365 0 -0.0077680933045554982 0.0057366020584931621 0 -0.0011401363555126017 0.0088468579886469365 0 -0.0088013704009031763 0.013403492342641361 0 -0.0048791001916329143 0.0040354359279038262 0 -0.0029053257643196365 0.0062854312627233814 0 -0.0011401363555126017 0.0088468579886469365 0 -0.0037491290679400728 0.0039463553806868192 0 -0.0029053257643196365 0.0062854312627233814 0 -0.0034056276871702999 0.0044502149082647274 0 -0.0037491290679400728 0.0039463553806868192 0 -0.0034056276871702999 0.0044502149082647274 0 -0.0036275010676377279 0.0032317112960667787 0 -0.0048791001916329143 0.0040354359279038262 0 -0.0037491290679400728 0.0039463553806868192 0 -0.0029053257643196365 0.0062854312627233814 0 -0.0029053257643196365 0.0062854312627233814 0 -0.0034056276871702999 0.0044502149082647274 0 -0.0033295789619152459 0.0043662072595960465 0 -0.0034056276871702999 0.0044502149082647274 0 -0.0035553426810347294 0.0032939069157261525 0 -0.0033295789619152459 0.0043662072595960465 0 -0.0034056276871702999 0.0044502149082647274 0 -0.0034997634421542107 0.0033249698546954404 0 -0.0035553426810347294 0.0032939069157261525 0 -0.0034056276871702999 0.0044502149082647274 0 -0.0034997634421542107 0.0033249698546954404 0 -0.0036275010676377279 0.0032317112960667787 0 -0.0036275010676377279 0.0032317112960667787 0 -0.0036779203079467743 0.002091573372716564 0 -0.0042458619517686388 0.0018670012929910935 0 -0.0034997634421542107 0.0033249698546954404 0 -0.0036275010676377279 0.0032317112960667787 0 -0.0036779203079467743 0.002091573372716564 0 -0.0034997634421542107 0.0033249698546954404 0 -0.0036779203079467743 0.002091573372716564 0 -0.003358521643473885 0.0020649485563984885 0 -0.0036183589373577039 0.00058935457599515451 0 -0.0036779203079467743 0.002091573372716564 0 -0.003358521643473885 0.0020649485563984885 0 -0.0044111677875544666 1.3284608356413499e-05 0 -0.0036183589373577039 0.00058935457599515451 0 -0.0036779203079467743 0.002091573372716564 0 -0.0044111677875544666 1.3284608356413499e-05 0 -0.0036779203079467743 0.002091573372716564 0 -0.0042458619517686388 0.0018670012929910935 0 -0.0036183589373577039 0.00058935457599515451 0 -0.0031290064070504742 0.00063291710134503792 0 -0.003358521643473885 0.0020649485563984885 0 -0.0031671711182750567 0.0016123812553660011 0 -0.0031290064070504742 0.00063291710134503792 0 -0.003358521643473885 0.0020649485563984885 0 -0.0034997634421542107 0.0033249698546954404 0 -0.0034979195198088916 0.0024833046068304882 0 -0.0035986677496696769 0.0022786947686814617 0 -0.0031671711182750567 0.0016123812553660011 0 -0.0034585459753241642 0.0019837455225745759 0 -0.0034979195198088916 0.0024833046068304882 0 -0.0031671711182750567 0.0016123812553660011 0 -0.003358521643473885 0.0020649485563984885 0 -0.0034979195198088916 0.0024833046068304882 0 -0.0034997634421542107 0.0033249698546954404 0 -0.003358521643473885 0.0020649485563984885 0 -0.0034979195198088916 0.0024833046068304882 0 -0.0034585459753241642 0.0019837455225745759 0 -0.0034979195198088916 0.0024833046068304882 0 -0.0036184812158461341 0.0018541598287912862 0 -0.0034979195198088916 0.0024833046068304882 0 -0.0035986677496696769 0.0022786947686814617 0 -0.0036184812158461341 0.0018541598287912862 0 -0.0035986677496696769 0.0022786947686814617 0 -0.0036184812158461341 0.0018541598287912862 0 -0.0034832285898116957 0.0011572778674380935 0 -0.0035986677496696769 0.0022786947686814617 0 -0.0034832285898116957 0.0011572778674380935 0 -0.0032954455007930521 0.0012805678462143831 0 -0.0036184812158461341 0.0018541598287912862 0 -0.0036467889102099536 0.001031615903593871 0 -0.0034832285898116957 0.0011572778674380935 0 -0.0036467889102099536 0.001031615903593871 0 -0.0034832285898116957 0.0011572778674380935 0 -0.0032249939125886364 -0.00022988884125804207 0 -0.0034832285898116957 0.0011572778674380935 0 -0.0032249939125886364 -0.00022988884125804207 0 -0.0032954455007930521 0.0012805678462143831 0 -0.0036467889102099536 0.001031615903593871 0 -0.0032249939125886364 -0.00022988884125804207 0 -0.003598547479868828 8.7934014947764816e-05 0 -0.0021606240740742752 -1.1297144667923967e-05 0 -0.0013139956228636657 -0.0017364938897150384 0 -0.0023013958160894056 -0.001001111071600854 0 -0.0032954455007930521 0.0012805678462143831 0 -0.0021606240740742752 -1.1297144667923967e-05 0 -0.0023013958160894056 -0.001001111071600854 0 -0.0032249939125886364 -0.00022988884125804207 0 -0.0032954455007930521 0.0012805678462143831 0 -0.0023013958160894056 -0.001001111071600854 0 -0.0032954455007930521 0.0012805678462143831 0 -0.0031006722229085294 0.0025112938366301184 0 -0.0021606240740742752 -1.1297144667923967e-05 0 -0.0034997634421542107 0.0033249698546954404 0 -0.0035986677496696769 0.0022786947686814617 0 -0.0035553426810347294 0.0032939069157261525 0 -0.0032954455007930521 0.0012805678462143831 0 -0.0035553426810347294 0.0032939069157261525 0 -0.0031006722229085294 0.0025112938366301184 0 -0.0035986677496696769 0.0022786947686814617 0 -0.0032954455007930521 0.0012805678462143831 0 -0.0035553426810347294 0.0032939069157261525 0 -0.0035553426810347294 0.0032939069157261525 0 -0.0033295789619152459 0.0043662072595960465 0 -0.0031006722229085294 0.0025112938366301184 0 -0.0029053257643196365 0.0062854312627233814 0 -0.0033295789619152459 0.0043662072595960465 0 -0.0027416557113670655 0.0045888786992352272 0 -0.0033295789619152459 0.0043662072595960465 0 -0.0027416557113670655 0.0045888786992352272 0 -0.0031006722229085294 0.0025112938366301184 0 -0.0029053257643196365 0.0062854312627233814 0 -0.0027416557113670655 0.0045888786992352272 0 -0.0011401363555126017 0.0088468579886469365 0 -0.0027416557113670655 0.0045888786992352272 0 6.771495816129264e-05 0.0021806104001691365 0 -0.0014792940278374796 0.00083870491507025222 0 -0.0027416557113670655 0.0045888786992352272 0 -0.0031006722229085294 0.0025112938366301184 0 -0.0014792940278374796 0.00083870491507025222 0 -0.0011401363555126017 0.0088468579886469365 0 -0.0051730294802439973 0.023896729311182172 0 -0.0088013704009031763 0.013403492342641361 0 -0.0027416557113670655 0.0045888786992352272 0 -0.0011401363555126017 0.0088468579886469365 0 6.771495816129264e-05 0.0021806104001691365 0 -0.19570083809856417 -0.024314556023522386 0 0.052111809014809239 0.038751136155014111 0 -0.0011401363555126017 0.0088468579886469365 0 0.0042596175294107924 0.023938686249338946 0 -0.0051730294802439973 0.023896729311182172 0 -0.0051730294802439973 0.023896729311182172 0 0.0075831418316980002 0.036375026986189996 0 -0.0064287115865228677 0.034335436272162269 0 0.052111809014809239 0.038751136155014111 0 -0.013707633393176408 0.0061447700173762106 0 6.771495816129264e-05 0.0021806104001691365 0 0.00056079953651920662 -0.00061574402260262809 0 -0.0014792940278374796 0.00083870491507025222 0 0.0042596175294107924 0.023938686249338946 0 -0.0051730294802439973 0.023896729311182172 0 0.0075831418316980002 0.036375026986189996 0 -0.013707633393176408 0.0061447700173762106 0 0.0038442942063149658 0.027610822464733158 0 0.00056079953651920662 -0.00061574402260262809 0 -0.00044300021218947241 -0.0014616004430565571 0 0.001076157726749411 -0.0026083324943039742 0 0.0075831418316980002 0.036375026986189996 0 0.0010590561390033709 0.043957884753536396 0 -0.0064287115865228677 0.034335436272162269 0 -0.0031006722229085294 0.0025112938366301184 0 -0.0014792940278374796 0.00083870491507025222 0 -0.0021606240740742752 -1.1297144667923967e-05 0 0.00056079953651920662 -0.00061574402260262809 0 -0.0014792940278374796 0.00083870491507025222 0 -0.00044300021218947241 -0.0014616004430565571 0 -0.0014792940278374796 0.00083870491507025222 0 -0.00044300021218947241 -0.0014616004430565571 0 -0.0021606240740742752 -1.1297144667923967e-05 0 -0.00044300021218947241 -0.0014616004430565571 0 -0.0021606240740742752 -1.1297144667923967e-05 0 -0.0013139956228636657 -0.0017364938897150384 0 -0.00044300021218947241 -0.0014616004430565571 0 -0.0013139956228636657 -0.0017364938897150384 0 2.3261907213409474e-05 -0.0032408821694523545 0 -0.00044300021218947241 -0.0014616004430565571 0 2.3261907213409474e-05 -0.0032408821694523545 0 0.001076157726749411 -0.0026083324943039742 0 2.3261907213409474e-05 -0.0032408821694523545 0 0.001076157726749411 -0.0026083324943039742 0 0.0016912740235475248 -0.0043274105705642532 0 -0.0013139956228636657 -0.0017364938897150384 0 2.3261907213409474e-05 -0.0032408821694523545 0 -0.0012146153170219652 -0.0027897891105394326 0 0.0010590561390033709 0.043957884753536396 0 0.0029781376990906413 0.052389359918820953 0 -0.0075565431791429268 0.047259803085994451 0 0.0010590561390033709 0.043957884753536396 0 0.01049430256358602 0.049176699557611371 0 0.0029781376990906413 0.052389359918820953 0 0.0075831418316980002 0.036375026986189996 0 0.0010590561390033709 0.043957884753536396 0 0.01049430256358602 0.049176699557611371 0 0.0038442942063149658 0.027610822464733158 0 -0.0011927847982610667 0.026905775161210604 0 0.01049430256358602 0.049176699557611371 0 0.0029781376990906413 0.052389359918820953 0 0.012877937024841796 0.062474012459214578 0 0.0029781376990906413 0.052389359918820953 0 0.012877937024841796 0.062474012459214578 0 -0.0013843194435969759 0.059379645536778568 0 0.012877937024841796 0.062474012459214578 0 0.0031144903980373428 0.068769147315087473 0 -0.0013843194435969759 0.059379645536778568 0 0.012877937024841796 0.062474012459214578 0 0.014916248169707528 0.076295865278502586 0 0.0031144903980373428 0.068769147315087473 0 0.0016912740235475248 -0.0043274105705642532 0 0.002329900488329823 -0.0059909360542293472 0 0.0010322391424085853 -0.0049903870455263819 0 -0.0011927847982610667 0.026905775161210604 0 -0.00062854585628699616 0.035018151966683217 0 0.014916248169707528 0.076295865278502586 0 0.0031144903980373428 0.068769147315087473 0 0.00057583981144676414 0.077932858022364646 0 2.3261907213409474e-05 -0.0032408821694523545 0 -0.00022362772548264535 -0.0042778979008896911 0 0.0010322391424085853 -0.0049903870455263819 0 2.3261907213409474e-05 -0.0032408821694523545 0 -0.00022362772548264535 -0.0042778979008896911 0 -0.0012146153170219652 -0.0027897891105394326 0 2.3261907213409474e-05 -0.0032408821694523545 0 0.0016912740235475248 -0.0043274105705642532 0 0.0010322391424085853 -0.0049903870455263819 0 -0.00022362772548264535 -0.0042778979008896911 0 0.0010322391424085853 -0.0049903870455263819 0 0.00010585624536965504 -0.0054032996528773124 0 0.0010322391424085853 -0.0049903870455263819 0 0.00010585624536965504 -0.0054032996528773124 0 0.0015766102912053665 -0.0065986026924972309 0 -0.00022362772548264535 -0.0042778979008896911 0 0.00010585624536965504 -0.0054032996528773124 0 -0.001467392331485016 -0.0038158964700699409 0 0.00010585624536965504 -0.0054032996528773124 0 -0.001467392331485016 -0.0038158964700699409 0 -0.0004862587491359547 -0.0057513813333017532 0 -0.00022362772548264535 -0.0042778979008896911 0 -0.001467392331485016 -0.0038158964700699409 0 -0.0012146153170219652 -0.0027897891105394326 0 -0.001467392331485016 -0.0038158964700699409 0 -0.0027689129839235166 -0.001947614248865221 0 -0.0021224659620685607 -0.002278594576874664 0 -0.001467392331485016 -0.0038158964700699409 0 -0.0012146153170219652 -0.0027897891105394326 0 -0.0021224659620685607 -0.002278594576874664 0 -0.001467392331485016 -0.0038158964700699409 0 -0.002571557198560049 -0.0030630837273336901 0 -0.0016746880460916604 -0.005030423423521193 0 -0.002571557198560049 -0.0030630837273336901 0 -0.0016746880460916604 -0.005030423423521193 0 -0.0028993185960221697 -0.0034154936976759837 0 -0.002571557198560049 -0.0030630837273336901 0 -0.0027689129839235166 -0.001947614248865221 0 -0.0032746466349332895 -0.002025967592275833 0 -0.001467392331485016 -0.0038158964700699409 0 -0.002571557198560049 -0.0030630837273336901 0 -0.0027689129839235166 -0.001947614248865221 0 -0.0032249939125886364 -0.00022988884125804207 0 -0.0027689129839235166 -0.001947614248865221 0 -0.0021224659620685607 -0.002278594576874664 0 -0.0027689129839235166 -0.001947614248865221 0 -0.0033334420516513063 -0.0010031331822540558 0 -0.0032746466349332895 -0.002025967592275833 0 -0.0032249939125886364 -0.00022988884125804207 0 -0.0027689129839235166 -0.001947614248865221 0 -0.0033334420516513063 -0.0010031331822540558 0 -0.0032249939125886364 -0.00022988884125804207 0 -0.003598547479868828 8.7934014947764816e-05 0 -0.0033334420516513063 -0.0010031331822540558 0 -0.0032249939125886364 -0.00022988884125804207 0 -0.0023013958160894056 -0.001001111071600854 0 -0.0021224659620685607 -0.002278594576874664 0 -0.0013139956228636657 -0.0017364938897150384 0 -0.0023013958160894056 -0.001001111071600854 0 -0.0012146153170219652 -0.0027897891105394326 0 -0.0023013958160894056 -0.001001111071600854 0 -0.0012146153170219652 -0.0027897891105394326 0 -0.0021224659620685607 -0.002278594576874664 0 -0.055543729615581891 0.035161893920411455 0 -0.045900445556482983 0.039576244106242789 0 -0.046336477924647547 0.029033426317040926 0 -0.055543729615581891 0.035161893920411455 0 -0.045900445556482983 0.039576244106242789 0 -0.058145128162973722 0.047032960800614663 0 -0.045900445556482983 0.039576244106242789 0 -0.046336477924647547 0.029033426317040926 0 -0.038292954145015642 0.029490335693663706 0 -0.055543729615581891 0.035161893920411455 0 -0.046336477924647547 0.029033426317040926 0 -0.052297510332915707 0.024503659925593661 0 -0.052297510332915707 0.024503659925593661 0 -0.049125959027797754 0.015375548960695921 0 -0.040004360010523828 0.01835172475445114 0 -0.046336477924647547 0.029033426317040926 0 -0.040004360010523828 0.01835172475445114 0 -0.038292954145015642 0.029490335693663706 0 -0.046336477924647547 0.029033426317040926 0 -0.052297510332915707 0.024503659925593661 0 -0.040004360010523828 0.01835172475445114 0 -0.040004360010523828 0.01835172475445114 0 -0.032234443648097841 0.023270398528640737 0 -0.038292954145015642 0.029490335693663706 0 -0.040004360010523828 0.01835172475445114 0 -0.028982737855438628 0.0144289577901856 0 -0.032234443648097841 0.023270398528640737 0 -0.032234443648097841 0.023270398528640737 0 -0.031319632613514489 0.030753897660139209 0 -0.02464055921468573 0.025181288715218832 0 -0.032234443648097841 0.023270398528640737 0 -0.031319632613514489 0.030753897660139209 0 -0.038292954145015642 0.029490335693663706 0 -0.031319632613514489 0.030753897660139209 0 -0.038292954145015642 0.029490335693663706 0 -0.035405731281114523 0.039082957045426615 0 -0.045900445556482983 0.039576244106242789 0 -0.038292954145015642 0.029490335693663706 0 -0.035405731281114523 0.039082957045426615 0 -0.031319632613514489 0.030753897660139209 0 -0.035405731281114523 0.039082957045426615 0 -0.025910568202547647 0.037853842748858044 0 -0.025910568202547647 0.037853842748858044 0 -0.01634270627410473 0.035483507863792695 0 -0.019291830327984191 0.047282655135801252 0 -0.025910568202547647 0.037853842748858044 0 -0.02464055921468573 0.025181288715218832 0 -0.01634270627410473 0.035483507863792695 0 -0.02464055921468573 0.025181288715218832 0 -0.014411254515787742 0.022497742939161364 0 -0.01634270627410473 0.035483507863792695 0 -0.031319632613514489 0.030753897660139209 0 -0.025910568202547647 0.037853842748858044 0 -0.02464055921468573 0.025181288715218832 0 -0.028982737855438628 0.0144289577901856 0 -0.032234443648097841 0.023270398528640737 0 -0.02464055921468573 0.025181288715218832 0 -0.028982737855438628 0.0144289577901856 0 -0.02464055921468573 0.025181288715218832 0 -0.020396804427538752 0.014592134416312956 0 -0.02464055921468573 0.025181288715218832 0 -0.020396804427538752 0.014592134416312956 0 -0.014411254515787742 0.022497742939161364 0 -0.020396804427538752 0.014592134416312956 0 -0.014411254515787742 0.022497742939161364 0 -0.014361474701578579 0.014173895713951792 0 -0.014411254515787742 0.022497742939161364 0 -0.014361474701578579 0.014173895713951792 0 -0.0088013704009031763 0.013403492342641361 0 -0.0051730294802439973 0.023896729311182172 0 -0.014411254515787742 0.022497742939161364 0 -0.0088013704009031763 0.013403492342641361 0 -0.0051730294802439973 0.023896729311182172 0 -0.014411254515787742 0.022497742939161364 0 -0.0064287115865228677 0.034335436272162269 0 -0.014411254515787742 0.022497742939161364 0 -0.01634270627410473 0.035483507863792695 0 -0.0064287115865228677 0.034335436272162269 0 -0.01634270627410473 0.035483507863792695 0 -0.0064287115865228677 0.034335436272162269 0 -0.0075565431791429268 0.047259803085994451 0 0.0010590561390033709 0.043957884753536396 0 -0.0064287115865228677 0.034335436272162269 0 -0.0075565431791429268 0.047259803085994451 0 -0.01634270627410473 0.035483507863792695 0 -0.0075565431791429268 0.047259803085994451 0 -0.019291830327984191 0.047282655135801252 0 -0.0075565431791429268 0.047259803085994451 0 -0.012463949435827548 0.055620109293213003 0 -0.019291830327984191 0.047282655135801252 0 -0.0075565431791429268 0.047259803085994451 0 -0.012463949435827548 0.055620109293213003 0 -0.0013843194435969759 0.059379645536778568 0 0.0029781376990906413 0.052389359918820953 0 -0.0075565431791429268 0.047259803085994451 0 -0.0013843194435969759 0.059379645536778568 0 0.0031144903980373428 0.068769147315087473 0 -0.0013843194435969759 0.059379645536778568 0 -0.010689264827914728 0.067889414661107025 0 0.0031144903980373428 0.068769147315087473 0 -0.010689264827914728 0.067889414661107025 0 0.00057583981144676414 0.077932858022364646 0 -0.012463949435827548 0.055620109293213003 0 -0.0013843194435969759 0.059379645536778568 0 -0.010689264827914728 0.067889414661107025 0 -0.012463949435827548 0.055620109293213003 0 -0.010689264827914728 0.067889414661107025 0 -0.022935550656449141 0.056845128535216539 0 -0.010689264827914728 0.067889414661107025 0 -0.024838153130848917 0.06826408717175908 0 -0.022935550656449141 0.056845128535216539 0 -0.010689264827914728 0.067889414661107025 0 -0.024838153130848917 0.06826408717175908 0 -0.02180004887420673 0.079734945446617952 0 -0.024838153130848917 0.06826408717175908 0 -0.022935550656449141 0.056845128535216539 0 -0.034352167950195682 0.066866016172773698 0 -0.022935550656449141 0.056845128535216539 0 -0.030959104351825664 0.050518254806955383 0 -0.034352167950195682 0.066866016172773698 0 -0.022935550656449141 0.056845128535216539 0 -0.019291830327984191 0.047282655135801252 0 -0.030959104351825664 0.050518254806955383 0 -0.012463949435827548 0.055620109293213003 0 -0.022935550656449141 0.056845128535216539 0 -0.019291830327984191 0.047282655135801252 0 -0.025910568202547647 0.037853842748858044 0 -0.019291830327984191 0.047282655135801252 0 -0.030959104351825664 0.050518254806955383 0 -0.035405731281114523 0.039082957045426615 0 -0.025910568202547647 0.037853842748858044 0 -0.030959104351825664 0.050518254806955383 0 -0.035405731281114523 0.039082957045426615 0 -0.040237285538136616 0.048110032481095168 0 -0.030959104351825664 0.050518254806955383 0 -0.045900445556482983 0.039576244106242789 0 -0.035405731281114523 0.039082957045426615 0 -0.040237285538136616 0.048110032481095168 0 -0.040237285538136616 0.048110032481095168 0 -0.040533609576001356 0.057192045640257073 0 -0.0493750835242278 0.054558621015589483 0 -0.040237285538136616 0.048110032481095168 0 -0.030959104351825664 0.050518254806955383 0 -0.040533609576001356 0.057192045640257073 0 -0.030959104351825664 0.050518254806955383 0 -0.034352167950195682 0.066866016172773698 0 -0.040533609576001356 0.057192045640257073 0 -0.024838153130848917 0.06826408717175908 0 -0.034352167950195682 0.066866016172773698 0 -0.033144236673496363 0.079240132893777154 0 -0.034352167950195682 0.066866016172773698 0 -0.048075470109314421 0.066631575206076391 0 -0.041956175615548617 0.075706879068678137 0 -0.034352167950195682 0.066866016172773698 0 -0.040533609576001356 0.057192045640257073 0 -0.048075470109314421 0.066631575206076391 0 -0.040533609576001356 0.057192045640257073 0 -0.048075470109314421 0.066631575206076391 0 -0.0493750835242278 0.054558621015589483 0 -0.048075470109314421 0.066631575206076391 0 -0.060299763248315034 0.05994434766826183 0 -0.061804691615035157 0.073503011578440733 0 -0.048075470109314421 0.066631575206076391 0 -0.061804691615035157 0.073503011578440733 0 -0.051322903478476095 0.079363738315479035 0 -0.048075470109314421 0.066631575206076391 0 -0.060299763248315034 0.05994434766826183 0 -0.0493750835242278 0.054558621015589483 0 -0.060299763248315034 0.05994434766826183 0 -0.0493750835242278 0.054558621015589483 0 -0.058145128162973722 0.047032960800614663 0 -0.045900445556482983 0.039576244106242789 0 -0.040237285538136616 0.048110032481095168 0 -0.0493750835242278 0.054558621015589483 0 -0.045900445556482983 0.039576244106242789 0 -0.0493750835242278 0.054558621015589483 0 -0.058145128162973722 0.047032960800614663 0 -0.06345430643595168 0.10178078912278718 0 -0.045658533225553452 0.10269598997115166 0 -0.050775101283497798 0.11623012962141846 0 -0.06345430643595168 0.10178078912278718 0 -0.052950218831316967 0.091885497964162552 0 -0.045658533225553452 0.10269598997115166 0 -0.052950218831316967 0.091885497964162552 0 -0.043034028108415411 0.08692796853781963 0 -0.045658533225553452 0.10269598997115166 0 -0.06345430643595168 0.10178078912278718 0 -0.052950218831316967 0.091885497964162552 0 -0.062873025347910172 0.087506068739753057 0 -0.052950218831316967 0.091885497964162552 0 -0.062873025347910172 0.087506068739753057 0 -0.051322903478476095 0.079363738315479035 0 -0.062873025347910172 0.087506068739753057 0 -0.061804691615035157 0.073503011578440733 0 -0.051322903478476095 0.079363738315479035 0 -0.048075470109314421 0.066631575206076391 0 -0.051322903478476095 0.079363738315479035 0 -0.041956175615548617 0.075706879068678137 0 -0.052950218831316967 0.091885497964162552 0 -0.051322903478476095 0.079363738315479035 0 -0.043034028108415411 0.08692796853781963 0 -0.043034028108415411 0.08692796853781963 0 -0.041956175615548617 0.075706879068678137 0 -0.033144236673496363 0.079240132893777154 0 -0.051322903478476095 0.079363738315479035 0 -0.043034028108415411 0.08692796853781963 0 -0.041956175615548617 0.075706879068678137 0 -0.034352167950195682 0.066866016172773698 0 -0.041956175615548617 0.075706879068678137 0 -0.033144236673496363 0.079240132893777154 0 -0.043034028108415411 0.08692796853781963 0 -0.033144236673496363 0.079240132893777154 0 -0.033019491261856007 0.091491998857145054 0 -0.033019491261856007 0.091491998857145054 0 -0.045658533225553452 0.10269598997115166 0 -0.032130690868181384 0.10443105631311973 0 -0.043034028108415411 0.08692796853781963 0 -0.033019491261856007 0.091491998857145054 0 -0.045658533225553452 0.10269598997115166 0 -0.045658533225553452 0.10269598997115166 0 -0.032130690868181384 0.10443105631311973 0 -0.037153214960722054 0.11817027032008062 0 -0.032130690868181384 0.10443105631311973 0 -0.022986471888514843 0.096419332970957644 0 -0.021827844424911178 0.11212289264330348 0 -0.022986471888514843 0.096419332970957644 0 -0.011803278874175921 0.10283698634074195 0 -0.021827844424911178 0.11212289264330348 0 -0.022986471888514843 0.096419332970957644 0 -0.014466066080700869 0.08912136542733877 0 -0.011803278874175921 0.10283698634074195 0 -0.033019491261856007 0.091491998857145054 0 -0.032130690868181384 0.10443105631311973 0 -0.022986471888514843 0.096419332970957644 0 -0.033144236673496363 0.079240132893777154 0 -0.033019491261856007 0.091491998857145054 0 -0.02180004887420673 0.079734945446617952 0 -0.033019491261856007 0.091491998857145054 0 -0.022986471888514843 0.096419332970957644 0 -0.02180004887420673 0.079734945446617952 0 -0.024838153130848917 0.06826408717175908 0 -0.033144236673496363 0.079240132893777154 0 -0.02180004887420673 0.079734945446617952 0 -0.02180004887420673 0.079734945446617952 0 -0.014466066080700869 0.08912136542733877 0 -0.010092729035348311 0.080937844533139972 0 -0.022986471888514843 0.096419332970957644 0 -0.02180004887420673 0.079734945446617952 0 -0.014466066080700869 0.08912136542733877 0 -0.014466066080700869 0.08912136542733877 0 -0.010092729035348311 0.080937844533139972 0 -0.0037503697103608382 0.090092970960093333 0 -0.010689264827914728 0.067889414661107025 0 -0.010092729035348311 0.080937844533139972 0 0.00057583981144676414 0.077932858022364646 0 -0.010689264827914728 0.067889414661107025 0 -0.02180004887420673 0.079734945446617952 0 -0.010092729035348311 0.080937844533139972 0 -0.010092729035348311 0.080937844533139972 0 0.00057583981144676414 0.077932858022364646 0 -0.0037503697103608382 0.090092970960093333 0 0.00057583981144676414 0.077932858022364646 0 -0.0037503697103608382 0.090092970960093333 0 0.0070842012195260649 0.086036864642737659 0 -0.0037503697103608382 0.090092970960093333 0 -0.011803278874175921 0.10283698634074195 0 0.0012187427487240015 0.10574252357385266 0 -0.0037503697103608382 0.090092970960093333 0 0.0012187427487240015 0.10574252357385266 0 0.0071300837792378936 0.09546945617115396 0 -0.014466066080700869 0.08912136542733877 0 -0.0037503697103608382 0.090092970960093333 0 -0.011803278874175921 0.10283698634074195 0 -0.011803278874175921 0.10283698634074195 0 0.0012187427487240015 0.10574252357385266 0 -0.0077105672892676331 0.11928300126540162 0 0.0012187427487240015 0.10574252357385266 0 -0.0077105672892676331 0.11928300126540162 0 0.0062738349829813272 0.11913106852451731 0 -0.0077105672892676331 0.11928300126540162 0 0.0040875183520921801 0.13182817132657385 0 -0.0093752569040957707 0.13396344659833415 0 -0.0077105672892676331 0.11928300126540162 0 0.0040875183520921801 0.13182817132657385 0 0.0062738349829813272 0.11913106852451731 0 0.0040875183520921801 0.13182817132657385 0 -0.00080933764093448499 0.14035008943924529 0 -0.0093752569040957707 0.13396344659833415 0 0.0040875183520921801 0.13182817132657385 0 -0.00080933764093448499 0.14035008943924529 0 0.011189734110466597 0.1402237874401652 0 -0.00080933764093448499 0.14035008943924529 0 0.011189734110466597 0.1402237874401652 0 0.006915325918293534 0.14826976162972869 0 -0.00080933764093448499 0.14035008943924529 0 -0.007594326511868566 0.14728708408542654 0 0.006915325918293534 0.14826976162972869 0 -0.00080933764093448499 0.14035008943924529 0 -0.007594326511868566 0.14728708408542654 0 -0.0093752569040957707 0.13396344659833415 0 -0.021657860897949646 0.14634596440928041 0 -0.022223812823887773 0.12833254551192566 0 -0.034635735426737216 0.13260656734085866 0 -0.0093752569040957707 0.13396344659833415 0 -0.021657860897949646 0.14634596440928041 0 -0.022223812823887773 0.12833254551192566 0 -0.007594326511868566 0.14728708408542654 0 -0.0093752569040957707 0.13396344659833415 0 -0.021657860897949646 0.14634596440928041 0 -0.022223812823887773 0.12833254551192566 0 -0.021827844424911178 0.11212289264330348 0 -0.037153214960722054 0.11817027032008062 0 -0.0077105672892676331 0.11928300126540162 0 -0.0093752569040957707 0.13396344659833415 0 -0.022223812823887773 0.12833254551192566 0 -0.0077105672892676331 0.11928300126540162 0 -0.022223812823887773 0.12833254551192566 0 -0.021827844424911178 0.11212289264330348 0 -0.011803278874175921 0.10283698634074195 0 -0.0077105672892676331 0.11928300126540162 0 -0.021827844424911178 0.11212289264330348 0 -0.032130690868181384 0.10443105631311973 0 -0.021827844424911178 0.11212289264330348 0 -0.037153214960722054 0.11817027032008062 0 -0.045658533225553452 0.10269598997115166 0 -0.037153214960722054 0.11817027032008062 0 -0.050775101283497798 0.11623012962141846 0 -0.037153214960722054 0.11817027032008062 0 -0.034635735426737216 0.13260656734085866 0 -0.047965128258914795 0.12921142279776363 0 -0.037153214960722054 0.11817027032008062 0 -0.047965128258914795 0.12921142279776363 0 -0.050775101283497798 0.11623012962141846 0 -0.022223812823887773 0.12833254551192566 0 -0.037153214960722054 0.11817027032008062 0 -0.034635735426737216 0.13260656734085866 0 -0.021657860897949646 0.14634596440928041 0 -0.034635735426737216 0.13260656734085866 0 -0.035487103824928555 0.14558905149868279 0 -0.035487103824928555 0.14558905149868279 0 -0.042582474047620764 0.13804533319950241 0 -0.049450477740100043 0.14500904886597346 0 -0.034635735426737216 0.13260656734085866 0 -0.035487103824928555 0.14558905149868279 0 -0.042582474047620764 0.13804533319950241 0 -0.034635735426737216 0.13260656734085866 0 -0.042582474047620764 0.13804533319950241 0 -0.047965128258914795 0.12921142279776363 0 -0.042582474047620764 0.13804533319950241 0 -0.047965128258914795 0.12921142279776363 0 -0.054221834492887852 0.13686724663908909 0 -0.042582474047620764 0.13804533319950241 0 -0.054221834492887852 0.13686724663908909 0 -0.049450477740100043 0.14500904886597346 0 -0.054221834492887852 0.13686724663908909 0 -0.049450477740100043 0.14500904886597346 0 -0.063493166285984268 0.14455288192971474 0 -0.054221834492887852 0.13686724663908909 0 -0.063493166285984268 0.14455288192971474 0 -0.063656940689746255 0.13044003675264332 0 -0.047965128258914795 0.12921142279776363 0 -0.054221834492887852 0.13686724663908909 0 -0.063656940689746255 0.13044003675264332 0 -0.063656940689746255 0.13044003675264332 0 -0.050775101283497798 0.11623012962141846 0 -0.063676189553978246 0.11617885114480335 0 -0.047965128258914795 0.12921142279776363 0 -0.063656940689746255 0.13044003675264332 0 -0.050775101283497798 0.11623012962141846 0 -0.06345430643595168 0.10178078912278718 0 -0.050775101283497798 0.11623012962141846 0 -0.063676189553978246 0.11617885114480335 0 2.4751500615397461e-05 -0.0071434307629034462 0 2.8980739446096849e-05 -0.0084527027364722836 0 -0.00094093445567912815 -0.006868136389691964 0 2.4751500615397461e-05 -0.0071434307629034462 0 0.001254331240277253 -0.0091627829895966472 0 0.0013870050848487072 -0.008309168387304687 0 2.4751500615397461e-05 -0.0071434307629034462 0 0.00076659206578427253 -0.0070019462139134046 0 0.0013870050848487072 -0.008309168387304687 0 2.4751500615397461e-05 -0.0071434307629034462 0 0.001254331240277253 -0.0091627829895966472 0 2.8980739446096849e-05 -0.0084527027364722836 0 2.8980739446096849e-05 -0.0084527027364722836 0 -0.0012645756405700462 -0.0075939871286025929 0 -0.00094093445567912815 -0.006868136389691964 0 -0.0012645756405700462 -0.0075939871286025929 0 -0.0019343015806971902 -0.0058722301656061477 0 -0.00094093445567912815 -0.006868136389691964 0 -0.0012645756405700462 -0.0075939871286025929 0 -0.0019343015806971902 -0.0058722301656061477 0 -0.0021645381158810406 -0.0064362664873505162 0 -0.0019343015806971902 -0.0058722301656061477 0 -0.00094093445567912815 -0.006868136389691964 0 -0.0016746880460916604 -0.005030423423521193 0 -0.0019343015806971902 -0.0058722301656061477 0 -0.0016746880460916604 -0.005030423423521193 0 -0.0024655969039761175 -0.0046634584622590744 0 -0.0016746880460916604 -0.005030423423521193 0 -0.0024655969039761175 -0.0046634584622590744 0 -0.0028993185960221697 -0.0034154936976759837 0 -0.001467392331485016 -0.0038158964700699409 0 -0.0016746880460916604 -0.005030423423521193 0 -0.0004862587491359547 -0.0057513813333017532 0 2.4751500615397461e-05 -0.0071434307629034462 0 -0.0016746880460916604 -0.005030423423521193 0 -0.0004862587491359547 -0.0057513813333017532 0 2.4751500615397461e-05 -0.0071434307629034462 0 -0.00094093445567912815 -0.006868136389691964 0 -0.0016746880460916604 -0.005030423423521193 0 2.4751500615397461e-05 -0.0071434307629034462 0 -0.0004862587491359547 -0.0057513813333017532 0 0.00076659206578427253 -0.0070019462139134046 0 0.00010585624536965504 -0.0054032996528773124 0 -0.0004862587491359547 -0.0057513813333017532 0 0.00076659206578427253 -0.0070019462139134046 0 0.00010585624536965504 -0.0054032996528773124 0 0.0015766102912053665 -0.0065986026924972309 0 0.00076659206578427253 -0.0070019462139134046 0 0.002329900488329823 -0.0059909360542293472 0 0.0010322391424085853 -0.0049903870455263819 0 0.0015766102912053665 -0.0065986026924972309 0 0.0015766102912053665 -0.0065986026924972309 0 0.0030319657129865021 -0.0076452566092963985 0 0.0023475108879315192 -0.008260567464117732 0 0.0015766102912053665 -0.0065986026924972309 0 0.00076659206578427253 -0.0070019462139134046 0 0.0023475108879315192 -0.008260567464117732 0 0.014916248169707528 0.076295865278502586 0 0.00057583981144676414 0.077932858022364646 0 0.0070842012195260649 0.086036864642737659 0 0.014916248169707528 0.076295865278502586 0 0.016670196729318357 0.090491837764212976 0 0.0070842012195260649 0.086036864642737659 0 0.002329900488329823 -0.0059909360542293472 0 0.0015766102912053665 -0.0065986026924972309 0 0.0030319657129865021 -0.0076452566092963985 0 -0.00062854585628699616 0.035018151966683217 0 -0.0018483400826964655 0.043467917946109977 0 -0.0037503697103608382 0.090092970960093333 0 0.0070842012195260649 0.086036864642737659 0 0.0071300837792378936 0.09546945617115396 0 0.016670196729318357 0.090491837764212976 0 0.0070842012195260649 0.086036864642737659 0 0.0071300837792378936 0.09546945617115396 0 0.0012187427487240015 0.10574252357385266 0 0.0071300837792378936 0.09546945617115396 0 0.018066374933855791 0.10497514393952305 0 -0.0018483400826964655 0.043467917946109977 0 -0.0035184892576125434 0.042952762402761274 0 0.0030319657129865021 -0.0076452566092963985 0 0.0038021147699652835 -0.009350929230758755 0 0.0023475108879315192 -0.008260567464117732 0 0.016670196729318357 0.090491837764212976 0 0.0071300837792378936 0.09546945617115396 0 0.018066374933855791 0.10497514393952305 0 -0.0035184892576125434 0.042952762402761274 0 -0.0038600053092174048 0.063819103936187449 0 0.0012187427487240015 0.10574252357385266 0 0.018066374933855791 0.10497514393952305 0 0.0062738349829813272 0.11913106852451731 0 0.00076659206578427253 -0.0070019462139134046 0 0.0013870050848487072 -0.008309168387304687 0 0.0023475108879315192 -0.008260567464117732 0 0.0038021147699652835 -0.009350929230758755 0 0.0023475108879315192 -0.008260567464117732 0 0.0027687478964436665 -0.0099396760654865291 0 0.001254331240277253 -0.0091627829895966472 0 0.0013870050848487072 -0.008309168387304687 0 0.0027687478964436665 -0.0099396760654865291 0 0.0013870050848487072 -0.008309168387304687 0 0.0023475108879315192 -0.008260567464117732 0 0.0027687478964436665 -0.0099396760654865291 0 0.0027687478964436665 -0.0099396760654865291 0 0.0038890715871170278 -0.011597037643738192 0 0.002484957764330639 -0.010969866175967328 0 0.001254331240277253 -0.0091627829895966472 0 0.0027687478964436665 -0.0099396760654865291 0 0.002484957764330639 -0.010969866175967328 0 0.0038021147699652835 -0.009350929230758755 0 0.0027687478964436665 -0.0099396760654865291 0 0.0046895216510119755 -0.011117535198194708 0 0.0027687478964436665 -0.0099396760654865291 0 0.0038890715871170278 -0.011597037643738192 0 0.0046895216510119755 -0.011117535198194708 0 0.0038890715871170278 -0.011597037643738192 0 0.002484957764330639 -0.010969866175967328 0 0.0042132887670339935 -0.012873937976117755 0 0.018066374933855791 0.10497514393952305 0 0.0062738349829813272 0.11913106852451731 0 0.019285300197866308 0.11958707120148235 0 -0.0038600053092174048 0.063819103936187449 0 -0.011260030926962062 0.046327435949708486 0 0.0038890715871170278 -0.011597037643738192 0 0.0046895216510119755 -0.011117535198194708 0 0.005728804548636582 -0.013023247265195229 0 0.0062738349829813272 0.11913106852451731 0 0.019285300197866308 0.11958707120148235 0 0.02040108425198485 0.13423923969162363 0 0.0040875183520921801 0.13182817132657385 0 0.0062738349829813272 0.11913106852451731 0 0.02040108425198485 0.13423923969162363 0 0.0040875183520921801 0.13182817132657385 0 0.02040108425198485 0.13423923969162363 0 0.011189734110466597 0.1402237874401652 0 -0.011260030926962062 0.046327435949708486 0 0.0052154029134639903 0.083192280279203376 0 0.02040108425198485 0.13423923969162363 0 0.021664006936210567 0.14893068600620918 0 0.011189734110466597 0.1402237874401652 0 0.021664006936210567 0.14893068600620918 0 0.011189734110466597 0.1402237874401652 0 0.006915325918293534 0.14826976162972869 0 0.002484957764330639 -0.010969866175967328 0 0.0042132887670339935 -0.012873937976117755 0 0.0020549876396402087 -0.011867260826018329 0 0.0038890715871170278 -0.011597037643738192 0 0.005728804548636582 -0.013023247265195229 0 0.0042132887670339935 -0.012873937976117755 0 0.005728804548636582 -0.013023247265195229 0 0.0069096041659409517 -0.015085411276251256 0 0.0042132887670339935 -0.012873937976117755 0 0.0069096041659409517 -0.015085411276251256 0 0.0042132887670339935 -0.012873937976117755 0 0.0047336316812055194 -0.014409302636231887 0 0.0042132887670339935 -0.012873937976117755 0 0.0047336316812055194 -0.014409302636231887 0 0.0020549876396402087 -0.011867260826018329 0 0.0020549876396402087 -0.011867260826018329 0 0.00048171863071781441 -0.010328487589737888 0 0.00096072677196390715 -0.012070746352178542 0 0.0047336316812055194 -0.014409302636231887 0 0.0027240198982403882 -0.013352801434880357 0 0.0020549876396402087 -0.011867260826018329 0 0.0027240198982403882 -0.013352801434880357 0 0.0020549876396402087 -0.011867260826018329 0 0.00096072677196390715 -0.012070746352178542 0 0.002484957764330639 -0.010969866175967328 0 0.0020549876396402087 -0.011867260826018329 0 0.00098872940807889016 -0.01004160840455162 0 0.0020549876396402087 -0.011867260826018329 0 0.00098872940807889016 -0.01004160840455162 0 0.00048171863071781441 -0.010328487589737888 0 2.8980739446096849e-05 -0.0084527027364722836 0 0.00098872940807889016 -0.01004160840455162 0 -0.0004739710341316399 -0.0090342044175451448 0 0.001254331240277253 -0.0091627829895966472 0 2.8980739446096849e-05 -0.0084527027364722836 0 0.00098872940807889016 -0.01004160840455162 0 0.001254331240277253 -0.0091627829895966472 0 0.002484957764330639 -0.010969866175967328 0 0.00098872940807889016 -0.01004160840455162 0 -0.0012645756405700462 -0.0075939871286025929 0 -0.0004739710341316399 -0.0090342044175451448 0 -0.00131951965309102 -0.0085333416751350311 0 2.8980739446096849e-05 -0.0084527027364722836 0 -0.0012645756405700462 -0.0075939871286025929 0 -0.0004739710341316399 -0.0090342044175451448 0 -0.0004739710341316399 -0.0090342044175451448 0 0.00048171863071781441 -0.010328487589737888 0 -0.00043979502168924191 -0.01001707941384203 0 0.00098872940807889016 -0.01004160840455162 0 -0.0004739710341316399 -0.0090342044175451448 0 0.00048171863071781441 -0.010328487589737888 0 -0.0004739710341316399 -0.0090342044175451448 0 -0.00043979502168924191 -0.01001707941384203 0 -0.00131951965309102 -0.0085333416751350311 0 0.00048171863071781441 -0.010328487589737888 0 -0.00043979502168924191 -0.01001707941384203 0 0.00096072677196390715 -0.012070746352178542 0 -0.00043979502168924191 -0.01001707941384203 0 0.00096072677196390715 -0.012070746352178542 0 -0.00039511450540736164 -0.010737982250930509 0 -0.00043979502168924191 -0.01001707941384203 0 -0.00039511450540736164 -0.010737982250930509 0 -0.0012148653130430651 -0.0093703067244530047 0 -0.00039511450540736164 -0.010737982250930509 0 -0.001452755902392599 -0.0094481078485527305 0 -0.0012148653130430651 -0.0093703067244530047 0 -0.001452755902392599 -0.0094481078485527305 0 -0.0021866350521673929 -0.0080395037508977779 0 -0.0012148653130430651 -0.0093703067244530047 0 -0.0021866350521673929 -0.0080395037508977779 0 -0.0012148653130430651 -0.0093703067244530047 0 -0.00131951965309102 -0.0085333416751350311 0 -0.00043979502168924191 -0.01001707941384203 0 -0.0012148653130430651 -0.0093703067244530047 0 -0.00131951965309102 -0.0085333416751350311 0 -0.0021916157381244358 -0.0083042077637762897 0 -0.0027025438680697649 -0.0076116623445778749 0 -0.0028044936799816312 -0.0073889012692563627 0 -0.001452755902392599 -0.0094481078485527305 0 -0.0021916157381244358 -0.0083042077637762897 0 -0.0027025438680697649 -0.0076116623445778749 0 -0.001452755902392599 -0.0094481078485527305 0 -0.0021866350521673929 -0.0080395037508977779 0 -0.0027025438680697649 -0.0076116623445778749 0 -0.0027025438680697649 -0.0076116623445778749 0 -0.0030148930120582271 -0.0067753907350302112 0 -0.0035982490623980832 -0.0063265531034632262 0 -0.0021866350521673929 -0.0080395037508977779 0 -0.0027025438680697649 -0.0076116623445778749 0 -0.0030148930120582271 -0.0067753907350302112 0 -0.0030148930120582271 -0.0067753907350302112 0 -0.0023381695664662205 -0.0070815656322594988 0 -0.0031906538574706911 -0.0059577545077767833 0 -0.0030148930120582271 -0.0067753907350302112 0 -0.0031906538574706911 -0.0059577545077767833 0 -0.0037956294364431997 -0.0055520946186978374 0 -0.0030148930120582271 -0.0067753907350302112 0 -0.0037956294364431997 -0.0055520946186978374 0 -0.0035982490623980832 -0.0063265531034632262 0 -0.0021866350521673929 -0.0080395037508977779 0 -0.00131951965309102 -0.0085333416751350311 0 -0.0023381695664662205 -0.0070815656322594988 0 -0.0021866350521673929 -0.0080395037508977779 0 -0.0030148930120582271 -0.0067753907350302112 0 -0.0023381695664662205 -0.0070815656322594988 0 -0.0012645756405700462 -0.0075939871286025929 0 -0.00131951965309102 -0.0085333416751350311 0 -0.0023381695664662205 -0.0070815656322594988 0 -0.0012645756405700462 -0.0075939871286025929 0 -0.0023381695664662205 -0.0070815656322594988 0 -0.0021645381158810406 -0.0064362664873505162 0 -0.0019343015806971902 -0.0058722301656061477 0 -0.0021645381158810406 -0.0064362664873505162 0 -0.0026575006098607718 -0.0053430854743053875 0 -0.0021645381158810406 -0.0064362664873505162 0 -0.0026575006098607718 -0.0053430854743053875 0 -0.0027683184490153011 -0.006006475286680784 0 -0.0026575006098607718 -0.0053430854743053875 0 -0.0027683184490153011 -0.006006475286680784 0 -0.003291117099688259 -0.0050117248193245374 0 -0.0023381695664662205 -0.0070815656322594988 0 -0.0021645381158810406 -0.0064362664873505162 0 -0.0027683184490153011 -0.006006475286680784 0 -0.0027683184490153011 -0.006006475286680784 0 -0.0031906538574706911 -0.0059577545077767833 0 -0.003291117099688259 -0.0050117248193245374 0 -0.0023381695664662205 -0.0070815656322594988 0 -0.0027683184490153011 -0.006006475286680784 0 -0.0031906538574706911 -0.0059577545077767833 0 -0.0031906538574706911 -0.0059577545077767833 0 -0.0037956294364431997 -0.0055520946186978374 0 -0.0039475754738116904 -0.0044375613683691239 0 -0.0037956294364431997 -0.0055520946186978374 0 -0.0039475754738116904 -0.0044375613683691239 0 -0.0043361358497783498 -0.0046281136508803779 0 -0.0031906538574706911 -0.0059577545077767833 0 -0.0039475754738116904 -0.0044375613683691239 0 -0.003291117099688259 -0.0050117248193245374 0 -0.003291117099688259 -0.0050117248193245374 0 -0.0039916941054198851 -0.0035212850004450636 0 -0.0031868769597119934 -0.0041856090242573061 0 -0.0039475754738116904 -0.0044375613683691239 0 -0.003291117099688259 -0.0050117248193245374 0 -0.0039916941054198851 -0.0035212850004450636 0 -0.0039475754738116904 -0.0044375613683691239 0 -0.0039916941054198851 -0.0035212850004450636 0 -0.004829157811742168 -0.0033397855740556846 0 -0.0039916941054198851 -0.0035212850004450636 0 -0.0031868769597119934 -0.0041856090242573061 0 -0.0035080682708840071 -0.0028683321730669921 0 -0.0031868769597119934 -0.0041856090242573061 0 -0.0035080682708840071 -0.0028683321730669921 0 -0.0028993185960221697 -0.0034154936976759837 0 -0.0031868769597119934 -0.0041856090242573061 0 -0.0024655969039761175 -0.0046634584622590744 0 -0.0028993185960221697 -0.0034154936976759837 0 -0.0026575006098607718 -0.0053430854743053875 0 -0.0031868769597119934 -0.0041856090242573061 0 -0.0024655969039761175 -0.0046634584622590744 0 -0.0019343015806971902 -0.0058722301656061477 0 -0.0026575006098607718 -0.0053430854743053875 0 -0.0024655969039761175 -0.0046634584622590744 0 -0.0026575006098607718 -0.0053430854743053875 0 -0.003291117099688259 -0.0050117248193245374 0 -0.0031868769597119934 -0.0041856090242573061 0 0.0015371764825742986 -0.0025378670457693242 0 0.00078141595388714509 -0.0019088660396807944 0 0.0011805124234713124 -0.0025373233839288962 0 -0.0044211443615622932 -0.0031922741542084205 0 -0.0042017311418458426 -0.0022626360482665493 0 0.0015371764825742986 -0.0025378670457693242 0 0.00078141595388714509 -0.0019088660396807944 0 0.001066457806003277 -0.0018220216170012373 0 -0.0056108391065533862 -0.0035233768537666467 0 -0.004829157811742168 -0.0033397855740556846 0 -0.005700384739811235 -0.0025894266245964342 0 -0.004829157811742168 -0.0033397855740556846 0 -0.005004886237572061 -0.0021971603044619163 0 -0.005700384739811235 -0.0025894266245964342 0 -0.0039916941054198851 -0.0035212850004450636 0 -0.004829157811742168 -0.0033397855740556846 0 -0.0045140597536971272 -0.0026884039236139252 0 -0.004829157811742168 -0.0033397855740556846 0 -0.0045140597536971272 -0.0026884039236139252 0 -0.005004886237572061 -0.0021971603044619163 0 -0.0039475754738116904 -0.0044375613683691239 0 -0.004829157811742168 -0.0033397855740556846 0 -0.0043361358497783498 -0.0046281136508803779 0 -0.0056108391065533862 -0.0035233768537666467 0 -0.004829157811742168 -0.0033397855740556846 0 -0.0049901894840462197 -0.004132072040616809 0 -0.004829157811742168 -0.0033397855740556846 0 -0.0049901894840462197 -0.004132072040616809 0 -0.0043361358497783498 -0.0046281136508803779 0 -0.0049901894840462197 -0.004132072040616809 0 -0.0043361358497783498 -0.0046281136508803779 0 -0.0044810295485145594 -0.0051334410607419825 0 -0.0037956294364431997 -0.0055520946186978374 0 -0.0043361358497783498 -0.0046281136508803779 0 -0.0044810295485145594 -0.0051334410607419825 0 -0.0049901894840462197 -0.004132072040616809 0 -0.0044810295485145594 -0.0051334410607419825 0 -0.0053404703703651274 -0.0043918892322990675 0 -0.0044810295485145594 -0.0051334410607419825 0 -0.0053404703703651274 -0.0043918892322990675 0 -0.004881595080920253 -0.0051907648526141872 0 0.002030361780792135 -0.0033793990402969771 0 0.0011805124234713124 -0.0025373233839288962 0 0.0011723588898696433 -0.0028053407812206575 0 0.002030361780792135 -0.0033793990402969771 0 0.0019008014724690039 -0.0037135654084067262 0 0.0011723588898696433 -0.0028053407812206575 0 -0.0048361277978813504 -0.0027851750670124563 0 -0.0043676918103152489 -0.007538748106928967 0 -0.0056108391065533862 -0.0035233768537666467 0 -0.0049901894840462197 -0.004132072040616809 0 -0.0053404703703651274 -0.0043918892322990675 0 0.0015371764825742986 -0.0025378670457693242 0 0.002030361780792135 -0.0033793990402969771 0 0.0011805124234713124 -0.0025373233839288962 0 -0.0044211443615622932 -0.0031922741542084205 0 -0.0048361277978813504 -0.0027851750670124563 0 0.002030361780792135 -0.0033793990402969771 0 0.0019008014724690039 -0.0037135654084067262 0 0.0026342115911639013 -0.0042052550446169366 0 -0.0043676918103152489 -0.007538748106928967 0 -0.0072381663396731402 -0.00019871411673942751 0 -0.004881595080920253 -0.0051907648526141872 0 -0.0041420253605815721 -0.0058591711891173171 0 -0.0042314622376318448 -0.0060363859875978325 0 0.0019008014724690039 -0.0037135654084067262 0 0.0026342115911639013 -0.0042052550446169366 0 0.0032893294105869829 -0.0050238957955958266 0 0.0019008014724690039 -0.0037135654084067262 0 0.0032893294105869829 -0.0050238957955958266 0 0.0023158209203143752 -0.0042511357682430122 0 -0.0037956294364431997 -0.0055520946186978374 0 -0.0044810295485145594 -0.0051334410607419825 0 -0.0035982490623980832 -0.0063265531034632262 0 -0.0044810295485145594 -0.0051334410607419825 0 -0.0041420253605815721 -0.0058591711891173171 0 -0.0035982490623980832 -0.0063265531034632262 0 -0.0044810295485145594 -0.0051334410607419825 0 -0.004881595080920253 -0.0051907648526141872 0 -0.0041420253605815721 -0.0058591711891173171 0 -0.0041420253605815721 -0.0058591711891173171 0 -0.0035982490623980832 -0.0063265531034632262 0 -0.0034993249974950716 -0.0066413886397410716 0 -0.0027025438680697649 -0.0076116623445778749 0 -0.0035982490623980832 -0.0063265531034632262 0 -0.0034993249974950716 -0.0066413886397410716 0 -0.0041420253605815721 -0.0058591711891173171 0 -0.0034993249974950716 -0.0066413886397410716 0 -0.0042314622376318448 -0.0060363859875978325 0 -0.0034993249974950716 -0.0066413886397410716 0 -0.0042314622376318448 -0.0060363859875978325 0 -0.0034017467960584737 -0.006802117133801403 0 -0.0034993249974950716 -0.0066413886397410716 0 -0.0028044936799816312 -0.0073889012692563627 0 -0.0034017467960584737 -0.006802117133801403 0 -0.0027025438680697649 -0.0076116623445778749 0 -0.0034993249974950716 -0.0066413886397410716 0 -0.0028044936799816312 -0.0073889012692563627 0 0.0032893294105869829 -0.0050238957955958266 0 0.0030766896267324945 -0.0049896700716937411 0 0.0023158209203143752 -0.0042511357682430122 0 -0.0072381663396731402 -0.00019871411673942751 0 0.0017035846611747755 -0.013026447987714585 0 0.0032893294105869829 -0.0050238957955958266 0 0.0041453404333568348 -0.005816607325804227 0 0.0030766896267324945 -0.0049896700716937411 0 0.0041453404333568348 -0.005816607325804227 0 0.0030766896267324945 -0.0049896700716937411 0 0.0031886534674262887 -0.0052495523659644161 0 0.0030766896267324945 -0.0049896700716937411 0 0.0023961269631940477 -0.0044075014457232086 0 0.0031886534674262887 -0.0052495523659644161 0 0.0023961269631940477 -0.0044075014457232086 0 0.0031886534674262887 -0.0052495523659644161 0 0.0022768166732003645 -0.0043513343338307279 0 0.0023961269631940477 -0.0044075014457232086 0 0.0023158209203143752 -0.0042511357682430122 0 0.0017219438083392589 -0.0036262538142396109 0 0.0030766896267324945 -0.0049896700716937411 0 0.0023961269631940477 -0.0044075014457232086 0 0.0023158209203143752 -0.0042511357682430122 0 0.0023961269631940477 -0.0044075014457232086 0 0.0017219438083392589 -0.0036262538142396109 0 0.0022768166732003645 -0.0043513343338307279 0 0.0017219438083392589 -0.0036262538142396109 0 0.0015700935371926719 -0.0033390232274989333 0 0.0010231144689603756 -0.0026097695161258379 0 0.0015700935371926719 -0.0033390232274989333 0 0.0010231144689603756 -0.0026097695161258379 0 0.00074130234292916423 -0.0019312709897117556 0 0.0017219438083392589 -0.0036262538142396109 0 0.0022768166732003645 -0.0043513343338307279 0 0.0015700935371926719 -0.0033390232274989333 0 0.0017219438083392589 -0.0036262538142396109 0 0.0010231144689603756 -0.0026097695161258379 0 0.0013097267857567652 -0.003104120800843599 0 0.0010231144689603756 -0.0026097695161258379 0 0.00057109974038643254 -0.0019987447812261057 0 0.0013097267857567652 -0.003104120800843599 0 0.0010231144689603756 -0.0026097695161258379 0 0.00057109974038643254 -0.0019987447812261057 0 0.00032585421940403188 -0.0013908198560114448 0 0.00057109974038643254 -0.0019987447812261057 0 0.0013097267857567652 -0.003104120800843599 0 0.00071986062630282038 -0.0022603423504042549 0 0.0019008014724690039 -0.0037135654084067262 0 0.0013097267857567652 -0.003104120800843599 0 0.0011723588898696433 -0.0028053407812206575 0 0.0019008014724690039 -0.0037135654084067262 0 0.0023158209203143752 -0.0042511357682430122 0 0.0013097267857567652 -0.003104120800843599 0 0.0023158209203143752 -0.0042511357682430122 0 0.0017219438083392589 -0.0036262538142396109 0 0.0013097267857567652 -0.003104120800843599 0 -1.107279343394073e-07 -7.0105987974750371e-07 0 0.00025464476010275314 -0.00062540411128824032 0 0.00029320878023856548 -0.00094958585795003379 0 -1.107279343394073e-07 -7.0105987974750371e-07 0 6.2236292029634975e-07 -1.4124908764567426e-06 0 0.00025464476010275314 -0.00062540411128824032 0 6.2236292029634975e-07 -1.4124908764567426e-06 0 0.00063834611983622648 -0.001209371555599821 0 0.00025464476010275314 -0.00062540411128824032 0 0.00063834611983622648 -0.001209371555599821 0 0.00025464476010275314 -0.00062540411128824032 0 0.00065543626395257097 -0.0015244087586431629 0 0.00025464476010275314 -0.00062540411128824032 0 0.00029320878023856548 -0.00094958585795003379 0 0.00065543626395257097 -0.0015244087586431629 0 0.00029320878023856548 -0.00094958585795003379 0 0.00065543626395257097 -0.0015244087586431629 0 0.00074130234292916423 -0.0019312709897117556 0 0.00065543626395257097 -0.0015244087586431629 0 0.0010853774744057488 -0.002291656334373737 0 0.00074130234292916423 -0.0019312709897117556 0 0.00063834611983622648 -0.001209371555599821 0 0.00065543626395257097 -0.0015244087586431629 0 0.0010853774744057488 -0.002291656334373737 0 0.0015700935371926719 -0.0033390232274989333 0 0.0010853774744057488 -0.002291656334373737 0 0.00074130234292916423 -0.0019312709897117556 0 0.0010231144689603756 -0.0026097695161258379 0 0.00074130234292916423 -0.0019312709897117556 0 0.00032585421940403188 -0.0013908198560114448 0 0.00057109974038643254 -0.0019987447812261057 0 0.00032585421940403188 -0.0013908198560114448 0 0.00013902109173498961 -0.0012280273573836422 0 0.00032585421940403188 -0.0013908198560114448 0 7.3263400962186135e-05 -0.00061157983673540189 0 -3.1875162340047055e-06 -0.0006884449717415778 0 0.00029320878023856548 -0.00094958585795003379 0 0.00074130234292916423 -0.0019312709897117556 0 0.00032585421940403188 -0.0013908198560114448 0 0.00029320878023856548 -0.00094958585795003379 0 0.00032585421940403188 -0.0013908198560114448 0 7.3263400962186135e-05 -0.00061157983673540189 0 -1.107279343394073e-07 -7.0105987974750371e-07 0 0.00029320878023856548 -0.00094958585795003379 0 7.3263400962186135e-05 -0.00061157983673540189 0 7.3263400962186135e-05 -0.00061157983673540189 0 1.0097083760326167e-07 -7.4882542199140784e-07 0 -1.3757015115581788e-07 -4.7062558526189179e-07 0 -1.107279343394073e-07 -7.0105987974750371e-07 0 7.3263400962186135e-05 -0.00061157983673540189 0 1.0097083760326167e-07 -7.4882542199140784e-07 0 -1.3757015115581788e-07 -4.7062558526189179e-07 0 -6.922781706604539e-05 -0.0003303446112047333 0 -3.4221764551261329e-08 -4.3410647245335541e-07 0 7.3263400962186135e-05 -0.00061157983673540189 0 -1.3757015115581788e-07 -4.7062558526189179e-07 0 -3.1875162340047055e-06 -0.0006884449717415778 0 -3.1875162340047055e-06 -0.0006884449717415778 0 -6.922781706604539e-05 -0.0003303446112047333 0 -9.8523327059875295e-05 -0.00064663073775827942 0 -1.3757015115581788e-07 -4.7062558526189179e-07 0 -3.1875162340047055e-06 -0.0006884449717415778 0 -6.922781706604539e-05 -0.0003303446112047333 0 -3.1875162340047055e-06 -0.0006884449717415778 0 0.00013902109173498961 -0.0012280273573836422 0 -9.8523327059875295e-05 -0.00064663073775827942 0 0.00032585421940403188 -0.0013908198560114448 0 -3.1875162340047055e-06 -0.0006884449717415778 0 0.00013902109173498961 -0.0012280273573836422 0 0.00013902109173498961 -0.0012280273573836422 0 4.1598700085613781e-06 -0.0010346958302263677 0 -9.8523327059875295e-05 -0.00064663073775827942 0 0.00013902109173498961 -0.0012280273573836422 0 4.1598700085613781e-06 -0.0010346958302263677 0 0.00027929809371194368 -0.0015653052118558535 0 4.1598700085613781e-06 -0.0010346958302263677 0 -0.00012628376800378243 -0.00071425893796215093 0 -9.8523327059875295e-05 -0.00064663073775827942 0 -0.00012628376800378243 -0.00071425893796215093 0 -3.6786310935637761e-06 -0.0010765843737278048 0 -0.00020463872912660638 -0.00055422379309618764 0 4.1598700085613781e-06 -0.0010346958302263677 0 -0.00012628376800378243 -0.00071425893796215093 0 -3.6786310935637761e-06 -0.0010765843737278048 0 -0.00012628376800378243 -0.00071425893796215093 0 -9.8523327059875295e-05 -0.00064663073775827942 0 -0.00015898558007002329 -0.00034051289741979658 0 -6.922781706604539e-05 -0.0003303446112047333 0 -9.8523327059875295e-05 -0.00064663073775827942 0 -9.6377243082984733e-05 -0.00024390409273908852 0 -9.8523327059875295e-05 -0.00064663073775827942 0 -9.6377243082984733e-05 -0.00024390409273908852 0 -0.00015898558007002329 -0.00034051289741979658 0 -9.6377243082984733e-05 -0.00024390409273908852 0 -0.00015898558007002329 -0.00034051289741979658 0 -1.0014560047544538e-07 -3.1032263831154261e-07 0 -9.6377243082984733e-05 -0.00024390409273908852 0 -3.4221764551261329e-08 -4.3410647245335541e-07 0 -1.0014560047544538e-07 -3.1032263831154261e-07 0 -6.922781706604539e-05 -0.0003303446112047333 0 -9.6377243082984733e-05 -0.00024390409273908852 0 -3.4221764551261329e-08 -4.3410647245335541e-07 0 0.00044102387122958053 -0.0018324915794396437 0 0.0011723588898696433 -0.0028053407812206575 0 0.00065930447880488006 -0.0020025900134608833 0 0.00044102387122958053 -0.0018324915794396437 0 0.0011723588898696433 -0.0028053407812206575 0 0.00071986062630282038 -0.0022603423504042549 0 0.0011805124234713124 -0.0025373233839288962 0 0.0011723588898696433 -0.0028053407812206575 0 0.00065930447880488006 -0.0020025900134608833 0 0.0013097267857567652 -0.003104120800843599 0 0.0011723588898696433 -0.0028053407812206575 0 0.00071986062630282038 -0.0022603423504042549 0 0.00057109974038643254 -0.0019987447812261057 0 0.00071986062630282038 -0.0022603423504042549 0 0.00027929809371194368 -0.0015653052118558535 0 0.00057109974038643254 -0.0019987447812261057 0 0.00013902109173498961 -0.0012280273573836422 0 0.00027929809371194368 -0.0015653052118558535 0 0.00044102387122958053 -0.0018324915794396437 0 0.00071986062630282038 -0.0022603423504042549 0 0.00027929809371194368 -0.0015653052118558535 0 0.00044102387122958053 -0.0018324915794396437 0 -3.6786310935637761e-06 -0.0010765843737278048 0 0.00020558961764900353 -0.001390915787278833 0 0.00044102387122958053 -0.0018324915794396437 0 0.00027929809371194368 -0.0015653052118558535 0 -3.6786310935637761e-06 -0.0010765843737278048 0 4.1598700085613781e-06 -0.0010346958302263677 0 0.00027929809371194368 -0.0015653052118558535 0 -3.6786310935637761e-06 -0.0010765843737278048 0 -3.6786310935637761e-06 -0.0010765843737278048 0 0.00020558961764900353 -0.001390915787278833 0 -7.8687579968291505e-05 -0.00089818057552465348 0 0.00020558961764900353 -0.001390915787278833 0 0.00065930447880488006 -0.0020025900134608833 0 0.00039964914414554399 -0.0015467907947920221 0 0.00044102387122958053 -0.0018324915794396437 0 0.00020558961764900353 -0.001390915787278833 0 0.00065930447880488006 -0.0020025900134608833 0 0.00078141595388714509 -0.0019088660396807944 0 0.0011805124234713124 -0.0025373233839288962 0 0.00065930447880488006 -0.0020025900134608833 0 0.00078141595388714509 -0.0019088660396807944 0 0.00065930447880488006 -0.0020025900134608833 0 0.00039964914414554399 -0.0015467907947920221 0 0.00078141595388714509 -0.0019088660396807944 0 0.00039964914414554399 -0.0015467907947920221 0 0.00038951435778566816 -0.0013684369181146091 0 0.00039964914414554399 -0.0015467907947920221 0 0.00038951435778566816 -0.0013684369181146091 0 7.2039337939614259e-05 -0.0011008346609433469 0 0.00038951435778566816 -0.0013684369181146091 0 6.1700578223554251e-05 -0.00098251857489806268 0 7.2039337939614259e-05 -0.0011008346609433469 0 0.00038951435778566816 -0.0013684369181146091 0 6.1700578223554251e-05 -0.00098251857489806268 0 0.00016956144061628202 -0.0010025751958555413 0 6.1700578223554251e-05 -0.00098251857489806268 0 7.2039337939614259e-05 -0.0011008346609433469 0 -0.0001126400532173369 -0.00076888341788736571 0 0.00020558961764900353 -0.001390915787278833 0 0.00039964914414554399 -0.0015467907947920221 0 7.2039337939614259e-05 -0.0011008346609433469 0 0.00020558961764900353 -0.001390915787278833 0 7.2039337939614259e-05 -0.0011008346609433469 0 -7.8687579968291505e-05 -0.00089818057552465348 0 -3.6786310935637761e-06 -0.0010765843737278048 0 -7.8687579968291505e-05 -0.00089818057552465348 0 -0.00020463872912660638 -0.00055422379309618764 0 -7.8687579968291505e-05 -0.00089818057552465348 0 -0.00021772781380022737 -0.00056292459213206627 0 -0.00020463872912660638 -0.00055422379309618764 0 7.2039337939614259e-05 -0.0011008346609433469 0 -7.8687579968291505e-05 -0.00089818057552465348 0 -0.0001126400532173369 -0.00076888341788736571 0 -7.8687579968291505e-05 -0.00089818057552465348 0 -0.00021772781380022737 -0.00056292459213206627 0 -0.0001126400532173369 -0.00076888341788736571 0 -0.00021772781380022737 -0.00056292459213206627 0 -0.00025894068732499465 -0.00047153017008217128 0 -0.0001126400532173369 -0.00076888341788736571 0 -0.00021772781380022737 -0.00056292459213206627 0 -0.00026104423534438373 -0.00032739117804347884 0 -0.00029465066665691753 -0.00029715543399063966 0 -0.00021772781380022737 -0.00056292459213206627 0 -0.00025894068732499465 -0.00047153017008217128 0 -0.00029465066665691753 -0.00029715543399063966 0 -0.00025894068732499465 -0.00047153017008217128 0 -0.00013223207528791797 -0.00068661483505134426 0 -0.00039382266985442459 -0.00031920974300815932 0 -0.00013223207528791797 -0.00068661483505134426 0 -0.00039382266985442459 -0.00031920974300815932 0 -0.00015018156710506488 -0.00061056856656135949 0 6.1700578223554251e-05 -0.00098251857489806268 0 -0.00013223207528791797 -0.00068661483505134426 0 0.00016956144061628202 -0.0010025751958555413 0 -0.00025894068732499465 -0.00047153017008217128 0 -0.00013223207528791797 -0.00068661483505134426 0 -0.0001126400532173369 -0.00076888341788736571 0 6.1700578223554251e-05 -0.00098251857489806268 0 -0.00013223207528791797 -0.00068661483505134426 0 -0.0001126400532173369 -0.00076888341788736571 0 -8.5402952960251287e-08 -2.3150967251529245e-07 0 -0.00010149492248230245 -0.00014737490450446894 0 -0.00018999438307946154 -0.00024869064489369263 0 -8.5402952960251287e-08 -2.3150967251529245e-07 0 -0.00018999438307946154 -0.00024869064489369263 0 -0.00012986913152408807 -0.0001198681304655069 0 -0.00015898558007002329 -0.00034051289741979658 0 -1.0014560047544538e-07 -3.1032263831154261e-07 0 -0.00010149492248230245 -0.00014737490450446894 0 -8.5402952960251287e-08 -2.3150967251529245e-07 0 -1.0014560047544538e-07 -3.1032263831154261e-07 0 -0.00010149492248230245 -0.00014737490450446894 0 -0.00015898558007002329 -0.00034051289741979658 0 -0.00010149492248230245 -0.00014737490450446894 0 -0.00018999438307946154 -0.00024869064489369263 0 -0.00018999438307946154 -0.00024869064489369263 0 -0.00020463872912660638 -0.00055422379309618764 0 -0.00023780966724305899 -0.00038474525513485435 0 -0.00015898558007002329 -0.00034051289741979658 0 -0.00018999438307946154 -0.00024869064489369263 0 -0.00020463872912660638 -0.00055422379309618764 0 -0.00012628376800378243 -0.00071425893796215093 0 -0.00015898558007002329 -0.00034051289741979658 0 -0.00020463872912660638 -0.00055422379309618764 0 -0.00021772781380022737 -0.00056292459213206627 0 -0.00020463872912660638 -0.00055422379309618764 0 -0.00023780966724305899 -0.00038474525513485435 0 -0.00023780966724305899 -0.00038474525513485435 0 -0.00026104423534438373 -0.00032739117804347884 0 -0.0002187136512152084 -0.0002189328320435044 0 -0.00021772781380022737 -0.00056292459213206627 0 -0.00023780966724305899 -0.00038474525513485435 0 -0.00026104423534438373 -0.00032739117804347884 0 -0.00026104423534438373 -0.00032739117804347884 0 -0.00025420761120418048 -0.00020775926716262797 0 -0.00029465066665691753 -0.00029715543399063966 0 -0.00026104423534438373 -0.00032739117804347884 0 -0.0002187136512152084 -0.0002189328320435044 0 -0.00025420761120418048 -0.00020775926716262797 0 -0.0002187136512152084 -0.0002189328320435044 0 -0.00015008064342767637 -0.00010613849868812928 0 -0.00025420761120418048 -0.00020775926716262797 0 -0.00018999438307946154 -0.00024869064489369263 0 -0.00023780966724305899 -0.00038474525513485435 0 -0.0002187136512152084 -0.0002189328320435044 0 -0.00018999438307946154 -0.00024869064489369263 0 -0.0002187136512152084 -0.0002189328320435044 0 -0.00012986913152408807 -0.0001198681304655069 0 -0.0002187136512152084 -0.0002189328320435044 0 -0.00012986913152408807 -0.0001198681304655069 0 -0.00015008064342767637 -0.00010613849868812928 0 -0.00012986913152408807 -0.0001198681304655069 0 -7.9848014759096527e-08 -1.5613025783508344e-07 0 -0.00015008064342767637 -0.00010613849868812928 0 -8.5402952960251287e-08 -2.3150967251529245e-07 0 -0.00012986913152408807 -0.0001198681304655069 0 -7.9848014759096527e-08 -1.5613025783508344e-07 0 -4.6143974696324409e-08 -1.0953658593831463e-07 0 -8.8901876510007283e-05 -5.5532814337901144e-05 0 -6.5211276961502842e-08 -7.7958259484579557e-08 0 -7.9848014759096527e-08 -1.5613025783508344e-07 0 -4.6143974696324409e-08 -1.0953658593831463e-07 0 -0.00015008064342767637 -0.00010613849868812928 0 -4.6143974696324409e-08 -1.0953658593831463e-07 0 -0.00015008064342767637 -0.00010613849868812928 0 -8.8901876510007283e-05 -5.5532814337901144e-05 0 -0.00015008064342767637 -0.00010613849868812928 0 -8.8901876510007283e-05 -5.5532814337901144e-05 0 -0.00018146473821445966 -9.7986028869804639e-05 0 -0.00015008064342767637 -0.00010613849868812928 0 -0.00018146473821445966 -9.7986028869804639e-05 0 -0.00025420761120418048 -0.00020775926716262797 0 -0.00025420761120418048 -0.00020775926716262797 0 -0.00025838075100818023 -0.00014210395507806427 0 -0.00029465066665691753 -0.00029715543399063966 0 -0.00018146473821445966 -9.7986028869804639e-05 0 -0.00025420761120418048 -0.00020775926716262797 0 -0.00025838075100818023 -0.00014210395507806427 0 -0.00025838075100818023 -0.00014210395507806427 0 -0.00020073352901047692 -9.2157374281610539e-05 0 -0.00030915557691627352 -0.00010165436434957643 0 -0.00018146473821445966 -9.7986028869804639e-05 0 -0.00025838075100818023 -0.00014210395507806427 0 -0.00020073352901047692 -9.2157374281610539e-05 0 -0.00020073352901047692 -9.2157374281610539e-05 0 -0.00017698431345256052 -7.2138476411332293e-05 0 -8.2148817327129113e-05 -6.4153470378987856e-05 0 -6.6684595276578478e-05 -9.9027188125772595e-05 0 -0.00017698431345256052 -7.2138476411332293e-05 0 -8.2148817327129113e-05 -6.4153470378987856e-05 0 -0.00018146473821445966 -9.7986028869804639e-05 0 -0.00020073352901047692 -9.2157374281610539e-05 0 -8.2148817327129113e-05 -6.4153470378987856e-05 0 -8.8901876510007283e-05 -5.5532814337901144e-05 0 -8.2148817327129113e-05 -6.4153470378987856e-05 0 -6.5211276961502842e-08 -7.7958259484579557e-08 0 -8.8901876510007283e-05 -5.5532814337901144e-05 0 -0.00018146473821445966 -9.7986028869804639e-05 0 -8.2148817327129113e-05 -6.4153470378987856e-05 0 1.7333137711831184e-08 -8.8945413328641725e-08 0 -8.2148817327129113e-05 -6.4153470378987856e-05 0 -6.5211276961502842e-08 -7.7958259484579557e-08 0 -0.00039382266985442459 -0.00031920974300815932 0 -0.00035875256105691918 -0.00023593509460915861 0 -0.0004488270458188015 -5.8565422462124602e-05 0 -0.00039382266985442459 -0.00031920974300815932 0 -0.0004488270458188015 -5.8565422462124602e-05 0 -0.00071645980422708382 1.5212289381494793e-05 0 -0.00025894068732499465 -0.00047153017008217128 0 -0.00039382266985442459 -0.00031920974300815932 0 -0.00035875256105691918 -0.00023593509460915861 0 -0.00025894068732499465 -0.00047153017008217128 0 -0.00035875256105691918 -0.00023593509460915861 0 -0.00029465066665691753 -0.00029715543399063966 0 -0.00025838075100818023 -0.00014210395507806427 0 -0.00029465066665691753 -0.00029715543399063966 0 -0.00030915557691627352 -0.00010165436434957643 0 -0.00035875256105691918 -0.00023593509460915861 0 -0.00029465066665691753 -0.00029715543399063966 0 -0.00030915557691627352 -0.00010165436434957643 0 -0.00035875256105691918 -0.00023593509460915861 0 -0.00030915557691627352 -0.00010165436434957643 0 -0.0004488270458188015 -5.8565422462124602e-05 0 -0.00030915557691627352 -0.00010165436434957643 0 -0.00032335313750036869 -4.6003205263784329e-05 0 -0.0004488270458188015 -5.8565422462124602e-05 0 -0.00020073352901047692 -9.2157374281610539e-05 0 -0.00017698431345256052 -7.2138476411332293e-05 0 -0.00030915557691627352 -0.00010165436434957643 0 -0.00019257097254654973 -9.3234975356264486e-05 0 -0.00017698431345256052 -7.2138476411332293e-05 0 -0.00032335313750036869 -4.6003205263784329e-05 0 -0.00017698431345256052 -7.2138476411332293e-05 0 -0.00030915557691627352 -0.00010165436434957643 0 -0.00032335313750036869 -4.6003205263784329e-05 0 -0.00032335313750036869 -4.6003205263784329e-05 0 -0.00049263447865990353 -4.8224565471721671e-06 0 -0.0004488270458188015 -5.8565422462124602e-05 0 -0.00049263447865990353 -4.8224565471721671e-06 0 -0.0004488270458188015 -5.8565422462124602e-05 0 -0.00071645980422708382 1.5212289381494793e-05 0 -0.00081452154087622599 6.4722852696632956e-05 0 -0.00049263447865990353 -4.8224565471721671e-06 0 -0.00071645980422708382 1.5212289381494793e-05 0 -0.00081452154087622599 6.4722852696632956e-05 0 -0.0017294858890544386 0.00030910547716292593 0 -0.00071645980422708382 1.5212289381494793e-05 0 -0.0017294858890544386 0.00030910547716292593 0 -0.0033021860822066169 0.000769676282474474 0 -0.0030106049617503699 0.00095944721195391318 0 -0.0017294858890544386 0.00030910547716292593 0 -0.00082437419347242331 -0.00022705414031334777 0 -0.00071645980422708382 1.5212289381494793e-05 0 -0.01927605429860068 0.0029247095519277766 0 0.002237748976964677 -0.0015011963491042986 0 -0.00082437419347242331 -0.00022705414031334777 0 -0.00071645980422708382 1.5212289381494793e-05 0 -0.00047650196294992433 -0.00027886408430002554 0 -0.00039382266985442459 -0.00031920974300815932 0 -0.00071645980422708382 1.5212289381494793e-05 0 -0.00047650196294992433 -0.00027886408430002554 0 0.002237748976964677 -0.0015011963491042986 0 -0.0042485200828403166 0.00058234216752661 0 -0.00082437419347242331 -0.00022705414031334777 0 -0.00047650196294992433 -0.00027886408430002554 0 -0.00019375375976556246 -0.00052011896724282248 0 -0.0042485200828403166 0.00058234216752661 0 -0.0031595986400928117 -0.00088472531003680824 0 -0.00047650196294992433 -0.00027886408430002554 0 -0.00019375375976556246 -0.00052011896724282248 0 -0.00015018156710506488 -0.00061056856656135949 0 -0.00039382266985442459 -0.00031920974300815932 0 -0.00047650196294992433 -0.00027886408430002554 0 -0.00015018156710506488 -0.00061056856656135949 0 -0.00428447254096053 0.00018255501566794206 0 -0.0036372125090729499 0.0009170542007924604 0 -0.0039706375781552719 0.00041245676436011156 0 -0.0043064975414715163 0.00034095288067016049 0 -0.00428447254096053 0.00018255501566794206 0 -0.0050751964346197722 -0.00046983217597337151 0 -0.0043064975414715163 0.00034095288067016049 0 -0.00428447254096053 0.00018255501566794206 0 -0.0036372125090729499 0.0009170542007924604 0 -0.0033021860822066169 0.000769676282474474 0 -0.0043064975414715163 0.00034095288067016049 0 -0.0036372125090729499 0.0009170542007924604 0 -0.0036372125090729499 0.0009170542007924604 0 -0.0030106049617503699 0.00095944721195391318 0 -0.0033840458084019986 0.001216527382781584 0 -0.0033021860822066169 0.000769676282474474 0 -0.0036372125090729499 0.0009170542007924604 0 -0.0030106049617503699 0.00095944721195391318 0 -0.0027758536670680067 0.00075585600372582191 0 -0.0017294858890544386 0.00030910547716292593 0 -0.0030106049617503699 0.00095944721195391318 0 -0.0027758536670680067 0.00075585600372582191 0 -0.0030106049617503699 0.00095944721195391318 0 -0.0033840458084019986 0.001216527382781584 0 -0.0036372125090729499 0.0009170542007924604 0 -0.0033840458084019986 0.001216527382781584 0 -0.0037672963773745594 0.00091143620479646674 0 -0.0033840458084019986 0.001216527382781584 0 -0.0036224982444934876 0.0014686597287835944 0 -0.0037672963773745594 0.00091143620479646674 0 -0.003278693432965571 0.0014751034966286566 0 -0.0033840458084019986 0.001216527382781584 0 -0.0036224982444934876 0.0014686597287835944 0 -0.0034585459753241642 0.0019837455225745759 0 -0.0036184812158461341 0.0018541598287912862 0 -0.0036224982444934876 0.0014686597287835944 0 -0.0034585459753241642 0.0019837455225745759 0 -0.003278693432965571 0.0014751034966286566 0 -0.0036224982444934876 0.0014686597287835944 0 -0.0036184812158461341 0.0018541598287912862 0 -0.0036467889102099536 0.001031615903593871 0 -0.0036224982444934876 0.0014686597287835944 0 -0.0036467889102099536 0.001031615903593871 0 -0.0036923963513947845 0.00089182607848479307 0 -0.003598547479868828 8.7934014947764816e-05 0 -0.0036467889102099536 0.001031615903593871 0 -0.0036224982444934876 0.0014686597287835944 0 -0.0036923963513947845 0.00089182607848479307 0 -0.0036923963513947845 0.00089182607848479307 0 -0.0037621046222779835 0.0002498013963435216 0 -0.0037672963773745594 0.00091143620479646674 0 -0.0036224982444934876 0.0014686597287835944 0 -0.0036923963513947845 0.00089182607848479307 0 -0.0037672963773745594 0.00091143620479646674 0 -0.0036923963513947845 0.00089182607848479307 0 -0.0037621046222779835 0.0002498013963435216 0 -0.003598547479868828 8.7934014947764816e-05 0 -0.0036372125090729499 0.0009170542007924604 0 -0.0037672963773745594 0.00091143620479646674 0 -0.0039706375781552719 0.00041245676436011156 0 -0.0037621046222779835 0.0002498013963435216 0 -0.0037672963773745594 0.00091143620479646674 0 -0.0039512525279320389 -0.00022136592340107618 0 -0.0037672963773745594 0.00091143620479646674 0 -0.0039706375781552719 0.00041245676436011156 0 -0.0039512525279320389 -0.00022136592340107618 0 -0.0039706375781552719 0.00041245676436011156 0 -0.0039512525279320389 -0.00022136592340107618 0 -0.0043988282943823809 -0.00049440814006356567 0 -0.0039512525279320389 -0.00022136592340107618 0 -0.0036617052987243681 -0.00071046975704331988 0 -0.0038304514054130663 -0.0014887178748486472 0 -0.0039512525279320389 -0.00022136592340107618 0 -0.0042398615212149359 -0.0011369023410572753 0 -0.0038304514054130663 -0.0014887178748486472 0 -0.0039512525279320389 -0.00022136592340107618 0 -0.0042398615212149359 -0.0011369023410572753 0 -0.0043988282943823809 -0.00049440814006356567 0 -0.003598547479868828 8.7934014947764816e-05 0 -0.0033334420516513063 -0.0010031331822540558 0 -0.0036617052987243681 -0.00071046975704331988 0 -0.0037621046222779835 0.0002498013963435216 0 -0.003598547479868828 8.7934014947764816e-05 0 -0.0036617052987243681 -0.00071046975704331988 0 -0.0037621046222779835 0.0002498013963435216 0 -0.0039512525279320389 -0.00022136592340107618 0 -0.0036617052987243681 -0.00071046975704331988 0 -0.0036617052987243681 -0.00071046975704331988 0 -0.0032746466349332895 -0.002025967592275833 0 -0.0038304514054130663 -0.0014887178748486472 0 -0.0033334420516513063 -0.0010031331822540558 0 -0.0036617052987243681 -0.00071046975704331988 0 -0.0032746466349332895 -0.002025967592275833 0 -0.002571557198560049 -0.0030630837273336901 0 -0.0032746466349332895 -0.002025967592275833 0 -0.0028993185960221697 -0.0034154936976759837 0 -0.0032746466349332895 -0.002025967592275833 0 -0.0035080682708840071 -0.0028683321730669921 0 -0.0038304514054130663 -0.0014887178748486472 0 -0.0032746466349332895 -0.002025967592275833 0 -0.0035080682708840071 -0.0028683321730669921 0 -0.0028993185960221697 -0.0034154936976759837 0 -0.0042398615212149359 -0.0011369023410572753 0 -0.0041002987905470432 -0.0023212949234703989 0 -0.0045614891496934835 -0.0018958994569806102 0 -0.0035080682708840071 -0.0028683321730669921 0 -0.0038304514054130663 -0.0014887178748486472 0 -0.0041002987905470432 -0.0023212949234703989 0 -0.0042398615212149359 -0.0011369023410572753 0 -0.0038304514054130663 -0.0014887178748486472 0 -0.0041002987905470432 -0.0023212949234703989 0 -0.0039916941054198851 -0.0035212850004450636 0 -0.0035080682708840071 -0.0028683321730669921 0 -0.0041002987905470432 -0.0023212949234703989 0 -0.0041002987905470432 -0.0023212949234703989 0 -0.0045140597536971272 -0.0026884039236139252 0 -0.0045614891496934835 -0.0018958994569806102 0 -0.0039916941054198851 -0.0035212850004450636 0 -0.0041002987905470432 -0.0023212949234703989 0 -0.0045140597536971272 -0.0026884039236139252 0 -0.0045140597536971272 -0.0026884039236139252 0 -0.0045614891496934835 -0.0018958994569806102 0 -0.005004886237572061 -0.0021971603044619163 0 -0.0045614891496934835 -0.0018958994569806102 0 -0.0048527409662382651 -0.0012331175988291709 0 -0.005004886237572061 -0.0021971603044619163 0 -0.0042398615212149359 -0.0011369023410572753 0 -0.0045614891496934835 -0.0018958994569806102 0 -0.0048527409662382651 -0.0012331175988291709 0 -0.0048527409662382651 -0.0012331175988291709 0 -0.005004886237572061 -0.0021971603044619163 0 -0.0055386996533531973 -0.0015256053635727034 0 0.00038951435778566816 -0.0013684369181146091 0 0.001066457806003277 -0.0018220216170012373 0 0.00064554781522451832 -0.0013198969586170272 0 -0.0042017311418458426 -0.0022626360482665493 0 -0.0039944146967359536 -0.0014505171856434055 0 -0.005004886237572061 -0.0021971603044619163 0 -0.005700384739811235 -0.0025894266245964342 0 -0.0055386996533531973 -0.0015256053635727034 0 0.00078141595388714509 -0.0019088660396807944 0 0.00038951435778566816 -0.0013684369181146091 0 0.001066457806003277 -0.0018220216170012373 0 0.00038951435778566816 -0.0013684369181146091 0 0.00064554781522451832 -0.0013198969586170272 0 0.00016956144061628202 -0.0010025751958555413 0 0.00064554781522451832 -0.0013198969586170272 0 0.00016956144061628202 -0.0010025751958555413 0 0.00024076934312380695 -0.0008996836668799539 0 -0.0048527409662382651 -0.0012331175988291709 0 -0.0055386996533531973 -0.0015256053635727034 0 -0.0050751964346197722 -0.00046983217597337151 0 -0.0039944146967359536 -0.0014505171856434055 0 -0.0031595986400928117 -0.00088472531003680824 0 0.00016956144061628202 -0.0010025751958555413 0 -0.00015018156710506488 -0.00061056856656135949 0 0.00024076934312380695 -0.0008996836668799539 0 -0.00013223207528791797 -0.00068661483505134426 0 0.00016956144061628202 -0.0010025751958555413 0 -0.00015018156710506488 -0.00061056856656135949 0 -0.00019375375976556246 -0.00052011896724282248 0 -0.00015018156710506488 -0.00061056856656135949 0 0.00024076934312380695 -0.0008996836668799539 0 -0.00428447254096053 0.00018255501566794206 0 -0.0050751964346197722 -0.00046983217597337151 0 -0.0043988282943823809 -0.00049440814006356567 0 -0.00428447254096053 0.00018255501566794206 0 -0.0039706375781552719 0.00041245676436011156 0 -0.0043988282943823809 -0.00049440814006356567 0 -0.0042398615212149359 -0.0011369023410572753 0 -0.0048527409662382651 -0.0012331175988291709 0 -0.0043988282943823809 -0.00049440814006356567 0 -0.0048527409662382651 -0.0012331175988291709 0 -0.0050751964346197722 -0.00046983217597337151 0 -0.0043988282943823809 -0.00049440814006356567 0 
</DataArray>
</PointData>
<CellData Scalars="region_id,cross_section_updated,displacement_divergence," Vectors="" Tensors="stress,">
<DataArray type="Float64" Name="region_id" format="ascii">
1 1 1 1 1 1 1 1 1 1 1 1 1 1 1 1 1 1 1 1 1 1 1 1 1 1 1 1 1 1 1 1 1 1 1 1 1 1 1 1 1 1 1 1 1 1 1 1 1 1 1 1 1 1 1 1 1 1 1 1 1 1 1 1 1 1 1 1 1 1 1 1 1 1 1 1 1 1 1 1 1 1 1 1 1 1 1 1 1 1 1 1 1 1 1 1 1 1 1 1 1 1 1 1 1 1 1 1 1 1 1 1 1 1 1 1 1 1 1 1 1 1 1 1 1 1 1 1 1 1 1 1 1 1 1 1 1 1 1 1 1 1 1 1 1 1 1 1 1 1 1 1 1 1 1 1 1 1 1 1 1 1 1 1 1 1 1 1 1 1 1 1 1 1 1 1 1 1 1 1 1 1 1 1 1 1 1 1 1 1 1 1 1 1 1 1 1 1 1 1 1 1 1 1 1 1 1 1 1 1 1 1 1 1 1 1 1 1 1 1 1 1 1 1 1 1 1 1 1 1 1 1 1 1 1 1 1 1 1 1 1 1 1 1 1 1 1 1 1 1 1 1 1 1 1 1 1 1 1 1 1 1 1 1 1 1 1 1 1 1 1 1 1 1 1 1 1 1 1 1 1 1 1 1 1 1 1 1 1 1 1 1 1 1 1 1 1 1 1 1 1 1 1 1 1 1 1 1 1 1 1 1 1 1 1 1 1 1 1 1 1 1 1 1 1 1 1 1 1 1 1 1 1 1 1 1 1 1 1 1 1 1 1 1 1 1 1 1 1 1 1 1 1 1 1 1 1 1 1 1 1 1 1 1 1 1 1 1 1 1 1 1 1 1 1 1 1 1 1 1 1 1 1 1 1 1 1 1 1 1 1 1 1 1 1 1 1 1 1 1 1 1 1 1 1 1 1 1 1 1 1 1 1 1 1 1 1 1 1 1 1 1 1 1 1 1 1 1 1 1 1 1 1 1 1 1 1 1 1 1 1 1 1 1 1 1 1 1 1 1 1 1 1 1 1 1 1 1 1 1 1 1 1 1 1 1 1 1 1 1 1 1 1 1 1 1 1 1 1 1 1 1 1 1 1 1 1 1 1 1 1 1 1 1 1 1 1 1 1 1 1 1 1 1 1 1 1 1 1 1 1 1 1 1 1 1 1 1 1 1 1 1 1 1 1 1 1 1 1 1 1 1 1 1 1 1 1 1 3 1 1 3 1 1 3 1 1 1 1 1 1 1 1 1 1 1 1 1 3 1 1 1 1 1 3 1 1 1 1 1 1 1 1 1 1 1 1 1 1 1 1 1 1 1 1 1 1 1 1 1 1 1 1 1 1 1 1 1 1 1 1 1 1 1 1 1 1 1 1 1 1 1 1 1 1 1 1 1 1 1 1 1 1 1 1 1 1 1 1 1 1 1 1 1 1 1 1 1 1 1 1 1 1 1 1 1 1 1 1 1 1 1 1 1 1 1 1 1 1 1 1 1 1 1 1 1 1 1 1 1 1 1 1 1 1 1 1 1 1 1 1 1 1 1 1 1 1 1 1 1 1 1 1 1 1 1 1 1 1 1 1 1 1 1 1 1 1 1 1 1 1 1 1 1 1 1 1 1 1 1 1 1 1 1 1 1 1 1 1 1 1 1 1 3 1 1 1 3 1 1 3 1 1 1 1 1 1 1 1 1 1 1 3 1 1 1 1 3 1 1 1 1 1 1 1 1 1 1 1 1 1 1 1 1 1 1 1 1 1 1 1 1 1 1 1 1 1 1 1 1 1 1 1 1 1 1 1 1 1 1 1 1 1 1 1 1 1 1 1 1 1 1 1 1 1 1 2 1 1 1 1 1 1 1 1 1 1 1 1 1 1 2 1 1 2 1 2 1 1 1 1 1 1 1 1 1 1 1 1 1 2 1 1 1 1 1 1 1 1 1 1 1 1 1 1 1 1 1 1 1 1 1 1 1 1 1 1 1 1 1 1 1 1 1 1 1 1 1 1 1 1 1 1 1 1 1 1 1 1 1 1 1 1 1 1 1 1 1 1 1 1 1 1 1 1 1 1 1 1 1 1 1 1 1 1 1 1 1 1 1 1 1 1 1 1 1 1 1 1 1 1 1 1 1 1 1 1 1 1 1 1 1 1 1 1 1 1 1 1 1 1 1 1 1 1 1 1 1 1 1 1 1 1 1 1 1 1 1 1 1 1 1 1 1 1 1 1 2 1 1 2 1 2 1 1 1 1 1 1 1 1 1 1 1 1 1 1 1 1 1 1 1 1 1 1 1 1 1 1 1 1 1 1 1 1 1 1 1 1 1 1 1 1 1 1 1 1 1 1 1 2 1 1 1 1 1 2 1 1 1 1 1 1 1 
</DataArray>
<DataArray type="Float64" Name="stress" NumberOfComponents="9" format="ascii">
-678.08226496501231 -240.30060718375682 0 -240.30060718375682 -2037.1195846222915 0 0 0 -678.80046239682599 -328.70675930129772 -269.12023965629942 0 -269.12023965629942 -2334.7782481663517 0 0 0 -665.8712518669123 -410.8198387431828 -123.15372425830731 0 -123.15372425830731 -1834.2499756748769 0 0 0 -561.26745360451491 -95.508877620151679 -167.11697378105737 0 -167.11697378105737 -2161.3874993780564 0 0 0 -564.22409424955208 -4.6679759565365373 8.0552603274409194 0 8.0552603274409194 -2051.3732696028424 0 0 0 -514.0103113898449 -26.113357326079949 42.319044424851114 0 42.319044424851114 -2107.1195687679146 0 0 0 -533.30823152349922 -110.9936437034111 -11.875142442215065 0 -11.875142442215065 -2034.8575409566051 0 0 0 -536.46279616500431 -28.212168825174103 -2.8414810845735659 0 -2.8414810845735659 -2005.2742153315253 0 0 0 -508.37159603917473 -55.741987906878194 35.00483701756707 0 35.00483701756707 -1968.5571638994097 0 0 0 -506.07478795157181 -86.074947860754492 103.47947963203842 0 103.47947963203842 -1913.8054253716864 0 0 0 -499.97009330810988 -196.82888468811689 31.136188547475626 0 31.136188547475626 -1795.1060274099109 0 0 0 -497.98372802450695 -118.39033870827996 129.56027211451806 0 129.56027211451806 -1629.8191357797164 0 0 0 -437.05236862199888 -289.00054262942308 9.8673753269463305 0 9.8673753269463305 -1668.1706093480448 0 0 0 -489.29278799436679 -176.70323627177754 54.491626797302047 0 54.491626797302047 -1700.3101276357581 0 0 0 -469.25334097688392 -570.90723985590466 -48.007679275454798 0 -48.007679275454798 -1713.314743629609 0 0 0 -571.0554958713783 -633.70039388679265 -161.86626573484529 0 -161.86626573484529 -1901.1565337791919 0 0 0 -633.71423191649626 -244.8710906352247 5.8266608750977351 0 5.8266608750977351 -1614.2942445468832 0 0 0 -464.7913337955269 -340.14958555622115 -60.02444872878965 0 -60.02444872878965 -1865.2453627721172 0 0 0 -551.34873708208443 -16.567885849941376 86.733744836563801 0 86.733744836563801 -2385.3184071277356 0 0 0 -600.47157324441878 2.1598326741182063 70.116142612019758 0 70.116142612019758 -2142.2757709653852 0 0 0 -535.02898457281708 -65.499626388219781 145.13526709134385 0 145.13526709134385 -2190.0462027119083 0 0 0 -563.8864572750316 -31.559067988823017 63.22980554169294 0 63.22980554169294 -2129.7603205774885 0 0 0 -540.32984714157874 7.4638011476270094 75.515472550710456 0 75.515472550710456 -2018.5739886908345 0 0 0 -502.77754688580205 -13.925126693992752 144.07509039597062 0 144.07509039597062 -1959.2500598231168 0 0 0 -493.29379662927727 -7.7112713615092616 74.418028673424487 0 74.418028673424487 -2224.6904942609408 0 0 0 -558.10044140561286 -31.057150289279434 129.69306668822878 0 129.69306668822878 -1774.1117540039741 0 0 0 -451.29222607331349 -147.19661366267016 131.72276515279873 0 131.72276515279873 -1812.8643170635328 0 0 0 -490.01523268155097 -52.396033978482592 129.57859347688941 0 129.57859347688941 -1955.5553742366919 0 0 0 -501.98785205379363 -93.211002963759597 194.7622583664438 0 194.7622583664438 -1935.3575895506979 0 0 0 -507.14214812861462 -45.339538510113243 212.51463282469672 0 212.51463282469672 -1782.4278734285444 0 0 0 -456.94185298466459 7.0006759282318853 200.11210705137228 0 200.11210705137228 -1912.4768185102839 0 0 0 -476.36903564551312 -59.881252719295844 193.03748171721077 0 193.03748171721077 -2259.6904284655611 0 0 0 -579.89292029621447 -63.947966624984474 276.05282938552756 0 276.05282938552756 -1643.9806164690417 0 0 0 -426.98214577350609 -160.08411033832954 268.49250688499387 0 268.49250688499387 -1670.7585148500557 0 0 0 -457.71065629709665 -119.36680099757245 215.16789691736744 0 215.16789691736744 -1362.1181561604262 0 0 0 -370.37123928949995 -158.2802212700683 149.72735903848161 0 149.72735903848161 -1371.9141150492405 0 0 0 -382.54858407982715 -97.385539169211597 154.69522592912745 0 154.69522592912745 -1609.8399277131762 0 0 0 -426.80636672059677 -165.97578440173857 224.4554786630199 0 224.4554786630199 -1612.6654863826498 0 0 0 -444.66031769609708 -185.49703976585965 176.40095241201732 0 176.40095241201732 -1476.7829362801858 0 0 0 -415.5699940115112 -211.9229006691196 146.10756771909683 0 146.10756771909683 -1137.6443998378763 0 0 0 -337.39182512674893 -234.48257186431766 191.60142687214011 0 191.60142687214011 -1116.5395764385823 0 0 0 -337.75553707572482 -210.38172247800003 205.84147981599756 0 205.84147981599756 -909.13575130086156 0 0 0 -279.87936844471506 -232.62594346602918 230.53124673133311 0 230.53124673133311 -1371.1362126527192 0 0 0 -400.94053902968676 -220.75217790503814 268.6835592753032 0 268.6835592753032 -1389.9889997853834 0 0 0 -402.6852944226049 -164.36584349896066 207.39608083713335 0 207.39608083713335 -1095.8233845773666 0 0 0 -315.0473070190817 -263.9604977582743 203.47167687396473 0 203.47167687396473 -1125.5829236370687 0 0 0 -347.38585534883589 -274.9603059892911 315.76800928126386 0 315.76800928126386 -1108.8526719337906 0 0 0 -345.95324448077054 -161.13459237270854 258.4330248535789 0 258.4330248535789 -1128.8387706323474 0 0 0 -322.49334075126399 -314.01842209943959 104.06554530594252 0 104.06554530594252 -1462.6991767308402 0 0 0 -444.17939970756993 -275.75032210405817 128.68765523519227 0 128.68765523519227 -1291.9470721233138 0 0 0 -391.92434855684303 -432.58234132787322 75.377092502533543 0 75.377092502533543 -1297.4916170536078 0 0 0 -432.51848959537028 -326.32995923316435 73.85441943488172 0 73.85441943488172 -1471.7225902053369 0 0 0 -449.51313735962526 -188.04532790672272 110.01984280378042 0 110.01984280378042 -1472.6133654595144 0 0 0 -415.16467334155942 -207.72488793094772 83.013216012529028 0 83.013216012529028 -1595.4061662676165 0 0 0 -450.78276354964146 -231.38104365817276 98.570768383044083 0 98.570768383044083 -1307.8212863897188 0 0 0 -384.80058251197283 -256.138696153588 93.884078683360599 0 93.884078683360599 -1470.6270497806877 0 0 0 -431.69143648356902 -222.80233087870454 174.61207841370987 0 174.61207841370987 -1258.3117979180101 0 0 0 -370.27853219917858 -259.02754535330052 99.511085688201547 0 99.511085688201547 -1084.9809279919145 0 0 0 -336.00211833630385 -258.24632697271034 156.24019812191864 0 156.24019812191864 -1037.650523923563 0 0 0 -323.97421272406837 -277.6279357153291 164.52609985159381 0 164.52609985159381 -1103.3743049858012 0 0 0 -345.25056017528249 -267.72093981263708 99.291474609480076 0 99.291474609480076 -1035.9435346658156 0 0 0 -325.91611861961326 -309.643186333833 87.718579430106331 0 87.718579430106331 -1264.6864263816638 0 0 0 -393.58240317887419 -316.25069985703965 158.35588393359376 0 158.35588393359376 -1182.3806782978602 0 0 0 -374.65784453872493 -362.353473488303 104.10679989104793 0 104.10679989104793 -1087.2992331012247 0 0 0 -362.41317664738187 -286.96196687376641 104.24593346140985 0 104.24593346140985 -860.85678596448645 0 0 0 -286.95468820956319 -320.40241282758006 185.97888821192902 0 185.97888821192902 -962.4211761966086 0 0 0 -320.70589725604714 -251.72225350113609 178.1341582104852 0 178.1341582104852 -768.18242837771061 0 0 0 -254.97617046971169 -216.39813383968485 105.80524966631593 0 105.80524966631593 -649.01130708622179 0 0 0 -216.35236023147667 -262.56823009545195 90.56731947049191 0 90.56731947049191 -513.70669523501226 0 0 0 -194.06873133261604 -221.72968024983075 100.15907980846927 0 100.15907980846927 -496.73281307745594 0 0 0 -179.61562333182167 -226.72383413494595 155.22746816938448 0 155.22746816938448 -572.17179098540612 0 0 0 -199.72390628008804 -167.89817234776669 94.260319594626566 0 94.260319594626566 -503.75249741304947 0 0 0 -167.91266744020405 -246.47973563828259 63.568771173234097 0 63.568771173234097 -445.03607082509689 0 0 0 -172.8789516158449 -291.71779862810695 117.65331973152439 0 117.65331973152439 -483.66946010236899 0 0 0 -193.846814682619 -267.45645685796512 140.53292405593481 0 140.53292405593481 -627.61472243137905 0 0 0 -223.76779482233601 -266.84493848135611 75.347222266807478 0 75.347222266807478 -619.47906016982688 0 0 0 -221.5809996627957 -270.17477527412427 142.26141209956916 0 142.26141209956916 -683.9669756237696 0 0 0 -238.5354377244735 -286.28143320112719 101.2492862371617 0 101.2492862371617 -675.43687451156848 0 0 0 -240.4295769281739 -262.54990778955101 108.44789551201643 0 108.44789551201643 -848.7265695474407 0 0 0 -277.81911933424789 -282.93916776304405 127.90745166857005 0 127.90745166857005 -855.29450294257151 0 0 0 -284.55841767640391 -242.55268314321484 128.38974136385741 0 128.38974136385741 -907.91728465593496 0 0 0 -287.61749194978734 -253.80250468312869 177.5631820420781 0 177.5631820420781 -842.21278945019071 0 0 0 -274.00382353332981 -264.29916610968644 134.63671025779126 0 134.63671025779126 -875.26328853093219 0 0 0 -284.89061366015494 -280.06907981019452 94.11672660892873 0 94.11672660892873 -596.14878396495214 0 0 0 -219.05446594378662 -286.1580126945006 183.25369881395045 0 183.25369881395045 -721.81867984091764 0 0 0 -251.99417313385459 -279.59939785489394 97.452615051545195 0 97.452615051545195 -740.61964888788589 0 0 0 -255.05476168569487 -266.24816803198701 224.74410572653647 0 224.74410572653647 -890.87935536748773 0 0 0 -289.28188084986868 -255.49629672820856 234.68314759975397 0 234.68314759975397 -843.47004988131539 0 0 0 -274.74158665238087 -278.00205204832605 141.93697069814505 0 141.93697069814505 -732.31738301380437 0 0 0 -252.57985876553289 -315.80204525399745 160.8921809794619 0 160.8921809794619 -585.2539109489162 0 0 0 -225.26398905072847 -315.84657329355969 172.12554464086446 0 172.12554464086446 -572.36725336536983 0 0 0 -222.05345666473249 -297.24493323709714 76.06136930823709 0 76.06136930823709 -388.44119383044392 0 0 0 -171.42153176688527 -306.07841928193182 75.209878116771165 0 75.209878116771165 -391.07859467862795 0 0 0 -174.28925349013988 -316.7340264400849 21.943588452861405 0 21.943588452861405 -155.32926740645962 0 0 0 -118.01582346163605 -298.23034154983588 145.87276438545393 0 145.87276438545393 -608.78002631925915 0 0 0 -226.75259196727382 -262.94957100514006 86.367268545522961 0 86.367268545522961 -564.2235259095886 0 0 0 -206.79327422868209 -309.40461854555826 125.42954402258545 0 125.42954402258545 -551.70855611502293 0 0 0 -215.27829366514516 -248.9392375425395 65.629284250848059 0 65.629284250848059 -394.38282102339201 0 0 0 -160.83051464148281 -294.34584526697904 88.501887679151366 0 88.501887679151366 -402.25336190060921 0 0 0 -174.14980179189706 -290.71787040198069 69.781358158104752 0 69.781358158104752 -280.24493136600552 0 0 0 -142.74070044199655 -266.18603896052053 -5.2749467628296287 0 -5.2749467628296287 -102.81661688649388 0 0 0 -92.250663961753602 -221.83907842282119 22.484115002629963 0 22.484115002629963 -257.79507198904821 0 0 0 -119.90853760296736 -320.79920227327267 -24.883272694129687 0 -24.883272694129687 -180.17424450391536 0 0 0 -125.24336169429699 -288.90177895660747 30.923833732328859 0 30.923833732328859 -234.77782688004072 0 0 0 -130.91990145916208 -194.2193939595216 11.532962753811375 0 11.532962753811375 -215.7897328351896 0 0 0 -102.50228169867773 -276.1042793565814 -63.211339288610603 0 -63.211339288610603 -56.169858939795176 0 0 0 -83.068534574094173 -74.797398228409691 -122.67785798886055 0 -122.67785798886055 -7.3805388434855104 0 0 0 -20.544484267973871 -179.82783883587723 -97.491569410078569 0 -97.491569410078569 70.872928786599545 0 0 0 -27.238727512319443 -110.94854362681356 -119.7006569459363 0 -119.7006569459363 123.09598619959155 0 0 0 3.0368606431944905 -35.481081471647826 -163.28550381093913 0 -163.28550381093913 72.404284773243646 0 0 0 9.2308008253988891 -67.406191649426987 -194.64752732089667 0 -194.64752732089667 226.47787883148868 0 0 0 39.76792179551537 -203.11282820733186 -65.055226139806635 0 -65.055226139806635 -7.1370099234967483 0 0 0 -52.562459532707152 -168.17921868050399 -27.58414647722158 0 -27.58414647722158 -89.376632184758421 0 0 0 -64.388962716315604 -108.08210985875874 -101.51780818755594 0 -101.51780818755594 -4.9989825944228414 0 0 0 -28.270273113295399 -236.97121241783736 -0.056857519208763696 0 -0.056857519208763696 -96.618475459846337 0 0 0 -83.397421969420932 -170.79777078647169 -63.82081829739559 0 -63.82081829739559 -54.816797378971486 0 0 0 -56.403642041360769 -203.55637774564329 -18.707767246339515 0 -18.707767246339515 -152.78029312236515 0 0 0 -89.084167717002117 -243.65546460525439 22.128324736683908 0 22.128324736683908 -171.9507937223847 0 0 0 -103.9015645819098 -166.17886349909469 -31.860411813021084 0 -31.860411813021084 -123.41278275140181 0 0 0 -72.397911562624145 -197.9518115639203 -16.993789386909846 0 -16.993789386909846 -201.21594508613799 0 0 0 -99.791939162514581 -63.265360327286572 -2.8211505250076434 0 -2.8211505250076434 -189.82832248735707 0 0 0 -63.273420703660904 -205.10795674702808 49.328203377316775 0 49.328203377316775 -277.31260833013255 0 0 0 -120.60514126929016 -176.01350107057709 20.166403353967144 0 20.166403353967144 -227.22651710816237 0 0 0 -100.81000454468486 -184.58391529706049 85.128363209723545 0 85.128363209723545 -379.53338626886085 0 0 0 -141.02932539148031 -234.75490965397972 50.487360639766038 0 50.487360639766038 -255.50098284288319 0 0 0 -122.56397312421572 -94.137611851800926 37.044974921131008 0 37.044974921131008 -282.11312021691333 0 0 0 -94.062683017178557 -229.08905190116974 101.08778222415785 0 101.08778222415785 -391.11142188910605 0 0 0 -155.05011844756893 -278.19741583514087 80.251058842484838 0 80.251058842484838 -350.24291271452944 0 0 0 -157.11008213741758 -272.16207804192976 42.988857140289468 0 42.988857140289468 -191.10011412245206 0 0 0 -115.81554804109545 -220.56025079745601 41.821138398043104 0 41.821138398043104 -326.78222512769736 0 0 0 -136.83561898128832 -504.21910709935912 360.60196420501006 0 360.60196420501006 698.15152861925208 0 0 0 48.483105379972926 -634.66794120652889 286.28951719480796 0 286.28951719480796 516.80287930732993 0 0 0 -29.466265474799869 -633.28040801206009 219.12443158169239 0 219.12443158169239 369.55455132785426 0 0 0 -65.931464171051118 -541.46646696646417 372.9217064530784 0 372.9217064530784 581.1403286989447 0 0 0 9.9184654331200477 -160.30393316295215 528.28291010291468 0 528.28291010291468 707.5860808371018 0 0 0 136.82053691853764 -220.00228728712545 553.4908370096216 0 553.4908370096216 1017.7314039122962 0 0 0 199.43227915629268 -427.69635621921594 138.00519510658341 0 138.00519510658341 998.38959876854267 0 0 0 142.67331063733212 -519.58831819784677 169.69979603214574 0 169.69979603214574 968.4061669415446 0 0 0 112.20446218592429 -292.82007683995266 138.48134645153527 0 138.48134645153527 925.13664324631509 0 0 0 158.07914160158975 -392.28942377751366 180.73923266217002 0 180.73923266217002 882.00802519415083 0 0 0 122.42965035415909 -791.16725664537807 16.508442298895261 0 16.508442298895261 753.59067629524134 0 0 0 -9.3941450875341275 -637.95417388711485 119.97631761152263 0 119.97631761152263 611.38844798734817 0 0 0 -6.641431474941669 -748.83711420893405 160.94709976785975 0 160.94709976785975 763.08018631013078 0 0 0 3.5607680252996659 -792.07697324986452 55.108159805710891 0 55.108159805710891 603.33207547186089 0 0 0 -47.186224444500738 -901.45276405921334 -74.669597841106793 0 -74.669597841106793 462.57426226367488 0 0 0 -109.71962544888424 -529.43943843404736 -547.6804566595315 0 -547.6804566595315 879.02070507782014 0 0 0 87.395316660943251 -1186.5947603235434 -313.8180487765876 0 -313.8180487765876 520.20586977127562 0 0 0 -166.59722263806714 -543.60108358636478 -282.7040586597509 0 -282.7040586597509 589.54580356921326 0 0 0 11.486179995712021 -1044.9963671234937 45.196650407634195 0 45.196650407634195 651.96597175685019 0 0 0 -98.257598841661121 -271.3546353267767 -496.40524261558573 0 -496.40524261558573 395.26026661310686 0 0 0 30.976407821582256 209.71366219276172 -330.93925105779346 0 -330.93925105779346 239.56519020596667 0 0 0 112.31971309968206 -386.61344658677524 -424.00128007814391 0 -424.00128007814391 431.18767550002354 0 0 0 11.143557228312025 -557.01063352620997 -341.43093620942 0 -341.43093620942 364.93614324232828 0 0 0 -48.018622570970251 -271.85683863118373 -245.73943990029699 0 -245.73943990029699 99.06471408139879 0 0 0 -43.198031137446122 -300.891546422077 -239.97147368157846 0 -239.97147368157846 152.27968650154901 0 0 0 -37.152964980131955 -359.66566432961497 -97.294951727888588 0 -97.294951727888588 164.63758269767581 0 0 0 -48.757020407984754 -538.31532196494368 4.571895108867011 0 4.571895108867011 -75.748523537650954 0 0 0 -153.51596137564849 -779.00867981059935 32.769033427679517 0 32.769033427679517 570.61495571064017 0 0 0 -52.098431024989878 -752.47501967746473 -84.915240178579296 0 -84.915240178579296 314.24365779268476 0 0 0 -109.55784047119501 -397.14758406873341 -24.481954478887474 0 -24.481954478887474 438.94856132857427 0 0 0 10.450244314960116 -640.80687197459167 136.50318574961574 0 136.50318574961574 -34.255921947079742 0 0 0 -168.76569848041771 -464.40524079997562 222.46870690618687 0 222.46870690618687 388.83210816846145 0 0 0 -18.893283157878557 -422.71223498606912 159.28398729661609 0 159.28398729661609 -22.478696219238827 0 0 0 -111.29773280132724 -339.98513472353704 371.08168547984815 0 371.08168547984815 -74.354923063514889 0 0 0 -103.58501444676278 -397.52997883076114 78.8161066379148 0 78.8161066379148 -347.02817141301102 0 0 0 -186.13953756094315 -371.89817167499274 48.307089300166126 0 48.307089300166126 1.3483176762969151 0 0 0 -92.637463499674027 -503.72289826517681 139.7204348145774 0 139.7204348145774 -265.95392135009433 0 0 0 -192.41920490381767 -336.5266746967734 244.2670709238073 0 244.2670709238073 -165.36780651941558 0 0 0 -125.47362030404747 -334.5777224141184 181.06073572633636 0 181.06073572633636 -307.15067011330666 0 0 0 -160.43209813185618 -403.51508462168226 200.43329212634751 0 200.43329212634751 -564.34462191103012 0 0 0 -241.96492663317781 -280.6660852588617 312.97232960242809 0 312.97232960242809 -539.29885839462031 0 0 0 -204.99123591337036 -323.43765257121549 282.12759760600022 0 282.12759760600022 -882.1644332627975 0 0 0 -301.40052145850314 -271.03173645944617 280.7638843852701 0 280.7638843852701 -659.31891836969317 0 0 0 -232.58766370728495 -429.00732520574115 395.9305805354179 0 395.9305805354179 -428.15594817496458 0 0 0 -214.29081834517615 -442.49906980962055 284.63033647574457 0 284.63033647574457 -477.53442925390209 0 0 0 -230.00837476588026 -328.91272755162993 369.670734833192 0 369.670734833192 -459.26398362334839 0 0 0 -197.04417779374458 -332.01210164022746 321.11505201816135 0 321.11505201816135 -707.33215545801522 0 0 0 -259.83606427456061 -329.5492618453959 354.50521760624417 0 354.50521760624417 -481.27443360266534 0 0 0 -202.70592386201497 -187.92897745963819 511.2031982914641 0 511.2031982914641 -674.47410872709179 0 0 0 -215.60077154668261 -90.021377415617167 599.71228333048384 0 599.71228333048384 -447.86771074960643 0 0 0 -134.47227204130593 -114.37306554437373 578.11349290743578 0 578.11349290743578 -724.28538122784903 0 0 0 -209.66461169305558 -309.90636686991274 469.92393541357205 0 469.92393541357205 -417.63410426893984 0 0 0 -181.8851177847132 -287.54749047895848 462.54319491063097 0 462.54319491063097 -76.263769238151326 0 0 0 -90.95281492927711 -440.64912216173013 448.01276653433547 0 448.01276653433547 -123.36966818801238 0 0 0 -141.00469758743554 -319.54677192298328 484.20318308220675 0 484.20318308220675 230.68902907404436 0 0 0 -22.214435712234717 -147.8557224508333 610.10419430297134 0 610.10419430297134 -35.336480089037877 0 0 0 -45.798050634967183 -492.7600030474814 435.10304268314309 0 435.10304268314309 149.84870814348096 0 0 0 -85.727823726000224 -414.98494904123635 399.80581697766144 0 399.80581697766144 533.96145258905062 0 0 0 29.744125886953782 -590.66707242682378 286.84457081614994 0 286.84457081614994 85.374121580914107 0 0 0 -126.32323771147708 43.047069466730704 728.90034115116316 0 728.90034115116316 867.52757227831148 0 0 0 227.64366043626035 -243.83424805381992 568.72949991618134 0 568.72949991618134 287.42191388617107 0 0 0 10.896916458087958 -239.82681616393339 578.46252439377918 0 578.46252439377918 635.71770164975476 0 0 0 98.972721371455151 -163.73565859492169 597.28443701850506 0 597.28443701850506 -115.48266287008482 0 0 0 -69.804580366251912 89.633016107697131 682.90447593794727 0 682.90447593794727 141.65868474122362 0 0 0 57.822925212230075 72.584856531431853 755.83408467106426 0 755.83408467106426 291.74437071550722 0 0 0 91.082306811735236 94.80366611344607 649.55829096443699 0 649.55829096443699 -519.06703705622203 0 0 0 -106.06584273569388 97.612499350676671 732.18272786177658 0 732.18272786177658 -260.83174782451169 0 0 0 -40.80481211845904 311.69269501238477 755.53964564986427 0 755.53964564986427 -650.84816121656104 0 0 0 -84.788866551044066 180.20279001858353 673.47318658848485 0 673.47318658848485 -1042.8517490853847 0 0 0 -215.66223976669971 82.582817869430073 548.76818525548879 0 548.76818525548879 -1390.2062564483804 0 0 0 -326.90585964473667 20.620087345716911 690.86877272161223 0 690.86877272161223 -826.87294172803922 0 0 0 -201.56321359558024 97.051190331270391 578.66177447627297 0 578.66177447627297 -963.74935088156781 0 0 0 -216.6745401375747 -235.99560767875255 488.56716567443959 0 488.56716567443959 -903.3784288812958 0 0 0 -284.84350914001197 -116.85739041114084 457.85332153309946 0 457.85332153309946 -1290.8767630476714 0 0 0 -351.93353836470351 -39.441085477003526 615.73874240234977 0 615.73874240234977 -1050.3416660037583 0 0 0 -272.44568787018989 -63.030053317589591 568.41579281649183 0 568.41579281649183 -1012.0426003279326 0 0 0 -268.76816341138056 -9.2748626875309128 448.04361176247573 0 448.04361176247573 -1729.8884166187381 0 0 0 -434.79081982656862 49.320006843310694 552.92263185406773 0 552.92263185406773 -1546.53759990443 0 0 0 -374.30439826528027 -89.949832974960827 390.49754739733999 0 390.49754739733999 -1900.3588539941029 0 0 0 -497.57717174226673 165.48755397734612 523.24368367818442 0 523.24368367818442 -1860.2526381854914 0 0 0 -423.69127105203597 23.823344823796106 335.4578920747756 0 335.4578920747756 -2219.5455154176852 0 0 0 -548.9305426484716 215.07947694081304 517.95840259743181 0 517.95840259743181 -1806.088282621633 0 0 0 -397.75220142020589 171.92473906659507 428.75669677513088 0 428.75669677513088 -1776.9669291687496 0 0 0 -401.26054752553864 55.94972017929058 549.69402428979902 0 549.69402428979902 -1399.1324695759254 0 0 0 -335.79568734915802 -201.99947174886256 307.53518370950485 0 307.53518370950485 -832.81161253921982 0 0 0 -258.70277107202037 -227.23603974313983 391.4264967398617 0 391.4264967398617 -1176.9307330068004 0 0 0 -351.04169318748518 -157.50865723829452 317.84447070498754 0 317.84447070498754 -1219.8530940283999 0 0 0 -344.34043781667378 -220.2804601338612 437.35565878438342 0 437.35565878438342 -1347.9097272237777 0 0 0 -392.04754683941064 -173.67521773197132 389.01155535000498 0 389.01155535000498 -957.51272508003785 0 0 0 -282.79698570300161 -222.11952808515571 470.10077819310391 0 470.10077819310391 -832.20647470420226 0 0 0 -263.58150069733961 -266.24949523282112 450.67980888793409 0 450.67980888793409 -1048.954740494004 0 0 0 -328.80105893170639 -100.92801088579108 486.20785472718444 0 486.20785472718444 -982.05390825703944 0 0 0 -270.74547978570718 -129.84368554510638 474.92417011153975 0 474.92417011153975 -1413.8652001832961 0 0 0 -385.92722143210176 -106.85202373718698 363.20109097714385 0 363.20109097714385 -1590.6776264840018 0 0 0 -424.3824125552967 -32.849550071607155 493.30619976148137 0 493.30619976148137 -1735.2057762725044 0 0 0 -442.01383158602857 -124.46580454891364 410.21556107455899 0 410.21556107455899 -1350.475264208525 0 0 0 -368.73526718936 -149.42435567878374 422.61992709915694 0 422.61992709915694 -1524.3062225219637 0 0 0 -418.43264455018698 -109.79762056184063 294.30927264511001 0 294.30927264511001 -1700.9530752367873 0 0 0 -452.68767394965698 -109.01571523742632 347.16989659595492 0 347.16989659595492 -1604.3277956383845 0 0 0 -428.33587771895282 -185.98508355714876 344.7697595225909 0 344.7697595225909 -1410.2430976503001 0 0 0 -399.05704530186176 -96.996156318202793 267.27797708292019 0 267.27797708292019 -1436.1336345828931 0 0 0 -383.28244772527432 -28.195723271629006 221.72268891728163 0 221.72268891728163 -2009.1254146328788 0 0 0 -509.33028447612691 -113.26048025039927 261.42371248647203 0 261.42371248647203 -1788.9720648971779 0 0 0 -475.5581362868943 -64.925193681136989 291.6269503855433 0 291.6269503855433 -2016.7893504496924 0 0 0 -520.42863603270825 -61.395326308726453 371.96089670634319 0 371.96089670634319 -1747.9872435381312 0 0 0 -452.34564246171476 -28.77079111234616 250.14555930710139 0 250.14555930710139 -2363.2978549047712 0 0 0 -598.0171615042791 2.7233097256367955 245.49088050650789 0 245.49088050650789 -2113.924572103469 0 0 0 -527.80031559445877 -47.097322170219741 366.15702401726958 0 366.15702401726958 -2084.6879514116499 0 0 0 -532.94631839546673 -81.055747162381522 313.46877400872427 0 313.46877400872427 -2038.6668241509997 0 0 0 -529.9306428283453 52.891529703701053 378.08006436105097 0 378.08006436105097 -2183.635006429713 0 0 0 -532.6858691815014 -25.671066337852608 267.93987088296399 0 267.93987088296399 -2595.8332259731196 0 0 0 -655.37607307774215 -9.7803491520635362 103.02640110513585 0 103.02640110513585 -2559.1539774614466 0 0 0 -642.23358165337777 -16.41454921479999 112.29849533132619 0 112.29849533132619 -2788.1535122054593 0 0 0 -701.14201535506527 3.2955381017450236 101.49859550641759 0 101.49859550641759 -2378.3197193881806 0 0 0 -593.75604532160969 -19.547793642919174 96.954493819953314 0 96.954493819953314 -2553.8605057121031 0 0 0 -643.35207483875581 10.320462779231093 96.205941087461724 0 96.205941087461724 -2206.8228925921558 0 0 0 -549.12560745323071 66.760167388134505 361.71720094894681 0 361.71720094894681 -2603.0601989139905 0 0 0 -634.07500788146535 101.01326514360244 384.6673645791434 0 384.6673645791434 -2220.2964197830879 0 0 0 -529.82078865987023 -34.882462532097634 340.20555567776046 0 340.20555567776046 -2209.5697093747403 0 0 0 -561.11304297671086 50.878653997751826 458.93118423124361 0 458.93118423124361 -2084.9010760221172 0 0 0 -508.50560550609134 -40.484923101001186 273.70580298907225 0 273.70580298907225 -2505.021696846974 0 0 0 -636.37665498699425 40.306129769572181 337.18375238184467 0 337.18375238184467 -2614.5181609245774 0 0 0 -643.55300778874971 15.602358538873887 127.52321244063751 0 127.52321244063751 -2984.7711867876205 0 0 0 -742.29220706218803 -0.29008252111543698 76.345920409941755 0 76.345920409941755 -2889.5670200756449 0 0 0 -722.46427564919122 34.467392787095378 112.08235056593639 0 112.08235056593639 -3315.212755004577 0 0 0 -820.18634055436905 39.515434503862707 133.91416402373943 0 133.91416402373943 -2966.3128129825964 0 0 0 -731.69934461968478 66.351746199033187 209.66167275363659 0 209.66167275363659 -3148.6825921949967 0 0 0 -770.58271149899156 -47.713604245388524 209.10488623600031 0 209.10488623600031 -2710.09599330728 0 0 0 -689.45239938816576 -16.856298030428661 212.23339987405984 0 212.23339987405984 -2973.7722745491337 0 0 0 -747.65714314489014 -6.9291149268592562 49.573870214940598 0 49.573870214940598 -3622.5225443118507 0 0 0 -907.36291480967702 -5.4225806242084218 64.223761007453049 0 64.223761007453049 -3169.8051743256692 0 0 0 -793.80693873747077 48.678227272154743 121.27475243617118 0 121.27475243617118 -3737.9377612279904 0 0 0 -922.31488348896085 24.781953475301634 -1.3768733498300207 0 -1.3768733498300207 -3347.8373010180221 0 0 0 -830.76383688567876 113.26704380776027 173.39773430159948 0 173.39773430159948 -3198.054714851256 0 0 0 -771.19691776087166 58.876068628307621 295.93141491545248 0 295.93141491545248 -2812.8544189299646 0 0 0 -688.4945875754147 160.91543608284019 204.48062063689395 0 204.48062063689395 -2695.8979931135018 0 0 0 -633.74563925766552 28.806255076249727 96.216405957010352 0 96.216405957010352 -2834.7009872428171 0 0 0 -701.47368304164047 215.03322054292585 264.26862564207659 0 264.26862564207659 -2680.4402355629209 0 0 0 -616.35175375499784 65.638509090318621 200.47683600398159 0 200.47683600398159 -2391.2284050478775 0 0 0 -581.39747398938925 203.07013434044575 -31.475744993573244 0 -31.475744993573244 -2591.3007444368304 0 0 0 -597.05765252409537 141.66570181993666 -187.11011133622924 0 -187.11011133622924 -2777.2816733965738 0 0 0 -658.90399289415654 195.62579207437739 100.65712645218628 0 100.65712645218628 -2854.0782165246601 0 0 0 -664.61310611257068 60.328203853230661 -63.489726716090445 0 -63.489726716090445 -3162.5401386984449 0 0 0 -775.55298371130084 66.074731472866915 30.30940319952424 0 30.30940319952424 -3998.9801558441031 0 0 0 -983.22635609280587 68.69802976920073 -78.339172272657379 0 -78.339172272657379 -3840.050250721979 0 0 0 -942.83805523819501 66.157152697820493 109.46749319800801 0 109.46749319800801 -3355.5815334885338 0 0 0 -822.35609519767968 74.65558053679888 -146.83693240302091 0 -146.83693240302091 -3727.8783358721994 0 0 0 -913.30568883384876 271.65313795928796 -150.89971386747857 0 -150.89971386747857 -3126.6894935236187 0 0 0 -713.75908889108086 0.92317017931418377 -37.946298047068922 0 -37.946298047068922 -3198.3405504553848 0 0 0 -799.35434506901584 45.226471938192844 -210.77117680283664 0 -210.77117680283664 -3337.2469859528792 0 0 0 -823.00512850367159 7.7514142599975457 -164.12302605972036 0 -164.12302605972036 -3012.0932438135569 0 0 0 -751.08545738838984 24.435975103173405 -262.22063141912258 0 -262.22063141912258 -2668.9911871419245 0 0 0 -661.13880300968776 83.175671008701102 -511.44991669177398 0 -511.44991669177398 -2477.1986799485567 0 0 0 -598.50575223496526 447.10669777007843 -637.70879268202043 0 -637.70879268202043 -2426.1118046706615 0 0 0 -494.75127672514373 280.24274398380271 -408.24462144963218 0 -408.24462144963218 -2884.5398919711561 0 0 0 -651.0742869968401 218.66062882876395 -678.57367565614368 0 -678.57367565614368 -2264.5440434393422 0 0 0 -511.4708536526432 102.42786657828037 -222.40268365628344 0 -222.40268365628344 -2716.6449249621728 0 0 0 -653.55426459597038 310.70682801540624 -377.04281777593678 0 -377.04281777593678 -2524.477593757365 0 0 0 -553.442691435489 347.54794442531784 -56.444692665983894 0 -56.444692665983894 -2587.5828910128075 0 0 0 -560.00873664687424 653.80674320566504 -310.03340004295023 0 -310.03340004295023 -2389.6115469809411 0 0 0 -433.95120094381855 398.37919341089128 -145.03306960192413 0 -145.03306960192413 -2165.5077531054267 0 0 0 -441.78213992363544 863.11995098750413 -181.01642855081991 0 -181.01642855081991 -2005.0841380006786 0 0 0 -285.49104675329363 414.70564361041761 -527.0475401820413 0 -527.0475401820413 -2195.4846916928363 0 0 0 -445.19476202060468 423.30211718491228 -778.83417489652402 0 -778.83417489652402 -2070.905894785421 0 0 0 -411.90094440012945 552.37725473675346 -693.11513233968981 0 -693.11513233968981 -2332.6344811620074 0 0 0 -445.06430660631304 757.34956673265106 -489.94096797942257 0 -489.94096797942257 -2075.6935972553338 0 0 0 -329.58600763066943 502.15000127827534 -843.60192106657814 0 -843.60192106657814 -2088.4954635175418 0 0 0 -396.58636555981775 731.93684714391202 -896.30465521305678 0 -896.30465521305678 -2002.5318949777429 0 0 0 -317.64876195845682 1193.946357947405 -880.02366808029728 0 -880.02366808029728 -1852.4769497642337 0 0 0 -164.63264795420764 849.65953702029219 -619.41666128391125 0 -619.41666128391125 -1889.278839347844 0 0 0 -259.90482558188796 1648.2207515186312 -528.39064987521851 0 -528.39064987521851 -1629.1487630107044 0 0 0 4.7679971269828059 1357.4430481498296 -1071.2743491964648 0 -1071.2743491964648 -1593.3650943445848 0 0 0 -58.980511548686778 1065.7184668203608 -897.53827019499158 0 -897.53827019499158 -1692.6425585866491 0 0 0 -156.73102294157252 881.80534769506448 -117.32251640196716 0 -117.32251640196716 -1842.7229811513207 0 0 0 -240.2294083640636 1027.4255047925349 -588.44039155464452 0 -588.44039155464452 -1905.0156797027994 0 0 0 -219.39754372756533 1139.2623963491878 -162.82304780610229 0 -162.82304780610229 -1751.1227900853337 0 0 0 -152.96509843403783 1727.4302643124579 29.488228893373616 0 29.488228893373616 -1417.188030864063 0 0 0 77.560558362098618 993.64386702103275 264.71612688675782 0 264.71612688675782 -1439.6205275656121 0 0 0 -111.49416513614506 1183.008109163678 176.84806334086988 0 176.84806334086988 -1302.7032397864505 0 0 0 -29.923782655692321 794.92080434397531 124.42390819713273 0 124.42390819713273 -1712.0018219590456 0 0 0 -229.27025440376747 711.84103788444918 472.95338775714299 0 472.95338775714299 -1487.2039818535541 0 0 0 -193.84073599227577 888.5047934545828 548.44288365529383 0 548.44288365529383 -1045.2211880806126 0 0 0 -39.179098656507449 636.22622403520086 380.94168927704368 0 380.94168927704368 -1367.9595223537326 0 0 0 -182.93332457963265 506.59103622296061 669.04761734894191 0 669.04761734894191 -978.07661968899902 0 0 0 -117.87139586650937 209.36754066360481 518.33874527695752 0 518.33874527695752 -1430.9187740105754 0 0 0 -305.38780833674264 285.95386862408213 511.27024485647416 0 511.27024485647416 -1404.303271194487 0 0 0 -279.58735064260054 337.69457540147141 288.36399280035312 0 288.36399280035312 -1754.6363251985167 0 0 0 -354.23543744926155 487.52438054719187 448.55265024236724 0 448.55265024236724 -1783.9808303672889 0 0 0 -324.11411245502586 133.22299151661264 257.29458058435267 0 257.29458058435267 -2059.0590984028713 0 0 0 -481.45902672156444 452.90879256988455 333.57691295027143 0 333.57691295027143 -2229.8648786919448 0 0 0 -444.2390215305154 186.02121554333826 143.36369877002107 0 143.36369877002107 -2127.4624520929865 0 0 0 -485.3603091374116 456.3069288495235 125.83521259022473 0 125.83521259022473 -2390.7698758381675 0 0 0 -483.61573674715964 454.44805462607383 -190.75880992063503 0 -190.75880992063503 -2346.9529418295369 0 0 0 -473.12622180086692 498.25208247150022 185.40966181087288 0 185.40966181087288 -1836.6997771822389 0 0 0 -334.61192367768581 698.25013743273848 185.02301556958628 0 185.02301556958628 -1981.2748524726258 0 0 0 -320.75617875997068 -730.43540440472793 -291.32132331302273 0 -291.32132331302273 -1140.055263481192 0 0 0 -467.62266697148084 -338.15911648064503 -440.45500891230222 0 -440.45500891230222 -1325.8059314648708 0 0 0 -415.99126198637896 -204.86213999701431 -166.24861551886352 0 -166.24861551886352 -1116.5160407615404 0 0 0 -330.34454518963685 -270.87574722266891 -188.55876741104657 0 -188.55876741104657 -971.89217796570756 0 0 0 -310.69198129709275 -23.109993846312136 -19.012672627173743 0 -19.012672627173743 -1031.5524751816774 0 0 0 -263.66561725699285 -18.00594699587964 -21.739444809079782 0 -21.739444809079782 -1025.7669721904531 0 0 0 -260.94322979658318 -25.513136966954335 -22.077067988288036 0 -22.077067988288036 -1018.1235708140593 0 0 0 -260.90917694525706 -29.861893095094274 -19.717525623553229 0 -19.717525623553229 -1023.2300348133431 0 0 0 -263.27298197710843 -106.17691801341243 -196.03003665672281 0 -196.03003665672281 -1302.7849752194597 0 0 0 -352.24047330821304 -149.90027578220315 -382.34023920513209 0 -382.34023920513209 -1233.9283986452483 0 0 0 -345.95716860686434 25.486575267022999 -145.08639727719492 0 -145.08639727719492 -1218.8254042616973 0 0 0 -298.33470724866856 -138.37391519622543 -267.4658304611396 0 -267.4658304611396 -1680.4382418773457 0 0 0 -454.70303926839188 -183.61297364598977 -495.65724772052727 0 -495.65724772052727 -1739.7686207549632 0 0 0 -480.84539860023324 -129.27768058814581 -749.16837699224379 0 -749.16837699224379 -1497.92132044338 0 0 0 -406.7997502578819 -297.85325365508288 -591.30419656310551 0 -591.30419656310551 -1136.7933404826217 0 0 0 -358.66164853442933 -894.11655370544122 -701.19707647774339 0 -701.19707647774339 -1366.7949226506971 0 0 0 -565.22786908903163 -124.08397427445561 -957.93787365681419 0 -957.93787365681419 -1372.9906743260435 0 0 0 -374.2686621501216 -534.75418428183548 -817.02531892035813 0 -817.02531892035813 -1617.018437845305 0 0 0 -537.94315553178239 -206.60009566571932 -975.70532515036211 0 -975.70532515036211 -1731.9315661663572 0 0 0 -484.63291545801656 -119.64983006982766 -835.43803476745506 0 -835.43803476745506 -2056.4235916036778 0 0 0 -544.01835541837863 -64.69276395064378 -831.78839960529876 0 -831.78839960529876 -1665.6259798786982 0 0 0 -432.57968595733189 -156.77488068269668 -383.83898350770369 0 -383.83898350770369 -2200.0978478229226 0 0 0 -589.21818212640574 61.000263106928287 -356.45317836876893 0 -356.45317836876893 -1518.4909873254837 0 0 0 -364.37268105463681 45.870970771367865 -314.11712279933272 0 -314.11712279933272 -2162.6149125022494 0 0 0 -529.1859854327231 62.937732540774959 -588.91354901643899 0 -588.91354901643899 -1794.1721357734496 0 0 0 -432.80860080816819 -51.533474384819783 -561.67792482904588 0 -561.67792482904588 -2438.4156977233679 0 0 0 -622.48729302705215 -16.3585782315713 -286.02392755586698 0 -286.02392755586698 -2330.7838925220858 0 0 0 -586.78561768841246 31.112735052176976 -274.86658687893942 0 -274.86658687893942 -2848.8308688814327 0 0 0 -704.42953345730848 149.4449252165698 -508.80410686555842 0 -508.80410686555842 -2706.066676833836 0 0 0 -639.15543790431798 121.15758220408316 -663.30788887539984 0 -663.30788887539984 -2147.1893818157769 0 0 0 -506.50794990292343 206.98165755257924 -972.84167216110654 0 -972.84167216110654 -1811.6701608278381 0 0 0 -401.17212581881631 85.675866098568349 -842.00877898545332 0 -842.00877898545332 -2244.9405550182601 0 0 0 -539.81617222992327 275.61564196036852 -937.06387411691742 0 -937.06387411691742 -2062.2753723267597 0 0 0 -446.66493259159324 578.39053522051472 -1055.3939706707497 0 -1055.3939706707497 -2004.9935940412797 0 0 0 -356.65076470519125 162.71894132598572 -1177.4749354920632 0 -1177.4749354920632 -1891.8656350191886 0 0 0 -432.28667342330482 568.7818430526404 -1116.7440234750738 0 -1116.7440234750738 -1854.6158625289463 0 0 0 -321.45850486907511 356.59310125066327 -1366.9013165963934 0 -1366.9013165963934 -1579.5725808835787 0 0 0 -305.74486990822993 119.9543455027906 -1401.628810634018 0 -1401.628810634018 -1668.1716372269411 0 0 0 -387.05432293103695 705.94872241112716 -1208.674484272457 0 -1208.674484272457 -1721.0485467858489 0 0 0 -253.7749560936827 185.38540004106108 -1394.9342970063026 0 -1394.9342970063026 -1469.2393620783605 0 0 0 -320.96349050932622 337.67187873838884 -1618.4281659389208 0 -1618.4281659389208 -1349.0657870250488 0 0 0 -252.84847707166591 -478.20754245913395 -1450.1421513070018 0 -1450.1421513070018 -1636.2176004095218 0 0 0 -528.60628571715915 -308.96595362836069 -1305.6790329599917 0 -1305.6790329599917 -1660.4416713477622 0 0 0 -492.35190624403094 -316.72901184603506 -1172.4969576968256 0 -1172.4969576968256 -1389.9336532359594 0 0 0 -426.66566627049542 225.79946961180758 -1212.2049125282274 0 -1212.2049125282274 -1696.7520622813754 0 0 0 -367.73814816739468 -121.30787881825745 -1036.2718942866504 0 -1036.2718942866504 -1860.5962179153685 0 0 0 -495.4760241834083 -590.79759513402223 -1058.5800343540468 0 -1058.5800343540468 -1570.6902660965643 0 0 0 -540.37196530764686 -342.61205510679065 -882.48820161849926 0 -882.48820161849926 -1059.2740174342762 0 0 0 -350.47151813526762 -1000.669465307783 -995.34745784339793 0 -995.34745784339793 -1309.233392964954 0 0 0 -577.47571456818332 -593.17186259813388 -1238.1487239056041 0 -1238.1487239056041 -1197.400497662511 0 0 0 -447.64309006516487 -1161.7371984334259 -1264.7264490523994 0 -1264.7264490523994 -1384.1340597713606 0 0 0 -636.46781455119526 -434.78730216507847 -1545.0861421659069 0 -1545.0861421659069 -1230.0090532269242 0 0 0 -416.19908884799861 -982.5688064264923 -1168.7349483074368 0 -1168.7349483074368 -965.38029981343061 0 0 0 -486.98727655997754 -1807.7852274037523 -917.80012862914555 0 -917.80012862914555 -1341.4808656523601 0 0 0 -787.31652326402946 -2341.6701883114642 -1140.8886799039501 0 -1140.8886799039501 -1242.3998518442695 0 0 0 -896.01751003893014 -2400.155343387185 -514.54498745395267 0 -514.54498745395267 -1078.5546194625022 0 0 0 -869.67749071242724 -1524.8339408416141 -446.04338417630606 0 -446.04338417630606 -1028.0895643426084 0 0 0 -638.23087629605288 -1349.4560518672197 -420.94972854592743 0 -420.94972854592743 -1025.3353831736567 0 0 0 -593.69785876021433 -757.96005931058244 -825.74309842543516 0 -825.74309842543516 -1008.7593057329887 0 0 0 -441.67984126089505 -1388.9744224633469 -490.4316883610536 0 -490.4316883610536 -1235.1783087476724 0 0 0 -656.03818280275664 -481.79525734635172 -402.92950812806021 0 -402.92950812806021 -950.30738904538157 0 0 0 -358.02566159793059 -3950.735568421891 -575.56794536646885 0 -575.56794536646885 -791.01922842672957 0 0 0 -1185.438699212149 -6172.1617569439577 -297.14429633660734 0 -297.14429633660734 -1047.3540976310512 0 0 0 -1804.8789636437534 -3457.964226880656 -1246.2296710279238 0 -1246.2296710279238 -751.87573120633806 0 0 0 -1052.4599895217402 -3987.8153675075118 -698.88416121580599 0 -698.88416121580599 -1062.0746459168415 0 0 0 -1262.4725033560867 -4701.8026943335099 -507.46365588654044 0 -507.46365588654044 -931.90190735842953 0 0 0 -1408.4261504229835 -3455.5086284811414 -550.01416499084314 0 -550.01416499084314 -1027.0323091436767 0 0 0 -1120.6352344062061 -2059.134044698787 -570.73484616802125 0 -570.73484616802125 -963.83500150307009 0 0 0 -755.74226155046017 -2959.0689350996549 -549.10937831441788 0 -549.10937831441788 -971.53385975452693 0 0 0 -982.65069871354399 -2746.8191469683334 -1318.6947602115836 0 -1318.6947602115836 -952.58872743854954 0 0 0 -924.85196860172073 -1483.4208522668787 -1520.3847683755512 0 -1520.3847683755512 -1072.9759582073075 0 0 0 -639.09920261854586 -1406.7210149915968 -1310.5612073404791 0 -1310.5612073404791 -1054.9056341265632 0 0 0 -615.40666227953943 -867.84019085532736 -1480.9161026394231 0 -1480.9161026394231 -1387.9937827768995 0 0 0 -563.95849340806262 -1568.5592666337379 -1816.6244324074335 0 -1816.6244324074335 -753.53071673084742 0 0 0 -580.52249584114497 -2390.3150965073983 -1128.2203705902257 0 -1128.2203705902257 -1021.172699514213 0 0 0 -852.87194900540294 -2138.2057902272645 -1146.5322342482887 0 -1146.5322342482887 -891.33812389922105 0 0 0 -757.38597853162355 -102.85602340272456 -1716.5260353765586 0 -1716.5260353765586 -754.08888281001464 0 0 0 -214.23622655318653 44.390107964234119 -1618.5088089835235 0 -1618.5088089835235 -351.8450828308188 0 0 0 -76.863743716645843 844.13628904921825 -1869.218631922138 0 -1869.218631922138 -956.84139162257452 0 0 0 -28.176275643339977 -1327.4580328548409 -1579.8699538336732 0 -1579.8699538336732 -843.28709685509784 0 0 0 -542.686282427484 -237.96342835052928 -1785.1164991041551 0 -1785.1164991041551 -973.77762728658672 0 0 0 -302.93526390927946 -1024.4091134371947 -1771.4045818707727 0 -1771.4045818707727 -1174.4238436455089 0 0 0 -549.70823927067886 -227.47725609558256 -1804.9691818185165 0 -1804.9691818185165 -1309.4925849803112 0 0 0 -384.24246026897708 -127.27349276150017 -1579.2897044077931 0 -1579.2897044077931 -1339.0144229094403 0 0 0 -366.57197891773649 586.65360049270294 -1776.9042980485974 0 -1776.9042980485974 -1190.5474503055048 0 0 0 -150.97346245319841 -268.21971575374573 -1654.2106398993872 0 -1654.2106398993872 -1145.3762466983426 0 0 0 -353.39899061302003 579.83742386593076 -1465.0584898389125 0 -1465.0584898389125 -1370.5806137866603 0 0 0 -197.68579748018419 1427.5012152141412 -1656.0645156131313 0 -1656.0645156131313 -1237.2034228813354 0 0 0 47.574448083198604 932.66249647422046 -1543.5073721830718 0 -1543.5073721830718 -1445.2363559604655 0 0 0 -128.14346487156035 1622.558554705246 -1304.9936473496496 0 -1304.9936473496496 -1418.0682484313893 0 0 0 51.122576568463955 910.59753588448075 -1164.5181038106871 0 -1164.5181038106871 -1608.7469840284211 0 0 0 -174.53736203598601 1451.5230356746051 -1166.9850264977504 0 -1166.9850264977504 -1192.3770761107335 0 0 0 64.786489890968369 2284.6860494539605 -1394.6260508280891 0 -1394.6260508280891 -1010.404435838665 0 0 0 318.57040340382514 884.87641793427383 -1517.5288055992046 0 -1517.5288055992046 -897.79407823879455 0 0 0 -3.2294150761304081 2082.0746427547829 -1727.4405147744289 0 -1727.4405147744289 -717.24818033990255 0 0 0 341.20661560372059 1965.4057735578401 -1137.7995987928527 0 -1137.7995987928527 -550.82135597729484 0 0 0 353.64610439513626 2982.9066658519469 -965.73807833802448 0 -965.73807833802448 310.1921513295074 0 0 0 823.27470429536334 3210.9113212077395 -1441.0218466742338 0 -1441.0218466742338 -113.20436907788189 0 0 0 774.42673803246623 1382.6099188519236 -1463.2174766726955 0 -1463.2174766726955 -100.51126466627215 0 0 0 320.52466354641325 803.24949447130518 -1942.6717010938564 0 -1942.6717010938564 -70.594547049308289 0 0 0 183.16373685550013 2227.4445447786338 -1952.6353005662961 0 -1952.6353005662961 1305.7937199069474 0 0 0 883.30956617139418 2987.8385863430549 -1449.2602617825883 0 -1449.2602617825883 3434.4998463786906 0 0 0 1605.5846081804366 3283.8436935768864 -100.7894918851307 0 -100.7894918851307 2736.943448559482 0 0 0 1505.1967855340922 2439.194852875542 -378.50146049672662 0 -378.50146049672662 4149.0133489301297 0 0 0 1647.052050451417 1881.9940473778552 -510.09275677032383 0 -510.09275677032383 2294.5481142218196 0 0 0 1044.1355403999187 1216.2733318006503 -1478.5476417185932 0 -1478.5476417185932 1404.1249566077022 0 0 0 655.09957210208813 1981.8912827510992 -903.99977156995192 0 -903.99977156995192 1276.3005885756088 0 0 0 814.54796783167853 328.2054695805316 5.3276096681820491 0 5.3276096681820491 1744.2749416450069 0 0 0 518.12010280638492 -421.25740127991594 -584.23515217370732 0 -584.23515217370732 817.83532523787653 0 0 0 99.14448098948742 -1500.508057452691 -225.31923974877463 0 -225.31923974877463 1062.8467825435091 0 0 0 -109.41531872729684 -453.96075596700666 -1346.4319859874736 0 -1346.4319859874736 -168.40216309527023 0 0 0 -155.59072976556672 -1594.1459604856855 -987.27477877692309 0 -987.27477877692309 -232.88135948301817 0 0 0 -456.75682999217599 -8.716996783824186 -1232.820119339563 0 -1232.820119339563 1197.8863419903596 0 0 0 297.29233630163554 -1258.7766055552374 -1770.4454757104259 0 -1770.4454757104259 -34.049127010858911 0 0 0 -323.20643314152323 -2597.6385702672351 -1421.9399430977649 0 -1421.9399430977649 -540.29972645110456 0 0 0 -784.48457417958275 -3221.383822933487 -751.96213209134567 0 -751.96213209134567 -700.56046060550943 0 0 0 -980.48607088475194 -1975.7583850582432 -1414.6691860338228 0 -1414.6691860338228 -64.943135381530738 0 0 0 -510.17538010994213 -3108.9196723894838 -295.2837636754648 0 -295.2837636754648 -186.5331728942906 0 0 0 -823.86321132094429 -2044.0426262503433 -473.21590674142681 0 -473.21590674142681 -507.94394276411185 0 0 0 -637.99664225361266 -4430.8519062029063 334.00543611256762 0 334.00543611256762 -649.6270016081462 0 0 0 -1270.1197269527597 -3359.5151376616077 -307.28542703861876 0 -307.28542703861876 343.1689675773232 0 0 0 -754.0865425210668 -3339.6987345486941 -665.08386190094325 0 -665.08386190094325 -466.41194614273627 0 0 0 -951.52767017286169 -4941.1372035393015 -214.48071543893093 0 -214.48071543893093 -690.5335916264703 0 0 0 -1407.9176987914429 -4942.6109953813248 -265.73546243805868 0 -265.73546243805868 -757.29368293833249 0 0 0 -1424.9761695799134 -7473.2767523086295 -128.89490903017759 0 -128.89490903017759 -788.29889506015024 0 0 0 -2065.3939118421913 -5087.9512524234469 -380.44153477430882 0 -380.44153477430882 -872.87134809671079 0 0 0 -1490.2056501300344 -7091.1305639057746 -482.8752775010804 0 -482.8752775010804 -829.12672931193674 0 0 0 -1980.0643233044314 -5226.5008739175646 -253.95787952291766 0 -253.95787952291766 -1127.7775207563859 0 0 0 -1588.5695986684836 -3769.4669872897066 -1075.3213198523404 0 -1075.3213198523404 -630.05803685091041 0 0 0 -1099.881256035151 -4345.8451563573253 -887.66823529693693 0 -887.66823529693693 -729.79044142475323 0 0 0 -1268.908899445516 1706.1172722172614 891.64653875489978 0 891.64653875489978 -58.957399766003562 0 0 0 411.78996811281468 1730.6525882645367 886.37599392108837 0 886.37599392108837 61.31107368879583 0 0 0 447.99091548833292 2154.3693565852868 954.11267235799312 0 954.11267235799312 197.71938762213699 0 0 0 588.02218605185521 1120.105944211329 951.29174255882776 0 951.29174255882776 491.54035922806202 0 0 0 402.91157585984769 493.33717016599769 889.23077619698199 0 889.23077619698199 805.3395735847696 0 0 0 324.66918593769208 942.79397349132546 870.18885822795403 0 870.18885822795403 47.033107682965237 0 0 0 247.45677029357319 283.6376335938121 782.60438640859093 0 782.60438640859093 297.45207850531494 0 0 0 145.27242802478165 1024.7167722290324 943.02204449160172 0 943.02204449160172 77.030687876182355 0 0 0 275.43686502630413 549.08523049674636 684.01047240309538 0 684.01047240309538 -491.65308205765359 0 0 0 14.358037109773477 427.11956960408997 873.64822308347038 0 873.64822308347038 -20.217971425705855 0 0 0 101.72539954459626 385.81650195024167 575.07038001314277 0 575.07038001314277 -957.81627025079979 0 0 0 -142.99994207513964 696.57729792423083 792.12030841943033 0 792.12030841943033 -485.20828028732831 0 0 0 52.842254409225689 972.57943227936039 538.3122537192819 0 538.3122537192819 -1015.5277173420018 0 0 0 -10.737071265661143 1082.3436905787444 634.35827147805958 0 634.35827147805958 -472.19795490533443 0 0 0 152.53643391835203 1333.1027711901797 742.0550292401058 0 742.0550292401058 -607.5963689295686 0 0 0 181.37660056515324 1595.3412474369493 294.00035285199874 0 294.00035285199874 -1090.2182067063895 0 0 0 126.28076018264028 1187.4268467588781 247.09902750156743 0 247.09902750156743 -1180.748169454685 0 0 0 1.6696693260491884 1292.1060644184354 -391.89986768662448 0 -391.89986768662448 -1588.0777152831652 0 0 0 -73.992912716181308 1972.9447359142341 -182.25102195856198 0 -182.25102195856198 -1160.0378532971408 0 0 0 203.22672065427378 2080.3504014063637 -174.20985565875844 0 -174.20985565875844 -1215.0626711760342 0 0 0 216.32193255758284 1930.4304296499351 477.38700974080143 0 477.38700974080143 -709.21025096142421 0 0 0 305.30504467212836 1692.8491052101119 -777.59563024050658 0 -777.59563024050658 -1441.7390719457858 0 0 0 62.777508316082503 1916.1690385437432 -852.01422043122943 0 -852.01422043122943 -1353.550569671117 0 0 0 140.65461721815791 2472.3602331036882 -558.66039797005237 0 -558.66039797005237 -935.40233232678929 0 0 0 384.23947519422364 2645.1861518017758 -654.17159497151033 0 -654.17159497151033 -718.24211402007086 0 0 0 481.73600944542591 3451.5246269392605 -195.63999905989499 0 -195.63999905989499 -173.62648561567698 0 0 0 819.47453533089424 2446.141587479482 484.09720654232717 0 484.09720654232717 -552.59632413305883 0 0 0 473.38631583660538 3080.0905360670849 110.57957529390944 0 110.57957529390944 -667.44300118876527 0 0 0 603.16188371957992 2324.7367165735936 415.72211844654072 0 415.72211844654072 -357.02756206981383 0 0 0 491.92728862594515 3333.9382519147166 566.60578882646973 0 566.60578882646973 -99.043387468346396 0 0 0 808.72371611159213 2552.8604679906057 1170.1390460573566 0 1170.1390460573566 1045.4766876817057 0 0 0 899.58428891807807 4427.2270725395683 1074.3863151804273 0 1074.3863151804273 844.81323605089165 0 0 0 1318.0100771476148 3421.5750599711141 1119.7446312974828 0 1119.7446312974828 2027.5640225662846 0 0 0 1362.2847706343496 2399.2512287592426 1474.2151812539205 0 1474.2151812539205 2478.7541127404324 0 0 0 1219.5013353749198 3170.863204508013 1065.3267680045601 0 1065.3267680045601 1254.1622689992282 0 0 0 1106.2563683768099 4311.3416097340323 -542.11031718873119 0 -542.11031718873119 414.11184278064502 0 0 0 1181.3633631286698 4529.8019851360696 -75.52132686379764 0 -75.52132686379764 1434.1886402350056 0 0 0 1490.9976563427681 4859.3115586356735 -1517.9017779377546 0 -1517.9017779377546 1202.8228685139547 0 0 0 1515.5336067874059 8230.2241424702152 -844.12037844688348 0 -844.12037844688348 2918.5333867497702 0 0 0 2787.1893823049968 5239.0036596963364 -764.19043544873057 0 -764.19043544873057 8323.2253860439414 0 0 0 3390.5572614350685 7608.5268186596786 3377.0352834740834 0 3377.0352834740834 5570.0483900315303 0 0 0 3294.6438021728013 3602.5105498432567 2238.2576547967965 0 2238.2576547967965 4948.929692013955 0 0 0 2137.8600604643034 1516.8991209528072 1071.2493407335187 0 1071.2493407335187 2275.8414826180906 0 0 0 948.18515089272341 3631.5663598148476 1279.3831951312295 0 1279.3831951312295 2146.9119869520705 0 0 0 1444.6195866917287 1612.0766778626628 -340.7600710717461 0 -340.7600710717461 5740.6036931779554 0 0 0 1838.1700927601548 1048.1910108789816 -260.80526630617351 0 -260.80526630617351 3266.2856851843408 0 0 0 1078.6191740158301 847.49601221235253 -412.98943658016242 0 -412.98943658016242 3238.4519646874851 0 0 0 1021.4869942249584 1646.3362979798353 1226.1511262075173 0 1226.1511262075173 3055.2977267782512 0 0 0 1175.4085061895212 1702.8271621120209 1048.5295386449995 0 1048.5295386449995 1180.5793770740811 0 0 0 720.8516347965251 1145.2442516014323 962.3311336406764 0 962.3311336406764 2514.774489759543 0 0 0 915.00468534024299 633.87694632398143 654.88562562188599 0 654.88562562188599 1338.4997687723771 0 0 0 493.09417877408941 912.62064197671089 1005.1734390869647 0 1005.1734390869647 1805.8766073901224 0 0 0 679.62431234170754 1254.5181172142745 959.93689826936213 0 959.93689826936213 526.273576500334 0 0 0 445.19792342865213 1644.8949445983067 1215.0943826381258 0 1215.0943826381258 1310.5283215009031 0 0 0 738.85581652480232 421.21553043651818 744.84132069666703 0 744.84132069666703 700.60111397442824 0 0 0 280.45416110273607 256.01407600374432 770.600575734975 0 770.600575734975 1512.1821671820658 0 0 0 442.04906079645275 421.57093671020584 -411.87303913671872 0 -411.87303913671872 1800.6649231299107 0 0 0 555.5589649600297 -23.984828924506473 214.27117547371932 0 214.27117547371932 1690.717251745592 0 0 0 416.68310570527137 -52.754660066918859 285.28218955995771 0 285.28218955995771 1187.7579911980893 0 0 0 283.75083278279226 508.41541137566378 573.54744199077402 0 573.54744199077402 2468.8012300956789 0 0 0 744.30416036783504 68.044349357851161 -374.93658449927739 0 -374.93658449927739 1150.7555128487249 0 0 0 304.69996555164448 151.6645350277538 -287.35177736186131 0 -287.35177736186131 1099.7967904480765 0 0 0 312.86533136895719 722.39393824481306 -976.16608020385524 0 -976.16608020385524 1253.1462769948821 0 0 0 493.88505380992376 557.02887463574746 -859.58715754172374 0 -859.58715754172374 497.90472534891023 0 0 0 263.73339999616439 84.813877333334858 -595.15877228238912 0 -595.15877228238912 268.78283794298795 0 0 0 88.399178819081044 740.28785911044372 -1035.628002818954 0 -1035.628002818954 435.79317559504813 0 0 0 294.02025867637315 785.21948116724184 -1016.2446796240126 0 -1016.2446796240126 571.56845362325748 0 0 0 339.19698369762489 319.13090475097522 -767.56663645534206 0 -767.56663645534206 -249.84853125273898 0 0 0 17.32059337455884 1851.4958862101112 -746.00304358665971 0 -746.00304358665971 -357.34090073457673 0 0 0 373.53874636888384 1321.8009501795668 -856.56417608009951 0 -856.56417608009951 -308.82061441475867 0 0 0 253.24508394120227 1401.4002905218651 -963.9696157125818 0 -963.9696157125818 -280.633910839598 0 0 0 280.19159492056679 2269.7366992078018 -1480.1734871493225 0 -1480.1734871493225 726.2509095309241 0 0 0 748.99690218468118 581.41478697528692 -329.7112448832786 0 -329.7112448832786 2166.250770976616 0 0 0 686.91638948797527 1173.4368055470704 -992.19272668242047 0 -992.19272668242047 1409.0161688037388 0 0 0 645.61324358770162 1057.2853868357602 -1180.4089668319066 0 -1180.4089668319066 1494.4503971598924 0 0 0 637.93394599891258 1512.4782510117843 -1339.5078132889748 0 -1339.5078132889748 2578.5726368707988 0 0 0 1022.7627219706459 1298.6953298824924 -942.52378857799749 0 -942.52378857799749 3527.5990928031642 0 0 0 1206.573605671414 1965.7221991216613 -1079.8970453893457 0 -1079.8970453893457 3773.0534091647314 0 0 0 1434.6939020715988 3243.1920495171689 -124.56492089951234 0 -124.56492089951234 10656.986364665278 0 0 0 3475.0446035456116 2572.0987948595312 -485.26902637011005 0 -485.26902637011005 -909.01365584069617 0 0 0 415.7712847547084 3410.0002595523956 -2005.5469205447785 0 -2005.5469205447785 1831.5913537889626 0 0 0 1310.3979033353398 6952.5496775584252 4009.4413836540352 0 4009.4413836540352 6627.9666236603662 0 0 0 3395.129075304696 3872.6728954411101 -2663.915718860711 0 -2663.915718860711 3887.7702788103948 0 0 0 1940.1107935628761 8.1233111156379518 0.92371579455324304 0 0.92371579455324304 8.5099239316579354 0 0 0 4.1583087618239718 11910.848025984125 3035.891347226268 0 3035.891347226268 1174.1192144426241 0 0 0 3271.2418101066833 6086.3240152770559 753.29869671443157 0 753.29869671443157 4.3460746707132785 0 0 0 1522.6675224869396 4.2952180680045826 0.86057355754172582 0 0.86057355754172582 17.098098518124843 0 0 0 5.3483291465323566 1127.5297787337695 -144.88772197203389 0 -144.88772197203389 226.84803471064834 0 0 0 338.59445336110457 7105.6064547508677 1050.4458972137945 0 1050.4458972137945 46.26382961438685 0 0 0 1787.9675710913189 9.2988265684585887 1.8157771327803958 0 1.8157771327803958 26.773156339008324 0 0 0 9.0179957268667277 1065.6229706580948 3.2802843324434434 0 3.2802843324434434 -101.4235054990213 0 0 0 241.04986628976826 4848.4405252267825 888.60303777929221 0 888.60303777929221 -382.06268556851137 0 0 0 1116.594459914566 1843.2236906299868 -795.5185378076651 0 -795.5185378076651 -526.80921827214297 0 0 0 329.10361808946095 1835.3592948107635 16.374917720127087 0 16.374917720127087 -335.25712722672279 0 0 0 375.02554189601017 2002.745412726098 -578.94814882012497 0 -578.94814882012497 -96.907903048996587 0 0 0 476.45937741927526 1689.5557165044279 -334.83669006194827 0 -334.83669006194827 -556.72781695890262 0 0 0 283.20697488638098 1383.9687029333045 -226.81723135459151 0 -226.81723135459151 -462.09465517570789 0 0 0 230.46851193939938 1546.9191058992019 -15.683910647681046 0 -15.683910647681046 -244.13771893102421 0 0 0 325.69534674204442 1240.4832689547975 -12.636003692045506 0 -12.636003692045506 -215.2944926435348 0 0 0 256.29719407781522 1566.6298453781585 -281.49839620609214 0 -281.49839620609214 -578.59717286444447 0 0 0 247.00816812842822 4577.908690518525 916.97342117240669 0 916.97342117240669 -411.14364046204719 0 0 0 1041.6912625141122 4551.0622702286018 410.62517654398107 0 410.62517654398107 -223.65638917862088 0 0 0 1081.8514702624962 6212.4177539880984 482.06066486478085 0 482.06066486478085 5.8245778809650801 0 0 0 1554.5605829672713 11.737755612059596 2.0548404053849079 0 2.0548404053849079 35.53563989247165 0 0 0 11.818348876132811 4996.8413421934456 495.5369098450974 0 495.5369098450974 -264.73652545661025 0 0 0 1183.026204184207 4609.8875731852968 400.10625063705083 0 400.10625063705083 -159.75740521884291 0 0 0 1112.5325419916044 3254.3408106010102 634.60709290346858 0 634.60709290346858 -484.7229971497145 0 0 0 692.40445336281118 4282.9439607159438 452.80161565913534 0 452.80161565913534 -196.3594449928205 0 0 0 1021.6461289307772 1305.9391707838358 -16.409724498027927 0 -16.409724498027927 -169.39186225519734 0 0 0 284.13682713215894 14.922364170858454 2.4422000827109778 0 2.4422000827109778 44.730981220289024 0 0 0 14.913336347786869 3477.9136653530586 402.53948321771168 0 402.53948321771168 -249.94794673236902 0 0 0 806.99142965518695 1330.2629627485458 -149.86890965132807 0 -149.86890965132807 -553.83726793501955 0 0 0 194.10642370338246 1186.9471787889784 -226.88790738829061 0 -226.88790738829061 -705.03503964466927 0 0 0 120.47803478607693 1360.2254628822757 -20.36811988547106 0 -20.36811988547106 -207.35910044875163 0 0 0 288.21659060838101 1235.2174902398046 -120.58996044073047 0 -120.58996044073047 -601.61096584313509 0 0 0 158.40163109916784 1225.1406051016061 -130.58829463732127 0 -130.58829463732127 -619.17130369274128 0 0 0 151.49232535221654 1073.9341741181538 -306.99092932219452 0 -306.99092932219452 -885.07703475024027 0 0 0 47.214284841978952 947.04820006048931 -260.22977115079084 0 -260.22977115079084 -965.75274666243058 0 0 0 -4.6761366504865691 1275.5516754490852 -313.35747482199167 0 -313.35747482199167 -820.33191571248153 0 0 0 113.80493993415107 1065.6761205964985 -646.55545229251402 0 -646.55545229251402 -727.95075338040169 0 0 0 84.431341804024214 948.63925362519444 -437.93815084423477 0 -437.93815084423477 -850.08762409423252 0 0 0 24.637907382740195 639.59217819127605 -488.2607064202748 0 -488.2607064202748 -1009.8319547784997 0 0 0 -92.559944146806259 697.33901903453125 -547.45249308136658 0 -547.45249308136658 -1022.5676132625322 0 0 0 -81.307148556999891 662.04922340658277 -716.89362380754289 0 -716.89362380754289 -783.32515297591362 0 0 0 -30.3189823923326 770.95939981558649 -516.54423371680082 0 -516.54423371680082 -962.63732013227468 0 0 0 -47.919480079172388 871.21944321625688 -638.18873015327108 0 -638.18873015327108 -790.77629434892242 0 0 0 20.110787216833614 417.85944413542541 -688.55953537049993 0 -688.55953537049993 -808.28402773825746 0 0 0 -97.60614590070827 877.77162126773078 -878.98254497569656 0 -878.98254497569656 -474.4623199051357 0 0 0 100.82732534064871 418.80254531571563 -837.01815605521301 0 -837.01815605521301 -201.30678815839383 0 0 0 54.373939289330309 1077.666738893369 -756.54482441633877 0 -756.54482441633877 -484.66395108120605 0 0 0 148.25069695304035 1271.5676237514572 -482.90268182973023 0 -482.90268182973023 -707.47530148631768 0 0 0 141.02308056628442 1354.7860308719878 -548.88871204423685 0 -548.88871204423685 -700.56568784611591 0 0 0 163.55508575646763 -4680.4102659101791 270.74489783305762 0 270.74489783305762 -975.91376478211896 0 0 0 -1414.081007673065 -5833.2391083939783 518.6143564855156 0 518.6143564855156 -850.76662175886304 0 0 0 -1671.0014325382126 -3979.4843354617515 1183.0631758316231 0 1183.0631758316231 -501.89422790899698 0 0 0 -1120.3446408426862 -7198.4669382020365 422.86207538427334 0 422.86207538427334 -819.59740539857739 0 0 0 -2004.516085900148 -7003.8958280611905 217.78120967810173 0 217.78120967810173 -713.75913129669061 0 0 0 -1929.4137398394669 -4293.0017983716425 130.13856759570444 0 130.13856759570444 -837.31175800778146 0 0 0 -1282.5783890948551 -4745.9271533838501 505.28621445007957 0 505.28621445007957 -883.22344289036846 0 0 0 -1407.2876490685549 -3373.0624003754165 918.74451320288426 0 918.74451320288426 -102.43793092317355 0 0 0 -868.8750828246466 -2074.4493260988038 789.38945088152832 0 789.38945088152832 -277.45226488489789 0 0 0 -587.97539774592769 -1397.7091296457766 1297.5699478022871 0 1297.5699478022871 713.09561881850823 0 0 0 -171.15337770681435 -2145.8888968326501 735.53339332103951 0 735.53339332103951 -688.85986112660612 0 0 0 -708.68718948981405 -1934.5466489942673 1579.5318003200373 0 1579.5318003200373 -250.90807865991883 0 0 0 -546.3636819135545 -3029.4967383361618 793.36030498547916 0 793.36030498547916 -842.93257468755473 0 0 0 -968.10732825593368 -1357.062412061372 1170.8163421243189 0 1170.8163421243189 -548.58187829634699 0 0 0 -476.41107258943521 1433.5310818219368 2070.1755989261655 0 2070.1755989261655 -144.63956824170236 0 0 0 322.22287839505589 123.24097002702547 1389.0890933146889 0 1389.0890933146889 -124.95452003409446 0 0 0 -0.4283875017608807 2166.2682188992885 2169.6593821797833 0 2169.6593821797833 825.09726862879324 0 0 0 747.84137188202021 -0.073182912507036235 1622.7144449300413 0 1622.7144449300413 -265.06154369717115 0 0 0 -66.283681652414089 -1681.6357417856889 402.85777326945481 0 402.85777326945481 0.1634610670080292 0 0 0 -420.3680701796693 -329.30950864313854 1246.9250683340961 0 1246.9250683340961 1244.0576040459418 0 0 0 228.68702385070355 222.42440758431258 785.74772770519485 0 785.74772770519485 967.76104377504817 0 0 0 297.54636283984291 1904.5660774176195 1615.1692613097457 0 1615.1692613097457 2461.6022424513794 0 0 0 1091.542079967252 2560.3775217334351 1769.0750317169845 0 1769.0750317169845 4541.5986649439656 0 0 0 1775.4940466693497 4189.4907615615075 2115.7701742932786 0 2115.7701742932786 1354.1264384866927 0 0 0 1385.904300012048 4699.3193530156004 2404.0341441777637 0 2404.0341441777637 1609.312726492868 0 0 0 1577.1580198771208 2626.1170600117948 1321.6356883436183 0 1321.6356883436183 -29.11712380759127 0 0 0 649.24998405105362 3676.571327738312 1969.7331627863241 0 1969.7331627863241 71.708532065014879 0 0 0 937.0699649508324 4507.5891614082793 746.41874203129191 0 746.41874203129191 -235.61719028902007 0 0 0 1067.9929927798075 2161.5624585309233 1317.0762098133928 0 1317.0762098133928 -525.26787681186397 0 0 0 409.07364542975847 2157.6949293381331 1721.6996872244927 0 1721.6996872244927 -577.8502724658174 0 0 0 394.96116421807528 3545.8331151041857 1174.0866114019082 0 1174.0866114019082 -496.16636757244123 0 0 0 762.4166868829343 3269.3444101241184 964.82408705865964 0 964.82408705865964 -586.60276396373229 0 0 0 670.6854115400929 3527.7253696881962 888.70577481597502 0 888.70577481597502 -536.35922495258274 0 0 0 747.84153618390701 2546.9649895165753 1120.2221147628006 0 1120.2221147628006 -863.13782671594049 0 0 0 420.95679070015871 1961.9596235861554 1244.9515644045532 0 1244.9515644045532 -881.67405278007936 0 0 0 270.07139270152584 2095.2957743236911 1653.7093774664199 0 1653.7093774664199 -729.89461814489914 0 0 0 341.350289044698 636.17666217439273 1387.2784887103771 0 1387.2784887103771 -935.76167413883559 0 0 0 -74.896252991110487 702.25805563784706 1568.2819698188832 0 1568.2819698188832 -943.93662073323685 0 0 0 -60.419641273843808 569.68147494197183 1530.3694387153701 0 1530.3694387153701 -862.41709052154329 0 0 0 -73.183903894896503 -759.83479518571039 1657.6204690193772 0 1657.6204690193772 -753.12318851580494 0 0 0 -378.2394959253761 691.61393412821053 1749.750636712728 0 1749.750636712728 -701.07583257248916 0 0 0 -2.3654746110696578 1202.6746840636488 1374.7640322083826 0 1374.7640322083826 -900.09764015362089 0 0 0 75.644260977504928 -207.11100538129904 1410.1222247395708 0 1410.1222247395708 -701.65061243707896 0 0 0 -227.19040445459177 -710.17463596857669 1807.7377906489928 0 1807.7377906489928 -542.0771981372236 0 0 0 -313.06295852644507 -1753.0394430381784 1116.3372226885731 0 1116.3372226885731 -930.09757114984677 0 0 0 -670.78425354700448 -2323.4221434957735 1483.983638814927 0 1483.983638814927 -675.46603414194215 0 0 0 -749.72204440942073 -2133.6805289683252 1004.582535399682 0 1004.582535399682 -983.32454751690966 0 0 0 -779.25126912131236 -2023.7121459646096 1490.3480411030469 0 1490.3480411030469 -791.49536954779614 0 0 0 -703.80187887809916 -753.67213715738762 1539.8550780497171 0 1539.8550780497171 -979.26588182334672 0 0 0 -433.23450474518177 -600.8530307952833 1667.4555677109456 0 1667.4555677109456 -1210.4370591591905 0 0 0 -452.82252248862005 -1330.8739669311365 1313.2598374467198 0 1313.2598374467198 -889.65179753282837 0 0 0 -555.13144111599479 -1878.2412596678842 1094.3191604880994 0 1094.3191604880994 -1072.1075617784518 0 0 0 -737.58720536157489 -2514.1346917892151 1292.0763039806698 0 1292.0763039806698 -888.35236884103506 0 0 0 -850.62176515756437 -3538.4144493874592 503.55239797289687 0 503.55239797289687 -983.70180108674685 0 0 0 -1130.5290626185451 -2066.4612507260026 532.47461647860473 0 532.47461647860473 -888.92988117424829 0 0 0 -738.84778297506273 -2940.9192991228701 537.26154360158398 0 537.26154360158398 -879.40989930871001 0 0 0 -955.08229960789322 -4915.8800094728249 446.76509165651805 0 446.76509165651805 -957.97548213846312 0 0 0 -1468.4638729028193 -3667.4630865938962 1027.8753498543483 0 1027.8753498543483 -802.63364253887266 0 0 0 -1117.5241822831886 -3594.48543519737 557.34157512396905 0 557.34157512396905 -1036.9210512102145 0 0 0 -1157.8516216018979 -446.27651593821111 481.03936493356014 0 481.03936493356014 -847.78675021395702 0 0 0 -323.51581653804942 -1338.1525686821697 459.9026991689243 0 459.9026991689243 -1146.0171800152748 0 0 0 -621.04243717436475 -638.17576632773853 769.94380496867234 0 769.94380496867234 -933.94494570243114 0 0 0 -393.03017800752423 -1543.4636210319441 442.15393302660959 0 442.15393302660959 -910.19189960430958 0 0 0 -613.41388015907432 -1592.4357978712178 390.73046250602056 0 390.73046250602056 -977.59075840734295 0 0 0 -642.50663906964837 -2609.7822466630168 492.8891694385764 0 492.8891694385764 -992.01084954157704 0 0 0 -900.44827405115939 -2336.9865098845039 924.8241800026517 0 924.8241800026517 -1068.5209056292078 0 0 0 -851.37685387844977 -1729.4033466328547 803.3221579017063 0 803.3221579017063 -1089.2724615267944 0 0 0 -704.66895203992317 -1203.8339972770918 1256.860065117321 0 1256.860065117321 -1094.8465172212454 0 0 0 -574.67012862456613 -1073.2599734484975 977.67271046472888 0 977.67271046472888 -871.29113107029116 0 0 0 -486.13777612968988 -716.63410756054509 1170.2714004338777 0 1170.2714004338777 -1060.5427938927314 0 0 0 -444.29422536332277 -270.03479314994183 1111.8756981863262 0 1111.8756981863262 -978.29575930992723 0 0 0 -312.08263811496727 -225.87896523732343 991.01233269566728 0 991.01233269566728 -1093.8947069710121 0 0 0 -329.94341805209115 -837.50087539861488 1096.8642556951672 0 1096.8642556951672 -1105.8128837847762 0 0 0 -485.82843979585232 -99.218121184212578 936.27257895718503 0 936.27257895718503 -1064.8472431030859 0 0 0 -291.01634107183963 567.84747641133436 1058.9854914783791 0 1058.9854914783791 -1052.1043820321502 0 0 0 -121.06422640520032 508.82118199538672 1058.4235401695478 0 1058.4235401695478 -1230.0950522054191 0 0 0 -180.31846755251172 1157.5270447693256 1140.9048504256934 0 1140.9048504256934 -1045.2522678365349 0 0 0 28.068694233217684 -227.42205834583729 1249.8185216904885 0 1249.8185216904885 -1246.4879629107309 0 0 0 -368.47750531414931 -335.44510875755805 1488.164914833028 0 1488.164914833028 -1202.4206255986646 0 0 0 -384.46643358902656 492.89539363051153 1272.5933321453194 0 1272.5933321453194 -1089.7987853446612 0 0 0 -149.22584792854468 477.40101876002154 1261.5617003764492 0 1261.5617003764492 -932.88655542136985 0 0 0 -113.87138416533708 1040.0662854681141 1408.2206513139026 0 1408.2206513139026 -1148.6468308194017 0 0 0 -27.145136337829172 500.34836755736615 1247.0865463979353 0 1247.0865463979353 -1090.1575841042213 0 0 0 -147.45230413670652 1810.3398064670764 1007.236217670732 0 1007.236217670732 -854.44521441534744 0 0 0 238.97364801293588 1848.5619267461152 1039.800801956985 0 1039.800801956985 -791.81212649145164 0 0 0 264.18745006367681 1789.2790885467984 1328.8616684024164 0 1328.8616684024164 -908.82235783981741 0 0 0 220.11418267675617 2010.2327155060048 1099.9747455572797 0 1099.9747455572797 -799.95633755256131 0 0 0 302.56909448836814 2719.1277786158171 601.87976812452689 0 601.87976812452689 -480.37749428680399 0 0 0 559.68757108226418 1851.2560371912987 865.74048605654389 0 865.74048605654389 -893.5539818192774 0 0 0 239.42551384298713 1793.2305059157807 729.44568169119157 0 729.44568169119157 -729.13562602485763 0 0 0 266.02371997274167 1167.7082540975857 1169.386695155612 0 1169.386695155612 -1052.7220183600057 0 0 0 28.746558934409677 1169.3192050505277 862.32697998771619 0 862.32697998771619 -1106.6147725480478 0 0 0 15.676108125622704 1917.6826127102686 529.97973395284498 0 529.97973395284498 -900.75889542658115 0 0 0 254.2309293209255 1135.8224531231099 341.85788884750218 0 341.85788884750218 -1258.1549209415098 0 0 0 -30.583116954599973 1609.5651345118094 528.08434961318562 0 528.08434961318562 -1002.1843873803155 0 0 0 151.84518678288441 1275.5604459905735 292.21940256023663 0 292.21940256023663 -1189.3466438269825 0 0 0 21.553450540886843 1752.0625671806629 40.612663758642157 0 40.612663758642157 -1095.6369247793918 0 0 0 164.10641060033231 1646.2395918416896 153.51894025347428 0 153.51894025347428 -1150.0072779552429 0 0 0 124.05807847164579 1412.454419781352 -20.798848867532797 0 -20.798848867532797 -1625.5606212556595 0 0 0 -53.27655036856595 872.76923626390635 100.96170062496094 0 100.96170062496094 -1541.0214903799933 0 0 0 -167.06306352899992 542.24032317855745 432.54854752305249 0 432.54854752305249 -1237.7417292947648 0 0 0 -173.87535152905912 409.6873243295413 321.01376771517971 0 321.01376771517971 -1635.4007258394267 0 0 0 -306.42835037747864 844.20694670012745 233.4947906327925 0 233.4947906327925 -1726.3196602114476 0 0 0 -220.52817837781913 536.43723823518667 814.56755292905109 0 814.56755292905109 -1161.4458975080051 0 0 0 -156.25216481821553 1027.781243708203 630.23565518546093 0 630.23565518546093 -1187.129221842566 0 0 0 -39.836994533587131 482.71119378250296 738.43788166924787 0 738.43788166924787 -1359.9197569583193 0 0 0 -219.302140793945 1192.5728879074886 883.8447769176455 0 883.8447769176455 -1070.3388377498486 0 0 0 30.558512539399089 -85.701808339974377 879.03827035937866 0 879.03827035937866 -1346.4038760702824 0 0 0 -358.0264211025642 -663.18627400312107 625.0844358428003 0 625.0844358428003 -1162.2591403072583 0 0 0 -456.36135357759485 88.612497120018816 496.77567764480045 0 496.77567764480045 -1154.808522375708 0 0 0 -266.54900631394412 -113.68123467479018 512.58866897139524 0 512.58866897139524 -1015.7667558867834 0 0 0 -282.36199764041521 23.95224051779951 606.34085661610879 0 606.34085661610879 -1524.7034297165228 0 0 0 -375.18779729967355 171.74154071904195 259.84876692584658 0 259.84876692584658 -1557.5003623683588 0 0 0 -346.43970541235467 67.976943168556318 143.85234286230116 0 143.85234286230116 -1214.679968720302 0 0 0 -286.67575638790731 315.24800368209253 225.9764108129275 0 225.9764108129275 -1142.4614903756883 0 0 0 -206.80337167336256 80.025127396118478 301.26509306747175 0 301.26509306747175 -1266.3042125884094 0 0 0 -296.56977129806182 -100.51285540696699 213.35956649735454 0 213.35956649735454 -1088.6062387588318 0 0 0 -297.27977354143513 132.4988838267509 84.038802725001005 0 84.038802725001005 -1034.1253889320287 0 0 0 -225.40662627631718 63.148162077879533 45.393240866003907 0 45.393240866003907 -952.10674332542112 0 0 0 -222.2396453118854 19.012628946366021 66.037799088153406 0 66.037799088153406 -991.11829723318806 0 0 0 -243.02641707172734 65.03993225377053 122.57978644390823 0 122.57978644390823 -881.94961197301745 0 0 0 -204.22741992978263 -249.68044666749483 209.83148634036479 0 209.83148634036479 -872.2340710866265 0 0 0 -280.47862943854125 -274.95237803031523 248.6726363227499 0 248.6726363227499 -1027.9841405891093 0 0 0 -325.73412965485659 -830.8097669310082 323.58277335923049 0 323.58277335923049 -1072.3773454210022 0 0 0 -475.79677808799897 740.33447979898119 -257.81009431110078 0 -257.81009431110078 -1291.5986699047062 0 0 0 -137.81604752643034 989.04355558424504 -142.10604710501184 0 -142.10604710501184 -1079.0906372690151 0 0 0 -22.511770421193432 1084.9327808710459 -157.37197310617375 0 -157.37197310617375 -1050.0257308174732 0 0 0 8.7267625133918045 904.60610839631499 -118.42290422784254 0 -118.42290422784254 -1354.8909488751269 0 0 0 -112.57121011970412 641.42330560702828 -204.92697421484081 0 -204.92697421484081 -1543.8558053963659 0 0 0 -225.6081249473342 453.77827641841668 -270.56354452977553 0 -270.56354452977553 -1449.2161862117864 0 0 0 -248.85947744834357 462.88998688004722 -329.68742678796116 0 -329.68742678796116 -1498.9089281973647 0 0 0 -259.00473532933029 688.77320861560725 -355.79978799031096 0 -355.79978799031096 -1313.0459885883579 0 0 0 -156.06819499318613 468.73707493250458 -425.1540997851489 0 -425.1540997851489 -1168.0440071274243 0 0 0 -174.82673304873151 390.05723250000131 -444.50248168198004 0 -444.50248168198004 -1200.5356447787831 0 0 0 -202.61960306969547 962.24105120913373 -353.14960140038693 0 -353.14960140038693 -1116.1340471786007 0 0 0 -38.47324899236537 862.80714570373129 -325.18178568834446 0 -325.18178568834446 -1151.3288219184051 0 0 0 -72.130419053668447 660.12431832933623 -239.26457393663122 0 -239.26457393663122 -1300.2662818887925 0 0 0 -160.03549088986449 898.87230484718202 -152.1074335906832 0 -152.1074335906832 -1052.0736973086096 0 0 0 -38.300348115357338 1077.5753309334177 -227.60449744359812 0 -227.60449744359812 -916.63688613467275 0 0 0 40.234611199685787 1150.3052239874914 -98.086564711694336 0 -98.086564711694336 -677.09872564511534 0 0 0 118.30162458559425 1388.4312113216129 -20.886949519625887 0 -20.886949519625887 -196.37376623871933 0 0 0 298.01436127072429 1426.021960343307 -31.454229294210563 0 -31.454229294210563 -203.99796561654694 0 0 0 305.50599868169047 1277.9550045237647 -90.787801272784236 0 -90.787801272784236 -673.92748519096131 0 0 0 151.00687983320131 2865.1710187321332 649.71216001895664 0 649.71216001895664 -544.07663719038828 0 0 0 580.27359538543897 3700.5702252656192 317.36062241074364 0 317.36062241074364 -123.56010571244406 0 0 0 894.25252988828288 1425.2851487696016 -25.760046345046248 0 -25.760046345046248 -217.36199149395725 0 0 0 301.98078931891087 18.013114509190302 2.6900559976063692 0 2.6900559976063692 54.117410358061115 0 0 0 18.03263121681286 2538.5713012896449 712.45911826963129 0 712.45911826963129 -635.26919979561353 0 0 0 475.82552537349693 2755.0916765927541 334.30232869158499 0 334.30232869158499 -250.89831376468646 0 0 0 626.04834070701327 2593.0413396206422 319.62782725918078 0 319.62782725918078 -307.66638873211923 0 0 0 571.34373772212712 21.206233174181136 2.7861278736754507 0 2.7861278736754507 63.725589069738028 0 0 0 21.232955560979789 1566.9522601842309 -22.495844711832433 0 -22.495844711832433 -228.09718411149879 0 0 0 334.71376901818076 2877.6821337731599 373.78866995431599 0 373.78866995431599 -302.49410772013653 0 0 0 643.79700651326129 24.494871571757372 3.0529346033418934 0 3.0529346033418934 73.506471742574817 0 0 0 24.500335828583047 1922.155034145193 445.28323204284243 0 445.28323204284243 -554.76168968377169 0 0 0 341.84833611536123 1165.765027260295 -57.702408977993173 0 -57.702408977993173 -729.02722505250131 0 0 0 109.18445055194752 1526.5873108038804 5.9507613215973834 0 5.9507613215973834 -289.6552523138289 0 0 0 309.23301462251311 1207.8059964127988 -13.850992706712532 0 -13.850992706712532 -1034.2259586503387 0 0 0 43.395009440617287 1340.6463774101217 -93.966870030264545 0 -93.966870030264545 -728.26396369125359 0 0 0 153.09560342971645 1483.0279649541135 50.945824716884545 0 50.945824716884545 -985.24180226297176 0 0 0 124.44654067278498 1218.1176452353302 -77.56964043246262 0 -77.56964043246262 -1009.5990015383927 0 0 0 52.129660924232667 1785.3171678819044 -1.2736624201625091 0 -1.2736624201625091 -323.45253505310757 0 0 0 365.46615820719762 1721.4397569405519 -19.30221260378903 0 -19.30221260378903 -298.5979405530743 0 0 0 355.71045409687031 1639.233849482466 -78.762114757149902 0 -78.762114757149902 -905.76481951505366 0 0 0 183.36725749185166 2524.8260022134345 197.86685342503188 0 197.86685342503188 -226.64368302701041 0 0 0 574.54557979661331 27.619108720823725 2.78687248112844 0 2.78687248112844 83.330927802006826 0 0 0 27.737509130707636 2116.9053341980489 -3.4854505516505014 0 -3.4854505516505014 -300.69454220332045 0 0 0 454.05269799868256 2277.2930235110312 230.04464966419619 0 230.04464966419619 -309.1388758255606 0 0 0 492.03853692136761 2012.7360923713422 94.187099267459416 0 94.187099267459416 -588.22427325788885 0 0 0 356.12795477839245 1959.7607939085865 194.49728058101027 0 194.49728058101027 -576.54798263430712 0 0 0 345.80320281855529 31.523268836098154 3.2375870019977473 0 3.2375870019977473 93.515378742507195 0 0 0 31.259661894651337 2573.9563972150791 56.130126473100972 0 56.130126473100972 -360.83598739939043 0 0 0 553.28010245392215 2142.1753892594279 -130.21016872400651 0 -130.21016872400651 -695.91354007378686 0 0 0 361.56546229640662 1325.601807039433 108.49179721975634 0 108.49179721975634 -1473.5303130526772 0 0 0 -36.982126503312429 1881.4614916021274 98.844370426071691 0 98.844370426071691 -482.71903461385591 0 0 0 349.68561424706786 2386.6469035424143 -35.831507720577967 0 -35.831507720577967 -397.1768401207155 0 0 0 497.36751585542333 1913.0350062748403 184.5046754897412 0 184.5046754897412 -804.68676327928551 0 0 0 277.08706074888869 1601.5270289258115 -83.551344436798445 0 -83.551344436798445 -1389.3660218914083 0 0 0 53.040251758601698 617.71936291765405 42.348516724019646 0 42.348516724019646 -2080.295109981178 0 0 0 -365.64393676588088 1110.5338934624706 167.4766212100476 0 167.4766212100476 -1883.6912650565755 0 0 0 -193.28934289852623 928.50413321254928 -30.062603944331173 0 -30.062603944331173 -2425.5494653537498 0 0 0 -374.26133303529969 953.42408976081879 -48.154749544472907 0 -48.154749544472907 -1468.7603174689793 0 0 0 -128.83405692704036 868.16284602437918 -78.636949709866258 0 -78.636949709866258 -1878.4692948007651 0 0 0 -252.57661219409601 747.35901082269083 -118.88926164825079 0 -118.88926164825079 -1699.2513361377132 0 0 0 -237.97308132875514 820.73099282919225 -128.12085413994282 0 -128.12085413994282 -1381.409019136915 0 0 0 -140.1695065769311 1060.5239484547565 -11.727345052604051 0 -11.727345052604051 -1448.7592892179637 0 0 0 -97.058835190800892 453.57373336241199 -171.06858474611136 0 -171.06858474611136 -1875.242172244416 0 0 0 -355.41710972049987 506.56022982095203 -171.81188649738033 0 -171.81188649738033 -1589.6533782047036 0 0 0 -270.77328709593837 501.78381943740987 -35.892105177224948 0 -35.892105177224948 -2067.747805654617 0 0 0 -391.490996554302 570.41361494539501 -107.22112289775032 0 -107.22112289775032 -1759.3590136635366 0 0 0 -297.23634967953626 420.431447290086 -150.31587206085487 0 -150.31587206085487 -1873.3168333696376 0 0 0 -363.22134651988745 524.13944451406678 -119.58490574590905 0 -119.58490574590905 -2176.7986206229925 0 0 0 -413.16479402723053 417.94713367296026 -21.555491589338999 0 -21.555491589338999 -2703.9143714307538 0 0 0 -571.49180943944702 401.83196403636066 -103.26164476869326 0 -103.26164476869326 -2223.8985864561764 0 0 0 -455.51665560495167 369.25720365270445 -113.71742533366887 0 -113.71742533366887 -2628.6463238621945 0 0 0 -564.8472800523723 330.78855205648142 -58.536323013368587 0 -58.536323013368587 -2232.478904528034 0 0 0 -475.42258811788815 336.12105394142054 -211.02269094190888 0 -211.02269094190888 -1932.3152581899085 0 0 0 -399.0485510621229 351.78706139877863 -122.09514493352071 0 -122.09514493352071 -2247.7127097246007 0 0 0 -473.98141208145466 755.27811128222402 -181.89979270370574 0 -181.89979270370574 -1700.8944845543665 0 0 0 -236.40409331803676 572.87994761981213 -81.402606119475422 0 -81.402606119475422 -2249.3601983238773 0 0 0 -419.12006267601629 462.69476204953025 -179.45003754260199 0 -179.45003754260199 -1919.482729015137 0 0 0 -364.19699174140169 602.41694916436427 -164.77101164735541 0 -164.77101164735541 -1434.7827985264084 0 0 0 -208.09146234050968 457.95667701266893 -182.557072556403 0 -182.557072556403 -1924.2356595517958 0 0 0 -366.56974563478207 350.71915369328099 -223.96450035282032 0 -223.96450035282032 -1617.0254202432916 0 0 0 -316.57656663750276 446.55192601053295 -240.12458811310944 0 -240.12458811310944 -1243.5718096746641 0 0 0 -199.25497091603302 448.41184527027144 -207.75595085553414 0 -207.75595085553414 -1507.189609442079 0 0 0 -264.69444104295144 388.6286171239567 -187.88410911354276 0 -187.88410911354276 -1896.763492110259 0 0 0 -377.03371874657523 409.06321394653969 -234.80215228795578 0 -234.80215228795578 -1620.2454311763813 0 0 0 -302.79555430746132 360.35222814080771 -260.98517781135479 0 -260.98517781135479 -1659.3359589895226 0 0 0 -324.74593271217873 399.87146712574668 -254.35316946341482 0 -254.35316946341482 -1643.9230417624522 0 0 0 -311.01289365917637 360.17628421674817 -348.86586787417764 0 -348.86586787417764 -1331.5519884175701 0 0 0 -242.84392605020548 315.34244261463937 -332.61142884868013 0 -332.61142884868013 -1471.7714132309484 0 0 0 -289.1072426540768 311.6288347912523 -336.80823927634492 0 -336.80823927634492 -1224.0886821164713 0 0 0 -228.11496183130475 319.41615346251365 -287.32094237104957 0 -287.32094237104957 -1462.9822723590769 0 0 0 -285.89152972413922 239.11163989178885 -292.02468939324626 0 -292.02468939324626 -1420.9365771586108 0 0 0 -295.45623431670583 341.92940256270231 -319.45983934629999 0 -319.45983934629999 -1451.4949345277564 0 0 0 -277.39138299126444 240.23854272384477 -265.20875561718094 0 -265.20875561718094 -1317.5660166832731 0 0 0 -269.33186848985616 379.60520578084652 -216.44519336128678 0 -216.44519336128678 -936.67284072216717 0 0 0 -139.26690873533062 324.56729998374067 -308.9517594946069 0 -308.9517594946069 -1069.040221805506 0 0 0 -186.11823045544133 206.47979370833309 -423.73959202897686 0 -423.73959202897686 -979.03438800925505 0 0 0 -193.13864857523049 16.816749689947073 -322.45018984188391 0 -322.45018984188391 -1156.4861370751553 0 0 0 -284.91734684630205 160.51514557365317 -339.8008734672735 0 -339.8008734672735 -670.8022078486174 0 0 0 -127.57176556874128 178.13831113127225 -508.14218315825701 0 -508.14218315825701 -960.97866973636383 0 0 0 -195.71008965127231 195.58000511274531 -560.57552826332767 0 -560.57552826332767 -979.76380956497633 0 0 0 -196.04595111305707 447.52020809006569 -507.20260250322417 0 -507.20260250322417 -1122.3344053724086 0 0 0 -168.70354932058638 298.80583926486815 -422.61555836341904 0 -422.61555836341904 -1165.2119982252843 0 0 0 -216.60153974010427 401.439757370812 -389.6292480323018 0 -389.6292480323018 -1316.6245137954447 0 0 0 -228.79618910615773 236.76277026765138 -386.64241283777847 0 -386.64241283777847 -1267.4653774693893 0 0 0 -257.67565180043448 722.39634800680165 -34.609362589329066 0 -34.609362589329066 -353.00455688482543 0 0 0 92.347947780494223 -0.35584888039170104 -2.7904087318359752 0 -2.7904087318359752 -1.053504195113244 0 0 0 -0.35233826887623632 923.50791731066988 -101.68426223915958 0 -101.68426223915958 -242.07577812253203 0 0 0 170.35803479703441 81.507824889704807 -79.402574095646742 0 -79.402574095646742 -328.56857818111985 0 0 0 -61.765188322854101 -136.49218967644856 -160.1593423194646 0 -160.1593423194646 -146.77060766875911 0 0 0 -70.815699336302259 -121.51699615725215 -338.75852287202861 0 -338.75852287202861 -759.18408885844542 0 0 0 -220.17527125392394 -119.01289865426679 -312.94453570501764 0 -312.94453570501764 -427.07793252751799 0 0 0 -136.52270779544642 152.66179772016631 -223.55863982169103 0 -223.55863982169103 -904.00065957718652 0 0 0 -187.83471546425562 305.86140198982093 -94.180640143010351 0 -94.180640143010351 -299.74779782097721 0 0 0 1.5284010422096799 143.70707080023294 -169.11489166472052 0 -169.11489166472052 -745.7153304319545 0 0 0 -150.50206490792971 495.22924185243824 -94.062983664942294 0 -94.062983664942294 -719.3528420930038 0 0 0 -56.030900060140311 343.92872714264286 -193.72644081592807 0 -193.72644081592807 -1177.2266706576702 0 0 0 -208.3244858787557 521.67250503805371 -65.599153636168921 0 -65.599153636168921 -573.16920763905 0 0 0 -12.874175650249526 752.89717577188821 -11.478775747367763 0 -11.478775747367763 -678.11032513152895 0 0 0 18.696712660089361 820.64874508761045 -24.625098945425179 0 -24.625098945425179 -719.02953738428369 0 0 0 25.404801925831407 845.63201001860023 -79.885677866546757 0 -79.885677866546757 -714.63651795707574 0 0 0 32.74887301538115 -0.38835753629828251 -3.0153563489676154 0 -3.0153563489676154 -1.1950525120990756 0 0 0 -0.39585251209933969 417.08849905444004 -49.718307655829449 0 -49.718307655829449 -479.09441444152981 0 0 0 -15.501478846773352 911.06595532488564 -126.00015894288681 0 -126.00015894288681 -423.18804261949481 0 0 0 121.96947817634828 -0.40955960247154 -2.9005127553594221 0 -2.9005127553594221 -1.2021198674901998 0 0 0 -0.40291986749043485 1036.9852238852027 -34.692194161999851 0 -34.692194161999851 -753.68311472369351 0 0 0 70.825527290377067 -0.46849138870444129 -2.9485993921390801 0 -2.9485993921390801 -1.2217637962344172 0 0 0 -0.42256379623471485 1140.208212652497 -64.49998270382639 0 -64.49998270382639 -740.22555908831782 0 0 0 99.995663391044673 1159.9012706511919 -29.823633613250422 0 -29.823633613250422 -713.05023235413955 0 0 0 111.71275957426391 1041.0826315456084 55.029282857394719 0 55.029282857394719 -957.33615825790366 0 0 0 20.936618321925835 632.20914412925038 -120.8199118111188 0 -120.8199118111188 -1059.9634239695961 0 0 0 -106.93856996008628 714.30265823305217 -150.42778315066039 0 -150.42778315066039 -1188.1111946465899 0 0 0 -118.4521341033842 900.13763553053832 -45.318610303715104 0 -45.318610303715104 -755.69830828954946 0 0 0 36.109831810246305 996.11725351273992 -78.388027544408942 0 -78.388027544408942 -1082.2786225699535 0 0 0 -21.540342264303831 754.58560370843861 -221.35270233417123 0 -221.35270233417123 -1503.69063593176 0 0 0 -187.27625805583011 1080.3295724185937 -101.02064614913184 0 -101.02064614913184 -824.14635690769137 0 0 0 64.04580387772603 1530.738080902616 -40.858036256487139 0 -40.858036256487139 -717.96458336172145 0 0 0 203.19337438522302 1240.3454608358415 -143.62356645129148 0 -143.62356645129148 -838.35766869359759 0 0 0 100.49694803556031 1013.1783821930072 -44.204782543133661 0 -44.204782543133661 -1424.974212918909 0 0 0 -102.94895768147524 1267.1892890958957 -42.523698058240825 0 -42.523698058240825 -856.28682960475362 0 0 0 102.72561487278563 -0.18499797597948664 -3.1161976464946277 0 -3.1161976464946277 -1.1272659919927257 0 0 0 -0.32806599199305264 1601.6871186795743 65.300608822202577 0 65.300608822202577 -673.40918968832193 0 0 0 232.06948224781263 1368.0140793044307 132.24577338422569 0 132.24577338422569 -753.71255455371283 0 0 0 153.57538118767934 1083.4967924925727 -32.234871178357025 0 -32.234871178357025 -1255.0952265133142 0 0 0 -42.899608505185313 856.57791229094346 116.54761723074762 0 116.54761723074762 -1630.672497783431 0 0 0 -193.52364637312212 782.71085841314971 -17.954237530580485 0 -17.954237530580485 -1458.1032682755631 0 0 0 -168.84810246560346 1013.0498136103049 109.20431760468728 0 109.20431760468728 -1253.9006147155537 0 0 0 -60.212700276312034 602.05368862754358 58.276799918232882 0 58.276799918232882 -1594.3690557938753 0 0 0 -248.07884179158236 323.74088256370669 18.997889327839403 0 18.997889327839403 -1797.2123842096698 0 0 0 -368.36787541149079 274.28152964694732 -86.538298487832435 0 -86.538298487832435 -1945.5904429549819 0 0 0 -417.82722832700847 482.00278497189947 9.0779097983711381 0 9.0779097983711381 -1998.9294318449529 0 0 0 -379.23166171826369 536.82509513196646 -77.520887456795663 0 -77.520887456795663 -1653.0174012134335 0 0 0 -279.04807652036698 294.91331182687463 -9.3304983490326094 0 -9.3304983490326094 -1520.5054148003392 0 0 0 -306.39802574336636 265.3927316422496 -75.83092279733799 0 -75.83092279733799 -1641.1685555623753 0 0 0 -343.94395598003143 435.07087596809833 -90.550003567027488 0 -90.550003567027488 -1402.5539504554772 0 0 0 -241.87076862184495 701.31437342806021 -38.63197325339479 0 -38.63197325339479 -1227.5930311718444 0 0 0 -131.5696644359455 901.78278281473467 -73.842292864197248 0 -73.842292864197248 -1172.5251170758775 0 0 0 -67.685583565285924 659.0674293817068 56.919408099853626 0 56.919408099853626 -1452.8565674990034 0 0 0 -198.44728452932452 -307.5969402475979 129.11909570622504 0 129.11909570622504 -1936.6403845190048 0 0 0 -561.0593311916507 -746.66535121313427 304.41030693276321 0 304.41030693276321 -2244.6878351090595 0 0 0 -747.83829658054844 -239.59019505313091 252.92940649508284 0 252.92940649508284 -2656.8427364328695 0 0 0 -724.10823287150015 141.81702202230667 33.956652223704509 0 33.956652223704509 -2199.395203601488 0 0 0 -514.39454539479527 -110.48261850436279 143.18090448076282 0 143.18090448076282 -2301.4107203002081 0 0 0 -602.9733347011429 83.224880356130825 31.462286203376834 0 31.462286203376834 -1992.3345872840137 0 0 0 -477.27742673197054 158.82427493541559 -37.502456525191519 0 -37.502456525191519 -2161.6639744751137 0 0 0 -500.70992488492425 100.13720965699213 4.9398636924056518 0 4.9398636924056518 -2275.4951248386242 0 0 0 -543.83947879540801 161.69372749247333 -0.042544994281342952 0 -0.042544994281342952 -2180.4847961756286 0 0 0 -504.69776717078838 100.0633465798868 39.253852584092556 0 39.253852584092556 -1850.0006621965156 0 0 0 -437.48432890415745 1.6761112563214056 32.363587622794057 0 32.363587622794057 -1549.1697076923999 0 0 0 -386.87339910901972 -218.32326617996247 60.965009047277817 0 60.965009047277817 -1702.7483621399424 0 0 0 -480.26790707997634 66.934782089473714 17.445497361600019 0 17.445497361600019 -1989.3750913036695 0 0 0 -480.61007730354902 -149.75283775233964 32.733322959754332 0 32.733322959754332 -1675.6075439236793 0 0 0 -456.34009541900463 -257.18700963769811 86.455974506661676 0 86.455974506661676 -1932.5994731236128 0 0 0 -547.44662069032779 -538.91951726896878 64.395255243258788 0 64.395255243258788 -1618.2852141349606 0 0 0 -539.30118285098229 -540.0000447001571 64.655961254031411 0 64.655961254031411 -1618.645261960042 0 0 0 -539.66132666504984 -367.91844144471872 -77.102584314989159 0 -77.102584314989159 -1103.0938946598887 0 0 0 -367.75308402615184 -255.51616990603731 -87.075382375726235 0 -87.075382375726235 -1289.8900753875332 0 0 0 -386.35156132339262 -170.61658117933791 -136.10479613140922 0 -136.10479613140922 -1089.1564561462997 0 0 0 -314.94325933140937 -215.0898315299863 -103.33444250831172 0 -103.33444250831172 -1273.101858172437 0 0 0 -372.0479224256058 -150.50284037775091 -25.292347052837556 0 -25.292347052837556 -1324.7695283668529 0 0 0 -368.81809218615103 9.7617374504478676 -77.517812343657624 0 -77.517812343657624 -1297.5703938625693 0 0 0 -321.95216410303021 14.17271208231216 -125.96521263003594 0 -125.96521263003594 -1022.7791907135831 0 0 0 -252.15161965781772 10.518830569728834 -31.080525084865087 0 -31.080525084865087 -1170.8037962527314 0 0 0 -290.07124142075054 -71.6703532693125 -77.804060201581649 0 -77.804060201581649 -1047.9066258020466 0 0 0 -279.89424476783984 -45.787894871285204 -87.766227943698993 0 -87.766227943698993 -826.77401676728402 0 0 0 -218.14047790964221 14.58337460998257 -127.22973962962283 0 -127.22973962962283 -800.74078320985382 0 0 0 -196.53935214996773 -165.92819213324699 -106.29051439314168 0 -106.29051439314168 -843.0696512788511 0 0 0 -252.24946085302454 -254.56458618463193 -76.328122335858438 0 -76.328122335858438 -1028.155736918425 0 0 0 -320.68008077576428 -151.31726040199928 -130.55636411926793 0 -130.55636411926793 -946.25183433249151 0 0 0 -274.39227368362265 -255.21357382920743 -167.07913292485901 0 -167.07913292485901 -762.43893201869923 0 0 0 -254.41312646197667 -303.85769397805745 -120.35447248933585 0 -120.35447248933585 -911.99499448408631 0 0 0 -303.96317211553588 -208.4129325807626 -161.49910774593909 0 -161.49910774593909 -963.48259709857098 0 0 0 -292.97388241983339 549.63595540130314 -161.59365856463523 0 -161.59365856463523 -865.46585572411686 0 0 0 -78.957475080703489 396.14156121528708 -51.423392332626008 0 -51.423392332626008 -1108.1768140520444 0 0 0 -178.00881320918938 590.45338584677347 -112.25915140882626 0 -112.25915140882626 -661.61352391602122 0 0 0 -17.790034517312051 535.24601877830764 -127.1904750728379 0 -127.1904750728379 -1079.8111189234833 0 0 0 -136.14127503629402 194.75616786474177 -38.98666655104762 0 -38.98666655104762 -1271.6948252235188 0 0 0 -269.23466433969418 194.49724493145766 -100.32443305747552 0 -100.32443305747552 -1248.3565749856596 0 0 0 -263.46483251355039 402.14897424883793 -159.52801859713566 0 -159.52801859713566 -1023.3035189207831 0 0 0 -155.28863616798617 289.34447424794234 -172.91417862960657 0 -172.91417862960657 -761.26218619891142 0 0 0 -117.97942798774216 142.6531350906937 -75.218060613128955 0 -75.218060613128955 -990.32737079513674 0 0 0 -211.91855892611079 161.7317422312924 -125.24437676842979 0 -125.24437676842979 -977.82475747430794 0 0 0 -204.02325381075389 130.24694205734801 -80.373014414437193 0 -80.373014414437193 -781.9758792660657 0 0 0 -162.93223430217944 443.49111659585719 -158.29584126318423 0 -158.29584126318423 -620.77106619851247 0 0 0 -44.319987400663649 280.00974710238643 -68.714058757845066 0 -68.714058757845066 -801.71267936492677 0 0 0 -130.42573306563531 656.99164163323371 -132.14898735517733 0 -132.14898735517733 -626.622425143285 0 0 0 7.5923041224868939 484.15246058625303 -99.913127599677182 0 -99.913127599677182 -472.7283918629887 0 0 0 2.8560171808157975 580.42410210399555 -94.258616733126473 0 -94.258616733126473 -461.92063972955521 0 0 0 29.625865593610456 419.09560259923137 -145.92177260336553 0 -145.92177260336553 -408.65322623926022 0 0 0 2.6105940899926736 465.44857337014599 -85.914996833129067 0 -85.914996833129067 -393.20223598225994 0 0 0 18.061584346971586 543.46114734511582 -130.9006878322009 0 -130.9006878322009 -281.33474503194657 0 0 0 65.531600578292341 288.22615442895551 -141.12798628154076 0 -141.12798628154076 -377.75615319957888 0 0 0 -22.382499692655983 304.35885111070729 -74.887701895055216 0 -74.887701895055216 -600.08312791653577 0 0 0 -73.931069201456921 270.96210781278944 -164.5064486069239 0 -164.5064486069239 -531.62220866740518 0 0 0 -65.165025213653848 68.276049436784547 -165.84968488961951 0 -165.84968488961951 -598.75534341545449 0 0 0 -132.61982349466746 59.204688649731224 -139.06404891622358 0 -139.06404891622358 -603.12185920512138 0 0 0 -135.97929263884748 230.60539645822772 -123.63684962356115 0 -123.63684962356115 -541.01989527668775 0 0 0 -77.603624704615044 119.98823059708593 -161.33032160641625 0 -161.33032160641625 -411.39205759445235 0 0 0 -72.850956749341549 201.73065582646348 -164.86285409529376 0 -164.86285409529376 -383.84055806999163 0 0 0 -45.527475560881953 31.7280642602733 -180.47505143756558 0 -180.47505143756558 -316.02792181249265 0 0 0 -71.074964388054866 55.511752171545652 -169.00314731336948 0 -169.00314731336948 -250.27776654657146 0 0 0 -48.691503593756408 464.22125004618192 -218.37410583268743 0 -218.37410583268743 -171.2390696581931 0 0 0 73.245545096997148 493.00399404500683 -152.76326062787186 0 -152.76326062787186 -153.27934956796116 0 0 0 84.931161119261446 464.10827406063299 -92.885933421267396 0 -92.885933421267396 -248.94366094147335 0 0 0 53.791153279790251 239.03661531113829 -165.8120456219637 0 -165.8120456219637 -271.91628842530793 0 0 0 -8.2199182785423659 428.62551920079113 -150.39026723882532 0 -150.39026723882532 -331.23428099008834 0 0 0 24.347809552675585 -212.7800017008403 -172.30079157942035 0 -172.30079157942035 -535.81523993136568 0 0 0 -187.1488104080515 -147.383701484157 -176.51297689487632 0 -176.51297689487632 -513.83191329546321 0 0 0 -165.30390369490505 -165.42882896441694 -172.00405883139953 0 -172.00405883139953 -732.03970773920355 0 0 0 -224.36713417590505 -211.71391818119486 -145.98000525566727 0 -145.98000525566727 -635.04740159948778 0 0 0 -211.69032994517065 -168.30474565250316 -194.28365178728481 0 -194.28365178728481 -634.54910121854118 0 0 0 -200.71346171776111 -84.437763875720066 -179.27467206375258 0 -179.27467206375258 -522.56337394076468 0 0 0 -151.75028445412119 -151.34271215404283 -110.85505500828995 0 -110.85505500828995 -631.76463597862517 0 0 0 -195.776837033167 -54.529385081748472 -181.5744313768152 0 -181.5744313768152 -743.42890761395074 0 0 0 -199.48957317392487 -68.545367687250575 -132.99346518687196 0 -132.99346518687196 -449.03334479464456 0 0 0 -129.39467812047388 -76.599169511739632 -168.04082957636879 0 -168.04082957636879 -321.69651926076551 0 0 0 -99.573922193126322 -43.726737421232642 -131.15033562461656 0 -131.15033562461656 -440.83307014010438 0 0 0 -121.1399518903343 -60.791456371911153 -159.46600028456214 0 -159.46600028456214 -205.07506160378887 0 0 0 -66.466629493925041 -97.561309930219565 -152.0870755359266 0 -152.0870755359266 -327.43066116044753 0 0 0 -106.24799277266673 -140.16508490864618 -148.36016449578014 0 -148.36016449578014 -236.06876463557413 0 0 0 -94.058462386055098 -128.96253117578539 -123.19549952253084 0 -123.19549952253084 -466.14956327203305 0 0 0 -148.77802361195461 -156.68328410898769 -167.76929052681749 0 -167.76929052681749 -381.18740379240717 0 0 0 -134.46767197534874 -131.98939671311152 -136.81997880844568 0 -136.81997880844568 -352.85198701178922 0 0 0 -121.21034593122519 -162.96621993154471 -178.13376237580084 0 -178.13376237580084 -364.51392869331971 0 0 0 -131.87003715621611 -131.80490578232735 -142.96898905531552 0 -142.96898905531552 -395.37916574249459 0 0 0 -131.7960178812055 -59.870661934627428 -96.045282522426277 0 -96.045282522426277 -179.73401653837911 0 0 0 -59.901169618251636 -89.821831185554657 -127.03427118601702 0 -127.03427118601702 -269.2497877002628 0 0 0 -89.767904721454371 -162.17513030256265 -142.39270704493254 0 -142.39270704493254 -264.06004768345565 0 0 0 -106.55879449650459 -141.33418197293571 -122.88603285332658 0 -122.88603285332658 -150.04602387146855 0 0 0 -72.845051461101065 -142.79355806350912 -132.47882970948578 0 -132.47882970948578 -237.06199061446122 0 0 0 -94.963887169492608 -94.791077214923604 -137.42071162108334 0 -137.42071162108334 -221.61959605550896 0 0 0 -79.102668317608163 -93.475045147028865 -161.93227670802389 0 -161.93227670802389 -103.68155500917027 0 0 0 -49.289150039049829 -110.96115126048373 -145.36790242821854 0 -145.36790242821854 -16.687121543696719 0 0 0 -31.91206820104513 -168.62853490658691 -116.77501958738992 0 -116.77501958738992 -152.66208472999983 0 0 0 -80.322654909146678 -163.37164120425703 -97.403143064975609 0 -97.403143064975609 -82.245384040896113 0 0 0 -61.4042563112883 -217.60853412426962 -45.509555106814808 0 -45.509555106814808 -68.160746459249069 0 0 0 -71.442320145879663 -156.16001497047137 -95.914455931295464 0 -95.914455931295464 -84.52721020671639 0 0 0 -60.171806294296942 -161.90642976496682 -87.197806482903005 0 -87.197806482903005 -187.29076470262618 0 0 0 -87.299298616898241 -171.53894705464629 -97.414379038077868 0 -97.414379038077868 -164.44506151361554 0 0 0 -83.99600214206545 -43.401796662044369 -55.371269334694865 0 -55.371269334694865 -129.67710573222504 0 0 0 -43.269725598567355 165.63114641864132 -227.58503374553379 0 -227.58503374553379 -85.747776062698549 0 0 0 19.970842588985644 532.24501321154867 -414.54658499234256 0 -414.54658499234256 200.86911116806198 0 0 0 183.27853109490269 217.6733758125884 -237.59128701969198 0 -237.59128701969198 -66.656011069082979 0 0 0 37.75434118587637 168.06661974881314 -199.62793894884547 0 -199.62793894884547 -195.07095164798363 0 0 0 -6.7510829747926095 -16.350036005297497 -182.53632457531182 0 -182.53632457531182 -110.9485891092869 0 0 0 -31.824656278646088 -13.790458695913088 -193.33407113819558 0 -193.33407113819558 -100.5872232574246 0 0 0 -28.594420488334407 137.75480293519237 -270.66639227058505 0 -270.66639227058505 56.314610749178257 0 0 0 48.517353421092643 -71.575327482335666 -153.47375200451074 0 -153.47375200451074 47.2861698628883 0 0 0 -6.0722894048618627 -165.91002823656856 -104.00573420419641 0 -104.00573420419641 -62.327546650035174 0 0 0 -57.059393721650956 -194.98822143345461 -66.944163075773389 0 -66.944163075773389 -23.413249296307669 0 0 0 -54.600367682440577 -74.707226905943031 -156.26813455471705 0 -156.26813455471705 47.260971295385787 0 0 0 -6.8615639026393396 90.872493504410727 -213.90743663957747 0 -213.90743663957747 114.59100862347447 0 0 0 51.365875531971376 95.958239545136905 -252.41755421440789 0 -252.41755421440789 165.70227142974119 0 0 0 65.415127743719495 345.69329388696372 -320.06203695787201 0 -320.06203695787201 257.09451276476733 0 0 0 150.69695166293272 549.68390983626568 -793.02609361076634 0 -793.02609361076634 714.55631649146392 0 0 0 316.06005658193243 -3273.8322019495399 -155.73233414492483 0 -155.73233414492483 243.78463032533728 0 0 0 -757.51189290605112 2037.4127936598454 -632.30805635005345 0 -632.30805635005345 319.52352925462947 0 0 0 589.23408072861866 0.71567736317113351 -0.53096962495509548 0 -0.53096962495509548 0.77014867987721614 0 0 0 0.37145651076208741 835.79087330743198 -374.51306106406196 0 -374.51306106406196 -163.14925475197236 0 0 0 168.16040463886478 635.41800621054858 -237.26795488661278 0 -237.26795488661278 -34.675446580116841 0 0 0 150.18563990760799 0.21588999670484013 -1.3014428259549824 0 -1.3014428259549824 1.0627912099420427 0 0 0 0.31967030166172067 1345.5792918515549 -202.0045127173301 0 -202.0045127173301 0.76709983074147203 0 0 0 336.58659792057409 0.28431878238985281 -1.8974784517104137 0 -1.8974784517104137 0.78326537483371916 0 0 0 0.26689603930589301 775.94553731021551 -118.14501801450359 0 -118.14501801450359 -69.555961333323808 0 0 0 176.59739399422295 746.44078412903764 -241.07553242673066 0 -241.07553242673066 -30.397493984714629 0 0 0 179.01082253608087 -1296.2591434007068 -373.9679782951971 0 -373.9679782951971 -237.74189038159238 0 0 0 -383.5002584455745 -1678.6085312403541 -311.25135739677285 0 -311.25135739677285 -116.15267757222477 0 0 0 -448.69030220314454 -1201.8523548303892 -295.99802606429068 0 -295.99802606429068 -101.3432027759801 0 0 0 -325.79888940159236 -2177.2041938744082 -317.04567196238219 0 -317.04567196238219 -104.01924232784222 0 0 0 -570.30585905056262 -1261.6087567388197 -399.59257727562971 0 -399.59257727562971 0.88446575579200726 0 0 0 -315.18107274575709 -1611.254289901512 -169.01446096019401 0 -169.01446096019401 -124.62342277507605 0 0 0 -433.96942816914742 -1921.5010028970923 -479.58587916580473 0 -479.58587916580473 486.22618702824002 0 0 0 -358.81870396721308 -1034.7687102569489 55.658760200894108 0 55.658760200894108 166.80797232179566 0 0 0 -216.99018448378808 -758.34355825537477 -280.75883117698584 0 -280.75883117698584 -171.6931852931607 0 0 0 -232.50918588713415 -507.87680341739656 -404.34872276775513 0 -404.34872276775513 438.74436799573482 0 0 0 -17.283108855415406 -558.03771688628649 -159.4901815785754 0 -159.4901815785754 268.72645043617126 0 0 0 -72.32781661252875 -152.67495249790636 -249.85522230258738 0 -249.85522230258738 715.78782022927771 0 0 0 140.77821693284341 -280.55665338937297 -288.44885485596706 0 -288.44885485596706 978.16065080283829 0 0 0 174.40099935336593 159.31380883916449 -731.06603687939275 0 -731.06603687939275 688.77198658824409 0 0 0 212.02144885685266 266.28012686721019 -884.28552991333345 0 -884.28552991333345 234.41636073520101 0 0 0 125.17412190060263 -121.7457374639589 -522.84832958170421 0 -522.84832958170421 196.07930017309627 0 0 0 18.583390677284569 -142.53527411586106 -716.41774120599143 0 -716.41774120599143 11.727037665400076 0 0 0 -32.702059112615188 -205.85879168332087 -488.31627497044292 0 -488.31627497044292 -39.634607587737264 0 0 0 -61.373349817764392 -116.19086596482204 -668.15668832175652 0 -668.15668832175652 -289.65426984813246 0 0 0 -101.46128395323809 -842.21522906931955 -594.59804956055928 0 -594.59804956055928 -76.816981376905687 0 0 0 -229.75805261155597 -358.22384086606348 -609.12197312614887 0 -609.12197312614887 -198.51331177633074 0 0 0 -139.18428816059873 -412.45645938384075 -607.08759754571247 0 -607.08759754571247 -365.06189509280841 0 0 0 -194.37958861916229 -741.38134753531187 -535.20211502361917 0 -535.20211502361917 -325.28655320310713 0 0 0 -266.66697518460444 -138.69202003634354 -740.34335216714908 0 -740.34335216714908 -439.94452858456316 0 0 0 -144.65913715522646 -335.51580318410743 -588.14745476780968 0 -588.14745476780968 -569.82479660949457 0 0 0 -226.33514994840061 -358.34610274890906 -601.31162823457964 0 -601.31162823457964 -279.64679128577427 0 0 0 -159.49822350867157 239.93794406890652 -729.58449864014074 0 -729.58449864014074 -527.18498380507663 0 0 0 -71.811759934042811 61.505343195659904 -775.92860361439011 0 -775.92860361439011 -206.46258829142226 0 0 0 -36.239311273940032 -79.988003775545451 -684.96299525770155 0 -684.96299525770155 -463.31695622113057 0 0 0 -135.82623999916842 119.44002877517278 -684.20731473072465 0 -684.20731473072465 -715.63191426619869 0 0 0 -149.04797137275636 336.34751686588788 -808.99731432506701 0 -808.99731432506701 -483.16185560657743 0 0 0 -36.703584685172274 310.76623967730211 -582.95839034768142 0 -582.95839034768142 -1012.8271977212235 0 0 0 -175.51523951098034 89.389522792071602 -668.95445835687406 0 -668.95445835687406 -729.80918206276147 0 0 0 -160.10491481767258 356.48321511042377 -617.4662488715046 0 -617.4662488715046 -911.29139235864022 0 0 0 -138.70204431205411 -366.20183519932698 -467.68036712797755 0 -467.68036712797755 -556.62773289401321 0 0 0 -230.70739202333561 -22.422345666415367 -566.39306618047635 0 -566.39306618047635 -752.28747320950333 0 0 0 -193.67745471897933 -203.00191145191292 -619.78753707779288 0 -619.78753707779288 -515.45691438427889 0 0 0 -179.61470645904791 -52.89110629185916 -498.90200015352229 0 -498.90200015352229 -796.12772579129887 0 0 0 -212.25470802078962 -277.20482554126647 -425.69041125802096 0 -425.69041125802096 -569.92573620031089 0 0 0 -211.78264043539366 7.21133935964599 -415.56158646182007 0 -415.56158646182007 -599.62618200096949 0 0 0 -148.10371066033076 -237.72522637575412 -372.54472017696281 0 -372.54472017696281 -358.07387458839003 0 0 0 -148.94977524103524 -542.8960096835749 -392.27658501753376 0 -392.27658501753376 -403.36738900986347 0 0 0 -236.56584967335993 -360.03319330549084 -461.1094338035723 0 -461.1094338035723 -294.01760017327661 0 0 0 -163.51269836969186 -427.50723778944121 -210.44908335245108 0 -210.44908335245108 -33.677826535806162 0 0 0 -115.29626608131116 848.75955425898235 -29.875963573858371 0 -29.875963573858371 -147.54527820710609 0 0 0 175.30356901296898 -0.19959827719281131 -2.596714953779431 0 -2.596714953779431 -0.58552657909140282 0 0 0 -0.19628121407105359 -403.2135201464157 -165.79428513557764 0 -165.79428513557764 -174.85600710780272 0 0 0 -144.51738181355495 634.56925193438428 -32.743375453116357 0 -32.743375453116357 -163.27833036704033 0 0 0 117.8227303918361 649.36629204641486 -13.899779128991213 0 -13.899779128991213 -142.91970661805613 0 0 0 126.6116463570898 830.61734612250348 -33.5098074548971 0 -33.5098074548971 -98.73018307704092 0 0 0 182.97179076136575 -1049.093433434495 -202.78901188565555 0 -202.78901188565555 -180.8597004095659 0 0 0 -307.48828346101516 0.024793031830745826 -2.3045689842691117 0 -2.3045689842691117 0.1278073231173984 0 0 0 0.038150088737036125 695.64125141010607 -45.246547068037671 0 -45.246547068037671 -95.961093843798608 0 0 0 149.92003939157678 640.83724000946995 -146.66124402073285 0 -146.66124402073285 -169.65714245610047 0 0 0 117.79502438834226 914.78555531039831 -88.019349515265048 0 -88.019349515265048 -36.59119256076724 0 0 0 219.54859068740768 -1133.6044906638649 -282.60513265312625 0 -282.60513265312625 -243.80400791348245 0 0 0 -344.35212464433658 -740.12256024762087 -541.07862324804012 0 -541.07862324804012 -211.0094267155614 0 0 0 -237.78299674079537 -858.14919646140743 -453.07493094946506 0 -453.07493094946506 -446.48557012589913 0 0 0 -326.15869164682726 -657.72145951780021 -336.88367733912889 0 -336.88367733912889 -75.897348164217647 0 0 0 -183.40470192050498 
</DataArray>
<DataArray type="Float64" Name="cross_section_updated" format="ascii">
1 1 1 1 1 1 1 1 1 1 1 1 1 1 1 1 1 1 1 1 1 1 1 1 1 1 1 1 1 1 1 1 1 1 1 1 1 1 1 1 1 1 1 1 1 1 1 1 1 1 1 1 1 1 1 1 1 1 1 1 1 1 1 1 1 1 1 1 1 1 1 1 1 1 1 1 1 1 1 1 1 1 1 1 1 1 1 1 1 1 1 1 1 1 1 1 1 1 1 1 1 1 1 1 1 1 1 1 1 1 1 1 1 1 1 1 1 1 1 1 1 1 1 1 1 1 1 1 1 1 1 1 1 1 1 1 1 1 1 1 1 1 1 1 1 1 1 1 1 1 1 1 1 1 1 1 1 1 1 1 1 1 1 1 1 1 1 1 1 1 1 1 1 1 1 1 1 1 1 1 1 1 1 1 1 1 1 1 1 1 1 1 1 1 1 1 1 1 1 1 1 1 1 1 1 1 1 1 1 1 1 1 1 1 1 1 1 1 1 1 1 1 1 1 1 1 1 1 1 1 1 1 1 1 1 1 1 1 1 1 1 1 1 1 1 1 1 1 1 1 1 1 1 1 1 1 1 1 1 1 1 1 1 1 1 1 1 1 1 1 1 1 1 1 1 1 1 1 1 1 1 1 1 1 1 1 1 1 1 1 1 1 1 1 1 1 1 1 1 1 1 1 1 1 1 1 1 1 1 1 1 1 1 1 1 1 1 1 1 1 1 1 1 1 1 1 1 1 1 1 1 1 1 1 1 1 1 1 1 1 1 1 1 1 1 1 1 1 1 1 1 1 1 1 1 1 1 1 1 1 1 1 1 1 1 1 1 1 1 1 1 1 1 1 1 1 1 1 1 1 1 1 1 1 1 1 1 1 1 1 1 1 1 1 1 1 1 1 1 1 1 1 1 1 1 1 1 1 1 1 1 1 1 1 1 1 1 1 1 1 1 1 1 1 1 1 1 1 1 1 1 1 1 1 1 1 1 1 1 1 1 1 1 1 1 1 1 1 1 1 1 1 1 1 1 1 1 1 1 1 1 1 1 1 1 1 1 1 1 1 1 1 1 1 1 1 1 1 1 1 1 1 1 1 1 1 1 1 1 1 1 1 1 1 1 1 1 1 1 1 1 1 1 1 1 1 1 1 1 1 1 1 1 1 1 1 1 1 1 1 1 1 1 1 1 1 1 1 1 1 1 1 1 1 1 1 1 1 0.012879037924584905 1 1 0.031374423428981217 1 1 0.046387901530353978 1 1 1 1 1 1 1 1 1 1 1 1 1 0.061293227540847081 1 1 1 1 1 0.076544112181255383 1 1 1 1 1 1 1 1 1 1 1 1 1 1 1 1 1 1 1 1 1 1 1 1 1 1 1 1 1 1 1 1 1 1 1 1 1 1 1 1 1 1 1 1 1 1 1 1 1 1 1 1 1 1 1 1 1 1 1 1 1 1 1 1 1 1 1 1 1 1 1 1 1 1 1 1 1 1 1 1 1 1 1 1 1 1 1 1 1 1 1 1 1 1 1 1 1 1 1 1 1 1 1 1 1 1 1 1 1 1 1 1 1 1 1 1 1 1 1 1 1 1 1 1 1 1 1 1 1 1 1 1 1 1 1 1 1 1 1 1 1 1 1 1 1 1 1 1 1 1 1 1 1 1 1 1 1 1 1 1 1 1 1 1 1 1 1 1 0.09221194785312066 1 1 1 0.1082315837718956 1 1 0.12451533978497942 1 1 1 1 1 1 1 1 1 1 1 0.14098354667824795 1 1 1 1 0.15763929211963967 1 1 1 1 1 1 1 1 1 1 1 1 1 1 1 1 1 1 1 1 1 1 1 1 1 1 1 1 1 1 1 1 1 1 1 1 1 1 1 1 1 1 1 1 1 1 1 1 1 1 1 1 1 1 1 1 1 1 0.00012354259220373823 1 1 1 1 1 1 1 1 1 1 1 1 1 1 1.0000000003284291e-06 1 1 1.0000000002937347e-06 1 1.0000000003713636e-06 1 1 1 1 1 1 1 1 1 1 1 1 1 1.0000000004086601e-06 1 1 1 1 1 1 1 1 1 1 1 1 1 1 1 1 1 1 1 1 1 1 1 1 1 1 1 1 1 1 1 1 1 1 1 1 1 1 1 1 1 1 1 1 1 1 1 1 1 1 1 1 1 1 1 1 1 1 1 1 1 1 1 1 1 1 1 1 1 1 1 1 1 1 1 1 1 1 1 1 1 1 1 1 1 1 1 1 1 1 1 1 1 1 1 1 1 1 1 1 1 1 1 1 1 1 1 1 1 1 1 1 1 1 1 1 1 1 1 1 1 1 1 1 1 1 1 1 1 1 1 1 1 1 1 1 0.0014983652113939108 1 1 0.0019289011353504019 1 0.0016454616694097824 1 1 1 1 1 1 1 1 1 1 1 1 1 1 1 1 1 1 1 1 1 1 1 1 1 1 1 1 1 1 1 1 1 1 1 1 1 1 1 1 1 1 1 1 1 1 1 0.00051344329372456391 1 1 1 1 1 0.0011120715429754531 1 1 1 1 1 1 1 
</DataArray>
<DataArray type="Float64" Name="displacement_divergence" format="ascii">
-0.016970011559920652 -0.016646781296672807 -0.014031686340112873 -0.014105602356238801 -0.012850257784746119 -0.013332705788087471 -0.013411569904125105 -0.012709289900979373 -0.012651869698789307 -0.012499252332702757 -0.012449593200612667 -0.010926309215549972 -0.012232319699859166 -0.011731333524422094 -0.014276387396784459 -0.015842855797912406 -0.011619783344888173 -0.013783718427052111 -0.01501178933111047 -0.013375724614320433 -0.014097161431875784 -0.013508246178539463 -0.01256943867214505 -0.012332344915731937 -0.013952511035140301 -0.011282305651832844 -0.012250380817038796 -0.012549696301344837 -0.012678553703215363 -0.011423546324616618 -0.011909225891137826 -0.014497323007405361 -0.010674553644337656 -0.011442766407427418 -0.0092592809822374875 -0.0095637146019956765 -0.010670159168014916 -0.011116507942402432 -0.010389249850287781 -0.0084347956281687272 -0.0084438884268931286 -0.0069969842111178779 -0.010023513475742174 -0.010067132360565124 -0.0078761826754770448 -0.0086846463837208995 -0.0086488311120192646 -0.008062333518781592 -0.011104484992689248 -0.0097981087139210749 -0.010812962239884259 -0.011237828433990633 -0.010379116833538989 -0.01126956908874103 -0.0096200145627993189 -0.010792285912089222 -0.0092569633049794618 -0.0084000529584075962 -0.0080993553181017142 -0.0086312640043820655 -0.0081479029654903321 -0.0098395600794718551 -0.0093664461134681243 -0.0090603294161845458 -0.0071738672052390796 -0.0080176474314011779 -0.0063744042617427917 -0.0054088090057869166 -0.004851718283315402 -0.0044903905832955407 -0.0049930976570022011 -0.0041978166860051017 -0.0043219737903961216 -0.0048461703670654738 -0.0055941948705584025 -0.0055395249915698927 -0.0059633859431118368 -0.0060107394232043494 -0.0069454779833561971 -0.007113960441910097 -0.0071904372987446896 -0.0068500955883332489 -0.0071222653415038695 -0.0054763616485946666 -0.0062998543283463593 -0.0063763690421423727 -0.0072320470212467042 -0.0068685396663095283 -0.006314496469138316 -0.0056315997262682133 -0.0055513364166183063 -0.004285538294172133 -0.0043572313372534947 -0.0029503955865409041 -0.0056688147991818452 -0.0051698318557170551 -0.0053819573416286244 -0.0040207628660370708 -0.0043537450447974236 -0.0035685175110499144 -0.0023062665990438397 -0.0029977134400741845 -0.0031310840423574241 -0.003272997536479051 -0.0025625570424669445 -0.002076713364352353 -0.0005136121066993465 -0.00068096818780798542 7.5921516079861334e-05 0.00023077002063497305 0.00099419804488788351 -0.0013140614883176791 -0.0016097240679078888 -0.00070675682783238544 -0.0020849355492355229 -0.0014100910510340195 -0.0022271041929250524 -0.0025975391145477444 -0.0018099477890656036 -0.0024947984790628644 -0.0015818355175915223 -0.0030151285317322539 -0.0025202501136171208 -0.0035257331347870085 -0.0030640993281053934 -0.002351567075429464 -0.0038762529611892243 -0.0039277520534354406 -0.0028953887010273864 -0.003420890474532208 0.001212077634499327 -0.00073665663686999774 -0.001648286604276278 0.00024796163582800146 0.0034205134229634213 0.0049858069789073291 0.0035668327659332945 0.0028051115546481077 0.0039519785400397439 0.0030607412588539752 -0.00023485362718834828 -0.00016603578687353349 8.9019200632493335e-05 -0.0011796556111125251 -0.0027429906362221122 0.002184882916523574 -0.0041649305659516717 0.00028715449989279835 -0.0024564399710415262 0.00077441019553956165 0.0028079928274920484 0.00027858893070779482 -0.0012004655642742594 -0.0010799507784361518 -0.0009288241245033039 -0.0012189255101996172 -0.0038378990343912178 -0.0013024607756247546 -0.00273894601177987 0.00026125610787400277 -0.0042191424620104494 -0.000472332078946959 -0.0027824433200331761 -0.0025896253611690711 -0.0046534884390235821 -0.0023159365874918479 -0.0048104801225954535 -0.0031368405076011695 -0.0040108024532964099 -0.0060491231658294439 -0.0051247808978342555 -0.0075350130364625761 -0.005814691592682112 -0.0053572704586294234 -0.0057502093691470108 -0.0049261044448436165 -0.0064959016068640088 -0.0050676480965503659 -0.0053900192886670445 -0.0033618068010326484 -0.0052416152923263903 -0.0045471279446178316 -0.0022738203732319273 -0.0035251174396858905 -0.00055536089280587911 -0.001144951265874182 -0.0021431955931500123 0.00074360314717385493 -0.0031580809427869359 0.0056910915109065138 0.00027242291145218936 0.0024743180342863868 -0.0017451145091562925 0.0014455731303057474 0.0022770576702933684 -0.0026516460683923687 -0.0010201203029614608 -0.002119721663776105 -0.0053915559941675045 -0.0081726464911184155 -0.0050390803398895068 -0.0054168635034393675 -0.007121087728500286 -0.0087983384591175801 -0.0068111421967547436 -0.0067192040852844734 -0.010869770495664177 -0.0093576099566320126 -0.012439429293556653 -0.010592281776300908 -0.013723263566211785 -0.0099438050355051127 -0.010031513688138483 -0.0083948921837289341 -0.0064675692768005263 -0.0087760423296871157 -0.0086085109454168487 -0.0098011886709852558 -0.0070699246425750401 -0.0065895375174334705 -0.0082200264732926465 -0.0067686369946426614 -0.0096481805358025197 -0.01060956031388241 -0.011050345789650695 -0.009218381679733989 -0.01046081611375467 -0.011317191848741422 -0.010708396942973833 -0.0099764261325465606 -0.0095820611931318467 -0.012733257111903186 -0.011888953407172331 -0.01301071590081769 -0.011308641061542876 -0.014950429037606988 -0.013195007889861467 -0.013323657959886659 -0.013248266070708614 -0.013317146729537571 -0.016384401826943562 -0.016055839541334438 -0.017528550383876629 -0.01484390113304021 -0.016083801870968899 -0.013728140186330784 -0.015851875197036625 -0.013245519716496762 -0.014027826074417743 -0.012712640137652303 -0.015909416374674856 -0.01608882519471877 -0.018557305176554684 -0.018061606891229792 -0.02050465851385927 -0.018292483615492128 -0.019264567787474762 -0.017236309984704143 -0.018691428578622271 -0.022684072870241989 -0.019845173468436783 -0.023057872087223964 -0.020769095922141934 -0.019279922944021866 -0.017212364689385334 -0.015843640981441628 -0.017536842076041059 -0.015408793843874974 -0.014534936849734698 -0.014926441313102404 -0.016472599822353939 -0.01661532765281426 -0.0193888245927826 -0.024580658902320196 -0.023570951380954885 -0.02055890237994204 -0.022832642220846355 -0.017843977222277103 -0.019983858626725415 -0.02057512821259172 -0.018777136434709685 -0.016528470075242219 -0.014962643805874032 -0.012368781918128652 -0.016276857174920997 -0.012786771341316117 -0.016338856614899255 -0.013836067285887182 -0.014000218416171911 -0.010848780023595475 -0.011044553498090887 -0.007137276168832335 -0.011129869050515107 -0.010297523610003301 -0.011126607665157801 -0.0082396501907667924 -0.009914659138995488 -0.0079412190489614731 -0.0041158161988552877 -0.0064976206395471192 0.00011919992817461264 -0.0014745127887171752 -0.0039182755735392705 -0.0060057352091015814 -0.0054849385931891592 -0.0038241274608509096 0.0019390139590524658 -0.0027873541284036407 -0.00074809456639231969 -0.0057317563600941951 -0.0048460183998069034 -0.00097947746641268568 -0.0045733331144907907 -0.0029467848966627103 -0.0076346952084185606 -0.0069896837660650135 -0.0088558859362315445 -0.0081028528113756271 -0.012036475668039115 -0.011105975538262862 -0.012134007728435287 -0.012090393418678999 -0.011828155545021715 -0.0083652980919421693 -0.0080189044689992564 -0.011690566674287146 -0.010399781549659481 -0.0082586136297409518 -0.0077672995324273679 -0.006591640431424961 -0.0065235807449147698 -0.0065227294236313016 -0.0065818245494277949 -0.0088060118327054071 -0.0086489292151715469 -0.0074583676812168265 -0.011367575981709788 -0.012021134965006175 -0.01016999375644706 -0.0089665412133607125 -0.014130696727225861 -0.0093567165537529751 -0.01344857888829476 -0.012115822886450474 -0.01360045888545941 -0.010814492148933437 -0.014730454553160133 -0.0091093170263659984 -0.013229649635817853 -0.010820215020204277 -0.015562182325676278 -0.014669640442210308 -0.017610738336432764 -0.015978885947607949 -0.012662698747573198 -0.01002930314547032 -0.013495404305748047 -0.011166623314789903 -0.0089162691176298131 -0.010807166835582499 -0.0080364626217268587 -0.0076436217477057478 -0.0096763580732759022 -0.0063443739023420209 -0.0080240872627330984 -0.0063212119267916089 -0.013215157142929063 -0.012308797656100809 -0.010666641656762343 -0.0091934537041848396 -0.01238690060458511 -0.013509299132691194 -0.0087617879533816723 -0.014436892864204631 -0.011191077251629017 -0.015911695363779954 -0.010404977221199957 -0.012174681913999452 -0.01968291308160075 -0.022400437750973307 -0.021741937267810763 -0.015955771907401356 -0.014842446469005427 -0.011041996031522394 -0.016400954570068849 -0.0089506415399483452 -0.02963596748030381 -0.045121974091093815 -0.026311499738043566 -0.03156181258390215 -0.035210653760574653 -0.028015880860155218 -0.018893556538761444 -0.024566267467838743 -0.023121299215042981 -0.015977480065463692 -0.015385166556988614 -0.014098962335201384 -0.01451306239602862 -0.02132179872513509 -0.018934649463290695 -0.0053559056638295705 -0.0019215935929161329 -0.00070440689108346166 -0.013567157060687104 -0.0075733815977320901 -0.013742705981767023 -0.0096060615067243005 -0.0091642994729434768 -0.0037743365613299856 -0.0088349747653255206 -0.0049421449370045389 0.0011893612020799915 -0.0032035866217890036 0.0012780644142115771 -0.004363434050899645 0.0016196622472741951 0.0079642600850956084 -8.073537690338195e-05 0.008530165390093004 0.0088411526098783957 0.020581867607384084 0.019360668450811677 0.0080131165886602983 0.0045790934213875943 0.022082739154284839 0.040139615204510953 0.037629919638352327 0.041176301261285464 0.026103388509997938 0.016377489302552201 0.020363699195791965 0.012953002570159668 0.0024786120247372034 -0.0027353829681824038 -0.003889768244139169 -0.01141892074980423 0.0074323084075407836 -0.0080801608285381403 -0.01961211435448958 -0.024512151772118754 -0.012754384502748572 -0.020596580283023542 -0.015949916056340302 -0.03175299317381898 -0.018852163563026825 -0.023788191754321675 -0.035197942469786081 -0.035624404239497892 -0.051634847796054928 -0.037255141253250981 -0.049501608082610643 -0.039714239966712188 -0.027497031400878807 -0.031722722486137882 0.010294749202820367 0.011199772887208331 0.014700554651296396 0.010072789396496197 0.0081167296484422873 0.0061864192573393307 0.003631810700619539 0.0068859216256576018 0.0003589509277443434 0.0025431349886149077 -0.0035749985518784971 0.001321056360230638 -0.00026842678164153144 0.0038134108479587724 0.00453441501412883 0.0031570190045660113 4.1741733151259841e-05 -0.0018498228179045229 0.005080668016356836 0.0054080483139395605 0.0076326261168031678 0.0015694377079020633 0.0035163654304539646 0.0096059868798555777 0.012043400236135669 0.020486863383272415 0.011834657895915167 0.01507904709298951 0.012298182215648627 0.020218092902789846 0.022489607222951929 0.032950251928690374 0.034057119265858748 0.030487533384372992 0.027656409209420238 0.029534084078216727 0.037274941408569226 0.037888340169685175 0.069679734557624898 0.084763931535876635 0.082366095054320063 0.053446501511607611 0.02370462877231809 0.036115489667293207 0.045954252319003852 0.026965479350395755 0.025537174855623963 0.029385212654738032 0.018021290869913144 0.022875117133506088 0.012327354469352243 0.016990607808542703 0.011129948085716303 0.018471395413120067 0.0070113540275684103 0.01105122651991132 0.013888974124000733 0.010417077642631792 0.0070937708195698175 0.01860760400919588 0.0076174991387911242 0.0078216332842239236 0.012347126345248101 0.0065933349999041033 0.0022099794704770158 0.007350506466909333 0.0084799245924406103 0.00043301483436397571 0.0093384686592220961 0.0063311270985300554 0.0070047898730141653 0.018724922554617038 0.017172909737199399 0.016140331089692539 0.015948348649972827 0.025569068049266147 0.030164340141785331 0.035867347551789962 0.086876115088640293 0.010394282118867715 0.032759947583383506 0.084878226882617397 0.048502769839071903 10.395771904559927 0.081781045252667162 0.038066688062173393 13.370822866330892 0.0084648613340276048 0.044699189277282947 22.544989317166817 0.0060262466572442025 0.027914861497864041 0.0082275904522365294 0.0093756385474002505 0.011911484435481885 0.0070801743721595339 0.0057617127984849678 0.0081423836685511203 0.0064074298519453815 0.0061752042032107018 0.026042281562852931 0.027046286756562288 0.03886401457418176 29.54587219033202 0.029575655104605358 0.02781331354979022 0.017310111334070455 0.025541153223269442 0.0071034206783039677 37.283340869467168 0.020174785741379653 0.0048526605925845734 0.0030119508696519262 0.0072054147652095279 0.0039600407774791971 0.0037873081338053727 0.001180357121049469 -0.00011690341626217904 0.0028451234983537703 0.0021107835451006016 0.00061594768456851856 -0.0023139986036701532 -0.0020326787139249985 -0.00075797455980832623 -0.0011979870019793262 0.00050276968042083092 -0.0024401536475177066 0.0025206831335162216 0.0013593484822332551 0.0037062674238260152 0.003525577014157108 0.0040888771439116928 -0.03535202519182673 -0.041775035813455264 -0.028008616021067301 -0.050112902147503746 -0.048235343495986682 -0.032064459727371486 -0.035182191226713816 -0.021721877070616236 -0.014699384943648142 -0.0042788344426702984 -0.017717179737245292 -0.013659092047838772 -0.024202683206398401 -0.011910276814735887 0.0080555719598766062 -1.0709687544130375e-05 0.018696034297050523 -0.0016570920413105927 -0.01050920175449177 0.0057171755962675541 0.007438659070996001 0.027288551999181287 0.044387351166733702 0.034647607500301242 0.039428950496927948 0.01623124960127631 0.023426749123770851 0.026699824819495288 0.010226841135744014 0.0098740291054518758 0.019060417172073407 0.016767135288502488 0.01869603840459777 0.0105239197675039 0.0067517848175381312 0.0085337572261174888 -0.0018724063247778505 -0.001510491031846084 -0.0018295975973725565 -0.0094559873981348019 -5.9136865276698813e-05 0.0018911065244377745 -0.0056797601113648399 -0.0078265739631611791 -0.01676960633867508 -0.01874305111023554 -0.019481281728032984 -0.017595046971952188 -0.010830862618629755 -0.011320563062215294 -0.013878286027900042 -0.018439680134039182 -0.021265544128939551 -0.028263226565463762 -0.018471194574376848 -0.023877057490197418 -0.036711596822570636 -0.027938104557079679 -0.02894629054004727 -0.0080878954134510489 -0.015526060929359264 -0.0098257544501887395 -0.015335347003976318 -0.016062665976740886 -0.02251120685127872 -0.021284421346960958 -0.017616723800998102 -0.014366753215614647 -0.012153444403242508 -0.011107355634083049 -0.0078020659528741376 -0.0082485854513021373 -0.012145710994896475 -0.0072754085267959512 -0.0030266056601297997 -0.0045079616888130669 0.00070171735583035577 -0.0092119376328532177 -0.0096116608397260883 -0.0037306461982136163 -0.0028467846041331235 -0.00067862840844523653 -0.0036863076034179265 0.0059743412003232521 0.0066046862515918292 0.0055028545669184581 0.0075642273622088529 0.013992189277057143 0.0059856378460747539 0.0066505929993185831 0.00071866397336006749 0.00039190270314037878 0.0063557732330234984 -0.00076457792386497303 0.0037961296695718794 0.00053883626352302372 0.0041026602650080513 0.0031014519617909575 -0.001331913759214487 -0.0041765765882244565 -0.0043468837882265632 -0.0076607087594369183 -0.0055132044594459195 -0.0039063041204556725 -0.00099592486333932584 -0.0054825535198483877 0.0007639628134850085 -0.0089506605275637696 -0.011409033839440141 -0.0066637251578485213 -0.0070590499410099206 -0.0093796949324922441 -0.0086609926353080624 -0.0071668939096984907 -0.0051700842918327439 -0.007414244282451854 -0.0074319943385363629 -0.0056351656569078035 -0.0055559911327973666 -0.0060756604267937497 -0.0051056854982447497 -0.0070119657359626331 -0.0081433532413714982 -0.011894919452200003 -0.0034454011881607238 -0.00056279426052985304 0.00021816906283483872 -0.0028142802529925737 -0.0056402031236833586 -0.0062214869362086089 -0.0064751183832332249 -0.0039017048748296659 -0.0043706683262182688 -0.0050654900767423856 -0.00096183122480915373 -0.001803260476341717 -0.0040008872722465533 -0.0009575087028839413 0.001005865279992163 0.0029575406146398614 0.0074503590317680918 0.0076376499670422482 0.0037751719958300234 0.014506839884635858 0.022356313247207549 0.0075495197329727426 45.081578042032135 0.011895638134337805 0.015651208517674986 0.014283593443053411 53.082388902449473 0.0083678442254545571 0.016094925162831952 61.250839571457611 0.008546208402883726 0.0027296112637987258 0.0077308253655628129 0.0010848752360153868 0.0038273900857428989 0.003111163516819615 0.0013032415231058331 0.0091366539551799852 0.0088927613524218407 0.0045841814372963516 0.014363639494915148 69.343772826769083 0.011351317449967036 0.012300963423034541 0.0089031988694592279 0.0086450800704642727 78.149154736628333 0.013832002561348311 0.0090391365574098437 -0.00092455316258283071 0.0087421403561767086 0.012434187896385618 0.0069271765187222112 0.0013260062939650652 -0.0091410984191470229 -0.0048322335724631515 -0.0093565333258825434 -0.0032208514231760466 -0.0063144153048523832 -0.0059493270332188763 -0.0035042376644232719 -0.0024264708797700485 -0.0088854277430124862 -0.0067693321773984521 -0.0097872749138575854 -0.0074309087419883769 -0.0090805336629971867 -0.010329119850680774 -0.014287295235986208 -0.01138791639012382 -0.014121182001309296 -0.011885564702947216 -0.0099762137765530834 -0.011849535302036425 -0.0059101023329508895 -0.01047800156690043 -0.0091049247935350019 -0.0052022865585127365 -0.0091642436408695682 -0.0079144141659375916 -0.0049813742729008514 -0.0066173610260737564 -0.0094258429686643955 -0.007569888857686502 -0.0081186483178044833 -0.0077753223414794223 -0.0060710981512551165 -0.0072276810663518543 -0.0057028740457826244 -0.0071472882431035112 -0.0073864058579176106 -0.0069347845747816106 -0.0067332967122464126 -0.003481672718383233 -0.004652955761386024 -0.0048284662143807527 -0.0071229336711575546 -0.003189294139218514 -0.004892752241281809 -0.0049011487778264223 -0.004217588733014652 -0.0054150384935025969 -0.0057199047276539489 -0.006441891295010875 0.0023086986945123553 -0.88084567219059062 0.0042589508699258649 -0.0015441297080713012 -0.0017703924834075388 -0.0055043817813480896 -0.0034130676948861891 -0.0046958678866064057 3.8210026055258972e-05 -0.0037625516226982569 -0.0014007725015035347 -0.005208112146968924 -0.00032185439125624604 0.00046741781650223857 0.00063512004814578193 0.00081872182538452604 -0.98963128024835001 -0.00038753697116936103 0.0030492369544087156 -1.0072996687260876 0.0017706381822594208 -1.0564094905867858 0.0024998915847761344 0.0027928189893565974 0.00052341545804815426 -0.002673464249002163 -0.0029613033525845989 0.00090274579525613519 -0.00053850855660762115 -0.0046819064513957676 0.0016011450969431462 0.0050798343596306084 0.0025124237008890271 -0.0025737239420368738 0.0025681403718196411 -0.82016497998263294 0.0058017370561953274 0.003839384529691986 -0.0010724902126296211 -0.0048380911593280396 -0.004221202561640075 -0.0015053175069077787 -0.0062019710447895893 -0.0092091968852872769 -0.010445680708175212 -0.0094807915429565848 -0.0069762019130091765 -0.00765995064358415 -0.0085985988995007923 -0.0060467692155461231 -0.0032892416108986546 -0.0016921395891321411 -0.0049611821132331101 -0.014026483279791269 -0.018695957414513707 -0.018102705821787503 -0.012859863634869878 -0.015074333367528569 -0.011931935668299268 -0.012517748122123112 -0.01359598696988519 -0.012617444179269709 -0.010937108222603924 -0.0096718349777254898 -0.012006697676999405 -0.012015251932588726 -0.011408502385475116 -0.013686165517258195 -0.013482529571274557 -0.013491533166626246 -0.009193827100653796 -0.0096587890330848154 -0.0078735814832852323 -0.0093011980606401458 -0.0092204523046537784 -0.0080488041025757566 -0.0063037904914454435 -0.0072517810355187604 -0.0069973561191959931 -0.0054535119477410552 -0.0049134838037491919 -0.0063062365213256109 -0.0080170020193941084 -0.0068598068420905652 -0.0063603281615494172 -0.0075990793028883966 -0.0073243470604958342 -0.0019739368770175722 -0.0044502203302297372 -0.00044475086293279537 -0.003403531875907348 -0.0067308666084923627 -0.0065866208128387595 -0.003882215904199654 -0.0029494856996935513 -0.0052979639731527625 -0.0051005813452688446 -0.0040733058575544859 -0.0011079996850165974 -0.0032606433266408816 0.00018980760306217676 7.1400429520401126e-05 0.00074064663984025648 6.5264852249818234e-05 0.00045153960867428886 0.0016382900144573075 -0.00055956249231639901 -0.0018482767300364213 -0.0016291256303413507 -0.0033154955873666847 -0.003399482315971189 -0.0019400906176153781 -0.0018212739187335389 -0.0011381868890220481 -0.0017768741097013716 -0.0012172875898439116 0.001831138627424931 0.0021232790279815325 0.0013447788319947522 -0.00020549795696356114 0.00060869523881688578 -0.0046787202602012867 -0.0041325975923726267 -0.0056091783543976261 -0.0052922582486292658 -0.0050178365429440286 -0.0037937571113530293 -0.0048944209258291738 -0.0049872393293481209 -0.003234866953011846 -0.0024893480548281582 -0.0030284987972583549 -0.0016616657373481258 -0.0026561998193166663 -0.0023514615596513778 -0.0037194505902988641 -0.0033616917993837185 -0.0030302586482806302 -0.0032967509289054025 -0.0032949004470301376 -0.0014975292404562908 -0.0022441976180363594 -0.0026639698624126144 -0.0018211262865275269 -0.0023740971792373146 -0.0019775667079402039 -0.0012322287509762466 -0.00079780170502612656 -0.0020080663727286671 -0.0015351064077822071 -0.0017860580036469925 -0.0015042951573574232 -0.0021824824654224561 -0.0020999000535516362 -0.0010817431399641839 0.00049927106472464418 0.0045819632773725673 0.00094385852964690847 -0.00016877707436981516 -0.00079561640696614987 -0.00071486051220835938 0.0012129338355273155 -0.00015180723512154583 -0.0014264848430412733 -0.0013650091920610159 -0.000171539097565984 0.001284146888299283 0.001635378193592987 0.0037674237915733188 0.0079015014145483124 -0.01893779732265127 0.014730852018215463 0.92864127690521847 0.0042040101159716197 0.0037546409976901961 0.79917575415430164 0.0084146649480143516 0.66724009826473241 0.0044149348498555754 0.0044752705634020186 -0.0095875064611393671 -0.011217257555078616 -0.0081449722350398091 -0.014257646476264062 -0.0078795268186439282 -0.010849235704228657 -0.0089704675991803297 -0.0054247546120946982 -0.0058127296471783569 -0.00043207772138538405 -0.0018081954153132095 0.0035194554233210842 0.0043600249838341432 0.005300536221421296 0.0031293530475150532 0.00046458476693210862 -0.00081755147781537724 -0.0015343337454441185 -0.0025365320988309432 -0.005743951315288905 -0.0034796072040149664 -0.0048594897154790439 -0.0066666743796151137 -0.0036164784288806647 -0.0056583787487100266 -0.0039874555877167702 -0.0017952939983510684 -0.0009059827818485096 -0.0033956559999792366 -0.0037261992843189082 -0.00091758961712931587 -0.0043878809877745048 -0.0040026228704418201 -0.0034675511078013643 -0.0057676848005833933 -0.0048419363679744823 -0.0044903676614762144 -0.0053063677005197249 -0.0052945660108848491 -0.0037025927665082503 -0.0037237443810258924 -0.0059141462418340132 -0.0040878174592422732 -0.0028824066520327998 0.0043825892253242255 -0.49070303517763381 -0.003612934545338873 0.0029455682597959026 0.0031652911589272401 0.0045742947690341484 -0.0076872070865253873 0.095375221842590174 0.003748000984789418 0.002944875609708561 0.0054887147671851943 -0.008608803116108411 -0.0059445749185198888 -0.0081539672911706586 -0.0045851175480126211 
</DataArray>
</CellData>
</Piece>
</UnstructuredGrid>
</VTKFile>
