<?xml version="1.0"?>
<VTKFile type="UnstructuredGrid" version="0.1" byte_order="LittleEndian">
<UnstructuredGrid>
<Piece NumberOfPoints="3142" NumberOfCells="1054">
<Points>
<DataArray type="Float64" NumberOfComponents="3" format="ascii">
0.02576622439977887 0.024532886826226379 0 0 0 0 0.049999999999899652 0 0 0.02576622439977887 0.024532886826226379 0 0 0 0 0 0.050000000000207989 0 0.02576622439977887 0.024532886826226379 0 0.049999999999899652 0 0 0.053064897599215843 0.048131547304697528 0 0.02576622439977887 0.024532886826226379 0 0.053064897599215843 0.048131547304697528 0 0 0.050000000000207989 0 0 0.050000000000207989 0 0 0.10000000000041601 0 0.044310582753132287 0.101412518374475 0 0 0.10000000000041601 0 0.044310582753132287 0.101412518374475 0 0 0.15000000000062411 0 0.053064897599215843 0.048131547304697528 0 0.044310582753132287 0.101412518374475 0 0.083411279318303222 0.089699755330707398 0 0.053064897599215843 0.048131547304697528 0 0 0.050000000000207989 0 0.044310582753132287 0.101412518374475 0 0.044310582753132287 0.101412518374475 0 0.083411279318303222 0.089699755330707398 0 0.065374659239632718 0.1448908038746782 0 0.083411279318303222 0.089699755330707398 0 0.065374659239632718 0.1448908038746782 0 0.1053400320299198 0.12877248826361379 0 0.083411279318303222 0.089699755330707398 0 0.12372429750337779 0.095814237875728972 0 0.1053400320299198 0.12877248826361379 0 0.12372429750337779 0.095814237875728972 0 0.1053400320299198 0.12877248826361379 0 0.14332333627550789 0.14578431753966009 0 0.12372429750337779 0.095814237875728972 0 0.10266856499169109 0.044518360900210059 0 0.14618258501891079 0.062070108745602003 0 0.083411279318303222 0.089699755330707398 0 0.12372429750337779 0.095814237875728972 0 0.10266856499169109 0.044518360900210059 0 0.10266856499169109 0.044518360900210059 0 0.099999999999814668 0 0 0.14999999999970359 0 0 0.049999999999899652 0 0 0.053064897599215843 0.048131547304697528 0 0.099999999999814668 0 0 0.053064897599215843 0.048131547304697528 0 0.10266856499169109 0.044518360900210059 0 0.099999999999814668 0 0 0.053064897599215843 0.048131547304697528 0 0.083411279318303222 0.089699755330707398 0 0.10266856499169109 0.044518360900210059 0 0.044081577119474857 0.2271058242433576 0 0 0.20000000000083221 0 0 0.25000000000104028 0 0.044081577119474857 0.2271058242433576 0 0 0.20000000000083221 0 0.038512288486115001 0.1844147282893184 0 0.044081577119474857 0.2271058242433576 0 0.038512288486115001 0.1844147282893184 0 0.083105206071467416 0.20007701332709979 0 0.038512288486115001 0.1844147282893184 0 0 0.15000000000062411 0 0.065374659239632718 0.1448908038746782 0 0.044310582753132287 0.101412518374475 0 0 0.15000000000062411 0 0.065374659239632718 0.1448908038746782 0 0.038512288486115001 0.1844147282893184 0 0.065374659239632718 0.1448908038746782 0 0.083105206071467416 0.20007701332709979 0 0 0.20000000000083221 0 0.038512288486115001 0.1844147282893184 0 0 0.15000000000062411 0 0.065374659239632718 0.1448908038746782 0 0.1053400320299198 0.12877248826361379 0 0.106902708054812 0.16453234188234539 0 0.1053400320299198 0.12877248826361379 0 0.106902708054812 0.16453234188234539 0 0.14332333627550789 0.14578431753966009 0 0.065374659239632718 0.1448908038746782 0 0.106902708054812 0.16453234188234539 0 0.083105206071467416 0.20007701332709979 0 0.083105206071467416 0.20007701332709979 0 0.095326043202144745 0.24554465089224409 0 0.13737030665753211 0.20313708640667491 0 0.106902708054812 0.16453234188234539 0 0.083105206071467416 0.20007701332709979 0 0.13737030665753211 0.20313708640667491 0 0.044081577119474857 0.2271058242433576 0 0.083105206071467416 0.20007701332709979 0 0.095326043202144745 0.24554465089224409 0 0.044081577119474857 0.2271058242433576 0 0.095326043202144745 0.24554465089224409 0 0.049706944316556423 0.27522722923869108 0 0.095326043202144745 0.24554465089224409 0 0.14377654328998779 0.2442024734791064 0 0.13737030665753211 0.20313708640667491 0 0.17933913398461551 0.2350063570234002 0 0.14377654328998779 0.2442024734791064 0 0.13737030665753211 0.20313708640667491 0 0.17933913398461551 0.2350063570234002 0 0.13737030665753211 0.20313708640667491 0 0.18124454140915969 0.18790916706335251 0 0.18124454140915969 0.18790916706335251 0 0.14332333627550789 0.14578431753966009 0 0.18652628422869419 0.14162325200928061 0 0.106902708054812 0.16453234188234539 0 0.13737030665753211 0.20313708640667491 0 0.14332333627550789 0.14578431753966009 0 0.13737030665753211 0.20313708640667491 0 0.18124454140915969 0.18790916706335251 0 0.14332333627550789 0.14578431753966009 0 0.14332333627550789 0.14578431753966009 0 0.18652628422869419 0.14162325200928061 0 0.16141998738593399 0.10404039647458049 0 0.18652628422869419 0.14162325200928061 0 0.22985637510995899 0.1298347970200906 0 0.2185883431182947 0.18019736283949719 0 0.22985637510995899 0.1298347970200906 0 0.2185883431182947 0.18019736283949719 0 0.25557216766470708 0.15874861286892261 0 0.2185883431182947 0.18019736283949719 0 0.25557216766470708 0.15874861286892261 0 0.26429849586623999 0.19346700179430079 0 0.18124454140915969 0.18790916706335251 0 0.18652628422869419 0.14162325200928061 0 0.2185883431182947 0.18019736283949719 0 0.17933913398461551 0.2350063570234002 0 0.18124454140915969 0.18790916706335251 0 0.224700362040408 0.22206622194729711 0 0.18124454140915969 0.18790916706335251 0 0.2185883431182947 0.18019736283949719 0 0.224700362040408 0.22206622194729711 0 0.2185883431182947 0.18019736283949719 0 0.224700362040408 0.22206622194729711 0 0.26429849586623999 0.19346700179430079 0 0.224700362040408 0.22206622194729711 0 0.25195515620380449 0.25883339815888678 0 0.21049769590865089 0.26857363548218488 0 0.17933913398461551 0.2350063570234002 0 0.224700362040408 0.22206622194729711 0 0.21049769590865089 0.26857363548218488 0 0.184418230509967 0.038773194583122873 0 0.14999999999970359 0 0 0.14618258501891079 0.062070108745602003 0 0.184418230509967 0.038773194583122873 0 0.14618258501891079 0.062070108745602003 0 0.19922788606653311 0.085920220746880993 0 0.184418230509967 0.038773194583122873 0 0.14999999999970359 0 0 0.19999999999955789 0 0 0.10266856499169109 0.044518360900210059 0 0.14999999999970359 0 0 0.14618258501891079 0.062070108745602003 0 0.12372429750337779 0.095814237875728972 0 0.14618258501891079 0.062070108745602003 0 0.16141998738593399 0.10404039647458049 0 0.12372429750337779 0.095814237875728972 0 0.14332333627550789 0.14578431753966009 0 0.16141998738593399 0.10404039647458049 0 0.18652628422869419 0.14162325200928061 0 0.16141998738593399 0.10404039647458049 0 0.19922788606653311 0.085920220746880993 0 0.14618258501891079 0.062070108745602003 0 0.16141998738593399 0.10404039647458049 0 0.19922788606653311 0.085920220746880993 0 0.18652628422869419 0.14162325200928061 0 0.22985637510995899 0.1298347970200906 0 0.19922788606653311 0.085920220746880993 0 0.22985637510995899 0.1298347970200906 0 0.19922788606653311 0.085920220746880993 0 0.24218496799700481 0.089025544070598317 0 0.22985637510995899 0.1298347970200906 0 0.24218496799700481 0.089025544070598317 0 0.27474541102162192 0.11822029332053539 0 0.19922788606653311 0.085920220746880993 0 0.24218496799700481 0.089025544070598317 0 0.22668068146512929 0.045875643423131329 0 0.24218496799700481 0.089025544070598317 0 0.22668068146512929 0.045875643423131329 0 0.27499999999933927 0.060310814194988557 0 0.184418230509967 0.038773194583122873 0 0.19922788606653311 0.085920220746880993 0 0.22668068146512929 0.045875643423131329 0 0.184418230509967 0.038773194583122873 0 0.22668068146512929 0.045875643423131329 0 0.19999999999955789 0 0 0.22668068146512929 0.045875643423131329 0 0.19999999999955789 0 0 0.24999999999941211 0 0 0.24999999999941211 0 0 0.27499999999933927 0.060310814194988557 0 0.29999999999926641 0 0 0.22668068146512929 0.045875643423131329 0 0.24999999999941211 0 0 0.27499999999933927 0.060310814194988557 0 0.27499999999933927 0.060310814194988557 0 0.29999999999926641 0 0 0.32541448401678508 0.046215317981507749 0 0.29999999999926641 0 0 0.32541448401678508 0.046215317981507749 0 0.34999999999912063 0 0 0.32541448401678508 0.046215317981507749 0 0.3615861437013822 0.03582617922508851 0 0.35312867752657662 0.084946736076730367 0 0.3615861437013822 0.03582617922508851 0 0.35312867752657662 0.084946736076730367 0 0.39591832466117061 0.056982757562006353 0 0.32541448401678508 0.046215317981507749 0 0.3615861437013822 0.03582617922508851 0 0.34999999999912063 0 0 0.3615861437013822 0.03582617922508851 0 0.34999999999912063 0 0 0.3999999999989749 0 0 0.35312867752657662 0.084946736076730367 0 0.36246644853392812 0.1399454205365751 0 0.39823268594401579 0.1116623613130045 0 0.35312867752657662 0.084946736076730367 0 0.32215584939770009 0.1218492143506909 0 0.36246644853392812 0.1399454205365751 0 0.32541448401678508 0.046215317981507749 0 0.35312867752657662 0.084946736076730367 0 0.3096713403101819 0.085471541595262421 0 0.35312867752657662 0.084946736076730367 0 0.32215584939770009 0.1218492143506909 0 0.3096713403101819 0.085471541595262421 0 0.32215584939770009 0.1218492143506909 0 0.3096713403101819 0.085471541595262421 0 0.27474541102162192 0.11822029332053539 0 0.27499999999933927 0.060310814194988557 0 0.32541448401678508 0.046215317981507749 0 0.3096713403101819 0.085471541595262421 0 0.27499999999933927 0.060310814194988557 0 0.3096713403101819 0.085471541595262421 0 0.27474541102162192 0.11822029332053539 0 0.24218496799700481 0.089025544070598317 0 0.27499999999933927 0.060310814194988557 0 0.27474541102162192 0.11822029332053539 0 0.22985637510995899 0.1298347970200906 0 0.27474541102162192 0.11822029332053539 0 0.25557216766470708 0.15874861286892261 0 0.27474541102162192 0.11822029332053539 0 0.25557216766470708 0.15874861286892261 0 0.29336099386129338 0.15892013001050981 0 0.25557216766470708 0.15874861286892261 0 0.29336099386129338 0.15892013001050981 0 0.26429849586623999 0.19346700179430079 0 0.29336099386129338 0.15892013001050981 0 0.31255190597181792 0.19850845631528771 0 0.33084213324567391 0.16272720141332131 0 0.29336099386129338 0.15892013001050981 0 0.26429849586623999 0.19346700179430079 0 0.31255190597181792 0.19850845631528771 0 0.32215584939770009 0.1218492143506909 0 0.27474541102162192 0.11822029332053539 0 0.29336099386129338 0.15892013001050981 0 0.224700362040408 0.22206622194729711 0 0.28040350263641872 0.23054717217092141 0 0.25195515620380449 0.25883339815888678 0 0.224700362040408 0.22206622194729711 0 0.28040350263641872 0.23054717217092141 0 0.26429849586623999 0.19346700179430079 0 0.28040350263641872 0.23054717217092141 0 0.26429849586623999 0.19346700179430079 0 0.31255190597181792 0.19850845631528771 0 0.28040350263641872 0.23054717217092141 0 0.33758650185219202 0.23837101504325639 0 0.29132859388405002 0.27203693976649962 0 0.28040350263641872 0.23054717217092141 0 0.33758650185219202 0.23837101504325639 0 0.31255190597181792 0.19850845631528771 0 0.33758650185219202 0.23837101504325639 0 0.31255190597181792 0.19850845631528771 0 0.3572130504031617 0.1874703368446563 0 0.33758650185219202 0.23837101504325639 0 0.3572130504031617 0.1874703368446563 0 0.38831533174504851 0.2189834941785925 0 0.33758650185219202 0.23837101504325639 0 0.38831533174504851 0.2189834941785925 0 0.3786248352540974 0.27082301512024259 0 0.32215584939770009 0.1218492143506909 0 0.29336099386129338 0.15892013001050981 0 0.33084213324567391 0.16272720141332131 0 0.32215584939770009 0.1218492143506909 0 0.33084213324567391 0.16272720141332131 0 0.36246644853392812 0.1399454205365751 0 0.31255190597181792 0.19850845631528771 0 0.33084213324567391 0.16272720141332131 0 0.3572130504031617 0.1874703368446563 0 0.3572130504031617 0.1874703368446563 0 0.36246644853392812 0.1399454205365751 0 0.39801143831225599 0.16651381068160659 0 0.33084213324567391 0.16272720141332131 0 0.3572130504031617 0.1874703368446563 0 0.36246644853392812 0.1399454205365751 0 0.36246644853392812 0.1399454205365751 0 0.39801143831225599 0.16651381068160659 0 0.39823268594401579 0.1116623613130045 0 0.39801143831225599 0.16651381068160659 0 0.42905200079338551 0.19982395548231649 0 0.44288491854585582 0.14116182884956319 0 0.39801143831225599 0.16651381068160659 0 0.44288491854585582 0.14116182884956319 0 0.39823268594401579 0.1116623613130045 0 0.38831533174504851 0.2189834941785925 0 0.42377727103934271 0.25099357235810238 0 0.3786248352540974 0.27082301512024259 0 0.3572130504031617 0.1874703368446563 0 0.39801143831225599 0.16651381068160659 0 0.38831533174504851 0.2189834941785925 0 0.39801143831225599 0.16651381068160659 0 0.38831533174504851 0.2189834941785925 0 0.42905200079338551 0.19982395548231649 0 0.38831533174504851 0.2189834941785925 0 0.42905200079338551 0.19982395548231649 0 0.42377727103934271 0.25099357235810238 0 0.42905200079338551 0.19982395548231649 0 0.46429753744194407 0.22870891180733599 0 0.42377727103934271 0.25099357235810238 0 0.42905200079338551 0.19982395548231649 0 0.46429753744194407 0.22870891180733599 0 0.47357141910802508 0.1873585799078378 0 0.47357141910802508 0.1873585799078378 0 0.51729576145820033 0.1683240575987815 0 0.50760557329222289 0.20700468884612061 0 0.46429753744194407 0.22870891180733599 0 0.47357141910802508 0.1873585799078378 0 0.50760557329222289 0.20700468884612061 0 0.46429753744194407 0.22870891180733599 0 0.49695729691142171 0.25014895411178018 0 0.50760557329222289 0.20700468884612061 0 0.44288491854585582 0.14116182884956319 0 0.47357141910802508 0.1873585799078378 0 0.48466639505193998 0.1421439844745814 0 0.42905200079338551 0.19982395548231649 0 0.44288491854585582 0.14116182884956319 0 0.47357141910802508 0.1873585799078378 0 0.47357141910802508 0.1873585799078378 0 0.48466639505193998 0.1421439844745814 0 0.51729576145820033 0.1683240575987815 0 0.44288491854585582 0.14116182884956319 0 0.48466639505193998 0.1421439844745814 0 0.47881186583059909 0.093591717165689425 0 0.48466639505193998 0.1421439844745814 0 0.47881186583059909 0.093591717165689425 0 0.51076801031701946 0.1202837388510348 0 0.44288491854585582 0.14116182884956319 0 0.47881186583059909 0.093591717165689425 0 0.43698630808430822 0.080423614171545449 0 0.47881186583059909 0.093591717165689425 0 0.47040171442036788 0.044141676406503738 0 0.43698630808430822 0.080423614171545449 0 0.47881186583059909 0.093591717165689425 0 0.47040171442036788 0.044141676406503738 0 0.52375890611712683 0.059318771819432882 0 0.47040171442036788 0.044141676406503738 0 0.49999999999869432 0 0 0.52375890611712683 0.059318771819432882 0 0.47040171442036788 0.044141676406503738 0 0.49999999999869432 0 0 0.44999999999882923 0 0 0.47040171442036788 0.044141676406503738 0 0.44999999999882923 0 0 0.4320097814748517 0.037406712692169303 0 0.47040171442036788 0.044141676406503738 0 0.4320097814748517 0.037406712692169303 0 0.43698630808430822 0.080423614171545449 0 0.4320097814748517 0.037406712692169303 0 0.3999999999989749 0 0 0.39591832466117061 0.056982757562006353 0 0.4320097814748517 0.037406712692169303 0 0.39591832466117061 0.056982757562006353 0 0.43698630808430822 0.080423614171545449 0 0.44999999999882923 0 0 0.4320097814748517 0.037406712692169303 0 0.3999999999989749 0 0 0.3615861437013822 0.03582617922508851 0 0.3999999999989749 0 0 0.39591832466117061 0.056982757562006353 0 0.35312867752657662 0.084946736076730367 0 0.39591832466117061 0.056982757562006353 0 0.39823268594401579 0.1116623613130045 0 0.44288491854585582 0.14116182884956319 0 0.39823268594401579 0.1116623613130045 0 0.43698630808430822 0.080423614171545449 0 0.39591832466117061 0.056982757562006353 0 0.39823268594401579 0.1116623613130045 0 0.43698630808430822 0.080423614171545449 0 0.42161023666869668 0.39493916313643851 0 0.38707855792647411 0.42299362914874578 0 0.43249999999999988 0.43937499999999979 0 0.42161023666869668 0.39493916313643851 0 0.38083244760691543 0.38531983672244652 0 0.38707855792647411 0.42299362914874578 0 0.42161023666869668 0.39493916313643851 0 0.38083244760691543 0.38531983672244652 0 0.40076539126862748 0.34589349467022118 0 0.38707855792647411 0.42299362914874578 0 0.3908716102680424 0.47010282357248828 0 0.43249999999999988 0.43937499999999979 0 0.3908716102680424 0.47010282357248828 0 0.43507373378304309 0.49699695397193322 0 0.38244435121258652 0.51653317813019495 0 0.3908716102680424 0.47010282357248828 0 0.43507373378304309 0.49699695397193322 0 0.43249999999999988 0.43937499999999979 0 0.43507373378304309 0.49699695397193322 0 0.43249999999999988 0.43937499999999979 0 0.46111841286828259 0.46690301029591341 0 0.43249999999999988 0.43937499999999979 0 0.46111841286828259 0.46690301029591341 0 0.48858720058566618 0.43964267759203868 0 0.43507373378304309 0.49699695397193322 0 0.46111841286828259 0.46690301029591341 0 0.49102375406324739 0.49123754822244059 0 0.46111841286828259 0.46690301029591341 0 0.49102375406324739 0.49123754822244059 0 0.48858720058566618 0.43964267759203868 0 0.48858720058566618 0.43964267759203868 0 0.46655310992796922 0.39650496622958609 0 0.52289427570932567 0.3932284363388488 0 0.43249999999999988 0.43937499999999979 0 0.48858720058566618 0.43964267759203868 0 0.46655310992796922 0.39650496622958609 0 0.42161023666869668 0.39493916313643851 0 0.43249999999999988 0.43937499999999979 0 0.46655310992796922 0.39650496622958609 0 0.42161023666869668 0.39493916313643851 0 0.46655310992796922 0.39650496622958609 0 0.4409427642593301 0.35743108089689513 0 0.46655310992796922 0.39650496622958609 0 0.49077833859261139 0.35229981449445641 0 0.52289427570932567 0.3932284363388488 0 0.49077833859261139 0.35229981449445641 0 0.46226845272279993 0.31901800744800313 0 0.5 0.29999999999999999 0 0.49077833859261139 0.35229981449445641 0 0.46226845272279993 0.31901800744800313 0 0.4409427642593301 0.35743108089689513 0 0.46226845272279993 0.31901800744800313 0 0.4409427642593301 0.35743108089689513 0 0.41914690343363781 0.30688979866601612 0 0.46655310992796922 0.39650496622958609 0 0.49077833859261139 0.35229981449445641 0 0.4409427642593301 0.35743108089689513 0 0.49695729691142171 0.25014895411178018 0 0.4604742573284204 0.27846934318264788 0 0.5 0.29999999999999999 0 0.46429753744194407 0.22870891180733599 0 0.49695729691142171 0.25014895411178018 0 0.4604742573284204 0.27846934318264788 0 0.46226845272279993 0.31901800744800313 0 0.4604742573284204 0.27846934318264788 0 0.5 0.29999999999999999 0 0.46226845272279993 0.31901800744800313 0 0.4604742573284204 0.27846934318264788 0 0.41914690343363781 0.30688979866601612 0 0.46429753744194407 0.22870891180733599 0 0.4604742573284204 0.27846934318264788 0 0.42377727103934271 0.25099357235810238 0 0.4604742573284204 0.27846934318264788 0 0.42377727103934271 0.25099357235810238 0 0.41914690343363781 0.30688979866601612 0 0.42377727103934271 0.25099357235810238 0 0.41914690343363781 0.30688979866601612 0 0.3786248352540974 0.27082301512024259 0 0.41914690343363781 0.30688979866601612 0 0.3786248352540974 0.27082301512024259 0 0.36575549820117997 0.31677992835137742 0 0.42161023666869668 0.39493916313643851 0 0.4409427642593301 0.35743108089689513 0 0.40076539126862748 0.34589349467022118 0 0.4409427642593301 0.35743108089689513 0 0.41914690343363781 0.30688979866601612 0 0.40076539126862748 0.34589349467022118 0 0.41914690343363781 0.30688979866601612 0 0.40076539126862748 0.34589349467022118 0 0.36575549820117997 0.31677992835137742 0 0.40076539126862748 0.34589349467022118 0 0.36575549820117997 0.31677992835137742 0 0.33277555741076909 0.36432196682010132 0 0.38083244760691543 0.38531983672244652 0 0.40076539126862748 0.34589349467022118 0 0.33277555741076909 0.36432196682010132 0 0.36575549820117997 0.31677992835137742 0 0.32752639306529541 0.32610012995269699 0 0.33277555741076909 0.36432196682010132 0 0.32752639306529541 0.32610012995269699 0 0.33277555741076909 0.36432196682010132 0 0.29644548887253103 0.34914008784168082 0 0.33758650185219202 0.23837101504325639 0 0.3786248352540974 0.27082301512024259 0 0.33402499257867951 0.28911035184473982 0 0.3786248352540974 0.27082301512024259 0 0.36575549820117997 0.31677992835137742 0 0.33402499257867951 0.28911035184473982 0 0.36575549820117997 0.31677992835137742 0 0.32752639306529541 0.32610012995269699 0 0.33402499257867951 0.28911035184473982 0 0.32752639306529541 0.32610012995269699 0 0.33402499257867951 0.28911035184473982 0 0.29348325746214782 0.31350119524708198 0 0.33758650185219202 0.23837101504325639 0 0.33402499257867951 0.28911035184473982 0 0.29132859388405002 0.27203693976649962 0 0.33402499257867951 0.28911035184473982 0 0.29132859388405002 0.27203693976649962 0 0.29348325746214782 0.31350119524708198 0 0.29132859388405002 0.27203693976649962 0 0.29348325746214782 0.31350119524708198 0 0.24432083401701241 0.3006253385567515 0 0.29132859388405002 0.27203693976649962 0 0.25195515620380449 0.25883339815888678 0 0.24432083401701241 0.3006253385567515 0 0.28040350263641872 0.23054717217092141 0 0.29132859388405002 0.27203693976649962 0 0.25195515620380449 0.25883339815888678 0 0.33277555741076909 0.36432196682010132 0 0.29644548887253103 0.34914008784168082 0 0.27866744612395528 0.38416094670951489 0 0.32752639306529541 0.32610012995269699 0 0.29644548887253103 0.34914008784168082 0 0.29348325746214782 0.31350119524708198 0 0.29644548887253103 0.34914008784168082 0 0.29348325746214782 0.31350119524708198 0 0.25966125648670141 0.34351016742083729 0 0.29348325746214782 0.31350119524708198 0 0.25966125648670141 0.34351016742083729 0 0.24432083401701241 0.3006253385567515 0 0.29644548887253103 0.34914008784168082 0 0.25966125648670141 0.34351016742083729 0 0.27866744612395528 0.38416094670951489 0 0.25966125648670141 0.34351016742083729 0 0.27866744612395528 0.38416094670951489 0 0.22033343844674469 0.36963382230740238 0 0.27866744612395528 0.38416094670951489 0 0.29124338931648802 0.43334555462578611 0 0.24049127783545701 0.41270748208749802 0 0.29124338931648802 0.43334555462578611 0 0.25982634974572738 0.46097799597715272 0 0.24049127783545701 0.41270748208749802 0 0.27866744612395528 0.38416094670951489 0 0.29124338931648802 0.43334555462578611 0 0.31778888742534622 0.40581751814196781 0 0.33277555741076909 0.36432196682010132 0 0.27866744612395528 0.38416094670951489 0 0.31778888742534622 0.40581751814196781 0 0.33277555741076909 0.36432196682010132 0 0.31778888742534622 0.40581751814196781 0 0.35221190152536241 0.40457127605439203 0 0.31778888742534622 0.40581751814196781 0 0.35221190152536241 0.40457127605439203 0 0.34258405725730701 0.4444034294386992 0 0.29124338931648802 0.43334555462578611 0 0.31778888742534622 0.40581751814196781 0 0.34258405725730701 0.4444034294386992 0 0.38707855792647411 0.42299362914874578 0 0.35221190152536241 0.40457127605439203 0 0.34258405725730701 0.4444034294386992 0 0.38083244760691543 0.38531983672244652 0 0.38707855792647411 0.42299362914874578 0 0.35221190152536241 0.40457127605439203 0 0.38083244760691543 0.38531983672244652 0 0.33277555741076909 0.36432196682010132 0 0.35221190152536241 0.40457127605439203 0 0.3908716102680424 0.47010282357248828 0 0.35024835142131061 0.48654922671676981 0 0.38244435121258652 0.51653317813019495 0 0.3908716102680424 0.47010282357248828 0 0.35024835142131061 0.48654922671676981 0 0.34258405725730701 0.4444034294386992 0 0.38707855792647411 0.42299362914874578 0 0.3908716102680424 0.47010282357248828 0 0.34258405725730701 0.4444034294386992 0 0.29124338931648802 0.43334555462578611 0 0.34258405725730701 0.4444034294386992 0 0.31068898841644388 0.47541502461811092 0 0.35024835142131061 0.48654922671676981 0 0.31068898841644388 0.47541502461811092 0 0.33190227185843768 0.52715113583864037 0 0.35024835142131061 0.48654922671676981 0 0.34258405725730701 0.4444034294386992 0 0.31068898841644388 0.47541502461811092 0 0.31068898841644388 0.47541502461811092 0 0.25982634974572738 0.46097799597715272 0 0.28307294598219601 0.50789252727458634 0 0.29124338931648802 0.43334555462578611 0 0.31068898841644388 0.47541502461811092 0 0.25982634974572738 0.46097799597715272 0 0.25982634974572738 0.46097799597715272 0 0.23975172658309729 0.49475499200540818 0 0.28307294598219601 0.50789252727458634 0 0.23975172658309729 0.49475499200540818 0 0.19604738184454831 0.47787523520405789 0 0.22278230690790279 0.44824268025881547 0 0.19604738184454831 0.47787523520405789 0 0.22278230690790279 0.44824268025881547 0 0.191953871957803 0.42546416763755879 0 0.25982634974572738 0.46097799597715272 0 0.22278230690790279 0.44824268025881547 0 0.24049127783545701 0.41270748208749802 0 0.25982634974572738 0.46097799597715272 0 0.23975172658309729 0.49475499200540818 0 0.22278230690790279 0.44824268025881547 0 0.27866744612395528 0.38416094670951489 0 0.24049127783545701 0.41270748208749802 0 0.22033343844674469 0.36963382230740238 0 0.191953871957803 0.42546416763755879 0 0.1650278706801647 0.38791388161335733 0 0.22033343844674469 0.36963382230740238 0 0.24049127783545701 0.41270748208749802 0 0.191953871957803 0.42546416763755879 0 0.22033343844674469 0.36963382230740238 0 0.22278230690790279 0.44824268025881547 0 0.24049127783545701 0.41270748208749802 0 0.191953871957803 0.42546416763755879 0 0.191953871957803 0.42546416763755879 0 0.13773355295499351 0.42497777642586831 0 0.15801167086041079 0.46008690540259539 0 0.191953871957803 0.42546416763755879 0 0.1650278706801647 0.38791388161335733 0 0.13773355295499351 0.42497777642586831 0 0.1650278706801647 0.38791388161335733 0 0.13773355295499351 0.42497777642586831 0 0.1117088112799664 0.38831403004970022 0 0.13773355295499351 0.42497777642586831 0 0.15801167086041079 0.46008690540259539 0 0.113541300460994 0.46208784312094731 0 0.15801167086041079 0.46008690540259539 0 0.113541300460994 0.46208784312094731 0 0.1216098864341134 0.50637075089503902 0 0.15801167086041079 0.46008690540259539 0 0.1216098864341134 0.50637075089503902 0 0.16618607197337229 0.50652878253548905 0 0.19604738184454831 0.47787523520405789 0 0.15801167086041079 0.46008690540259539 0 0.16618607197337229 0.50652878253548905 0 0.19604738184454831 0.47787523520405789 0 0.191953871957803 0.42546416763755879 0 0.15801167086041079 0.46008690540259539 0 0.25195515620380449 0.25883339815888678 0 0.21049769590865089 0.26857363548218488 0 0.24432083401701241 0.3006253385567515 0 0.21049769590865089 0.26857363548218488 0 0.24432083401701241 0.3006253385567515 0 0.19670163708476801 0.31472518408333222 0 0.21049769590865089 0.26857363548218488 0 0.19670163708476801 0.31472518408333222 0 0.168349569971391 0.28054490850913671 0 0.19670163708476801 0.31472518408333222 0 0.22615676742807109 0.33458786033114157 0 0.18434624290945251 0.35208838264196463 0 0.24432083401701241 0.3006253385567515 0 0.19670163708476801 0.31472518408333222 0 0.22615676742807109 0.33458786033114157 0 0.25966125648670141 0.34351016742083729 0 0.24432083401701241 0.3006253385567515 0 0.22615676742807109 0.33458786033114157 0 0.25966125648670141 0.34351016742083729 0 0.22615676742807109 0.33458786033114157 0 0.22033343844674469 0.36963382230740238 0 0.22615676742807109 0.33458786033114157 0 0.22033343844674469 0.36963382230740238 0 0.18434624290945251 0.35208838264196463 0 0.1650278706801647 0.38791388161335733 0 0.22033343844674469 0.36963382230740238 0 0.18434624290945251 0.35208838264196463 0 0.1650278706801647 0.38791388161335733 0 0.18434624290945251 0.35208838264196463 0 0.14223753364722069 0.3341983344262433 0 0.1650278706801647 0.38791388161335733 0 0.14223753364722069 0.3341983344262433 0 0.1117088112799664 0.38831403004970022 0 0.19670163708476801 0.31472518408333222 0 0.18434624290945251 0.35208838264196463 0 0.14223753364722069 0.3341983344262433 0 0.19670163708476801 0.31472518408333222 0 0.14223753364722069 0.3341983344262433 0 0.168349569971391 0.28054490850913671 0 0.14223753364722069 0.3341983344262433 0 0.168349569971391 0.28054490850913671 0 0.1247745017231483 0.27198077544791172 0 0.14377654328998779 0.2442024734791064 0 0.168349569971391 0.28054490850913671 0 0.1247745017231483 0.27198077544791172 0 0.17933913398461551 0.2350063570234002 0 0.21049769590865089 0.26857363548218488 0 0.168349569971391 0.28054490850913671 0 0.17933913398461551 0.2350063570234002 0 0.14377654328998779 0.2442024734791064 0 0.168349569971391 0.28054490850913671 0 0.095326043202144745 0.24554465089224409 0 0.093851963071650835 0.30582068233324772 0 0.049706944316556423 0.27522722923869108 0 0.095326043202144745 0.24554465089224409 0 0.14377654328998779 0.2442024734791064 0 0.1247745017231483 0.27198077544791172 0 0.095326043202144745 0.24554465089224409 0 0.1247745017231483 0.27198077544791172 0 0.093851963071650835 0.30582068233324772 0 0.14223753364722069 0.3341983344262433 0 0.1247745017231483 0.27198077544791172 0 0.093851963071650835 0.30582068233324772 0 0.093851963071650835 0.30582068233324772 0 0.046389130980076937 0.32668781832131749 0 0.049706944316556423 0.27522722923869108 0 0.093851963071650835 0.30582068233324772 0 0.087545339447545459 0.35122518864182262 0 0.046389130980076937 0.32668781832131749 0 0.14223753364722069 0.3341983344262433 0 0.093851963071650835 0.30582068233324772 0 0.087545339447545459 0.35122518864182262 0 0.14223753364722069 0.3341983344262433 0 0.087545339447545459 0.35122518864182262 0 0.1117088112799664 0.38831403004970022 0 0.087545339447545459 0.35122518864182262 0 0.1117088112799664 0.38831403004970022 0 0.050583896093752537 0.38543522283434112 0 0.087545339447545459 0.35122518864182262 0 0.046389130980076937 0.32668781832131749 0 0.050583896093752537 0.38543522283434112 0 0 0.35000000000145642 0 0.046389130980076937 0.32668781832131749 0 0.050583896093752537 0.38543522283434112 0 0 0.35000000000145642 0 0.046389130980076937 0.32668781832131749 0 0 0.30000000000124832 0 0.046389130980076937 0.32668781832131749 0 0 0.30000000000124832 0 0.049706944316556423 0.27522722923869108 0 0 0.30000000000124832 0 0 0.25000000000104028 0 0.049706944316556423 0.27522722923869108 0 0.044081577119474857 0.2271058242433576 0 0 0.25000000000104028 0 0.049706944316556423 0.27522722923869108 0 0.068743045408989428 0.48853989837882689 0 0.113541300460994 0.46208784312094731 0 0.078358742472063481 0.43365249433908948 0 0.068743045408989428 0.48853989837882689 0 0.113541300460994 0.46208784312094731 0 0.1216098864341134 0.50637075089503902 0 0.13773355295499351 0.42497777642586831 0 0.113541300460994 0.46208784312094731 0 0.078358742472063481 0.43365249433908948 0 0.13773355295499351 0.42497777642586831 0 0.1117088112799664 0.38831403004970022 0 0.078358742472063481 0.43365249433908948 0 0.1117088112799664 0.38831403004970022 0 0.078358742472063481 0.43365249433908948 0 0.050583896093752537 0.38543522283434112 0 0.078358742472063481 0.43365249433908948 0 0.035463093262830522 0.42673416072819947 0 0.050583896093752537 0.38543522283434112 0 0 0.35000000000145642 0 0.050583896093752537 0.38543522283434112 0 0 0.40000000000166441 0 0.035463093262830522 0.42673416072819947 0 0.050583896093752537 0.38543522283434112 0 0 0.40000000000166441 0 0.035463093262830522 0.42673416072819947 0 0 0.40000000000166441 0 0 0.45000000000187229 0 0.035463093262830522 0.42673416072819947 0 0 0.45000000000187229 0 0.033550201249889847 0.46247875832467239 0 0.068743045408989428 0.48853989837882689 0 0.033550201249889847 0.46247875832467239 0 0 0.50000000000205869 0 0.068743045408989428 0.48853989837882689 0 0.078358742472063481 0.43365249433908948 0 0.033550201249889847 0.46247875832467239 0 0.078358742472063481 0.43365249433908948 0 0.035463093262830522 0.42673416072819947 0 0.033550201249889847 0.46247875832467239 0 0 0.45000000000187229 0 0.033550201249889847 0.46247875832467239 0 0 0.50000000000205869 0 0.068743045408989428 0.48853989837882689 0 0 0.50000000000205869 0 0.044576108720083309 0.53509043209532614 0 0 0.50000000000205869 0 0 0.55000000000173355 0 0.044576108720083309 0.53509043209532614 0 0 0.55000000000173355 0 0.044576108720083309 0.53509043209532614 0 0.034381862692950467 0.57372682250960894 0 0.044576108720083309 0.53509043209532614 0 0.077693244765132896 0.56932317963405099 0 0.034381862692950467 0.57372682250960894 0 0.068743045408989428 0.48853989837882689 0 0.044576108720083309 0.53509043209532614 0 0.085622222639554768 0.53333248912060549 0 0.068743045408989428 0.48853989837882689 0 0.085622222639554768 0.53333248912060549 0 0.1216098864341134 0.50637075089503902 0 0.044576108720083309 0.53509043209532614 0 0.085622222639554768 0.53333248912060549 0 0.077693244765132896 0.56932317963405099 0 0.085622222639554768 0.53333248912060549 0 0.1154888278694548 0.56733818459978413 0 0.077693244765132896 0.56932317963405099 0 0.085622222639554768 0.53333248912060549 0 0.1216098864341134 0.50637075089503902 0 0.1154888278694548 0.56733818459978413 0 0.1024350934457823 0.60772393977513839 0 0.1154888278694548 0.56733818459978413 0 0.077693244765132896 0.56932317963405099 0 0.1024350934457823 0.60772393977513839 0 0.050069554451969707 0.61308520079857043 0 0.086179601630648681 0.64647209519980475 0 0.1024350934457823 0.60772393977513839 0 0.077693244765132896 0.56932317963405099 0 0.050069554451969707 0.61308520079857043 0 0.077693244765132896 0.56932317963405099 0 0.050069554451969707 0.61308520079857043 0 0.034381862692950467 0.57372682250960894 0 0 0.55000000000173355 0 0.034381862692950467 0.57372682250960894 0 0 0.60000000000138687 0 0.050069554451969707 0.61308520079857043 0 0 0.60000000000138687 0 0 0.65000000000104008 0 0.050069554451969707 0.61308520079857043 0 0.034381862692950467 0.57372682250960894 0 0 0.60000000000138687 0 0 0.65000000000104008 0 0.046634677244967337 0.671418230738282 0 0 0.7000000000006934 0 0.050069554451969707 0.61308520079857043 0 0.046634677244967337 0.671418230738282 0 0.086179601630648681 0.64647209519980475 0 0.050069554451969707 0.61308520079857043 0 0 0.65000000000104008 0 0.046634677244967337 0.671418230738282 0 0 0.7000000000006934 0 0.049706944316475897 0.72477277076253799 0 0 0.75000000000034661 0 0.046634677244967337 0.671418230738282 0 0 0.7000000000006934 0 0.049706944316475897 0.72477277076253799 0 0.049706944316475897 0.72477277076253799 0 0 0.75000000000034661 0 0.04408157711937423 0.7728941757575627 0 0.049706944316475897 0.72477277076253799 0 0.1020579365089687 0.69352219419301997 0 0.090953281884486245 0.7564451946902494 0 0.1020579365089687 0.69352219419301997 0 0.1215415378367805 0.72939333680004137 0 0.090953281884486245 0.7564451946902494 0 0.046634677244967337 0.671418230738282 0 0.049706944316475897 0.72477277076253799 0 0.1020579365089687 0.69352219419301997 0 0.1215415378367805 0.72939333680004137 0 0.090953281884486245 0.7564451946902494 0 0.14335651144331049 0.75565258250209677 0 0.046634677244967337 0.671418230738282 0 0.1020579365089687 0.69352219419301997 0 0.086179601630648681 0.64647209519980475 0 0.1020579365089687 0.69352219419301997 0 0.086179601630648681 0.64647209519980475 0 0.1241190223511371 0.64391885572885044 0 0.1024350934457823 0.60772393977513839 0 0.086179601630648681 0.64647209519980475 0 0.1241190223511371 0.64391885572885044 0 0.1020579365089687 0.69352219419301997 0 0.1241190223511371 0.64391885572885044 0 0.16500388252850301 0.66612077714085194 0 0.1241190223511371 0.64391885572885044 0 0.16500388252850301 0.66612077714085194 0 0.15720202157091859 0.60665697304410315 0 0.16500388252850301 0.66612077714085194 0 0.19914261668318661 0.62286739485272158 0 0.15720202157091859 0.60665697304410315 0 0.1020579365089687 0.69352219419301997 0 0.16500388252850301 0.66612077714085194 0 0.15332765547575641 0.71200081858233666 0 0.1215415378367805 0.72939333680004137 0 0.15332765547575641 0.71200081858233666 0 0.14335651144331049 0.75565258250209677 0 0.1020579365089687 0.69352219419301997 0 0.1215415378367805 0.72939333680004137 0 0.15332765547575641 0.71200081858233666 0 0.16500388252850301 0.66612077714085194 0 0.15332765547575641 0.71200081858233666 0 0.19068556247388771 0.71028988922845504 0 0.15332765547575641 0.71200081858233666 0 0.14335651144331049 0.75565258250209677 0 0.18269480424590959 0.75905448272264375 0 0.15332765547575641 0.71200081858233666 0 0.19068556247388771 0.71028988922845504 0 0.18269480424590959 0.75905448272264375 0 0.19068556247388771 0.71028988922845504 0 0.2248999640082178 0.72584299459689172 0 0.18269480424590959 0.75905448272264375 0 0.19068556247388771 0.71028988922845504 0 0.2248999640082178 0.72584299459689172 0 0.2236846579037573 0.67380363126050236 0 0.2248999640082178 0.72584299459689172 0 0.2236846579037573 0.67380363126050236 0 0.26439878998046262 0.7048065392091396 0 0.2248999640082178 0.72584299459689172 0 0.22556077506376701 0.77837424984191617 0 0.25676291524611189 0.7436741304886243 0 0.2248999640082178 0.72584299459689172 0 0.25676291524611189 0.7436741304886243 0 0.26439878998046262 0.7048065392091396 0 0.16500388252850301 0.66612077714085194 0 0.2236846579037573 0.67380363126050236 0 0.19914261668318661 0.62286739485272158 0 0.16500388252850301 0.66612077714085194 0 0.19068556247388771 0.71028988922845504 0 0.2236846579037573 0.67380363126050236 0 0.2236846579037573 0.67380363126050236 0 0.2459498854893499 0.63248470766216769 0 0.19914261668318661 0.62286739485272158 0 0.2236846579037573 0.67380363126050236 0 0.2459498854893499 0.63248470766216769 0 0.27820712747429932 0.65530134213254643 0 0.2459498854893499 0.63248470766216769 0 0.19914261668318661 0.62286739485272158 0 0.22549374774072969 0.58452645269293457 0 0.2459498854893499 0.63248470766216769 0 0.22549374774072969 0.58452645269293457 0 0.26573297623774761 0.59828298563722948 0 0.19914261668318661 0.62286739485272158 0 0.22549374774072969 0.58452645269293457 0 0.18381867841758909 0.57774125163628387 0 0.22549374774072969 0.58452645269293457 0 0.20050006573841939 0.53248514016039872 0 0.18381867841758909 0.57774125163628387 0 0.22549374774072969 0.58452645269293457 0 0.25115337790845271 0.54719303014923271 0 0.26573297623774761 0.59828298563722948 0 0.22549374774072969 0.58452645269293457 0 0.20050006573841939 0.53248514016039872 0 0.25115337790845271 0.54719303014923271 0 0.23975172658309729 0.49475499200540818 0 0.20050006573841939 0.53248514016039872 0 0.25115337790845271 0.54719303014923271 0 0.19604738184454831 0.47787523520405789 0 0.20050006573841939 0.53248514016039872 0 0.16618607197337229 0.50652878253548905 0 0.23975172658309729 0.49475499200540818 0 0.19604738184454831 0.47787523520405789 0 0.20050006573841939 0.53248514016039872 0 0.20050006573841939 0.53248514016039872 0 0.14934928745814749 0.55042914607228977 0 0.18381867841758909 0.57774125163628387 0 0.20050006573841939 0.53248514016039872 0 0.16618607197337229 0.50652878253548905 0 0.14934928745814749 0.55042914607228977 0 0.1216098864341134 0.50637075089503902 0 0.16618607197337229 0.50652878253548905 0 0.14934928745814749 0.55042914607228977 0 0.1216098864341134 0.50637075089503902 0 0.1154888278694548 0.56733818459978413 0 0.14934928745814749 0.55042914607228977 0 0.1154888278694548 0.56733818459978413 0 0.14934928745814749 0.55042914607228977 0 0.15720202157091859 0.60665697304410315 0 0.1024350934457823 0.60772393977513839 0 0.1154888278694548 0.56733818459978413 0 0.15720202157091859 0.60665697304410315 0 0.1024350934457823 0.60772393977513839 0 0.1241190223511371 0.64391885572885044 0 0.15720202157091859 0.60665697304410315 0 0.19914261668318661 0.62286739485272158 0 0.15720202157091859 0.60665697304410315 0 0.18381867841758909 0.57774125163628387 0 0.14934928745814749 0.55042914607228977 0 0.15720202157091859 0.60665697304410315 0 0.18381867841758909 0.57774125163628387 0 0.10000000000041601 1 0 0.10266856499240549 0.95548163909968886 0 0.15000000000062411 1 0 0.10266856499240549 0.95548163909968886 0 0.053064897599294662 0.95186845269532028 0 0.083411279318375747 0.91030024466934134 0 0.10000000000041601 1 0 0.050000000000207989 1 0 0.053064897599294662 0.95186845269532028 0 0.10000000000041601 1 0 0.10266856499240549 0.95548163909968886 0 0.053064897599294662 0.95186845269532028 0 0.050000000000207989 1 0 0.025766224399875661 0.97546711317377799 0 0.053064897599294662 0.95186845269532028 0 0.050000000000207989 1 0 0 1 0 0.025766224399875661 0.97546711317377799 0 0 1 0 0.025766224399875661 0.97546711317377799 0 0 0.94999999999979179 0 0.025766224399875661 0.97546711317377799 0 0 0.94999999999979179 0 0.053064897599294662 0.95186845269532028 0 0 0.94999999999979179 0 0.053064897599294662 0.95186845269532028 0 0.0443105827531413 0.89858748162559932 0 0.053064897599294662 0.95186845269532028 0 0.0443105827531413 0.89858748162559932 0 0.083411279318375747 0.91030024466934134 0 0 0.94999999999979179 0 0 0.89999999999958358 0 0.0443105827531413 0.89858748162559932 0 0 0.89999999999958358 0 0.0443105827531413 0.89858748162559932 0 0 0.84999999999965292 0 0.0443105827531413 0.89858748162559932 0 0.083411279318375747 0.91030024466934134 0 0.065374659239661639 0.8551091961254178 0 0.083411279318375747 0.91030024466934134 0 0.10562472963403439 0.87143394428979881 0 0.065374659239661639 0.8551091961254178 0 0.10266856499240549 0.95548163909968886 0 0.083411279318375747 0.91030024466934134 0 0.1241151115713819 0.9045666525468371 0 0.10266856499240549 0.95548163909968886 0 0.1241151115713819 0.9045666525468371 0 0.14617343800780541 0.93808063414349496 0 0.1241151115713819 0.9045666525468371 0 0.10562472963403439 0.87143394428979881 0 0.14474682429600511 0.85524784522713515 0 0.083411279318375747 0.91030024466934134 0 0.1241151115713819 0.9045666525468371 0 0.10562472963403439 0.87143394428979881 0 0.10562472963403439 0.87143394428979881 0 0.1074251789111534 0.83564394292147814 0 0.14474682429600511 0.85524784522713515 0 0.1074251789111534 0.83564394292147814 0 0.065374659239661639 0.8551091961254178 0 0.083105206071452636 0.79992298667296435 0 0.10562472963403439 0.87143394428979881 0 0.1074251789111534 0.83564394292147814 0 0.065374659239661639 0.8551091961254178 0 0.065374659239661639 0.8551091961254178 0 0 0.84999999999965292 0 0.038512288486097702 0.8155852717111195 0 0.0443105827531413 0.89858748162559932 0 0.065374659239661639 0.8551091961254178 0 0 0.84999999999965292 0 0 0.84999999999965292 0 0.038512288486097702 0.8155852717111195 0 0 0.79999999999999982 0 0.065374659239661639 0.8551091961254178 0 0.038512288486097702 0.8155852717111195 0 0.083105206071452636 0.79992298667296435 0 0.038512288486097702 0.8155852717111195 0 0.04408157711937423 0.7728941757575627 0 0.083105206071452636 0.79992298667296435 0 0.038512288486097702 0.8155852717111195 0 0 0.79999999999999982 0 0.04408157711937423 0.7728941757575627 0 0 0.79999999999999982 0 0 0.75000000000034661 0 0.04408157711937423 0.7728941757575627 0 0.049706944316475897 0.72477277076253799 0 0.04408157711937423 0.7728941757575627 0 0.090953281884486245 0.7564451946902494 0 0.04408157711937423 0.7728941757575627 0 0.090953281884486245 0.7564451946902494 0 0.083105206071452636 0.79992298667296435 0 0.1074251789111534 0.83564394292147814 0 0.083105206071452636 0.79992298667296435 0 0.1382744753146134 0.79650574229207483 0 0.090953281884486245 0.7564451946902494 0 0.083105206071452636 0.79992298667296435 0 0.1382744753146134 0.79650574229207483 0 0.090953281884486245 0.7564451946902494 0 0.14335651144331049 0.75565258250209677 0 0.1382744753146134 0.79650574229207483 0 0.14335651144331049 0.75565258250209677 0 0.1382744753146134 0.79650574229207483 0 0.18269480424590959 0.75905448272264375 0 0.1382744753146134 0.79650574229207483 0 0.18269480424590959 0.75905448272264375 0 0.17777405986036951 0.81832336108265358 0 0.2248999640082178 0.72584299459689172 0 0.18269480424590959 0.75905448272264375 0 0.22556077506376701 0.77837424984191617 0 0.22556077506376701 0.77837424984191617 0 0.21858834311891909 0.81980263716112767 0 0.26104540868854792 0.81401944968719064 0 0.22556077506376701 0.77837424984191617 0 0.21858834311891909 0.81980263716112767 0 0.17777405986036951 0.81832336108265358 0 0.18269480424590959 0.75905448272264375 0 0.22556077506376701 0.77837424984191617 0 0.17777405986036951 0.81832336108265358 0 0.21858834311891909 0.81980263716112767 0 0.19741632902693801 0.86755867406447229 0 0.17777405986036951 0.81832336108265358 0 0.21858834311891909 0.81980263716112767 0 0.2401283238295133 0.85648409884788523 0 0.26104540868854792 0.81401944968719064 0 0.21858834311891909 0.81980263716112767 0 0.2401283238295133 0.85648409884788523 0 0.19741632902693801 0.86755867406447229 0 0.19741632902693801 0.86755867406447229 0 0.17777405986036951 0.81832336108265358 0 0.14474682429600511 0.85524784522713515 0 0.19741632902693801 0.86755867406447229 0 0.14474682429600511 0.85524784522713515 0 0.16206583317966519 0.89685560785156404 0 0.1382744753146134 0.79650574229207483 0 0.17777405986036951 0.81832336108265358 0 0.14474682429600511 0.85524784522713515 0 0.1074251789111534 0.83564394292147814 0 0.1382744753146134 0.79650574229207483 0 0.14474682429600511 0.85524784522713515 0 0.1241151115713819 0.9045666525468371 0 0.14474682429600511 0.85524784522713515 0 0.16206583317966519 0.89685560785156404 0 0.1241151115713819 0.9045666525468371 0 0.16206583317966519 0.89685560785156404 0 0.14617343800780541 0.93808063414349496 0 0.16206583317966519 0.89685560785156404 0 0.19901705110390991 0.9175543425573498 0 0.14617343800780541 0.93808063414349496 0 0.19741632902693801 0.86755867406447229 0 0.16206583317966519 0.89685560785156404 0 0.19901705110390991 0.9175543425573498 0 0.19741632902693801 0.86755867406447229 0 0.24536017905392571 0.90704567837671446 0 0.19901705110390991 0.9175543425573498 0 0.2401283238295133 0.85648409884788523 0 0.19741632902693801 0.86755867406447229 0 0.24536017905392571 0.90704567837671446 0 0.24536017905392571 0.90704567837671446 0 0.19901705110390991 0.9175543425573498 0 0.22850979588452081 0.95594428570238643 0 0.19901705110390991 0.9175543425573498 0 0.22850979588452081 0.95594428570238643 0 0.18474005699953849 0.96231585248064622 0 0.24536017905392571 0.90704567837671446 0 0.22850979588452081 0.95594428570238643 0 0.27609987656793722 0.94991445621608572 0 0.22850979588452081 0.95594428570238643 0 0.20000000000083221 1 0 0.25000000000104028 1 0 0.22850979588452081 0.95594428570238643 0 0.20000000000083221 1 0 0.18474005699953849 0.96231585248064622 0 0.20000000000083221 1 0 0.18474005699953849 0.96231585248064622 0 0.15000000000062411 1 0 0.19901705110390991 0.9175543425573498 0 0.18474005699953849 0.96231585248064622 0 0.14617343800780541 0.93808063414349496 0 0.18474005699953849 0.96231585248064622 0 0.14617343800780541 0.93808063414349496 0 0.15000000000062411 1 0 0.10266856499240549 0.95548163909968886 0 0.14617343800780541 0.93808063414349496 0 0.15000000000062411 1 0 0.35000000000145642 1 0 0.36184234618600131 0.96443954459096326 0 0.32544832635163229 0.95485394099568932 0 0.35000000000145642 1 0 0.36184234618600131 0.96443954459096326 0 0.40000000000166441 1 0 0.36184234618600131 0.96443954459096326 0 0.32544832635163229 0.95485394099568932 0 0.35752321586431363 0.9185439911803448 0 0.36184234618600131 0.96443954459096326 0 0.35752321586431363 0.9185439911803448 0 0.39641108128798319 0.94356127926187128 0 0.35000000000145642 1 0 0.32544832635163229 0.95485394099568932 0 0.30000000000124832 1 0 0.30000000000124832 1 0 0.25000000000104028 1 0 0.27609987656793722 0.94991445621608572 0 0.22850979588452081 0.95594428570238643 0 0.25000000000104028 1 0 0.27609987656793722 0.94991445621608572 0 0.32544832635163229 0.95485394099568932 0 0.30000000000124832 1 0 0.27609987656793722 0.94991445621608572 0 0.32544832635163229 0.95485394099568932 0 0.27609987656793722 0.94991445621608572 0 0.30864387279288652 0.89906554525974958 0 0.24536017905392571 0.90704567837671446 0 0.27270076654418179 0.87751467830216623 0 0.30864387279288652 0.89906554525974958 0 0.24536017905392571 0.90704567837671446 0 0.27609987656793722 0.94991445621608572 0 0.30864387279288652 0.89906554525974958 0 0.2401283238295133 0.85648409884788523 0 0.24536017905392571 0.90704567837671446 0 0.27270076654418179 0.87751467830216623 0 0.30864387279288652 0.89906554525974958 0 0.35752321586431363 0.9185439911803448 0 0.35864759629805099 0.87963482415279515 0 0.32544832635163229 0.95485394099568932 0 0.30864387279288652 0.89906554525974958 0 0.35752321586431363 0.9185439911803448 0 0.35752321586431363 0.9185439911803448 0 0.35864759629805099 0.87963482415279515 0 0.39767323751400468 0.89584229130535065 0 0.35864759629805099 0.87963482415279515 0 0.33403534827021109 0.84402799729020661 0 0.39536230704883951 0.84069429572832477 0 0.33403534827021109 0.84402799729020661 0 0.35642984951668422 0.80994399665655703 0 0.39536230704883951 0.84069429572832477 0 0.33403534827021109 0.84402799729020661 0 0.30857225866488791 0.81101973481716805 0 0.35642984951668422 0.80994399665655703 0 0.30864387279288652 0.89906554525974958 0 0.35864759629805099 0.87963482415279515 0 0.33403534827021109 0.84402799729020661 0 0.30864387279288652 0.89906554525974958 0 0.33403534827021109 0.84402799729020661 0 0.29209212897034281 0.84715728365233667 0 0.27270076654418179 0.87751467830216623 0 0.30864387279288652 0.89906554525974958 0 0.29209212897034281 0.84715728365233667 0 0.2401283238295133 0.85648409884788523 0 0.27270076654418179 0.87751467830216623 0 0.29209212897034281 0.84715728365233667 0 0.2401283238295133 0.85648409884788523 0 0.29209212897034281 0.84715728365233667 0 0.26104540868854792 0.81401944968719064 0 0.29209212897034281 0.84715728365233667 0 0.26104540868854792 0.81401944968719064 0 0.30857225866488791 0.81101973481716805 0 0.33403534827021109 0.84402799729020661 0 0.29209212897034281 0.84715728365233667 0 0.30857225866488791 0.81101973481716805 0 0.26104540868854792 0.81401944968719064 0 0.30857225866488791 0.81101973481716805 0 0.2792923945214143 0.77665808831789485 0 0.30857225866488791 0.81101973481716805 0 0.2792923945214143 0.77665808831789485 0 0.33123028043633618 0.77629643437932982 0 0.22556077506376701 0.77837424984191617 0 0.26104540868854792 0.81401944968719064 0 0.2792923945214143 0.77665808831789485 0 0.2792923945214143 0.77665808831789485 0 0.25676291524611189 0.7436741304886243 0 0.29904318922293632 0.74132814928635593 0 0.22556077506376701 0.77837424984191617 0 0.2792923945214143 0.77665808831789485 0 0.25676291524611189 0.7436741304886243 0 0.2792923945214143 0.77665808831789485 0 0.33123028043633618 0.77629643437932982 0 0.29904318922293632 0.74132814928635593 0 0.33123028043633618 0.77629643437932982 0 0.29904318922293632 0.74132814928635593 0 0.35415581127540569 0.73730480045900215 0 0.30857225866488791 0.81101973481716805 0 0.33123028043633618 0.77629643437932982 0 0.35642984951668422 0.80994399665655703 0 0.33123028043633618 0.77629643437932982 0 0.35642984951668422 0.80994399665655703 0 0.38586766253264881 0.78219501014812498 0 0.33123028043633618 0.77629643437932982 0 0.38586766253264881 0.78219501014812498 0 0.35415581127540569 0.73730480045900215 0 0.38586766253264881 0.78219501014812498 0 0.42676259796334498 0.76772545931379299 0 0.40326160981139969 0.73346192995102844 0 0.38586766253264881 0.78219501014812498 0 0.35415581127540569 0.73730480045900215 0 0.40326160981139969 0.73346192995102844 0 0.38586766253264881 0.78219501014812498 0 0.42609163930740518 0.80361684430568059 0 0.39536230704883951 0.84069429572832477 0 0.35642984951668422 0.80994399665655703 0 0.38586766253264881 0.78219501014812498 0 0.39536230704883951 0.84069429572832477 0 0.38586766253264881 0.78219501014812498 0 0.42609163930740518 0.80361684430568059 0 0.42676259796334498 0.76772545931379299 0 0.42676259796334498 0.76772545931379299 0 0.4656888918609538 0.78493261229743638 0 0.45582236402875981 0.73896743678908217 0 0.4656888918609538 0.78493261229743638 0 0.45582236402875981 0.73896743678908217 0 0.50945740445113552 0.75476055527778108 0 0.4656888918609538 0.78493261229743638 0 0.50731287292894423 0.78963574450233831 0 0.50945740445113552 0.75476055527778108 0 0.4656888918609538 0.78493261229743638 0 0.50627822638148745 0.8263979829520941 0 0.50731287292894423 0.78963574450233831 0 0.42609163930740518 0.80361684430568059 0 0.4656888918609538 0.78493261229743638 0 0.45677673713123867 0.84253684404072415 0 0.42609163930740518 0.80361684430568059 0 0.42676259796334498 0.76772545931379299 0 0.4656888918609538 0.78493261229743638 0 0.4656888918609538 0.78493261229743638 0 0.45677673713123867 0.84253684404072415 0 0.50627822638148745 0.8263979829520941 0 0.45677673713123867 0.84253684404072415 0 0.50202631463681879 0.87892870825713787 0 0.50627822638148745 0.8263979829520941 0 0.45677673713123867 0.84253684404072415 0 0.44003836461056539 0.88093474584252718 0 0.50202631463681879 0.87892870825713787 0 0.45677673713123867 0.84253684404072415 0 0.39536230704883951 0.84069429572832477 0 0.44003836461056539 0.88093474584252718 0 0.39536230704883951 0.84069429572832477 0 0.39767323751400468 0.89584229130535065 0 0.44003836461056539 0.88093474584252718 0 0.42609163930740518 0.80361684430568059 0 0.45677673713123867 0.84253684404072415 0 0.39536230704883951 0.84069429572832477 0 0.35864759629805099 0.87963482415279515 0 0.39536230704883951 0.84069429572832477 0 0.39767323751400468 0.89584229130535065 0 0.35752321586431363 0.9185439911803448 0 0.39767323751400468 0.89584229130535065 0 0.39641108128798319 0.94356127926187128 0 0.39767323751400468 0.89584229130535065 0 0.4367309254023824 0.92065556789053882 0 0.39641108128798319 0.94356127926187128 0 0.39767323751400468 0.89584229130535065 0 0.4367309254023824 0.92065556789053882 0 0.44003836461056539 0.88093474584252718 0 0.4367309254023824 0.92065556789053882 0 0.44003836461056539 0.88093474584252718 0 0.47401147028110507 0.91529957330468115 0 0.44003836461056539 0.88093474584252718 0 0.47401147028110507 0.91529957330468115 0 0.50202631463681879 0.87892870825713787 0 0.47401147028110507 0.91529957330468115 0 0.47135117303824892 0.95556877749289892 0 0.52122150208832174 0.94089974453840242 0 0.47401147028110507 0.91529957330468115 0 0.52122150208832174 0.94089974453840242 0 0.50202631463681879 0.87892870825713787 0 0.4367309254023824 0.92065556789053882 0 0.47401147028110507 0.91529957330468115 0 0.47135117303824892 0.95556877749289892 0 0.4367309254023824 0.92065556789053882 0 0.47135117303824892 0.95556877749289892 0 0.4308986359464303 0.96395712492906194 0 0.47135117303824892 0.95556877749289892 0 0.50000000000205869 1 0 0.52122150208832174 0.94089974453840242 0 0.47135117303824892 0.95556877749289892 0 0.45000000000187229 1 0 0.50000000000205869 1 0 0.47135117303824892 0.95556877749289892 0 0.45000000000187229 1 0 0.4308986359464303 0.96395712492906194 0 0.45000000000187229 1 0 0.4308986359464303 0.96395712492906194 0 0.40000000000166441 1 0 0.4308986359464303 0.96395712492906194 0 0.39641108128798319 0.94356127926187128 0 0.40000000000166441 1 0 0.4367309254023824 0.92065556789053882 0 0.4308986359464303 0.96395712492906194 0 0.39641108128798319 0.94356127926187128 0 0.36184234618600131 0.96443954459096326 0 0.39641108128798319 0.94356127926187128 0 0.40000000000166441 1 0 0.33122374654748771 0.57588941099433744 0 0.31502927232353312 0.6134992213375432 0 0.35765792684946668 0.6000687869219653 0 0.31502927232353312 0.6134992213375432 0 0.35765792684946668 0.6000687869219653 0 0.35864735590330371 0.63903383440414463 0 0.35765792684946668 0.6000687869219653 0 0.35864735590330371 0.63903383440414463 0 0.39743091024207589 0.6239520004230239 0 0.33122374654748771 0.57588941099433744 0 0.35765792684946668 0.6000687869219653 0 0.37272913873093971 0.56192925302619479 0 0.37272913873093971 0.56192925302619479 0 0.33190227185843768 0.52715113583864037 0 0.38244435121258652 0.51653317813019495 0 0.33122374654748771 0.57588941099433744 0 0.37272913873093971 0.56192925302619479 0 0.33190227185843768 0.52715113583864037 0 0.35024835142131061 0.48654922671676981 0 0.33190227185843768 0.52715113583864037 0 0.38244435121258652 0.51653317813019495 0 0.33122374654748771 0.57588941099433744 0 0.33190227185843768 0.52715113583864037 0 0.29110487519241501 0.56588143995431495 0 0.33190227185843768 0.52715113583864037 0 0.28307294598219601 0.50789252727458634 0 0.29110487519241501 0.56588143995431495 0 0.31068898841644388 0.47541502461811092 0 0.33190227185843768 0.52715113583864037 0 0.28307294598219601 0.50789252727458634 0 0.23975172658309729 0.49475499200540818 0 0.28307294598219601 0.50789252727458634 0 0.25115337790845271 0.54719303014923271 0 0.28307294598219601 0.50789252727458634 0 0.25115337790845271 0.54719303014923271 0 0.29110487519241501 0.56588143995431495 0 0.25115337790845271 0.54719303014923271 0 0.29110487519241501 0.56588143995431495 0 0.26573297623774761 0.59828298563722948 0 0.33122374654748771 0.57588941099433744 0 0.31502927232353312 0.6134992213375432 0 0.29110487519241501 0.56588143995431495 0 0.31502927232353312 0.6134992213375432 0 0.29110487519241501 0.56588143995431495 0 0.26573297623774761 0.59828298563722948 0 0.31502927232353312 0.6134992213375432 0 0.26573297623774761 0.59828298563722948 0 0.27820712747429932 0.65530134213254643 0 0.2459498854893499 0.63248470766216769 0 0.26573297623774761 0.59828298563722948 0 0.27820712747429932 0.65530134213254643 0 0.2236846579037573 0.67380363126050236 0 0.27820712747429932 0.65530134213254643 0 0.26439878998046262 0.7048065392091396 0 0.27820712747429932 0.65530134213254643 0 0.31378396441836959 0.70157213313026345 0 0.32263089806001177 0.66003674931826484 0 0.27820712747429932 0.65530134213254643 0 0.26439878998046262 0.7048065392091396 0 0.31378396441836959 0.70157213313026345 0 0.31502927232353312 0.6134992213375432 0 0.27820712747429932 0.65530134213254643 0 0.32263089806001177 0.66003674931826484 0 0.25676291524611189 0.7436741304886243 0 0.26439878998046262 0.7048065392091396 0 0.29904318922293632 0.74132814928635593 0 0.26439878998046262 0.7048065392091396 0 0.29904318922293632 0.74132814928635593 0 0.31378396441836959 0.70157213313026345 0 0.29904318922293632 0.74132814928635593 0 0.31378396441836959 0.70157213313026345 0 0.35415581127540569 0.73730480045900215 0 0.31378396441836959 0.70157213313026345 0 0.36622285152418499 0.69092437780804039 0 0.35415581127540569 0.73730480045900215 0 0.36622285152418499 0.69092437780804039 0 0.35415581127540569 0.73730480045900215 0 0.40326160981139969 0.73346192995102844 0 0.31502927232353312 0.6134992213375432 0 0.32263089806001177 0.66003674931826484 0 0.35864735590330371 0.63903383440414463 0 0.31378396441836959 0.70157213313026345 0 0.36622285152418499 0.69092437780804039 0 0.32263089806001177 0.66003674931826484 0 0.36622285152418499 0.69092437780804039 0 0.32263089806001177 0.66003674931826484 0 0.35864735590330371 0.63903383440414463 0 0.36622285152418499 0.69092437780804039 0 0.35864735590330371 0.63903383440414463 0 0.3977710372045391 0.65868194622830212 0 0.35864735590330371 0.63903383440414463 0 0.3977710372045391 0.65868194622830212 0 0.39743091024207589 0.6239520004230239 0 0.36622285152418499 0.69092437780804039 0 0.3977710372045391 0.65868194622830212 0 0.43323420005758778 0.6913544522562407 0 0.3977710372045391 0.65868194622830212 0 0.43323420005758778 0.6913544522562407 0 0.43846182030517877 0.64845797726506715 0 0.43846182030517877 0.64845797726506715 0 0.43545892161006339 0.61093128915313821 0 0.39743091024207589 0.6239520004230239 0 0.3977710372045391 0.65868194622830212 0 0.43846182030517877 0.64845797726506715 0 0.39743091024207589 0.6239520004230239 0 0.36622285152418499 0.69092437780804039 0 0.40326160981139969 0.73346192995102844 0 0.43323420005758778 0.6913544522562407 0 0.40326160981139969 0.73346192995102844 0 0.43323420005758778 0.6913544522562407 0 0.45582236402875981 0.73896743678908217 0 0.42676259796334498 0.76772545931379299 0 0.40326160981139969 0.73346192995102844 0 0.45582236402875981 0.73896743678908217 0 0.43323420005758778 0.6913544522562407 0 0.45582236402875981 0.73896743678908217 0 0.5 0.69999999999999996 0 0.45582236402875981 0.73896743678908217 0 0.5 0.69999999999999996 0 0.50945740445113552 0.75476055527778108 0 0.43323420005758778 0.6913544522562407 0 0.47913475093885149 0.66010775372412711 0 0.5 0.69999999999999996 0 0.43846182030517877 0.64845797726506715 0 0.47913475093885149 0.66010775372412711 0 0.47095389620662098 0.61892551373708504 0 0.43846182030517877 0.64845797726506715 0 0.47095389620662098 0.61892551373708504 0 0.43545892161006339 0.61093128915313821 0 0.43323420005758778 0.6913544522562407 0 0.43846182030517877 0.64845797726506715 0 0.47913475093885149 0.66010775372412711 0 0.47913475093885149 0.66010775372412711 0 0.47095389620662098 0.61892551373708504 0 0.50715858906372158 0.63295939104129484 0 0.47095389620662098 0.61892551373708504 0 0.5166924242153631 0.59825134841919447 0 0.50715858906372158 0.63295939104129484 0 0.47095389620662098 0.61892551373708504 0 0.46666084890304671 0.57634471035397938 0 0.5166924242153631 0.59825134841919447 0 0.47095389620662098 0.61892551373708504 0 0.46666084890304671 0.57634471035397938 0 0.43545892161006339 0.61093128915313821 0 0.43545892161006339 0.61093128915313821 0 0.4089290844030305 0.58728915500154233 0 0.39743091024207589 0.6239520004230239 0 0.46666084890304671 0.57634471035397938 0 0.43545892161006339 0.61093128915313821 0 0.4089290844030305 0.58728915500154233 0 0.46666084890304671 0.57634471035397938 0 0.4089290844030305 0.58728915500154233 0 0.42644501560315817 0.54603747078095544 0 0.37272913873093971 0.56192925302619479 0 0.4089290844030305 0.58728915500154233 0 0.42644501560315817 0.54603747078095544 0 0.35765792684946668 0.6000687869219653 0 0.37272913873093971 0.56192925302619479 0 0.4089290844030305 0.58728915500154233 0 0.35765792684946668 0.6000687869219653 0 0.4089290844030305 0.58728915500154233 0 0.39743091024207589 0.6239520004230239 0 0.37272913873093971 0.56192925302619479 0 0.38244435121258652 0.51653317813019495 0 0.42644501560315817 0.54603747078095544 0 0.43507373378304309 0.49699695397193322 0 0.38244435121258652 0.51653317813019495 0 0.42644501560315817 0.54603747078095544 0 0.46666084890304671 0.57634471035397938 0 0.47793794143994173 0.52940715638744962 0 0.53245488764484505 0.55078124999999989 0 0.43507373378304309 0.49699695397193322 0 0.49102375406324739 0.49123754822244059 0 0.47793794143994173 0.52940715638744962 0 0.43507373378304309 0.49699695397193322 0 0.42644501560315817 0.54603747078095544 0 0.47793794143994173 0.52940715638744962 0 0.46666084890304671 0.57634471035397938 0 0.42644501560315817 0.54603747078095544 0 0.47793794143994173 0.52940715638744962 0 0.49102375406324739 0.49123754822244059 0 0.47793794143994173 0.52940715638744962 0 0.53330375813596242 0.50827942741749099 0 0.47793794143994173 0.52940715638744962 0 0.53245488764484505 0.55078124999999989 0 0.53330375813596242 0.50827942741749099 0 0.53245488764484505 0.55078124999999989 0 0.53330375813596242 0.50827942741749099 0 0.57435499076887508 0.54267261987897775 0 0.53245488764484505 0.55078124999999989 0 0.57435499076887508 0.54267261987897775 0 0.57412547362576272 0.58273804879550706 0 0.53330375813596242 0.50827942741749099 0 0.57611405284611883 0.50165903596042916 0 0.57435499076887508 0.54267261987897775 0 0.57611405284611883 0.50165903596042916 0 0.57435499076887508 0.54267261987897775 0 0.62042975506801734 0.54295974692364424 0 0.57435499076887508 0.54267261987897775 0 0.62042975506801734 0.54295974692364424 0 0.57412547362576272 0.58273804879550706 0 0.57611405284611883 0.50165903596042916 0 0.62042975506801734 0.54295974692364424 0 0.61547661924074692 0.48539576058873962 0 0.5991018319127801 0.62925360607495295 0 0.6405463747586706 0.63290524857395714 0 0.63065402604362242 0.59661356661633302 0 0.57412547362576272 0.58273804879550706 0 0.5991018319127801 0.62925360607495295 0 0.63065402604362242 0.59661356661633302 0 0.62042975506801734 0.54295974692364424 0 0.57412547362576272 0.58273804879550706 0 0.63065402604362242 0.59661356661633302 0 0.57412547362576272 0.58273804879550706 0 0.5498280205245758 0.6290146943450976 0 0.5991018319127801 0.62925360607495295 0 0.46666084890304671 0.57634471035397938 0 0.53245488764484505 0.55078124999999989 0 0.5166924242153631 0.59825134841919447 0 0.57412547362576272 0.58273804879550706 0 0.5166924242153631 0.59825134841919447 0 0.5498280205245758 0.6290146943450976 0 0.53245488764484505 0.55078124999999989 0 0.57412547362576272 0.58273804879550706 0 0.5166924242153631 0.59825134841919447 0 0.5166924242153631 0.59825134841919447 0 0.50715858906372158 0.63295939104129484 0 0.5498280205245758 0.6290146943450976 0 0.47913475093885149 0.66010775372412711 0 0.50715858906372158 0.63295939104129484 0 0.52584555706968406 0.66664215091846768 0 0.50715858906372158 0.63295939104129484 0 0.52584555706968406 0.66664215091846768 0 0.5498280205245758 0.6290146943450976 0 0.47913475093885149 0.66010775372412711 0 0.52584555706968406 0.66664215091846768 0 0.5 0.69999999999999996 0 0.52584555706968406 0.66664215091846768 0 0.54999999999999993 0.69999999999999996 0 0.57484956128872922 0.66573805030881994 0 0.52584555706968406 0.66664215091846768 0 0.5498280205245758 0.6290146943450976 0 0.57484956128872922 0.66573805030881994 0 0.5 0.69999999999999996 0 0.55363780716230748 0.74348740161571747 0 0.50945740445113552 0.75476055527778108 0 0.52584555706968406 0.66664215091846768 0 0.5 0.69999999999999996 0 0.54999999999999993 0.69999999999999996 0 0.5 0.69999999999999996 0 0.54999999999999993 0.69999999999999996 0 0.5 0.69999999999999996 0 0.54999999999999993 0.69999999999999996 0 0.55363780716230748 0.74348740161571747 0 0.55363780716230748 0.74348740161571747 0 0.59999999999999976 0.69999999999999996 0 0.59636844454254345 0.75937156204589151 0 0.54999999999999993 0.69999999999999996 0 0.59999999999999976 0.69999999999999996 0 0.54999999999999993 0.69999999999999996 0 0.59999999999999976 0.69999999999999996 0 0.57484956128872922 0.66573805030881994 0 0.54999999999999993 0.69999999999999996 0 0.55363780716230748 0.74348740161571747 0 0.59999999999999976 0.69999999999999996 0 0.59999999999999976 0.69999999999999996 0 0.6499999999999998 0.69999999999999996 0 0.59999999999999976 0.69999999999999996 0 0.62460753523532009 0.66851202781000296 0 0.6499999999999998 0.69999999999999996 0 0.59999999999999976 0.69999999999999996 0 0.63221990677827677 0.73442891067859706 0 0.59636844454254345 0.75937156204589151 0 0.5498280205245758 0.6290146943450976 0 0.57484956128872922 0.66573805030881994 0 0.5991018319127801 0.62925360607495295 0 0.59999999999999976 0.69999999999999996 0 0.57484956128872922 0.66573805030881994 0 0.62460753523532009 0.66851202781000296 0 0.57484956128872922 0.66573805030881994 0 0.62460753523532009 0.66851202781000296 0 0.5991018319127801 0.62925360607495295 0 0.62460753523532009 0.66851202781000296 0 0.5991018319127801 0.62925360607495295 0 0.6405463747586706 0.63290524857395714 0 0.62460753523532009 0.66851202781000296 0 0.6405463747586706 0.63290524857395714 0 0.675261390228442 0.65996937624687813 0 0.62460753523532009 0.66851202781000296 0 0.675261390228442 0.65996937624687813 0 0.6499999999999998 0.69999999999999996 0 0.675261390228442 0.65996937624687813 0 0.6499999999999998 0.69999999999999996 0 0.69999999999999984 0.69999999999999996 0 0.6405463747586706 0.63290524857395714 0 0.675261390228442 0.65996937624687813 0 0.67529834988829951 0.61613270668143583 0 0.63221990677827677 0.73442891067859706 0 0.66427993341343905 0.73232764502436276 0 0.64753070846764316 0.77332939069435502 0 0.63221990677827677 0.73442891067859706 0 0.6499999999999998 0.69999999999999996 0 0.66427993341343905 0.73232764502436276 0 0.59999999999999976 0.69999999999999996 0 0.63221990677827677 0.73442891067859706 0 0.6499999999999998 0.69999999999999996 0 0.6499999999999998 0.69999999999999996 0 0.69999999999999984 0.69999999999999996 0 0.6499999999999998 0.69999999999999996 0 0.66427993341343905 0.73232764502436276 0 0.69999999999999984 0.69999999999999996 0 0.66427993341343905 0.73232764502436276 0 0.69999999999999984 0.69999999999999996 0 0.6916490518212759 0.75387992374886192 0 0.69999999999999984 0.69999999999999996 0 0.72501250972655151 0.74067302935308721 0 0.6916490518212759 0.75387992374886192 0 0.69999999999999984 0.69999999999999996 0 0.74999999999999989 0.69999999999999996 0 0.72501250972655151 0.74067302935308721 0 0.69999999999999984 0.69999999999999996 0 0.74999999999999989 0.69999999999999996 0 0.72500000000000064 0.67022701834392062 0 0.69999999999999984 0.69999999999999996 0 0.74999999999999989 0.69999999999999996 0 0.74999999999999989 0.69999999999999996 0 0.72501250972655151 0.74067302935308721 0 0.75841349681148107 0.75422312624214749 0 0.675261390228442 0.65996937624687813 0 0.71406021706547751 0.63292083137662503 0 0.72500000000000064 0.67022701834392062 0 0.675261390228442 0.65996937624687813 0 0.71406021706547751 0.63292083137662503 0 0.67529834988829951 0.61613270668143583 0 0.675261390228442 0.65996937624687813 0 0.69999999999999984 0.69999999999999996 0 0.72500000000000064 0.67022701834392062 0 0.71406021706547751 0.63292083137662503 0 0.72500000000000064 0.67022701834392062 0 0.74994237037456724 0.62775548192980357 0 0.72500000000000064 0.67022701834392062 0 0.74994237037456724 0.62775548192980357 0 0.7750489929959945 0.66593931409600093 0 0.71406021706547751 0.63292083137662503 0 0.74994237037456724 0.62775548192980357 0 0.71809016091162536 0.58185040402320831 0 0.74994237037456724 0.62775548192980357 0 0.71809016091162536 0.58185040402320831 0 0.77293540622714185 0.59448302402785813 0 0.71406021706547751 0.63292083137662503 0 0.71809016091162536 0.58185040402320831 0 0.67529834988829951 0.61613270668143583 0 0.71809016091162536 0.58185040402320831 0 0.67569444444444449 0.53500863336860327 0 0.67323294229744413 0.57556450033612505 0 0.71809016091162536 0.58185040402320831 0 0.67529834988829951 0.61613270668143583 0 0.67323294229744413 0.57556450033612505 0 0.71809016091162536 0.58185040402320831 0 0.7152569930854884 0.5237994455134295 0 0.77151014687832564 0.54436834383023036 0 0.7152569930854884 0.5237994455134295 0 0.77151014687832564 0.54436834383023036 0 0.73947346780852752 0.49062440112282169 0 0.7152569930854884 0.5237994455134295 0 0.67569444444444449 0.53500863336860327 0 0.69385896817107129 0.48377516041410151 0 0.71809016091162536 0.58185040402320831 0 0.7152569930854884 0.5237994455134295 0 0.67569444444444449 0.53500863336860327 0 0.62042975506801734 0.54295974692364424 0 0.67569444444444449 0.53500863336860327 0 0.67323294229744413 0.57556450033612505 0 0.67569444444444449 0.53500863336860327 0 0.6541250972820879 0.49999999999999989 0 0.69385896817107129 0.48377516041410151 0 0.62042975506801734 0.54295974692364424 0 0.67569444444444449 0.53500863336860327 0 0.6541250972820879 0.49999999999999989 0 0.62042975506801734 0.54295974692364424 0 0.61547661924074692 0.48539576058873962 0 0.6541250972820879 0.49999999999999989 0 0.62042975506801734 0.54295974692364424 0 0.63065402604362242 0.59661356661633302 0 0.67323294229744413 0.57556450033612505 0 0.6405463747586706 0.63290524857395714 0 0.63065402604362242 0.59661356661633302 0 0.67529834988829951 0.61613270668143583 0 0.63065402604362242 0.59661356661633302 0 0.67529834988829951 0.61613270668143583 0 0.67323294229744413 0.57556450033612505 0 0.60000000000138687 1 0 0.62065498684670595 0.95224934003983619 0 0.57382506491224949 0.9629411906298494 0 0.60000000000138687 1 0 0.62065498684670595 0.95224934003983619 0 0.65000000000104008 1 0 0.62065498684670595 0.95224934003983619 0 0.57382506491224949 0.9629411906298494 0 0.57724883562309992 0.92155686857100794 0 0.60000000000138687 1 0 0.57382506491224949 0.9629411906298494 0 0.55000000000173355 1 0 0.55000000000173355 1 0 0.50000000000205869 1 0 0.52122150208832174 0.94089974453840242 0 0.57382506491224949 0.9629411906298494 0 0.52122150208832174 0.94089974453840242 0 0.57724883562309992 0.92155686857100794 0 0.57382506491224949 0.9629411906298494 0 0.55000000000173355 1 0 0.52122150208832174 0.94089974453840242 0 0.52122150208832174 0.94089974453840242 0 0.54783390826260769 0.89287767010860219 0 0.57724883562309992 0.92155686857100794 0 0.52122150208832174 0.94089974453840242 0 0.50202631463681879 0.87892870825713787 0 0.54783390826260769 0.89287767010860219 0 0.54783390826260769 0.89287767010860219 0 0.5832743223239254 0.88483152652961872 0 0.55899371797446828 0.85003102233514438 0 0.54783390826260769 0.89287767010860219 0 0.5832743223239254 0.88483152652961872 0 0.57724883562309992 0.92155686857100794 0 0.5832743223239254 0.88483152652961872 0 0.57724883562309992 0.92155686857100794 0 0.61885627562261258 0.90282959257498208 0 0.62065498684670595 0.95224934003983619 0 0.57724883562309992 0.92155686857100794 0 0.61885627562261258 0.90282959257498208 0 0.5832743223239254 0.88483152652961872 0 0.61885627562261258 0.90282959257498208 0 0.61343887413683884 0.856862479058357 0 0.61343887413683884 0.856862479058357 0 0.60294066490120068 0.80851322453934582 0 0.65005442820240822 0.82644988530054031 0 0.61343887413683884 0.856862479058357 0 0.55899371797446828 0.85003102233514438 0 0.60294066490120068 0.80851322453934582 0 0.55899371797446828 0.85003102233514438 0 0.54782696902220018 0.79245182748204157 0 0.60294066490120068 0.80851322453934582 0 0.5832743223239254 0.88483152652961872 0 0.61343887413683884 0.856862479058357 0 0.55899371797446828 0.85003102233514438 0 0.50202631463681879 0.87892870825713787 0 0.54783390826260769 0.89287767010860219 0 0.55899371797446828 0.85003102233514438 0 0.50202631463681879 0.87892870825713787 0 0.55899371797446828 0.85003102233514438 0 0.50627822638148745 0.8263979829520941 0 0.55899371797446828 0.85003102233514438 0 0.50627822638148745 0.8263979829520941 0 0.54782696902220018 0.79245182748204157 0 0.50627822638148745 0.8263979829520941 0 0.54782696902220018 0.79245182748204157 0 0.50731287292894423 0.78963574450233831 0 0.54782696902220018 0.79245182748204157 0 0.50731287292894423 0.78963574450233831 0 0.50945740445113552 0.75476055527778108 0 0.55363780716230748 0.74348740161571747 0 0.54782696902220018 0.79245182748204157 0 0.50945740445113552 0.75476055527778108 0 0.55363780716230748 0.74348740161571747 0 0.54782696902220018 0.79245182748204157 0 0.59636844454254345 0.75937156204589151 0 0.54782696902220018 0.79245182748204157 0 0.60294066490120068 0.80851322453934582 0 0.59636844454254345 0.75937156204589151 0 0.60294066490120068 0.80851322453934582 0 0.59636844454254345 0.75937156204589151 0 0.64753070846764316 0.77332939069435502 0 0.63221990677827677 0.73442891067859706 0 0.59636844454254345 0.75937156204589151 0 0.64753070846764316 0.77332939069435502 0 0.60294066490120068 0.80851322453934582 0 0.64753070846764316 0.77332939069435502 0 0.65005442820240822 0.82644988530054031 0 0.64753070846764316 0.77332939069435502 0 0.68024162096458085 0.79868546898116533 0 0.65005442820240822 0.82644988530054031 0 0.64753070846764316 0.77332939069435502 0 0.68024162096458085 0.79868546898116533 0 0.6916490518212759 0.75387992374886192 0 0.66427993341343905 0.73232764502436276 0 0.64753070846764316 0.77332939069435502 0 0.6916490518212759 0.75387992374886192 0 0.72501250972655151 0.74067302935308721 0 0.6916490518212759 0.75387992374886192 0 0.72500000000000064 0.7952620967744265 0 0.72501250972655151 0.74067302935308721 0 0.72500000000000064 0.7952620967744265 0 0.75841349681148107 0.75422312624214749 0 0.68024162096458085 0.79868546898116533 0 0.6916490518212759 0.75387992374886192 0 0.72500000000000064 0.7952620967744265 0 0.68024162096458085 0.79868546898116533 0 0.72500000000000064 0.7952620967744265 0 0.68697391633157634 0.84450604838764298 0 0.72500000000000064 0.7952620967744265 0 0.72863726579783861 0.85390518901155588 0 0.68697391633157634 0.84450604838764298 0 0.72500000000000064 0.7952620967744265 0 0.72863726579783861 0.85390518901155588 0 0.76901770135486491 0.84293557325473656 0 0.72863726579783861 0.85390518901155588 0 0.68697391633157634 0.84450604838764298 0 0.7250000000005199 0.89375000000045834 0 0.68697391633157634 0.84450604838764298 0 0.66412543161245952 0.88015090885499059 0 0.7250000000005199 0.89375000000045834 0 0.68697391633157634 0.84450604838764298 0 0.65005442820240822 0.82644988530054031 0 0.66412543161245952 0.88015090885499059 0 0.68024162096458085 0.79868546898116533 0 0.68697391633157634 0.84450604838764298 0 0.65005442820240822 0.82644988530054031 0 0.61343887413683884 0.856862479058357 0 0.65005442820240822 0.82644988530054031 0 0.66412543161245952 0.88015090885499059 0 0.61885627562261258 0.90282959257498208 0 0.61343887413683884 0.856862479058357 0 0.66412543161245952 0.88015090885499059 0 0.61885627562261258 0.90282959257498208 0 0.65507451745379841 0.92229208810758578 0 0.66412543161245952 0.88015090885499059 0 0.62065498684670595 0.95224934003983619 0 0.61885627562261258 0.90282959257498208 0 0.65507451745379841 0.92229208810758578 0 0.65507451745379841 0.92229208810758578 0 0.68987011941058407 0.92105047536677087 0 0.68015064798562208 0.95924320340003011 0 0.65507451745379841 0.92229208810758578 0 0.66412543161245952 0.88015090885499059 0 0.68987011941058407 0.92105047536677087 0 0.66412543161245952 0.88015090885499059 0 0.7250000000005199 0.89375000000045834 0 0.68987011941058407 0.92105047536677087 0 0.72863726579783861 0.85390518901155588 0 0.7250000000005199 0.89375000000045834 0 0.76891166905518427 0.88835469571185499 0 0.7250000000005199 0.89375000000045834 0 0.7250000000005199 0.94981617647078953 0 0.75729602384198635 0.92353652857884294 0 0.7250000000005199 0.89375000000045834 0 0.68987011941058407 0.92105047536677087 0 0.7250000000005199 0.94981617647078953 0 0.68987011941058407 0.92105047536677087 0 0.7250000000005199 0.94981617647078953 0 0.68015064798562208 0.95924320340003011 0 0.7250000000005199 0.94981617647078953 0 0.7000000000006934 1 0 0.75000000000034661 1 0 0.7250000000005199 0.94981617647078953 0 0.75000000000034661 1 0 0.770759834363826 0.95919399014344442 0 0.7250000000005199 0.94981617647078953 0 0.7000000000006934 1 0 0.68015064798562208 0.95924320340003011 0 0.7000000000006934 1 0 0.68015064798562208 0.95924320340003011 0 0.65000000000104008 1 0 0.62065498684670595 0.95224934003983619 0 0.65507451745379841 0.92229208810758578 0 0.68015064798562208 0.95924320340003011 0 0.62065498684670595 0.95224934003983619 0 0.68015064798562208 0.95924320340003011 0 0.65000000000104008 1 0 0.84999999999965292 1 0 0.85170973911348691 0.93569607295217616 0 0.89898474358632463 0.95391965591118966 0 0.84999999999965292 1 0 0.81486180804382891 0.96321394949790495 0 0.85170973911348691 0.93569607295217616 0 0.81486180804382891 0.96321394949790495 0 0.79680861578988083 0.92656778056766709 0 0.85170973911348691 0.93569607295217616 0 0.84999999999965292 1 0 0.81486180804382891 0.96321394949790495 0 0.79999999999999982 1 0 0.81486180804382891 0.96321394949790495 0 0.79999999999999982 1 0 0.770759834363826 0.95919399014344442 0 0.79999999999999982 1 0 0.75000000000034661 1 0 0.770759834363826 0.95919399014344442 0 0.7250000000005199 0.94981617647078953 0 0.770759834363826 0.95919399014344442 0 0.75729602384198635 0.92353652857884294 0 0.81486180804382891 0.96321394949790495 0 0.770759834363826 0.95919399014344442 0 0.79680861578988083 0.92656778056766709 0 0.79680861578988083 0.92656778056766709 0 0.75729602384198635 0.92353652857884294 0 0.76891166905518427 0.88835469571185499 0 0.770759834363826 0.95919399014344442 0 0.79680861578988083 0.92656778056766709 0 0.75729602384198635 0.92353652857884294 0 0.7250000000005199 0.89375000000045834 0 0.75729602384198635 0.92353652857884294 0 0.76891166905518427 0.88835469571185499 0 0.79680861578988083 0.92656778056766709 0 0.76891166905518427 0.88835469571185499 0 0.81159157511211755 0.88795995483179491 0 0.81159157511211755 0.88795995483179491 0 0.85170973911348691 0.93569607295217616 0 0.85600844944837662 0.88483418979512773 0 0.79680861578988083 0.92656778056766709 0 0.81159157511211755 0.88795995483179491 0 0.85170973911348691 0.93569607295217616 0 0.85170973911348691 0.93569607295217616 0 0.85600844944837662 0.88483418979512773 0 0.90416666666660628 0.9041666666666166 0 0.85600844944837662 0.88483418979512773 0 0.82709327591091286 0.84937141670920724 0 0.88088768115933802 0.84674609810493673 0 0.82709327591091286 0.84937141670920724 0 0.84725310900444062 0.80779732082917555 0 0.88088768115933802 0.84674609810493673 0 0.82709327591091286 0.84937141670920724 0 0.80041942726660109 0.81543261647703358 0 0.84725310900444062 0.80779732082917555 0 0.81159157511211755 0.88795995483179491 0 0.85600844944837662 0.88483418979512773 0 0.82709327591091286 0.84937141670920724 0 0.76891166905518427 0.88835469571185499 0 0.81159157511211755 0.88795995483179491 0 0.76901770135486491 0.84293557325473656 0 0.81159157511211755 0.88795995483179491 0 0.82709327591091286 0.84937141670920724 0 0.76901770135486491 0.84293557325473656 0 0.72863726579783861 0.85390518901155588 0 0.76891166905518427 0.88835469571185499 0 0.76901770135486491 0.84293557325473656 0 0.76901770135486491 0.84293557325473656 0 0.80041942726660109 0.81543261647703358 0 0.77094201086366854 0.79647480515688507 0 0.82709327591091286 0.84937141670920724 0 0.76901770135486491 0.84293557325473656 0 0.80041942726660109 0.81543261647703358 0 0.80041942726660109 0.81543261647703358 0 0.77094201086366854 0.79647480515688507 0 0.80185942888539485 0.77452061303608133 0 0.72500000000000064 0.7952620967744265 0 0.77094201086366854 0.79647480515688507 0 0.75841349681148107 0.75422312624214749 0 0.72500000000000064 0.7952620967744265 0 0.76901770135486491 0.84293557325473656 0 0.77094201086366854 0.79647480515688507 0 0.77094201086366854 0.79647480515688507 0 0.75841349681148107 0.75422312624214749 0 0.80185942888539485 0.77452061303608133 0 0.75841349681148107 0.75422312624214749 0 0.80185942888539485 0.77452061303608133 0 0.78578450296893509 0.73292684821144505 0 0.80185942888539485 0.77452061303608133 0 0.84725310900444062 0.80779732082917555 0 0.85491058998424563 0.76004753345552634 0 0.80185942888539485 0.77452061303608133 0 0.85491058998424563 0.76004753345552634 0 0.81864958914779962 0.73589050177899629 0 0.80041942726660109 0.81543261647703358 0 0.80185942888539485 0.77452061303608133 0 0.84725310900444062 0.80779732082917555 0 0.84725310900444062 0.80779732082917555 0 0.85491058998424563 0.76004753345552634 0 0.90299850604011456 0.79563452813489832 0 0.85491058998424563 0.76004753345552634 0 0.90299850604011456 0.79563452813489832 0 0.89999166460796554 0.74528934923809909 0 0.90299850604011456 0.79563452813489832 0 0.94399509803918602 0.75600490196082126 0 0.95386563387742829 0.80414874155775029 0 0.90299850604011456 0.79563452813489832 0 0.94399509803918602 0.75600490196082126 0 0.89999166460796554 0.74528934923809909 0 0.94399509803918602 0.75600490196082126 0 0.97435614836745565 0.77499999999987745 0 0.95386563387742829 0.80414874155775029 0 0.94399509803918602 0.75600490196082126 0 0.97435614836745565 0.77499999999987745 0 0.97166519676947294 0.73337114490064459 0 0.97435614836745565 0.77499999999987745 0 0.97166519676947294 0.73337114490064459 0 1 0.74999999999993494 0 0.97435614836745565 0.77499999999987745 0 1 0.7999999999998193 0 1 0.74999999999993494 0 0.97435614836745565 0.77499999999987745 0 1 0.7999999999998193 0 0.95386563387742829 0.80414874155775029 0 1 0.84999999999982645 0 0.93677536231884972 0.85000000000000286 0 0.95391631417670719 0.89584263333814784 0 0.95386563387742829 0.80414874155775029 0 1 0.84999999999982645 0 0.93677536231884972 0.85000000000000286 0 1 0.7999999999998193 0 0.95386563387742829 0.80414874155775029 0 1 0.84999999999982645 0 0.93677536231884972 0.85000000000000286 0 0.88088768115933802 0.84674609810493673 0 0.90416666666660628 0.9041666666666166 0 0.90299850604011456 0.79563452813489832 0 0.95386563387742829 0.80414874155775029 0 0.93677536231884972 0.85000000000000286 0 0.90299850604011456 0.79563452813489832 0 0.93677536231884972 0.85000000000000286 0 0.88088768115933802 0.84674609810493673 0 0.84725310900444062 0.80779732082917555 0 0.90299850604011456 0.79563452813489832 0 0.88088768115933802 0.84674609810493673 0 0.85600844944837662 0.88483418979512773 0 0.88088768115933802 0.84674609810493673 0 0.90416666666660628 0.9041666666666166 0 0.85170973911348691 0.93569607295217616 0 0.90416666666660628 0.9041666666666166 0 0.89898474358632463 0.95391965591118966 0 0.90416666666660628 0.9041666666666166 0 0.95391631417670719 0.89584263333814784 0 0.94399509803919068 0.9439950980391687 0 0.90416666666660628 0.9041666666666166 0 0.94399509803919068 0.9439950980391687 0 0.89898474358632463 0.95391965591118966 0 0.93677536231884972 0.85000000000000286 0 0.90416666666660628 0.9041666666666166 0 0.95391631417670719 0.89584263333814784 0 1 0.84999999999982645 0 0.95391631417670719 0.89584263333814784 0 1 0.8999999999998336 0 1 0.8999999999998336 0 0.97435614836744289 0.92499999999990257 0 1 0.94999999999997109 0 0.95391631417670719 0.89584263333814784 0 1 0.8999999999998336 0 0.97435614836744289 0.92499999999990257 0 0.95391631417670719 0.89584263333814784 0 0.97435614836744289 0.92499999999990257 0 0.94399509803919068 0.9439950980391687 0 0.97435614836744289 0.92499999999990257 0 0.94399509803919068 0.9439950980391687 0 0.97166519676946206 0.96662885509935492 0 0.97435614836744289 0.92499999999990257 0 0.97166519676946206 0.96662885509935492 0 1 0.94999999999997109 0 0.97166519676946206 0.96662885509935492 0 1 0.94999999999997109 0 1 1 0 0.97166519676946206 0.96662885509935492 0 1 1 0 0.94999999999979179 1 0 0.94399509803919068 0.9439950980391687 0 0.97166519676946206 0.96662885509935492 0 0.94999999999979179 1 0 0.94999999999979179 1 0 0.89898474358632463 0.95391965591118966 0 0.89999999999958358 1 0 0.94399509803919068 0.9439950980391687 0 0.94999999999979179 1 0 0.89898474358632463 0.95391965591118966 0 0.84999999999965292 1 0 0.89898474358632463 0.95391965591118966 0 0.89999999999958358 1 0 0.81723410853263523 0.59419663659258926 0 0.86956835336234861 0.571283299838105 0 0.82862096804812391 0.55037090955459045 0 0.81723410853263523 0.59419663659258926 0 0.87159648282691515 0.61285406320581504 0 0.83758014339878906 0.63222013025741819 0 0.81723410853263523 0.59419663659258926 0 0.79884539758237771 0.62875045078114233 0 0.83758014339878906 0.63222013025741819 0 0.81723410853263523 0.59419663659258926 0 0.87159648282691515 0.61285406320581504 0 0.86956835336234861 0.571283299838105 0 0.86956835336234861 0.571283299838105 0 0.86907294890112186 0.52008116128001669 0 0.82862096804812391 0.55037090955459045 0 0.86907294890112186 0.52008116128001669 0 0.81441713509985358 0.51161854125224959 0 0.82862096804812391 0.55037090955459045 0 0.86907294890112186 0.52008116128001669 0 0.81441713509985358 0.51161854125224959 0 0.84723782639812573 0.48638347960178252 0 0.81441713509985358 0.51161854125224959 0 0.82862096804812391 0.55037090955459045 0 0.77151014687832564 0.54436834383023036 0 0.81441713509985358 0.51161854125224959 0 0.77151014687832564 0.54436834383023036 0 0.77846603114747959 0.49850927265137401 0 0.77151014687832564 0.54436834383023036 0 0.77846603114747959 0.49850927265137401 0 0.73947346780852752 0.49062440112282169 0 0.71809016091162536 0.58185040402320831 0 0.77151014687832564 0.54436834383023036 0 0.77293540622714185 0.59448302402785813 0 0.81723410853263523 0.59419663659258926 0 0.77151014687832564 0.54436834383023036 0 0.77293540622714185 0.59448302402785813 0 0.81723410853263523 0.59419663659258926 0 0.82862096804812391 0.55037090955459045 0 0.77151014687832564 0.54436834383023036 0 0.81723410853263523 0.59419663659258926 0 0.77293540622714185 0.59448302402785813 0 0.79884539758237771 0.62875045078114233 0 0.74994237037456724 0.62775548192980357 0 0.77293540622714185 0.59448302402785813 0 0.79884539758237771 0.62875045078114233 0 0.74994237037456724 0.62775548192980357 0 0.7750489929959945 0.66593931409600093 0 0.79884539758237771 0.62875045078114233 0 0.74999999999999989 0.69999999999999996 0 0.72500000000000064 0.67022701834392062 0 0.7750489929959945 0.66593931409600093 0 0.7750489929959945 0.66593931409600093 0 0.79999999999999982 0.69999999999999996 0 0.82457059160610424 0.66831947184359608 0 0.7750489929959945 0.66593931409600093 0 0.79884539758237771 0.62875045078114233 0 0.82457059160610424 0.66831947184359608 0 0.74999999999999989 0.69999999999999996 0 0.75841349681148107 0.75422312624214749 0 0.78578450296893509 0.73292684821144505 0 0.74999999999999989 0.69999999999999996 0 0.79999999999999982 0.69999999999999996 0 0.78578450296893509 0.73292684821144505 0 0.74999999999999989 0.69999999999999996 0 0.7750489929959945 0.66593931409600093 0 0.79999999999999982 0.69999999999999996 0 0.74999999999999989 0.69999999999999996 0 0.79999999999999982 0.69999999999999996 0 0.80185942888539485 0.77452061303608133 0 0.78578450296893509 0.73292684821144505 0 0.81864958914779962 0.73589050177899629 0 0.79999999999999982 0.69999999999999996 0 0.78578450296893509 0.73292684821144505 0 0.81864958914779962 0.73589050177899629 0 0.85491058998424563 0.76004753345552634 0 0.81864958914779962 0.73589050177899629 0 0.84999999999999987 0.69999999999999996 0 0.79999999999999982 0.69999999999999996 0 0.84999999999999987 0.69999999999999996 0 0.79999999999999982 0.69999999999999996 0 0.84999999999999987 0.69999999999999996 0 0.82457059160610424 0.66831947184359608 0 0.79999999999999982 0.69999999999999996 0 0.81864958914779962 0.73589050177899629 0 0.84999999999999987 0.69999999999999996 0 0.84999999999999987 0.69999999999999996 0 0.89999999999999991 0.69999999999999996 0 0.85491058998424563 0.76004753345552634 0 0.84999999999999987 0.69999999999999996 0 0.89999166460796554 0.74528934923809909 0 0.79884539758237771 0.62875045078114233 0 0.83758014339878906 0.63222013025741819 0 0.82457059160610424 0.66831947184359608 0 0.84999999999999987 0.69999999999999996 0 0.82457059160610424 0.66831947184359608 0 0.87712158428786946 0.65709029563313581 0 0.87159648282691515 0.61285406320581504 0 0.83758014339878906 0.63222013025741819 0 0.87712158428786946 0.65709029563313581 0 0.83758014339878906 0.63222013025741819 0 0.82457059160610424 0.66831947184359608 0 0.87712158428786946 0.65709029563313581 0 0.87712158428786946 0.65709029563313581 0 0.92057473616084773 0.66770436535372446 0 0.91750694127105259 0.63017627779935648 0 0.87159648282691515 0.61285406320581504 0 0.87712158428786946 0.65709029563313581 0 0.91750694127105259 0.63017627779935648 0 0.84999999999999987 0.69999999999999996 0 0.87712158428786946 0.65709029563313581 0 0.89999999999999991 0.69999999999999996 0 0.87712158428786946 0.65709029563313581 0 0.92057473616084773 0.66770436535372446 0 0.89999999999999991 0.69999999999999996 0 0.92057473616084773 0.66770436535372446 0 0.91750694127105259 0.63017627779935648 0 0.9578014258160763 0.65787212321113708 0 0.84999999999999987 0.69999999999999996 0 0.89999166460796554 0.74528934923809909 0 0.89999999999999991 0.69999999999999996 0 0.89999999999999991 0.69999999999999996 0 0.94999999999999996 0.69999999999999996 0 0.92057473616084773 0.66770436535372446 0 0.89999999999999991 0.69999999999999996 0 0.94999999999999996 0.69999999999999996 0 0.89999166460796554 0.74528934923809909 0 0.89999999999999991 0.69999999999999996 0 0.94999999999999996 0.69999999999999996 0 0.94399509803918602 0.75600490196082126 0 0.89999166460796554 0.74528934923809909 0 0.94999999999999996 0.69999999999999996 0 0.94399509803918602 0.75600490196082126 0 0.94999999999999996 0.69999999999999996 0 0.97166519676947294 0.73337114490064459 0 0.94999999999999996 0.69999999999999996 0 1 0.69999999999999996 0 0.94999999999999996 0.69999999999999996 0 1 0.69999999999999996 0 0.97166519676947294 0.73337114490064459 0 1 0.69999999999999996 0 0.97166519676947294 0.73337114490064459 0 1 0.74999999999993494 0 0.91750694127105259 0.63017627779935648 0 0.9578014258160763 0.65787212321113708 0 0.95867599106212187 0.60011091146651041 0 0.92057473616084773 0.66770436535372446 0 0.94999999999999996 0.69999999999999996 0 0.9578014258160763 0.65787212321113708 0 0.94999999999999996 0.69999999999999996 0 1 0.69999999999999996 0 0.9578014258160763 0.65787212321113708 0 1 0.69999999999999996 0 0.9578014258160763 0.65787212321113708 0 1 0.64999999999986979 0 0.9578014258160763 0.65787212321113708 0 1 0.64999999999986979 0 0.95867599106212187 0.60011091146651041 0 0.95867599106212187 0.60011091146651041 0 0.93732437411268477 0.55911392101136159 0 1 0.54999999999963112 0 1 0.64999999999986979 0 1 0.59999999999973963 0 0.95867599106212187 0.60011091146651041 0 1 0.59999999999973963 0 0.95867599106212187 0.60011091146651041 0 1 0.54999999999963112 0 0.91750694127105259 0.63017627779935648 0 0.95867599106212187 0.60011091146651041 0 0.91143117093204207 0.58709913730335972 0 0.95867599106212187 0.60011091146651041 0 0.91143117093204207 0.58709913730335972 0 0.93732437411268477 0.55911392101136159 0 0.86956835336234861 0.571283299838105 0 0.91143117093204207 0.58709913730335972 0 0.90900154012161016 0.53607784105648792 0 0.87159648282691515 0.61285406320581504 0 0.86956835336234861 0.571283299838105 0 0.91143117093204207 0.58709913730335972 0 0.87159648282691515 0.61285406320581504 0 0.91750694127105259 0.63017627779935648 0 0.91143117093204207 0.58709913730335972 0 0.86907294890112186 0.52008116128001669 0 0.90900154012161016 0.53607784105648792 0 0.91696753777131557 0.497780560203536 0 0.86956835336234861 0.571283299838105 0 0.86907294890112186 0.52008116128001669 0 0.90900154012161016 0.53607784105648792 0 0.90900154012161016 0.53607784105648792 0 0.93732437411268477 0.55911392101136159 0 0.95631871884947484 0.51827533208233789 0 0.91143117093204207 0.58709913730335972 0 0.90900154012161016 0.53607784105648792 0 0.93732437411268477 0.55911392101136159 0 0.90900154012161016 0.53607784105648792 0 0.95631871884947484 0.51827533208233789 0 0.91696753777131557 0.497780560203536 0 0.93732437411268477 0.55911392101136159 0 0.95631871884947484 0.51827533208233789 0 1 0.54999999999963112 0 0.95631871884947484 0.51827533208233789 0 1 0.54999999999963112 0 1 0.49999999999950101 0 0.95631871884947484 0.51827533208233789 0 1 0.49999999999950101 0 0.96228564064454991 0.48206450662049471 0 1 0.49999999999950101 0 1 0.44999999999963131 0 0.96228564064454991 0.48206450662049471 0 1 0.44999999999963131 0 0.93814194660195893 0.44426664081746747 0 0.96228564064454991 0.48206450662049471 0 0.93814194660195893 0.44426664081746747 0 0.96228564064454991 0.48206450662049471 0 0.91696753777131557 0.497780560203536 0 0.95631871884947484 0.51827533208233789 0 0.96228564064454991 0.48206450662049471 0 0.91696753777131557 0.497780560203536 0 1 0.39999999999978308 0 0.95871855522754235 0.40006508612975411 0 1 0.34999999999993492 0 1 0.44999999999963131 0 1 0.39999999999978308 0 0.95871855522754235 0.40006508612975411 0 1 0.44999999999963131 0 0.93814194660195893 0.44426664081746747 0 0.95871855522754235 0.40006508612975411 0 0.95871855522754235 0.40006508612975411 0 0.90594285160987287 0.4141265964174129 0 0.91750694127107502 0.36982372220068471 0 0.93814194660195893 0.44426664081746747 0 0.95871855522754235 0.40006508612975411 0 0.90594285160987287 0.4141265964174129 0 0.90594285160987287 0.4141265964174129 0 0.88594198078881503 0.46167788676578442 0 0.86411095495256451 0.42388805655111889 0 0.90594285160987287 0.4141265964174129 0 0.86411095495256451 0.42388805655111889 0 0.86844634540301924 0.38530937474099819 0 0.90594285160987287 0.4141265964174129 0 0.86844634540301924 0.38530937474099819 0 0.91750694127107502 0.36982372220068471 0 0.93814194660195893 0.44426664081746747 0 0.91696753777131557 0.497780560203536 0 0.88594198078881503 0.46167788676578442 0 0.93814194660195893 0.44426664081746747 0 0.90594285160987287 0.4141265964174129 0 0.88594198078881503 0.46167788676578442 0 0.86907294890112186 0.52008116128001669 0 0.91696753777131557 0.497780560203536 0 0.88594198078881503 0.46167788676578442 0 0.86907294890112186 0.52008116128001669 0 0.88594198078881503 0.46167788676578442 0 0.84723782639812573 0.48638347960178252 0 0.81441713509985358 0.51161854125224959 0 0.84723782639812573 0.48638347960178252 0 0.81400510706333218 0.47357325943904899 0 0.84723782639812573 0.48638347960178252 0 0.81400510706333218 0.47357325943904899 0 0.84925632466077294 0.45359738909549091 0 0.81400510706333218 0.47357325943904899 0 0.84925632466077294 0.45359738909549091 0 0.81973119833356312 0.43505687159469048 0 0.88594198078881503 0.46167788676578442 0 0.84723782639812573 0.48638347960178252 0 0.84925632466077294 0.45359738909549091 0 0.84925632466077294 0.45359738909549091 0 0.86411095495256451 0.42388805655111889 0 0.81973119833356312 0.43505687159469048 0 0.88594198078881503 0.46167788676578442 0 0.84925632466077294 0.45359738909549091 0 0.86411095495256451 0.42388805655111889 0 0.86411095495256451 0.42388805655111889 0 0.86844634540301924 0.38530937474099819 0 0.81308179852519835 0.39754945808726527 0 0.86844634540301924 0.38530937474099819 0 0.81308179852519835 0.39754945808726527 0 0.83573492347052902 0.36590755630746369 0 0.86411095495256451 0.42388805655111889 0 0.81308179852519835 0.39754945808726527 0 0.81973119833356312 0.43505687159469048 0 0.81973119833356312 0.43505687159469048 0 0.77354604466818633 0.40378688774472771 0 0.77972660463949339 0.45529290596363098 0 0.81308179852519835 0.39754945808726527 0 0.81973119833356312 0.43505687159469048 0 0.77354604466818633 0.40378688774472771 0 0.81308179852519835 0.39754945808726527 0 0.77354604466818633 0.40378688774472771 0 0.78145581580700685 0.34881365920033602 0 0.77354604466818633 0.40378688774472771 0 0.77972660463949339 0.45529290596363098 0 0.73483647259922602 0.44789725365921768 0 0.77972660463949339 0.45529290596363098 0 0.73483647259922602 0.44789725365921768 0 0.73947346780852752 0.49062440112282169 0 0.77972660463949339 0.45529290596363098 0 0.77846603114747959 0.49850927265137401 0 0.73947346780852752 0.49062440112282169 0 0.81400510706333218 0.47357325943904899 0 0.77972660463949339 0.45529290596363098 0 0.77846603114747959 0.49850927265137401 0 0.81441713509985358 0.51161854125224959 0 0.81400510706333218 0.47357325943904899 0 0.77846603114747959 0.49850927265137401 0 0.81400510706333218 0.47357325943904899 0 0.81973119833356312 0.43505687159469048 0 0.77972660463949339 0.45529290596363098 0 0.79999999999999982 0.29999999999999999 0 0.77075983436335049 0.25919399014334171 0 0.81486180804364938 0.26321394949780091 0 0.79999999999999982 0.29999999999999999 0 0.74999999999999989 0.29999999999999999 0 0.79999999999999982 0.29999999999999999 0 0.77075983436335049 0.25919399014334171 0 0.74999999999999989 0.29999999999999999 0 0.79999999999999982 0.29999999999999999 0 0.78145581580700685 0.34881365920033602 0 0.74999999999999989 0.29999999999999999 0 0.78145581580700685 0.34881365920033602 0 0.73090396928863699 0.33699297293167962 0 0.74999999999999989 0.29999999999999999 0 0.77354604466818633 0.40378688774472771 0 0.78145581580700685 0.34881365920033602 0 0.74764719760526988 0.3719647154012321 0 0.78145581580700685 0.34881365920033602 0 0.74764719760526988 0.3719647154012321 0 0.73090396928863699 0.33699297293167962 0 0.81308179852519835 0.39754945808726527 0 0.78145581580700685 0.34881365920033602 0 0.83573492347052902 0.36590755630746369 0 0.79999999999999982 0.29999999999999999 0 0.78145581580700685 0.34881365920033602 0 0.82500000000000062 0.33010209762754811 0 0.78145581580700685 0.34881365920033602 0 0.82500000000000062 0.33010209762754811 0 0.83573492347052902 0.36590755630746369 0 0.82500000000000062 0.33010209762754811 0 0.83573492347052902 0.36590755630746369 0 0.87430060258887643 0.34056085888204451 0 0.86844634540301924 0.38530937474099819 0 0.83573492347052902 0.36590755630746369 0 0.87430060258887643 0.34056085888204451 0 0.82500000000000062 0.33010209762754811 0 0.87430060258887643 0.34056085888204451 0 0.84999999999999987 0.29999999999999999 0 0.87430060258887643 0.34056085888204451 0 0.84999999999999987 0.29999999999999999 0 0.89999999999999991 0.29999999999999999 0 0.84999999999999987 0.29999999999999999 0 0.81486180804364938 0.26321394949780091 0 0.8517097391133297 0.2356960729520409 0 0.84999999999999987 0.29999999999999999 0 0.89898474358614167 0.25391965591104898 0 0.8517097391133297 0.2356960729520409 0 0.84999999999999987 0.29999999999999999 0 0.89999999999999991 0.29999999999999999 0 0.79999999999999982 0.29999999999999999 0 0.82500000000000062 0.33010209762754811 0 0.84999999999999987 0.29999999999999999 0 0.79999999999999982 0.29999999999999999 0 0.84999999999999987 0.29999999999999999 0 0.81486180804364938 0.26321394949780091 0 0.79999999999999982 0.29999999999999999 0 0.84999999999999987 0.29999999999999999 0 0.84999999999999987 0.29999999999999999 0 0.89898474358614167 0.25391965591104898 0 0.89999999999999991 0.29999999999999999 0 0.89999999999999991 0.29999999999999999 0 0.94999999999999996 0.29999999999999999 0 0.89999999999999991 0.29999999999999999 0 0.92012390126144183 0.33123581297173937 0 0.94999999999999996 0.29999999999999999 0 0.89898474358614167 0.25391965591104898 0 0.89999999999999991 0.29999999999999999 0 0.94999999999999996 0.29999999999999999 0 0.89898474358614167 0.25391965591104898 0 0.94999999999999996 0.29999999999999999 0 0.94399509803921056 0.24399509803922639 0 0.86844634540301924 0.38530937474099819 0 0.87430060258887643 0.34056085888204451 0 0.91750694127107502 0.36982372220068471 0 0.87430060258887643 0.34056085888204451 0 0.92012390126144183 0.33123581297173937 0 0.91750694127107502 0.36982372220068471 0 0.87430060258887643 0.34056085888204451 0 0.89999999999999991 0.29999999999999999 0 0.92012390126144183 0.33123581297173937 0 0.92012390126144183 0.33123581297173937 0 0.91750694127107502 0.36982372220068471 0 0.95780851984364423 0.34215720972155339 0 0.95871855522754235 0.40006508612975411 0 0.91750694127107502 0.36982372220068471 0 0.95780851984364423 0.34215720972155339 0 0.92012390126144183 0.33123581297173937 0 0.95780851984364423 0.34215720972155339 0 0.94999999999999996 0.29999999999999999 0 0.95780851984364423 0.34215720972155339 0 0.94999999999999996 0.29999999999999999 0 1 0.29999999999999999 0 0.95780851984364423 0.34215720972155339 0 1 0.34999999999993492 0 1 0.29999999999999999 0 0.95871855522754235 0.40006508612975411 0 0.95780851984364423 0.34215720972155339 0 1 0.34999999999993492 0 0.94999999999999996 0.29999999999999999 0 0.97166519676951801 0.26662885509932011 0 0.94399509803921056 0.24399509803922639 0 0.94999999999999996 0.29999999999999999 0 1 0.29999999999999999 0 0.94999999999999996 0.29999999999999999 0 1 0.29999999999999999 0 0.97166519676951801 0.26662885509932011 0 1 0.29999999999999999 0 0.97166519676951801 0.26662885509932011 0 1 0.24999999999987299 0 0.97166519676951801 0.26662885509932011 0 0.97435614836740092 0.22499999999981049 0 1 0.24999999999987299 0 0.97435614836740092 0.22499999999981049 0 1 0.24999999999987299 0 1 0.19999999999974799 0 0.97435614836740092 0.22499999999981049 0 0.94399509803921056 0.24399509803922639 0 0.95391631417672862 0.19584263333809451 0 0.97166519676951801 0.26662885509932011 0 0.97435614836740092 0.22499999999981049 0 0.94399509803921056 0.24399509803922639 0 0.97435614836740092 0.22499999999981049 0 0.95391631417672862 0.19584263333809451 0 1 0.19999999999974799 0 0.95391631417672862 0.19584263333809451 0 1 0.14999999999961891 0 0.93677536231883773 0.14999999999999089 0 1 0.14999999999961891 0 0.93677536231883773 0.14999999999999089 0 0.95386563387744361 0.1041487415577465 0 0.95391631417672862 0.19584263333809451 0 1 0.19999999999974799 0 1 0.14999999999961891 0 0.95391631417672862 0.19584263333809451 0 0.93677536231883773 0.14999999999999089 0 0.90416666666668166 0.20416666666667119 0 0.93677536231883773 0.14999999999999089 0 0.88088768115941807 0.14674609810479519 0 0.90416666666668166 0.20416666666667119 0 0.93677536231883773 0.14999999999999089 0 0.88088768115941807 0.14674609810479519 0 0.90299850604006393 0.09563452813493091 0 0.88088768115941807 0.14674609810479519 0 0.90416666666668166 0.20416666666667119 0 0.85600844944842547 0.1848341897950983 0 0.89898474358614167 0.25391965591104898 0 0.90416666666668166 0.20416666666667119 0 0.8517097391133297 0.2356960729520409 0 0.89898474358614167 0.25391965591104898 0 0.94399509803921056 0.24399509803922639 0 0.90416666666668166 0.20416666666667119 0 0.94399509803921056 0.24399509803922639 0 0.95391631417672862 0.19584263333809451 0 0.90416666666668166 0.20416666666667119 0 0.94999999999986839 0 0 0.97166519676946894 0.033371144900598393 0 0.94399509803922566 0.056004901960802607 0 0.94999999999986839 0 0 1 0 0 0.97166519676946894 0.033371144900598393 0 1 0 0 1 0.049999999999896842 0 0.97166519676946894 0.033371144900598393 0 1 0.049999999999896842 0 0.97166519676946894 0.033371144900598393 0 0.97435614836748241 0.074999999999825387 0 0.97166519676946894 0.033371144900598393 0 0.94399509803922566 0.056004901960802607 0 0.97435614836748241 0.074999999999825387 0 0.94399509803922566 0.056004901960802607 0 0.97435614836748241 0.074999999999825387 0 0.95386563387744361 0.1041487415577465 0 0.97435614836748241 0.074999999999825387 0 1 0.099999999999753911 0 0.95386563387744361 0.1041487415577465 0 1 0.049999999999896842 0 0.97435614836748241 0.074999999999825387 0 1 0.099999999999753911 0 1 0.14999999999961891 0 1 0.099999999999753911 0 0.95386563387744361 0.1041487415577465 0 0.93677536231883773 0.14999999999999089 0 0.95386563387744361 0.1041487415577465 0 0.90299850604006393 0.09563452813493091 0 0.88088768115941807 0.14674609810479519 0 0.90299850604006393 0.09563452813493091 0 0.84725310900442086 0.10779732082922661 0 0.90299850604006393 0.09563452813493091 0 0.899991664607802 0.045289349238254978 0 0.85491058998398861 0.060047533455626502 0 0.94399509803922566 0.056004901960802607 0 0.95386563387744361 0.1041487415577465 0 0.90299850604006393 0.09563452813493091 0 0.94399509803922566 0.056004901960802607 0 0.90299850604006393 0.09563452813493091 0 0.899991664607802 0.045289349238254978 0 0.94999999999986839 0 0 0.94399509803922566 0.056004901960802607 0 0.899991664607802 0.045289349238254978 0 0.899991664607802 0.045289349238254978 0 0.89999999999973679 0 0 0.84999999999960507 0 0 0.94999999999986839 0 0 0.899991664607802 0.045289349238254978 0 0.89999999999973679 0 0 0.84999999999960507 0 0 0.81864958914740749 0.035890501779055867 0 0.79999999999947335 0 0 0.899991664607802 0.045289349238254978 0 0.84999999999960507 0 0 0.85491058998398861 0.060047533455626502 0 0.85491058998398861 0.060047533455626502 0 0.81864958914740749 0.035890501779055867 0 0.80185942888501827 0.074520613036224564 0 0.84999999999960507 0 0 0.85491058998398861 0.060047533455626502 0 0.81864958914740749 0.035890501779055867 0 0.85491058998398861 0.060047533455626502 0 0.84725310900442086 0.10779732082922661 0 0.80185942888501827 0.074520613036224564 0 0.90299850604006393 0.09563452813493091 0 0.85491058998398861 0.060047533455626502 0 0.84725310900442086 0.10779732082922661 0 0.84725310900442086 0.10779732082922661 0 0.80076557130237269 0.1154587552654202 0 0.80185942888501827 0.074520613036224564 0 0.84725310900442086 0.10779732082922661 0 0.80076557130237269 0.1154587552654202 0 0.82709327591102189 0.14937141670914489 0 0.80076557130237269 0.1154587552654202 0 0.76878382444651716 0.097147941686331368 0 0.80185942888501827 0.074520613036224564 0 0.76878382444651716 0.097147941686331368 0 0.77144070960558853 0.14311854477243749 0 0.72525833953073282 0.1032114801687094 0 0.80076557130237269 0.1154587552654202 0 0.76878382444651716 0.097147941686331368 0 0.77144070960558853 0.14311854477243749 0 0.76878382444651716 0.097147941686331368 0 0.80185942888501827 0.074520613036224564 0 0.7527966693318906 0.053051678021508272 0 0.81864958914740749 0.035890501779055867 0 0.80185942888501827 0.074520613036224564 0 0.78393852574753176 0.032039079577822822 0 0.80185942888501827 0.074520613036224564 0 0.78393852574753176 0.032039079577822822 0 0.7527966693318906 0.053051678021508272 0 0.78393852574753176 0.032039079577822822 0 0.7527966693318906 0.053051678021508272 0 0.74999999999934175 0 0 0.78393852574753176 0.032039079577822822 0 0.79999999999947335 0 0 0.74999999999934175 0 0 0.81864958914740749 0.035890501779055867 0 0.78393852574753176 0.032039079577822822 0 0.79999999999947335 0 0 0.81283102246527783 0.1881007222486438 0 0.8517097391133297 0.2356960729520409 0 0.79680861578956375 0.22656778056752541 0 0.81283102246527783 0.1881007222486438 0 0.8517097391133297 0.2356960729520409 0 0.85600844944842547 0.1848341897950983 0 0.81486180804364938 0.26321394949780091 0 0.8517097391133297 0.2356960729520409 0 0.79680861578956375 0.22656778056752541 0 0.90416666666668166 0.20416666666667119 0 0.8517097391133297 0.2356960729520409 0 0.85600844944842547 0.1848341897950983 0 0.88088768115941807 0.14674609810479519 0 0.85600844944842547 0.1848341897950983 0 0.82709327591102189 0.14937141670914489 0 0.88088768115941807 0.14674609810479519 0 0.84725310900442086 0.10779732082922661 0 0.82709327591102189 0.14937141670914489 0 0.81283102246527783 0.1881007222486438 0 0.85600844944842547 0.1848341897950983 0 0.82709327591102189 0.14937141670914489 0 0.81283102246527783 0.1881007222486438 0 0.77144070960558853 0.14311854477243749 0 0.76587607630038135 0.18880039518954719 0 0.81283102246527783 0.1881007222486438 0 0.82709327591102189 0.14937141670914489 0 0.77144070960558853 0.14311854477243749 0 0.80076557130237269 0.1154587552654202 0 0.82709327591102189 0.14937141670914489 0 0.77144070960558853 0.14311854477243749 0 0.77144070960558853 0.14311854477243749 0 0.76587607630038135 0.18880039518954719 0 0.72634814642510737 0.16106886917518889 0 0.76587607630038135 0.18880039518954719 0 0.79680861578956375 0.22656778056752541 0 0.75668890529066124 0.2244279804069782 0 0.81283102246527783 0.1881007222486438 0 0.76587607630038135 0.18880039518954719 0 0.79680861578956375 0.22656778056752541 0 0.77075983436335049 0.25919399014334171 0 0.81486180804364938 0.26321394949780091 0 0.79680861578956375 0.22656778056752541 0 0.77075983436335049 0.25919399014334171 0 0.79680861578956375 0.22656778056752541 0 0.75668890529066124 0.2244279804069782 0 0.77075983436335049 0.25919399014334171 0 0.75668890529066124 0.2244279804069782 0 0.72500000000000064 0.2498161764706 0 0.75668890529066124 0.2244279804069782 0 0.72500000000000064 0.2498161764706 0 0.72500000000001008 0.19776155966387679 0 0.72500000000000064 0.2498161764706 0 0.69397719155551807 0.2245125647000914 0 0.72500000000001008 0.19776155966387679 0 0.72500000000000064 0.2498161764706 0 0.69397719155551807 0.2245125647000914 0 0.67933712972090698 0.25920070958121938 0 0.69397719155551807 0.2245125647000914 0 0.72500000000001008 0.19776155966387679 0 0.6865991819015953 0.189116534044597 0 0.76587607630038135 0.18880039518954719 0 0.75668890529066124 0.2244279804069782 0 0.72500000000001008 0.19776155966387679 0 0.76587607630038135 0.18880039518954719 0 0.72500000000001008 0.19776155966387679 0 0.72634814642510737 0.16106886917518889 0 0.77144070960558853 0.14311854477243749 0 0.72634814642510737 0.16106886917518889 0 0.72525833953073282 0.1032114801687094 0 0.72634814642510737 0.16106886917518889 0 0.68391457121233579 0.14440470121196541 0 0.72525833953073282 0.1032114801687094 0 0.72500000000001008 0.19776155966387679 0 0.72634814642510737 0.16106886917518889 0 0.6865991819015953 0.189116534044597 0 0.72634814642510737 0.16106886917518889 0 0.68391457121233579 0.14440470121196541 0 0.6865991819015953 0.189116534044597 0 0.68391457121233579 0.14440470121196541 0 0.64011864159029941 0.18789607982138171 0 0.6865991819015953 0.189116534044597 0 0.68391457121233579 0.14440470121196541 0 0.65290632656860115 0.11434202593454081 0 0.6236733212988993 0.14864538214901801 0 0.68391457121233579 0.14440470121196541 0 0.64011864159029941 0.18789607982138171 0 0.6236733212988993 0.14864538214901801 0 0.64011864159029941 0.18789607982138171 0 0.65394964615507722 0.22666784374016369 0 0.59814117807200873 0.23398510860739519 0 0.65394964615507722 0.22666784374016369 0 0.59814117807200873 0.23398510860739519 0 0.62657463266645097 0.26524202571255862 0 0.69397719155551807 0.2245125647000914 0 0.65394964615507722 0.22666784374016369 0 0.67933712972090698 0.25920070958121938 0 0.64011864159029941 0.18789607982138171 0 0.65394964615507722 0.22666784374016369 0 0.6865991819015953 0.189116534044597 0 0.69397719155551807 0.2245125647000914 0 0.65394964615507722 0.22666784374016369 0 0.6865991819015953 0.189116534044597 0 0.69999999999921003 0 0 0.72683645290270404 0.027797073151180601 0 0.7010294155333181 0.056779085686491267 0 0.69999999999921003 0 0 0.7010294155333181 0.056779085686491267 0 0.66369801598854572 0.036327466368102787 0 0.7527966693318906 0.053051678021508272 0 0.74999999999934175 0 0 0.72683645290270404 0.027797073151180601 0 0.69999999999921003 0 0 0.74999999999934175 0 0 0.72683645290270404 0.027797073151180601 0 0.7527966693318906 0.053051678021508272 0 0.72683645290270404 0.027797073151180601 0 0.7010294155333181 0.056779085686491267 0 0.7010294155333181 0.056779085686491267 0 0.72525833953073282 0.1032114801687094 0 0.68330259535470161 0.10038702501083881 0 0.7527966693318906 0.053051678021508272 0 0.7010294155333181 0.056779085686491267 0 0.72525833953073282 0.1032114801687094 0 0.76878382444651716 0.097147941686331368 0 0.7527966693318906 0.053051678021508272 0 0.72525833953073282 0.1032114801687094 0 0.68391457121233579 0.14440470121196541 0 0.72525833953073282 0.1032114801687094 0 0.68330259535470161 0.10038702501083881 0 0.68330259535470161 0.10038702501083881 0 0.65290632656860115 0.11434202593454081 0 0.65408113592120842 0.073941773121567966 0 0.68391457121233579 0.14440470121196541 0 0.68330259535470161 0.10038702501083881 0 0.65290632656860115 0.11434202593454081 0 0.65290632656860115 0.11434202593454081 0 0.61956000905586006 0.1043312481793135 0 0.6236733212988993 0.14864538214901801 0 0.65290632656860115 0.11434202593454081 0 0.65408113592120842 0.073941773121567966 0 0.61956000905586006 0.1043312481793135 0 0.65408113592120842 0.073941773121567966 0 0.61940220174112337 0.047251958781050582 0 0.61956000905586006 0.1043312481793135 0 0.7010294155333181 0.056779085686491267 0 0.68330259535470161 0.10038702501083881 0 0.65408113592120842 0.073941773121567966 0 0.7010294155333181 0.056779085686491267 0 0.65408113592120842 0.073941773121567966 0 0.66369801598854572 0.036327466368102787 0 0.65408113592120842 0.073941773121567966 0 0.66369801598854572 0.036327466368102787 0 0.61940220174112337 0.047251958781050582 0 0.66369801598854572 0.036327466368102787 0 0.64999999999907843 0 0 0.61940220174112337 0.047251958781050582 0 0.69999999999921003 0 0 0.66369801598854572 0.036327466368102787 0 0.64999999999907843 0 0 0.59999999999894682 0 0 0.57396793757665954 0.037011367187645222 0 0.5499999999988151 0 0 0.64999999999907843 0 0 0.59999999999894682 0 0 0.61940220174112337 0.047251958781050582 0 0.59999999999894682 0 0 0.61940220174112337 0.047251958781050582 0 0.57396793757665954 0.037011367187645222 0 0.61940220174112337 0.047251958781050582 0 0.57396793757665954 0.037011367187645222 0 0.57667858002728545 0.078486105337742612 0 0.61940220174112337 0.047251958781050582 0 0.57667858002728545 0.078486105337742612 0 0.61956000905586006 0.1043312481793135 0 0.61956000905586006 0.1043312481793135 0 0.58516465772821369 0.11653801664834119 0 0.6236733212988993 0.14864538214901801 0 0.57667858002728545 0.078486105337742612 0 0.61956000905586006 0.1043312481793135 0 0.58516465772821369 0.11653801664834119 0 0.58516465772821369 0.11653801664834119 0 0.54979595918804436 0.1060565713905809 0 0.56202748619534593 0.15054058349222879 0 0.57667858002728545 0.078486105337742612 0 0.58516465772821369 0.11653801664834119 0 0.54979595918804436 0.1060565713905809 0 0.54979595918804436 0.1060565713905809 0 0.51076801031701946 0.1202837388510348 0 0.52375890611712683 0.059318771819432882 0 0.47881186583059909 0.093591717165689425 0 0.51076801031701946 0.1202837388510348 0 0.52375890611712683 0.059318771819432882 0 0.57667858002728545 0.078486105337742612 0 0.54979595918804436 0.1060565713905809 0 0.52375890611712683 0.059318771819432882 0 0.57396793757665954 0.037011367187645222 0 0.52375890611712683 0.059318771819432882 0 0.5499999999988151 0 0 0.57396793757665954 0.037011367187645222 0 0.57667858002728545 0.078486105337742612 0 0.52375890611712683 0.059318771819432882 0 0.49999999999869432 0 0 0.52375890611712683 0.059318771819432882 0 0.5499999999988151 0 0 0.59814117807200873 0.23398510860739519 0 0.59443395090188023 0.18455690917515069 0 0.55306006949600994 0.20198184231352201 0 0.59814117807200873 0.23398510860739519 0 0.55306006949600994 0.20198184231352201 0 0.54248833945060504 0.2520322959927106 0 0.64011864159029941 0.18789607982138171 0 0.59814117807200873 0.23398510860739519 0 0.59443395090188023 0.18455690917515069 0 0.64011864159029941 0.18789607982138171 0 0.59443395090188023 0.18455690917515069 0 0.6236733212988993 0.14864538214901801 0 0.58516465772821369 0.11653801664834119 0 0.6236733212988993 0.14864538214901801 0 0.56202748619534593 0.15054058349222879 0 0.59443395090188023 0.18455690917515069 0 0.6236733212988993 0.14864538214901801 0 0.56202748619534593 0.15054058349222879 0 0.59443395090188023 0.18455690917515069 0 0.56202748619534593 0.15054058349222879 0 0.55306006949600994 0.20198184231352201 0 0.56202748619534593 0.15054058349222879 0 0.51729576145820033 0.1683240575987815 0 0.55306006949600994 0.20198184231352201 0 0.54979595918804436 0.1060565713905809 0 0.51076801031701946 0.1202837388510348 0 0.56202748619534593 0.15054058349222879 0 0.48466639505193998 0.1421439844745814 0 0.51076801031701946 0.1202837388510348 0 0.51729576145820033 0.1683240575987815 0 0.51076801031701946 0.1202837388510348 0 0.56202748619534593 0.15054058349222879 0 0.51729576145820033 0.1683240575987815 0 0.51729576145820033 0.1683240575987815 0 0.50760557329222289 0.20700468884612061 0 0.55306006949600994 0.20198184231352201 0 0.50760557329222289 0.20700468884612061 0 0.55306006949600994 0.20198184231352201 0 0.54248833945060504 0.2520322959927106 0 0.49695729691142171 0.25014895411178018 0 0.50760557329222289 0.20700468884612061 0 0.54248833945060504 0.2520322959927106 0 0.49695729691142171 0.25014895411178018 0 0.5 0.29999999999999999 0 0.54248833945060504 0.2520322959927106 0 0.5 0.29999999999999999 0 0.54999999999999993 0.29999999999999999 0 0.52752007115234678 0.33170632466418198 0 0.5 0.29999999999999999 0 0.54999999999999993 0.29999999999999999 0 0.54248833945060504 0.2520322959927106 0 0.5 0.29999999999999999 0 0.54999999999999993 0.29999999999999999 0 0.54999999999999993 0.29999999999999999 0 0.54248833945060504 0.2520322959927106 0 0.5794309697024993 0.27124795968204829 0 0.59814117807200873 0.23398510860739519 0 0.54248833945060504 0.2520322959927106 0 0.5794309697024993 0.27124795968204829 0 0.54999999999999993 0.29999999999999999 0 0.59999999999999976 0.29999999999999999 0 0.54999999999999993 0.29999999999999999 0 0.5794309697024993 0.27124795968204829 0 0.59999999999999976 0.29999999999999999 0 0.59999999999999976 0.29999999999999999 0 0.6499999999999998 0.29999999999999999 0 0.5794309697024993 0.27124795968204829 0 0.59999999999999976 0.29999999999999999 0 0.62657463266645097 0.26524202571255862 0 0.59814117807200873 0.23398510860739519 0 0.5794309697024993 0.27124795968204829 0 0.62657463266645097 0.26524202571255862 0 0.61959173890754571 0.33832250091341232 0 0.56836770495988642 0.3523062350852913 0 0.6084546825910605 0.37989672713932537 0 0.59999999999999976 0.29999999999999999 0 0.61959173890754571 0.33832250091341232 0 0.6499999999999998 0.29999999999999999 0 0.59999999999999976 0.29999999999999999 0 0.61959173890754571 0.33832250091341232 0 0.56836770495988642 0.3523062350852913 0 0.54999999999999993 0.29999999999999999 0 0.59999999999999976 0.29999999999999999 0 0.56836770495988642 0.3523062350852913 0 0.56836770495988642 0.3523062350852913 0 0.52752007115234678 0.33170632466418198 0 0.52289427570932567 0.3932284363388488 0 0.54999999999999993 0.29999999999999999 0 0.56836770495988642 0.3523062350852913 0 0.52752007115234678 0.33170632466418198 0 0.49077833859261139 0.35229981449445641 0 0.5 0.29999999999999999 0 0.52752007115234678 0.33170632466418198 0 0.49077833859261139 0.35229981449445641 0 0.52752007115234678 0.33170632466418198 0 0.52289427570932567 0.3932284363388488 0 0.56836770495988642 0.3523062350852913 0 0.52289427570932567 0.3932284363388488 0 0.57744073070774993 0.41535148636609359 0 0.52289427570932567 0.3932284363388488 0 0.53823865529665704 0.45873898050322898 0 0.57744073070774993 0.41535148636609359 0 0.48858720058566618 0.43964267759203868 0 0.52289427570932567 0.3932284363388488 0 0.53823865529665704 0.45873898050322898 0 0.49102375406324739 0.49123754822244059 0 0.53330375813596242 0.50827942741749099 0 0.53823865529665704 0.45873898050322898 0 0.49102375406324739 0.49123754822244059 0 0.48858720058566618 0.43964267759203868 0 0.53823865529665704 0.45873898050322898 0 0.53330375813596242 0.50827942741749099 0 0.57611405284611883 0.50165903596042916 0 0.53823865529665704 0.45873898050322898 0 0.57611405284611883 0.50165903596042916 0 0.57975577671020095 0.46172033326338591 0 0.61547661924074692 0.48539576058873962 0 0.57611405284611883 0.50165903596042916 0 0.53823865529665704 0.45873898050322898 0 0.57975577671020095 0.46172033326338591 0 0.57975577671020095 0.46172033326338591 0 0.61209567303293111 0.44669033081290321 0 0.57744073070774993 0.41535148636609359 0 0.53823865529665704 0.45873898050322898 0 0.57975577671020095 0.46172033326338591 0 0.57744073070774993 0.41535148636609359 0 0.57975577671020095 0.46172033326338591 0 0.61209567303293111 0.44669033081290321 0 0.61547661924074692 0.48539576058873962 0 0.56836770495988642 0.3523062350852913 0 0.57744073070774993 0.41535148636609359 0 0.6084546825910605 0.37989672713932537 0 0.61209567303293111 0.44669033081290321 0 0.57744073070774993 0.41535148636609359 0 0.63912439215427275 0.41063340167983359 0 0.57744073070774993 0.41535148636609359 0 0.6084546825910605 0.37989672713932537 0 0.63912439215427275 0.41063340167983359 0 0.6084546825910605 0.37989672713932537 0 0.63912439215427275 0.41063340167983359 0 0.65481233915350323 0.35652751921065562 0 0.63912439215427275 0.41063340167983359 0 0.65178832218679827 0.45929119821019959 0 0.6879972333610942 0.43038561374960838 0 0.63912439215427275 0.41063340167983359 0 0.68128176404677243 0.38629093627004979 0 0.6879972333610942 0.43038561374960838 0 0.63912439215427275 0.41063340167983359 0 0.68128176404677243 0.38629093627004979 0 0.65481233915350323 0.35652751921065562 0 0.61547661924074692 0.48539576058873962 0 0.6541250972820879 0.49999999999999989 0 0.65178832218679827 0.45929119821019959 0 0.61209567303293111 0.44669033081290321 0 0.61547661924074692 0.48539576058873962 0 0.65178832218679827 0.45929119821019959 0 0.61209567303293111 0.44669033081290321 0 0.63912439215427275 0.41063340167983359 0 0.65178832218679827 0.45929119821019959 0 0.65178832218679827 0.45929119821019959 0 0.69385896817107129 0.48377516041410151 0 0.6879972333610942 0.43038561374960838 0 0.6541250972820879 0.49999999999999989 0 0.65178832218679827 0.45929119821019959 0 0.69385896817107129 0.48377516041410151 0 0.7152569930854884 0.5237994455134295 0 0.69385896817107129 0.48377516041410151 0 0.73947346780852752 0.49062440112282169 0 0.69385896817107129 0.48377516041410151 0 0.73483647259922602 0.44789725365921768 0 0.6879972333610942 0.43038561374960838 0 0.69385896817107129 0.48377516041410151 0 0.73483647259922602 0.44789725365921768 0 0.73947346780852752 0.49062440112282169 0 0.68128176404677243 0.38629093627004979 0 0.72622533758026719 0.40265885511101601 0 0.71508799138962864 0.36622814920737751 0 0.73483647259922602 0.44789725365921768 0 0.6879972333610942 0.43038561374960838 0 0.72622533758026719 0.40265885511101601 0 0.68128176404677243 0.38629093627004979 0 0.6879972333610942 0.43038561374960838 0 0.72622533758026719 0.40265885511101601 0 0.77354604466818633 0.40378688774472771 0 0.73483647259922602 0.44789725365921768 0 0.72622533758026719 0.40265885511101601 0 0.72622533758026719 0.40265885511101601 0 0.74764719760526988 0.3719647154012321 0 0.71508799138962864 0.36622814920737751 0 0.77354604466818633 0.40378688774472771 0 0.72622533758026719 0.40265885511101601 0 0.74764719760526988 0.3719647154012321 0 0.74764719760526988 0.3719647154012321 0 0.71508799138962864 0.36622814920737751 0 0.73090396928863699 0.33699297293167962 0 0.71508799138962864 0.36622814920737751 0 0.68887083591306764 0.33632058575757479 0 0.73090396928863699 0.33699297293167962 0 0.68128176404677243 0.38629093627004979 0 0.71508799138962864 0.36622814920737751 0 0.68887083591306764 0.33632058575757479 0 0.68887083591306764 0.33632058575757479 0 0.73090396928863699 0.33699297293167962 0 0.69999999999999984 0.29999999999999999 0 0.72500000000000064 0.2498161764706 0 0.74999999999999989 0.29999999999999999 0 0.69999999999999984 0.29999999999999999 0 0.74999999999999989 0.29999999999999999 0 0.69999999999999984 0.29999999999999999 0 0.73090396928863699 0.33699297293167962 0 0.74999999999999989 0.29999999999999999 0 0.69999999999999984 0.29999999999999999 0 0.77075983436335049 0.25919399014334171 0 0.72500000000000064 0.2498161764706 0 0.74999999999999989 0.29999999999999999 0 0.72500000000000064 0.2498161764706 0 0.69999999999999984 0.29999999999999999 0 0.67933712972090698 0.25920070958121938 0 0.69999999999999984 0.29999999999999999 0 0.67933712972090698 0.25920070958121938 0 0.6499999999999998 0.29999999999999999 0 0.68887083591306764 0.33632058575757479 0 0.69999999999999984 0.29999999999999999 0 0.6499999999999998 0.29999999999999999 0 0.69999999999999984 0.29999999999999999 0 0.6499999999999998 0.29999999999999999 0 0.67933712972090698 0.25920070958121938 0 0.62657463266645097 0.26524202571255862 0 0.6499999999999998 0.29999999999999999 0 0.65394964615507722 0.22666784374016369 0 0.67933712972090698 0.25920070958121938 0 0.62657463266645097 0.26524202571255862 0 0.59999999999999976 0.29999999999999999 0 0.62657463266645097 0.26524202571255862 0 0.6499999999999998 0.29999999999999999 0 0.61959173890754571 0.33832250091341232 0 0.6499999999999998 0.29999999999999999 0 0.65481233915350323 0.35652751921065562 0 0.61959173890754571 0.33832250091341232 0 0.6084546825910605 0.37989672713932537 0 0.65481233915350323 0.35652751921065562 0 0.68128176404677243 0.38629093627004979 0 0.68887083591306764 0.33632058575757479 0 0.65481233915350323 0.35652751921065562 0 0.68887083591306764 0.33632058575757479 0 0.6499999999999998 0.29999999999999999 0 0.65481233915350323 0.35652751921065562 0 
</DataArray>
</Points>
<Cells>
<DataArray type="UInt32" Name="connectivity" format="ascii">
0 1 2 3 4 5 6 7 8 9 10 11 12 13 14 15 16 17 18 19 20 21 22 23 24 25 26 27 28 29 30 31 32 33 34 35 36 37 38 39 40 41 42 43 44 45 46 47 48 49 50 51 52 53 54 55 56 57 58 59 60 61 62 63 64 65 66 67 68 69 70 71 72 73 74 75 76 77 78 79 80 81 82 83 84 85 86 87 88 89 90 91 92 93 94 95 96 97 98 99 100 101 102 103 104 105 106 107 108 109 110 111 112 113 114 115 116 117 118 119 120 121 122 123 124 125 126 127 128 129 130 131 132 133 134 135 136 137 138 139 140 141 142 143 144 145 146 147 148 149 150 151 152 153 154 155 156 157 158 159 160 161 162 163 164 165 166 167 168 169 170 171 172 173 174 175 176 177 178 179 180 181 182 183 184 185 186 187 188 189 190 191 192 193 194 195 196 197 198 199 200 201 202 203 204 205 206 207 208 209 210 211 212 213 214 215 216 217 218 219 220 221 222 223 224 225 226 227 228 229 230 231 232 233 234 235 236 237 238 239 240 241 242 243 244 245 246 247 248 249 250 251 252 253 254 255 256 257 258 259 260 261 262 263 264 265 266 267 268 269 270 271 272 273 274 275 276 277 278 279 280 281 282 283 284 285 286 287 288 289 290 291 292 293 294 295 296 297 298 299 300 301 302 303 304 305 306 307 308 309 310 311 312 313 314 315 316 317 318 319 320 321 322 323 324 325 326 327 328 329 330 331 332 333 334 335 336 337 338 339 340 341 342 343 344 345 346 347 348 349 350 351 352 353 354 355 356 357 358 359 360 361 362 363 364 365 366 367 368 369 370 371 372 373 374 375 376 377 378 379 380 381 382 383 384 385 386 387 388 389 390 391 392 393 394 395 396 397 398 399 400 401 402 403 404 405 406 407 408 409 410 411 412 413 414 415 416 417 418 419 420 421 422 423 424 425 426 427 428 429 430 431 432 433 434 435 436 437 438 439 440 441 442 443 444 445 446 447 448 449 450 451 452 453 454 455 456 457 458 459 460 461 462 463 464 465 466 467 468 469 470 471 472 473 474 475 476 477 478 479 480 481 482 483 484 485 486 487 488 489 490 491 492 493 494 495 496 497 498 499 500 501 502 503 504 505 506 507 508 509 510 511 512 513 514 515 516 517 518 519 520 521 522 523 524 525 526 527 528 529 530 531 532 533 534 535 536 537 538 539 540 541 542 543 544 545 546 547 548 549 550 551 552 553 554 555 556 557 558 559 560 561 562 563 564 565 566 567 568 569 570 571 572 573 574 575 576 577 578 579 580 581 582 583 584 585 586 587 588 589 590 591 592 593 594 595 596 597 598 599 600 601 602 603 604 605 606 607 608 609 610 611 612 613 614 615 616 617 618 619 620 621 622 623 624 625 626 627 628 629 630 631 632 633 634 635 636 637 638 639 640 641 642 643 644 645 646 647 648 649 650 651 652 653 654 655 656 657 658 659 660 661 662 663 664 665 666 667 668 669 670 671 672 673 674 675 676 677 678 679 680 681 682 683 684 685 686 687 688 689 690 691 692 693 694 695 696 697 698 699 700 701 702 703 704 705 706 707 708 709 710 711 712 713 714 715 716 717 718 719 720 721 722 723 724 725 726 727 728 729 730 731 732 733 734 735 736 737 738 739 740 741 742 743 744 745 746 747 748 749 750 751 752 753 754 755 756 757 758 759 760 761 762 763 764 765 766 767 768 769 770 771 772 773 774 775 776 777 778 779 780 781 782 783 784 785 786 787 788 789 790 791 792 793 794 795 796 797 798 799 800 801 802 803 804 805 806 807 808 809 810 811 812 813 814 815 816 817 818 819 820 821 822 823 824 825 826 827 828 829 830 831 832 833 834 835 836 837 838 839 840 841 842 843 844 845 846 847 848 849 850 851 852 853 854 855 856 857 858 859 860 861 862 863 864 865 866 867 868 869 870 871 872 873 874 875 876 877 878 879 880 881 882 883 884 885 886 887 888 889 890 891 892 893 894 895 896 897 898 899 900 901 902 903 904 905 906 907 908 909 910 911 912 913 914 915 916 917 918 919 920 921 922 923 924 925 926 927 928 929 930 931 932 933 934 935 936 937 938 939 940 941 942 943 944 945 946 947 948 949 950 951 952 953 954 955 956 957 958 959 960 961 962 963 964 965 966 967 968 969 970 971 972 973 974 975 976 977 978 979 980 981 982 983 984 985 986 987 988 989 990 991 992 993 994 995 996 997 998 999 1000 1001 1002 1003 1004 1005 1006 1007 1008 1009 1010 1011 1012 1013 1014 1015 1016 1017 1018 1019 1020 1021 1022 1023 1024 1025 1026 1027 1028 1029 1030 1031 1032 1033 1034 1035 1036 1037 1038 1039 1040 1041 1042 1043 1044 1045 1046 1047 1048 1049 1050 1051 1052 1053 1054 1055 1056 1057 1058 1059 1060 1061 1062 1063 1064 1065 1066 1067 1068 1069 1070 1071 1072 1073 1074 1075 1076 1077 1078 1079 1080 1081 1082 1083 1084 1085 1086 1087 1088 1089 1090 1091 1092 1093 1094 1095 1096 1097 1098 1099 1100 1101 1102 1103 1104 1105 1106 1107 1108 1109 1110 1111 1112 1113 1114 1115 1116 1117 1118 1119 1120 1121 1122 1123 1124 1125 1126 1127 1128 1129 1130 1131 1132 1133 1134 1135 1136 1137 1138 1139 1140 1141 1142 1143 1144 1145 1146 1147 1148 1149 1150 1151 1152 1153 1154 1155 1156 1157 1158 1159 1160 1161 1162 1163 1164 1165 1166 1167 1168 1169 1170 1171 1172 1173 1174 1175 1176 1177 1178 1179 1180 1181 1182 1183 1184 1185 1186 1187 1188 1189 1190 1191 1192 1193 1194 1195 1196 1197 1198 1199 1200 1201 1202 1203 1204 1205 1206 1207 1208 1209 1210 1211 1212 1213 1214 1215 1216 1217 1218 1219 1220 1221 1222 1223 1224 1225 1226 1227 1228 1229 1230 1231 1232 1233 1234 1235 1236 1237 1238 1239 1240 1241 1242 1243 1244 1245 1246 1247 1248 1249 1250 1251 1252 1253 1254 1255 1256 1257 1258 1259 1260 1261 1262 1263 1264 1265 1266 1267 1268 1269 1270 1271 1272 1273 1274 1275 1276 1277 1278 1279 1280 1281 1282 1283 1284 1285 1286 1287 1288 1289 1290 1291 1292 1293 1294 1295 1296 1297 1298 1299 1300 1301 1302 1303 1304 1305 1306 1307 1308 1309 1310 1311 1312 1313 1314 1315 1316 1317 1318 1319 1320 1321 1322 1323 1324 1325 1326 1327 1328 1329 1330 1331 1332 1333 1334 1335 1336 1337 1338 1339 1340 1341 1342 1343 1344 1345 1346 1347 1348 1349 1350 1351 1352 1353 1354 1355 1356 1357 1358 1359 1360 1361 1362 1363 1364 1365 1366 1367 1368 1369 1370 1371 1372 1373 1374 1375 1376 1377 1378 1379 1380 1381 1382 1383 1384 1385 1386 1387 1388 1389 1390 1391 1392 1393 1394 1395 1396 1397 1398 1399 1400 1401 1402 1403 1404 1405 1406 1407 1408 1409 1410 1411 1412 1413 1414 1415 1416 1417 1418 1419 1420 1421 1422 1423 1424 1425 1426 1427 1428 1429 1430 1431 1432 1433 1434 1435 1436 1437 1438 1439 1440 1441 1442 1443 1444 1445 1446 1447 1448 1449 1450 1451 1452 1453 1454 1455 1456 1457 1458 1459 1460 1461 1462 1463 1464 1465 1466 1467 1468 1469 1470 1471 1472 1473 1474 1475 1476 1477 1478 1479 1480 1481 1482 1483 1484 1485 1486 1487 1488 1489 1490 1491 1492 1493 1494 1495 1496 1497 1498 1499 1500 1501 1502 1503 1504 1505 1506 1507 1508 1509 1510 1511 1512 1513 1514 1515 1516 1517 1518 1519 1520 1521 1522 1523 1524 1525 1526 1527 1528 1529 1530 1531 1532 1533 1534 1535 1536 1537 1538 1539 1540 1541 1542 1543 1544 1545 1546 1547 1548 1549 1550 1551 1552 1553 1554 1555 1556 1557 1558 1559 1560 1561 1562 1563 1564 1565 1566 1567 1568 1569 1570 1571 1572 1573 1574 1575 1576 1577 1578 1579 1580 1581 1582 1583 1584 1585 1586 1587 1588 1589 1590 1591 1592 1593 1594 1595 1596 1597 1598 1599 1600 1601 1602 1603 1604 1605 1606 1607 1608 1609 1610 1611 1612 1613 1614 1615 1616 1617 1618 1619 1620 1621 1622 1623 1624 1625 1626 1627 1628 1629 1630 1631 1632 1633 1634 1635 1636 1637 1638 1639 1640 1641 1642 1643 1644 1645 1646 1647 1648 1649 1650 1651 1652 1653 1654 1655 1656 1657 1658 1659 1660 1661 1662 1663 1664 1665 1666 1667 1668 1669 1670 1671 1672 1673 1674 1675 1676 1677 1678 1679 1680 1681 1682 1683 1684 1685 1686 1687 1688 1689 1690 1691 1692 1693 1694 1695 1696 1697 1698 1699 1700 1701 1702 1703 1704 1705 1706 1707 1708 1709 1710 1711 1712 1713 1714 1715 1716 1717 1718 1719 1720 1721 1722 1723 1724 1725 1726 1727 1728 1729 1730 1731 1732 1733 1734 1735 1736 1737 1738 1739 1740 1741 1742 1743 1744 1745 1746 1747 1748 1749 1750 1751 1752 1753 1754 1755 1756 1757 1758 1759 1760 1761 1762 1763 1764 1765 1766 1767 1768 1769 1770 1771 1772 1773 1774 1775 1776 1777 1778 1779 1780 1781 1782 1783 1784 1785 1786 1787 1788 1789 1790 1791 1792 1793 1794 1795 1796 1797 1798 1799 1800 1801 1802 1803 1804 1805 1806 1807 1808 1809 1810 1811 1812 1813 1814 1815 1816 1817 1818 1819 1820 1821 1822 1823 1824 1825 1826 1827 1828 1829 1830 1831 1832 1833 1834 1835 1836 1837 1838 1839 1840 1841 1842 1843 1844 1845 1846 1847 1848 1849 1850 1851 1852 1853 1854 1855 1856 1857 1858 1859 1860 1861 1862 1863 1864 1865 1866 1867 1868 1869 1870 1871 1872 1873 1874 1875 1876 1877 1878 1879 1880 1881 1882 1883 1884 1885 1886 1887 1888 1889 1890 1891 1892 1893 1894 1895 1896 1897 1898 1899 1900 1901 1902 1903 1904 1905 1906 1907 1908 1909 1910 1911 1912 1913 1914 1915 1916 1917 1918 1919 1920 1921 1922 1923 1924 1925 1926 1927 1928 1929 1930 1931 1932 1933 1934 1935 1936 1937 1938 1939 1940 1941 1942 1943 1944 1945 1946 1947 1948 1949 1950 1951 1952 1953 1954 1955 1956 1957 1958 1959 1960 1961 1962 1963 1964 1965 1966 1967 1968 1969 1970 1971 1972 1973 1974 1975 1976 1977 1978 1979 1980 1981 1982 1983 1984 1985 1986 1987 1988 1989 1990 1991 1992 1993 1994 1995 1996 1997 1998 1999 2000 2001 2002 2003 2004 2005 2006 2007 2008 2009 2010 2011 2012 2013 2014 2015 2016 2017 2018 2019 2020 2021 2022 2023 2024 2025 2026 2027 2028 2029 2030 2031 2032 2033 2034 2035 2036 2037 2038 2039 2040 2041 2042 2043 2044 2045 2046 2047 2048 2049 2050 2051 2052 2053 2054 2055 2056 2057 2058 2059 2060 2061 2062 2063 2064 2065 2066 2067 2068 2069 2070 2071 2072 2073 2074 2075 2076 2077 2078 2079 2080 2081 2082 2083 2084 2085 2086 2087 2088 2089 2090 2091 2092 2093 2094 2095 2096 2097 2098 2099 2100 2101 2102 2103 2104 2105 2106 2107 2108 2109 2110 2111 2112 2113 2114 2115 2116 2117 2118 2119 2120 2121 2122 2123 2124 2125 2126 2127 2128 2129 2130 2131 2132 2133 2134 2135 2136 2137 2138 2139 2140 2141 2142 2143 2144 2145 2146 2147 2148 2149 2150 2151 2152 2153 2154 2155 2156 2157 2158 2159 2160 2161 2162 2163 2164 2165 2166 2167 2168 2169 2170 2171 2172 2173 2174 2175 2176 2177 2178 2179 2180 2181 2182 2183 2184 2185 2186 2187 2188 2189 2190 2191 2192 2193 2194 2195 2196 2197 2198 2199 2200 2201 2202 2203 2204 2205 2206 2207 2208 2209 2210 2211 2212 2213 2214 2215 2216 2217 2218 2219 2220 2221 2222 2223 2224 2225 2226 2227 2228 2229 2230 2231 2232 2233 2234 2235 2236 2237 2238 2239 2240 2241 2242 2243 2244 2245 2246 2247 2248 2249 2250 2251 2252 2253 2254 2255 2256 2257 2258 2259 2260 2261 2262 2263 2264 2265 2266 2267 2268 2269 2270 2271 2272 2273 2274 2275 2276 2277 2278 2279 2280 2281 2282 2283 2284 2285 2286 2287 2288 2289 2290 2291 2292 2293 2294 2295 2296 2297 2298 2299 2300 2301 2302 2303 2304 2305 2306 2307 2308 2309 2310 2311 2312 2313 2314 2315 2316 2317 2318 2319 2320 2321 2322 2323 2324 2325 2326 2327 2328 2329 2330 2331 2332 2333 2334 2335 2336 2337 2338 2339 2340 2341 2342 2343 2344 2345 2346 2347 2348 2349 2350 2351 2352 2353 2354 2355 2356 2357 2358 2359 2360 2361 2362 2363 2364 2365 2366 2367 2368 2369 2370 2371 2372 2373 2374 2375 2376 2377 2378 2379 2380 2381 2382 2383 2384 2385 2386 2387 2388 2389 2390 2391 2392 2393 2394 2395 2396 2397 2398 2399 2400 2401 2402 2403 2404 2405 2406 2407 2408 2409 2410 2411 2412 2413 2414 2415 2416 2417 2418 2419 2420 2421 2422 2423 2424 2425 2426 2427 2428 2429 2430 2431 2432 2433 2434 2435 2436 2437 2438 2439 2440 2441 2442 2443 2444 2445 2446 2447 2448 2449 2450 2451 2452 2453 2454 2455 2456 2457 2458 2459 2460 2461 2462 2463 2464 2465 2466 2467 2468 2469 2470 2471 2472 2473 2474 2475 2476 2477 2478 2479 2480 2481 2482 2483 2484 2485 2486 2487 2488 2489 2490 2491 2492 2493 2494 2495 2496 2497 2498 2499 2500 2501 2502 2503 2504 2505 2506 2507 2508 2509 2510 2511 2512 2513 2514 2515 2516 2517 2518 2519 2520 2521 2522 2523 2524 2525 2526 2527 2528 2529 2530 2531 2532 2533 2534 2535 2536 2537 2538 2539 2540 2541 2542 2543 2544 2545 2546 2547 2548 2549 2550 2551 2552 2553 2554 2555 2556 2557 2558 2559 2560 2561 2562 2563 2564 2565 2566 2567 2568 2569 2570 2571 2572 2573 2574 2575 2576 2577 2578 2579 2580 2581 2582 2583 2584 2585 2586 2587 2588 2589 2590 2591 2592 2593 2594 2595 2596 2597 2598 2599 2600 2601 2602 2603 2604 2605 2606 2607 2608 2609 2610 2611 2612 2613 2614 2615 2616 2617 2618 2619 2620 2621 2622 2623 2624 2625 2626 2627 2628 2629 2630 2631 2632 2633 2634 2635 2636 2637 2638 2639 2640 2641 2642 2643 2644 2645 2646 2647 2648 2649 2650 2651 2652 2653 2654 2655 2656 2657 2658 2659 2660 2661 2662 2663 2664 2665 2666 2667 2668 2669 2670 2671 2672 2673 2674 2675 2676 2677 2678 2679 2680 2681 2682 2683 2684 2685 2686 2687 2688 2689 2690 2691 2692 2693 2694 2695 2696 2697 2698 2699 2700 2701 2702 2703 2704 2705 2706 2707 2708 2709 2710 2711 2712 2713 2714 2715 2716 2717 2718 2719 2720 2721 2722 2723 2724 2725 2726 2727 2728 2729 2730 2731 2732 2733 2734 2735 2736 2737 2738 2739 2740 2741 2742 2743 2744 2745 2746 2747 2748 2749 2750 2751 2752 2753 2754 2755 2756 2757 2758 2759 2760 2761 2762 2763 2764 2765 2766 2767 2768 2769 2770 2771 2772 2773 2774 2775 2776 2777 2778 2779 2780 2781 2782 2783 2784 2785 2786 2787 2788 2789 2790 2791 2792 2793 2794 2795 2796 2797 2798 2799 2800 2801 2802 2803 2804 2805 2806 2807 2808 2809 2810 2811 2812 2813 2814 2815 2816 2817 2818 2819 2820 2821 2822 2823 2824 2825 2826 2827 2828 2829 2830 2831 2832 2833 2834 2835 2836 2837 2838 2839 2840 2841 2842 2843 2844 2845 2846 2847 2848 2849 2850 2851 2852 2853 2854 2855 2856 2857 2858 2859 2860 2861 2862 2863 2864 2865 2866 2867 2868 2869 2870 2871 2872 2873 2874 2875 2876 2877 2878 2879 2880 2881 2882 2883 2884 2885 2886 2887 2888 2889 2890 2891 2892 2893 2894 2895 2896 2897 2898 2899 2900 2901 2902 2903 2904 2905 2906 2907 2908 2909 2910 2911 2912 2913 2914 2915 2916 2917 2918 2919 2920 2921 2922 2923 2924 2925 2926 2927 2928 2929 2930 2931 2932 2933 2934 2935 2936 2937 2938 2939 2940 2941 2942 2943 2944 2945 2946 2947 2948 2949 2950 2951 2952 2953 2954 2955 2956 2957 2958 2959 2960 2961 2962 2963 2964 2965 2966 2967 2968 2969 2970 2971 2972 2973 2974 2975 2976 2977 2978 2979 2980 2981 2982 2983 2984 2985 2986 2987 2988 2989 2990 2991 2992 2993 2994 2995 2996 2997 2998 2999 3000 3001 3002 3003 3004 3005 3006 3007 3008 3009 3010 3011 3012 3013 3014 3015 3016 3017 3018 3019 3020 3021 3022 3023 3024 3025 3026 3027 3028 3029 3030 3031 3032 3033 3034 3035 3036 3037 3038 3039 3040 3041 3042 3043 3044 3045 3046 3047 3048 3049 3050 3051 3052 3053 3054 3055 3056 3057 3058 3059 3060 3061 3062 3063 3064 3065 3066 3067 3068 3069 3070 3071 3072 3073 3074 3075 3076 3077 3078 3079 3080 3081 3082 3083 3084 3085 3086 3087 3088 3089 3090 3091 3092 3093 3094 3095 3096 3097 3098 3099 3100 3101 3102 3103 3104 3105 3106 3107 3108 3109 3110 3111 3112 3113 3114 3115 3116 3117 3118 3119 3120 3121 3122 3123 3124 3125 3126 3127 3128 3129 3130 3131 3132 3133 3134 3135 3136 3137 3138 3139 3140 3141 
</DataArray>
<DataArray type="UInt32" Name="offsets" format="ascii">
3 6 9 12 15 18 21 24 27 30 33 36 39 42 45 48 51 54 57 60 63 66 69 72 75 78 81 84 87 90 93 96 99 102 105 108 111 114 117 120 123 126 129 132 135 138 141 144 147 150 153 156 159 162 165 168 171 174 177 180 183 186 189 192 195 198 201 204 207 210 213 216 219 222 225 228 231 234 237 240 243 246 249 252 255 258 261 264 267 270 273 276 279 282 285 288 291 294 297 300 303 306 309 312 315 318 321 324 327 330 333 336 339 342 345 348 351 354 357 360 363 366 369 372 375 378 381 384 387 390 393 396 399 402 405 408 411 414 417 420 423 426 429 432 435 438 441 444 447 450 453 456 459 462 465 468 471 474 477 480 483 486 489 492 495 498 501 504 507 510 513 516 519 522 525 528 531 534 537 540 543 546 549 552 555 558 561 564 567 570 573 576 579 582 585 588 591 594 597 600 603 606 609 612 615 618 621 624 627 630 633 636 639 642 645 648 651 654 657 660 663 666 669 672 675 678 681 684 687 690 693 696 699 702 705 708 711 714 717 720 723 726 729 732 735 738 741 744 747 750 753 756 759 762 765 768 771 774 777 780 783 786 789 792 795 798 801 804 807 810 813 816 819 822 825 828 831 834 837 840 843 846 849 852 855 858 861 864 867 870 873 876 879 882 885 888 891 894 897 900 903 906 909 912 915 918 921 924 927 930 933 936 939 942 945 948 951 954 957 960 963 966 969 972 975 978 981 984 987 990 993 996 999 1002 1005 1008 1011 1014 1017 1020 1023 1026 1029 1032 1035 1038 1041 1044 1047 1050 1053 1056 1059 1062 1065 1068 1071 1074 1077 1080 1083 1086 1089 1092 1095 1098 1101 1104 1107 1110 1113 1116 1119 1122 1125 1128 1131 1134 1137 1140 1143 1146 1149 1152 1155 1158 1161 1164 1167 1170 1173 1176 1179 1182 1185 1188 1191 1194 1197 1200 1203 1206 1209 1212 1215 1218 1221 1224 1227 1230 1233 1236 1239 1242 1245 1248 1251 1254 1257 1260 1263 1266 1269 1272 1275 1278 1281 1284 1287 1290 1293 1296 1299 1302 1305 1308 1311 1314 1317 1320 1323 1326 1329 1332 1335 1338 1341 1344 1347 1350 1353 1356 1359 1362 1365 1368 1371 1374 1377 1380 1383 1386 1389 1392 1395 1398 1401 1404 1407 1410 1413 1416 1419 1422 1425 1428 1431 1434 1437 1440 1443 1446 1449 1452 1455 1458 1461 1464 1467 1470 1473 1476 1479 1482 1485 1488 1491 1494 1497 1500 1503 1506 1509 1512 1515 1518 1521 1524 1527 1530 1533 1536 1539 1542 1545 1548 1551 1554 1557 1560 1563 1566 1569 1572 1575 1578 1581 1584 1587 1590 1593 1596 1599 1602 1605 1608 1611 1614 1616 1619 1622 1624 1627 1630 1632 1635 1638 1641 1644 1647 1650 1653 1656 1659 1662 1665 1668 1671 1673 1676 1679 1682 1685 1688 1690 1693 1696 1699 1702 1705 1708 1711 1714 1717 1720 1723 1726 1729 1732 1735 1738 1741 1744 1747 1750 1753 1756 1759 1762 1765 1768 1771 1774 1777 1780 1783 1786 1789 1792 1795 1798 1801 1804 1807 1810 1813 1816 1819 1822 1825 1828 1831 1834 1837 1840 1843 1846 1849 1852 1855 1858 1861 1864 1867 1870 1873 1876 1879 1882 1885 1888 1891 1894 1897 1900 1903 1906 1909 1912 1915 1918 1921 1924 1927 1930 1933 1936 1939 1942 1945 1948 1951 1954 1957 1960 1963 1966 1969 1972 1975 1978 1981 1984 1987 1990 1993 1996 1999 2002 2005 2008 2011 2014 2017 2020 2023 2026 2029 2032 2035 2038 2041 2044 2047 2050 2053 2056 2059 2062 2065 2068 2071 2074 2077 2080 2083 2086 2089 2092 2095 2098 2101 2104 2107 2110 2113 2116 2119 2122 2125 2128 2131 2134 2137 2140 2143 2146 2149 2152 2155 2158 2161 2164 2167 2170 2173 2176 2179 2182 2185 2188 2191 2194 2196 2199 2202 2205 2207 2210 2213 2215 2218 2221 2224 2227 2230 2233 2236 2239 2242 2245 2248 2250 2253 2256 2259 2262 2264 2267 2270 2273 2276 2279 2282 2285 2288 2291 2294 2297 2300 2303 2306 2309 2312 2315 2318 2321 2324 2327 2330 2333 2336 2339 2342 2345 2348 2351 2354 2357 2360 2363 2366 2369 2372 2375 2378 2381 2384 2387 2390 2393 2396 2399 2402 2405 2408 2411 2414 2417 2420 2423 2426 2429 2432 2435 2438 2440 2443 2446 2449 2452 2455 2458 2461 2464 2467 2470 2473 2476 2479 2482 2484 2487 2490 2492 2495 2497 2500 2503 2506 2509 2512 2515 2518 2521 2524 2527 2530 2533 2536 2538 2541 2544 2547 2550 2553 2556 2559 2562 2565 2568 2571 2574 2577 2580 2583 2586 2589 2592 2595 2598 2601 2604 2607 2610 2613 2616 2619 2622 2625 2628 2631 2634 2637 2640 2643 2646 2649 2652 2655 2658 2661 2664 2667 2670 2673 2676 2679 2682 2685 2688 2691 2694 2697 2700 2703 2706 2709 2712 2715 2718 2721 2724 2727 2730 2733 2736 2739 2742 2745 2748 2751 2754 2757 2760 2763 2766 2769 2772 2775 2778 2781 2784 2787 2790 2793 2796 2799 2802 2805 2808 2811 2814 2817 2820 2823 2826 2829 2832 2835 2838 2841 2844 2847 2850 2853 2856 2859 2862 2865 2868 2871 2874 2877 2880 2883 2886 2889 2892 2895 2898 2901 2904 2907 2910 2913 2916 2919 2922 2925 2928 2931 2934 2937 2940 2943 2946 2948 2951 2954 2956 2959 2961 2964 2967 2970 2973 2976 2979 2982 2985 2988 2991 2994 2997 3000 3003 3006 3009 3012 3015 3018 3021 3024 3027 3030 3033 3036 3039 3042 3045 3048 3051 3054 3057 3060 3063 3066 3069 3072 3075 3078 3081 3084 3087 3090 3093 3096 3099 3102 3104 3107 3110 3113 3116 3119 3121 3124 3127 3130 3133 3136 3139 3142 
</DataArray>
<DataArray type="UInt32" Name="types" format="ascii">
5 5 5 5 5 5 5 5 5 5 5 5 5 5 5 5 5 5 5 5 5 5 5 5 5 5 5 5 5 5 5 5 5 5 5 5 5 5 5 5 5 5 5 5 5 5 5 5 5 5 5 5 5 5 5 5 5 5 5 5 5 5 5 5 5 5 5 5 5 5 5 5 5 5 5 5 5 5 5 5 5 5 5 5 5 5 5 5 5 5 5 5 5 5 5 5 5 5 5 5 5 5 5 5 5 5 5 5 5 5 5 5 5 5 5 5 5 5 5 5 5 5 5 5 5 5 5 5 5 5 5 5 5 5 5 5 5 5 5 5 5 5 5 5 5 5 5 5 5 5 5 5 5 5 5 5 5 5 5 5 5 5 5 5 5 5 5 5 5 5 5 5 5 5 5 5 5 5 5 5 5 5 5 5 5 5 5 5 5 5 5 5 5 5 5 5 5 5 5 5 5 5 5 5 5 5 5 5 5 5 5 5 5 5 5 5 5 5 5 5 5 5 5 5 5 5 5 5 5 5 5 5 5 5 5 5 5 5 5 5 5 5 5 5 5 5 5 5 5 5 5 5 5 5 5 5 5 5 5 5 5 5 5 5 5 5 5 5 5 5 5 5 5 5 5 5 5 5 5 5 5 5 5 5 5 5 5 5 5 5 5 5 5 5 5 5 5 5 5 5 5 5 5 5 5 5 5 5 5 5 5 5 5 5 5 5 5 5 5 5 5 5 5 5 5 5 5 5 5 5 5 5 5 5 5 5 5 5 5 5 5 5 5 5 5 5 5 5 5 5 5 5 5 5 5 5 5 5 5 5 5 5 5 5 5 5 5 5 5 5 5 5 5 5 5 5 5 5 5 5 5 5 5 5 5 5 5 5 5 5 5 5 5 5 5 5 5 5 5 5 5 5 5 5 5 5 5 5 5 5 5 5 5 5 5 5 5 5 5 5 5 5 5 5 5 5 5 5 5 5 5 5 5 5 5 5 5 5 5 5 5 5 5 5 5 5 5 5 5 5 5 5 5 5 5 5 5 5 5 5 5 5 5 5 5 5 5 5 5 5 5 5 5 5 5 5 5 5 5 5 5 5 5 5 5 5 5 5 5 5 5 5 5 5 5 5 5 5 5 5 5 5 5 5 5 5 5 5 5 5 5 5 5 5 5 5 5 5 5 5 5 5 5 5 5 5 5 5 5 5 5 5 5 5 5 5 5 5 3 5 5 3 5 5 3 5 5 5 5 5 5 5 5 5 5 5 5 5 3 5 5 5 5 5 3 5 5 5 5 5 5 5 5 5 5 5 5 5 5 5 5 5 5 5 5 5 5 5 5 5 5 5 5 5 5 5 5 5 5 5 5 5 5 5 5 5 5 5 5 5 5 5 5 5 5 5 5 5 5 5 5 5 5 5 5 5 5 5 5 5 5 5 5 5 5 5 5 5 5 5 5 5 5 5 5 5 5 5 5 5 5 5 5 5 5 5 5 5 5 5 5 5 5 5 5 5 5 5 5 5 5 5 5 5 5 5 5 5 5 5 5 5 5 5 5 5 5 5 5 5 5 5 5 5 5 5 5 5 5 5 5 5 5 5 5 5 5 5 5 5 5 5 5 5 5 5 5 5 5 5 5 5 5 5 5 5 5 5 5 5 5 5 5 3 5 5 5 3 5 5 3 5 5 5 5 5 5 5 5 5 5 5 3 5 5 5 5 3 5 5 5 5 5 5 5 5 5 5 5 5 5 5 5 5 5 5 5 5 5 5 5 5 5 5 5 5 5 5 5 5 5 5 5 5 5 5 5 5 5 5 5 5 5 5 5 5 5 5 5 5 5 5 5 5 5 5 3 5 5 5 5 5 5 5 5 5 5 5 5 5 5 3 5 5 3 5 3 5 5 5 5 5 5 5 5 5 5 5 5 5 3 5 5 5 5 5 5 5 5 5 5 5 5 5 5 5 5 5 5 5 5 5 5 5 5 5 5 5 5 5 5 5 5 5 5 5 5 5 5 5 5 5 5 5 5 5 5 5 5 5 5 5 5 5 5 5 5 5 5 5 5 5 5 5 5 5 5 5 5 5 5 5 5 5 5 5 5 5 5 5 5 5 5 5 5 5 5 5 5 5 5 5 5 5 5 5 5 5 5 5 5 5 5 5 5 5 5 5 5 5 5 5 5 5 5 5 5 5 5 5 5 5 5 5 5 5 5 5 5 5 5 5 5 5 5 5 5 3 5 5 3 5 3 5 5 5 5 5 5 5 5 5 5 5 5 5 5 5 5 5 5 5 5 5 5 5 5 5 5 5 5 5 5 5 5 5 5 5 5 5 5 5 5 5 5 5 5 5 5 5 3 5 5 5 5 5 3 5 5 5 5 5 5 5 
</DataArray>
</Cells>
<PointData Scalars="" Vectors="displacement," Tensors="">
<DataArray type="Float64" Name="displacement" NumberOfComponents="3" format="ascii">
-0.00014142698043137335 -0.00045043803797077838 0 -4.8663841060003753e-07 -1.2294337693279966e-06 0 -7.8585182705716681e-09 -8.0005052988515005e-07 0 -0.00014142698043137335 -0.00045043803797077838 0 -4.8663841060003753e-07 -1.2294337693279966e-06 0 -0.00052741212469761497 -0.0011241339894815685 0 -0.00014142698043137335 -0.00045043803797077838 0 -7.8585182705716681e-09 -8.0005052988515005e-07 0 -0.00016995907233376589 -0.00082906349034537878 0 -0.00014142698043137335 -0.00045043803797077838 0 -0.00016995907233376589 -0.00082906349034537878 0 -0.00052741212469761497 -0.0011241339894815685 0 -0.00052741212469761497 -0.0011241339894815685 0 -0.00077248038362651204 -0.0021815851499442725 0 -0.00046555509969097513 -0.0019627519774436972 0 -0.00077248038362651204 -0.0021815851499442725 0 -0.00046555509969097513 -0.0019627519774436972 0 -0.00098272643110211295 -0.0032786127227621663 0 -0.00016995907233376589 -0.00082906349034537878 0 -0.00046555509969097513 -0.0019627519774436972 0 -0.00018068053663680562 -0.0015229843718152075 0 -0.00016995907233376589 -0.00082906349034537878 0 -0.00052741212469761497 -0.0011241339894815685 0 -0.00046555509969097513 -0.0019627519774436972 0 -0.00046555509969097513 -0.0019627519774436972 0 -0.00018068053663680562 -0.0015229843718152075 0 -0.00049779818158745279 -0.002726081472611561 0 -0.00018068053663680562 -0.0015229843718152075 0 -0.00049779818158745279 -0.002726081472611561 0 -0.0002069728545104264 -0.0021080067268985565 0 -0.00018068053663680562 -0.0015229843718152075 0 -3.1414916624088414e-05 -0.0014430510762269554 0 -0.0002069728545104264 -0.0021080067268985565 0 -3.1414916624088414e-05 -0.0014430510762269554 0 -0.0002069728545104264 -0.0021080067268985565 0 -9.3463055015513517e-05 -0.0020941206250819251 0 -3.1414916624088414e-05 -0.0014430510762269554 0 -1.6062304929245861e-05 -0.00068575116478329873 0 8.0077439090527283e-05 -0.00084894771057314065 0 -0.00018068053663680562 -0.0015229843718152075 0 -3.1414916624088414e-05 -0.0014430510762269554 0 -1.6062304929245861e-05 -0.00068575116478329873 0 -1.6062304929245861e-05 -0.00068575116478329873 0 1.0986826601431918e-08 -7.3424130767777355e-07 0 1.1699414683040075e-07 -6.023301847829846e-07 0 -7.8585182705716681e-09 -8.0005052988515005e-07 0 -0.00016995907233376589 -0.00082906349034537878 0 1.0986826601431918e-08 -7.3424130767777355e-07 0 -0.00016995907233376589 -0.00082906349034537878 0 -1.6062304929245861e-05 -0.00068575116478329873 0 1.0986826601431918e-08 -7.3424130767777355e-07 0 -0.00016995907233376589 -0.00082906349034537878 0 -0.00018068053663680562 -0.0015229843718152075 0 -1.6062304929245861e-05 -0.00068575116478329873 0 -0.0010942310573977777 -0.0046926558515593747 0 -0.0012586001783286495 -0.0044511380712136707 0 -0.0016281968469970356 -0.0057156731300876179 0 -0.0010942310573977777 -0.0046926558515593747 0 -0.0012586001783286495 -0.0044511380712136707 0 -0.00087406034682525164 -0.0037815538814009232 0 -0.0010942310573977777 -0.0046926558515593747 0 -0.00087406034682525164 -0.0037815538814009232 0 -0.00065953983307540792 -0.0036652130301480985 0 -0.00087406034682525164 -0.0037815538814009232 0 -0.00098272643110211295 -0.0032786127227621663 0 -0.00049779818158745279 -0.002726081472611561 0 -0.00046555509969097513 -0.0019627519774436972 0 -0.00098272643110211295 -0.0032786127227621663 0 -0.00049779818158745279 -0.002726081472611561 0 -0.00087406034682525164 -0.0037815538814009232 0 -0.00049779818158745279 -0.002726081472611561 0 -0.00065953983307540792 -0.0036652130301480985 0 -0.0012586001783286495 -0.0044511380712136707 0 -0.00087406034682525164 -0.0037815538814009232 0 -0.00098272643110211295 -0.0032786127227621663 0 -0.00049779818158745279 -0.002726081472611561 0 -0.0002069728545104264 -0.0021080067268985565 0 -0.00033596524626691243 -0.0027361395421287532 0 -0.0002069728545104264 -0.0021080067268985565 0 -0.00033596524626691243 -0.0027361395421287532 0 -9.3463055015513517e-05 -0.0020941206250819251 0 -0.00049779818158745279 -0.002726081472611561 0 -0.00033596524626691243 -0.0027361395421287532 0 -0.00065953983307540792 -0.0036652130301480985 0 -0.00065953983307540792 -0.0036652130301480985 0 -0.00087166709553918845 -0.0044060960337856548 0 -0.00037149643046416927 -0.003057606828127168 0 -0.00033596524626691243 -0.0027361395421287532 0 -0.00065953983307540792 -0.0036652130301480985 0 -0.00037149643046416927 -0.003057606828127168 0 -0.0010942310573977777 -0.0046926558515593747 0 -0.00065953983307540792 -0.0036652130301480985 0 -0.00087166709553918845 -0.0044060960337856548 0 -0.0010942310573977777 -0.0046926558515593747 0 -0.00087166709553918845 -0.0044060960337856548 0 -0.0014455045820800606 -0.00574655701710513 0 -0.00087166709553918845 -0.0044060960337856548 0 -0.00062686664463426211 -0.0036280170353603803 0 -0.00037149643046416927 -0.003057606828127168 0 -0.00042428937467065323 -0.0029343554453440009 0 -0.00062686664463426211 -0.0036280170353603803 0 -0.00037149643046416927 -0.003057606828127168 0 -0.00042428937467065323 -0.0029343554453440009 0 -0.00037149643046416927 -0.003057606828127168 0 -0.00014187958209234202 -0.0023036775851668768 0 -0.00014187958209234202 -0.0023036775851668768 0 -9.3463055015513517e-05 -0.0020941206250819251 0 4.7175591243543648e-05 -0.0016618860735918069 0 -0.00033596524626691243 -0.0027361395421287532 0 -0.00037149643046416927 -0.003057606828127168 0 -9.3463055015513517e-05 -0.0020941206250819251 0 -0.00037149643046416927 -0.003057606828127168 0 -0.00014187958209234202 -0.0023036775851668768 0 -9.3463055015513517e-05 -0.0020941206250819251 0 -9.3463055015513517e-05 -0.0020941206250819251 0 4.7175591243543648e-05 -0.0016618860735918069 0 7.1698823263385229e-05 -0.0013536123307843087 0 4.7175591243543648e-05 -0.0016618860735918069 0 0.0001489294376184258 -0.0011866763507814924 0 -3.5911188576970692e-05 -0.0017821393332986572 0 0.0001489294376184258 -0.0011866763507814924 0 -3.5911188576970692e-05 -0.0017821393332986572 0 7.8212250445120577e-05 -0.0012149917738562455 0 -3.5911188576970692e-05 -0.0017821393332986572 0 7.8212250445120577e-05 -0.0012149917738562455 0 -6.9394125843659908e-05 -0.0013730026009849817 0 -0.00014187958209234202 -0.0023036775851668768 0 4.7175591243543648e-05 -0.0016618860735918069 0 -3.5911188576970692e-05 -0.0017821393332986572 0 -0.00042428937467065323 -0.0029343554453440009 0 -0.00014187958209234202 -0.0023036775851668768 0 -0.00024736578361508226 -0.0021130629023906273 0 -0.00014187958209234202 -0.0023036775851668768 0 -3.5911188576970692e-05 -0.0017821393332986572 0 -0.00024736578361508226 -0.0021130629023906273 0 -3.5911188576970692e-05 -0.0017821393332986572 0 -0.00024736578361508226 -0.0021130629023906273 0 -6.9394125843659908e-05 -0.0013730026009849817 0 -0.00024736578361508226 -0.0021130629023906273 0 -0.00051130368733642709 -0.0019816815179754242 0 -0.0006071168503881593 -0.0027966185866675291 0 -0.00042428937467065323 -0.0029343554453440009 0 -0.00024736578361508226 -0.0021130629023906273 0 -0.0006071168503881593 -0.0027966185866675291 0 0.00011674330062549191 -0.00043541295101130387 0 1.1699414683040075e-07 -6.023301847829846e-07 0 8.0077439090527283e-05 -0.00084894771057314065 0 0.00011674330062549191 -0.00043541295101130387 0 8.0077439090527283e-05 -0.00084894771057314065 0 0.00017982075086610938 -0.00092911676833504827 0 0.00011674330062549191 -0.00043541295101130387 0 1.1699414683040075e-07 -6.023301847829846e-07 0 6.7331362825910803e-08 -5.1320589444769239e-07 0 -1.6062304929245861e-05 -0.00068575116478329873 0 1.1699414683040075e-07 -6.023301847829846e-07 0 8.0077439090527283e-05 -0.00084894771057314065 0 -3.1414916624088414e-05 -0.0014430510762269554 0 8.0077439090527283e-05 -0.00084894771057314065 0 7.1698823263385229e-05 -0.0013536123307843087 0 -3.1414916624088414e-05 -0.0014430510762269554 0 -9.3463055015513517e-05 -0.0020941206250819251 0 7.1698823263385229e-05 -0.0013536123307843087 0 4.7175591243543648e-05 -0.0016618860735918069 0 7.1698823263385229e-05 -0.0013536123307843087 0 0.00017982075086610938 -0.00092911676833504827 0 8.0077439090527283e-05 -0.00084894771057314065 0 7.1698823263385229e-05 -0.0013536123307843087 0 0.00017982075086610938 -0.00092911676833504827 0 4.7175591243543648e-05 -0.0016618860735918069 0 0.0001489294376184258 -0.0011866763507814924 0 0.00017982075086610938 -0.00092911676833504827 0 0.0001489294376184258 -0.0011866763507814924 0 0.00017982075086610938 -0.00092911676833504827 0 0.00021226406857059992 -0.00074949808698889441 0 0.0001489294376184258 -0.0011866763507814924 0 0.00021226406857059992 -0.00074949808698889441 0 0.00019139506742131088 -0.00078710237169286651 0 0.00017982075086610938 -0.00092911676833504827 0 0.00021226406857059992 -0.00074949808698889441 0 0.0001699199224524674 -0.00041667789234632992 0 0.00021226406857059992 -0.00074949808698889441 0 0.0001699199224524674 -0.00041667789234632992 0 0.00021290887003662186 -0.00040715725021051946 0 0.00011674330062549191 -0.00043541295101130387 0 0.00017982075086610938 -0.00092911676833504827 0 0.0001699199224524674 -0.00041667789234632992 0 0.00011674330062549191 -0.00043541295101130387 0 0.0001699199224524674 -0.00041667789234632992 0 6.7331362825910803e-08 -5.1320589444769239e-07 0 0.0001699199224524674 -0.00041667789234632992 0 6.7331362825910803e-08 -5.1320589444769239e-07 0 1.1203047516227067e-07 -4.0631890420230222e-07 0 1.1203047516227067e-07 -4.0631890420230222e-07 0 0.00021290887003662186 -0.00040715725021051946 0 9.6906479738781169e-08 -2.8035000976695548e-07 0 0.0001699199224524674 -0.00041667789234632992 0 1.1203047516227067e-07 -4.0631890420230222e-07 0 0.00021290887003662186 -0.00040715725021051946 0 0.00021290887003662186 -0.00040715725021051946 0 9.6906479738781169e-08 -2.8035000976695548e-07 0 0.00015614129023499968 -0.00021359177293112149 0 9.6906479738781169e-08 -2.8035000976695548e-07 0 0.00015614129023499968 -0.00021359177293112149 0 6.0790041453086109e-08 -1.9036100208326276e-07 0 0.00015614129023499968 -0.00021359177293112149 0 0.0001017423805736813 -0.00011388338145033419 0 0.00015494302727485541 -0.00026676697405600733 0 0.0001017423805736813 -0.00011388338145033419 0 0.00015494302727485541 -0.00026676697405600733 0 8.856954719691816e-05 -9.9952456266024252e-05 0 0.00015614129023499968 -0.00021359177293112149 0 0.0001017423805736813 -0.00011388338145033419 0 6.0790041453086109e-08 -1.9036100208326276e-07 0 0.0001017423805736813 -0.00011388338145033419 0 6.0790041453086109e-08 -1.9036100208326276e-07 0 6.5840003284301616e-08 -1.1614784799901684e-07 0 0.00015494302727485541 -0.00026676697405600733 0 3.1622115003085454e-05 -0.0003334043976788666 0 2.9642435262201253e-05 -0.00013734118222566199 0 0.00015494302727485541 -0.00026676697405600733 0 0.00014408319242427371 -0.00052448612483162356 0 3.1622115003085454e-05 -0.0003334043976788666 0 0.00015614129023499968 -0.00021359177293112149 0 0.00015494302727485541 -0.00026676697405600733 0 0.00019976002466050316 -0.00043117126538439436 0 0.00015494302727485541 -0.00026676697405600733 0 0.00014408319242427371 -0.00052448612483162356 0 0.00019976002466050316 -0.00043117126538439436 0 0.00014408319242427371 -0.00052448612483162356 0 0.00019976002466050316 -0.00043117126538439436 0 0.00019139506742131088 -0.00078710237169286651 0 0.00021290887003662186 -0.00040715725021051946 0 0.00015614129023499968 -0.00021359177293112149 0 0.00019976002466050316 -0.00043117126538439436 0 0.00021290887003662186 -0.00040715725021051946 0 0.00019976002466050316 -0.00043117126538439436 0 0.00019139506742131088 -0.00078710237169286651 0 0.00021226406857059992 -0.00074949808698889441 0 0.00021290887003662186 -0.00040715725021051946 0 0.00019139506742131088 -0.00078710237169286651 0 0.0001489294376184258 -0.0011866763507814924 0 0.00019139506742131088 -0.00078710237169286651 0 7.8212250445120577e-05 -0.0012149917738562455 0 0.00019139506742131088 -0.00078710237169286651 0 7.8212250445120577e-05 -0.0012149917738562455 0 7.1837908368596647e-05 -0.00088632798845478895 0 7.8212250445120577e-05 -0.0012149917738562455 0 7.1837908368596647e-05 -0.00088632798845478895 0 -6.9394125843659908e-05 -0.0013730026009849817 0 7.1837908368596647e-05 -0.00088632798845478895 0 -0.00014317267130022816 -0.00086951752809358599 0 1.1377456967850067e-06 -0.00059980547063389559 0 7.1837908368596647e-05 -0.00088632798845478895 0 -6.9394125843659908e-05 -0.0013730026009849817 0 -0.00014317267130022816 -0.00086951752809358599 0 0.00014408319242427371 -0.00052448612483162356 0 0.00019139506742131088 -0.00078710237169286651 0 7.1837908368596647e-05 -0.00088632798845478895 0 -0.00024736578361508226 -0.0021130629023906273 0 -0.00031640559994885515 -0.0013835175061314002 0 -0.00051130368733642709 -0.0019816815179754242 0 -0.00024736578361508226 -0.0021130629023906273 0 -0.00031640559994885515 -0.0013835175061314002 0 -6.9394125843659908e-05 -0.0013730026009849817 0 -0.00031640559994885515 -0.0013835175061314002 0 -6.9394125843659908e-05 -0.0013730026009849817 0 -0.00014317267130022816 -0.00086951752809358599 0 -0.00031640559994885515 -0.0013835175061314002 0 -0.00048246294479808164 -0.00066619076168190753 0 -0.00066139902418014011 -0.0013751418396196812 0 -0.00031640559994885515 -0.0013835175061314002 0 -0.00048246294479808164 -0.00066619076168190753 0 -0.00014317267130022816 -0.00086951752809358599 0 -0.00048246294479808164 -0.00066619076168190753 0 -0.00014317267130022816 -0.00086951752809358599 0 -0.00017339088041521937 -0.00042645853937073379 0 -0.00048246294479808164 -0.00066619076168190753 0 -0.00017339088041521937 -0.00042645853937073379 0 -0.00047057567841525365 -0.00015527069157278989 0 -0.00048246294479808164 -0.00066619076168190753 0 -0.00047057567841525365 -0.00015527069157278989 0 -0.00094032651697391833 -0.00016637507619524637 0 0.00014408319242427371 -0.00052448612483162356 0 7.1837908368596647e-05 -0.00088632798845478895 0 1.1377456967850067e-06 -0.00059980547063389559 0 0.00014408319242427371 -0.00052448612483162356 0 1.1377456967850067e-06 -0.00059980547063389559 0 3.1622115003085454e-05 -0.0003334043976788666 0 -0.00014317267130022816 -0.00086951752809358599 0 1.1377456967850067e-06 -0.00059980547063389559 0 -0.00017339088041521937 -0.00042645853937073379 0 -0.00017339088041521937 -0.00042645853937073379 0 3.1622115003085454e-05 -0.0003334043976788666 0 -0.00015644940922854658 -0.00012582052195474032 0 1.1377456967850067e-06 -0.00059980547063389559 0 -0.00017339088041521937 -0.00042645853937073379 0 3.1622115003085454e-05 -0.0003334043976788666 0 3.1622115003085454e-05 -0.0003334043976788666 0 -0.00015644940922854658 -0.00012582052195474032 0 2.9642435262201253e-05 -0.00013734118222566199 0 -0.00015644940922854658 -0.00012582052195474032 0 -0.00043196068898430104 0.00011098444579454462 0 -0.00016745349948379354 4.4800905913059782e-05 0 -0.00015644940922854658 -0.00012582052195474032 0 -0.00016745349948379354 4.4800905913059782e-05 0 2.9642435262201253e-05 -0.00013734118222566199 0 -0.00047057567841525365 -0.00015527069157278989 0 -0.00089483879616187006 0.0002242782425348698 0 -0.00094032651697391833 -0.00016637507619524637 0 -0.00017339088041521937 -0.00042645853937073379 0 -0.00015644940922854658 -0.00012582052195474032 0 -0.00047057567841525365 -0.00015527069157278989 0 -0.00015644940922854658 -0.00012582052195474032 0 -0.00047057567841525365 -0.00015527069157278989 0 -0.00043196068898430104 0.00011098444579454462 0 -0.00047057567841525365 -0.00015527069157278989 0 -0.00043196068898430104 0.00011098444579454462 0 -0.00089483879616187006 0.0002242782425348698 0 -0.00043196068898430104 0.00011098444579454462 0 -0.00075089365698178439 0.00038979760009256483 0 -0.00089483879616187006 0.0002242782425348698 0 -0.00043196068898430104 0.00011098444579454462 0 -0.00075089365698178439 0.00038979760009256483 0 -0.00047295532621815633 0.00025361753116481161 0 -0.00047295532621815633 0.00025361753116481161 0 -0.00046456580924206513 0.00021788243371935543 0 -0.0006665825544218475 0.00036429667684699632 0 -0.00075089365698178439 0.00038979760009256483 0 -0.00047295532621815633 0.00025361753116481161 0 -0.0006665825544218475 0.00036429667684699632 0 -0.00075089365698178439 0.00038979760009256483 0 -0.0010168331758862012 0.0005957237515889413 0 -0.0006665825544218475 0.00036429667684699632 0 -0.00016745349948379354 4.4800905913059782e-05 0 -0.00047295532621815633 0.00025361753116481161 0 -0.00028914291997361448 0.00014310235434787327 0 -0.00043196068898430104 0.00011098444579454462 0 -0.00016745349948379354 4.4800905913059782e-05 0 -0.00047295532621815633 0.00025361753116481161 0 -0.00047295532621815633 0.00025361753116481161 0 -0.00028914291997361448 0.00014310235434787327 0 -0.00046456580924206513 0.00021788243371935543 0 -0.00016745349948379354 4.4800905913059782e-05 0 -0.00028914291997361448 0.00014310235434787327 0 -0.00012477728135375704 4.1697042108206161e-05 0 -0.00028914291997361448 0.00014310235434787327 0 -0.00012477728135375704 4.1697042108206161e-05 0 -0.00027551236547749712 0.00010711314374339923 0 -0.00016745349948379354 4.4800905913059782e-05 0 -0.00012477728135375704 4.1697042108206161e-05 0 -2.999726930337036e-06 -3.4075743126851431e-05 0 -0.00012477728135375704 4.1697042108206161e-05 0 -2.7823895736860696e-05 -9.9745594662130062e-06 0 -2.999726930337036e-06 -3.4075743126851431e-05 0 -0.00012477728135375704 4.1697042108206161e-05 0 -2.7823895736860696e-05 -9.9745594662130062e-06 0 -0.00013868951963948747 9.9718500642581268e-06 0 -2.7823895736860696e-05 -9.9745594662130062e-06 0 6.8695091451178182e-09 -3.3404726749115938e-08 0 -0.00013868951963948747 9.9718500642581268e-06 0 -2.7823895736860696e-05 -9.9745594662130062e-06 0 6.8695091451178182e-09 -3.3404726749115938e-08 0 6.5313605928976435e-09 -4.5453740897817715e-08 0 -2.7823895736860696e-05 -9.9745594662130062e-06 0 6.5313605928976435e-09 -4.5453740897817715e-08 0 2.7957021363183595e-05 -3.8720858162783119e-05 0 -2.7823895736860696e-05 -9.9745594662130062e-06 0 2.7957021363183595e-05 -3.8720858162783119e-05 0 -2.999726930337036e-06 -3.4075743126851431e-05 0 2.7957021363183595e-05 -3.8720858162783119e-05 0 6.5840003284301616e-08 -1.1614784799901684e-07 0 8.856954719691816e-05 -9.9952456266024252e-05 0 2.7957021363183595e-05 -3.8720858162783119e-05 0 8.856954719691816e-05 -9.9952456266024252e-05 0 -2.999726930337036e-06 -3.4075743126851431e-05 0 6.5313605928976435e-09 -4.5453740897817715e-08 0 2.7957021363183595e-05 -3.8720858162783119e-05 0 6.5840003284301616e-08 -1.1614784799901684e-07 0 0.0001017423805736813 -0.00011388338145033419 0 6.5840003284301616e-08 -1.1614784799901684e-07 0 8.856954719691816e-05 -9.9952456266024252e-05 0 0.00015494302727485541 -0.00026676697405600733 0 8.856954719691816e-05 -9.9952456266024252e-05 0 2.9642435262201253e-05 -0.00013734118222566199 0 -0.00016745349948379354 4.4800905913059782e-05 0 2.9642435262201253e-05 -0.00013734118222566199 0 -2.999726930337036e-06 -3.4075743126851431e-05 0 8.856954719691816e-05 -9.9952456266024252e-05 0 2.9642435262201253e-05 -0.00013734118222566199 0 -2.999726930337036e-06 -3.4075743126851431e-05 0 -0.0029864831350505435 0.0014449690507625989 0 -0.0029567121650889284 0.0010729547065346837 0 -0.0035458577010985901 0.0022326388936459718 0 -0.0029864831350505435 0.0014449690507625989 0 -0.002474615784915118 0.00054189796017115076 0 -0.0029567121650889284 0.0010729547065346837 0 -0.0029864831350505435 0.0014449690507625989 0 -0.002474615784915118 0.00054189796017115076 0 -0.002121891194281069 0.00057793058183926236 0 -0.0029567121650889284 0.0010729547065346837 0 -0.003472763731186641 0.0016851626665688828 0 -0.0035458577010985901 0.0022326388936459718 0 -0.003472763731186641 0.0016851626665688828 0 -0.0039961665079929027 0.0031616896229101268 0 -0.0039118923619802601 0.0019850972994334077 0 -0.003472763731186641 0.0016851626665688828 0 -0.0039961665079929027 0.0031616896229101268 0 -0.0035458577010985901 0.0022326388936459718 0 -0.0039961665079929027 0.0031616896229101268 0 -0.0035458577010985901 0.0022326388936459718 0 -0.0040242917407189464 0.0030020026001725702 0 -0.0035458577010985901 0.0022326388936459718 0 -0.0040242917407189464 0.0030020026001725702 0 -0.004136119006651901 0.0029102227202513816 0 -0.0039961665079929027 0.0031616896229101268 0 -0.0040242917407189464 0.0030020026001725702 0 -0.0043914674751101123 0.00364768453674791 0 -0.0040242917407189464 0.0030020026001725702 0 -0.0043914674751101123 0.00364768453674791 0 -0.004136119006651901 0.0029102227202513816 0 -0.004136119006651901 0.0029102227202513816 0 -0.0035545133289622412 0.0021210391680848975 0 -0.0042503310160389753 0.002552202951488967 0 -0.0035458577010985901 0.0022326388936459718 0 -0.004136119006651901 0.0029102227202513816 0 -0.0035545133289622412 0.0021210391680848975 0 -0.0029864831350505435 0.0014449690507625989 0 -0.0035458577010985901 0.0022326388936459718 0 -0.0035545133289622412 0.0021210391680848975 0 -0.0029864831350505435 0.0014449690507625989 0 -0.0035545133289622412 0.0021210391680848975 0 -0.0027328146205768933 0.0012477961722797649 0 -0.0035545133289622412 0.0021210391680848975 0 -0.0034349070603388932 0.0018017499311063637 0 -0.0042503310160389753 0.002552202951488967 0 -0.0034349070603388932 0.0018017499311063637 0 -0.0022217047833279122 0.00099351790538187708 0 -0.0020501492335773023 0.0010724559330817626 0 -0.0034349070603388932 0.0018017499311063637 0 -0.0022217047833279122 0.00099351790538187708 0 -0.0027328146205768933 0.0012477961722797649 0 -0.0022217047833279122 0.00099351790538187708 0 -0.0027328146205768933 0.0012477961722797649 0 -0.0016434992170632514 0.00048831991886686278 0 -0.0035545133289622412 0.0021210391680848975 0 -0.0034349070603388932 0.0018017499311063637 0 -0.0027328146205768933 0.0012477961722797649 0 -0.0010168331758862012 0.0005957237515889413 0 -0.0014169545528286522 0.00061800947286011064 0 -0.0020501492335773023 0.0010724559330817626 0 -0.00075089365698178439 0.00038979760009256483 0 -0.0010168331758862012 0.0005957237515889413 0 -0.0014169545528286522 0.00061800947286011064 0 -0.0022217047833279122 0.00099351790538187708 0 -0.0014169545528286522 0.00061800947286011064 0 -0.0020501492335773023 0.0010724559330817626 0 -0.0022217047833279122 0.00099351790538187708 0 -0.0014169545528286522 0.00061800947286011064 0 -0.0016434992170632514 0.00048831991886686278 0 -0.00075089365698178439 0.00038979760009256483 0 -0.0014169545528286522 0.00061800947286011064 0 -0.00089483879616187006 0.0002242782425348698 0 -0.0014169545528286522 0.00061800947286011064 0 -0.00089483879616187006 0.0002242782425348698 0 -0.0016434992170632514 0.00048831991886686278 0 -0.00089483879616187006 0.0002242782425348698 0 -0.0016434992170632514 0.00048831991886686278 0 -0.00094032651697391833 -0.00016637507619524637 0 -0.0016434992170632514 0.00048831991886686278 0 -0.00094032651697391833 -0.00016637507619524637 0 -0.0014490499243132824 -0.00017452970618180385 0 -0.0029864831350505435 0.0014449690507625989 0 -0.0027328146205768933 0.0012477961722797649 0 -0.002121891194281069 0.00057793058183926236 0 -0.0027328146205768933 0.0012477961722797649 0 -0.0016434992170632514 0.00048831991886686278 0 -0.002121891194281069 0.00057793058183926236 0 -0.0016434992170632514 0.00048831991886686278 0 -0.002121891194281069 0.00057793058183926236 0 -0.0014490499243132824 -0.00017452970618180385 0 -0.002121891194281069 0.00057793058183926236 0 -0.0014490499243132824 -0.00017452970618180385 0 -0.0018556584682144204 -0.0005513835018630507 0 -0.002474615784915118 0.00054189796017115076 0 -0.002121891194281069 0.00057793058183926236 0 -0.0018556584682144204 -0.0005513835018630507 0 -0.0014490499243132824 -0.00017452970618180385 0 -0.0013641809866928691 -0.00078020946730594353 0 -0.0018556584682144204 -0.0005513835018630507 0 -0.0013641809866928691 -0.00078020946730594353 0 -0.0018556584682144204 -0.0005513835018630507 0 -0.0015172196083281287 -0.0014420547580038868 0 -0.00048246294479808164 -0.00066619076168190753 0 -0.00094032651697391833 -0.00016637507619524637 0 -0.00095914528215168494 -0.00071868479521557127 0 -0.00094032651697391833 -0.00016637507619524637 0 -0.0014490499243132824 -0.00017452970618180385 0 -0.00095914528215168494 -0.00071868479521557127 0 -0.0014490499243132824 -0.00017452970618180385 0 -0.0013641809866928691 -0.00078020946730594353 0 -0.00095914528215168494 -0.00071868479521557127 0 -0.0013641809866928691 -0.00078020946730594353 0 -0.00095914528215168494 -0.00071868479521557127 0 -0.0010917054935581255 -0.0014493031826490336 0 -0.00048246294479808164 -0.00066619076168190753 0 -0.00095914528215168494 -0.00071868479521557127 0 -0.00066139902418014011 -0.0013751418396196812 0 -0.00095914528215168494 -0.00071868479521557127 0 -0.00066139902418014011 -0.0013751418396196812 0 -0.0010917054935581255 -0.0014493031826490336 0 -0.00066139902418014011 -0.0013751418396196812 0 -0.0010917054935581255 -0.0014493031826490336 0 -0.000875245427170854 -0.002391605112698955 0 -0.00066139902418014011 -0.0013751418396196812 0 -0.00051130368733642709 -0.0019816815179754242 0 -0.000875245427170854 -0.002391605112698955 0 -0.00031640559994885515 -0.0013835175061314002 0 -0.00066139902418014011 -0.0013751418396196812 0 -0.00051130368733642709 -0.0019816815179754242 0 -0.0018556584682144204 -0.0005513835018630507 0 -0.0015172196083281287 -0.0014420547580038868 0 -0.0019038615013977156 -0.0019169368007813034 0 -0.0013641809866928691 -0.00078020946730594353 0 -0.0015172196083281287 -0.0014420547580038868 0 -0.0010917054935581255 -0.0014493031826490336 0 -0.0015172196083281287 -0.0014420547580038868 0 -0.0010917054935581255 -0.0014493031826490336 0 -0.0013551026664364769 -0.0022744760308826785 0 -0.0010917054935581255 -0.0014493031826490336 0 -0.0013551026664364769 -0.0022744760308826785 0 -0.000875245427170854 -0.002391605112698955 0 -0.0015172196083281287 -0.0014420547580038868 0 -0.0013551026664364769 -0.0022744760308826785 0 -0.0019038615013977156 -0.0019169368007813034 0 -0.0013551026664364769 -0.0022744760308826785 0 -0.0019038615013977156 -0.0019169368007813034 0 -0.0016945583978169889 -0.0035288260384765784 0 -0.0019038615013977156 -0.0019169368007813034 0 -0.0026384491588017081 -0.0016199517271968649 0 -0.0023268031448185414 -0.0032426382418577052 0 -0.0026384491588017081 -0.0016199517271968649 0 -0.0031247520374358072 -0.002845468768229074 0 -0.0023268031448185414 -0.0032426382418577052 0 -0.0019038615013977156 -0.0019169368007813034 0 -0.0026384491588017081 -0.0016199517271968649 0 -0.0023163787667137398 -0.00083505354312311266 0 -0.0018556584682144204 -0.0005513835018630507 0 -0.0019038615013977156 -0.0019169368007813034 0 -0.0023163787667137398 -0.00083505354312311266 0 -0.0018556584682144204 -0.0005513835018630507 0 -0.0023163787667137398 -0.00083505354312311266 0 -0.0024819599071923067 7.0277510381821758e-05 0 -0.0023163787667137398 -0.00083505354312311266 0 -0.0024819599071923067 7.0277510381821758e-05 0 -0.0029137843241677369 6.6589826186243113e-05 0 -0.0026384491588017081 -0.0016199517271968649 0 -0.0023163787667137398 -0.00083505354312311266 0 -0.0029137843241677369 6.6589826186243113e-05 0 -0.0029567121650889284 0.0010729547065346837 0 -0.0024819599071923067 7.0277510381821758e-05 0 -0.0029137843241677369 6.6589826186243113e-05 0 -0.002474615784915118 0.00054189796017115076 0 -0.0029567121650889284 0.0010729547065346837 0 -0.0024819599071923067 7.0277510381821758e-05 0 -0.002474615784915118 0.00054189796017115076 0 -0.0018556584682144204 -0.0005513835018630507 0 -0.0024819599071923067 7.0277510381821758e-05 0 -0.003472763731186641 0.0016851626665688828 0 -0.0034884371659445455 0.00057998973446853985 0 -0.0039118923619802601 0.0019850972994334077 0 -0.003472763731186641 0.0016851626665688828 0 -0.0034884371659445455 0.00057998973446853985 0 -0.0029137843241677369 6.6589826186243113e-05 0 -0.0029567121650889284 0.0010729547065346837 0 -0.003472763731186641 0.0016851626665688828 0 -0.0029137843241677369 6.6589826186243113e-05 0 -0.0026384491588017081 -0.0016199517271968649 0 -0.0029137843241677369 6.6589826186243113e-05 0 -0.0032929200107050549 -0.00091457631822210238 0 -0.0034884371659445455 0.00057998973446853985 0 -0.0032929200107050549 -0.00091457631822210238 0 -0.0041325576435707299 6.035685520538189e-05 0 -0.0034884371659445455 0.00057998973446853985 0 -0.0029137843241677369 6.6589826186243113e-05 0 -0.0032929200107050549 -0.00091457631822210238 0 -0.0032929200107050549 -0.00091457631822210238 0 -0.0031247520374358072 -0.002845468768229074 0 -0.0039860983614991531 -0.0021185449405216293 0 -0.0026384491588017081 -0.0016199517271968649 0 -0.0032929200107050549 -0.00091457631822210238 0 -0.0031247520374358072 -0.002845468768229074 0 -0.0031247520374358072 -0.002845468768229074 0 -0.0039358043679144066 -0.0039338825966776046 0 -0.0039860983614991531 -0.0021185449405216293 0 -0.0039358043679144066 -0.0039338825966776046 0 -0.0037911049710719182 -0.0056156209956506921 0 -0.0029970219428043002 -0.0041776070326301441 0 -0.0037911049710719182 -0.0056156209956506921 0 -0.0029970219428043002 -0.0041776070326301441 0 -0.0026680351722215443 -0.005044334485868592 0 -0.0031247520374358072 -0.002845468768229074 0 -0.0029970219428043002 -0.0041776070326301441 0 -0.0023268031448185414 -0.0032426382418577052 0 -0.0031247520374358072 -0.002845468768229074 0 -0.0039358043679144066 -0.0039338825966776046 0 -0.0029970219428043002 -0.0041776070326301441 0 -0.0019038615013977156 -0.0019169368007813034 0 -0.0023268031448185414 -0.0032426382418577052 0 -0.0016945583978169889 -0.0035288260384765784 0 -0.0026680351722215443 -0.005044334485868592 0 -0.0021452148189420742 -0.0053935204031707092 0 -0.0016945583978169889 -0.0035288260384765784 0 -0.0023268031448185414 -0.0032426382418577052 0 -0.0026680351722215443 -0.005044334485868592 0 -0.0016945583978169889 -0.0035288260384765784 0 -0.0029970219428043002 -0.0041776070326301441 0 -0.0023268031448185414 -0.0032426382418577052 0 -0.0026680351722215443 -0.005044334485868592 0 -0.0026680351722215443 -0.005044334485868592 0 -0.0029693285311088212 -0.0069200242260331639 0 -0.0036001387321142092 -0.0068291733684406886 0 -0.0026680351722215443 -0.005044334485868592 0 -0.0021452148189420742 -0.0053935204031707092 0 -0.0029693285311088212 -0.0069200242260331639 0 -0.0021452148189420742 -0.0053935204031707092 0 -0.0029693285311088212 -0.0069200242260331639 0 -0.0024458650706599234 -0.0069958192811147646 0 -0.0029693285311088212 -0.0069200242260331639 0 -0.0036001387321142092 -0.0068291733684406886 0 -0.0040116186010914698 -0.0085818715820135654 0 -0.0036001387321142092 -0.0068291733684406886 0 -0.0040116186010914698 -0.0085818715820135654 0 -0.0052010622660385742 -0.0093014671887712477 0 -0.0036001387321142092 -0.0068291733684406886 0 -0.0052010622660385742 -0.0093014671887712477 0 -0.0048238451520039114 -0.0073648601732679122 0 -0.0037911049710719182 -0.0056156209956506921 0 -0.0036001387321142092 -0.0068291733684406886 0 -0.0048238451520039114 -0.0073648601732679122 0 -0.0037911049710719182 -0.0056156209956506921 0 -0.0026680351722215443 -0.005044334485868592 0 -0.0036001387321142092 -0.0068291733684406886 0 -0.00051130368733642709 -0.0019816815179754242 0 -0.0006071168503881593 -0.0027966185866675291 0 -0.000875245427170854 -0.002391605112698955 0 -0.0006071168503881593 -0.0027966185866675291 0 -0.000875245427170854 -0.002391605112698955 0 -0.0010745496658829156 -0.0035739707790836935 0 -0.0006071168503881593 -0.0027966185866675291 0 -0.0010745496658829156 -0.0035739707790836935 0 -0.00081358191423645809 -0.0037386443902889589 0 -0.0010745496658829156 -0.0035739707790836935 0 -0.0012554369451673467 -0.003071734740596061 0 -0.0015491052391481057 -0.0043471224872070873 0 -0.000875245427170854 -0.002391605112698955 0 -0.0010745496658829156 -0.0035739707790836935 0 -0.0012554369451673467 -0.003071734740596061 0 -0.0013551026664364769 -0.0022744760308826785 0 -0.000875245427170854 -0.002391605112698955 0 -0.0012554369451673467 -0.003071734740596061 0 -0.0013551026664364769 -0.0022744760308826785 0 -0.0012554369451673467 -0.003071734740596061 0 -0.0016945583978169889 -0.0035288260384765784 0 -0.0012554369451673467 -0.003071734740596061 0 -0.0016945583978169889 -0.0035288260384765784 0 -0.0015491052391481057 -0.0043471224872070873 0 -0.0021452148189420742 -0.0053935204031707092 0 -0.0016945583978169889 -0.0035288260384765784 0 -0.0015491052391481057 -0.0043471224872070873 0 -0.0021452148189420742 -0.0053935204031707092 0 -0.0015491052391481057 -0.0043471224872070873 0 -0.0014671862146842303 -0.0051356172855804554 0 -0.0021452148189420742 -0.0053935204031707092 0 -0.0014671862146842303 -0.0051356172855804554 0 -0.0024458650706599234 -0.0069958192811147646 0 -0.0010745496658829156 -0.0035739707790836935 0 -0.0015491052391481057 -0.0043471224872070873 0 -0.0014671862146842303 -0.0051356172855804554 0 -0.0010745496658829156 -0.0035739707790836935 0 -0.0014671862146842303 -0.0051356172855804554 0 -0.00081358191423645809 -0.0037386443902889589 0 -0.0014671862146842303 -0.0051356172855804554 0 -0.00081358191423645809 -0.0037386443902889589 0 -0.00092808080706104925 -0.0044191775514515474 0 -0.00062686664463426211 -0.0036280170353603803 0 -0.00081358191423645809 -0.0037386443902889589 0 -0.00092808080706104925 -0.0044191775514515474 0 -0.00042428937467065323 -0.0029343554453440009 0 -0.0006071168503881593 -0.0027966185866675291 0 -0.00081358191423645809 -0.0037386443902889589 0 -0.00042428937467065323 -0.0029343554453440009 0 -0.00062686664463426211 -0.0036280170353603803 0 -0.00081358191423645809 -0.0037386443902889589 0 -0.00087166709553918845 -0.0044060960337856548 0 -0.0014331512862502133 -0.0056777962250801469 0 -0.0014455045820800606 -0.00574655701710513 0 -0.00087166709553918845 -0.0044060960337856548 0 -0.00062686664463426211 -0.0036280170353603803 0 -0.00092808080706104925 -0.0044191775514515474 0 -0.00087166709553918845 -0.0044060960337856548 0 -0.00092808080706104925 -0.0044191775514515474 0 -0.0014331512862502133 -0.0056777962250801469 0 -0.0014671862146842303 -0.0051356172855804554 0 -0.00092808080706104925 -0.0044191775514515474 0 -0.0014331512862502133 -0.0056777962250801469 0 -0.0014331512862502133 -0.0056777962250801469 0 -0.0020465575563233316 -0.0070876229833361148 0 -0.0014455045820800606 -0.00574655701710513 0 -0.0014331512862502133 -0.0056777962250801469 0 -0.002052000040055593 -0.0068046799317735942 0 -0.0020465575563233316 -0.0070876229833361148 0 -0.0014671862146842303 -0.0051356172855804554 0 -0.0014331512862502133 -0.0056777962250801469 0 -0.002052000040055593 -0.0068046799317735942 0 -0.0014671862146842303 -0.0051356172855804554 0 -0.002052000040055593 -0.0068046799317735942 0 -0.0024458650706599234 -0.0069958192811147646 0 -0.002052000040055593 -0.0068046799317735942 0 -0.0024458650706599234 -0.0069958192811147646 0 -0.0029022649915832277 -0.0086061951967551231 0 -0.002052000040055593 -0.0068046799317735942 0 -0.0020465575563233316 -0.0070876229833361148 0 -0.0029022649915832277 -0.0086061951967551231 0 -0.0028163233420103709 -0.0085690995646235564 0 -0.0020465575563233316 -0.0070876229833361148 0 -0.0029022649915832277 -0.0086061951967551231 0 -0.0028163233420103709 -0.0085690995646235564 0 -0.0020465575563233316 -0.0070876229833361148 0 -0.0021398606768229995 -0.0070753807924040374 0 -0.0020465575563233316 -0.0070876229833361148 0 -0.0021398606768229995 -0.0070753807924040374 0 -0.0014455045820800606 -0.00574655701710513 0 -0.0021398606768229995 -0.0070753807924040374 0 -0.0016281968469970356 -0.0057156731300876179 0 -0.0014455045820800606 -0.00574655701710513 0 -0.0010942310573977777 -0.0046926558515593747 0 -0.0016281968469970356 -0.0057156731300876179 0 -0.0014455045820800606 -0.00574655701710513 0 -0.0051623148812354356 -0.011000111697857751 0 -0.0040116186010914698 -0.0085818715820135654 0 -0.0036045502768245379 -0.0091100646869486553 0 -0.0051623148812354356 -0.011000111697857751 0 -0.0040116186010914698 -0.0085818715820135654 0 -0.0052010622660385742 -0.0093014671887712477 0 -0.0029693285311088212 -0.0069200242260331639 0 -0.0040116186010914698 -0.0085818715820135654 0 -0.0036045502768245379 -0.0091100646869486553 0 -0.0029693285311088212 -0.0069200242260331639 0 -0.0024458650706599234 -0.0069958192811147646 0 -0.0036045502768245379 -0.0091100646869486553 0 -0.0024458650706599234 -0.0069958192811147646 0 -0.0036045502768245379 -0.0091100646869486553 0 -0.0029022649915832277 -0.0086061951967551231 0 -0.0036045502768245379 -0.0091100646869486553 0 -0.0038821424913608529 -0.010220033460821435 0 -0.0029022649915832277 -0.0086061951967551231 0 -0.0028163233420103709 -0.0085690995646235564 0 -0.0029022649915832277 -0.0086061951967551231 0 -0.0037151016627196038 -0.01017901466594039 0 -0.0038821424913608529 -0.010220033460821435 0 -0.0029022649915832277 -0.0086061951967551231 0 -0.0037151016627196038 -0.01017901466594039 0 -0.0038821424913608529 -0.010220033460821435 0 -0.0037151016627196038 -0.01017901466594039 0 -0.0048468868823630541 -0.011979872643779794 0 -0.0038821424913608529 -0.010220033460821435 0 -0.0048468868823630541 -0.011979872643779794 0 -0.0047829900023633942 -0.011417647415004836 0 -0.0051623148812354356 -0.011000111697857751 0 -0.0047829900023633942 -0.011417647415004836 0 -0.0063437261777581789 -0.013945708660804478 0 -0.0051623148812354356 -0.011000111697857751 0 -0.0036045502768245379 -0.0091100646869486553 0 -0.0047829900023633942 -0.011417647415004836 0 -0.0036045502768245379 -0.0091100646869486553 0 -0.0038821424913608529 -0.010220033460821435 0 -0.0047829900023633942 -0.011417647415004836 0 -0.0048468868823630541 -0.011979872643779794 0 -0.0047829900023633942 -0.011417647415004836 0 -0.0063437261777581789 -0.013945708660804478 0 -0.0051623148812354356 -0.011000111697857751 0 -0.0063437261777581789 -0.013945708660804478 0 -0.0070779465624991227 -0.013484356698205047 0 -0.0063437261777581789 -0.013945708660804478 0 -0.0082850597813736663 -0.015986523715606639 0 -0.0070779465624991227 -0.013484356698205047 0 -0.0082850597813736663 -0.015986523715606639 0 -0.0070779465624991227 -0.013484356698205047 0 -0.0089077736496689704 -0.015332234621567957 0 -0.0070779465624991227 -0.013484356698205047 0 -0.0081617465147379963 -0.013046416667319068 0 -0.0089077736496689704 -0.015332234621567957 0 -0.0051623148812354356 -0.011000111697857751 0 -0.0070779465624991227 -0.013484356698205047 0 -0.0065777687138244834 -0.01160142701286364 0 -0.0051623148812354356 -0.011000111697857751 0 -0.0065777687138244834 -0.01160142701286364 0 -0.0052010622660385742 -0.0093014671887712477 0 -0.0070779465624991227 -0.013484356698205047 0 -0.0065777687138244834 -0.01160142701286364 0 -0.0081617465147379963 -0.013046416667319068 0 -0.0065777687138244834 -0.01160142701286364 0 -0.0076291659385984666 -0.011122146505293105 0 -0.0081617465147379963 -0.013046416667319068 0 -0.0065777687138244834 -0.01160142701286364 0 -0.0052010622660385742 -0.0093014671887712477 0 -0.0076291659385984666 -0.011122146505293105 0 -0.0098164029522069263 -0.012905332513683719 0 -0.0076291659385984666 -0.011122146505293105 0 -0.0081617465147379963 -0.013046416667319068 0 -0.0098164029522069263 -0.012905332513683719 0 -0.01073761519544288 -0.015905439073778494 0 -0.012324486279303028 -0.014952389439919923 0 -0.0098164029522069263 -0.012905332513683719 0 -0.0081617465147379963 -0.013046416667319068 0 -0.01073761519544288 -0.015905439073778494 0 -0.0081617465147379963 -0.013046416667319068 0 -0.01073761519544288 -0.015905439073778494 0 -0.0089077736496689704 -0.015332234621567957 0 -0.0082850597813736663 -0.015986523715606639 0 -0.0089077736496689704 -0.015332234621567957 0 -0.010704473533602323 -0.018178577055996209 0 -0.01073761519544288 -0.015905439073778494 0 -0.010704473533602323 -0.018178577055996209 0 -0.013643171206684727 -0.020279272796938957 0 -0.01073761519544288 -0.015905439073778494 0 -0.0089077736496689704 -0.015332234621567957 0 -0.010704473533602323 -0.018178577055996209 0 -0.013643171206684727 -0.020279272796938957 0 -0.014460417769985015 -0.018125150123159045 0 -0.017112021213685151 -0.022317213942534518 0 -0.01073761519544288 -0.015905439073778494 0 -0.014460417769985015 -0.018125150123159045 0 -0.012324486279303028 -0.014952389439919923 0 -0.01073761519544288 -0.015905439073778494 0 -0.013643171206684727 -0.020279272796938957 0 -0.014460417769985015 -0.018125150123159045 0 -0.017112021213685151 -0.022317213942534518 0 -0.018432684086602244 -0.019633301945973389 0 -0.02103377944095081 -0.024126999980055953 0 -0.014460417769985015 -0.018125150123159045 0 -0.017112021213685151 -0.022317213942534518 0 -0.018432684086602244 -0.019633301945973389 0 -0.018432684086602244 -0.019633301945973389 0 -0.02103377944095081 -0.024126999980055953 0 -0.022525700230255838 -0.02143058546592097 0 -0.018432684086602244 -0.019633301945973389 0 -0.01537707465987566 -0.015347488023082993 0 -0.020618539689917524 -0.017746099775260368 0 -0.01537707465987566 -0.015347488023082993 0 -0.018013736488566249 -0.015125154206734879 0 -0.020618539689917524 -0.017746099775260368 0 -0.014460417769985015 -0.018125150123159045 0 -0.018432684086602244 -0.019633301945973389 0 -0.01537707465987566 -0.015347488023082993 0 -0.018013736488566249 -0.015125154206734879 0 -0.020618539689917524 -0.017746099775260368 0 -0.020007002214448129 -0.014373240463291744 0 -0.014460417769985015 -0.018125150123159045 0 -0.01537707465987566 -0.015347488023082993 0 -0.012324486279303028 -0.014952389439919923 0 -0.01537707465987566 -0.015347488023082993 0 -0.012324486279303028 -0.014952389439919923 0 -0.011677099649726906 -0.012695990659613835 0 -0.0098164029522069263 -0.012905332513683719 0 -0.012324486279303028 -0.014952389439919923 0 -0.011677099649726906 -0.012695990659613835 0 -0.01537707465987566 -0.015347488023082993 0 -0.011677099649726906 -0.012695990659613835 0 -0.012531271493551089 -0.010929603666764464 0 -0.011677099649726906 -0.012695990659613835 0 -0.012531271493551089 -0.010929603666764464 0 -0.0090213715144540959 -0.0099418738625147735 0 -0.012531271493551089 -0.010929603666764464 0 -0.0093138135253282191 -0.0079918267497503491 0 -0.0090213715144540959 -0.0099418738625147735 0 -0.01537707465987566 -0.015347488023082993 0 -0.012531271493551089 -0.010929603666764464 0 -0.01613995379184625 -0.012745668861753247 0 -0.018013736488566249 -0.015125154206734879 0 -0.01613995379184625 -0.012745668861753247 0 -0.020007002214448129 -0.014373240463291744 0 -0.01537707465987566 -0.015347488023082993 0 -0.018013736488566249 -0.015125154206734879 0 -0.01613995379184625 -0.012745668861753247 0 -0.012531271493551089 -0.010929603666764464 0 -0.01613995379184625 -0.012745668861753247 0 -0.015422738909245264 -0.010467317821485803 0 -0.01613995379184625 -0.012745668861753247 0 -0.020007002214448129 -0.014373240463291744 0 -0.019789071092338024 -0.012088060558695145 0 -0.01613995379184625 -0.012745668861753247 0 -0.015422738909245264 -0.010467317821485803 0 -0.019789071092338024 -0.012088060558695145 0 -0.015422738909245264 -0.010467317821485803 0 -0.016083763559254824 -0.0087899598102129297 0 -0.019789071092338024 -0.012088060558695145 0 -0.015422738909245264 -0.010467317821485803 0 -0.016083763559254824 -0.0087899598102129297 0 -0.01204869120710945 -0.0076916470038238755 0 -0.016083763559254824 -0.0087899598102129297 0 -0.01204869120710945 -0.0076916470038238755 0 -0.013484682101792565 -0.0058570929222403374 0 -0.016083763559254824 -0.0087899598102129297 0 -0.021081981358903663 -0.0098562006242774603 0 -0.017122999550176075 -0.007156198097539237 0 -0.016083763559254824 -0.0087899598102129297 0 -0.017122999550176075 -0.007156198097539237 0 -0.013484682101792565 -0.0058570929222403374 0 -0.012531271493551089 -0.010929603666764464 0 -0.01204869120710945 -0.0076916470038238755 0 -0.0093138135253282191 -0.0079918267497503491 0 -0.012531271493551089 -0.010929603666764464 0 -0.015422738909245264 -0.010467317821485803 0 -0.01204869120710945 -0.0076916470038238755 0 -0.01204869120710945 -0.0076916470038238755 0 -0.0090358449370822429 -0.0054935616182706665 0 -0.0093138135253282191 -0.0079918267497503491 0 -0.01204869120710945 -0.0076916470038238755 0 -0.0090358449370822429 -0.0054935616182706665 0 -0.0096184539354776249 -0.0039943048332588375 0 -0.0090358449370822429 -0.0054935616182706665 0 -0.0093138135253282191 -0.0079918267497503491 0 -0.0070170143049733619 -0.0058041172169207653 0 -0.0090358449370822429 -0.0054935616182706665 0 -0.0070170143049733619 -0.0058041172169207653 0 -0.0069915282069634025 -0.0038234605416426846 0 -0.0093138135253282191 -0.0079918267497503491 0 -0.0070170143049733619 -0.0058041172169207653 0 -0.0072946395988443512 -0.0078981900134913966 0 -0.0070170143049733619 -0.0058041172169207653 0 -0.0053273708873812393 -0.0062271758368986014 0 -0.0072946395988443512 -0.0078981900134913966 0 -0.0070170143049733619 -0.0058041172169207653 0 -0.0052982357719857567 -0.0039462924340658056 0 -0.0069915282069634025 -0.0038234605416426846 0 -0.0070170143049733619 -0.0058041172169207653 0 -0.0053273708873812393 -0.0062271758368986014 0 -0.0052982357719857567 -0.0039462924340658056 0 -0.0039358043679144066 -0.0039338825966776046 0 -0.0053273708873812393 -0.0062271758368986014 0 -0.0052982357719857567 -0.0039462924340658056 0 -0.0037911049710719182 -0.0056156209956506921 0 -0.0053273708873812393 -0.0062271758368986014 0 -0.0048238451520039114 -0.0073648601732679122 0 -0.0039358043679144066 -0.0039338825966776046 0 -0.0037911049710719182 -0.0056156209956506921 0 -0.0053273708873812393 -0.0062271758368986014 0 -0.0053273708873812393 -0.0062271758368986014 0 -0.0065410037937945545 -0.0090533087280872133 0 -0.0072946395988443512 -0.0078981900134913966 0 -0.0053273708873812393 -0.0062271758368986014 0 -0.0048238451520039114 -0.0073648601732679122 0 -0.0065410037937945545 -0.0090533087280872133 0 -0.0052010622660385742 -0.0093014671887712477 0 -0.0048238451520039114 -0.0073648601732679122 0 -0.0065410037937945545 -0.0090533087280872133 0 -0.0052010622660385742 -0.0093014671887712477 0 -0.0076291659385984666 -0.011122146505293105 0 -0.0065410037937945545 -0.0090533087280872133 0 -0.0076291659385984666 -0.011122146505293105 0 -0.0065410037937945545 -0.0090533087280872133 0 -0.0090213715144540959 -0.0099418738625147735 0 -0.0098164029522069263 -0.012905332513683719 0 -0.0076291659385984666 -0.011122146505293105 0 -0.0090213715144540959 -0.0099418738625147735 0 -0.0098164029522069263 -0.012905332513683719 0 -0.011677099649726906 -0.012695990659613835 0 -0.0090213715144540959 -0.0099418738625147735 0 -0.0093138135253282191 -0.0079918267497503491 0 -0.0090213715144540959 -0.0099418738625147735 0 -0.0072946395988443512 -0.0078981900134913966 0 -0.0065410037937945545 -0.0090533087280872133 0 -0.0090213715144540959 -0.0099418738625147735 0 -0.0072946395988443512 -0.0078981900134913966 0 -0.042393391204455129 -0.020864294621026395 0 -0.03883089708716303 -0.020309082924524713 0 -0.042627781342605253 -0.017291506816128958 0 -0.03883089708716303 -0.020309082924524713 0 -0.03853823443469561 -0.023964411011320727 0 -0.034867239342878095 -0.021211762655931929 0 -0.042393391204455129 -0.020864294621026395 0 -0.042454392522249709 -0.024675479884766597 0 -0.03853823443469561 -0.023964411011320727 0 -0.042393391204455129 -0.020864294621026395 0 -0.03883089708716303 -0.020309082924524713 0 -0.03853823443469561 -0.023964411011320727 0 -0.042454392522249709 -0.024675479884766597 0 -0.040535108972009751 -0.026391721967925708 0 -0.03853823443469561 -0.023964411011320727 0 -0.042454392522249709 -0.024675479884766597 0 -0.042605008059827754 -0.028702378186379638 0 -0.040535108972009751 -0.026391721967925708 0 -0.042605008059827754 -0.028702378186379638 0 -0.040535108972009751 -0.026391721967925708 0 -0.038538860027153447 -0.028227863754080179 0 -0.040535108972009751 -0.026391721967925708 0 -0.038538860027153447 -0.028227863754080179 0 -0.03853823443469561 -0.023964411011320727 0 -0.038538860027153447 -0.028227863754080179 0 -0.03853823443469561 -0.023964411011320727 0 -0.033943018857998247 -0.024009549479473404 0 -0.03853823443469561 -0.023964411011320727 0 -0.033943018857998247 -0.024009549479473404 0 -0.034867239342878095 -0.021211762655931929 0 -0.038538860027153447 -0.028227863754080179 0 -0.034252652118491517 -0.02762883985044929 0 -0.033943018857998247 -0.024009549479473404 0 -0.034252652118491517 -0.02762883985044929 0 -0.033943018857998247 -0.024009549479473404 0 -0.029788742405424496 -0.026797574056956059 0 -0.033943018857998247 -0.024009549479473404 0 -0.034867239342878095 -0.021211762655931929 0 -0.029873765475528155 -0.021650989532292896 0 -0.034867239342878095 -0.021211762655931929 0 -0.031226823225004582 -0.019116213349073589 0 -0.029873765475528155 -0.021650989532292896 0 -0.03883089708716303 -0.020309082924524713 0 -0.034867239342878095 -0.021211762655931929 0 -0.034353233267644993 -0.018311859982765067 0 -0.03883089708716303 -0.020309082924524713 0 -0.034353233267644993 -0.018311859982765067 0 -0.03750537373268116 -0.017128824946805343 0 -0.034353233267644993 -0.018311859982765067 0 -0.031226823225004582 -0.019116213349073589 0 -0.029548748555098051 -0.016281323763827425 0 -0.034867239342878095 -0.021211762655931929 0 -0.034353233267644993 -0.018311859982765067 0 -0.031226823225004582 -0.019116213349073589 0 -0.031226823225004582 -0.019116213349073589 0 -0.027818102711725114 -0.018393427713035898 0 -0.029548748555098051 -0.016281323763827425 0 -0.027818102711725114 -0.018393427713035898 0 -0.029873765475528155 -0.021650989532292896 0 -0.02463237395146908 -0.019294176476524601 0 -0.031226823225004582 -0.019116213349073589 0 -0.027818102711725114 -0.018393427713035898 0 -0.029873765475528155 -0.021650989532292896 0 -0.029873765475528155 -0.021650989532292896 0 -0.029788742405424496 -0.026797574056956059 0 -0.026391022138057045 -0.022925391564101994 0 -0.033943018857998247 -0.024009549479473404 0 -0.029873765475528155 -0.021650989532292896 0 -0.029788742405424496 -0.026797574056956059 0 -0.029788742405424496 -0.026797574056956059 0 -0.026391022138057045 -0.022925391564101994 0 -0.025304000301125933 -0.025656253410058304 0 -0.029873765475528155 -0.021650989532292896 0 -0.026391022138057045 -0.022925391564101994 0 -0.02463237395146908 -0.019294176476524601 0 -0.026391022138057045 -0.022925391564101994 0 -0.022525700230255838 -0.02143058546592097 0 -0.02463237395146908 -0.019294176476524601 0 -0.026391022138057045 -0.022925391564101994 0 -0.025304000301125933 -0.025656253410058304 0 -0.022525700230255838 -0.02143058546592097 0 -0.025304000301125933 -0.025656253410058304 0 -0.02103377944095081 -0.024126999980055953 0 -0.022525700230255838 -0.02143058546592097 0 -0.018432684086602244 -0.019633301945973389 0 -0.022525700230255838 -0.02143058546592097 0 -0.020618539689917524 -0.017746099775260368 0 -0.022525700230255838 -0.02143058546592097 0 -0.020618539689917524 -0.017746099775260368 0 -0.02463237395146908 -0.019294176476524601 0 -0.027818102711725114 -0.018393427713035898 0 -0.02463237395146908 -0.019294176476524601 0 -0.023835721067726415 -0.015615204579204142 0 -0.020618539689917524 -0.017746099775260368 0 -0.02463237395146908 -0.019294176476524601 0 -0.023835721067726415 -0.015615204579204142 0 -0.020618539689917524 -0.017746099775260368 0 -0.020007002214448129 -0.014373240463291744 0 -0.023835721067726415 -0.015615204579204142 0 -0.020007002214448129 -0.014373240463291744 0 -0.023835721067726415 -0.015615204579204142 0 -0.019789071092338024 -0.012088060558695145 0 -0.023835721067726415 -0.015615204579204142 0 -0.019789071092338024 -0.012088060558695145 0 -0.02564828191258051 -0.013583057012044866 0 -0.016083763559254824 -0.0087899598102129297 0 -0.019789071092338024 -0.012088060558695145 0 -0.021081981358903663 -0.0098562006242774603 0 -0.021081981358903663 -0.0098562006242774603 0 -0.025518763575448484 -0.011015622410676908 0 -0.024510801129548978 -0.0081878520935668164 0 -0.021081981358903663 -0.0098562006242774603 0 -0.025518763575448484 -0.011015622410676908 0 -0.02564828191258051 -0.013583057012044866 0 -0.019789071092338024 -0.012088060558695145 0 -0.021081981358903663 -0.0098562006242774603 0 -0.02564828191258051 -0.013583057012044866 0 -0.025518763575448484 -0.011015622410676908 0 -0.030714510988893627 -0.013091960731913243 0 -0.02564828191258051 -0.013583057012044866 0 -0.025518763575448484 -0.011015622410676908 0 -0.029505467371738481 -0.010155526296887278 0 -0.024510801129548978 -0.0081878520935668164 0 -0.025518763575448484 -0.011015622410676908 0 -0.029505467371738481 -0.010155526296887278 0 -0.030714510988893627 -0.013091960731913243 0 -0.030714510988893627 -0.013091960731913243 0 -0.02564828191258051 -0.013583057012044866 0 -0.029548748555098051 -0.016281323763827425 0 -0.030714510988893627 -0.013091960731913243 0 -0.029548748555098051 -0.016281323763827425 0 -0.033651511620050978 -0.015705110219273951 0 -0.023835721067726415 -0.015615204579204142 0 -0.02564828191258051 -0.013583057012044866 0 -0.029548748555098051 -0.016281323763827425 0 -0.027818102711725114 -0.018393427713035898 0 -0.023835721067726415 -0.015615204579204142 0 -0.029548748555098051 -0.016281323763827425 0 -0.034353233267644993 -0.018311859982765067 0 -0.029548748555098051 -0.016281323763827425 0 -0.033651511620050978 -0.015705110219273951 0 -0.034353233267644993 -0.018311859982765067 0 -0.033651511620050978 -0.015705110219273951 0 -0.03750537373268116 -0.017128824946805343 0 -0.033651511620050978 -0.015705110219273951 0 -0.035904380436247461 -0.013452235872263582 0 -0.03750537373268116 -0.017128824946805343 0 -0.030714510988893627 -0.013091960731913243 0 -0.033651511620050978 -0.015705110219273951 0 -0.035904380436247461 -0.013452235872263582 0 -0.030714510988893627 -0.013091960731913243 0 -0.035215183690459007 -0.010328645706215663 0 -0.035904380436247461 -0.013452235872263582 0 -0.029505467371738481 -0.010155526296887278 0 -0.030714510988893627 -0.013091960731913243 0 -0.035215183690459007 -0.010328645706215663 0 -0.035215183690459007 -0.010328645706215663 0 -0.035904380436247461 -0.013452235872263582 0 -0.040045448450612135 -0.011700312833292816 0 -0.035904380436247461 -0.013452235872263582 0 -0.040045448450612135 -0.011700312833292816 0 -0.039947379414232924 -0.014704028910230345 0 -0.035215183690459007 -0.010328645706215663 0 -0.040045448450612135 -0.011700312833292816 0 -0.040476266631804578 -0.0082485446200391103 0 -0.040045448450612135 -0.011700312833292816 0 -0.043237054885679714 -0.013812609615538353 0 -0.044433393686405157 -0.010195378738235497 0 -0.040045448450612135 -0.011700312833292816 0 -0.043237054885679714 -0.013812609615538353 0 -0.039947379414232924 -0.014704028910230345 0 -0.043237054885679714 -0.013812609615538353 0 -0.039947379414232924 -0.014704028910230345 0 -0.042627781342605253 -0.017291506816128958 0 -0.035904380436247461 -0.013452235872263582 0 -0.039947379414232924 -0.014704028910230345 0 -0.03750537373268116 -0.017128824946805343 0 -0.039947379414232924 -0.014704028910230345 0 -0.03750537373268116 -0.017128824946805343 0 -0.042627781342605253 -0.017291506816128958 0 -0.03883089708716303 -0.020309082924524713 0 -0.03750537373268116 -0.017128824946805343 0 -0.042627781342605253 -0.017291506816128958 0 -0.048762840943165811 -0.0013120125031995057 0 -0.045136025137770978 -0.00042362040230663542 0 -0.042480000064108479 -0.0040971433253811146 0 -0.048762840943165811 -0.0013120125031995057 0 -0.045136025137770978 -0.00042362040230663542 0 -0.052092702436672585 0.0044591601938076438 0 -0.045136025137770978 -0.00042362040230663542 0 -0.042480000064108479 -0.0040971433253811146 0 -0.03870713429696724 -0.0011543726975406722 0 -0.045136025137770978 -0.00042362040230663542 0 -0.03870713429696724 -0.0011543726975406722 0 -0.043734608099068956 0.0034619357098874663 0 -0.048762840943165811 -0.0013120125031995057 0 -0.042480000064108479 -0.0040971433253811146 0 -0.046237138728602932 -0.0061349091365920233 0 -0.046237138728602932 -0.0061349091365920233 0 -0.044433393686405157 -0.010195378738235497 0 -0.040476266631804578 -0.0082485446200391103 0 -0.040045448450612135 -0.011700312833292816 0 -0.044433393686405157 -0.010195378738235497 0 -0.040476266631804578 -0.0082485446200391103 0 -0.042480000064108479 -0.0040971433253811146 0 -0.046237138728602932 -0.0061349091365920233 0 -0.040476266631804578 -0.0082485446200391103 0 -0.042480000064108479 -0.0040971433253811146 0 -0.040476266631804578 -0.0082485446200391103 0 -0.03510683001975725 -0.0056004257579323697 0 -0.035215183690459007 -0.010328645706215663 0 -0.03203935271876579 -0.0081691803484476039 0 -0.03510683001975725 -0.0056004257579323697 0 -0.035215183690459007 -0.010328645706215663 0 -0.040476266631804578 -0.0082485446200391103 0 -0.03510683001975725 -0.0056004257579323697 0 -0.029505467371738481 -0.010155526296887278 0 -0.035215183690459007 -0.010328645706215663 0 -0.03203935271876579 -0.0081691803484476039 0 -0.03510683001975725 -0.0056004257579323697 0 -0.03870713429696724 -0.0011543726975406722 0 -0.03305590604075298 -0.0010331895537370925 0 -0.042480000064108479 -0.0040971433253811146 0 -0.03510683001975725 -0.0056004257579323697 0 -0.03870713429696724 -0.0011543726975406722 0 -0.03870713429696724 -0.0011543726975406722 0 -0.03305590604075298 -0.0010331895537370925 0 -0.036258525890672133 0.0033303711053790657 0 -0.03305590604075298 -0.0010331895537370925 0 -0.027842666534613154 -0.0031761606090182637 0 -0.02729408174241587 0.0027093480975528749 0 -0.027842666534613154 -0.0031761606090182637 0 -0.022896858909351191 -0.00096848019289072777 0 -0.02729408174241587 0.0027093480975528749 0 -0.027842666534613154 -0.0031761606090182637 0 -0.023642752624228332 -0.004839400037859729 0 -0.022896858909351191 -0.00096848019289072777 0 -0.03510683001975725 -0.0056004257579323697 0 -0.03305590604075298 -0.0010331895537370925 0 -0.027842666534613154 -0.0031761606090182637 0 -0.03510683001975725 -0.0056004257579323697 0 -0.027842666534613154 -0.0031761606090182637 0 -0.02826843885664402 -0.0064767723074604941 0 -0.03203935271876579 -0.0081691803484476039 0 -0.03510683001975725 -0.0056004257579323697 0 -0.02826843885664402 -0.0064767723074604941 0 -0.029505467371738481 -0.010155526296887278 0 -0.03203935271876579 -0.0081691803484476039 0 -0.02826843885664402 -0.0064767723074604941 0 -0.029505467371738481 -0.010155526296887278 0 -0.02826843885664402 -0.0064767723074604941 0 -0.024510801129548978 -0.0081878520935668164 0 -0.02826843885664402 -0.0064767723074604941 0 -0.024510801129548978 -0.0081878520935668164 0 -0.023642752624228332 -0.004839400037859729 0 -0.027842666534613154 -0.0031761606090182637 0 -0.02826843885664402 -0.0064767723074604941 0 -0.023642752624228332 -0.004839400037859729 0 -0.024510801129548978 -0.0081878520935668164 0 -0.023642752624228332 -0.004839400037859729 0 -0.020064156001956997 -0.0063395457797855038 0 -0.023642752624228332 -0.004839400037859729 0 -0.020064156001956997 -0.0063395457797855038 0 -0.018970928834306133 -0.0026234589221826596 0 -0.021081981358903663 -0.0098562006242774603 0 -0.024510801129548978 -0.0081878520935668164 0 -0.020064156001956997 -0.0063395457797855038 0 -0.020064156001956997 -0.0063395457797855038 0 -0.017122999550176075 -0.007156198097539237 0 -0.01589963894042996 -0.0043368883666995168 0 -0.021081981358903663 -0.0098562006242774603 0 -0.020064156001956997 -0.0063395457797855038 0 -0.017122999550176075 -0.007156198097539237 0 -0.020064156001956997 -0.0063395457797855038 0 -0.018970928834306133 -0.0026234589221826596 0 -0.01589963894042996 -0.0043368883666995168 0 -0.018970928834306133 -0.0026234589221826596 0 -0.01589963894042996 -0.0043368883666995168 0 -0.013835446179210301 -0.00026660069558648352 0 -0.023642752624228332 -0.004839400037859729 0 -0.018970928834306133 -0.0026234589221826596 0 -0.022896858909351191 -0.00096848019289072777 0 -0.018970928834306133 -0.0026234589221826596 0 -0.022896858909351191 -0.00096848019289072777 0 -0.018372124191573518 0.0018801704744762678 0 -0.018970928834306133 -0.0026234589221826596 0 -0.018372124191573518 0.0018801704744762678 0 -0.013835446179210301 -0.00026660069558648352 0 -0.018372124191573518 0.0018801704744762678 0 -0.015211383220995937 0.0060155779905745497 0 -0.011569993469972215 0.0038600718591327429 0 -0.018372124191573518 0.0018801704744762678 0 -0.013835446179210301 -0.00026660069558648352 0 -0.011569993469972215 0.0038600718591327429 0 -0.018372124191573518 0.0018801704744762678 0 -0.021080475819290206 0.0062748508195603963 0 -0.02729408174241587 0.0027093480975528749 0 -0.022896858909351191 -0.00096848019289072777 0 -0.018372124191573518 0.0018801704744762678 0 -0.02729408174241587 0.0027093480975528749 0 -0.018372124191573518 0.0018801704744762678 0 -0.021080475819290206 0.0062748508195603963 0 -0.015211383220995937 0.0060155779905745497 0 -0.015211383220995937 0.0060155779905745497 0 -0.017374685753732348 0.01149902280365929 0 -0.0097174120164874363 0.0088259501809914483 0 -0.017374685753732348 0.01149902280365929 0 -0.0097174120164874363 0.0088259501809914483 0 -0.011066766415679502 0.018280627796997354 0 -0.017374685753732348 0.01149902280365929 0 -0.01782831421101223 0.01930992234692451 0 -0.011066766415679502 0.018280627796997354 0 -0.017374685753732348 0.01149902280365929 0 -0.025162055113277321 0.01991389446978058 0 -0.01782831421101223 0.01930992234692451 0 -0.021080475819290206 0.0062748508195603963 0 -0.017374685753732348 0.01149902280365929 0 -0.027944391276295777 0.011070061555589272 0 -0.021080475819290206 0.0062748508195603963 0 -0.015211383220995937 0.0060155779905745497 0 -0.017374685753732348 0.01149902280365929 0 -0.017374685753732348 0.01149902280365929 0 -0.027944391276295777 0.011070061555589272 0 -0.025162055113277321 0.01991389446978058 0 -0.027944391276295777 0.011070061555589272 0 -0.03557354246169997 0.019827842966416966 0 -0.025162055113277321 0.01991389446978058 0 -0.027944391276295777 0.011070061555589272 0 -0.034601685606667237 0.0088752116684625241 0 -0.03557354246169997 0.019827842966416966 0 -0.027944391276295777 0.011070061555589272 0 -0.02729408174241587 0.0027093480975528749 0 -0.034601685606667237 0.0088752116684625241 0 -0.02729408174241587 0.0027093480975528749 0 -0.036258525890672133 0.0033303711053790657 0 -0.034601685606667237 0.0088752116684625241 0 -0.021080475819290206 0.0062748508195603963 0 -0.027944391276295777 0.011070061555589272 0 -0.02729408174241587 0.0027093480975528749 0 -0.03305590604075298 -0.0010331895537370925 0 -0.02729408174241587 0.0027093480975528749 0 -0.036258525890672133 0.0033303711053790657 0 -0.03870713429696724 -0.0011543726975406722 0 -0.036258525890672133 0.0033303711053790657 0 -0.043734608099068956 0.0034619357098874663 0 -0.036258525890672133 0.0033303711053790657 0 -0.041510069432334921 0.0087856549546554349 0 -0.043734608099068956 0.0034619357098874663 0 -0.036258525890672133 0.0033303711053790657 0 -0.041510069432334921 0.0087856549546554349 0 -0.034601685606667237 0.0088752116684625241 0 -0.041510069432334921 0.0087856549546554349 0 -0.034601685606667237 0.0088752116684625241 0 -0.041865067844669514 0.015025241700103253 0 -0.034601685606667237 0.0088752116684625241 0 -0.041865067844669514 0.015025241700103253 0 -0.03557354246169997 0.019827842966416966 0 -0.041865067844669514 0.015025241700103253 0 -0.049329576180105611 0.014950656379126976 0 -0.048947522944591405 0.024738288276474098 0 -0.041865067844669514 0.015025241700103253 0 -0.048947522944591405 0.024738288276474098 0 -0.03557354246169997 0.019827842966416966 0 -0.041510069432334921 0.0087856549546554349 0 -0.041865067844669514 0.015025241700103253 0 -0.049329576180105611 0.014950656379126976 0 -0.041510069432334921 0.0087856549546554349 0 -0.049329576180105611 0.014950656379126976 0 -0.048592034493902786 0.0083797283769147662 0 -0.049329576180105611 0.014950656379126976 0 -0.060057761164491782 0.021203731245663625 0 -0.048947522944591405 0.024738288276474098 0 -0.049329576180105611 0.014950656379126976 0 -0.055973211887009655 0.01193195544562191 0 -0.060057761164491782 0.021203731245663625 0 -0.049329576180105611 0.014950656379126976 0 -0.055973211887009655 0.01193195544562191 0 -0.048592034493902786 0.0083797283769147662 0 -0.055973211887009655 0.01193195544562191 0 -0.048592034493902786 0.0083797283769147662 0 -0.052092702436672585 0.0044591601938076438 0 -0.048592034493902786 0.0083797283769147662 0 -0.043734608099068956 0.0034619357098874663 0 -0.052092702436672585 0.0044591601938076438 0 -0.041510069432334921 0.0087856549546554349 0 -0.048592034493902786 0.0083797283769147662 0 -0.043734608099068956 0.0034619357098874663 0 -0.045136025137770978 -0.00042362040230663542 0 -0.043734608099068956 0.0034619357098874663 0 -0.052092702436672585 0.0044591601938076438 0 -0.0052344402077043406 1.6642493455874597e-06 0 -0.006705632651207257 -0.0011177533138102781 0 -0.0054883515356976059 0.0014313398017456063 0 -0.006705632651207257 -0.0011177533138102781 0 -0.0054883515356976059 0.0014313398017456063 0 -0.0066987302062184893 0.0013590591038711512 0 -0.0054883515356976059 0.0014313398017456063 0 -0.0066987302062184893 0.0013590591038711512 0 -0.0053316553409243194 0.00377397499974009 0 -0.0052344402077043406 1.6642493455874597e-06 0 -0.0054883515356976059 0.0014313398017456063 0 -0.0045209809825518437 0.00204357256106399 0 -0.0045209809825518437 0.00204357256106399 0 -0.0041325576435707299 6.035685520538189e-05 0 -0.0039118923619802601 0.0019850972994334077 0 -0.0052344402077043406 1.6642493455874597e-06 0 -0.0045209809825518437 0.00204357256106399 0 -0.0041325576435707299 6.035685520538189e-05 0 -0.0034884371659445455 0.00057998973446853985 0 -0.0041325576435707299 6.035685520538189e-05 0 -0.0039118923619802601 0.0019850972994334077 0 -0.0052344402077043406 1.6642493455874597e-06 0 -0.0041325576435707299 6.035685520538189e-05 0 -0.0054304961747336034 -0.0020470575146012055 0 -0.0041325576435707299 6.035685520538189e-05 0 -0.0039860983614991531 -0.0021185449405216293 0 -0.0054304961747336034 -0.0020470575146012055 0 -0.0032929200107050549 -0.00091457631822210238 0 -0.0041325576435707299 6.035685520538189e-05 0 -0.0039860983614991531 -0.0021185449405216293 0 -0.0039358043679144066 -0.0039338825966776046 0 -0.0039860983614991531 -0.0021185449405216293 0 -0.0052982357719857567 -0.0039462924340658056 0 -0.0039860983614991531 -0.0021185449405216293 0 -0.0052982357719857567 -0.0039462924340658056 0 -0.0054304961747336034 -0.0020470575146012055 0 -0.0052982357719857567 -0.0039462924340658056 0 -0.0054304961747336034 -0.0020470575146012055 0 -0.0069915282069634025 -0.0038234605416426846 0 -0.0052344402077043406 1.6642493455874597e-06 0 -0.006705632651207257 -0.0011177533138102781 0 -0.0054304961747336034 -0.0020470575146012055 0 -0.006705632651207257 -0.0011177533138102781 0 -0.0054304961747336034 -0.0020470575146012055 0 -0.0069915282069634025 -0.0038234605416426846 0 -0.006705632651207257 -0.0011177533138102781 0 -0.0069915282069634025 -0.0038234605416426846 0 -0.0096184539354776249 -0.0039943048332588375 0 -0.0090358449370822429 -0.0054935616182706665 0 -0.0069915282069634025 -0.0038234605416426846 0 -0.0096184539354776249 -0.0039943048332588375 0 -0.01204869120710945 -0.0076916470038238755 0 -0.0096184539354776249 -0.0039943048332588375 0 -0.013484682101792565 -0.0058570929222403374 0 -0.0096184539354776249 -0.0039943048332588375 0 -0.011896977890373913 -0.0025654902985345453 0 -0.0087884833469070531 -0.0012393202450931883 0 -0.0096184539354776249 -0.0039943048332588375 0 -0.013484682101792565 -0.0058570929222403374 0 -0.011896977890373913 -0.0025654902985345453 0 -0.006705632651207257 -0.0011177533138102781 0 -0.0096184539354776249 -0.0039943048332588375 0 -0.0087884833469070531 -0.0012393202450931883 0 -0.017122999550176075 -0.007156198097539237 0 -0.013484682101792565 -0.0058570929222403374 0 -0.01589963894042996 -0.0043368883666995168 0 -0.013484682101792565 -0.0058570929222403374 0 -0.01589963894042996 -0.0043368883666995168 0 -0.011896977890373913 -0.0025654902985345453 0 -0.01589963894042996 -0.0043368883666995168 0 -0.011896977890373913 -0.0025654902985345453 0 -0.013835446179210301 -0.00026660069558648352 0 -0.011896977890373913 -0.0025654902985345453 0 -0.009250714029609558 0.0013196934499658799 0 -0.013835446179210301 -0.00026660069558648352 0 -0.009250714029609558 0.0013196934499658799 0 -0.013835446179210301 -0.00026660069558648352 0 -0.011569993469972215 0.0038600718591327429 0 -0.006705632651207257 -0.0011177533138102781 0 -0.0087884833469070531 -0.0012393202450931883 0 -0.0066987302062184893 0.0013590591038711512 0 -0.011896977890373913 -0.0025654902985345453 0 -0.009250714029609558 0.0013196934499658799 0 -0.0087884833469070531 -0.0012393202450931883 0 -0.009250714029609558 0.0013196934499658799 0 -0.0087884833469070531 -0.0012393202450931883 0 -0.0066987302062184893 0.0013590591038711512 0 -0.009250714029609558 0.0013196934499658799 0 -0.0066987302062184893 0.0013590591038711512 0 -0.006301568005365697 0.003962233057887809 0 -0.0066987302062184893 0.0013590591038711512 0 -0.006301568005365697 0.003962233057887809 0 -0.0053316553409243194 0.00377397499974009 0 -0.009250714029609558 0.0013196934499658799 0 -0.006301568005365697 0.003962233057887809 0 -0.0061513259987546016 0.0066119723427303326 0 -0.006301568005365697 0.003962233057887809 0 -0.0061513259987546016 0.0066119723427303326 0 -0.0047678784461027326 0.006393999282991677 0 -0.0047678784461027326 0.006393999282991677 0 -0.0046096649861736396 0.0054229008951543157 0 -0.0053316553409243194 0.00377397499974009 0 -0.006301568005365697 0.003962233057887809 0 -0.0047678784461027326 0.006393999282991677 0 -0.0053316553409243194 0.00377397499974009 0 -0.009250714029609558 0.0013196934499658799 0 -0.011569993469972215 0.0038600718591327429 0 -0.0061513259987546016 0.0066119723427303326 0 -0.011569993469972215 0.0038600718591327429 0 -0.0061513259987546016 0.0066119723427303326 0 -0.0097174120164874363 0.0088259501809914483 0 -0.015211383220995937 0.0060155779905745497 0 -0.011569993469972215 0.0038600718591327429 0 -0.0097174120164874363 0.0088259501809914483 0 -0.0061513259987546016 0.0066119723427303326 0 -0.0097174120164874363 0.0088259501809914483 0 -0.0016462850887381771 0.012541196468432417 0 -0.0097174120164874363 0.0088259501809914483 0 -0.0016462850887381771 0.012541196468432417 0 -0.011066766415679502 0.018280627796997354 0 -0.0061513259987546016 0.0066119723427303326 0 -0.0037762277271451835 0.0092972219079631747 0 -0.0016462850887381771 0.012541196468432417 0 -0.0047678784461027326 0.006393999282991677 0 -0.0037762277271451835 0.0092972219079631747 0 -0.0043739298600069098 0.0069428958894125281 0 -0.0047678784461027326 0.006393999282991677 0 -0.0043739298600069098 0.0069428958894125281 0 -0.0046096649861736396 0.0054229008951543157 0 -0.0061513259987546016 0.0066119723427303326 0 -0.0047678784461027326 0.006393999282991677 0 -0.0037762277271451835 0.0092972219079631747 0 -0.0037762277271451835 0.0092972219079631747 0 -0.0043739298600069098 0.0069428958894125281 0 -0.0043189068710934812 0.0068724229353339106 0 -0.0043739298600069098 0.0069428958894125281 0 -0.0045877279209733416 0.005486274530139508 0 -0.0043189068710934812 0.0068724229353339106 0 -0.0043739298600069098 0.0069428958894125281 0 -0.0044713322918737567 0.005461733242632427 0 -0.0045877279209733416 0.005486274530139508 0 -0.0043739298600069098 0.0069428958894125281 0 -0.0044713322918737567 0.005461733242632427 0 -0.0046096649861736396 0.0054229008951543157 0 -0.0046096649861736396 0.0054229008951543157 0 -0.0046386053127558348 0.0039591362278231313 0 -0.0053316553409243194 0.00377397499974009 0 -0.0044713322918737567 0.005461733242632427 0 -0.0046096649861736396 0.0054229008951543157 0 -0.0046386053127558348 0.0039591362278231313 0 -0.0044713322918737567 0.005461733242632427 0 -0.0046386053127558348 0.0039591362278231313 0 -0.0042487465090754878 0.003830035839102046 0 -0.0045209809825518437 0.00204357256106399 0 -0.0046386053127558348 0.0039591362278231313 0 -0.0042487465090754878 0.003830035839102046 0 -0.0054883515356976059 0.0014313398017456063 0 -0.0045209809825518437 0.00204357256106399 0 -0.0046386053127558348 0.0039591362278231313 0 -0.0054883515356976059 0.0014313398017456063 0 -0.0046386053127558348 0.0039591362278231313 0 -0.0053316553409243194 0.00377397499974009 0 -0.0045209809825518437 0.00204357256106399 0 -0.0039118923619802601 0.0019850972994334077 0 -0.0042487465090754878 0.003830035839102046 0 -0.0039961665079929027 0.0031616896229101268 0 -0.0039118923619802601 0.0019850972994334077 0 -0.0042487465090754878 0.003830035839102046 0 -0.0044713322918737567 0.005461733242632427 0 -0.0044535727980198545 0.0043320154311608829 0 -0.0046214874215000958 0.0041575810822459813 0 -0.0039961665079929027 0.0031616896229101268 0 -0.0043914674751101123 0.00364768453674791 0 -0.0044535727980198545 0.0043320154311608829 0 -0.0039961665079929027 0.0031616896229101268 0 -0.0042487465090754878 0.003830035839102046 0 -0.0044535727980198545 0.0043320154311608829 0 -0.0044713322918737567 0.005461733242632427 0 -0.0042487465090754878 0.003830035839102046 0 -0.0044535727980198545 0.0043320154311608829 0 -0.0043914674751101123 0.00364768453674791 0 -0.0044535727980198545 0.0043320154311608829 0 -0.0046187247830050153 0.0035618247823967714 0 -0.0044535727980198545 0.0043320154311608829 0 -0.0046214874215000958 0.0041575810822459813 0 -0.0046187247830050153 0.0035618247823967714 0 -0.0046214874215000958 0.0041575810822459813 0 -0.0046187247830050153 0.0035618247823967714 0 -0.0044864072643357776 0.0028004711057305468 0 -0.0046214874215000958 0.0041575810822459813 0 -0.0044864072643357776 0.0028004711057305468 0 -0.0042870832107384065 0.0030094282569764117 0 -0.0046187247830050153 0.0035618247823967714 0 -0.0046591103071048807 0.0025895856161641684 0 -0.0044864072643357776 0.0028004711057305468 0 -0.0046591103071048807 0.0025895856161641684 0 -0.0044864072643357776 0.0028004711057305468 0 -0.004174071627035981 0.0011401348078207603 0 -0.0044864072643357776 0.0028004711057305468 0 -0.004174071627035981 0.0011401348078207603 0 -0.0042870832107384065 0.0030094282569764117 0 -0.0046591103071048807 0.0025895856161641684 0 -0.004174071627035981 0.0011401348078207603 0 -0.0045838840588396049 0.0014576900953267406 0 -0.0029306364570893988 0.0014984913660618447 0 -0.001906787793810474 -0.0005778043733989164 0 -0.0030855162767335362 0.00027124256816973282 0 -0.0042870832107384065 0.0030094282569764117 0 -0.0029306364570893988 0.0014984913660618447 0 -0.0030855162767335362 0.00027124256816973282 0 -0.004174071627035981 0.0011401348078207603 0 -0.0042870832107384065 0.0030094282569764117 0 -0.0030855162767335362 0.00027124256816973282 0 -0.0042870832107384065 0.0030094282569764117 0 -0.0040676439106407782 0.0045854729899266157 0 -0.0029306364570893988 0.0014984913660618447 0 -0.0044713322918737567 0.005461733242632427 0 -0.0046214874215000958 0.0041575810822459813 0 -0.0045877279209733416 0.005486274530139508 0 -0.0042870832107384065 0.0030094282569764117 0 -0.0045877279209733416 0.005486274530139508 0 -0.0040676439106407782 0.0045854729899266157 0 -0.0046214874215000958 0.0041575810822459813 0 -0.0042870832107384065 0.0030094282569764117 0 -0.0045877279209733416 0.005486274530139508 0 -0.0045877279209733416 0.005486274530139508 0 -0.0043189068710934812 0.0068724229353339106 0 -0.0040676439106407782 0.0045854729899266157 0 -0.0037762277271451835 0.0092972219079631747 0 -0.0043189068710934812 0.0068724229353339106 0 -0.003630227118332822 0.0072081196218137826 0 -0.0043189068710934812 0.0068724229353339106 0 -0.003630227118332822 0.0072081196218137826 0 -0.0040676439106407782 0.0045854729899266157 0 -0.0037762277271451835 0.0092972219079631747 0 -0.003630227118332822 0.0072081196218137826 0 -0.0016462850887381771 0.012541196468432417 0 -0.003630227118332822 0.0072081196218137826 0 -0.00018268410762179268 0.0042433905410035376 0 -0.0021023411250147075 0.0025688100751704956 0 -0.003630227118332822 0.0072081196218137826 0 -0.0040676439106407782 0.0045854729899266157 0 -0.0021023411250147075 0.0025688100751704956 0 -0.0016462850887381771 0.012541196468432417 0 -0.0067142457128736115 0.031139412057771418 0 -0.011066766415679502 0.018280627796997354 0 -0.003630227118332822 0.0072081196218137826 0 -0.0016462850887381771 0.012541196468432417 0 -0.00018268410762179268 0.0042433905410035376 0 -0.22967237017896147 -0.023922527211016495 0 0.061083547511061209 0.045661004751540973 0 -0.0016462850887381771 0.012541196468432417 0 0.0048352604101537808 0.031116669567710902 0 -0.0067142457128736115 0.031139412057771418 0 -0.0067142457128736115 0.031139412057771418 0 0.0087328322060132198 0.046306058916033503 0 -0.0082964747085234689 0.043889061779221569 0 0.061083547511061209 0.045661004751540973 0 -0.015857023751397234 0.01110274747276381 0 -0.00018268410762179268 0.0042433905410035376 0 0.00037119760119836613 0.00081304049240572601 0 -0.0021023411250147075 0.0025688100751704956 0 0.0048352604101537808 0.031116669567710902 0 -0.0067142457128736115 0.031139412057771418 0 0.0087328322060132198 0.046306058916033503 0 -0.015857023751397234 0.01110274747276381 0 0.0049463622105961969 0.034414822769526045 0 0.00037119760119836613 0.00081304049240572601 0 -0.00086049520583068417 -0.00022426445875362811 0 0.00095180483920696759 -0.0015830996141176687 0 0.0087328322060132198 0.046306058916033503 0 0.00074028121558613203 0.055537706009754717 0 -0.0082964747085234689 0.043889061779221569 0 -0.0040676439106407782 0.0045854729899266157 0 -0.0021023411250147075 0.0025688100751704956 0 -0.0029306364570893988 0.0014984913660618447 0 0.00037119760119836613 0.00081304049240572601 0 -0.0021023411250147075 0.0025688100751704956 0 -0.00086049520583068417 -0.00022426445875362811 0 -0.0021023411250147075 0.0025688100751704956 0 -0.00086049520583068417 -0.00022426445875362811 0 -0.0029306364570893988 0.0014984913660618447 0 -0.00086049520583068417 -0.00022426445875362811 0 -0.0029306364570893988 0.0014984913660618447 0 -0.001906787793810474 -0.0005778043733989164 0 -0.00086049520583068417 -0.00022426445875362811 0 -0.001906787793810474 -0.0005778043733989164 0 -0.00031037402325702492 -0.002349914970697906 0 -0.00086049520583068417 -0.00022426445875362811 0 -0.00031037402325702492 -0.002349914970697906 0 0.00095180483920696759 -0.0015830996141176687 0 -0.00031037402325702492 -0.002349914970697906 0 0.00095180483920696759 -0.0015830996141176687 0 0.0016575383830688352 -0.0036136113171121908 0 -0.001906787793810474 -0.0005778043733989164 0 -0.00031037402325702492 -0.002349914970697906 0 -0.0017791134549096828 -0.0018467329210592558 0 0.00074028121558613203 0.055537706009754717 0 0.0030073626706079511 0.065727786245718817 0 -0.0097089496878264205 0.059584883679055949 0 0.00074028121558613203 0.055537706009754717 0 0.012121741284097534 0.061816255182755138 0 0.0030073626706079511 0.065727786245718817 0 0.0087328322060132198 0.046306058916033503 0 0.00074028121558613203 0.055537706009754717 0 0.012121741284097534 0.061816255182755138 0 0.0049463622105961969 0.034414822769526045 0 -0.00069171810335449209 0.035071705615089349 0 0.012121741284097534 0.061816255182755138 0 0.0030073626706079511 0.065727786245718817 0 0.014876228809620511 0.077852375719367595 0 0.0030073626706079511 0.065727786245718817 0 0.014876228809620511 0.077852375719367595 0 -0.0022993180343823913 0.074184840944069519 0 0.014876228809620511 0.077852375719367595 0 0.0030759854466976674 0.085462858622660204 0 -0.0022993180343823913 0.074184840944069519 0 0.014876228809620511 0.077852375719367595 0 0.017219170948429521 0.094458348486328989 0 0.0030759854466976674 0.085462858622660204 0 0.0016575383830688352 -0.0036136113171121908 0 0.0023890683225146446 -0.0055542756073849115 0 0.00087771010951538783 -0.0043996947947888849 0 -0.00069171810335449209 0.035071705615089349 0 0.00028742705978907157 0.04448601002570552 0 0.017219170948429521 0.094458348486328989 0 0.0030759854466976674 0.085462858622660204 0 -2.034496518298919e-05 0.096482115600373744 0 -0.00031037402325702492 -0.002349914970697906 0 -0.00059955781203748578 -0.0035892520499894139 0 0.00087771010951538783 -0.0043996947947888849 0 -0.00031037402325702492 -0.002349914970697906 0 -0.00059955781203748578 -0.0035892520499894139 0 -0.0017791134549096828 -0.0018467329210592558 0 -0.00031037402325702492 -0.002349914970697906 0 0.0016575383830688352 -0.0036136113171121908 0 0.00087771010951538783 -0.0043996947947888849 0 -0.00059955781203748578 -0.0035892520499894139 0 0.00087771010951538783 -0.0043996947947888849 0 -0.0002044413343193962 -0.004911449626107298 0 0.00087771010951538783 -0.0043996947947888849 0 -0.0002044413343193962 -0.004911449626107298 0 0.0015114853590183885 -0.0062707591433889221 0 -0.00059955781203748578 -0.0035892520499894139 0 -0.0002044413343193962 -0.004911449626107298 0 -0.0020573954967079483 -0.0030911022001973358 0 -0.0002044413343193962 -0.004911449626107298 0 -0.0020573954967079483 -0.0030911022001973358 0 -0.00089077459685534715 -0.0053529877619140622 0 -0.00059955781203748578 -0.0035892520499894139 0 -0.0020573954967079483 -0.0030911022001973358 0 -0.0017791134549096828 -0.0018467329210592558 0 -0.0020573954967079483 -0.0030911022001973358 0 -0.0036018916205661066 -0.00091743596297057728 0 -0.0028509705606147343 -0.0012741968019163534 0 -0.0020573954967079483 -0.0030911022001973358 0 -0.0017791134549096828 -0.0018467329210592558 0 -0.0028509705606147343 -0.0012741968019163534 0 -0.0020573954967079483 -0.0030911022001973358 0 -0.0033456547818567512 -0.0022565371167098968 0 -0.0022719811551203404 -0.0045683101777313113 0 -0.0033456547818567512 -0.0022565371167098968 0 -0.0022719811551203404 -0.0045683101777313113 0 -0.0037101764587105022 -0.0027141368218836035 0 -0.0033456547818567512 -0.0022565371167098968 0 -0.0036018916205661066 -0.00091743596297057728 0 -0.0041682698279293098 -0.0010568911429963336 0 -0.0020573954967079483 -0.0030911022001973358 0 -0.0033456547818567512 -0.0022565371167098968 0 -0.0036018916205661066 -0.00091743596297057728 0 -0.004174071627035981 0.0011401348078207603 0 -0.0036018916205661066 -0.00091743596297057728 0 -0.0028509705606147343 -0.0012741968019163534 0 -0.0036018916205661066 -0.00091743596297057728 0 -0.0042644987395421561 0.00017792760935990412 0 -0.0041682698279293098 -0.0010568911429963336 0 -0.004174071627035981 0.0011401348078207603 0 -0.0036018916205661066 -0.00091743596297057728 0 -0.0042644987395421561 0.00017792760935990412 0 -0.004174071627035981 0.0011401348078207603 0 -0.0045838840588396049 0.0014576900953267406 0 -0.0042644987395421561 0.00017792760935990412 0 -0.004174071627035981 0.0011401348078207603 0 -0.0030855162767335362 0.00027124256816973282 0 -0.0028509705606147343 -0.0012741968019163534 0 -0.001906787793810474 -0.0005778043733989164 0 -0.0030855162767335362 0.00027124256816973282 0 -0.0017791134549096828 -0.0018467329210592558 0 -0.0030855162767335362 0.00027124256816973282 0 -0.0017791134549096828 -0.0018467329210592558 0 -0.0028509705606147343 -0.0012741968019163534 0 -0.067745544420696899 0.045284602912470849 0 -0.056047357341498565 0.05056460909559353 0 -0.056607793871513733 0.037783731450526499 0 -0.067745544420696899 0.045284602912470849 0 -0.056047357341498565 0.05056460909559353 0 -0.070826288898423337 0.059662497832390887 0 -0.056047357341498565 0.05056460909559353 0 -0.056607793871513733 0.037783731450526499 0 -0.04686005757623847 0.038269684838109504 0 -0.067745544420696899 0.045284602912470849 0 -0.056607793871513733 0.037783731450526499 0 -0.063871010258024691 0.032329421740633101 0 -0.063871010258024691 0.032329421740633101 0 -0.060057761164491782 0.021203731245663625 0 -0.048947522944591405 0.024738288276474098 0 -0.056607793871513733 0.037783731450526499 0 -0.048947522944591405 0.024738288276474098 0 -0.04686005757623847 0.038269684838109504 0 -0.056607793871513733 0.037783731450526499 0 -0.063871010258024691 0.032329421740633101 0 -0.048947522944591405 0.024738288276474098 0 -0.048947522944591405 0.024738288276474098 0 -0.03952534109766985 0.030646969463812727 0 -0.04686005757623847 0.038269684838109504 0 -0.048947522944591405 0.024738288276474098 0 -0.03557354246169997 0.019827842966416966 0 -0.03952534109766985 0.030646969463812727 0 -0.03952534109766985 0.030646969463812727 0 -0.038420767459995925 0.039739852621398626 0 -0.030334771263727099 0.032898427585035202 0 -0.03952534109766985 0.030646969463812727 0 -0.038420767459995925 0.039739852621398626 0 -0.04686005757623847 0.038269684838109504 0 -0.038420767459995925 0.039739852621398626 0 -0.04686005757623847 0.038269684838109504 0 -0.043357198572982099 0.049882445783341806 0 -0.056047357341498565 0.05056460909559353 0 -0.04686005757623847 0.038269684838109504 0 -0.043357198572982099 0.049882445783341806 0 -0.038420767459995925 0.039739852621398626 0 -0.043357198572982099 0.049882445783341806 0 -0.031882613863427493 0.048317293408731164 0 -0.031882613863427493 0.048317293408731164 0 -0.020310046394568085 0.045360511738079971 0 -0.023893011160425984 0.05968815249435918 0 -0.031882613863427493 0.048317293408731164 0 -0.030334771263727099 0.032898427585035202 0 -0.020310046394568085 0.045360511738079971 0 -0.030334771263727099 0.032898427585035202 0 -0.017937473862388437 0.029515542974135334 0 -0.020310046394568085 0.045360511738079971 0 -0.038420767459995925 0.039739852621398626 0 -0.031882613863427493 0.048317293408731164 0 -0.030334771263727099 0.032898427585035202 0 -0.03557354246169997 0.019827842966416966 0 -0.03952534109766985 0.030646969463812727 0 -0.030334771263727099 0.032898427585035202 0 -0.03557354246169997 0.019827842966416966 0 -0.030334771263727099 0.032898427585035202 0 -0.025162055113277321 0.01991389446978058 0 -0.030334771263727099 0.032898427585035202 0 -0.025162055113277321 0.01991389446978058 0 -0.017937473862388437 0.029515542974135334 0 -0.025162055113277321 0.01991389446978058 0 -0.017937473862388437 0.029515542974135334 0 -0.01782831421101223 0.01930992234692451 0 -0.017937473862388437 0.029515542974135334 0 -0.01782831421101223 0.01930992234692451 0 -0.011066766415679502 0.018280627796997354 0 -0.0067142457128736115 0.031139412057771418 0 -0.017937473862388437 0.029515542974135334 0 -0.011066766415679502 0.018280627796997354 0 -0.0067142457128736115 0.031139412057771418 0 -0.017937473862388437 0.029515542974135334 0 -0.0082964747085234689 0.043889061779221569 0 -0.017937473862388437 0.029515542974135334 0 -0.020310046394568085 0.045360511738079971 0 -0.0082964747085234689 0.043889061779221569 0 -0.020310046394568085 0.045360511738079971 0 -0.0082964747085234689 0.043889061779221569 0 -0.0097089496878264205 0.059584883679055949 0 0.00074028121558613203 0.055537706009754717 0 -0.0082964747085234689 0.043889061779221569 0 -0.0097089496878264205 0.059584883679055949 0 -0.020310046394568085 0.045360511738079971 0 -0.0097089496878264205 0.059584883679055949 0 -0.023893011160425984 0.05968815249435918 0 -0.0097089496878264205 0.059584883679055949 0 -0.015660724688988638 0.069714734977953288 0 -0.023893011160425984 0.05968815249435918 0 -0.0097089496878264205 0.059584883679055949 0 -0.015660724688988638 0.069714734977953288 0 -0.0022993180343823913 0.074184840944069519 0 0.0030073626706079511 0.065727786245718817 0 -0.0097089496878264205 0.059584883679055949 0 -0.0022993180343823913 0.074184840944069519 0 0.0030759854466976674 0.085462858622660204 0 -0.0022993180343823913 0.074184840944069519 0 -0.01354737564456605 0.084488058219361964 0 0.0030759854466976674 0.085462858622660204 0 -0.01354737564456605 0.084488058219361964 0 -2.034496518298919e-05 0.096482115600373744 0 -0.015660724688988638 0.069714734977953288 0 -0.0022993180343823913 0.074184840944069519 0 -0.01354737564456605 0.084488058219361964 0 -0.015660724688988638 0.069714734977953288 0 -0.01354737564456605 0.084488058219361964 0 -0.028299039126013868 0.071264965708870615 0 -0.01354737564456605 0.084488058219361964 0 -0.030600088358059878 0.085032690416313589 0 -0.028299039126013868 0.071264965708870615 0 -0.01354737564456605 0.084488058219361964 0 -0.030600088358059878 0.085032690416313589 0 -0.026949893726585978 0.098795804282550373 0 -0.030600088358059878 0.085032690416313589 0 -0.028299039126013868 0.071264965708870615 0 -0.042064624363866598 0.083420507840661171 0 -0.028299039126013868 0.071264965708870615 0 -0.037980446830553641 0.063687978103369056 0 -0.042064624363866598 0.083420507840661171 0 -0.028299039126013868 0.071264965708870615 0 -0.023893011160425984 0.05968815249435918 0 -0.037980446830553641 0.063687978103369056 0 -0.015660724688988638 0.069714734977953288 0 -0.028299039126013868 0.071264965708870615 0 -0.023893011160425984 0.05968815249435918 0 -0.031882613863427493 0.048317293408731164 0 -0.023893011160425984 0.05968815249435918 0 -0.037980446830553641 0.063687978103369056 0 -0.043357198572982099 0.049882445783341806 0 -0.031882613863427493 0.048317293408731164 0 -0.037980446830553641 0.063687978103369056 0 -0.043357198572982099 0.049882445783341806 0 -0.049184045143776174 0.060842078062400481 0 -0.037980446830553641 0.063687978103369056 0 -0.056047357341498565 0.05056460909559353 0 -0.043357198572982099 0.049882445783341806 0 -0.049184045143776174 0.060842078062400481 0 -0.049184045143776174 0.060842078062400481 0 -0.049526570668503772 0.071807530213155224 0 -0.060199905280901717 0.068694602600860452 0 -0.049184045143776174 0.060842078062400481 0 -0.037980446830553641 0.063687978103369056 0 -0.049526570668503772 0.071807530213155224 0 -0.037980446830553641 0.063687978103369056 0 -0.042064624363866598 0.083420507840661171 0 -0.049526570668503772 0.071807530213155224 0 -0.030600088358059878 0.085032690416313589 0 -0.042064624363866598 0.083420507840661171 0 -0.040605194346574627 0.098282891766709124 0 -0.042064624363866598 0.083420507840661171 0 -0.058600260663024491 0.08323154867520538 0 -0.051214570332815346 0.094100664717297972 0 -0.042064624363866598 0.083420507840661171 0 -0.049526570668503772 0.071807530213155224 0 -0.058600260663024491 0.08323154867520538 0 -0.049526570668503772 0.071807530213155224 0 -0.058600260663024491 0.08323154867520538 0 -0.060199905280901717 0.068694602600860452 0 -0.058600260663024491 0.08323154867520538 0 -0.07335496211399882 0.0752536561978744 0 -0.075105087146768751 0.091577730345110159 0 -0.058600260663024491 0.08323154867520538 0 -0.075105087146768751 0.091577730345110159 0 -0.062478347391610727 0.098554896332940317 0 -0.058600260663024491 0.08323154867520538 0 -0.07335496211399882 0.0752536561978744 0 -0.060199905280901717 0.068694602600860452 0 -0.07335496211399882 0.0752536561978744 0 -0.060199905280901717 0.068694602600860452 0 -0.070826288898423337 0.059662497832390887 0 -0.056047357341498565 0.05056460909559353 0 -0.049184045143776174 0.060842078062400481 0 -0.060199905280901717 0.068694602600860452 0 -0.056047357341498565 0.05056460909559353 0 -0.060199905280901717 0.068694602600860452 0 -0.070826288898423337 0.059662497832390887 0 -0.076998528438837671 0.12551249487654509 0 -0.055643761221597511 0.1264879061196871 0 -0.061780247413647668 0.14272566022360145 0 -0.076998528438837671 0.12551249487654509 0 -0.064409097188563733 0.1135863387533846 0 -0.055643761221597511 0.1264879061196871 0 -0.064409097188563733 0.1135863387533846 0 -0.052499164720938726 0.10757597700851609 0 -0.055643761221597511 0.1264879061196871 0 -0.076998528438837671 0.12551249487654509 0 -0.064409097188563733 0.1135863387533846 0 -0.076335391722005555 0.10839689600088909 0 -0.064409097188563733 0.1135863387533846 0 -0.076335391722005555 0.10839689600088909 0 -0.062478347391610727 0.098554896332940317 0 -0.076335391722005555 0.10839689600088909 0 -0.075105087146768751 0.091577730345110159 0 -0.062478347391610727 0.098554896332940317 0 -0.058600260663024491 0.08323154867520538 0 -0.062478347391610727 0.098554896332940317 0 -0.051214570332815346 0.094100664717297972 0 -0.064409097188563733 0.1135863387533846 0 -0.062478347391610727 0.098554896332940317 0 -0.052499164720938726 0.10757597700851609 0 -0.052499164720938726 0.10757597700851609 0 -0.051214570332815346 0.094100664717297972 0 -0.040605194346574627 0.098282891766709124 0 -0.062478347391610727 0.098554896332940317 0 -0.052499164720938726 0.10757597700851609 0 -0.051214570332815346 0.094100664717297972 0 -0.042064624363866598 0.083420507840661171 0 -0.051214570332815346 0.094100664717297972 0 -0.040605194346574627 0.098282891766709124 0 -0.052499164720938726 0.10757597700851609 0 -0.040605194346574627 0.098282891766709124 0 -0.040454858107667933 0.11297512469001438 0 -0.040454858107667933 0.11297512469001438 0 -0.055643761221597511 0.1264879061196871 0 -0.039388549126621375 0.12846244968370185 0 -0.052499164720938726 0.10757597700851609 0 -0.040454858107667933 0.11297512469001438 0 -0.055643761221597511 0.1264879061196871 0 -0.055643761221597511 0.1264879061196871 0 -0.039388549126621375 0.12846244968370185 0 -0.045427453384886393 0.14494450585337504 0 -0.039388549126621375 0.12846244968370185 0 -0.028392988435817054 0.11880210966915444 0 -0.027020532927435129 0.13758139239855899 0 -0.028392988435817054 0.11880210966915444 0 -0.014968476108619551 0.12639316529194547 0 -0.027020532927435129 0.13758139239855899 0 -0.028392988435817054 0.11880210966915444 0 -0.018138999048390576 0.10999558124157098 0 -0.014968476108619551 0.12639316529194547 0 -0.040454858107667933 0.11297512469001438 0 -0.039388549126621375 0.12846244968370185 0 -0.028392988435817054 0.11880210966915444 0 -0.040605194346574627 0.098282891766709124 0 -0.040454858107667933 0.11297512469001438 0 -0.026949893726585978 0.098795804282550373 0 -0.040454858107667933 0.11297512469001438 0 -0.028392988435817054 0.11880210966915444 0 -0.026949893726585978 0.098795804282550373 0 -0.030600088358059878 0.085032690416313589 0 -0.040605194346574627 0.098282891766709124 0 -0.026949893726585978 0.098795804282550373 0 -0.026949893726585978 0.098795804282550373 0 -0.018138999048390576 0.10999558124157098 0 -0.012861588938169341 0.10015346080932086 0 -0.028392988435817054 0.11880210966915444 0 -0.026949893726585978 0.098795804282550373 0 -0.018138999048390576 0.10999558124157098 0 -0.018138999048390576 0.10999558124157098 0 -0.012861588938169341 0.10015346080932086 0 -0.0052636208070025153 0.11108423624730494 0 -0.01354737564456605 0.084488058219361964 0 -0.012861588938169341 0.10015346080932086 0 -2.034496518298919e-05 0.096482115600373744 0 -0.01354737564456605 0.084488058219361964 0 -0.026949893726585978 0.098795804282550373 0 -0.012861588938169341 0.10015346080932086 0 -0.012861588938169341 0.10015346080932086 0 -2.034496518298919e-05 0.096482115600373744 0 -0.0052636208070025153 0.11108423624730494 0 -2.034496518298919e-05 0.096482115600373744 0 -0.0052636208070025153 0.11108423624730494 0 0.007757736733048348 0.10616321963304279 0 -0.0052636208070025153 0.11108423624730494 0 -0.014968476108619551 0.12639316529194547 0 0.00064456392492516132 0.12976878451898058 0 -0.0052636208070025153 0.11108423624730494 0 0.00064456392492516132 0.12976878451898058 0 0.0077678181290159517 0.11745241294039732 0 -0.018138999048390576 0.10999558124157098 0 -0.0052636208070025153 0.11108423624730494 0 -0.014968476108619551 0.12639316529194547 0 -0.014968476108619551 0.12639316529194547 0 0.00064456392492516132 0.12976878451898058 0 -0.0100997178499799 0.14601722005477044 0 0.00064456392492516132 0.12976878451898058 0 -0.0100997178499799 0.14601722005477044 0 0.0066376843269318848 0.14572423815994548 0 -0.0100997178499799 0.14601722005477044 0 0.0039653779603213849 0.16089185852828486 0 -0.012134209006115481 0.16356660074289026 0 -0.0100997178499799 0.14601722005477044 0 0.0039653779603213849 0.16089185852828486 0 0.0066376843269318848 0.14572423815994548 0 0.0039653779603213849 0.16089185852828486 0 -0.001917788745743296 0.17110819710466466 0 -0.012134209006115481 0.16356660074289026 0 0.0039653779603213849 0.16089185852828486 0 -0.001917788745743296 0.17110819710466466 0 0.012391437540348885 0.17084922583359916 0 -0.001917788745743296 0.17110819710466466 0 0.012391437540348885 0.17084922583359916 0 0.0072537694743445742 0.18047043199278676 0 -0.001917788745743296 0.17110819710466466 0 -0.010041641339347086 0.17946954732273221 0 0.0072537694743445742 0.18047043199278676 0 -0.001917788745743296 0.17110819710466466 0 -0.010041641339347086 0.17946954732273221 0 -0.012134209006115481 0.16356660074289026 0 -0.026870619272726399 0.17851425859569595 0 -0.027519164167796685 0.15696459782759623 0 -0.042420210989241293 0.16219716796210978 0 -0.012134209006115481 0.16356660074289026 0 -0.026870619272726399 0.17851425859569595 0 -0.027519164167796685 0.15696459782759623 0 -0.010041641339347086 0.17946954732273221 0 -0.012134209006115481 0.16356660074289026 0 -0.026870619272726399 0.17851425859569595 0 -0.027519164167796685 0.15696459782759623 0 -0.027020532927435129 0.13758139239855899 0 -0.045427453384886393 0.14494450585337504 0 -0.0100997178499799 0.14601722005477044 0 -0.012134209006115481 0.16356660074289026 0 -0.027519164167796685 0.15696459782759623 0 -0.0100997178499799 0.14601722005477044 0 -0.027519164167796685 0.15696459782759623 0 -0.027020532927435129 0.13758139239855899 0 -0.014968476108619551 0.12639316529194547 0 -0.0100997178499799 0.14601722005477044 0 -0.027020532927435129 0.13758139239855899 0 -0.039388549126621375 0.12846244968370185 0 -0.027020532927435129 0.13758139239855899 0 -0.045427453384886393 0.14494450585337504 0 -0.055643761221597511 0.1264879061196871 0 -0.045427453384886393 0.14494450585337504 0 -0.061780247413647668 0.14272566022360145 0 -0.045427453384886393 0.14494450585337504 0 -0.042420210989241293 0.16219716796210978 0 -0.058413963128393302 0.15824668414597973 0 -0.045427453384886393 0.14494450585337504 0 -0.058413963128393302 0.15824668414597973 0 -0.061780247413647668 0.14272566022360145 0 -0.027519164167796685 0.15696459782759623 0 -0.045427453384886393 0.14494450585337504 0 -0.042420210989241293 0.16219716796210978 0 -0.026870619272726399 0.17851425859569595 0 -0.042420210989241293 0.16219716796210978 0 -0.043462716655917319 0.17775682727125783 0 -0.043462716655917319 0.17775682727125783 0 -0.051964229557328837 0.16878298520064242 0 -0.060212462000613476 0.17718852064930374 0 -0.042420210989241293 0.16219716796210978 0 -0.043462716655917319 0.17775682727125783 0 -0.051964229557328837 0.16878298520064242 0 -0.042420210989241293 0.16219716796210978 0 -0.051964229557328837 0.16878298520064242 0 -0.058413963128393302 0.15824668414597973 0 -0.051964229557328837 0.16878298520064242 0 -0.058413963128393302 0.15824668414597973 0 -0.06592450723658981 0.1674656633639966 0 -0.051964229557328837 0.16878298520064242 0 -0.06592450723658981 0.1674656633639966 0 -0.060212462000613476 0.17718852064930374 0 -0.06592450723658981 0.1674656633639966 0 -0.060212462000613476 0.17718852064930374 0 -0.077051464174513043 0.17674947186838683 0 -0.06592450723658981 0.1674656633639966 0 -0.077051464174513043 0.17674947186838683 0 -0.07723119199664813 0.15983445998318993 0 -0.058413963128393302 0.15824668414597973 0 -0.06592450723658981 0.1674656633639966 0 -0.07723119199664813 0.15983445998318993 0 -0.07723119199664813 0.15983445998318993 0 -0.061780247413647668 0.14272566022360145 0 -0.077251347958540162 0.14275389505668573 0 -0.058413963128393302 0.15824668414597973 0 -0.07723119199664813 0.15983445998318993 0 -0.061780247413647668 0.14272566022360145 0 -0.076998528438837671 0.12551249487654509 0 -0.061780247413647668 0.14272566022360145 0 -0.077251347958540162 0.14275389505668573 0 -0.0002829469814043533 -0.0069767053709297458 0 -0.00027108209180854267 -0.0085286072871455232 0 -0.0014035225352457671 -0.0067205675562570519 0 -0.0002829469814043533 -0.0069767053709297458 0 0.0011432801816031151 -0.0092808840833127106 0 0.0012938432175814674 -0.0082730251171505217 0 -0.0002829469814043533 -0.0069767053709297458 0 0.00057312194330511317 -0.0067701612494594082 0 0.0012938432175814674 -0.0082730251171505217 0 -0.0002829469814043533 -0.0069767053709297458 0 0.0011432801816031151 -0.0092808840833127106 0 -0.00027108209180854267 -0.0085286072871455232 0 -0.00027108209180854267 -0.0085286072871455232 0 -0.0017745537749792356 -0.0076242651467166985 0 -0.0014035225352457671 -0.0067205675562570519 0 -0.0017745537749792356 -0.0076242651467166985 0 -0.0025635219560544171 -0.0056138785677448903 0 -0.0014035225352457671 -0.0067205675562570519 0 -0.0017745537749792356 -0.0076242651467166985 0 -0.0025635219560544171 -0.0056138785677448903 0 -0.0028321700935722478 -0.0063288784191947037 0 -0.0025635219560544171 -0.0056138785677448903 0 -0.0014035225352457671 -0.0067205675562570519 0 -0.0022719811551203404 -0.0045683101777313113 0 -0.0025635219560544171 -0.0056138785677448903 0 -0.0022719811551203404 -0.0045683101777313113 0 -0.0031921522057661222 -0.0041985811196137927 0 -0.0022719811551203404 -0.0045683101777313113 0 -0.0031921522057661222 -0.0041985811196137927 0 -0.0037101764587105022 -0.0027141368218836035 0 -0.0020573954967079483 -0.0030911022001973358 0 -0.0022719811551203404 -0.0045683101777313113 0 -0.00089077459685534715 -0.0053529877619140622 0 -0.0002829469814043533 -0.0069767053709297458 0 -0.0022719811551203404 -0.0045683101777313113 0 -0.00089077459685534715 -0.0053529877619140622 0 -0.0002829469814043533 -0.0069767053709297458 0 -0.0014035225352457671 -0.0067205675562570519 0 -0.0022719811551203404 -0.0045683101777313113 0 -0.0002829469814043533 -0.0069767053709297458 0 -0.00089077459685534715 -0.0053529877619140622 0 0.00057312194330511317 -0.0067701612494594082 0 -0.0002044413343193962 -0.004911449626107298 0 -0.00089077459685534715 -0.0053529877619140622 0 0.00057312194330511317 -0.0067701612494594082 0 -0.0002044413343193962 -0.004911449626107298 0 0.0015114853590183885 -0.0062707591433889221 0 0.00057312194330511317 -0.0067701612494594082 0 0.0023890683225146446 -0.0055542756073849115 0 0.00087771010951538783 -0.0043996947947888849 0 0.0015114853590183885 -0.0062707591433889221 0 0.0015114853590183885 -0.0062707591433889221 0 0.0031901809253590744 -0.0074636732491914996 0 0.0023992298443864632 -0.008183055127043053 0 0.0015114853590183885 -0.0062707591433889221 0 0.00057312194330511317 -0.0067701612494594082 0 0.0023992298443864632 -0.008183055127043053 0 0.017219170948429521 0.094458348486328989 0 -2.034496518298919e-05 0.096482115600373744 0 0.007757736733048348 0.10616321963304279 0 0.017219170948429521 0.094458348486328989 0 0.019222197707486288 0.11146412990329874 0 0.007757736733048348 0.10616321963304279 0 0.0023890683225146446 -0.0055542756073849115 0 0.0015114853590183885 -0.0062707591433889221 0 0.0031901809253590744 -0.0074636732491914996 0 0.00028742705978907157 0.04448601002570552 0 -0.0008032058250560109 0.053620038246812107 0 -0.0052636208070025153 0.11108423624730494 0 0.007757736733048348 0.10616321963304279 0 0.0077678181290159517 0.11745241294039732 0 0.019222197707486288 0.11146412990329874 0 0.007757736733048348 0.10616321963304279 0 0.0077678181290159517 0.11745241294039732 0 0.00064456392492516132 0.12976878451898058 0 0.0077678181290159517 0.11745241294039732 0 0.020804991523507087 0.12877073342198808 0 -0.0008032058250560109 0.053620038246812107 0 -0.0022309898356798574 0.055659788740696103 0 0.0031901809253590744 -0.0074636732491914996 0 0.004061312953516776 -0.0094144293591188269 0 0.0023992298443864632 -0.008183055127043053 0 0.019222197707486288 0.11146412990329874 0 0.0077678181290159517 0.11745241294039732 0 0.020804991523507087 0.12877073342198808 0 -0.0022309898356798574 0.055659788740696103 0 -0.002513306273737297 0.075752905041943069 0 0.00064456392492516132 0.12976878451898058 0 0.020804991523507087 0.12877073342198808 0 0.0066376843269318848 0.14572423815994548 0 0.00057312194330511317 -0.0067701612494594082 0 0.0012938432175814674 -0.0082730251171505217 0 0.0023992298443864632 -0.008183055127043053 0 0.004061312953516776 -0.0094144293591188269 0 0.0023992298443864632 -0.008183055127043053 0 0.0028779207350462651 -0.01011063968466804 0 0.0011432801816031151 -0.0092808840833127106 0 0.0012938432175814674 -0.0082730251171505217 0 0.0028779207350462651 -0.01011063968466804 0 0.0012938432175814674 -0.0082730251171505217 0 0.0023992298443864632 -0.008183055127043053 0 0.0028779207350462651 -0.01011063968466804 0 0.0028779207350462651 -0.01011063968466804 0 0.0041435519206903144 -0.011979186322151999 0 0.0025522604754775291 -0.011317539178400471 0 0.0011432801816031151 -0.0092808840833127106 0 0.0028779207350462651 -0.01011063968466804 0 0.0025522604754775291 -0.011317539178400471 0 0.004061312953516776 -0.0094144293591188269 0 0.0028779207350462651 -0.01011063968466804 0 0.0050538762052713924 -0.011419840719047968 0 0.0028779207350462651 -0.01011063968466804 0 0.0041435519206903144 -0.011979186322151999 0 0.0050538762052713924 -0.011419840719047968 0 0.0041435519206903144 -0.011979186322151999 0 0.0025522604754775291 -0.011317539178400471 0 0.0045029698604967328 -0.013427588769775331 0 0.020804991523507087 0.12877073342198808 0 0.0066376843269318848 0.14572423815994548 0 0.022171477377001269 0.14621102524462148 0 -0.002513306273737297 0.075752905041943069 0 -0.0092024005432591628 0.061716851263956707 0 0.0041435519206903144 -0.011979186322151999 0 0.0050538762052713924 -0.011419840719047968 0 0.0062034236743424955 -0.013561596845770477 0 0.0066376843269318848 0.14572423815994548 0 0.022171477377001269 0.14621102524462148 0 0.023412432614198026 0.16367073677215627 0 0.0039653779603213849 0.16089185852828486 0 0.0066376843269318848 0.14572423815994548 0 0.023412432614198026 0.16367073677215627 0 0.0039653779603213849 0.16089185852828486 0 0.023412432614198026 0.16367073677215627 0 0.012391437540348885 0.17084922583359916 0 -0.0092024005432591628 0.061716851263956707 0 0.0056261347178381636 0.098308266973033229 0 0.023412432614198026 0.16367073677215627 0 0.02478944837249834 0.18115466097587907 0 0.012391437540348885 0.17084922583359916 0 0.02478944837249834 0.18115466097587907 0 0.012391437540348885 0.17084922583359916 0 0.0072537694743445742 0.18047043199278676 0 0.0025522604754775291 -0.011317539178400471 0 0.0045029698604967328 -0.013427588769775331 0 0.0020649997065422423 -0.012390176064190028 0 0.0041435519206903144 -0.011979186322151999 0 0.0062034236743424955 -0.013561596845770477 0 0.0045029698604967328 -0.013427588769775331 0 0.0062034236743424955 -0.013561596845770477 0 0.0074971347912791584 -0.015862772682109078 0 0.0045029698604967328 -0.013427588769775331 0 0.0074971347912791584 -0.015862772682109078 0 0.0045029698604967328 -0.013427588769775331 0 0.0050796846583188145 -0.015162651163208321 0 0.0045029698604967328 -0.013427588769775331 0 0.0050796846583188145 -0.015162651163208321 0 0.0020649997065422423 -0.012390176064190028 0 0.0020649997065422423 -0.012390176064190028 0 0.00025676601496301614 -0.010716082205699367 0 0.00080859413043177675 -0.012744474207998225 0 0.0050796846583188145 -0.015162651163208321 0 0.0028205080787827544 -0.014075397221942324 0 0.0020649997065422423 -0.012390176064190028 0 0.0028205080787827544 -0.014075397221942324 0 0.0020649997065422423 -0.012390176064190028 0 0.00080859413043177675 -0.012744474207998225 0 0.0025522604754775291 -0.011317539178400471 0 0.0020649997065422423 -0.012390176064190028 0 0.00084081606801350941 -0.010331308364178811 0 0.0020649997065422423 -0.012390176064190028 0 0.00084081606801350941 -0.010331308364178811 0 0.00025676601496301614 -0.010716082205699367 0 -0.00027108209180854267 -0.0085286072871455232 0 0.00084081606801350941 -0.010331308364178811 0 -0.00085195003747121035 -0.0092688959940076341 0 0.0011432801816031151 -0.0092808840833127106 0 -0.00027108209180854267 -0.0085286072871455232 0 0.00084081606801350941 -0.010331308364178811 0 0.0011432801816031151 -0.0092808840833127106 0 0.0025522604754775291 -0.011317539178400471 0 0.00084081606801350941 -0.010331308364178811 0 -0.0017745537749792356 -0.0076242651467166985 0 -0.00085195003747121035 -0.0092688959940076341 0 -0.0018449295103778393 -0.0087710470254969957 0 -0.00027108209180854267 -0.0085286072871455232 0 -0.0017745537749792356 -0.0076242651467166985 0 -0.00085195003747121035 -0.0092688959940076341 0 -0.00085195003747121035 -0.0092688959940076341 0 0.00025676601496301614 -0.010716082205699367 0 -0.00081605749018674473 -0.010453037024979453 0 0.00084081606801350941 -0.010331308364178811 0 -0.00085195003747121035 -0.0092688959940076341 0 0.00025676601496301614 -0.010716082205699367 0 -0.00085195003747121035 -0.0092688959940076341 0 -0.00081605749018674473 -0.010453037024979453 0 -0.0018449295103778393 -0.0087710470254969957 0 0.00025676601496301614 -0.010716082205699367 0 -0.00081605749018674473 -0.010453037024979453 0 0.00080859413043177675 -0.012744474207998225 0 -0.00081605749018674473 -0.010453037024979453 0 0.00080859413043177675 -0.012744474207998225 0 -0.00077918825060914996 -0.011349171081600006 0 -0.00081605749018674473 -0.010453037024979453 0 -0.00077918825060914996 -0.011349171081600006 0 -0.0017367218996551816 -0.009795201468504355 0 -0.00077918825060914996 -0.011349171081600006 0 -0.0020460154406067156 -0.0099923810152762159 0 -0.0017367218996551816 -0.009795201468504355 0 -0.0020460154406067156 -0.0099923810152762159 0 -0.002892586534100532 -0.0083278154509807811 0 -0.0017367218996551816 -0.009795201468504355 0 -0.002892586534100532 -0.0083278154509807811 0 -0.0017367218996551816 -0.009795201468504355 0 -0.0018449295103778393 -0.0087710470254969957 0 -0.00081605749018674473 -0.010453037024979453 0 -0.0017367218996551816 -0.009795201468504355 0 -0.0018449295103778393 -0.0087710470254969957 0 -0.0029662349245596362 -0.0087871098045959536 0 -0.0035463615933768481 -0.0079468597361078142 0 -0.0037529889717488325 -0.0078155059491682253 0 -0.0020460154406067156 -0.0099923810152762159 0 -0.0029662349245596362 -0.0087871098045959536 0 -0.0035463615933768481 -0.0079468597361078142 0 -0.0020460154406067156 -0.0099923810152762159 0 -0.002892586534100532 -0.0083278154509807811 0 -0.0035463615933768481 -0.0079468597361078142 0 -0.0035463615933768481 -0.0079468597361078142 0 -0.0038744236279514678 -0.00691122754054929 0 -0.0046052071519172401 -0.0064955326033689139 0 -0.002892586534100532 -0.0083278154509807811 0 -0.0035463615933768481 -0.0079468597361078142 0 -0.0038744236279514678 -0.00691122754054929 0 -0.0038744236279514678 -0.00691122754054929 0 -0.0030454565068940942 -0.0071501609720881504 0 -0.0040563346305214623 -0.005911423384485557 0 -0.0038744236279514678 -0.00691122754054929 0 -0.0040563346305214623 -0.005911423384485557 0 -0.0047937095563487181 -0.0055317747256020868 0 -0.0038744236279514678 -0.00691122754054929 0 -0.0047937095563487181 -0.0055317747256020868 0 -0.0046052071519172401 -0.0064955326033689139 0 -0.002892586534100532 -0.0083278154509807811 0 -0.0018449295103778393 -0.0087710470254969957 0 -0.0030454565068940942 -0.0071501609720881504 0 -0.002892586534100532 -0.0083278154509807811 0 -0.0038744236279514678 -0.00691122754054929 0 -0.0030454565068940942 -0.0071501609720881504 0 -0.0017745537749792356 -0.0076242651467166985 0 -0.0018449295103778393 -0.0087710470254969957 0 -0.0030454565068940942 -0.0071501609720881504 0 -0.0017745537749792356 -0.0076242651467166985 0 -0.0030454565068940942 -0.0071501609720881504 0 -0.0028321700935722478 -0.0063288784191947037 0 -0.0025635219560544171 -0.0056138785677448903 0 -0.0028321700935722478 -0.0063288784191947037 0 -0.0034091613457630536 -0.0050549453420392198 0 -0.0028321700935722478 -0.0063288784191947037 0 -0.0034091613457630536 -0.0050549453420392198 0 -0.0035443480380282426 -0.0058924377055805006 0 -0.0034091613457630536 -0.0050549453420392198 0 -0.0035443480380282426 -0.0058924377055805006 0 -0.0041554532613383519 -0.0047396433045649279 0 -0.0030454565068940942 -0.0071501609720881504 0 -0.0028321700935722478 -0.0063288784191947037 0 -0.0035443480380282426 -0.0058924377055805006 0 -0.0035443480380282426 -0.0058924377055805006 0 -0.0040563346305214623 -0.005911423384485557 0 -0.0041554532613383519 -0.0047396433045649279 0 -0.0030454565068940942 -0.0071501609720881504 0 -0.0035443480380282426 -0.0058924377055805006 0 -0.0040563346305214623 -0.005911423384485557 0 -0.0040563346305214623 -0.005911423384485557 0 -0.0047937095563487181 -0.0055317747256020868 0 -0.0049336822794676339 -0.004133537262525422 0 -0.0047937095563487181 -0.0055317747256020868 0 -0.0049336822794676339 -0.004133537262525422 0 -0.0054199558113176768 -0.004463715018921414 0 -0.0040563346305214623 -0.005911423384485557 0 -0.0049336822794676339 -0.004133537262525422 0 -0.0041554532613383519 -0.0047396433045649279 0 -0.0041554532613383519 -0.0047396433045649279 0 -0.0049698318343996623 -0.0029832122730617172 0 -0.0040312429158354847 -0.0036957651147475888 0 -0.0049336822794676339 -0.004133537262525422 0 -0.0041554532613383519 -0.0047396433045649279 0 -0.0049698318343996623 -0.0029832122730617172 0 -0.0049336822794676339 -0.004133537262525422 0 -0.0049698318343996623 -0.0029832122730617172 0 -0.0059716950281306158 -0.0028792694785737547 0 -0.0049698318343996623 -0.0029832122730617172 0 -0.0040312429158354847 -0.0036957651147475888 0 -0.0044126414630951778 -0.0021098773824300729 0 -0.0040312429158354847 -0.0036957651147475888 0 -0.0044126414630951778 -0.0021098773824300729 0 -0.0037101764587105022 -0.0027141368218836035 0 -0.0040312429158354847 -0.0036957651147475888 0 -0.0031921522057661222 -0.0041985811196137927 0 -0.0037101764587105022 -0.0027141368218836035 0 -0.0034091613457630536 -0.0050549453420392198 0 -0.0040312429158354847 -0.0036957651147475888 0 -0.0031921522057661222 -0.0041985811196137927 0 -0.0025635219560544171 -0.0056138785677448903 0 -0.0034091613457630536 -0.0050549453420392198 0 -0.0031921522057661222 -0.0041985811196137927 0 -0.0034091613457630536 -0.0050549453420392198 0 -0.0041554532613383519 -0.0047396433045649279 0 -0.0040312429158354847 -0.0036957651147475888 0 0.0016002467094697371 -0.0024486968006807988 0 0.00081303102752344064 -0.0018888794764581598 0 0.0012454901319860878 -0.002490026023795847 0 -0.0051843663980913595 -0.0029522997900102471 0 -0.004989787744090814 -0.0019426297487817009 0 0.0016002467094697371 -0.0024486968006807988 0 0.00081303102752344064 -0.0018888794764581598 0 0.0010713077336703505 -0.0018328541279815887 0 -0.0069942221882686511 -0.003247608297019749 0 -0.0059716950281306158 -0.0028792694785737547 0 -0.0070760616955641469 -0.0019293957397737641 0 -0.0059716950281306158 -0.0028792694785737547 0 -0.006187396270596994 -0.0014025562931950922 0 -0.0070760616955641469 -0.0019293957397737641 0 -0.0049698318343996623 -0.0029832122730617172 0 -0.0059716950281306158 -0.0028792694785737547 0 -0.0055846400404752031 -0.0019959545508856469 0 -0.0059716950281306158 -0.0028792694785737547 0 -0.0055846400404752031 -0.0019959545508856469 0 -0.006187396270596994 -0.0014025562931950922 0 -0.0049336822794676339 -0.004133537262525422 0 -0.0059716950281306158 -0.0028792694785737547 0 -0.0054199558113176768 -0.004463715018921414 0 -0.0069942221882686511 -0.003247608297019749 0 -0.0059716950281306158 -0.0028792694785737547 0 -0.0062174716499650501 -0.003954166642040932 0 -0.0059716950281306158 -0.0028792694785737547 0 -0.0062174716499650501 -0.003954166642040932 0 -0.0054199558113176768 -0.004463715018921414 0 -0.0062174716499650501 -0.003954166642040932 0 -0.0054199558113176768 -0.004463715018921414 0 -0.0056396213162594874 -0.0051530171275682921 0 -0.0047937095563487181 -0.0055317747256020868 0 -0.0054199558113176768 -0.004463715018921414 0 -0.0056396213162594874 -0.0051530171275682921 0 -0.0062174716499650501 -0.003954166642040932 0 -0.0056396213162594874 -0.0051530171275682921 0 -0.0066675893162053334 -0.004361046142702228 0 -0.0056396213162594874 -0.0051530171275682921 0 -0.0066675893162053334 -0.004361046142702228 0 -0.0061372323958140806 -0.0052828241596409569 0 0.0021776803808943061 -0.0033321874534794457 0 0.0012454901319860878 -0.002490026023795847 0 0.0012391241608064665 -0.0028135456113696673 0 0.0021776803808943061 -0.0033321874534794457 0 0.0020390007756437641 -0.0038053740006754131 0 0.0012391241608064665 -0.0028135456113696673 0 -0.0055239406128330714 -0.0029990720208046802 0 -0.0049103819811463284 -0.0072700813481602943 0 -0.0069942221882686511 -0.003247608297019749 0 -0.0062174716499650501 -0.003954166642040932 0 -0.0066675893162053334 -0.004361046142702228 0 0.0016002467094697371 -0.0024486968006807988 0 0.0021776803808943061 -0.0033321874534794457 0 0.0012454901319860878 -0.002490026023795847 0 -0.0051843663980913595 -0.0029522997900102471 0 -0.0055239406128330714 -0.0029990720208046802 0 0.0021776803808943061 -0.0033321874534794457 0 0.0020390007756437641 -0.0038053740006754131 0 0.0028734776546095464 -0.0043136828488635533 0 -0.0049103819811463284 -0.0072700813481602943 0 -0.0078297735375262526 -0.00069993447484814305 0 -0.0061372323958140806 -0.0052828241596409569 0 -0.0052708703603873688 -0.0060255788013737818 0 -0.0054077822571483979 -0.0062779655280830642 0 0.0020390007756437641 -0.0038053740006754131 0 0.0028734776546095464 -0.0043136828488635533 0 0.0036030332345914828 -0.0052491068388602728 0 0.0020390007756437641 -0.0038053740006754131 0 0.0036030332345914828 -0.0052491068388602728 0 0.0024979851560292146 -0.0044356455563902587 0 -0.0047937095563487181 -0.0055317747256020868 0 -0.0056396213162594874 -0.0051530171275682921 0 -0.0046052071519172401 -0.0064955326033689139 0 -0.0056396213162594874 -0.0051530171275682921 0 -0.0052708703603873688 -0.0060255788013737818 0 -0.0046052071519172401 -0.0064955326033689139 0 -0.0056396213162594874 -0.0051530171275682921 0 -0.0061372323958140806 -0.0052828241596409569 0 -0.0052708703603873688 -0.0060255788013737818 0 -0.0052708703603873688 -0.0060255788013737818 0 -0.0046052071519172401 -0.0064955326033689139 0 -0.0045416307678963156 -0.0069320054151047229 0 -0.0035463615933768481 -0.0079468597361078142 0 -0.0046052071519172401 -0.0064955326033689139 0 -0.0045416307678963156 -0.0069320054151047229 0 -0.0052708703603873688 -0.0060255788013737818 0 -0.0045416307678963156 -0.0069320054151047229 0 -0.0054077822571483979 -0.0062779655280830642 0 -0.0045416307678963156 -0.0069320054151047229 0 -0.0054077822571483979 -0.0062779655280830642 0 -0.0045004500048390645 -0.0071662415338875083 0 -0.0045416307678963156 -0.0069320054151047229 0 -0.0037529889717488325 -0.0078155059491682253 0 -0.0045004500048390645 -0.0071662415338875083 0 -0.0035463615933768481 -0.0079468597361078142 0 -0.0045416307678963156 -0.0069320054151047229 0 -0.0037529889717488325 -0.0078155059491682253 0 0.0036030332345914828 -0.0052491068388602728 0 0.0033448966676560324 -0.0052507637462978771 0 0.0024979851560292146 -0.0044356455563902587 0 -0.0078297735375262526 -0.00069993447484814305 0 0.0018147092264287424 -0.013246479631475112 0 0.0036030332345914828 -0.0052491068388602728 0 0.0045439765086396 -0.0061971002231100865 0 0.0033448966676560324 -0.0052507637462978771 0 0.0045439765086396 -0.0061971002231100865 0 0.0033448966676560324 -0.0052507637462978771 0 0.0034682447124580805 -0.0055580619097427052 0 0.0033448966676560324 -0.0052507637462978771 0 0.0025919994569648967 -0.004638548625119485 0 0.0034682447124580805 -0.0055580619097427052 0 0.0025919994569648967 -0.004638548625119485 0 0.0034682447124580805 -0.0055580619097427052 0 0.0024730446701273392 -0.0045985303007406927 0 0.0025919994569648967 -0.004638548625119485 0 0.0024979851560292146 -0.0044356455563902587 0 0.0018515167557827199 -0.003801237231747552 0 0.0033448966676560324 -0.0052507637462978771 0 0.0025919994569648967 -0.004638548625119485 0 0.0024979851560292146 -0.0044356455563902587 0 0.0025919994569648967 -0.004638548625119485 0 0.0018515167557827199 -0.003801237231747552 0 0.0024730446701273392 -0.0045985303007406927 0 0.0018515167557827199 -0.003801237231747552 0 0.0017011203192897313 -0.0035313913118067137 0 0.001088870659056099 -0.0027285103413271761 0 0.0017011203192897313 -0.0035313913118067137 0 0.001088870659056099 -0.0027285103413271761 0 0.0007899707840099097 -0.0020280478301826421 0 0.0018515167557827199 -0.003801237231747552 0 0.0024730446701273392 -0.0045985303007406927 0 0.0017011203192897313 -0.0035313913118067137 0 0.0018515167557827199 -0.003801237231747552 0 0.001088870659056099 -0.0027285103413271761 0 0.0013908121355870821 -0.0032019855786139433 0 0.001088870659056099 -0.0027285103413271761 0 0.00059078449937171435 -0.0020562290820915312 0 0.0013908121355870821 -0.0032019855786139433 0 0.001088870659056099 -0.0027285103413271761 0 0.00059078449937171435 -0.0020562290820915312 0 0.00033270920760681638 -0.0014430916437020787 0 0.00059078449937171435 -0.0020562290820915312 0 0.0013908121355870821 -0.0032019855786139433 0 0.0007485690017110093 -0.0022949026263157364 0 0.0020390007756437641 -0.0038053740006754131 0 0.0013908121355870821 -0.0032019855786139433 0 0.0012391241608064665 -0.0028135456113696673 0 0.0020390007756437641 -0.0038053740006754131 0 0.0024979851560292146 -0.0044356455563902587 0 0.0013908121355870821 -0.0032019855786139433 0 0.0024979851560292146 -0.0044356455563902587 0 0.0018515167557827199 -0.003801237231747552 0 0.0013908121355870821 -0.0032019855786139433 0 -1.2422889184437794e-07 -7.4084570956690684e-07 0 0.00027156440639800251 -0.00065727342041592321 0 0.00030796956162190459 -0.00099430661367213885 0 -1.2422889184437794e-07 -7.4084570956690684e-07 0 6.7587233240035633e-07 -1.5099837523294826e-06 0 0.00027156440639800251 -0.00065727342041592321 0 6.7587233240035633e-07 -1.5099837523294826e-06 0 0.00068826549855008085 -0.0012805360844842658 0 0.00027156440639800251 -0.00065727342041592321 0 0.00068826549855008085 -0.0012805360844842658 0 0.00027156440639800251 -0.00065727342041592321 0 0.00070244795431185722 -0.0016068838355803303 0 0.00027156440639800251 -0.00065727342041592321 0 0.00030796956162190459 -0.00099430661367213885 0 0.00070244795431185722 -0.0016068838355803303 0 0.00030796956162190459 -0.00099430661367213885 0 0.00070244795431185722 -0.0016068838355803303 0 0.0007899707840099097 -0.0020280478301826421 0 0.00070244795431185722 -0.0016068838355803303 0 0.0011733659065172001 -0.0024262647710875454 0 0.0007899707840099097 -0.0020280478301826421 0 0.00068826549855008085 -0.0012805360844842658 0 0.00070244795431185722 -0.0016068838355803303 0 0.0011733659065172001 -0.0024262647710875454 0 0.0017011203192897313 -0.0035313913118067137 0 0.0011733659065172001 -0.0024262647710875454 0 0.0007899707840099097 -0.0020280478301826421 0 0.001088870659056099 -0.0027285103413271761 0 0.0007899707840099097 -0.0020280478301826421 0 0.00033270920760681638 -0.0014430916437020787 0 0.00059078449937171435 -0.0020562290820915312 0 0.00033270920760681638 -0.0014430916437020787 0 0.00012457291271246698 -0.0012555896327904876 0 0.00033270920760681638 -0.0014430916437020787 0 6.8226768310272059e-05 -0.00063295071858426909 0 -2.0676657126318359e-05 -0.00070596947532302636 0 0.00030796956162190459 -0.00099430661367213885 0 0.0007899707840099097 -0.0020280478301826421 0 0.00033270920760681638 -0.0014430916437020787 0 0.00030796956162190459 -0.00099430661367213885 0 0.00033270920760681638 -0.0014430916437020787 0 6.8226768310272059e-05 -0.00063295071858426909 0 -1.2422889184437794e-07 -7.4084570956690684e-07 0 0.00030796956162190459 -0.00099430661367213885 0 6.8226768310272059e-05 -0.00063295071858426909 0 6.8226768310272059e-05 -0.00063295071858426909 0 1.0545104253317606e-07 -7.902628164825537e-07 0 -1.5553796506624354e-07 -4.8641304773007179e-07 0 -1.2422889184437794e-07 -7.4084570956690684e-07 0 6.8226768310272059e-05 -0.00063295071858426909 0 1.0545104253317606e-07 -7.902628164825537e-07 0 -1.5553796506624354e-07 -4.8641304773007179e-07 0 -8.7016590309829889e-05 -0.00033478734405233222 0 -4.3129261534128523e-08 -4.4658009450684672e-07 0 6.8226768310272059e-05 -0.00063295071858426909 0 -1.5553796506624354e-07 -4.8641304773007179e-07 0 -2.0676657126318359e-05 -0.00070596947532302636 0 -2.0676657126318359e-05 -0.00070596947532302636 0 -8.7016590309829889e-05 -0.00033478734405233222 0 -0.00013100051528461582 -0.00065284248687601015 0 -1.5553796506624354e-07 -4.8641304773007179e-07 0 -2.0676657126318359e-05 -0.00070596947532302636 0 -8.7016590309829889e-05 -0.00033478734405233222 0 -2.0676657126318359e-05 -0.00070596947532302636 0 0.00012457291271246698 -0.0012555896327904876 0 -0.00013100051528461582 -0.00065284248687601015 0 0.00033270920760681638 -0.0014430916437020787 0 -2.0676657126318359e-05 -0.00070596947532302636 0 0.00012457291271246698 -0.0012555896327904876 0 0.00012457291271246698 -0.0012555896327904876 0 -2.6211986283767063e-05 -0.0010450003573932002 0 -0.00013100051528461582 -0.00065284248687601015 0 0.00012457291271246698 -0.0012555896327904876 0 -2.6211986283767063e-05 -0.0010450003573932002 0 0.00027160059452221042 -0.0015852887223114661 0 -2.6211986283767063e-05 -0.0010450003573932002 0 -0.00017144106797147658 -0.00071476882518744318 0 -0.00013100051528461582 -0.00065284248687601015 0 -0.00017144106797147658 -0.00071476882518744318 0 -4.1541470843532058e-05 -0.0010782529439571451 0 -0.00026836917898373416 -0.00054387011396872672 0 -2.6211986283767063e-05 -0.0010450003573932002 0 -0.00017144106797147658 -0.00071476882518744318 0 -4.1541470843532058e-05 -0.0010782529439571451 0 -0.00017144106797147658 -0.00071476882518744318 0 -0.00013100051528461582 -0.00065284248687601015 0 -0.00019632335914978609 -0.00033728761057575816 0 -8.7016590309829889e-05 -0.00033478734405233222 0 -0.00013100051528461582 -0.00065284248687601015 0 -0.00011709386587973022 -0.00024367588140549278 0 -0.00013100051528461582 -0.00065284248687601015 0 -0.00011709386587973022 -0.00024367588140549278 0 -0.00019632335914978609 -0.00033728761057575816 0 -0.00011709386587973022 -0.00024367588140549278 0 -0.00019632335914978609 -0.00033728761057575816 0 -1.1751806612923671e-07 -3.1182094421391307e-07 0 -0.00011709386587973022 -0.00024367588140549278 0 -4.3129261534128523e-08 -4.4658009450684672e-07 0 -1.1751806612923671e-07 -3.1182094421391307e-07 0 -8.7016590309829889e-05 -0.00033478734405233222 0 -0.00011709386587973022 -0.00024367588140549278 0 -4.3129261534128523e-08 -4.4658009450684672e-07 0 0.00044723646485922972 -0.0018396818176176859 0 0.0012391241608064665 -0.0028135456113696673 0 0.00068666613681395963 -0.0019861294557790192 0 0.00044723646485922972 -0.0018396818176176859 0 0.0012391241608064665 -0.0028135456113696673 0 0.0007485690017110093 -0.0022949026263157364 0 0.0012454901319860878 -0.002490026023795847 0 0.0012391241608064665 -0.0028135456113696673 0 0.00068666613681395963 -0.0019861294557790192 0 0.0013908121355870821 -0.0032019855786139433 0 0.0012391241608064665 -0.0028135456113696673 0 0.0007485690017110093 -0.0022949026263157364 0 0.00059078449937171435 -0.0020562290820915312 0 0.0007485690017110093 -0.0022949026263157364 0 0.00027160059452221042 -0.0015852887223114661 0 0.00059078449937171435 -0.0020562290820915312 0 0.00012457291271246698 -0.0012555896327904876 0 0.00027160059452221042 -0.0015852887223114661 0 0.00044723646485922972 -0.0018396818176176859 0 0.0007485690017110093 -0.0022949026263157364 0 0.00027160059452221042 -0.0015852887223114661 0 0.00044723646485922972 -0.0018396818176176859 0 -4.1541470843532058e-05 -0.0010782529439571451 0 0.00018531535273371243 -0.0013879075511509238 0 0.00044723646485922972 -0.0018396818176176859 0 0.00027160059452221042 -0.0015852887223114661 0 -4.1541470843532058e-05 -0.0010782529439571451 0 -2.6211986283767063e-05 -0.0010450003573932002 0 0.00027160059452221042 -0.0015852887223114661 0 -4.1541470843532058e-05 -0.0010782529439571451 0 -4.1541470843532058e-05 -0.0010782529439571451 0 0.00018531535273371243 -0.0013879075511509238 0 -0.00013849569463108411 -0.00089006522384821481 0 0.00018531535273371243 -0.0013879075511509238 0 0.00068666613681395963 -0.0019861294557790192 0 0.0003951828273098562 -0.0015398583670570814 0 0.00044723646485922972 -0.0018396818176176859 0 0.00018531535273371243 -0.0013879075511509238 0 0.00068666613681395963 -0.0019861294557790192 0 0.00081303102752344064 -0.0018888794764581598 0 0.0012454901319860878 -0.002490026023795847 0 0.00068666613681395963 -0.0019861294557790192 0 0.00081303102752344064 -0.0018888794764581598 0 0.00068666613681395963 -0.0019861294557790192 0 0.0003951828273098562 -0.0015398583670570814 0 0.00081303102752344064 -0.0018888794764581598 0 0.0003951828273098562 -0.0015398583670570814 0 0.00036824607001854828 -0.0013760788903419482 0 0.0003951828273098562 -0.0015398583670570814 0 0.00036824607001854828 -0.0013760788903419482 0 2.4410689612854873e-05 -0.0010963623028074111 0 0.00036824607001854828 -0.0013760788903419482 0 -3.2333397487563053e-06 -0.00097383560889171866 0 2.4410689612854873e-05 -0.0010963623028074111 0 0.00036824607001854828 -0.0013760788903419482 0 -3.2333397487563053e-06 -0.00097383560889171866 0 0.00011030069747824669 -0.00099676516280846131 0 -3.2333397487563053e-06 -0.00097383560889171866 0 2.4410689612854873e-05 -0.0010963623028074111 0 -0.00019772614755941221 -0.00074708130121388405 0 0.00018531535273371243 -0.0013879075511509238 0 0.0003951828273098562 -0.0015398583670570814 0 2.4410689612854873e-05 -0.0010963623028074111 0 0.00018531535273371243 -0.0013879075511509238 0 2.4410689612854873e-05 -0.0010963623028074111 0 -0.00013849569463108411 -0.00089006522384821481 0 -4.1541470843532058e-05 -0.0010782529439571451 0 -0.00013849569463108411 -0.00089006522384821481 0 -0.00026836917898373416 -0.00054387011396872672 0 -0.00013849569463108411 -0.00089006522384821481 0 -0.00030732181611477894 -0.0005354994730886589 0 -0.00026836917898373416 -0.00054387011396872672 0 2.4410689612854873e-05 -0.0010963623028074111 0 -0.00013849569463108411 -0.00089006522384821481 0 -0.00019772614755941221 -0.00074708130121388405 0 -0.00013849569463108411 -0.00089006522384821481 0 -0.00030732181611477894 -0.0005354994730886589 0 -0.00019772614755941221 -0.00074708130121388405 0 -0.00030732181611477894 -0.0005354994730886589 0 -0.00038559424362013015 -0.00040227090764786587 0 -0.00019772614755941221 -0.00074708130121388405 0 -0.00030732181611477894 -0.0005354994730886589 0 -0.00035870616128369211 -0.00028051300758179048 0 -0.00042148017636630964 -0.00021630986628225294 0 -0.00030732181611477894 -0.0005354994730886589 0 -0.00038559424362013015 -0.00040227090764786587 0 -0.00042148017636630964 -0.00021630986628225294 0 -0.00038559424362013015 -0.00040227090764786587 0 -0.00023764706819573667 -0.00064248530047884367 0 -0.00055717614802097974 -0.00016796565678973521 0 -0.00023764706819573667 -0.00064248530047884367 0 -0.00055717614802097974 -0.00016796565678973521 0 -0.00025043314966907818 -0.00053146603642121454 0 -3.2333397487563053e-06 -0.00097383560889171866 0 -0.00023764706819573667 -0.00064248530047884367 0 0.00011030069747824669 -0.00099676516280846131 0 -0.00038559424362013015 -0.00040227090764786587 0 -0.00023764706819573667 -0.00064248530047884367 0 -0.00019772614755941221 -0.00074708130121388405 0 -3.2333397487563053e-06 -0.00097383560889171866 0 -0.00023764706819573667 -0.00064248530047884367 0 -0.00019772614755941221 -0.00074708130121388405 0 -1.0484500748905887e-07 -2.2357396047389249e-07 0 -0.00012523329243863994 -0.00014203111201742345 0 -0.00024217397572122551 -0.00023576741393979605 0 -1.0484500748905887e-07 -2.2357396047389249e-07 0 -0.00024217397572122551 -0.00023576741393979605 0 -0.0001699625097420299 -0.00010473663644561054 0 -0.00019632335914978609 -0.00033728761057575816 0 -1.1751806612923671e-07 -3.1182094421391307e-07 0 -0.00012523329243863994 -0.00014203111201742345 0 -1.0484500748905887e-07 -2.2357396047389249e-07 0 -1.1751806612923671e-07 -3.1182094421391307e-07 0 -0.00012523329243863994 -0.00014203111201742345 0 -0.00019632335914978609 -0.00033728761057575816 0 -0.00012523329243863994 -0.00014203111201742345 0 -0.00024217397572122551 -0.00023576741393979605 0 -0.00024217397572122551 -0.00023576741393979605 0 -0.00026836917898373416 -0.00054387011396872672 0 -0.00031753048751814012 -0.00035968780006052404 0 -0.00019632335914978609 -0.00033728761057575816 0 -0.00024217397572122551 -0.00023576741393979605 0 -0.00026836917898373416 -0.00054387011396872672 0 -0.00017144106797147658 -0.00071476882518744318 0 -0.00019632335914978609 -0.00033728761057575816 0 -0.00026836917898373416 -0.00054387011396872672 0 -0.00030732181611477894 -0.0005354994730886589 0 -0.00026836917898373416 -0.00054387011396872672 0 -0.00031753048751814012 -0.00035968780006052404 0 -0.00031753048751814012 -0.00035968780006052404 0 -0.00035870616128369211 -0.00028051300758179048 0 -0.0002932519095437235 -0.00018697168108882292 0 -0.00030732181611477894 -0.0005354994730886589 0 -0.00031753048751814012 -0.00035968780006052404 0 -0.00035870616128369211 -0.00028051300758179048 0 -0.00035870616128369211 -0.00028051300758179048 0 -0.00035702554267383715 -0.0001423172276779462 0 -0.00042148017636630964 -0.00021630986628225294 0 -0.00035870616128369211 -0.00028051300758179048 0 -0.0002932519095437235 -0.00018697168108882292 0 -0.00035702554267383715 -0.0001423172276779462 0 -0.0002932519095437235 -0.00018697168108882292 0 -0.0002064995124629301 -7.5788167416786082e-05 0 -0.00035702554267383715 -0.0001423172276779462 0 -0.00024217397572122551 -0.00023576741393979605 0 -0.00031753048751814012 -0.00035968780006052404 0 -0.0002932519095437235 -0.00018697168108882292 0 -0.00024217397572122551 -0.00023576741393979605 0 -0.0002932519095437235 -0.00018697168108882292 0 -0.0001699625097420299 -0.00010473663644561054 0 -0.0002932519095437235 -0.00018697168108882292 0 -0.0001699625097420299 -0.00010473663644561054 0 -0.0002064995124629301 -7.5788167416786082e-05 0 -0.0001699625097420299 -0.00010473663644561054 0 -1.0250314142726785e-07 -1.3648787090637182e-07 0 -0.0002064995124629301 -7.5788167416786082e-05 0 -1.0484500748905887e-07 -2.2357396047389249e-07 0 -0.0001699625097420299 -0.00010473663644561054 0 -1.0250314142726785e-07 -1.3648787090637182e-07 0 -6.9153841852928645e-08 -7.6706371113016769e-08 0 -0.0001316523041025171 -2.0898705448995083e-05 0 -9.3981954896493179e-08 -2.9069609019506086e-08 0 -1.0250314142726785e-07 -1.3648787090637182e-07 0 -6.9153841852928645e-08 -7.6706371113016769e-08 0 -0.0002064995124629301 -7.5788167416786082e-05 0 -6.9153841852928645e-08 -7.6706371113016769e-08 0 -0.0002064995124629301 -7.5788167416786082e-05 0 -0.0001316523041025171 -2.0898705448995083e-05 0 -0.0002064995124629301 -7.5788167416786082e-05 0 -0.0001316523041025171 -2.0898705448995083e-05 0 -0.00026623203019145766 -2.2451167892150892e-05 0 -0.0002064995124629301 -7.5788167416786082e-05 0 -0.00026623203019145766 -2.2451167892150892e-05 0 -0.00035702554267383715 -0.0001423172276779462 0 -0.00035702554267383715 -0.0001423172276779462 0 -0.00037497794514814261 -3.5856276262575923e-05 0 -0.00042148017636630964 -0.00021630986628225294 0 -0.00026623203019145766 -2.2451167892150892e-05 0 -0.00035702554267383715 -0.0001423172276779462 0 -0.00037497794514814261 -3.5856276262575923e-05 0 -0.00037497794514814261 -3.5856276262575923e-05 0 -0.00030329873426397826 3.0425362803761887e-05 0 -0.00045171582601653777 6.7744302709542227e-05 0 -0.00026623203019145766 -2.2451167892150892e-05 0 -0.00037497794514814261 -3.5856276262575923e-05 0 -0.00030329873426397826 3.0425362803761887e-05 0 -0.00030329873426397826 3.0425362803761887e-05 0 -0.00027551236547749712 0.00010711314374339923 0 -0.00013868951963948747 9.9718500642581268e-06 0 -0.00012477728135375704 4.1697042108206161e-05 0 -0.00027551236547749712 0.00010711314374339923 0 -0.00013868951963948747 9.9718500642581268e-06 0 -0.00026623203019145766 -2.2451167892150892e-05 0 -0.00030329873426397826 3.0425362803761887e-05 0 -0.00013868951963948747 9.9718500642581268e-06 0 -0.0001316523041025171 -2.0898705448995083e-05 0 -0.00013868951963948747 9.9718500642581268e-06 0 -9.3981954896493179e-08 -2.9069609019506086e-08 0 -0.0001316523041025171 -2.0898705448995083e-05 0 -0.00026623203019145766 -2.2451167892150892e-05 0 -0.00013868951963948747 9.9718500642581268e-06 0 6.8695091451178182e-09 -3.3404726749115938e-08 0 -0.00013868951963948747 9.9718500642581268e-06 0 -9.3981954896493179e-08 -2.9069609019506086e-08 0 -0.00055717614802097974 -0.00016796565678973521 0 -0.00051538395551813717 -9.3239925145481619e-05 0 -0.00062787211293652712 0.0001996839612365468 0 -0.00055717614802097974 -0.00016796565678973521 0 -0.00062787211293652712 0.0001996839612365468 0 -0.00094216379534185562 0.00037589710212640887 0 -0.00038559424362013015 -0.00040227090764786587 0 -0.00055717614802097974 -0.00016796565678973521 0 -0.00051538395551813717 -9.3239925145481619e-05 0 -0.00038559424362013015 -0.00040227090764786587 0 -0.00051538395551813717 -9.3239925145481619e-05 0 -0.00042148017636630964 -0.00021630986628225294 0 -0.00037497794514814261 -3.5856276262575923e-05 0 -0.00042148017636630964 -0.00021630986628225294 0 -0.00045171582601653777 6.7744302709542227e-05 0 -0.00051538395551813717 -9.3239925145481619e-05 0 -0.00042148017636630964 -0.00021630986628225294 0 -0.00045171582601653777 6.7744302709542227e-05 0 -0.00051538395551813717 -9.3239925145481619e-05 0 -0.00045171582601653777 6.7744302709542227e-05 0 -0.00062787211293652712 0.0001996839612365468 0 -0.00045171582601653777 6.7744302709542227e-05 0 -0.00046456580924206513 0.00021788243371935543 0 -0.00062787211293652712 0.0001996839612365468 0 -0.00030329873426397826 3.0425362803761887e-05 0 -0.00027551236547749712 0.00010711314374339923 0 -0.00045171582601653777 6.7744302709542227e-05 0 -0.00028914291997361448 0.00014310235434787327 0 -0.00027551236547749712 0.00010711314374339923 0 -0.00046456580924206513 0.00021788243371935543 0 -0.00027551236547749712 0.00010711314374339923 0 -0.00045171582601653777 6.7744302709542227e-05 0 -0.00046456580924206513 0.00021788243371935543 0 -0.00046456580924206513 0.00021788243371935543 0 -0.0006665825544218475 0.00036429667684699632 0 -0.00062787211293652712 0.0001996839612365468 0 -0.0006665825544218475 0.00036429667684699632 0 -0.00062787211293652712 0.0001996839612365468 0 -0.00094216379534185562 0.00037589710212640887 0 -0.0010168331758862012 0.0005957237515889413 0 -0.0006665825544218475 0.00036429667684699632 0 -0.00094216379534185562 0.00037589710212640887 0 -0.0010168331758862012 0.0005957237515889413 0 -0.0020501492335773023 0.0010724559330817626 0 -0.00094216379534185562 0.00037589710212640887 0 -0.0020501492335773023 0.0010724559330817626 0 -0.0039652204009567064 0.0020080797873150793 0 -0.003717674328724749 0.0021300387724025802 0 -0.0020501492335773023 0.0010724559330817626 0 -0.00094611263347453177 8.5560872217658763e-05 0 -0.00094216379534185562 0.00037589710212640887 0 -0.02336761310492793 0.0041414451486567741 0 0.0028131156705372678 -0.0010208309151466212 0 -0.00094611263347453177 8.5560872217658763e-05 0 -0.00094216379534185562 0.00037589710212640887 0 -0.00061585278025671326 -6.8653648163612946e-05 0 -0.00055717614802097974 -0.00016796565678973521 0 -0.00094216379534185562 0.00037589710212640887 0 -0.00061585278025671326 -6.8653648163612946e-05 0 0.0028131156705372678 -0.0010208309151466212 0 -0.0050810186053028596 0.0013702476771129306 0 -0.00094611263347453177 8.5560872217658763e-05 0 -0.00061585278025671326 -6.8653648163612946e-05 0 -0.00024981191451353761 -0.0003842662086934105 0 -0.0050810186053028596 0.0013702476771129306 0 -0.0037667763385425047 -0.00028659335692158763 0 -0.00061585278025671326 -6.8653648163612946e-05 0 -0.00024981191451353761 -0.0003842662086934105 0 -0.00025043314966907818 -0.00053146603642121454 0 -0.00055717614802097974 -0.00016796565678973521 0 -0.00061585278025671326 -6.8653648163612946e-05 0 -0.00025043314966907818 -0.00053146603642121454 0 -0.0052822040816610169 0.0014764989452451991 0 -0.0045192526259492565 0.0022649967823231915 0 -0.004954144323237453 0.0017550786888482219 0 -0.0052282504558817883 0.0016210518231179964 0 -0.0052822040816610169 0.0014764989452451991 0 -0.0062181473306326777 0.00070306680732974041 0 -0.0052282504558817883 0.0016210518231179964 0 -0.0052822040816610169 0.0014764989452451991 0 -0.0045192526259492565 0.0022649967823231915 0 -0.0039652204009567064 0.0020080797873150793 0 -0.0052282504558817883 0.0016210518231179964 0 -0.0045192526259492565 0.0022649967823231915 0 -0.0045192526259492565 0.0022649967823231915 0 -0.003717674328724749 0.0021300387724025802 0 -0.0042503310160389753 0.002552202951488967 0 -0.0039652204009567064 0.0020080797873150793 0 -0.0045192526259492565 0.0022649967823231915 0 -0.003717674328724749 0.0021300387724025802 0 -0.0034349070603388932 0.0018017499311063637 0 -0.0020501492335773023 0.0010724559330817626 0 -0.003717674328724749 0.0021300387724025802 0 -0.0034349070603388932 0.0018017499311063637 0 -0.003717674328724749 0.0021300387724025802 0 -0.0042503310160389753 0.002552202951488967 0 -0.0045192526259492565 0.0022649967823231915 0 -0.0042503310160389753 0.002552202951488967 0 -0.0047448157960269495 0.0023411879798151745 0 -0.0042503310160389753 0.002552202951488967 0 -0.0045957528270787144 0.0030096622394232102 0 -0.0047448157960269495 0.0023411879798151745 0 -0.004136119006651901 0.0029102227202513816 0 -0.0042503310160389753 0.002552202951488967 0 -0.0045957528270787144 0.0030096622394232102 0 -0.0043914674751101123 0.00364768453674791 0 -0.0046187247830050153 0.0035618247823967714 0 -0.0045957528270787144 0.0030096622394232102 0 -0.0043914674751101123 0.00364768453674791 0 -0.004136119006651901 0.0029102227202513816 0 -0.0045957528270787144 0.0030096622394232102 0 -0.0046187247830050153 0.0035618247823967714 0 -0.0046591103071048807 0.0025895856161641684 0 -0.0045957528270787144 0.0030096622394232102 0 -0.0046591103071048807 0.0025895856161641684 0 -0.0046843197496153318 0.00237273458094828 0 -0.0045838840588396049 0.0014576900953267406 0 -0.0046591103071048807 0.0025895856161641684 0 -0.0045957528270787144 0.0030096622394232102 0 -0.0046843197496153318 0.00237273458094828 0 -0.0046843197496153318 0.00237273458094828 0 -0.0047556385873612252 0.0016121091680743372 0 -0.0047448157960269495 0.0023411879798151745 0 -0.0045957528270787144 0.0030096622394232102 0 -0.0046843197496153318 0.00237273458094828 0 -0.0047448157960269495 0.0023411879798151745 0 -0.0046843197496153318 0.00237273458094828 0 -0.0047556385873612252 0.0016121091680743372 0 -0.0045838840588396049 0.0014576900953267406 0 -0.0045192526259492565 0.0022649967823231915 0 -0.0047448157960269495 0.0023411879798151745 0 -0.004954144323237453 0.0017550786888482219 0 -0.0047556385873612252 0.0016121091680743372 0 -0.0047448157960269495 0.0023411879798151745 0 -0.0049496413013789325 0.0010416896879237405 0 -0.0047448157960269495 0.0023411879798151745 0 -0.004954144323237453 0.0017550786888482219 0 -0.0049496413013789325 0.0010416896879237405 0 -0.004954144323237453 0.0017550786888482219 0 -0.0049496413013789325 0.0010416896879237405 0 -0.0054445556417977107 0.00069431822431463238 0 -0.0049496413013789325 0.0010416896879237405 0 -0.0046311073638450606 0.00049279346947811789 0 -0.0048016583588157604 -0.00045783699080248345 0 -0.0049496413013789325 0.0010416896879237405 0 -0.0052687959170370311 -6.2430536383472398e-05 0 -0.0048016583588157604 -0.00045783699080248345 0 -0.0049496413013789325 0.0010416896879237405 0 -0.0052687959170370311 -6.2430536383472398e-05 0 -0.0054445556417977107 0.00069431822431463238 0 -0.0045838840588396049 0.0014576900953267406 0 -0.0042644987395421561 0.00017792760935990412 0 -0.0046311073638450606 0.00049279346947811789 0 -0.0047556385873612252 0.0016121091680743372 0 -0.0045838840588396049 0.0014576900953267406 0 -0.0046311073638450606 0.00049279346947811789 0 -0.0047556385873612252 0.0016121091680743372 0 -0.0049496413013789325 0.0010416896879237405 0 -0.0046311073638450606 0.00049279346947811789 0 -0.0046311073638450606 0.00049279346947811789 0 -0.0041682698279293098 -0.0010568911429963336 0 -0.0048016583588157604 -0.00045783699080248345 0 -0.0042644987395421561 0.00017792760935990412 0 -0.0046311073638450606 0.00049279346947811789 0 -0.0041682698279293098 -0.0010568911429963336 0 -0.0033456547818567512 -0.0022565371167098968 0 -0.0041682698279293098 -0.0010568911429963336 0 -0.0037101764587105022 -0.0027141368218836035 0 -0.0041682698279293098 -0.0010568911429963336 0 -0.0044126414630951778 -0.0021098773824300729 0 -0.0048016583588157604 -0.00045783699080248345 0 -0.0041682698279293098 -0.0010568911429963336 0 -0.0044126414630951778 -0.0021098773824300729 0 -0.0037101764587105022 -0.0027141368218836035 0 -0.0052687959170370311 -6.2430536383472398e-05 0 -0.0051008121655041474 -0.0014980289357435048 0 -0.0056453786056523333 -0.0010050585808103003 0 -0.0044126414630951778 -0.0021098773824300729 0 -0.0048016583588157604 -0.00045783699080248345 0 -0.0051008121655041474 -0.0014980289357435048 0 -0.0052687959170370311 -6.2430536383472398e-05 0 -0.0048016583588157604 -0.00045783699080248345 0 -0.0051008121655041474 -0.0014980289357435048 0 -0.0049698318343996623 -0.0029832122730617172 0 -0.0044126414630951778 -0.0021098773824300729 0 -0.0051008121655041474 -0.0014980289357435048 0 -0.0051008121655041474 -0.0014980289357435048 0 -0.0055846400404752031 -0.0019959545508856469 0 -0.0056453786056523333 -0.0010050585808103003 0 -0.0049698318343996623 -0.0029832122730617172 0 -0.0051008121655041474 -0.0014980289357435048 0 -0.0055846400404752031 -0.0019959545508856469 0 -0.0055846400404752031 -0.0019959545508856469 0 -0.0056453786056523333 -0.0010050585808103003 0 -0.006187396270596994 -0.0014025562931950922 0 -0.0056453786056523333 -0.0010050585808103003 0 -0.0059902256729375009 -0.00020315234220882512 0 -0.006187396270596994 -0.0014025562931950922 0 -0.0052687959170370311 -6.2430536383472398e-05 0 -0.0056453786056523333 -0.0010050585808103003 0 -0.0059902256729375009 -0.00020315234220882512 0 -0.0059902256729375009 -0.00020315234220882512 0 -0.006187396270596994 -0.0014025562931950922 0 -0.0068331544180104398 -0.00057712320776222325 0 0.00036824607001854828 -0.0013760788903419482 0 0.0010713077336703505 -0.0018328541279815887 0 0.0006233358223935912 -0.0013343551410429108 0 -0.004989787744090814 -0.0019426297487817009 0 -0.0047732282856050969 -0.0009695288121377957 0 -0.006187396270596994 -0.0014025562931950922 0 -0.0070760616955641469 -0.0019293957397737641 0 -0.0068331544180104398 -0.00057712320776222325 0 0.00081303102752344064 -0.0018888794764581598 0 0.00036824607001854828 -0.0013760788903419482 0 0.0010713077336703505 -0.0018328541279815887 0 0.00036824607001854828 -0.0013760788903419482 0 0.0006233358223935912 -0.0013343551410429108 0 0.00011030069747824669 -0.00099676516280846131 0 0.0006233358223935912 -0.0013343551410429108 0 0.00011030069747824669 -0.00099676516280846131 0 0.000203792408233241 -0.00086821196714225975 0 -0.0059902256729375009 -0.00020315234220882512 0 -0.0068331544180104398 -0.00057712320776222325 0 -0.0062181473306326777 0.00070306680732974041 0 -0.0047732282856050969 -0.0009695288121377957 0 -0.0037667763385425047 -0.00028659335692158763 0 0.00011030069747824669 -0.00099676516280846131 0 -0.00025043314966907818 -0.00053146603642121454 0 0.000203792408233241 -0.00086821196714225975 0 -0.00023764706819573667 -0.00064248530047884367 0 0.00011030069747824669 -0.00099676516280846131 0 -0.00025043314966907818 -0.00053146603642121454 0 -0.00024981191451353761 -0.0003842662086934105 0 -0.00025043314966907818 -0.00053146603642121454 0 0.000203792408233241 -0.00086821196714225975 0 -0.0052822040816610169 0.0014764989452451991 0 -0.0062181473306326777 0.00070306680732974041 0 -0.0054445556417977107 0.00069431822431463238 0 -0.0052822040816610169 0.0014764989452451991 0 -0.004954144323237453 0.0017550786888482219 0 -0.0054445556417977107 0.00069431822431463238 0 -0.0052687959170370311 -6.2430536383472398e-05 0 -0.0059902256729375009 -0.00020315234220882512 0 -0.0054445556417977107 0.00069431822431463238 0 -0.0059902256729375009 -0.00020315234220882512 0 -0.0062181473306326777 0.00070306680732974041 0 -0.0054445556417977107 0.00069431822431463238 0 
</DataArray>
</PointData>
<CellData Scalars="region_id,cross_section_updated,displacement_divergence," Vectors="" Tensors="stress,">
<DataArray type="Float64" Name="region_id" format="ascii">
1 1 1 1 1 1 1 1 1 1 1 1 1 1 1 1 1 1 1 1 1 1 1 1 1 1 1 1 1 1 1 1 1 1 1 1 1 1 1 1 1 1 1 1 1 1 1 1 1 1 1 1 1 1 1 1 1 1 1 1 1 1 1 1 1 1 1 1 1 1 1 1 1 1 1 1 1 1 1 1 1 1 1 1 1 1 1 1 1 1 1 1 1 1 1 1 1 1 1 1 1 1 1 1 1 1 1 1 1 1 1 1 1 1 1 1 1 1 1 1 1 1 1 1 1 1 1 1 1 1 1 1 1 1 1 1 1 1 1 1 1 1 1 1 1 1 1 1 1 1 1 1 1 1 1 1 1 1 1 1 1 1 1 1 1 1 1 1 1 1 1 1 1 1 1 1 1 1 1 1 1 1 1 1 1 1 1 1 1 1 1 1 1 1 1 1 1 1 1 1 1 1 1 1 1 1 1 1 1 1 1 1 1 1 1 1 1 1 1 1 1 1 1 1 1 1 1 1 1 1 1 1 1 1 1 1 1 1 1 1 1 1 1 1 1 1 1 1 1 1 1 1 1 1 1 1 1 1 1 1 1 1 1 1 1 1 1 1 1 1 1 1 1 1 1 1 1 1 1 1 1 1 1 1 1 1 1 1 1 1 1 1 1 1 1 1 1 1 1 1 1 1 1 1 1 1 1 1 1 1 1 1 1 1 1 1 1 1 1 1 1 1 1 1 1 1 1 1 1 1 1 1 1 1 1 1 1 1 1 1 1 1 1 1 1 1 1 1 1 1 1 1 1 1 1 1 1 1 1 1 1 1 1 1 1 1 1 1 1 1 1 1 1 1 1 1 1 1 1 1 1 1 1 1 1 1 1 1 1 1 1 1 1 1 1 1 1 1 1 1 1 1 1 1 1 1 1 1 1 1 1 1 1 1 1 1 1 1 1 1 1 1 1 1 1 1 1 1 1 1 1 1 1 1 1 1 1 1 1 1 1 1 1 1 1 1 1 1 1 1 1 1 1 1 1 1 1 1 1 1 1 1 1 1 1 1 1 1 1 1 1 1 1 1 1 1 1 1 1 1 1 1 1 1 1 1 1 1 1 1 1 1 1 1 1 1 1 1 1 1 1 1 1 1 1 1 1 1 1 1 1 1 1 1 1 1 1 1 1 1 1 1 1 1 1 1 1 1 1 1 1 1 1 1 1 1 1 1 3 1 1 3 1 1 3 1 1 1 1 1 1 1 1 1 1 1 1 1 3 1 1 1 1 1 3 1 1 1 1 1 1 1 1 1 1 1 1 1 1 1 1 1 1 1 1 1 1 1 1 1 1 1 1 1 1 1 1 1 1 1 1 1 1 1 1 1 1 1 1 1 1 1 1 1 1 1 1 1 1 1 1 1 1 1 1 1 1 1 1 1 1 1 1 1 1 1 1 1 1 1 1 1 1 1 1 1 1 1 1 1 1 1 1 1 1 1 1 1 1 1 1 1 1 1 1 1 1 1 1 1 1 1 1 1 1 1 1 1 1 1 1 1 1 1 1 1 1 1 1 1 1 1 1 1 1 1 1 1 1 1 1 1 1 1 1 1 1 1 1 1 1 1 1 1 1 1 1 1 1 1 1 1 1 1 1 1 1 1 1 1 1 1 1 3 1 1 1 3 1 1 3 1 1 1 1 1 1 1 1 1 1 1 3 1 1 1 1 3 1 1 1 1 1 1 1 1 1 1 1 1 1 1 1 1 1 1 1 1 1 1 1 1 1 1 1 1 1 1 1 1 1 1 1 1 1 1 1 1 1 1 1 1 1 1 1 1 1 1 1 1 1 1 1 1 1 1 2 1 1 1 1 1 1 1 1 1 1 1 1 1 1 2 1 1 2 1 2 1 1 1 1 1 1 1 1 1 1 1 1 1 2 1 1 1 1 1 1 1 1 1 1 1 1 1 1 1 1 1 1 1 1 1 1 1 1 1 1 1 1 1 1 1 1 1 1 1 1 1 1 1 1 1 1 1 1 1 1 1 1 1 1 1 1 1 1 1 1 1 1 1 1 1 1 1 1 1 1 1 1 1 1 1 1 1 1 1 1 1 1 1 1 1 1 1 1 1 1 1 1 1 1 1 1 1 1 1 1 1 1 1 1 1 1 1 1 1 1 1 1 1 1 1 1 1 1 1 1 1 1 1 1 1 1 1 1 1 1 1 1 1 1 1 1 1 1 1 1 2 1 1 2 1 2 1 1 1 1 1 1 1 1 1 1 1 1 1 1 1 1 1 1 1 1 1 1 1 1 1 1 1 1 1 1 1 1 1 1 1 1 1 1 1 1 1 1 1 1 1 1 1 2 1 1 1 1 1 2 1 1 1 1 1 1 1 
</DataArray>
<DataArray type="Float64" Name="stress" NumberOfComponents="9" format="ascii">
-731.63036686734688 -229.85699125237241 0 -229.85699125237241 -2197.9552919129555 0 0 0 -732.39641469507558 -350.63118063874526 -263.5766891759248 0 -263.5766891759248 -2512.4067790557301 0 0 0 -715.75948992361896 -436.14896918783285 -104.05657628789822 0 -104.05657628789822 -1988.1704819219301 0 0 0 -606.07986277744078 -92.090029804692676 -153.95840325158565 0 -153.95840325158565 -2334.3849683692915 0 0 0 -606.61874954349594 3.9901202758936112 28.457498927295092 0 28.457498927295092 -2254.5657688857505 0 0 0 -562.64391215246451 -30.33513237682746 57.324551311248982 0 57.324551311248982 -2350.4371994607091 0 0 0 -595.19308295938436 -107.62807147902913 21.981003019495802 0 21.981003019495802 -2215.6516978283225 0 0 0 -580.81994232683792 -29.832992708798429 14.896989614080169 0 14.896989614080169 -2194.7357798047633 0 0 0 -556.14219312839032 -63.396075985072002 59.962456100348845 0 59.962456100348845 -2164.0549628094077 0 0 0 -556.86275969861981 -85.964782899858847 152.31402741187503 0 152.31402741187503 -2085.9031584325739 0 0 0 -542.96698533310814 -204.23665035843942 65.707047842345787 0 65.707047842345787 -1943.5065281286907 0 0 0 -536.93579462178286 -123.1994900672604 183.77186576265444 0 183.77186576265444 -1745.5594347498368 0 0 0 -467.18973120427415 -298.81646508105047 47.855049979714181 0 47.855049979714181 -1790.0385435605735 0 0 0 -522.21375216040587 -184.83071267706953 102.49742264820763 0 102.49742264820763 -1833.5015674783504 0 0 0 -504.583070038855 -615.24350274277958 -14.341498511666295 0 -14.341498511666295 -1846.4089550778058 0 0 0 -615.41311445514623 -688.29123253115449 -141.18724912558491 0 -141.18724912558491 -2064.9943078006445 0 0 0 -688.32138508294975 -252.17044919293519 48.639502390198523 0 48.639502390198523 -1736.6250853382392 0 0 0 -497.19888363279352 -362.76967152178497 -32.272552773736663 0 -32.272552773736663 -2025.2808106639129 0 0 0 -597.0126205464245 -18.740972916655664 107.21888589366472 0 107.21888589366472 -2703.9217832254162 0 0 0 -680.66568903551752 3.1726275860464739 86.996433638349572 0 86.996433638349572 -2391.0416126853015 0 0 0 -596.96724627481353 -76.128111907077823 181.09351101804077 0 181.09351101804077 -2449.1900900182682 0 0 0 -631.32955048133556 -39.683169940097287 79.683865251968655 0 79.683865251968655 -2374.4234826745796 0 0 0 -603.52666315366878 16.493184830209884 105.77178064408895 0 105.77178064408895 -2219.7134055350725 0 0 0 -550.80505517621577 -15.132731866164931 185.29126744231326 0 185.29126744231326 -2151.9179290392794 0 0 0 -541.76266522636092 -7.7764618330106714 95.149972907396204 0 95.149972907396204 -2503.9795639638014 0 0 0 -627.93900644920359 -30.452764816384843 175.14773651694304 0 175.14773651694304 -1922.1732126925463 0 0 0 -488.15649437723323 -153.78278931543036 183.38505782092898 0 183.38505782092898 -1964.0342581982691 0 0 0 -529.45426187842486 -51.423446333637912 170.92117692634451 0 170.92117692634451 -2147.8158443659131 0 0 0 -549.80982267488753 -105.22554649134213 244.65664034757538 0 244.65664034757538 -2125.8878267123696 0 0 0 -557.77834330092787 -45.383324102502684 274.49457533647137 0 274.49457533647137 -1931.2337047000756 0 0 0 -494.15425720064468 11.866260995843277 248.97419843013222 0 248.97419843013222 -2097.7329206452196 0 0 0 -521.46666491234373 -68.699818216294261 236.54818615182194 0 236.54818615182194 -2534.3615835497567 0 0 0 -650.76535044151296 -69.881577246882443 345.21351921795429 0 345.21351921795429 -1764.6272706819236 0 0 0 -458.62721198220152 -179.49075281287878 338.59025560412249 0 338.59025560412249 -1795.9953509461848 0 0 0 -493.87152593976634 -131.39856999054382 273.90720280581172 0 273.90720280581172 -1417.3026061804112 0 0 0 -387.17529404273887 -167.37701414359663 200.45224091731507 0 200.45224091731507 -1428.1178207194002 0 0 0 -398.87370871574899 -104.83482649531197 203.83348351877453 0 203.83348351877453 -1721.8318230572554 0 0 0 -456.66666238814196 -181.03436627411202 292.48086994405821 0 292.48086994405821 -1721.8740431595925 0 0 0 -475.72710235842624 -199.50630663126685 240.05822046337542 0 240.05822046337542 -1558.3489087952898 0 0 0 -439.46380385663929 -226.60469153101781 196.16835704870959 0 196.16835704870959 -1139.7536389578609 0 0 0 -341.58958262221972 -253.75826637457192 252.71904629209735 0 252.71904629209735 -1113.2633935729277 0 0 0 -341.75541498687483 -228.50467730375976 267.71263360544913 0 267.71263360544913 -858.69867000716022 0 0 0 -271.80083682772988 -257.65842489731813 300.75749209766673 0 300.75749209766673 -1426.5064935117152 0 0 0 -421.041229602258 -246.41171175233077 341.82721248589087 0 341.82721248589087 -1448.1413370309106 0 0 0 -423.63826219581028 -177.0027788849643 266.71999605761755 0 266.71999605761755 -1088.5039357221867 0 0 0 -316.37667865178764 -292.79019205864677 263.22189052053773 0 263.22189052053773 -1123.5192740120276 0 0 0 -354.07736651766879 -310.84523555468149 395.34320244164701 0 395.34320244164701 -1102.7433322331976 0 0 0 -353.39714194696944 -179.10621178831661 322.86904668678869 0 322.86904668678869 -1131.0152360403035 0 0 0 -327.53036195715504 -322.93280034295026 159.37311517508778 0 159.37311517508778 -1548.5587388964384 0 0 0 -467.87288480984711 -286.94298209680971 183.71061649468976 0 183.71061649468976 -1337.3457149136225 0 0 0 -406.07217425260819 -448.75075226378516 120.42299480935696 0 120.42299480935696 -1345.9344149737256 0 0 0 -448.67129180937775 -344.60549354634929 124.37809665036741 0 124.37809665036741 -1561.4565941702833 0 0 0 -476.51552192915818 -197.60605773822124 165.24956811270772 0 165.24956811270772 -1558.6121342251249 0 0 0 -439.05454799083662 -216.1216540082288 126.91788329423844 0 126.91788329423844 -1700.462498318002 0 0 0 -479.14603808155778 -244.26560070469048 143.42371857496175 0 143.42371857496175 -1350.1847697111677 0 0 0 -398.61259260396463 -266.0405638371202 144.01777988876893 0 144.01777988876893 -1551.5373417423073 0 0 0 -454.39447639485718 -236.79800814159273 236.36029630362034 0 236.36029630362034 -1290.538818469528 0 0 0 -381.83420665278015 -268.03472463794594 142.17349421845142 0 142.17349421845142 -1075.7524317047914 0 0 0 -335.9467890856846 -277.28245387482656 211.03170423613619 0 211.03170423613619 -1020.8479949304062 0 0 0 -324.53261220130793 -294.14401071331821 223.76746506925636 0 223.76746506925636 -1107.2509003120647 0 0 0 -350.3487277563458 -268.60750905544899 141.73170371838557 0 141.73170371838557 -1019.6623797361933 0 0 0 -322.06747219791055 -317.16716021044601 132.843233222761 0 132.843233222761 -1300.6216548977814 0 0 0 -404.44720377705687 -329.00979052811886 218.93936562480349 0 218.93936562480349 -1212.6060554461294 0 0 0 -385.40396149356195 -362.80575549554999 148.1629871919547 0 148.1629871919547 -1088.7033408056036 0 0 0 -362.87727407528843 -269.84788689257357 141.23924548748667 0 141.23924548748667 -809.44686710701012 0 0 0 -269.82368849989592 -334.14232555926333 245.22308572617715 0 245.22308572617715 -942.38726256193331 0 0 0 -319.13239703029922 -252.14918586816719 226.9005660447165 0 226.9005660447165 -705.97316637497784 0 0 0 -239.53058806078627 -184.75026955478336 135.14646277471101 0 135.14646277471101 -554.01966345932078 0 0 0 -184.69248325352606 -261.58847514682441 113.05971612770443 0 113.05971612770443 -383.19982263681175 0 0 0 -161.19707444590901 -224.06145607319704 120.81128643825105 0 120.81128643825105 -368.09498858563973 0 0 0 -148.03911116470917 -224.40089355192373 189.20966990336754 0 189.20966990336754 -471.54040716560513 0 0 0 -173.98532517938222 -126.94556276179925 113.58576104537339 0 113.58576104537339 -380.86900804111764 0 0 0 -126.95364270072922 -268.99431000750769 80.786591686869372 0 80.786591686869372 -291.13098189827235 0 0 0 -140.03132297644501 -318.96038380415393 152.22514414324451 0 152.22514414324451 -339.15132836620057 0 0 0 -164.5279280425886 -284.53757743083099 177.40847111483308 0 177.40847111483308 -526.30955125961759 0 0 0 -202.71178217261212 -279.35477505894119 102.59672421042347 0 102.59672421042347 -503.52431524643532 0 0 0 -195.71977257634398 -292.01035888223089 186.80753131358256 0 186.80753131358256 -586.58090471593994 0 0 0 -219.64781589954268 -290.52972451354458 132.87407611489783 0 132.87407611489783 -577.72598939528314 0 0 0 -217.06392847720696 -274.84274095172793 147.34939009363487 0 147.34939009363487 -789.55424559060907 0 0 0 -266.09924663558428 -298.40657834150011 173.45980482185837 0 173.45980482185837 -797.10234482659985 0 0 0 -273.87723079202493 -258.72445204075007 174.31845177751075 0 174.31845177751075 -857.64669595980649 0 0 0 -279.0927870001392 -275.85693882122519 234.40924045426641 0 234.40924045426641 -777.75531062605842 0 0 0 -263.40306236182084 -287.74525464053477 180.56207507313849 0 180.56207507313849 -815.37756433068853 0 0 0 -275.78070474280594 -306.49061703939384 129.77191202485005 0 129.77191202485005 -470.27321514689311 0 0 0 -194.19095804657167 -316.76677453912396 240.15740167971455 0 240.15740167971455 -626.19226098338845 0 0 0 -235.73975888062807 -302.21114453801454 134.49748203770798 0 134.49748203770798 -650.27460158105396 0 0 0 -238.12143652976715 -296.44149474667438 283.74872561278528 0 283.74872561278528 -836.49520101890721 0 0 0 -283.23417394139551 -284.73062083818081 300.55356931881181 0 300.55356931881181 -777.03003038023871 0 0 0 -265.4401628046046 -306.48439834447998 187.14607455085456 0 187.14607455085456 -640.2253654080323 0 0 0 -236.6774409381282 -348.56396038182879 206.0769946086713 0 206.0769946086713 -459.359314718532 0 0 0 -201.98081877509026 -349.89354274277002 225.74889993683445 0 225.74889993683445 -440.74556304342877 0 0 0 -197.65977644654981 -327.91509436200511 107.14976930728528 0 107.14976930728528 -213.60430802768383 0 0 0 -135.37985059742229 -332.39045334769548 107.42638253378178 0 107.42638253378178 -214.17455554731339 0 0 0 -136.64125222375213 -345.39673891681548 41.866834005703858 0 41.866834005703858 76.534299275060334 0 0 0 -67.215609910438786 -329.52121099239321 193.60015231815873 0 193.60015231815873 -487.80419197147717 0 0 0 -204.33135074096754 -287.85717715858624 117.76740772456009 0 117.76740772456009 -431.98687427204374 0 0 0 -179.96101285765747 -342.7869679150815 168.41628075818448 0 168.41628075818448 -415.43507476345826 0 0 0 -189.55551066963497 -277.56815977727325 88.853920559331755 0 88.853920559331755 -221.83335267613927 0 0 0 -124.85037811335309 -324.12229756884699 121.95818515718372 0 121.95818515718372 -227.04553693479784 0 0 0 -137.79195862591118 -320.31697090334666 90.48906522545137 0 90.48906522545137 -81.930945299543623 0 0 0 -100.56197905072256 -293.18436450225011 -5.8672000963051438 0 -5.8672000963051438 151.44843882750536 0 0 0 -35.433981418686201 -250.99196086655184 21.140135592405862 0 21.140135592405862 -59.569546870797353 0 0 0 -77.640376934337311 -327.41131424843513 -13.74914145374359 0 -13.74914145374359 53.913640673874681 0 0 0 -68.374418393640099 -317.29323109005827 51.729607191140047 0 51.729607191140047 -11.428965528792219 0 0 0 -82.180549154712608 -217.15296586240072 20.167952952257892 0 20.167952952257892 3.1442037241961458 0 0 0 -53.502190534551119 -295.61518391407719 -57.629765539198985 0 -57.629765539198985 225.19284551259113 0 0 0 -17.605584600371571 -69.220195179353198 -143.20847517956503 0 -143.20847517956503 274.90359735284886 0 0 0 51.420850543373916 -187.65126705489607 -119.59427551280217 0 -119.59427551280217 394.05569817537207 0 0 0 51.601107780118895 -119.63482283221492 -195.03327791872888 0 -195.03327791872888 388.78734738034268 0 0 0 67.288131137031883 -49.756717418368282 -235.38842958609564 0 -235.38842958609564 363.31621053426579 0 0 0 78.389873278974449 -52.327957448042639 -252.79818052316097 0 -252.79818052316097 617.79046545812059 0 0 0 141.36562700251943 -215.92668625643557 -98.819048523140367 0 -98.819048523140367 248.47640673370006 0 0 0 8.13743011931615 -199.84751451957175 -51.667038590331913 0 -51.667038590331913 148.51666174641434 0 0 0 -12.832713193289337 -111.51116165615197 -168.90198125923695 0 -168.90198125923695 230.77970344663396 0 0 0 29.817135447620487 -268.51891610827107 -29.302283877878086 0 -29.302283877878086 103.56157265370472 0 0 0 -41.2393358636416 -170.18289407886218 -111.82382089680735 0 -111.82382089680735 161.72731351406037 0 0 0 -2.1138951412004552 -208.56339245827525 -42.171054308931943 0 -42.171054308931943 54.010008286052113 0 0 0 -38.63834604305579 -259.74992888055885 0.72721425219307889 0 0.72721425219307889 -3.5435268692460937 0 0 0 -65.823363937451234 -150.4371571167774 -64.338367449003428 0 -64.338367449003428 59.852615304495338 0 0 0 -22.646135453070507 -190.46966115553798 -53.272510036608509 0 -53.272510036608509 -61.20983334038911 0 0 0 -62.919873623981779 -9.0011321347351156 -25.209670374809004 0 -25.209670374809004 -27.005560554939567 0 0 0 -9.0016731724186698 -200.14776520416115 36.097423866103433 0 36.097423866103433 -132.99707276886315 0 0 0 -83.286209493256081 -161.62843529444274 7.2781337764511074 0 7.2781337764511074 -51.550406606487357 0 0 0 -53.294710475232527 -172.35417382861033 90.688526861906524 0 90.688526861906524 -238.40381878037243 0 0 0 -102.6894981522457 -237.02812416652256 46.286902232469544 0 46.286902232469544 -87.870772914692068 0 0 0 -81.224724270303653 -41.47178734873588 29.921944124930516 0 29.921944124930516 -124.03578673298162 0 0 0 -41.37689352042937 -220.09957803861707 115.35291521487974 0 115.35291521487974 -249.38152613837624 0 0 0 -117.37027604424833 -296.40594780111849 94.956943048385199 0 94.956943048385199 -186.90209519187161 0 0 0 -120.82701074824755 -298.05449844829775 40.274838370870043 0 40.274838370870043 3.5135585859655123 0 0 0 -73.635234965583066 -229.35748511466397 41.444101907955584 0 41.444101907955584 -158.61589332974654 0 0 0 -96.993344611102614 -606.51944189160122 426.8915091396475 0 426.8915091396475 1139.7999588037555 0 0 0 133.3201292280387 -756.68726882485248 337.41520599728 0 337.41520599728 904.97327123646573 0 0 0 37.071500602902915 -752.06357224016278 252.63231807792641 0 252.63231807792641 729.25231498554172 0 0 0 -5.7028143136551535 -664.0827733188155 450.47119171196027 0 450.47119171196027 980.44954174042766 0 0 0 79.091692105403325 -206.66510425594993 643.58926354183484 0 643.58926354183484 1134.0358636432011 0 0 0 231.84268984681262 -272.51095704521003 670.54556022937732 0 670.54556022937732 1513.4210746948438 0 0 0 310.22752941240833 -529.94013853394642 179.99149906984439 0 179.99149906984439 1486.5364262207136 0 0 0 239.1490719216923 -640.54521362302694 221.43752442123446 0 221.43752442123446 1436.1593203225648 0 0 0 198.90352667488423 -354.95808739913036 177.95089685774292 0 177.95089685774292 1383.3251012622486 0 0 0 257.09175346577968 -477.49125353046065 232.57044502647045 0 232.57044502647045 1313.2794981823563 0 0 0 208.94706116297357 -971.80664715749162 59.914233592974369 0 59.914233592974369 1166.264186105248 0 0 0 48.614384736938973 -772.08880414613213 155.84191731925864 0 155.84191731925864 1038.9999529930155 0 0 0 66.72778721172017 -910.23545475148148 199.07283740888533 0 199.07283740888533 1207.0300529560384 0 0 0 74.198649551140079 -950.91182056249534 62.175313009087517 0 62.175313009087517 1046.3091557468751 0 0 0 23.84933379609447 -1078.5969309899876 -57.884623199885937 0 -57.884623199885937 898.34103197828608 0 0 0 -45.063974752925105 -530.45674222765319 -726.79230605707141 0 -726.79230605707141 1498.8633276969051 0 0 0 242.10164636731315 -1424.8015990823556 -395.81415293788734 0 -395.81415293788734 972.11455891258811 0 0 0 -113.17176004244186 -549.26035083400529 -376.97166235342291 0 -376.97166235342291 1027.7181184778931 0 0 0 119.61444191097189 -1262.6818743085007 60.749447117113959 0 60.749447117113959 1084.2446270284913 0 0 0 -44.609311820002176 -220.3149355486895 -557.00248690094213 0 -557.00248690094213 904.28193368285656 0 0 0 170.99174953354168 266.69206585753852 -408.07664133523696 0 -408.07664133523696 603.79719689266767 0 0 0 217.62231568755135 -281.78270226506754 -519.92086272130678 0 -519.92086272130678 862.67014037334229 0 0 0 145.2218595270682 -596.95057953488129 -410.79930920999436 0 -410.79930920999436 745.27888219179363 0 0 0 37.082075664228455 -272.59979191732248 -271.69274873098232 0 -271.69274873098232 454.86754034225322 0 0 0 45.566937106232757 -263.12667139898144 -277.95645025139208 0 -277.95645025139208 476.00324909288463 0 0 0 53.219144423475768 -381.20841707429992 -107.25793052178372 0 -107.25793052178372 475.15886500323126 0 0 0 23.487611982232764 -581.284065792055 12.344801099337488 0 12.344801099337488 177.39691676828477 0 0 0 -100.97178725594243 -903.83444683673679 19.607696156686814 0 19.607696156686814 985.61255352278124 0 0 0 20.444526671511312 -877.11569401638883 -120.43736131593391 0 -120.43736131593391 661.7025337239653 0 0 0 -53.853290073105882 -420.44578947444296 -50.012887186377355 0 -50.012887186377355 812.1414498522837 0 0 0 97.923915094460156 -744.16943554935369 157.2726648815152 0 157.2726648815152 224.29327277197376 0 0 0 -129.96904069434493 -534.82297505904569 251.97737255692616 0 251.97737255692616 746.74544182300917 0 0 0 52.980616690990985 -474.27140320681099 183.81824759454997 0 183.81824759454997 235.24068045960212 0 0 0 -59.757680686802246 -390.69542535938035 442.81719710002449 0 442.81719710002449 166.2374741388586 0 0 0 -56.11448780513021 -430.63024840111882 106.84908163374706 0 106.84908163374706 -161.70282818895771 0 0 0 -148.08326914751882 -409.42752618154918 61.433848108118127 0 61.433848108118127 260.02285061841576 0 0 0 -37.351168890783441 -566.19439819313084 171.25317747891327 0 171.25317747891327 -63.898276619871467 0 0 0 -157.52316870325058 -378.00217263881035 297.22480127737572 0 297.22480127737572 53.246354339971845 0 0 0 -81.18895457470984 -373.7418249911002 229.73125387752782 0 229.73125387752782 -119.95072691752557 0 0 0 -123.42313797715647 -451.73271187096907 248.14899235038251 0 248.14899235038251 -432.43580197699612 0 0 0 -221.04212846199084 -317.90618416595885 384.69871087007141 0 384.69871087007141 -407.08743178650616 0 0 0 -181.24840398811625 -364.47384684015196 350.12233467126839 0 350.12233467126839 -824.51712593327829 0 0 0 -297.24774319335756 -303.85384930062878 352.12341082314879 0 352.12341082314879 -552.2549814958968 0 0 0 -214.02720769913117 -502.27813078252439 475.63213776955104 0 475.63213776955104 -265.50877210565977 0 0 0 -191.94672572204627 -502.89533836244823 342.7300229253309 0 342.7300229253309 -325.03239470529388 0 0 0 -206.98193326693536 -381.53859511122442 446.69992363463825 0 446.69992363463825 -308.42501116216863 0 0 0 -172.49090156834819 -377.01046693822059 390.03461845811194 0 390.03461845811194 -611.16065727583191 0 0 0 -247.04278105351295 -379.49847370796238 424.14931778920715 0 424.14931778920715 -331.59191815630311 0 0 0 -177.77259796606609 -217.41924285169011 616.59064544703324 0 616.59064544703324 -570.32693019500221 0 0 0 -196.93654326167257 -104.39287110052123 721.05760021114247 0 721.05760021114247 -289.18395171857901 0 0 0 -98.394205704775004 -135.42338356363439 695.5207249554303 0 695.5207249554303 -628.59424176399534 0 0 0 -191.0044063319076 -366.37791751368684 562.53049222372374 0 562.53049222372374 -250.45098841430024 0 0 0 -154.20722648199663 -334.79268164491009 550.95245187524893 0 550.95245187524893 168.56351928272989 0 0 0 -41.557290590544881 -525.83391087185589 535.50300536137877 0 535.50300536137877 112.48463774359728 0 0 0 -103.33731828206449 -377.04280971204122 576.76890769875786 0 576.76890769875786 548.42525365440474 0 0 0 42.845610985590838 -177.66535355449773 732.63296644404079 0 732.63296644404079 220.30461299475326 0 0 0 10.659814860064365 -596.11239582146845 520.49172163630635 0 520.49172163630635 450.01028481946463 0 0 0 -36.525527750501347 -492.61154418100091 472.18051075933306 0 472.18051075933306 926.35325494740403 0 0 0 108.43542769160123 -698.73577265118342 337.64866448191356 0 337.64866448191356 369.9671219210004 0 0 0 -82.192162682545529 46.11727019373302 882.13950159366129 0 882.13950159366129 1327.5545613041877 0 0 0 343.41795787448041 -304.34086535489126 686.72489953656327 0 686.72489953656327 617.28199349488 0 0 0 78.235282034997454 -290.08066700054474 692.92263267016267 0 692.92263267016267 1050.787603065603 0 0 0 190.17673401626442 -197.85219185024687 717.89771635905959 0 717.89771635905959 121.5468646867912 0 0 0 -19.076331790864288 100.82054266569261 826.31098436106527 0 826.31098436106527 437.95947467317808 0 0 0 134.69500433471794 84.181051053942753 911.26894211995136 0 911.26894211995136 625.13738428547651 0 0 0 177.32960883485489 111.65333455129939 783.99634737705537 0 783.99634737705537 -374.41957057695345 0 0 0 -65.691559006412945 117.29841793849664 882.8294957867206 0 882.8294957867206 -56.727310598453641 0 0 0 15.142776835010409 374.29596422832321 914.19821783293901 0 914.19821783293901 -536.68204151524515 0 0 0 -40.59651932173108 216.72715030933159 813.90595894193007 0 813.90595894193007 -1020.2490263913915 0 0 0 -200.88046902051519 101.36198965186895 661.10415136796064 0 661.10415136796064 -1448.6675757797457 0 0 0 -336.82639653196884 24.524992809120704 834.1761609030691 0 834.1761609030691 -755.85203388002083 0 0 0 -182.8317602677248 118.57326308844767 696.74832043167817 0 696.74832043167817 -921.53994729815804 0 0 0 -200.7416710524285 -275.5170255290459 587.61802471298301 0 587.61802471298301 -850.94903765526578 0 0 0 -281.61651579607769 -137.04541141511822 550.47721195549502 0 550.47721195549502 -1328.5655554099731 0 0 0 -366.40274170627276 -43.08991359998754 744.3540842521237 0 744.3540842521237 -1033.2891576358998 0 0 0 -269.09476780897194 -73.303910305852696 683.41003926452322 0 683.41003926452322 -983.35765080684178 0 0 0 -264.16539027817362 -9.6018545429096775 538.55151740724818 0 538.55151740724818 -1868.0990355372742 0 0 0 -469.42522252004619 61.930912815751071 668.40414550131118 0 668.40414550131118 -1644.1335264973877 0 0 0 -395.55065342040825 -106.19477539207946 468.97265589239396 0 468.97265589239396 -2079.3016103517693 0 0 0 -546.37409643596311 201.06768190490129 632.27998567118084 0 632.27998567118084 -2030.5813599858939 0 0 0 -457.37841952024701 27.844715363939031 402.12399810220461 0 402.12399810220461 -2469.7200443627407 0 0 0 -610.46883224970043 259.58962300891199 626.27438417478243 0 626.27438417478243 -1960.7692875762932 0 0 0 -425.29491614184462 207.3062091959564 515.84423343668914 0 515.84423343668914 -1924.3688564559052 0 0 0 -429.26566181498765 66.838928738124082 662.90785543066704 0 662.90785543066704 -1460.3641185288607 0 0 0 -348.38129744768378 -226.62466271414769 378.92064117607049 0 378.92064117607049 -768.51592497725687 0 0 0 -248.78514692285125 -257.24121405823325 481.20148704486837 0 481.20148704486837 -1188.2569019569892 0 0 0 -361.37452900380549 -179.0728987652019 389.1371809398961 0 389.1371809398961 -1244.2420451018065 0 0 0 -355.82873596675245 -254.56270556314894 532.23341917870357 0 532.23341917870357 -1397.8675635796826 0 0 0 -413.10756728570914 -196.47864337188184 472.60241184078245 0 472.60241184078245 -920.50307407731088 0 0 0 -279.24542936229773 -254.90205426443958 572.22533486178008 0 572.22533486178008 -766.49975267597847 0 0 0 -255.35045173510457 -306.5396380699699 545.64347597576079 0 545.64347597576079 -1030.559672785299 0 0 0 -334.2748277138171 -113.33975166543553 588.18821360866423 0 588.18821360866423 -951.91861531174254 0 0 0 -266.31459174429449 -149.96980336686192 575.18822165230858 0 575.18822165230858 -1481.3394660629638 0 0 0 -407.8273173574562 -121.69554083346702 437.59435765896023 0 437.59435765896023 -1699.0968267960034 0 0 0 -455.19809190736669 -36.659578670637529 598.10195011022461 0 598.10195011022461 -1878.4187019018145 0 0 0 -478.76957014311347 -145.50212752242305 497.05545982533295 0 497.05545982533295 -1404.7101247123492 0 0 0 -387.55306305869271 -170.54999968834227 517.69088060521403 0 517.69088060521403 -1617.1466315478647 0 0 0 -446.9241578090523 -123.059214967657 358.93092030405342 0 358.93092030405342 -1835.874699229842 0 0 0 -489.73347854937492 -124.16997413142053 429.0762269062343 0 429.0762269062343 -1714.8502009586655 0 0 0 -459.75504377252219 -208.55603632794509 428.03622023145954 0 428.03622023145954 -1474.4034019084074 0 0 0 -420.73985955908802 -106.53983793392899 331.24160382362822 0 331.24160382362822 -1509.307145884417 0 0 0 -403.96174595458615 -33.567477081462712 270.24267979570868 0 270.24267979570868 -2220.1354653753183 0 0 0 -563.42573561419579 -132.0679535057161 321.4123042549769 0 321.4123042549769 -1946.2821482189211 0 0 0 -519.58752543115861 -69.231985037871254 357.49226413865881 0 357.49226413865881 -2226.3135852472296 0 0 0 -573.88639257127579 -73.013758193364311 454.47013061643702 0 454.47013061643702 -1896.2287245423213 0 0 0 -492.31062068392134 -32.045163095958742 304.62762049303342 0 304.62762049303342 -2661.2778517281258 0 0 0 -673.33075370602182 4.3407158371326204 296.40551538525506 0 296.40551538525506 -2349.3573852037885 0 0 0 -586.2541673416647 -51.470159494608197 445.09946225787735 0 445.09946225787735 -2311.5655295458218 0 0 0 -590.75892226010728 -95.624067639747409 376.68168972626086 0 376.68168972626086 -2252.0408565704493 0 0 0 -586.91623105254894 65.310281005054549 458.23286611163439 0 458.23286611163439 -2434.1539527578643 0 0 0 -592.21091793820096 -28.585679005465863 322.93680466834621 0 322.93680466834621 -2944.0611483501471 0 0 0 -743.16170683890232 -11.897672386800878 123.37327175098653 0 123.37327175098653 -2900.5108371140523 0 0 0 -728.10212737521306 -19.606481886889924 135.74680659577507 0 135.74680659577507 -3193.1355413506753 0 0 0 -803.18550580939245 4.4459335349010871 122.58668456660234 0 122.58668456660234 -2680.5904814318455 0 0 0 -669.03613697423771 -23.489533014855123 117.8783712462382 0 117.8783712462382 -2908.5395239345739 0 0 0 -733.0072642373575 13.274787864196696 117.5506195071307 0 117.5506195071307 -2470.7719337297094 0 0 0 -614.37428646637773 80.566388490741701 435.74236179978925 0 435.74236179978925 -2944.8892442811666 0 0 0 -716.08071394760645 122.525987730216 463.90146964059568 0 463.90146964059568 -2471.3373314286982 0 0 0 -587.20283592461965 -42.040002411057685 408.08085062477949 0 408.08085062477949 -2458.6995017943591 0 0 0 -625.18487605135306 62.450995029694241 555.06079388187845 0 555.06079388187845 -2309.7072921207418 0 0 0 -561.8140742727619 -48.025572782999461 327.76145542909853 0 327.76145542909853 -2825.6740740936857 0 0 0 -718.42491171917118 48.762016081625916 408.7196075817551 0 408.7196075817551 -2965.3337230071811 0 0 0 -729.14292673138971 19.266283041130009 153.87046575386375 0 153.87046575386375 -3428.0634551145813 0 0 0 -852.19929301836419 0.87428626393921149 89.367147314136673 0 89.367147314136673 -3301.7064853043958 0 0 0 -825.20804976011641 41.775604363419916 134.37930051455805 0 134.37930051455805 -3827.9051512536134 0 0 0 -946.53238672254884 48.125455093699202 161.55101016921253 0 161.55101016921253 -3394.2589204095275 0 0 0 -836.53336632895844 79.536025087498274 253.27537173923884 0 253.27537173923884 -3616.5249236268537 0 0 0 -884.24722463483886 -58.111705274887754 251.20228957488325 0 251.20228957488325 -3074.3959244318376 0 0 0 -783.12690742667928 -20.298991921532433 254.75089967420649 0 254.75089967420649 -3403.5796217915413 0 0 0 -855.96965342826843 -7.9540399074485322 57.780741885921998 0 57.780741885921998 -4196.4348496061721 0 0 0 -1051.0972223784047 -6.3294223011253052 75.456928722626799 0 75.456928722626799 -3636.2256236972826 0 0 0 -910.63876149960197 58.543530818776212 146.1515180654369 0 146.1515180654369 -4334.2242733333233 0 0 0 -1068.9201856286372 30.725914685648604 -3.498043492443685 0 -3.498043492443685 -3852.4359816692304 0 0 0 -955.42751674589454 136.70747941240006 209.54707743965264 0 209.54707743965264 -3670.3627411861817 0 0 0 -883.41381544344586 70.311580643501657 358.47216650890005 0 358.47216650890005 -3200.3672934458209 0 0 0 -782.51392820057845 194.44106994694994 244.44432010709806 0 244.44432010709806 -3055.1598766995976 0 0 0 -715.17970168816191 34.71808268273162 114.19076924747719 0 114.19076924747719 -3223.512239752723 0 0 0 -797.19853926749784 259.25497276218994 319.60041211480711 0 319.60041211480711 -3035.8536876191392 0 0 0 -694.14967871424051 78.091745919311506 240.09550074706294 0 240.09550074706294 -2678.3696727062161 0 0 0 -650.06948169672705 245.87673335649833 -41.113050323128846 0 -41.113050323128846 -2923.4663664178843 0 0 0 -669.39740826534671 171.36305973765593 -228.40486141845213 0 -228.40486141845213 -3152.1887245028265 0 0 0 -745.20641619129128 236.47752249442783 121.73022048078019 0 121.73022048078019 -3247.2974055490849 0 0 0 -752.70497076366337 72.79191012690535 -79.256095604823713 0 -79.256095604823713 -3625.1358346689267 0 0 0 -888.08598113550215 80.066512717714431 35.855272278564371 0 35.855272278564371 -4649.6916219575942 0 0 0 -1142.4062773099704 83.215413379839447 -95.776501817226745 0 -95.776501817226745 -4453.7457762489939 0 0 0 -1092.6325907172886 80.615996822873967 132.95915125540341 0 132.95915125540341 -3861.8701765431651 0 0 0 -945.3135449300762 90.30494518159685 -178.63913687241984 0 -178.63913687241984 -4317.5061289067962 0 0 0 -1056.8002959313053 329.5175853011956 -183.2930726325194 0 -183.2930726325194 -3582.2972849236289 0 0 0 -813.19492490560833 1.0561161715777416 -46.100999425954797 0 -46.100999425954797 -3669.2035884161378 0 0 0 -917.0368680611391 54.722139307748876 -256.05441785454786 0 -256.05441785454786 -3842.6361669699254 0 0 0 -946.97850691554413 9.4835289928396378 -199.25293314526789 0 -199.25293314526789 -3442.4651496384686 0 0 0 -858.24540516140405 29.865022560145007 -318.50998933798473 0 -318.50998933798473 -3026.8302128650103 0 0 0 -749.24129757621267 100.85603197857927 -620.90651985205841 0 -620.90651985205841 -2788.7145702982598 0 0 0 -671.96463457991922 543.42912580532538 -772.53992701297102 0 -772.53992701297102 -2725.6805608149371 0 0 0 -545.56285875239973 340.0925747973954 -495.68110859558328 0 -495.68110859558328 -3287.6700226101152 0 0 0 -736.89436195318262 265.82503749629541 -821.88424988832958 0 -821.88424988832958 -2527.6957283026131 0 0 0 -565.46767270157943 124.68164966316363 -269.54260156753389 0 -269.54260156753389 -3078.1535315843939 0 0 0 -738.36797048030348 376.40733399851615 -458.76233021355984 0 -458.76233021355984 -2843.7283517365286 0 0 0 -616.83025443449969 421.63927578098173 -67.95500706900566 0 -67.95500706900566 -2919.6730185396955 0 0 0 -624.50843568967957 792.63130496037547 -375.40178953544273 0 -375.40178953544273 -2677.4908632410134 0 0 0 -471.21488957015981 482.53171147755529 -174.88495600794477 0 -174.88495600794477 -2397.9008405741006 0 0 0 -478.84228227413678 1045.5314472596938 -218.91611885987822 0 -218.91611885987822 -2203.4044509521918 0 0 0 -289.46825092312429 503.39151383260287 -638.52712160729152 0 -638.52712160729152 -2437.7810120366921 0 0 0 -483.59737455102368 513.983334640865 -944.68695245442541 0 -944.68695245442541 -2289.3648734737872 0 0 0 -443.84538470823099 670.03570879572089 -840.9448284127775 0 -840.9448284127775 -2610.4158811795169 0 0 0 -485.09504309594831 919.78691415289177 -590.66581691256397 0 -590.66581691256397 -2290.2859622516407 0 0 0 -342.62476202468497 611.38803158033261 -1020.179762456899 0 -1020.179762456899 -2308.2933676415396 0 0 0 -424.22633401530402 888.69968242246796 -1085.2680152197966 0 -1085.2680152197966 -2201.7094933623412 0 0 0 -328.2524527349633 1449.7845832565108 -1063.6336858075447 0 -1063.6336858075447 -2018.6551172059844 0 0 0 -142.21763348736386 1032.2286439879472 -746.67426567282882 0 -746.67426567282882 -2054.7585556611411 0 0 0 -255.6324779182969 2002.179706576331 -634.66485441694476 0 -634.66485441694476 -1738.888638403813 0 0 0 65.822767043129517 1649.5948893245691 -1293.25672925864 0 -1293.25672925864 -1699.8140541192181 0 0 0 -12.554791198659032 1295.8043841248473 -1082.4474675620013 0 -1082.4474675620013 -1812.0757316794443 0 0 0 -129.06783688865198 1070.2116404203989 -138.62409602392268 0 -138.62409602392268 -1999.1447140480996 0 0 0 -232.23326840692516 1245.4970557930997 -711.6274160697576 0 -711.6274160697576 -2080.654212544523 0 0 0 -208.78928918785687 1380.1708238979299 -194.9348672625174 0 -194.9348672625174 -1886.7320797638131 0 0 0 -126.64031396647079 2096.5905665905375 42.209892204837615 0 42.209892204837615 -1475.3689659654747 0 0 0 155.30540015626502 1204.4801462687083 325.06076838625381 0 325.06076838625381 -1503.0634835580095 0 0 0 -74.645834322323935 1430.7972029025502 217.40228268883675 0 217.40228268883675 -1336.2267404263112 0 0 0 23.642615619060734 961.22477713530179 151.50338317980459 0 151.50338317980459 -1840.4570085603173 0 0 0 -219.80805785625398 860.92940378794765 575.27662139874064 0 575.27662139874064 -1564.8005070457675 0 0 0 -175.96777581445394 1074.8541675970323 668.2326896640393 0 668.2326896640393 -1017.814170574934 0 0 0 14.25999925552469 767.45621769134186 461.34612968656438 0 461.34612968656438 -1417.1327616196977 0 0 0 -162.41913598208839 611.85325583836175 810.84041472006629 0 810.84041472006629 -937.71871490474223 0 0 0 -81.466364766595234 252.16251448415994 626.26534026914305 0 626.26534026914305 -1496.2912108301457 0 0 0 -311.03217408649573 343.90160745552475 617.17179976403759 0 617.17179976403759 -1464.2732479207771 0 0 0 -280.09291011631285 407.64994003763604 347.95095001997061 0 347.95095001997061 -1892.5998637444354 0 0 0 -371.2374809267003 588.98682318906685 542.76331300351285 0 542.76331300351285 -1932.2896291070501 0 0 0 -335.82570147949536 159.94599807843406 308.05349822892015 0 308.05349822892015 -2268.7357839012111 0 0 0 -527.19744645569426 548.14261101124248 403.69119522995788 0 403.69119522995788 -2481.9647051416828 0 0 0 -483.45552353260882 223.89003564910035 172.24152715409036 0 172.24152715409036 -2351.9704400601986 0 0 0 -532.02010110277479 552.30216702523921 152.30691651284997 0 152.30691651284997 -2678.0769682711461 0 0 0 -531.44370031147719 550.06855382952381 -232.54076631873886 0 -232.54076631873886 -2624.7355470583625 0 0 0 -518.6667483072124 603.2091761464726 226.54051807922542 0 226.54051807922542 -1992.2972147639521 0 0 0 -347.27200965437078 844.87788241141038 223.70335498246277 0 223.70335498246277 -2175.102400323326 0 0 0 -332.55612947797658 -890.06624050462983 -353.93098695341723 0 -353.93098695341723 -1170.1018373593347 0 0 0 -515.04201946598755 -411.12667623785092 -535.73464531434615 0 -535.73464531434615 -1395.2568073585717 0 0 0 -451.59587089910929 -250.38526309200097 -202.49002510210266 0 -202.49002510210266 -1141.5642231596794 0 0 0 -347.98737156292191 -329.25998400143089 -230.09824216227935 0 -230.09824216227935 -965.14157975645003 0 0 0 -323.60039093947216 -28.41652210882603 -23.703115408137819 0 -23.703115408137819 -1037.9754570595396 0 0 0 -266.59799479208959 -22.492056159615458 -26.82832603052708 0 -26.82832603052708 -1031.4156089743192 0 0 0 -263.4769162834782 -31.192173655283113 -27.250576761525735 0 -27.250576761525735 -1022.694846786384 0 0 0 -263.47175511041496 -36.244857228644833 -24.546794763642538 0 -24.546794763642538 -1028.4735070204551 0 0 0 -266.17959106227499 -129.07206181118818 -238.68521874566909 0 -238.68521874566909 -1368.4241673502329 0 0 0 -374.37405729035527 -181.54092322364886 -465.37307367704489 0 -465.37307367704489 -1284.4190444992473 0 0 0 -366.48999193072814 31.393828491265594 -177.04093867253323 0 -177.04093867253323 -1267.4530515768274 0 0 0 -309.014805771385 -167.99501245839929 -325.1250474802024 0 -325.1250474802024 -1829.3653636074814 0 0 0 -499.34009401647199 -222.98716934471668 -602.23999805793846 0 -602.23999805793846 -1898.2808314197391 0 0 0 -530.31700019111668 -156.06224924833441 -910.35582454909672 0 -910.35582454909672 -1604.1329971539599 0 0 0 -440.04881160056902 -361.31241315878106 -718.90698652975516 0 -718.90698652975516 -1165.6028538600149 0 0 0 -381.72881675470308 -1085.0761356726489 -851.38332493441703 0 -851.38332493441703 -1443.6935991161954 0 0 0 -632.19243369721335 -149.56677940495865 -1163.0912633740445 0 -1163.0912633740445 -1450.4678985834289 0 0 0 -400.00866949709598 -648.0066675934213 -991.79077862050326 0 -991.79077862050326 -1747.1011476837302 0 0 0 -598.77695381928788 -248.55898530156287 -1183.727620475629 0 -1183.727620475629 -1885.6969069458796 0 0 0 -533.56397306186068 -143.54376983890324 -1013.6008810489438 0 -1013.6008810489438 -2280.3856657832293 0 0 0 -605.98235890553406 -78.009640107189625 -1010.0648061866959 0 -1010.0648061866959 -1805.914712899365 0 0 0 -470.98108825163581 -190.22410664797644 -465.90338508452714 0 -465.90338508452714 -2458.479707763021 0 0 0 -662.17595360274572 74.574491467735243 -433.92521021326138 0 -433.92521021326138 -1630.5370740323378 0 0 0 -388.99064564114724 55.662798711302457 -381.94140605235225 0 -381.94140605235225 -2416.2631138283541 0 0 0 -590.15007877926109 76.385323796936063 -715.77484957618799 0 -715.77484957618799 -1963.7159372031892 0 0 0 -471.8326533515592 -62.052441565983372 -681.82137448250069 0 -681.82137448250069 -2747.3733997356585 0 0 0 -702.35646032541763 -19.680278042287682 -347.46363084794939 0 -347.46363084794939 -2616.9135534811867 0 0 0 -659.14845788087041 37.921316206566487 -334.04154493364695 0 -334.04154493364695 -3249.7668786254553 0 0 0 -802.96139060471398 181.83519541283431 -617.27247638052904 0 -617.27247638052904 -3071.5879251505021 0 0 0 -722.43818243441956 147.57165343662928 -805.51111345314894 0 -805.51111345314894 -2389.7703525526158 0 0 0 -560.54967477899481 251.89369533481567 -1180.9181827734046 0 -1180.9181827734046 -1981.9930526125172 0 0 0 -432.52483931942788 105.03258140741991 -1020.7302800475973 0 -1020.7302800475973 -2507.4385594451505 0 0 0 -600.60149450943618 335.14844907435509 -1136.6818612880966 0 -1136.6818612880966 -2281.4812188576907 0 0 0 -486.58319244583072 702.81250850884771 -1278.6614763454127 0 -1278.6614763454127 -2211.3527809865163 0 0 0 -377.13506811941716 198.73233545584662 -1426.126634101448 0 -1426.126634101448 -2070.7033704841124 0 0 0 -467.99275875706371 692.41082988148992 -1349.8155931229576 0 -1349.8155931229576 -2016.843394754771 0 0 0 -331.10814121831663 437.31599663219436 -1650.1755472415125 0 -1650.1755472415125 -1685.7421481213191 0 0 0 -312.10653787227807 149.71169260468105 -1695.3191348559103 0 -1695.3191348559103 -1794.7536068654772 0 0 0 -411.26047856519926 859.06571872596942 -1462.3902184030426 0 -1462.3902184030426 -1862.6946543213635 0 0 0 -250.90723389884624 226.76051233072394 -1689.245611270062 0 -1689.245611270062 -1561.0262313309795 0 0 0 -333.56642975006798 412.85432313673937 -1956.634847264826 0 -1956.634847264826 -1409.3393256883119 0 0 0 -249.12125063789154 -574.29201043030298 -1752.2986553668215 0 -1752.2986553668215 -1758.0502869450356 0 0 0 -583.08557434383147 -371.90182183271372 -1581.2637301990762 0 -1581.2637301990762 -1792.4533904964337 0 0 0 -541.08880308228527 -381.68671320697467 -1421.2985071037006 0 -1421.2985071037006 -1469.1685544268985 0 0 0 -462.71381690846829 276.24279872644365 -1468.9690090494869 0 -1468.9690090494869 -1839.7066001184648 0 0 0 -390.86595034800666 -145.69804314483008 -1256.6693658925997 0 -1256.6693658925997 -2038.4130773724137 0 0 0 -546.02778012931412 -714.63985799408601 -1283.4744057080497 0 -1283.4744057080497 -1688.0919171629321 0 0 0 -600.68294378925111 -415.26263578536236 -1071.305037427227 0 -1071.305037427227 -1070.7366658275641 0 0 0 -371.49982540322526 -1211.8756472981222 -1206.4021119755835 0 -1206.4021119755835 -1371.6762049016033 0 0 0 -645.88796304993593 -717.61586033782623 -1500.8716360098133 0 -1500.8716360098133 -1233.9179634016 0 0 0 -487.88345593485974 -1404.4444197226603 -1529.5038728058589 0 -1529.5038728058589 -1459.7893289219937 0 0 0 -716.05843716116397 -524.22117533079654 -1869.5672998158939 0 -1869.5672998158939 -1269.402704462067 0 0 0 -448.40596994821499 -1189.2597478845601 -1415.2251771520391 0 -1415.2251771520391 -954.69393858264448 0 0 0 -535.98842161679931 -2191.5146149031189 -1110.914167326604 0 -1110.914167326604 -1410.3126737429993 0 0 0 -900.45682216153909 -2834.2670120043849 -1377.074125170815 0 -1377.074125170815 -1285.7335723024853 0 0 0 -1030.0001460767171 -2916.3981820791169 -623.35626129150296 0 -623.35626129150296 -1092.626221626404 0 0 0 -1002.2561009263818 -1850.1066166815908 -540.90797789137105 0 -540.90797789137105 -1033.1536096735472 0 0 0 -720.81505658878086 -1643.0605563060799 -511.34538647726731 0 -511.34538647726731 -1029.8309932579396 0 0 0 -668.22288739100441 -919.42634550388266 -1002.058349218054 0 -1002.058349218054 -1009.5183556566335 0 0 0 -482.2361752901279 -1686.0151899424 -594.69777909717232 0 -594.69777909717232 -1284.7730171278527 0 0 0 -742.69705176756725 -585.79369289305396 -490.26813040842808 0 -490.26813040842808 -939.00398821635827 0 0 0 -381.19942027735306 -4770.3711172287931 -690.48757135483265 0 -690.48757135483265 -743.66009060031593 0 0 0 -1378.5078019572738 -7453.437808669989 -349.79604832393989 0 -349.79604832393989 -1049.1998676552143 0 0 0 -2125.6594190812984 -4176.9025945359026 -1495.6588172473548 0 -1495.6588172473548 -689.76095854668756 0 0 0 -1216.6658882706431 -4800.7064725253585 -827.92094953675178 0 -827.92094953675178 -1060.8380638014551 0 0 0 -1465.3861340817159 -5692.2824057115176 -609.52476865067183 0 -609.52476865067183 -912.35304399932375 0 0 0 -1651.1588624277028 -4191.0473088630542 -663.87295868273873 0 -663.87295868273873 -1029.1736565714236 0 0 0 -1305.0552413586165 -2495.2858130386535 -690.319542883346 0 -690.319542883346 -954.38747493950177 0 0 0 -862.41832199453847 -3579.577004313704 -661.38479273833036 0 -661.38479273833036 -962.70724415398945 0 0 0 -1135.5710621169223 -3320.8714881752621 -1588.1001955596994 0 -1588.1001955596994 -930.27725755241772 0 0 0 -1062.7871864319186 -1788.8214281769206 -1832.4818440761078 0 -1832.4818440761078 -1073.6057105135042 0 0 0 -715.60678467260277 -1700.0198239081665 -1581.7587424289572 0 -1581.7587424289572 -1060.9401133364863 0 0 0 -690.23998431116433 -1044.8927398170272 -1786.7019871850462 0 -1786.7019871850462 -1460.9338938365786 0 0 0 -626.45665841340087 -1891.0381717382543 -2181.6440735669967 0 -2181.6440735669967 -681.59566312955394 0 0 0 -643.15845871695001 -2882.9424578450034 -1352.5392344869397 0 -1352.5392344869397 -1015.8364961848062 0 0 0 -974.69473850745806 -2573.8752082572983 -1363.9075540551385 0 -1363.9075540551385 -845.66853094613361 0 0 0 -854.88593480085615 -123.0831950160873 -2056.8528466314801 0 -2056.8528466314801 -673.46937014314926 0 0 0 -199.13814128981267 60.389803514592813 -1940.5351048766165 0 -1940.5351048766165 -169.7105529692958 0 0 0 -27.330187363674895 1028.9668933398134 -2250.7541015469096 0 -2250.7541015469096 -915.89765142868782 0 0 0 28.267310477782416 -1594.9605813791459 -1893.0289572972406 0 -1893.0289572972406 -779.74433252899871 0 0 0 -593.67622847703569 -282.97299834243995 -2149.8491192061301 0 -2149.8491192061301 -949.67356130190637 0 0 0 -308.16163991108942 -1234.7247836201332 -2135.5929209532437 0 -2135.5929209532437 -1190.436737315973 0 0 0 -606.29038023402882 -270.9636178353785 -2178.7006833899704 0 -2178.7006833899704 -1358.7425774282274 0 0 0 -407.42654881590261 -148.38560502728615 -1905.052023140858 0 -1905.052023140858 -1391.0061062889217 0 0 0 -384.8479278290506 715.65406917377413 -2144.8894097565212 0 -2144.8894097565212 -1208.9496472299907 0 0 0 -123.32389451405243 -315.49525228408766 -1990.1506190034688 0 -1990.1506190034688 -1145.6497641444548 0 0 0 -365.28625410713357 709.694476824704 -1765.0303211600619 0 -1765.0303211600619 -1421.142739036477 0 0 0 -177.86206555294393 1736.1379657125776 -1997.2787631286694 0 -1997.2787631286694 -1256.7644493009511 0 0 0 119.84337910290333 1134.4034403094311 -1864.9832868334752 0 -1864.9832868334752 -1518.8202988596095 0 0 0 -96.104214637543009 1972.1880953411492 -1575.3977770427696 0 -1575.3977770427696 -1478.9444811356971 0 0 0 123.31090355136803 1109.3623974197062 -1404.1165848066059 0 -1404.1165848066059 -1712.268759470513 0 0 0 -150.72659051270057 1766.7934229511629 -1403.6234401515876 0 -1403.6234401515876 -1197.8609265887426 0 0 0 142.23312409060509 2779.1030757693188 -1681.9712647120525 0 -1681.9712647120525 -970.74214265804062 0 0 0 452.09023327782063 1081.7270350343006 -1823.7313340880751 0 -1823.7313340880751 -834.30881586416376 0 0 0 61.854554792533236 2529.3649081390245 -2078.81223414654 0 -2078.81223414654 -612.90433435856949 0 0 0 479.1151434451142 2390.4489057786836 -1365.721318893769 0 -1365.721318893769 -404.88542117031045 0 0 0 496.39087115209287 3624.7385252024451 -1155.766707392565 0 -1155.766707392565 654.66008209235224 0 0 0 1069.8496518236989 3909.1994456060734 -1738.8092552071166 0 -1738.8092552071166 136.29307431253346 0 0 0 1011.3731299796527 1668.9185859691322 -1746.0937404179394 0 -1746.0937404179394 140.83467111468235 0 0 0 452.43831427095643 981.44021244530074 -2335.8836215064985 0 -2335.8836215064985 185.44350445089822 0 0 0 291.72092922404931 2714.2324140011033 -2351.5612957755457 0 -2351.5612957755457 1883.4009038095719 0 0 0 1149.408329452669 3628.824894474079 -1745.5852473385044 0 -1745.5852473385044 4499.5715371501828 0 0 0 2032.0991079060659 3928.3002249797864 -86.857504710753346 0 -86.857504710753346 3622.6644822809267 0 0 0 1887.7411768151796 2942.657394983391 -406.35861233646347 0 -406.35861233646347 5329.6358569269578 0 0 0 2068.0733129775872 2258.332360161392 -558.2398478345458 0 -558.2398478345458 3061.2258546163575 0 0 0 1329.8895536944365 1466.4792698661413 -1751.472220245319 0 -1751.472220245319 1980.6769603181892 0 0 0 861.78905754608149 2379.873474156886 -1066.7251035800982 0 -1066.7251035800982 1836.1096916885001 0 0 0 1053.9957914613458 393.80629400420094 60.564411956980621 0 60.564411956980621 2399.7295711999795 0 0 0 698.38396630104489 -509.86066528553965 -637.82041544517597 0 -637.82041544517597 1234.8742567849476 0 0 0 181.25339787484882 -1785.3890682563779 -217.91631147127191 0 -217.91631147127191 1553.7670435379259 0 0 0 -57.905506179615259 -551.90888653265029 -1584.9315777071645 0 -1584.9315777071645 45.938530824063491 0 0 0 -126.4925889271417 -1911.6455884496352 -1156.8048733043979 0 -1156.8048733043979 -30.006806197706055 0 0 0 -485.41309866183269 -0.73752054972260339 -1457.3371326920576 0 -1457.3371326920576 1734.1398119228588 0 0 0 433.35057284328309 -1509.968630219319 -2115.9325838075574 0 -2115.9325838075574 210.49813504346002 0 0 0 -324.86762379396578 -3130.0572064889825 -1697.274043328744 0 -1697.274043328744 -424.87619110404194 0 0 0 -888.73334939825872 -3867.9034086897063 -877.42968145168788 0 -877.42968145168788 -612.52664316127084 0 0 0 -1120.1075129627479 -2374.8880807469868 -1672.1219842080482 0 -1672.1219842080482 158.17686941986904 0 0 0 -554.17780283178217 -3718.3520796833245 -310.58998433050147 0 -310.58998433050147 21.677193305670698 0 0 0 -924.16872159441755 -2452.2333264413646 -518.61839348736612 0 -518.61839348736612 -374.27503993621212 0 0 0 -706.62709159439328 -5281.6593542262772 442.91653178269917 0 442.91653178269917 -551.62893415226654 0 0 0 -1458.3220720946326 -4012.9599300959926 -315.78735331212556 0 -315.78735331212556 650.78974931139237 0 0 0 -840.54254519614551 -4008.2474722771512 -762.9172049984827 0 -762.9172049984827 -344.84377311187563 0 0 0 -1088.2728113472658 -5922.8319099804685 -226.89738210222549 0 -226.89738210222549 -602.19143492247531 0 0 0 -1631.2558362257369 -5914.1860178499373 -293.78013886036933 0 -293.78013886036933 -699.24039852678834 0 0 0 -1653.3566040941823 -8956.1579900326378 -133.87648988040382 0 -133.87648988040382 -727.35859430973505 0 0 0 -2420.8791460855919 -6113.1072393187551 -441.63255657497939 0 -441.63255657497939 -839.18253681187525 0 0 0 -1738.0724440326503 -8539.2384577994471 -568.09719386890401 0 -568.09719386890401 -782.45489134429681 0 0 0 -2330.4233372859408 -6284.0466253446402 -290.46308906800027 0 -290.46308906800027 -1141.3350376095295 0 0 0 -1856.3454157385431 -4539.8403357007046 -1273.7496519996821 0 -1273.7496519996821 -541.92079598524947 0 0 0 -1270.4402829214964 -5245.8888760873415 -1063.0529799602946 0 -1063.0529799602946 -667.8322394779243 0 0 0 -1478.4302788913142 2067.6307299493606 1092.1084571226349 0 1092.1084571226349 193.65109014122072 0 0 0 565.32045502264521 2100.5148165370456 1088.2902714606539 0 1088.2902714606539 343.19394821512378 0 0 0 610.92719118804314 2617.0202688232444 1171.903051490131 0 1171.903051490131 509.40336570062533 0 0 0 781.60590863096832 1354.572287347989 1163.6943499375316 0 1163.6943499375316 868.29598403115779 0 0 0 555.71706784478692 589.70563951325335 1083.5018030143133 0 1083.5018030143133 1250.6840281383911 0 0 0 460.09741691291129 1134.7880988571048 1061.865420878155 0 1061.865420878155 322.60583683225525 0 0 0 364.34848392234022 331.84989092596538 950.27587375026008 0 950.27587375026008 630.25730901677707 0 0 0 240.52679998568578 1239.1635763350891 1149.0722161794752 0 1149.0722161794752 360.61742729608505 0 0 0 399.94525090779393 656.91701728822022 831.15963858472242 0 831.15963858472242 -339.29447864577105 0 0 0 79.405634660611895 513.06059184470837 1058.8839308184702 0 1058.8839308184702 240.7143004381719 0 0 0 188.44372307072058 462.78664184992977 695.73864765959581 0 695.73864765959581 -913.23665125708612 0 0 0 -112.61250235178977 841.35980592960505 962.8740318788366 0 962.8740318788366 -329.94150693985284 0 0 0 127.85457474743862 1173.335810044548 656.20713072039621 0 656.20713072039621 -982.90810359943134 0 0 0 47.606926611278595 1306.0945044322193 775.79415650146007 0 775.79415650146007 -313.55133907633217 0 0 0 248.13579133897076 1616.0268794400922 907.55709187894035 0 907.55709187894035 -478.92901017872191 0 0 0 284.27446731534246 1932.8045908891995 363.38370546517478 0 363.38370546517478 -1072.0699678029396 0 0 0 215.18365577156464 1439.3501834840065 306.52622284799463 0 306.52622284799463 -1181.5124616605608 0 0 0 64.459430455863412 1568.405794689671 -469.24637727412505 0 -469.24637727412505 -1681.9636446550994 0 0 0 -28.389462491356426 2396.0989521338779 -212.79869853874607 0 -212.79869853874607 -1153.710341087191 0 0 0 310.5971527616731 2528.8539859404868 -201.39271056636881 0 -201.39271056636881 -1225.4678862546 0 0 0 325.84652492147188 2345.6213492839788 589.72123004329399 0 589.72123004329399 -601.37658245523971 0 0 0 436.06119170718489 2058.357912935991 -934.0492042641672 0 -934.0492042641672 -1505.6359616847808 0 0 0 138.18048781280356 2329.4841040135661 -1025.9862465281947 0 -1025.9862465281947 -1392.8321418831938 0 0 0 234.16299053259422 3006.9691959469283 -665.70390122504284 0 -665.70390122504284 -880.43323436349215 0 0 0 531.63399039586068 3220.1469959853785 -784.4884407169892 0 -784.4884407169892 -607.46640669076726 0 0 0 653.17014732365203 4199.8101411204007 -224.07433849499648 0 -224.07433849499648 56.572354119911779 0 0 0 1064.0956238100773 2971.7768923159324 598.47188122484192 0 598.47188122484192 -411.48750425024741 0 0 0 640.07234701642028 3748.3035397056401 146.98023919989359 0 146.98023919989359 -550.85337011746333 0 0 0 799.36254239704499 2828.6916925444029 517.94707425046795 0 517.94707425046795 -166.98330421670471 0 0 0 665.4270970819241 4060.8285436041219 701.68040396353217 0 701.68040396353217 148.17883918996972 0 0 0 1052.2518456985222 3107.2428862177803 1438.5988463198635 0 1438.5988463198635 1546.9549596984216 0 0 0 1163.5494614790505 5399.4158919671918 1323.2823184663043 0 1323.2823184663043 1303.3920606035372 0 0 0 1675.7019881426818 4172.9052903567444 1377.4281659905027 0 1377.4281659905027 2751.4905386244154 0 0 0 1731.0989572452909 2921.3337877750191 1809.8509613423676 0 1809.8509613423676 3300.2012188306799 0 0 0 1555.3837516514261 3864.821771025885 1309.8837457006293 0 1309.8837457006293 1802.7782884668759 0 0 0 1416.9000148731902 5259.7517586375052 -651.77435428062336 0 -651.77435428062336 782.93482516627955 0 0 0 1510.6716459509448 5512.0060791780243 -84.624250570249387 0 -84.624250570249387 2025.6343902509579 0 0 0 1884.4101173572471 5914.6457745287844 -1834.253085733073 0 -1834.253085733073 1754.0702112204872 0 0 0 1917.1789964373165 10053.188295579232 -1028.0917246127237 0 -1028.0917246127237 3847.5570562199391 0 0 0 3475.1863379497936 6357.5917101381283 -938.49549071201727 0 -938.49549071201727 10476.524778170118 0 0 0 4208.5291220770605 9291.4397512337146 4135.1248762680825 0 4135.1248762680825 7086.7329183317015 0 0 0 4094.5431673913554 4396.5994115756648 2743.0973922721691 0 2743.0973922721691 6327.6628155429862 0 0 0 2681.0655567796612 1842.1419318175867 1313.5605409930613 0 1313.5605409930613 3052.7550093434929 0 0 0 1223.7242352902695 4430.7753221117855 1570.9518570741675 0 1570.9518570741675 2897.2295151384878 0 0 0 1832.0012093125683 1960.4352135996378 -428.81181965884934 0 -428.81181965884934 7304.864292461868 0 0 0 2316.3248765153767 1263.662529348705 -334.92316439353544 0 -334.92316439353544 4219.7272549262416 0 0 0 1370.8474460687357 1035.7729337577275 -511.2984511743507 0 -511.2984511743507 4221.4721796557451 0 0 0 1314.3112783533679 1999.2302414854144 1498.279051417745 0 1498.279051417745 3991.7648463290311 0 0 0 1497.7487719536107 2065.3093531423556 1285.323212017393 0 1285.323212017393 1709.9608901146221 0 0 0 943.81756081424373 1388.4578106791537 1178.7355731911839 0 1178.7355731911839 3339.6061403678468 0 0 0 1182.0159877617502 761.21140311179988 800.43269330291344 0 800.43269330291344 1898.7999114693703 0 0 0 665.00282864529163 1101.0011442346963 1229.8889925817705 0 1229.8889925817705 2471.4905480596371 0 0 0 893.12292307358302 1516.7665077438196 1175.2165490097918 0 1175.2165490097918 911.42014530137021 0 0 0 607.04666326129768 1995.913652335254 1490.0004107577149 0 1490.0004107577149 1870.0793646995098 0 0 0 966.49825425869085 499.69028734341725 909.85211545898028 0 909.85211545898028 1123.7632659410401 0 0 0 405.86338832111403 300.53414176305114 940.76206896151257 0 940.76206896151257 2104.3626828799443 0 0 0 601.22420616074896 530.24083468348749 -502.81258972994965 0 -502.81258972994965 2448.1050042339039 0 0 0 744.5864597293496 -32.822696070197708 268.78528333089093 0 268.78528333089093 2300.6766924876174 0 0 0 566.96349910435492 -66.997585993365306 351.98909073966388 0 351.98909073966388 1712.9375318490149 0 0 0 411.48498646391215 611.91376983117743 701.97794746524619 0 701.97794746524619 3258.0927613021304 0 0 0 967.50163278332684 108.06025028102829 -447.27734962626755 0 -447.27734962626755 1650.9849741355702 0 0 0 439.76130610414964 190.09579152538481 -350.129490439233 0 -350.129490439233 1540.1521215207358 0 0 0 432.56197826152948 923.73631348815957 -1191.6917967995978 0 -1191.6917967995978 1739.6110737060878 0 0 0 665.83684679856174 704.37084884410706 -1056.6293514628453 0 -1056.6293514628453 771.90354738457245 0 0 0 369.06859905716965 132.53067962032674 -714.53255460025957 0 -714.53255460025957 491.71073258272645 0 0 0 156.0603530507633 953.9139062660804 -1262.3074900620823 0 -1262.3074900620823 701.47233325002048 0 0 0 413.84655987902511 1010.0686984882705 -1242.1317504228978 0 -1242.1317504228978 870.96011880381411 0 0 0 470.25720432302114 444.80155604672655 -930.13584575003188 0 -930.13584575003188 -165.10018662073526 0 0 0 69.925342356497595 2286.4181194064986 -913.59578092260631 0 -913.59578092260631 -302.29163403309565 0 0 0 496.03162134335054 1650.3466621335806 -1046.669924103008 0 -1046.669924103008 -245.18582320149858 0 0 0 351.29020973302056 1756.7243028174382 -1184.4392833390232 0 -1184.4392833390232 -193.68946165052944 0 0 0 390.75871029172731 2805.6537622310516 -1833.6175527390087 0 -1833.6175527390087 1058.9579248729042 0 0 0 966.15292177598872 706.8152370409889 -413.01038931319545 0 -413.01038931319545 2857.4061254758799 0 0 0 891.05534062921743 1443.0805816574648 -1232.202690942499 0 -1232.202690942499 1899.7103018279031 0 0 0 835.69772087134197 1316.0604560570937 -1455.1536188890761 0 -1455.1536188890761 2040.5068684826074 0 0 0 839.14183113492527 1848.0863650333074 -1663.9368933848282 0 -1663.9368933848282 3375.7115911278934 0 0 0 1305.9494890403 1542.7471393838305 -1188.4954882328539 0 -1188.4954882328539 4536.1610068131413 0 0 0 1519.7270365492413 2398.5020502142888 -1350.5865153327395 0 -1350.5865153327395 4827.7355582802593 0 0 0 1806.559402123637 3956.7308757223964 -187.40323773937644 0 -187.40323773937644 13369.825488688493 0 0 0 4331.6390911027229 3115.6680922629675 -613.32999520839621 0 -613.32999520839621 -1100.8002105282121 0 0 0 503.71697043368908 4190.8572166010881 -2505.0113819032717 0 -2505.0113819032717 2407.1883710965913 0 0 0 1649.5113969244201 8367.571934225969 4932.6462379482346 0 4932.6462379482346 8361.6097436404671 0 0 0 4182.295419466609 4764.3399818935632 -3352.0692135507452 0 -3352.0692135507452 4925.973666535815 0 0 0 2422.5784121073452 9.6654699272312925 1.0584627074780182 0 1.0584627074780182 10.388031049532396 0 0 0 5.0133752441909216 14333.527836994388 3803.3109801712753 0 3803.3109801712753 1518.6923180745944 0 0 0 3963.0550387672447 7287.1223048166394 954.8732616049856 0 954.8732616049856 86.647379736910807 0 0 0 1843.4424211383848 5.3900560347345055 1.0614918540288252 0 1.0614918540288252 21.094364665000874 0 0 0 6.6211051749338452 1293.9726254720299 -181.75060132134581 0 -181.75060132134581 337.07493996706216 0 0 0 407.76189135977347 8358.5930324114688 1267.3675884494223 0 1267.3675884494223 131.31960373390575 0 0 0 2122.4781590363473 11.3885185851379 2.1396537073446393 0 2.1396537073446393 32.834139053846123 0 0 0 11.055664409746006 1213.1255416765166 10.730710216272655 0 10.730710216272655 -76.509698225495413 0 0 0 284.15396086275553 5710.7731586716327 1052.0986521312007 0 1052.0986521312007 -417.675090580713 0 0 0 1323.2745170227281 2256.2068614949671 -986.830118026214 0 -986.830118026214 -556.63756196796749 0 0 0 424.8923248817506 2200.3905212249415 24.9435594860214 0 24.9435594860214 -383.18218631109733 0 0 0 454.30208372846153 2433.7735929874939 -712.62578603446002 0 -712.62578603446002 -9.2239668130841892 0 0 0 606.13740654360254 2072.2043710705329 -405.21625395816397 0 -405.21625395816397 -591.66631601244785 0 0 0 370.13451376452099 1669.753957253424 -261.48392126663498 0 -261.48392126663498 -465.15212471481846 0 0 0 301.15045813465144 1844.6300092362806 -15.661485045123129 0 -15.661485045123129 -259.61943399457414 0 0 0 396.25264381042666 1434.9030716469772 -6.9126364659587125 0 -6.9126364659587125 -211.9854657750202 0 0 0 305.72940146798942 1921.7467886864652 -341.97546318650598 0 -341.97546318650598 -587.5815423156173 0 0 0 333.54131159271174 5391.483957762619 1100.2621375820045 0 1100.2621375820045 -392.8039958999434 0 0 0 1249.6699904656707 5337.5466987860636 489.83827480787295 0 489.83827480787295 -232.24970868663513 0 0 0 1276.3242475248553 7246.8077450999481 585.11936116144352 0 585.11936116144352 51.405135560256895 0 0 0 1824.5532201650567 14.351220255800442 2.4441177499087301 0 2.4441177499087301 43.414497907494166 0 0 0 14.441429540823652 5783.7829967945218 578.01137400024163 0 578.01137400024163 -277.37117296349606 0 0 0 1376.6029559577582 5390.7729962718367 491.07844020009361 0 491.07844020009361 -121.10717306402512 0 0 0 1317.4164558019474 3797.155951356588 736.67216221857234 0 736.67216221857234 -515.68307837244356 0 0 0 820.36821824603248 4937.9307508343627 527.1343105069767 0 527.1343105069767 -181.03743587451754 0 0 0 1189.2233287399431 1508.1337752286108 -13.426942772530623 0 -13.426942772530623 -157.39028676734233 0 0 0 337.68587211531667 18.171360596934811 2.8801937405315829 0 2.8801937405315829 54.451416500363251 0 0 0 18.155694274324514 4053.9342867587111 478.7086807351443 0 478.7086807351443 -227.20131394889904 0 0 0 956.68324320246757 1597.4531786109151 -176.12998017001382 0 -176.12998017001382 -561.88289267107211 0 0 0 258.89257148496063 1449.161784909486 -258.00678685487992 0 -258.00678685487992 -744.92078935163045 0 0 0 176.06024888946376 1611.1141224653966 -13.854599132670501 0 -13.854599132670501 -208.68567271974916 0 0 0 350.60711243641208 1505.1400589620173 -138.4040244032476 0 -138.4040244032476 -615.76114995454009 0 0 0 222.34472725186947 1458.674468970707 -144.73142819663371 0 -144.73142819663371 -626.35070679956334 0 0 0 208.08094054278581 1323.0430301360425 -357.57914268061671 0 -357.57914268061671 -925.10208143546151 0 0 0 99.485237175144903 1184.6484443046588 -309.55449662224601 0 -309.55449662224601 -1006.5319924915912 0 0 0 44.529112953266122 1581.9672247375634 -378.38530012462229 0 -378.38530012462229 -844.61735672071813 0 0 0 184.33746700421085 1349.8934108308031 -780.64135823224001 0 -780.64135823224001 -740.45915623738165 0 0 0 152.35856364835513 1205.212174702059 -523.98257550710628 0 -523.98257550710628 -892.91546766587226 0 0 0 78.07417675904685 836.74600138181256 -593.74786572514495 0 -593.74786572514495 -1064.6064216644211 0 0 0 -56.965105070652129 915.65966046082735 -669.95377822703153 0 -669.95377822703153 -1059.1406085672461 0 0 0 -35.870237026604627 869.2441692153202 -877.12303188779879 0 -877.12303188779879 -810.48440714264416 0 0 0 14.689940518168896 1008.7913600332148 -633.05311473725146 0 -633.05311473725146 -1002.5030269710899 0 0 0 1.5720832655304946 1129.688873544032 -780.92764712313283 0 -780.92764712313283 -813.18512292261767 0 0 0 79.125937655353482 585.18070080042548 -844.3267916634793 0 -844.3267916634793 -839.68115310995177 0 0 0 -63.625113077381457 1134.6209261449631 -1072.3342297184756 0 -1072.3342297184756 -439.90591917526274 0 0 0 173.67875174242457 581.03967192112998 -1017.9019940074068 0 -1017.9019940074068 -100.39808000171953 0 0 0 120.16039797985165 1364.890535972331 -916.2042647275166 0 -916.2042647275166 -449.47442630021362 0 0 0 228.85402741802966 1576.8176304017779 -577.1617008782016 0 -577.1617008782016 -741.5268746605916 0 0 0 208.82268893529641 1695.1208321257247 -668.45611142427902 0 -668.45611142427902 -711.11086962642275 0 0 0 246.00249062482476 -5522.0139631182774 349.18384690576931 0 349.18384690576931 -955.36819852564804 0 0 0 -1619.3455404109718 -6841.3349679970524 636.83946029569779 0 636.83946029569779 -807.24024640535936 0 0 0 -1912.1438036006111 -4671.9345777087437 1455.0254068635222 0 1455.0254068635222 -379.15170682700409 0 0 0 -1262.7715711339406 -8522.9790952713884 531.73304971212201 0 531.73304971212201 -771.91864454030292 0 0 0 -2323.7244349529356 -8348.0650887339161 285.56716974535448 0 285.56716974535448 -639.40106743245269 0 0 0 -2246.8665390415936 -5103.4894604490873 205.91591140953278 0 205.91591140953278 -796.5758204873855 0 0 0 -1475.0163202341209 -5616.7265823841117 631.90039170505224 0 631.90039170505224 -842.35446212088209 0 0 0 -1614.7702611262503 -3988.764198423014 1161.2820329874958 0 1161.2820329874958 94.833339605320361 0 0 0 -973.48271470442705 -2454.6365267867332 1014.4339844202514 0 1014.4339844202514 -102.09831916713665 0 0 0 -639.18371148846563 -1628.9347160609395 1626.4534545068555 0 1626.4534545068555 1075.8057138442673 0 0 0 -138.28225055417715 -2532.2575596627066 947.22555516650209 0 947.22555516650209 -615.47003934913664 0 0 0 -786.93189975296264 -2244.2248835998944 1947.9716204432334 0 1947.9716204432334 -84.605709873325395 0 0 0 -582.20764836830131 -3562.4435652472603 1002.3210347006279 0 1002.3210347006279 -804.94218729670683 0 0 0 -1091.8464381360027 -1571.676967834057 1469.6214798802321 0 1469.6214798802321 -472.24897619785042 0 0 0 -510.98148600797867 1759.3532743900741 2528.3820442212746 0 2528.3820442212746 19.356032300427614 0 0 0 444.67732667263226 183.91059986326582 1741.2803272138963 0 1741.2803272138963 24.311479304349632 0 0 0 52.055519791909319 2632.2589675139361 2688.5299197615823 0 2688.5299197615823 1216.0998906284731 0 0 0 962.08971453560389 51.441556094985572 2017.2203662148895 0 2017.2203662148895 -99.889652447775006 0 0 0 -12.112024088200997 -1997.0402693448486 564.01105649611418 0 564.01105649611418 220.81371767504606 0 0 0 -444.05663791745246 -367.17104285334972 1578.9975788614001 0 1578.9975788614001 1761.1383244755925 0 0 0 348.49182040556116 270.91414619727584 1038.0835446006968 0 1038.0835446006968 1373.3247919324931 0 0 0 411.0597345324386 2276.9379131262649 2043.7625084410029 0 2043.7625084410029 3262.7500967102096 0 0 0 1384.9220024591159 3080.8009742256691 2222.7939364752783 0 2222.7939364752783 5806.8850861089377 0 0 0 2221.9215150836535 5010.4765291475151 2684.0403238713479 0 2684.0403238713479 1821.5391958034206 0 0 0 1708.0039312377367 5622.9180496760309 2953.486757972787 0 2953.486757972787 2103.6559449323631 0 0 0 1931.6434986520981 3166.5379820077287 1667.3502583511618 0 1667.3502583511618 111.32302874590096 0 0 0 819.46525268840924 4407.7805722293915 2401.2255395992834 0 2401.2255395992834 241.91788774854285 0 0 0 1162.4246149944802 5391.5187346296443 925.5117283239415 0 925.5117283239415 -199.39788335521007 0 0 0 1298.0302128186086 2620.0272370425664 1627.986492090502 0 1627.986492090502 -484.97414751019096 0 0 0 533.7632723830975 2588.0523372114403 2068.1113440587797 0 2068.1113440587797 -551.37034289215808 0 0 0 509.17049857982056 4232.6676326436354 1419.120928400589 0 1419.120928400589 -453.06059092006763 0 0 0 944.90176043089741 3855.8146485917532 1138.9289707616408 0 1138.9289707616408 -618.88741090147232 0 0 0 809.2318094225775 4157.626039156632 1059.5008288394893 0 1059.5008288394893 -510.78716661481303 0 0 0 911.70971813545475 2988.6652000066601 1304.398264940799 0 1304.398264940799 -900.29106875763068 0 0 0 522.09353281225742 2345.376117960026 1478.8037481136707 0 1478.8037481136707 -929.5986793736156 0 0 0 353.94435964660079 2519.6004081158608 1973.6918887904394 0 1973.6918887904394 -706.85035918469657 0 0 0 453.18751223279105 807.52694274658188 1663.0291096120636 0 1663.0291096120636 -943.37762648885291 0 0 0 -33.962670935566166 879.15012247336836 1847.447852893878 0 1847.447852893878 -950.28988397630746 0 0 0 -17.784940375732731 734.80515905824723 1834.5526672364904 0 1834.5526672364904 -831.14364059266518 0 0 0 -24.084620383597212 -840.96681983805684 1995.2499046831144 0 1995.2499046831144 -726.98893916609813 0 0 0 -391.98893975104511 880.38408419230109 2114.1823882200006 0 2114.1823882200006 -646.10993295081425 0 0 0 58.568537810373527 1483.5451803701435 1669.3742596146767 0 1669.3742596146767 -912.07938024885152 0 0 0 142.86645003031299 -195.47694725148904 1738.0271960730133 0 1738.0271960730133 -668.5462902403815 0 0 0 -216.00580937297491 -783.41200293389738 2205.7523857847918 0 2205.7523857847918 -451.69643495393393 0 0 0 -308.77710947195192 -2029.5524417934648 1379.8424023547159 0 1379.8424023547159 -919.54568969696993 0 0 0 -737.27453287260141 -2688.3488099560873 1805.4984968812496 0 1805.4984968812496 -592.59592379114292 0 0 0 -820.23618343680027 -2452.4856233190076 1221.720488546553 0 1221.720488546553 -958.25643856250099 0 0 0 -852.68551547038078 -2331.4659726198406 1804.0798523837584 0 1804.0798523837584 -760.84028497762483 0 0 0 -773.07656439935454 -818.9509711372375 1849.1707956336832 0 1849.1707956336832 -957.63930005620932 0 0 0 -444.14756779835443 -643.85150518923183 1973.8891358648543 0 1973.8891358648543 -1246.4424424003373 0 0 0 -472.57348689739592 -1490.957821053272 1554.9373644179286 0 1554.9373644179286 -856.48333404171342 0 0 0 -586.86028877375179 -2149.5129005334675 1320.9121152299849 0 1320.9121152299849 -1076.0016938685148 0 0 0 -806.37864860049012 -2883.8806919104754 1547.2963733021315 0 1547.2963733021315 -850.85362604437978 0 0 0 -933.68357948870835 -4053.5240195114675 601.24965007323772 0 601.24965007323772 -959.77184872912767 0 0 0 -1253.3239670601397 -2341.0349163225983 628.70880082690564 0 628.70880082690564 -840.549268406583 0 0 0 -795.39604618228623 -3391.0994224123497 646.42102031440299 0 646.42102031440299 -832.85156540105527 0 0 0 -1055.9877469533385 -5706.1122535428876 547.35122920607682 0 547.35122920607682 -934.82818083334132 0 0 0 -1660.2351085940536 -4283.2812104657714 1260.2335242464469 0 1260.2335242464469 -765.47100055051851 0 0 0 -1262.1880527540561 -4181.248479736998 677.82615982822063 0 677.82615982822063 -1019.000524056115 0 0 0 -1300.0622509482782 -451.55572061712883 545.57627002442314 0 545.57627002442314 -787.86127245642274 0 0 0 -309.85424826839153 -1478.812713655032 531.99112529076228 0 531.99112529076228 -1130.598042356869 0 0 0 -652.35268900298979 -671.42946445548296 889.7466526330827 0 889.7466526330827 -884.7349042793212 0 0 0 -389.04109218366648 -1702.5135077096347 509.87038909182593 0 509.87038909182593 -863.46553537395084 0 0 0 -641.49476077088912 -1776.7173753152165 455.17867683965596 0 455.17867683965596 -939.12720636941958 0 0 0 -678.96114542115538 -2946.7555126050283 577.27050854318827 0 577.27050854318827 -966.3172562449472 0 0 0 -978.26819221249025 -2668.8958883548621 1100.185240159175 0 1100.185240159175 -1065.7600738217589 0 0 0 -933.66399054415524 -1941.6519807419827 940.35108424507416 0 940.35108424507416 -1082.3368674427038 0 0 0 -755.99721204616071 -1342.2879891298071 1477.2167676342233 0 1477.2167676342233 -1100.463698718173 0 0 0 -610.68792196200229 -1181.688694363198 1146.9294129046903 0 1146.9294129046903 -817.31863115614397 0 0 0 -499.75183137982094 -774.47338597185444 1387.0606985569029 0 1387.0606985569029 -1050.6532794550003 0 0 0 -456.28166635670641 -245.8333620258345 1297.887827691884 0 1297.887827691884 -942.09187256020959 0 0 0 -296.98130864650011 -193.33044375118334 1142.1099226506776 0 1142.1099226506776 -1067.9675735961064 0 0 0 -315.32450433682243 -908.9369976977614 1272.1094816359546 0 1272.1094816359546 -1099.9426645809726 0 0 0 -502.21991556968715 -46.254366480909084 1069.2849067307543 0 1069.2849067307543 -1036.3307441823672 0 0 0 -270.64627766581907 727.5362638712395 1212.7881102835527 0 1212.7881102835527 -1012.2490567911009 0 0 0 -71.17819822995807 653.54438221550663 1214.6871588291542 0 1214.6871588291542 -1236.3914354195877 0 0 0 -145.71176330102026 1405.1312800908345 1315.0695982892066 0 1315.0695982892066 -1015.4707267895574 0 0 0 97.415138325333828 -201.79500301090593 1445.7520669853166 0 1445.7520669853166 -1267.2263276362792 0 0 0 -367.25533266177808 -330.56862293551967 1739.8477864354113 0 1739.8477864354113 -1229.0650910844852 0 0 0 -389.90842850500485 641.6633543247699 1480.5970537218818 0 1480.5970537218818 -1074.4932803664851 0 0 0 -108.20748151043153 627.06558870247682 1494.0884793522418 0 1494.0884793522418 -911.38828242971795 0 0 0 -71.080673431817559 1268.5918872424663 1637.766350578735 0 1637.766350578735 -1176.419825990044 0 0 0 23.043015313116484 641.28920138007379 1451.6186691792627 0 1451.6186691792627 -1102.3273211949854 0 0 0 -115.25952995373518 2160.7639798774035 1173.0355710723234 0 1173.0355710723234 -829.48376766295405 0 0 0 332.82005305362691 2202.5626138900261 1223.1538808827881 0 1223.1538808827881 -794.15780373336747 0 0 0 352.10120253915375 2145.4754080435523 1563.9523461296922 0 1563.9523461296922 -893.62045467359712 0 0 0 312.96373834248516 2374.7935762663546 1270.6904465871776 0 1270.6904465871776 -789.33783589335508 0 0 0 396.36393509323534 3179.6313908284937 703.21908385919232 0 703.21908385919232 -447.76660637173336 0 0 0 682.96619611419737 2186.8548848246428 995.38718708553643 0 995.38718708553643 -856.45679118891712 0 0 0 332.5995234089205 2098.4382064632955 830.07393469387898 0 830.07393469387898 -724.96992551127914 0 0 0 343.36707023798954 1403.4630120070337 1346.0959418635757 0 1346.0959418635757 -1064.8329557025063 0 0 0 84.65751407613925 1399.1169301405025 979.7162500017439 0 979.7162500017439 -1107.6322460304218 0 0 0 72.871171027523815 2236.2337951405643 605.76934374401753 0 605.76934374401753 -857.24970211239997 0 0 0 344.74602325704473 1356.7763195331499 393.4715584954829 0 393.4715584954829 -1224.0507044265396 0 0 0 33.181403776659863 1863.8083613857598 586.47866456757765 0 586.47866456757765 -977.13327022903832 0 0 0 221.668772789184 1509.7167178131349 323.85390909353737 0 323.85390909353737 -1140.2635984342196 0 0 0 92.36327984475065 2013.8164750271535 58.162888670383836 0 58.162888670383836 -1055.1431766084279 0 0 0 239.66832460468868 1891.4426793499624 161.77350823767483 0 161.77350823767483 -1113.3643149093332 0 0 0 194.51959111016549 1650.6532564371591 -13.455737700482132 0 -13.455737700482132 -1585.0028773089289 0 0 0 16.412594782072119 1072.0889201478858 121.05463465733919 0 121.05463465733919 -1511.1330711306655 0 0 0 -109.76103774565854 698.85388042835984 478.38016456008961 0 478.38016456008961 -1185.9303430984146 0 0 0 -121.76911566749914 553.17130172753241 365.02661377326876 0 365.02661377326876 -1622.978079198394 0 0 0 -267.45169436774449 1046.6170850587368 256.46570652402806 0 256.46570652402806 -1689.0769226575503 0 0 0 -160.61495939968154 690.29973038528988 918.16417462913614 0 918.16417462913614 -1121.8574654064141 0 0 0 -107.88943375526287 1246.5605390603159 702.44573761434367 0 702.44573761434367 -1129.9704046412371 0 0 0 29.147533604787895 626.11003905134567 839.55778546680813 0 839.55778546680813 -1353.1743909934303 0 0 0 -181.76608798552479 1438.3105835786118 1004.6521184712183 0 1004.6521184712183 -1023.4146577113424 0 0 0 103.72398146681371 -31.253639695998572 1005.4614427466731 0 1005.4614427466731 -1350.6957153197727 0 0 0 -345.48733875393373 -697.47212004703761 710.15419565215416 0 710.15419565215416 -1137.3193609081209 0 0 0 -458.69787023880053 166.93650024197996 553.85113106722201 0 553.85113106722201 -1114.2276162423659 0 0 0 -236.82277900012559 -70.876809683511965 577.6134976153844 0 577.6134976153844 -971.46377250889782 0 0 0 -260.58514554810245 100.04007322964026 686.56950978792156 0 686.56950978792156 -1525.2109589069732 0 0 0 -356.29272141933325 271.80500093582668 286.55489582312293 0 286.55489582312293 -1525.2518251558067 0 0 0 -313.36170605500229 137.96566062615602 154.62430688232416 0 154.62430688232416 -1166.3989066232461 0 0 0 -257.10831149926526 422.83746617479483 247.36968526552664 0 247.36968526552664 -1091.0629681650316 0 0 0 -167.05637549748644 153.75258029483666 336.42977319430793 0 336.42977319430793 -1239.2908595468034 0 0 0 -271.38456981295894 -55.675520431715995 234.1303442302742 0 234.1303442302742 -1042.5498890500166 0 0 0 -274.55635237041861 203.21113617316951 93.584210519737098 0 93.584210519737098 -981.4780047575623 0 0 0 -194.56671714613549 122.15205567228259 48.341186525503872 0 48.341186525503872 -895.92004739813274 0 0 0 -193.44199793148437 69.522610776344663 72.707442368628108 0 72.707442368628108 -941.69022933079395 0 0 0 -218.04190463859413 124.68274981534341 135.70158892826294 0 135.70158892826294 -820.46200568624772 0 0 0 -173.94481396771153 -228.17590816318989 234.42217881145189 0 234.42217881145189 -813.52588059788104 0 0 0 -260.42544719026773 -254.35843567104712 276.34587327022746 0 276.34587327022746 -983.28884197472507 0 0 0 -309.41181941145442 -886.15192169068905 367.90180608317314 0 367.90180608317314 -1040.4108389739413 0 0 0 -481.64069016613939 934.97012904741041 -297.19693938039518 0 -297.19693938039518 -1319.0909433361303 0 0 0 -96.030203572178834 1205.226254497009 -159.45886819391353 0 -159.45886819391353 -1089.4370105220696 0 0 0 28.947310993733481 1316.8925269433366 -177.81807661579842 0 -177.81807661579842 -1054.6726135397312 0 0 0 65.554978350901365 1124.7400378579678 -139.60830518392368 0 -139.60830518392368 -1363.8990013217226 0 0 0 -59.789740865937347 833.882119226491 -242.7595208233688 0 -242.7595208233688 -1569.5657345810307 0 0 0 -183.92090383863558 607.48513503217237 -327.3016426580848 0 -327.3016426580848 -1502.3746308227783 0 0 0 -223.72237394765125 627.76897479847139 -391.1989652331963 0 -391.1989652331963 -1522.613193171368 0 0 0 -223.71105459322462 891.79952113838135 -429.50895621151039 0 -429.50895621151039 -1338.5649439433173 0 0 0 -111.69135570123399 624.4159464606746 -519.65938264430588 0 -519.65938264430588 -1210.3153765573315 0 0 0 -146.47485752416469 537.37633115566553 -557.28053371974602 0 -557.28053371974602 -1252.8693905769037 0 0 0 -178.87326485530991 1219.3551094858858 -429.96895235419106 0 -429.96895235419106 -1148.7749903006497 0 0 0 17.645029796309245 1083.1079919317035 -383.30461889552134 0 -383.30461889552134 -1197.6326854768377 0 0 0 -28.631173386283081 853.55073839318413 -294.02944472749914 0 -294.02944472749914 -1338.987448615278 0 0 0 -121.35917755552362 1128.48323642383 -182.15477022188338 0 -182.15477022188338 -1071.8964196366323 0 0 0 14.146704196798964 1319.2913998448926 -262.80965007691157 0 -262.80965007691157 -927.17633875171487 0 0 0 98.028765273294539 1392.6052896956226 -113.51397754449044 0 -113.51397754449044 -682.66110497164482 0 0 0 177.48604618099489 1628.7458815628656 -21.538596673946813 0 -21.538596673946813 -192.2583670542881 0 0 0 359.12187862714427 1655.7834494975014 -32.278688874351246 0 -32.278688874351246 -192.76178579042607 0 0 0 365.75541592676836 1508.0444854822108 -99.255298277656038 0 -99.255298277656038 -664.66051445648918 0 0 0 210.84599275642995 3313.4680306966984 739.11728731772746 0 739.11728731772746 -566.66999037227652 0 0 0 686.69951008111093 4241.1638013302727 369.24896207737737 0 369.24896207737737 -95.879853972466663 0 0 0 1036.3209868394333 1640.7191107910148 -25.5821317049149 0 -25.5821317049149 -204.96332583132244 0 0 0 358.93894623992219 21.867867535384136 3.1592841665730615 0 3.1592841665730615 65.673403110782473 0 0 0 21.885317661541656 2949.5619942520279 814.52010150105343 0 814.52010150105343 -613.02723845644505 0 0 0 584.13368894888845 3173.3395076671804 383.9076562570699 0 383.9076562570699 -245.18935668299673 0 0 0 732.03753774605138 2983.4760785419203 376.92390413631801 0 376.92390413631801 -264.01766991976183 0 0 0 679.86460215554689 25.677029777104746 3.2938875391628297 0 3.2938875391628297 77.122467507994145 0 0 0 25.699874321274727 1788.6477164960579 -21.444100051519854 0 -21.444100051519854 -209.30183072110231 0 0 0 394.83647144373936 3278.3024411793158 421.39842333404522 0 421.39842333404522 -294.97309899516404 0 0 0 745.83233554603066 29.574827279964261 3.5468729045819947 0 3.5468729045819947 88.74255009192845 0 0 0 29.579344342973179 2211.4204925739996 496.95016352726088 0 496.95016352726088 -543.00298484582163 0 0 0 417.10437693204767 1398.8841934325537 -65.716233541709926 0 -65.716233541709926 -720.99083968834748 0 0 0 169.47333843605156 1759.5293512065646 5.6824619861363317 0 5.6824619861363317 -271.71540039178944 0 0 0 371.95348770369219 1442.943271043383 -20.226116374810772 0 -20.226116374810772 -1018.4518712225436 0 0 0 106.12284995520895 1570.1019445659967 -97.260987963663865 0 -97.260987963663865 -716.26572630525334 0 0 0 213.45905456518631 1722.0286217315788 54.155529615254636 0 54.155529615254636 -962.32075093885942 0 0 0 189.92696769818031 1446.8541535122697 -79.937209025132688 0 -79.937209025132688 -997.21104091642292 0 0 0 112.41077814896039 2017.1170459137775 0.70641788992361398 0 0.70641788992361398 -301.05367348821164 0 0 0 429.015843106391 1960.7921162170169 -16.928740226278023 0 -16.928740226278023 -276.40766904909833 0 0 0 421.09611179198146 1883.8200881554062 -76.38278804582842 0 -76.38278804582842 -880.83374094100554 0 0 0 250.74658680360017 2852.1987671814131 232.83540316978178 0 232.83540316978178 -188.91316081845434 0 0 0 665.82140159074333 33.325781695691099 3.3203725809346629 0 3.3203725809346629 100.40544712032268 0 0 0 33.432807204003446 2360.128461436072 -0.037732913606305374 0 -0.037732913606305374 -276.71841774683708 0 0 0 520.85251092230828 2550.9281473862966 248.35268421283399 0 248.35268421283399 -289.32907590026184 0 0 0 565.39976787151238 2293.1601884940319 117.91097019663721 0 117.91097019663721 -551.6811948621762 0 0 0 435.36974840797484 2210.3907470844351 205.43026706809178 0 205.43026706809178 -553.30192120443098 0 0 0 414.27220646998467 37.780861573857827 3.7428635777800841 0 3.7428635777800841 112.39355846486325 0 0 0 37.54360500968027 2828.5411830935918 61.741890877077822 0 61.741890877077822 -327.27730384108145 0 0 0 625.31596981309121 2393.0171303637326 -125.1255139062705 0 -125.1255139062705 -662.01612047757953 0 0 0 432.75025247153826 1561.6697969788083 115.59011058021315 0 115.59011058021315 -1459.1859885719277 0 0 0 25.620952101720832 2126.4512082740766 101.11504539503949 0 101.11504539503949 -456.00242589176196 0 0 0 417.61219559557867 2636.7538420844685 -34.716586614426845 0 -34.716586614426845 -369.48962214122002 0 0 0 566.81605498581121 2162.2434015767649 184.80977480665933 0 184.80977480665933 -772.84477312547097 0 0 0 347.34965711282348 1846.7622120240994 -82.330259009303973 0 -82.330259009303973 -1372.2051524147828 0 0 0 118.63926490233098 805.97027116649087 45.356085334623458 0 45.356085334623458 -2109.0760696147063 0 0 0 -325.77644961205215 1338.6556007751096 173.77958389761807 0 173.77958389761807 -1873.2565411030519 0 0 0 -133.65023508198647 1142.1276068759853 -24.553717030496419 0 -24.553717030496419 -2458.5932274492516 0 0 0 -329.11640514331702 1171.937464508721 -49.864056926915509 0 -49.864056926915509 -1468.0089963651699 0 0 0 -74.017882964113596 1081.2409146813879 -80.359882909836415 0 -80.359882909836415 -1898.3325909882915 0 0 0 -204.2729190767277 949.30124788749526 -133.69921800693328 0 -133.69921800693328 -1722.6300485416505 0 0 0 -193.33220016353789 1023.8441792896126 -142.55197058777776 0 -142.55197058777776 -1396.9340408353403 0 0 0 -93.272465386430952 1286.9254691967453 -13.608283062606915 0 -13.608283062606915 -1445.4540193345929 0 0 0 -39.632137534461435 612.51238873248622 -193.7292318840432 0 -193.7292318840432 -1919.3633447938628 0 0 0 -326.71273901534551 673.15027152256675 -199.70888316397941 0 -199.70888316397941 -1624.240436165436 0 0 0 -237.7725411607164 671.31807254850992 -40.064137109571675 0 -40.064137109571675 -2113.9083660962788 0 0 0 -360.64757338694108 752.88837530746343 -118.44623878801031 0 -118.44623878801031 -1789.6431854457496 0 0 0 -259.18870253457123 578.73675078025371 -166.23160779044019 0 -166.23160779044019 -1913.8284092328831 0 0 0 -333.77291461315872 702.72849889804183 -125.91884066400962 0 -125.91884066400962 -2224.7071178588612 0 0 0 -380.49465474020417 579.35129767932267 -17.398065352842423 0 -17.398065352842423 -2783.5295704153468 0 0 0 -551.04456818400649 554.06934017735148 -109.62596313756512 0 -109.62596313756512 -2283.8859248591471 0 0 0 -432.45414617045026 515.37011589094618 -118.49503720046232 0 -118.49503720046232 -2722.695436201313 0 0 0 -551.8313300775917 464.32069197170676 -62.623566141261108 0 -62.623566141261108 -2297.9918564185136 0 0 0 -458.41779111170035 477.82464870148988 -229.46805501076597 0 -229.46805501076597 -1970.2276843325653 0 0 0 -373.1007589077708 497.39449805256754 -130.70138660639168 0 -130.70138660639168 -2310.7426898742697 0 0 0 -453.33704795542417 912.04966321964639 -185.98956821352633 0 -185.98956821352633 -1768.7383371789001 0 0 0 -214.17216848981298 725.62080487426761 -79.511946933717809 0 -79.511946933717809 -2329.3716478342762 0 0 0 -400.9377107400021 605.82109337917518 -189.76843096768823 0 -189.76843096768823 -1960.2788359881015 0 0 0 -338.6144356522318 744.93533256137925 -172.1976342663022 0 -172.1976342663022 -1414.5521997682154 0 0 0 -167.40421680170857 580.72449610067042 -193.39097878928987 0 -193.39097878928987 -1968.280749437663 0 0 0 -346.88906333424939 451.16998381091435 -257.72949525981767 0 -257.72949525981767 -1632.9339969747125 0 0 0 -295.44100329094908 570.95176479326801 -270.89040640142684 0 -270.89040640142684 -1181.8558347568323 0 0 0 -152.72601749089245 550.81609012754325 -222.65845833602361 0 -222.65845833602361 -1503.1691163035521 0 0 0 -238.08825654400334 514.56391569580273 -211.37879815209999 0 -211.37879815209999 -1943.2378990844327 0 0 0 -357.16849584715828 545.11695539682751 -259.23051321965249 0 -259.23051321965249 -1619.1075174462203 0 0 0 -268.49764051234706 506.28495745477267 -295.18956548425285 0 -295.18956548425285 -1684.0012867283804 0 0 0 -294.42908231840192 534.17439509173528 -305.63349489411848 0 -305.63349489411848 -1685.1065224701424 0 0 0 -287.73303184460292 486.29319082065831 -427.04298575251096 0 -427.04298575251096 -1367.071139603182 0 0 0 -220.19448719563024 441.33179868882235 -406.80758892837002 0 -406.80758892837002 -1485.7968831149556 0 0 0 -261.11627110653353 424.41066936061998 -418.92755187218609 0 -418.92755187218609 -1223.4560232100594 0 0 0 -199.76133846236007 434.94832937702176 -346.99476855639205 0 -346.99476855639205 -1478.0709694265533 0 0 0 -260.78066001238312 327.10199020803475 -361.15519807445708 0 -361.15519807445708 -1423.8718059415678 0 0 0 -274.19245393338178 465.06046542555941 -374.43598914957829 0 -374.43598914957829 -1430.6474086257695 0 0 0 -241.39673580005456 311.02938275356649 -329.51051793239685 0 -329.51051793239685 -1283.2077181708671 0 0 0 -243.04458385432332 481.46560154957297 -274.20606702292503 0 -274.20606702292503 -808.42603817575582 0 0 0 -81.740109156546168 416.8659036209001 -387.41763354696741 0 -387.41763354696741 -1033.1518077224373 0 0 0 -154.07147602538407 287.95672964653249 -546.67669327928434 0 -546.67669327928434 -980.35246049636044 0 0 0 -173.09893271245619 60.777982499042196 -430.31229378889111 0 -430.31229378889111 -1121.3012058127356 0 0 0 -265.13080582842292 216.57770513309538 -451.7750802644029 0 -451.7750802644029 -591.10034823098431 0 0 0 -93.630660774471835 281.03766134681666 -646.6078724852191 0 -646.6078724852191 -950.43846954887931 0 0 0 -167.35020205051555 287.32560265518214 -711.91300448118989 0 -711.91300448118989 -1023.7903989972601 0 0 0 -184.11619908551893 609.67116330821068 -632.81303408544272 0 -632.81303408544272 -1148.3040974184232 0 0 0 -134.6582335275537 417.07495877080555 -531.76668283176059 0 -531.76668283176059 -1204.4951429535158 0 0 0 -196.85504604567814 557.29354043384285 -480.795855685883 0 -480.795855685883 -1341.8593242074294 0 0 0 -196.14144594339666 347.03293965165858 -489.64255642625403 0 -489.64255642625403 -1275.95974161803 0 0 0 -232.23170049159353 864.06387426298249 -4.9310246035875025 0 -4.9310246035875025 -162.939031119221 0 0 0 175.28121078594017 -0.18376050932224108 -3.3564450257244061 0 -3.3564450257244061 -0.5388284941106809 0 0 0 -0.18064725085823041 1073.7269910431078 -24.223124846440896 0 -24.223124846440896 -164.02847198675454 0 0 0 227.42462976408819 97.618937117668679 -191.79506409099872 0 -191.79506409099872 -230.91603533816942 0 0 0 -33.324274555125271 -174.48814641579088 -225.45945507576403 0 -225.45945507576403 -137.89856897252139 0 0 0 -78.096678847078238 -113.43571280689446 -481.18351459323867 0 -481.18351459323867 -706.35175958474997 0 0 0 -204.94686809791017 -102.34754406381808 -452.74639893062238 0 -452.74639893062238 -392.33467456766175 0 0 0 -123.67055465787007 179.90795265347015 -320.91202269936821 0 -320.91202269936821 -850.78879594685986 0 0 0 -167.72021082334732 393.87797239859151 -126.17138033626361 0 -126.17138033626361 -102.24919960498937 0 0 0 72.907193198401501 175.43170462236321 -242.18506161018604 0 -242.18506161018604 -586.91732558495823 0 0 0 -102.87140524064853 600.0406873013826 -108.44360112822051 0 -108.44360112822051 -590.58420915570059 0 0 0 2.3641195364207306 410.59962029391636 -230.97466585449456 0 -230.97466585449456 -1123.7896081902254 0 0 0 -178.29749697407624 645.04869309819424 -84.926856173501847 0 -84.926856173501847 -390.6854821917259 0 0 0 63.590802726617767 933.63720476359958 22.135609746235787 0 22.135609746235787 -593.3726762132228 0 0 0 85.066132137592831 974.65885895463225 -8.6553122953976072 0 -8.6553122953976072 -578.26485159714139 0 0 0 99.098501839372602 1000.0174211963428 -111.8692998674278 0 -111.8692998674278 -577.14778326486976 0 0 0 105.71740948286788 -0.38487459283955627 -3.6053640241234985 0 -3.6053640241234985 -1.193891530946618 0 0 0 -0.39469153094654374 584.81061281297116 -75.61226209671986 0 -75.61226209671986 -336.01854276631093 0 0 0 62.198017511665057 1145.2320549265905 -134.41170075853887 0 -134.41170075853887 -259.87933233746662 0 0 0 221.33818064728121 -0.37370381826614785 -3.4883218968139609 0 -3.4883218968139609 -1.0993787050549733 0 0 0 -0.36827063083028033 1245.976120564505 -73.093451376818393 0 -73.093451376818393 -715.17419008402067 0 0 0 132.70048262012097 -0.46966539735315838 -3.551743933446204 0 -3.551743933446204 -1.2221551324511566 0 0 0 -0.42295513245107896 1312.4242717201064 -62.628892332748364 0 -62.628892332748364 -731.20807230004721 0 0 0 145.30404985501582 1326.184008025682 -36.831345834859349 0 -36.831345834859349 -690.60368780734143 0 0 0 158.89508005458538 1196.5293733045464 55.974486984994655 0 55.974486984994655 -958.23873252705926 0 0 0 59.572660194372475 767.41244105323381 -121.39440299304533 0 -121.39440299304533 -971.8631117861928 0 0 0 -51.112667683240261 859.98943420166688 -151.04250004854362 0 -151.04250004854362 -1170.2618352364698 0 0 0 -77.568100258700724 1045.4748047373873 -47.005666778043633 0 -47.005666778043633 -737.03659744852666 0 0 0 77.109551822215508 1147.2580712676331 -76.908396754978639 0 -76.908396754978639 -1062.2542401365067 0 0 0 21.250957782782734 901.22186667550068 -225.51721014025497 0 -225.51721014025497 -1531.0478544803264 0 0 0 -157.45649695120665 1231.3428793582498 -109.70028989065827 0 -109.70028989065827 -836.10724944059257 0 0 0 98.808907479414302 1688.6490391147636 -23.238450736977029 0 -23.238450736977029 -740.97929743543318 0 0 0 236.91743541983124 1390.1631720044406 -143.09039996933575 0 -143.09039996933575 -921.70969526585031 0 0 0 117.11336918464713 1175.239082977906 -31.660060705382421 0 -31.660060705382421 -1447.8936344124838 0 0 0 -68.163637858643526 1404.6515088433566 -49.450420602535814 0 -49.450420602535814 -860.74033345418775 0 0 0 135.97779384729211 -0.16813241366512344 -3.7114207622967239 0 -3.7114207622967239 -1.121644137888488 0 0 0 -0.32244413788840287 1767.8852891653423 39.721140937165565 0 39.721140937165565 -718.3810864119223 0 0 0 262.37605068835546 1526.3136548558937 126.74914447187712 0 126.74914447187712 -854.5105168949849 0 0 0 167.95078449022731 1226.2993358490489 -46.097696768417336 0 -46.097696768417336 -1299.5124340801549 0 0 0 -18.303274557776263 1004.2391257723616 110.22956378735671 0 110.22956378735671 -1712.2543906083883 0 0 0 -177.00381620900725 915.45478513885564 -39.598915169372958 0 -39.598915169372958 -1476.7526288896643 0 0 0 -140.32446093770204 1171.2485380843764 100.13447294184516 0 100.13447294184516 -1292.4156731979601 0 0 0 -30.2917837783952 725.86209164062484 52.571217060243725 0 52.571217060243725 -1646.9623208323374 0 0 0 -230.27505729792711 415.9667781391604 12.659513524283739 0 12.659513524283739 -1850.8899230185953 0 0 0 -358.73078621985906 361.64125562964955 -102.82077413341366 0 -102.82077413341366 -2013.8664905416954 0 0 0 -413.05630872801112 597.5905955715366 2.5163589574552248 0 2.5163589574552248 -2077.3663111960996 0 0 0 -369.94392890614063 648.83385824219238 -104.91698356184361 0 -104.91698356184361 -1680.6565613341231 0 0 0 -257.95567577298277 377.97045098140234 -22.440406588546779 0 -22.440406588546779 -1521.1014297421953 0 0 0 -285.78274469019834 337.69521313787993 -94.656594448991001 0 -94.656594448991001 -1677.012815862533 0 0 0 -334.82940068116318 521.29089635039691 -109.84251169014306 0 -109.84251169014306 -1395.5131251846369 0 0 0 -218.55555720856 822.18528503524954 -58.246467050928004 0 -58.246467050928004 -1193.7084697274638 0 0 0 -92.880796173053795 1049.0401609710166 -105.89964912963273 0 -105.89964912963273 -1133.5688613620541 0 0 0 -21.132175097759045 781.48356058097716 44.895173921978767 0 44.895173921978767 -1469.19155317837 0 0 0 -171.92699814934849 -301.74700147167999 132.80335745535626 0 132.80335745535626 -2022.1481744550588 0 0 0 -580.97379398168482 -784.62670487576793 324.62609088889087 0 324.62609088889087 -2359.0007624624568 0 0 0 -785.90686683455613 -226.92301871615172 270.71508288040218 0 270.71508288040218 -2804.230021139143 0 0 0 -757.78825996382352 187.35364113616083 32.883419268229545 0 32.883419268229545 -2309.0585639398309 0 0 0 -530.42623070091759 -81.522661313494609 150.31930144299554 0 150.31930144299554 -2417.9554521474915 0 0 0 -624.86952836524665 130.87771153859148 27.76777635076246 0 27.76777635076246 -2077.559845002098 0 0 0 -486.67053336587651 223.09147771082507 -46.391775962137672 0 -46.391775962137672 -2261.7465669974017 0 0 0 -509.66377232164405 152.0603332965461 3.5568222799968225 0 3.5568222799968225 -2393.5344203284694 0 0 0 -560.36852175798049 227.04993312704761 -2.5684306484729404 0 -2.5684306484729404 -2281.9199758315763 0 0 0 -513.71751067613184 155.55191495054112 34.898454146980839 0 34.898454146980839 -1912.3428066102849 0 0 0 -439.19772291493575 46.596858989251245 30.19160568457562 0 30.19160568457562 -1568.7934280599893 0 0 0 -380.54914226768449 -200.59135309153675 58.354046774613948 0 58.354046774613948 -1760.5190331940314 0 0 0 -490.27759657139217 117.07535145164135 10.893616163552679 0 10.893616163552679 -2072.2809793207102 0 0 0 -488.80140696726721 -125.59863528913638 25.758255906467525 0 25.758255906467525 -1730.5619609441183 0 0 0 -464.04014905831366 -245.40281618985659 85.508069997995733 0 85.508069997995733 -2017.5195897820847 0 0 0 -565.73060149298522 -557.70402154491717 59.922378000066274 0 59.922378000066274 -1674.7823942833832 0 0 0 -558.12160395707508 -558.88157499134775 60.204919255482487 0 60.204919255482487 -1675.174773394031 0 0 0 -558.51408709634461 -372.8763369647474 -96.917147109781396 0 -96.917147109781396 -1117.9095951916386 0 0 0 -372.69648303909651 -245.45277082746418 -106.33267391786035 0 -106.33267391786035 -1316.101776467508 0 0 0 -390.38863682374307 -152.56003530167015 -158.03172167730935 0 -158.03172167730935 -1099.895595303095 0 0 0 -313.11390765119137 -200.52790441771822 -122.71628075293506 0 -122.71628075293506 -1297.8136304292154 0 0 0 -374.58538371173347 -123.09278238883344 -32.052082242195638 0 -32.052082242195638 -1342.8963529454356 0 0 0 -366.49728383356722 47.350523269008818 -92.612064621149671 0 -92.612064621149671 -1316.134038441146 0 0 0 -317.19587879303424 52.065254681341685 -139.1083161456805 0 -139.1083161456805 -1021.9222140013005 0 0 0 -242.46423982998965 58.782756688089876 -31.633209301585964 0 -31.633209301585964 -1154.4515993767836 0 0 0 -273.9172106721735 -24.770377631783845 -85.101928481045661 0 -85.101928481045661 -1043.6363010668997 0 0 0 -267.10166967467114 7.2130881654950514 -92.491699028504513 0 -92.491699028504513 -810.24767144942155 0 0 0 -200.75864582098166 60.37361448826357 -133.84334700774923 0 -133.84334700774923 -786.3052597900496 0 0 0 -181.48291132544648 -141.4427411002338 -123.81116181246529 0 -123.81116181246529 -836.80568121610543 0 0 0 -244.56210557908483 -244.05792832874042 -94.379805676897661 0 -94.379805676897661 -1035.2651277285045 0 0 0 -319.83076401431117 -122.3661324430777 -152.368485784173 0 -152.368485784173 -945.81768557818123 0 0 0 -267.04595450531474 -245.82398739135414 -197.47045124492351 0 -197.47045124492351 -752.52150916962853 0 0 0 -249.58637414024565 -303.54129044571442 -146.21292929359868 0 -146.21292929359868 -911.09995968655073 0 0 0 -303.6603125330663 -192.94366358826454 -189.5182544499456 0 -189.5182544499456 -964.38359786163232 0 0 0 -289.33181536247423 635.92486452611251 -150.47386483469222 0 -150.47386483469222 -794.03623751790292 0 0 0 -39.52784324794743 484.60506775394197 -43.469362796578935 0 -43.469362796578935 -1028.8125744191739 0 0 0 -136.05187666630763 708.26109767804837 -108.61189477813923 0 -108.61189477813923 -498.86482893196899 0 0 0 52.349067186519505 642.36256377506152 -153.58939786042515 0 -153.58939786042515 -1002.1088514493695 0 0 0 -89.936571918577329 265.33609712636257 -43.049582473822966 0 -43.049582473822966 -1232.0255796714068 0 0 0 -241.67237063626112 251.65303561483915 -111.7553702581456 0 -111.7553702581456 -1246.320022102223 0 0 0 -248.66674662184573 473.8024019639779 -161.90960712798466 0 -161.90960712798466 -988.78795283236468 0 0 0 -128.74638771709692 360.89053042419073 -163.37425255367907 0 -163.37425255367907 -729.30059831592371 0 0 0 -92.102516972933245 208.49537402102629 -67.821733347535201 0 -67.821733347535201 -946.95856317132871 0 0 0 -184.61579728757573 221.80365613369122 -127.40110244094751 0 -127.40110244094751 -961.29730234476074 0 0 0 -184.87341155276727 214.1460746960712 -69.103077888014127 0 -69.103077888014127 -745.4955821165621 0 0 0 -132.83737685512267 541.35976413736239 -123.5777435441139 0 -123.5777435441139 -570.11500907024265 0 0 0 -7.1888112332205765 370.21823988884626 -45.501264301436535 0 -45.501264301436535 -715.36160478778493 0 0 0 -86.28584122473444 762.74760288396124 -82.044833258152892 0 -82.044833258152892 -531.46411106581127 0 0 0 57.820872954537208 586.08401482436693 -61.720000691375162 0 -61.720000691375162 -408.29485928850772 0 0 0 44.447288883964802 709.53585402365729 -46.413350405571691 0 -46.413350405571691 -403.63235174394345 0 0 0 76.475875569928803 522.09791893171678 -114.72703950931088 0 -114.72703950931088 -399.14295618220604 0 0 0 30.738740687377799 575.47865084947057 -79.115228295472093 0 -79.115228295472093 -381.34937887627029 0 0 0 48.532317993300012 648.12967566777957 -122.00574117978738 0 -122.00574117978738 -270.64036590113074 0 0 0 94.372327441662037 383.29586092143916 -141.20488939442009 0 -141.20488939442009 -377.01979795217994 0 0 0 1.5690157423147184 406.1250616823591 -49.254919239035871 0 -49.254919239035871 -554.75256207336281 0 0 0 -37.156875097751197 356.66498964511095 -152.45195657811081 0 -152.45195657811081 -513.87237565708665 0 0 0 -39.301846502994067 128.08264057854694 -172.7478972910078 0 -172.7478972910078 -582.48301558995649 0 0 0 -113.60009375285233 139.63321223223687 -154.59068319002876 0 -154.59068319002876 -579.54860515998325 0 0 0 -109.97884823193652 333.20698273832528 -126.06334544850256 0 -126.06334544850256 -519.07689681966792 0 0 0 -46.467478520335789 197.35674219685075 -175.54533711598009 0 -175.54533711598009 -396.3561795934088 0 0 0 -49.749859349139456 306.31536837450415 -203.74749622732895 0 -203.74749622732895 -355.86524412526478 0 0 0 -12.387468937690187 112.97216994910042 -229.01107273012704 0 -229.01107273012704 -262.33639589823434 0 0 0 -37.34105648728351 130.56303221053324 -214.15337254916892 0 -214.15337254916892 -217.34944660162478 0 0 0 -21.696603597772906 592.86431364115981 -288.18356212980018 0 -288.18356212980018 -124.63529647435561 0 0 0 117.05725429170104 612.60029358954841 -193.77255200348702 0 -193.77255200348702 -166.97916823124092 0 0 0 111.40528133957685 570.6838896430927 -105.15007751267717 0 -105.15007751267717 -263.25152716969296 0 0 0 76.858090618350161 334.16055377633506 -197.11445197658912 0 -197.11445197658912 -270.77957210115756 0 0 0 15.84524541879432 544.91656415400939 -172.02665130641086 0 -172.02665130641086 -312.09593940354671 0 0 0 58.205156187615671 -195.37449510349188 -210.59618534462487 0 -210.59618534462487 -505.67790680028446 0 0 0 -175.2631004759441 -116.39211843151749 -220.81495255165345 0 -220.81495255165345 -478.87942498624193 0 0 0 -148.81788585443988 -142.38237896436306 -206.43511883441681 0 -206.43511883441681 -717.03534677812581 0 0 0 -214.85443143562216 -204.0233646206766 -180.12069818833501 0 -180.12069818833501 -611.98898628673317 0 0 0 -204.00308772685241 -136.55567430506656 -232.51712030352076 0 -232.51712030352076 -613.17186864026098 0 0 0 -187.43188573633191 -29.667842426455422 -212.20654727374557 0 -212.20654727374557 -490.20786569355005 0 0 0 -129.96892703000128 -118.62065957248427 -133.58866090262336 0 -133.58866090262336 -616.49684356114631 0 0 0 -183.77937578340766 -8.3866960987279811 -204.17026682815901 0 -204.17026682815901 -727.46066307311014 0 0 0 -183.96183979295952 -18.605223496776944 -156.36251343754947 0 -156.36251343754947 -426.12355697109274 0 0 0 -111.18219511696748 -22.648709238615055 -212.78054872764787 0 -212.78054872764787 -266.0523200442932 0 0 0 -72.175257320727127 16.908639508320359 -167.94295860249372 0 -167.94295860249372 -413.8623373746172 0 0 0 -99.238424466574116 -5.1970043962149362 -209.55174519053972 0 -209.55174519053972 -142.73374285459857 0 0 0 -36.982686812703378 -44.727154727279718 -201.07592881692366 0 -201.07592881692366 -272.48731500487969 0 0 0 -79.303617433039818 -103.12425864374178 -197.99182499448591 0 -197.99182499448591 -158.01824458623827 0 0 0 -65.285625807495009 -89.051503145067471 -158.04451719517783 0 -158.04451719517783 -438.63659041713731 0 0 0 -131.92202339055123 -122.78795482034978 -213.47836148416681 0 -213.47836148416681 -329.44188935008128 0 0 0 -113.05746104260776 -98.360138637033799 -181.84868590978277 0 -181.84868590978277 -300.70516184831177 0 0 0 -99.766325121336422 -132.40458784151599 -232.40637019224494 0 -232.40637019224494 -301.08675980717828 0 0 0 -108.3728369121736 -115.15407523957731 -187.10100576815915 0 -187.10100576815915 -345.44723777593634 0 0 0 -115.1503282538784 -22.470572666232112 -142.23250396293741 0 -142.23250396293741 -67.570617922174719 0 0 0 -22.510297647101709 -64.152102329698124 -174.78548513962997 0 -174.78548513962997 -192.24287147181917 0 0 0 -64.098743450379331 -136.39568852394098 -200.08778471376965 0 -200.08778471376965 -175.49744649698965 0 0 0 -77.973283755232643 -109.87791502155525 -176.06820961248098 0 -176.06820961248098 -32.130295228751955 0 0 0 -35.502052562576829 -109.84178191464031 -189.27869037953587 0 -189.27869037953587 -160.32161149072482 0 0 0 -67.54084835134131 -52.865719286163312 -201.00779804611454 0 -201.00779804611454 -160.37811718507317 0 0 0 -53.310959117809091 -42.214109211845219 -229.60621865244002 0 -229.60621865244002 19.336624795191909 0 0 0 -5.7193711041634501 -76.62140740232887 -213.46626617410288 0 -213.46626617410288 131.72422998033389 0 0 0 13.775705644501201 -148.7723490282836 -178.83883470280148 0 -178.83883470280148 -42.092980533269454 0 0 0 -47.716332390388246 -148.12951651039643 -163.93803048814743 0 -163.93803048814743 86.476566398062289 0 0 0 -15.413237528083528 -220.62913728939316 -86.020227288616965 0 -86.020227288616965 110.23717731331199 0 0 0 -27.597989994020285 -131.51507593523107 -147.85388555240436 0 -147.85388555240436 60.251437741026621 0 0 0 -17.815909548551076 -139.25378156171615 -140.11377539945369 0 -140.11377539945369 -60.144400622448771 0 0 0 -49.849545546041242 -151.66626577646784 -151.03404736814545 0 -151.03404736814545 -50.270127662237556 0 0 0 -50.484098359676338 6.5033387867664798 -93.490353498319294 0 -93.490353498319294 20.155465730164188 0 0 0 6.6647011292326681 236.81493105810785 -339.9055954567508 0 -339.9055954567508 -22.476187316025332 0 0 0 53.584685935520589 691.37953734853954 -577.51948277634517 0 -577.51948277634517 397.25129148332388 0 0 0 272.15770720796593 309.85510167069998 -310.20155784369427 0 -310.20155784369427 -4.4475211637966083 0 0 0 76.351895126725765 264.86672475157008 -276.22666859990363 0 -276.22666859990363 -121.17689599253549 0 0 0 35.922457189758632 47.991845687684787 -262.99170724595024 0 -262.99170724595024 6.3472927194825957 0 0 0 13.584784601791874 37.152088403995052 -275.61914570183086 0 -275.61914570183086 -23.139662015643395 0 0 0 3.5031065970878927 222.77423408837052 -386.37360947539867 0 -386.37360947539867 227.44199772180809 0 0 0 112.55405795254464 -53.407506129583169 -245.45364254560081 0 -245.45364254560081 209.09678685933955 0 0 0 38.922320182439137 -160.16255726453181 -174.4999524917458 0 -174.4999524917458 80.326417527762075 0 0 0 -19.959034934192502 -209.29349150907231 -124.04350725262961 0 -124.04350725262961 168.99614758432739 0 0 0 -10.074335981186294 -40.603105626511166 -243.41392429422606 0 -243.41392429422606 265.96211922330701 0 0 0 56.339753399198997 152.2750506360612 -337.85455335639733 0 -337.85455335639733 366.48108176424842 0 0 0 129.68903310007747 132.24515458943182 -382.20282621708418 0 -382.20282621708418 345.05596529765944 0 0 0 119.32527997177283 399.90638293698316 -505.37315147017898 0 -505.37315147017898 573.86398523646892 0 0 0 243.44259204336305 695.7525322767948 -1044.7094854970394 0 -1044.7094854970394 1286.079522525315 0 0 0 495.4580137005276 -3911.6207704329104 -25.437607015922822 0 -25.437607015922822 521.59315992947541 0 0 0 -847.50690262585886 2531.21494774761 -931.12115998739478 0 -931.12115998739478 527.81060258508683 0 0 0 764.75638758317405 1.0128412736306496 -0.64511976200686227 0 -0.64511976200686227 1.3629571792621742 0 0 0 0.59394961322320594 978.01943010555613 -450.74553465429227 0 -450.74553465429227 -158.04124512231579 0 0 0 204.99454624581003 811.27208025787741 -334.90596016926492 0 -334.90596016926492 -15.196716546529331 0 0 0 199.01884092783698 0.59610816676160128 -1.5803806330320085 0 -1.5803806330320085 2.2935490939385752 0 0 0 0.72241431517504417 1500.9288488408765 -265.12690897119069 0 -265.12690897119069 46.461945172250012 0 0 0 386.84769850328149 0.7468611756589294 -2.29333038431911 0 -2.29333038431911 2.1564720219041273 0 0 0 0.72583329939076413 885.87206103052893 -147.7247290540169 0 -147.7247290540169 -91.239598696285043 0 0 0 198.65811558356097 871.23665623762133 -305.98148316623275 0 -305.98148316623275 32.402550830219411 0 0 0 225.9098017669601 -1538.2314823232623 -417.01176928230257 0 -417.01176928230257 -216.15120016740548 0 0 0 -438.5956706226666 -2151.1893085805636 -385.84875911418692 0 -385.84875911418692 -118.22792733599545 0 0 0 -567.35430897913852 -1465.0804893893319 -358.60144632703395 0 -358.60144632703395 -104.82427515344307 0 0 0 -392.47619113569419 -2726.0746321268766 -378.48831574004799 0 -378.48831574004799 -94.831544860074246 0 0 0 -705.22654424673738 -1489.9628286430475 -396.56650666600683 0 -396.56650666600683 234.08104724082386 0 0 0 -313.97044535055602 -1900.2933133496638 -139.71171768996601 0 -139.71171768996601 -147.14444486283264 0 0 0 -511.85943955312359 -2312.0702410992922 -491.95778764206625 0 -491.95778764206625 1066.3175481434612 0 0 0 -311.43817323895792 -1257.4999737784481 148.01815828283702 0 148.01815828283702 419.79605756476303 0 0 0 -209.42597905342086 -895.36704847848205 -281.71785857614759 0 -281.71785857614759 -98.490877244458261 0 0 0 -248.46448143073576 -569.78661420793742 -435.36331552351453 0 -435.36331552351453 739.90886082883867 0 0 0 42.530561655225199 -667.04756659742998 -166.49601692205579 0 -166.49601692205579 541.25524564147781 0 0 0 -31.448080238988041 -177.70664526370638 -289.2803813138014 0 -289.2803813138014 1063.0013249437297 0 0 0 221.32366992000652 -320.31798861350364 -326.18433619001598 0 -326.18433619001598 1435.7765654545292 0 0 0 278.86464421025619 237.1825867625862 -875.26132950830879 0 -875.26132950830879 1041.451944940266 0 0 0 319.65863292571294 387.531146303078 -1068.5291722377112 0 -1068.5291722377112 440.37586022154494 0 0 0 206.9767516311563 -99.549657771225156 -607.80176552252988 0 -607.80176552252988 393.96451386945955 0 0 0 73.603714024558485 -115.02010760739722 -851.78602383329849 0 -851.78602383329849 154.9982485025248 0 0 0 9.9945352237823499 -210.13621780997414 -561.17208555651223 0 -561.17208555651223 84.779867079423639 0 0 0 -31.339087682636773 -90.87220946069715 -797.38049565913047 0 -797.38049565913047 -228.65217372473944 0 0 0 -79.881095796358977 -982.05486698361574 -691.20852847897117 0 -691.20852847897117 32.461939825524041 0 0 0 -237.39823178952207 -369.13838019838477 -719.90862348915925 0 -719.90862348915925 -119.90261046176283 0 0 0 -122.26024766503679 -450.29584489074114 -720.32600757425234 0 -720.32600757425234 -366.98137938008267 0 0 0 -204.31930606770629 -848.76393426026232 -635.52393060921895 0 -635.52393060921895 -309.70876869401377 0 0 0 -289.61817573856888 -96.054979826310884 -910.34433133000311 0 -910.34433133000311 -424.82884422414077 0 0 0 -130.22095601261202 -343.35333804647337 -721.41349810245651 0 -721.41349810245651 -602.56671829366553 0 0 0 -236.48001408503487 -386.27644519453997 -746.17482134195632 0 -746.17482134195632 -279.12572652168728 0 0 0 -166.35054292905619 357.70878701343469 -885.56510855270153 0 -885.56510855270153 -516.83656904793327 0 0 0 -39.781945508624744 150.56065038724131 -936.76095745417058 0 -936.76095745417058 -117.26681176481148 0 0 0 8.3234596556075715 -33.308333137277828 -823.5889074431152 0 -823.5889074431152 -469.38136638629169 0 0 0 -125.67242488089244 218.57972919013366 -839.63487857382484 0 -839.63487857382484 -744.85255482338948 0 0 0 -131.56820640831336 482.56268557498123 -991.51698449686273 0 -991.51698449686273 -459.34853261528679 0 0 0 5.8035382399226947 448.85803557985162 -724.00764875184313 0 -724.00764875184313 -1073.8393117185033 0 0 0 -156.245319034663 177.77365288057334 -839.40825216111352 0 -839.40825216111352 -758.08220303669475 0 0 0 -145.07713753903062 509.21005425484054 -766.78307283300524 0 -766.78307283300524 -936.21892720380674 0 0 0 -106.75221823724178 -399.93791644963039 -594.54669199077034 0 -594.54669199077034 -585.41523177443332 0 0 0 -246.33828705601627 44.914322775933442 -714.13068204873696 0 -714.13068204873696 -767.22735061107414 0 0 0 -180.57825695878546 -189.05111967966138 -789.88048760318861 0 -789.88048760318861 -526.31593831120824 0 0 0 -178.84176449771792 -13.454769853128482 -658.10053938472402 0 -658.10053938472402 -813.56944422922243 0 0 0 -206.75605352058733 -276.16834322209422 -578.00614722714977 0 -578.00614722714977 -568.68964987789195 0 0 0 -211.21449827499589 58.795043682959204 -553.88664321193073 0 -553.88664321193073 -576.58302040954459 0 0 0 -129.44699418164601 -258.22400155768491 -484.97765885088336 0 -484.97765885088336 -365.35283216360222 0 0 0 -155.89420843032167 -666.34240164913103 -505.62483237476431 0 -505.62483237476431 -416.74810407431323 0 0 0 -270.77262643086056 -401.51250050476182 -592.0239593862309 0 -592.0239593862309 -300.14026817973024 0 0 0 -175.41319217112243 -542.67337547773923 -275.79850811514257 0 -275.79850811514257 -16.053552610774204 0 0 0 -139.68173202212904 909.72012577678595 -16.942507998756355 0 -16.942507998756355 -137.85985484089997 0 0 0 192.96506773397141 0.12694063729404603 -3.1285567414208577 0 -3.1285567414208577 0.3946817172252215 0 0 0 0.13040558862981699 -571.75512877380788 -221.22849711314217 0 -221.22849711314217 -160.65880997769739 0 0 0 -183.10348468787654 758.53220950418699 -7.7281824527294134 0 -7.7281824527294134 -165.24109021800996 0 0 0 148.32277982154437 747.4876274626555 -10.639005558009558 0 -10.639005558009558 -143.79272118527342 0 0 0 150.9237265693456 864.79107577055834 -39.912961334124134 0 -39.912961334124134 -90.70462331456406 0 0 0 193.52161311399857 -1377.9767728675283 -246.58916770272998 0 -246.58916770272998 -197.88495938491712 0 0 0 -393.96543306311224 0.44154729482103527 -2.7811494794957201 0 -2.7811494794957201 1.389054809075112 0 0 0 0.45765052597403677 789.28823426743668 -54.499154203419607 0 -54.499154203419607 -107.73839245364434 0 0 0 170.38746045344817 740.86510324700021 -172.7880560080701 0 -172.7880560080701 -145.50554203032846 0 0 0 148.83989030416791 962.04485197151871 -108.99471134496787 0 -108.99471134496787 -16.933109664824315 0 0 0 236.27793557667349 -1393.8928241857668 -336.83827995353784 0 -336.83827995353784 -270.94941586237337 0 0 0 -416.21056001203596 -889.3805445833525 -668.10890109597062 0 -668.10890109597062 -226.03956723417002 0 0 0 -278.85502795438055 -1035.4505566788025 -557.25667201985402 0 -557.25667201985402 -484.1656220526055 0 0 0 -379.9040446828518 -823.1339981881498 -433.82765296740126 0 -433.82765296740126 -62.310474374637579 0 0 0 -221.36111814069693 
</DataArray>
<DataArray type="Float64" Name="cross_section_updated" format="ascii">
1 1 1 1 1 1 1 1 1 1 1 1 1 1 1 1 1 1 1 1 1 1 1 1 1 1 1 1 1 1 1 1 1 1 1 1 1 1 1 1 1 1 1 1 1 1 1 1 1 1 1 1 1 1 1 1 1 1 1 1 1 1 1 1 1 1 1 1 1 1 1 1 1 1 1 1 1 1 1 1 1 1 1 1 1 1 1 1 1 1 1 1 1 1 1 1 1 1 1 1 1 1 1 1 1 1 1 1 1 1 1 1 1 1 1 1 1 1 1 1 1 1 1 1 1 1 1 1 1 1 1 1 1 1 1 1 1 1 1 1 1 1 1 1 1 1 1 1 1 1 1 1 1 1 1 1 1 1 1 1 1 1 1 1 1 1 1 1 1 1 1 1 1 1 1 1 1 1 1 1 1 1 1 1 1 1 1 1 1 1 1 1 1 1 1 1 1 1 1 1 1 1 1 1 1 1 1 1 1 1 1 1 1 1 1 1 1 1 1 1 1 1 1 1 1 1 1 1 1 1 1 1 1 1 1 1 1 1 1 1 1 1 1 1 1 1 1 1 1 1 1 1 1 1 1 1 1 1 1 1 1 1 1 1 1 1 1 1 1 1 1 1 1 1 1 1 1 1 1 1 1 1 1 1 1 1 1 1 1 1 1 1 1 1 1 1 1 1 1 1 1 1 1 1 1 1 1 1 1 1 1 1 1 1 1 1 1 1 1 1 1 1 1 1 1 1 1 1 1 1 1 1 1 1 1 1 1 1 1 1 1 1 1 1 1 1 1 1 1 1 1 1 1 1 1 1 1 1 1 1 1 1 1 1 1 1 1 1 1 1 1 1 1 1 1 1 1 1 1 1 1 1 1 1 1 1 1 1 1 1 1 1 1 1 1 1 1 1 1 1 1 1 1 1 1 1 1 1 1 1 1 1 1 1 1 1 1 1 1 1 1 1 1 1 1 1 1 1 1 1 1 1 1 1 1 1 1 1 1 1 1 1 1 1 1 1 1 1 1 1 1 1 1 1 1 1 1 1 1 1 1 1 1 1 1 1 1 1 1 1 1 1 1 1 1 1 1 1 1 1 1 1 1 1 1 1 1 1 1 1 1 1 1 1 1 1 1 1 1 1 1 1 1 1 1 1 1 1 1 1 1 1 1 1 1 1 1 1 1 1 1 1 1 1 1 1 1 1 1 1 1 1 1 1 1 1 1 1 0.015436639513353683 1 1 0.038183148725167572 1 1 0.05644618661025029 1 1 1 1 1 1 1 1 1 1 1 1 1 0.074432670916676297 1 1 1 1 1 0.092739305565096852 1 1 1 1 1 1 1 1 1 1 1 1 1 1 1 1 1 1 1 1 1 1 1 1 1 1 1 1 1 1 1 1 1 1 1 1 1 1 1 1 1 1 1 1 1 1 1 1 1 1 1 1 1 1 1 1 1 1 1 1 1 1 1 1 1 1 1 1 1 1 1 1 1 1 1 1 1 1 1 1 1 1 1 1 1 1 1 1 1 1 1 1 1 1 1 1 1 1 1 1 1 1 1 1 1 1 1 1 1 1 1 1 1 1 1 1 1 1 1 1 1 1 1 1 1 1 1 1 1 1 1 1 1 1 1 1 1 1 1 1 1 1 1 1 1 1 1 1 1 1 1 1 1 1 1 1 1 1 1 1 1 1 1 1 1 1 1 1 0.11147021362310208 1 1 1 0.13055648296679856 1 1 0.14990801437238818 1 1 1 1 1 1 1 1 1 1 1 0.16943159979079811 1 1 1 1 0.18912488363795743 1 1 1 1 1 1 1 1 1 1 1 1 1 1 1 1 1 1 1 1 1 1 1 1 1 1 1 1 1 1 1 1 1 1 1 1 1 1 1 1 1 1 1 1 1 1 1 1 1 1 1 1 1 1 1 1 1 1 0.00055227344593443504 1 1 1 1 1 1 1 1 1 1 1 1 1 1 9.999999999055903e-07 1 1 8.6114907219133566e-05 1 9.9999999990125349e-07 1 1 1 1 1 1 1 1 1 1 1 1 1 9.9999999989344723e-07 1 1 1 1 1 1 1 1 1 1 1 1 1 1 1 1 1 1 1 1 1 1 1 1 1 1 1 1 1 1 1 1 1 1 1 1 1 1 1 1 1 1 1 1 1 1 1 1 1 1 1 1 1 1 1 1 1 1 1 1 1 1 1 1 1 1 1 1 1 1 1 1 1 1 1 1 1 1 1 1 1 1 1 1 1 1 1 1 1 1 1 1 1 1 1 1 1 1 1 1 1 1 1 1 1 1 1 1 1 1 1 1 1 1 1 1 1 1 1 1 1 1 1 1 1 1 1 1 1 1 1 1 1 1 1 1 0.0019612594575487102 1 1 0.0029639184734544131 1 0.002788298403141703 1 1 1 1 1 1 1 1 1 1 1 1 1 1 1 1 1 1 1 1 1 1 1 1 1 1 1 1 1 1 1 1 1 1 1 1 1 1 1 1 1 1 1 1 1 1 1 0.0013303451607442568 1 1 1 1 1 0.0021642553538763439 1 1 1 1 1 1 1 
</DataArray>
<DataArray type="Float64" Name="displacement_divergence" format="ascii">
-0.018309910367376885 -0.017893987248090472 -0.01515199656943602 -0.015165468738587401 -0.014066097803811621 -0.014879827073984594 -0.01452049855817095 -0.013903554828209756 -0.013921568992465508 -0.013574174633327701 -0.013423394865544565 -0.01167974328010685 -0.013055343804010145 -0.012614576750971371 -0.015385327861378657 -0.017208034627073744 -0.012429972090819839 -0.014925315513660612 -0.017016642225887932 -0.014924181156870345 -0.015783238762033407 -0.015088166578841732 -0.013770126379405393 -0.013544066630659019 -0.015698475161230074 -0.01220391235943083 -0.013236356546960633 -0.013745245566872191 -0.013944458582523205 -0.012353856430016116 -0.013036666622808599 -0.016269133761037835 -0.011465680299555053 -0.012346788148494145 -0.0096793823510684662 -0.0099718427178937322 -0.011416666559703539 -0.01189317755896066 -0.010986595096415974 -0.0085397395655554889 -0.0085438853746718762 -0.0067950209206932462 -0.010526030740056456 -0.010590956554895269 -0.0079094169662946995 -0.0088519341629417162 -0.0088349285486742438 -0.0081882590489288781 -0.011696822120246177 -0.010151804356315203 -0.011216782295234443 -0.011912888048228956 -0.010976363699770918 -0.011978650952038938 -0.0099653148150991178 -0.011359861909871424 -0.0095458551663195022 -0.0083986697271421062 -0.0081133153050327068 -0.008758718193908643 -0.008051686804947767 -0.010111180094426419 -0.0096350990373390514 -0.0090719318518822107 -0.0067455922124973981 -0.0079783099257574788 -0.0059882647015196567 -0.0046173120813381516 -0.0040299268611477257 -0.0037009777791177294 -0.0043496331294845545 -0.0031738410675182308 -0.0035007830744111248 -0.0041131982010647154 -0.0050677945543153042 -0.0048929943144086028 -0.005491195397488568 -0.0054265982119301726 -0.0066524811658896068 -0.0068469307698006245 -0.0069773196750034794 -0.0065850765590455222 -0.0068945176185701493 -0.0048547739511642946 -0.0058934939720156967 -0.0059530359132441771 -0.007080854348534886 -0.006636004070115116 -0.0059169360234532075 -0.0050495204693772541 -0.0049414944111637431 -0.0033844962649355586 -0.0034160313055938011 -0.0016803902477609709 -0.0051082837685241895 -0.0044990253214414379 -0.0047388877667408694 -0.0031212594528338298 -0.0034447989656477794 -0.002514049476268064 -0.00088584953546715518 -0.001941009423358433 -0.0017093604598410017 -0.0020545137288678155 -0.0013375547633637762 -0.00044013961500928567 0.0012855212635843453 0.0012900276945029734 0.0016822032784257947 0.0019597468319743597 0.0035341406750629811 0.0002034357529829044 -0.00032081782983223303 0.00074542838619051253 -0.00103098339659104 -5.2847378530010468e-05 -0.00096595865107639467 -0.0016455840984362811 -0.0005661533863267628 -0.0015729968405995447 -0.00022504182931046675 -0.002082155237331402 -0.0013323677618808129 -0.002567237453806142 -0.0020306181067575907 -0.0010344223380107341 -0.002934256901106208 -0.0030206752687061884 -0.0018408808741395767 -0.0024248336152775654 0.0033330032307009733 0.00092678751507256629 -0.00014257035784137964 0.0019772923026350865 0.0057960672461703153 0.0077556882353102125 0.0059787267980422982 0.0049725881668720787 0.0064272938366444765 0.0052236765290743642 0.0012153596184234679 0.0016681946802930211 0.0018549662387784844 0.00059623334490237906 -0.0011265993688231377 0.0060525411591828247 -0.0028292940010610466 0.0029903610477742953 -0.001115232795500052 0.004274793738338542 0.0054405578921887876 0.003630546488176711 0.00092705189160570542 0.0011391734276558229 0.0013304786105868931 0.00058719029955581919 -0.0025242946813985594 0.00051111316678776643 -0.0013463322518276581 0.0024480978773615074 -0.003249226017358631 0.0013245154172747738 -0.0014939420171700517 -0.0014028621951282559 -0.0037020817286879722 -0.00093377922226958645 -0.0039380792175812661 -0.0020297238643677386 -0.0030855784494289154 -0.0055260532115497772 -0.0045312100997028978 -0.0074311935798339265 -0.0053506801924782747 -0.0047986681430511532 -0.0051745483316733842 -0.0043122725392086975 -0.0061760695263378268 -0.0044443149491516509 -0.0049234135815418162 -0.0024598551426193785 -0.0047751101582976865 -0.0038551806620499085 -0.0010389322647636236 -0.0025834329570516138 0.0010711402746397558 0.00026649537150160406 -0.00091313819376254114 0.0027108856922900449 -0.002054804067063638 0.0085854489468620149 0.0019558820508749275 0.0047544183504066176 -0.00047690829477160454 0.0033673751083679272 0.004433240220871367 -0.0016422889751603401 0.00037856942087528128 -0.0010149129830432681 -0.0050220117255128649 -0.008420659913299211 -0.0045707940066931213 -0.0050185417763107115 -0.007040412894901947 -0.0091600685426568157 -0.006727369195224292 -0.0066041347569542955 -0.01173563056300117 -0.0098887663355101962 -0.013659352410899064 -0.011434460488006157 -0.015261720806242496 -0.010632372903546128 -0.010731641545374704 -0.0087095324361920884 -0.0062196286730712841 -0.0090343632250951128 -0.008895718399168813 -0.010327689182142705 -0.0069811357340574531 -0.0063837612933776156 -0.0083568706928454223 -0.0066578647936073633 -0.010195682933936412 -0.011379952297684175 -0.011969239253577846 -0.009688826576467309 -0.011173103945226318 -0.012243336963734378 -0.01149387609431303 -0.010518496488977208 -0.010099043648864645 -0.014085643390354913 -0.012989688135778943 -0.014347159814281862 -0.012307765517098022 -0.016833268842650517 -0.014656354183541602 -0.014768973056502696 -0.014672905776313694 -0.014805272948455059 -0.018579042670972573 -0.018202553184380341 -0.020079637645234821 -0.01672590342435594 -0.018325181605933948 -0.01535935716165944 -0.017902017848690138 -0.014680070898115544 -0.015629621901283822 -0.014045351856819058 -0.017960622792979275 -0.018228573168284745 -0.021304982325459076 -0.020630201244002902 -0.023663309668063709 -0.02091333415822394 -0.022106180615870941 -0.019578172685666993 -0.021399241335706753 -0.026277430559460135 -0.022765969037490064 -0.026723004640715951 -0.023885687918647314 -0.022085345386086086 -0.019562848205014444 -0.017879492542203959 -0.019929963481687463 -0.017353741967855996 -0.016251737042418168 -0.016734935206633592 -0.01863016040478227 -0.018817624269091532 -0.022202149528387644 -0.028560156932749214 -0.027315814767932267 -0.023632838623251856 -0.026420007398282597 -0.020329873122640268 -0.022925921701528518 -0.023674462672888585 -0.021456135129035103 -0.018731032439405493 -0.016799115864497949 -0.013639071468810021 -0.018422359048829599 -0.014136691817539404 -0.01845919926200762 -0.015420756360862431 -0.01561271089224206 -0.011780372239254003 -0.011971057056853446 -0.0072367062730781251 -0.01208993436377559 -0.011096134617705755 -0.012127376077398777 -0.0085656190506171043 -0.010605658350382643 -0.0082063113183740433 -0.0035554408371842317 -0.0063908119479574033 0.0016455691760782626 -0.00031386977996650332 -0.0032266959222162772 -0.0058058317101730983 -0.0052197322296963916 -0.003166007849161781 0.0038826350039066482 -0.0018661458580581658 0.00059106539047649315 -0.0054952014464063892 -0.0043991943953613499 0.00035649998138813366 -0.0040604783995522239 -0.0020366591191648686 -0.007775804352162359 -0.0070023227529078247 -0.0092809370231675126 -0.0083956425369874077 -0.013179936161392375 -0.012086388088315268 -0.013300502527569341 -0.01328609250778693 -0.012966668707680318 -0.0086818002413593109 -0.008313903236949402 -0.012876050486649741 -0.01128989677247777 -0.0086996842890729176 -0.0080900097734867629 -0.0066649498698024279 -0.0065869229070871782 -0.0065867938777602886 -0.0066544897765566935 -0.0093593514322589666 -0.009162249798268074 -0.007725370144284649 -0.012483502350411846 -0.01325792500477796 -0.011001220290014407 -0.0095432204188675707 -0.015804810842430378 -0.010000216737427542 -0.014969423845482388 -0.013339099326546509 -0.015149558972638422 -0.011774527206290981 -0.016554398840068596 -0.0097247661410287123 -0.014753751969481477 -0.011795816333789039 -0.017558911508135371 -0.016478711447021677 -0.020074034765117914 -0.01806095456086048 -0.014013741869474849 -0.010813120982985647 -0.015015037362735878 -0.01216457981114577 -0.0094283767029854151 -0.011699818968926717 -0.0082777035304579805 -0.007802663446807058 -0.010281511964130033 -0.0062726808474712348 -0.0083391607437515725 -0.0062280312659473425 -0.014577139358595753 -0.013527220077057117 -0.01156784542271172 -0.0097716487587002354 -0.01365069450323278 -0.015017073594731423 -0.0092874956350806337 -0.016147199076248508 -0.01219708639837136 -0.017901460929029001 -0.011210149248705337 -0.013399710540419857 -0.022511420554038208 -0.025750003651917916 -0.025056402523159688 -0.018020376414719735 -0.016705572184775169 -0.012055904382253152 -0.018567426294189171 -0.0095299855069338468 -0.034462695048931596 -0.053141485477032541 -0.030416647206765929 -0.036634653352042648 -0.041278971560692712 -0.032626381033965507 -0.021560458049863535 -0.028389276552923171 -0.026569679660797846 -0.017890169616815166 -0.01725599960777912 -0.015661416460335149 -0.016078961467923782 -0.024367368462686244 -0.021372148370021517 -0.0049784535322452313 -0.00068325468409189197 0.00070668276194458916 -0.014841905711925937 -0.0077040409977772589 -0.015157259505850756 -0.010185663720397559 -0.0096211981957262938 -0.003083097362851242 -0.0091321563526783334 -0.0044465516388236537 0.0029960844775725609 -0.0024026053659385177 0.0030827725887841578 -0.0037681647628174664 0.0035558281022651517 0.011302255831945492 0.001546363869813239 0.011977878586127831 0.012409771778802295 0.026746241295592499 0.025284328249491353 0.011310957856773871 0.0072930232306013254 0.028735208236316673 0.050802477697651727 0.047193529420379451 0.051701832824439631 0.033247238842360916 0.021544726438652045 0.026349894786533684 0.017459599157526234 0.0045313349468711905 -0.0014476376544903247 -0.0031623147231784887 -0.012135327466545724 0.010833764321082059 -0.0081216905948490389 -0.022218333734956436 -0.028002687824068548 -0.013854445070794419 -0.023104218039860375 -0.017665677289859905 -0.03645805180236586 -0.021013563629903809 -0.027206820283681543 -0.040781395905643669 -0.041333915102354374 -0.060521978652139707 -0.043451811100816112 -0.058260583432148398 -0.046408635393463668 -0.03176100707303682 -0.036960756972282849 0.014133011375566135 0.015273179779701069 0.019540147715774163 0.01389292669611969 0.011502435422822782 0.0091087120980585072 0.0060131699996421491 0.0099986312726948329 0.0019851408665153142 0.0047110930767680116 -0.002815312558794747 0.0031963643686859639 0.0011901731652819297 0.0062033947834742361 0.007106861682883589 0.005379591394289146 0.001611485761396636 -0.00070973656228390247 0.0077649288190418386 0.0081461631230367853 0.010901529792679613 0.0034545121953200482 0.0058540747633148496 0.013290849759896497 0.016329253683091322 0.0266023905952519 0.016001808675410512 0.019984063559926137 0.016635677427048093 0.026306296142463083 0.029088736536976259 0.041892549703567081 0.043277473931132265 0.038884593791285685 0.035422500371829757 0.037766791148773654 0.047110252933931174 0.047929474910932898 0.086879658448744831 0.10521322805192651 0.10236357918478389 0.067026638919491538 0.030593105882256749 0.045800030232814204 0.057908121912884442 0.034271186151718397 0.032857781958834195 0.037443719298840272 0.023595439020356102 0.029550399694043772 0.016625070716132298 0.022328073076839566 0.015176166581532466 0.024162456356467271 0.010146584708027848 0.015030605154018717 0.018614661493233708 0.014174087477608871 0.010287124661597803 0.024187540819583159 0.010994032652603739 0.010814049456538216 0.016645921169964068 0.0092267149764292677 0.0039015088262690789 0.010346163996975632 0.011756430108075533 0.0017481335589124396 0.012400790533583762 0.0087822552433255169 0.0097689677572931864 0.024153823044399728 0.022276383515730441 0.020892443021783544 0.020978545778373117 0.032648737226007474 0.037993175913731025 0.045163985053090945 0.10829097727756815 0.012592924260842193 0.041237784923110525 0.10455738548666521 0.060564460302683629 12.533438110477302 0.099076375969181174 0.046086060528459649 16.552762937334609 0.010194047283994312 0.053061953975908599 27.639161024365013 0.0071038490215688845 0.033081862925567918 0.010622308122043761 0.011357552093211539 0.015153435163590065 0.0092533628441130306 0.0075287614533662839 0.0099063160952606588 0.0076432350366997387 0.0083385327898177972 0.031241749761641735 0.031908106188121232 0.045613830504126485 36.103573852059128 0.034415073898944715 0.032935411395048853 0.020509205456150648 0.029730583218499085 0.0084421468028828828 45.3892356858113 0.02391708108006152 0.0064723142871240258 0.0044015062222365967 0.0087651778109102962 0.005558618181296722 0.0052020235135696175 0.0024871309293786267 0.001113227823831664 0.0046084366751052742 0.0038089640912088787 0.0019518544189761761 -0.0014241276267662967 -0.00089675592566512696 0.0003672485129542144 3.9302081638263597e-05 0.0019781484413838382 -0.0015906278269345441 0.0043419687935606129 0.0030040099494963207 0.0057213506854507223 0.0052205672233824156 0.0061500622656206275 -0.040483638510274367 -0.047803595090014972 -0.031569289278348678 -0.058093110873823239 -0.056171663476040079 -0.036875408005852872 -0.040369256528156316 -0.02433706786761064 -0.015979592787211616 -0.0034570562638543967 -0.019673297493824071 -0.014555191209207341 -0.027296160953400372 -0.012774537150199494 0.011116933166815779 0.0013013879947977314 0.024052242863390055 -0.00030280060220500005 -0.011101415947936344 0.0087122955101390231 0.010276493363311046 0.034623050061478033 0.055548037877091283 0.042700098280943344 0.048291087466302354 0.020486631317210291 0.029060615374861959 0.032450755320465374 0.013344081809577357 0.012729262464495461 0.02362254401077224 0.02023079523556448 0.022792742953386513 0.013052338320306516 0.0088486089911650745 0.011329687805819999 -0.00084906677338915382 -0.00044462350939344919 -0.00060211550958966242 -0.0097997234937762245 0.0014642134452591549 0.0035716612507580847 -0.0054001452343245271 -0.0077194277367987063 -0.018431863321815456 -0.020505904585920019 -0.021317137886759818 -0.019326914109983939 -0.011103689194958299 -0.011814337172434575 -0.014671507219343847 -0.020159466215011745 -0.023342089487218054 -0.031333099176503509 -0.019884901154557433 -0.026399693673833435 -0.041505877714851258 -0.031554701318851519 -0.032501556273706766 -0.0077463562067097425 -0.01630881722507449 -0.0097260273045924883 -0.016037369019272329 -0.016974028635528549 -0.024456704805311702 -0.023341599763603949 -0.018899930301154555 -0.01526719804905019 -0.012493795784496164 -0.011407041658917372 -0.0074245327161628349 -0.0078831126084204506 -0.012555497889242595 -0.006766156941645507 -0.0017794549557490491 -0.0036427940825256577 0.0024353784581336857 -0.0091813833165446113 -0.009747710712624702 -0.0027051870377604592 -0.0017770168357951199 0.00057607538282855586 -0.002881488248843489 0.0083205013263407679 0.008802530063479086 0.0078240934585620536 0.0099090983773310048 0.017074154902855021 0.0083149880852229074 0.0085841767559502458 0.0021164378519035326 0.0018217792756875517 0.0086186505814267456 0.00082953509441630047 0.0055417193197295767 0.0023090819961182341 0.0059917081151166229 0.0048629897777546227 0.00041031486955134255 -0.002744025943641315 -0.0030442278916877896 -0.0066862923591934909 -0.0040153739849926318 -0.0026972358438817068 0.00072868834011963202 -0.0045441521996381073 0.0025930995366700849 -0.0086371834688483418 -0.011467446755970112 -0.005920569475002857 -0.0065146286387030017 -0.0089073180354839465 -0.007834042651374773 -0.0064277077874823618 -0.0041764093874361308 -0.0067846142453245051 -0.0068639088092607992 -0.0048641679286524075 -0.0048360499482873465 -0.0054510476159648213 -0.0043486203491935882 -0.0065106361797568901 -0.007735295485286342 -0.01204101725415363 -0.0024007550893044849 0.0007236827748433039 0.0016388744587725323 -0.0014947435216484395 -0.0045980225959658932 -0.0055930593486912539 -0.0055927763648306039 -0.0027922838925308197 -0.0036618714381041334 -0.0044718316213827585 0.00044112574490773326 -0.00071577933465707955 -0.0030339794388880709 0.00035366760492000493 0.0024507191318323823 0.0044371511545248932 0.0089780469656786099 0.0091438853981692103 0.0052711498189107475 0.017167487752027477 0.025908024670986407 0.0089734736559980294 54.713294153854136 0.014603342223722393 0.018300938443651216 0.016996615053888497 64.249685803186807 0.0098709117860934503 0.018645808388651597 73.948360857432931 0.01042760942330101 0.0042368334609012848 0.0092988371925923768 0.0026530712488802288 0.0053364763641297053 0.0047481741924545462 0.0028102694537240139 0.010725396077659766 0.010527402794799523 0.0062686646700899386 0.016645535039768511 83.582018010008611 0.013021312773057736 0.014134994196787239 0.01088424371019947 0.01035680516174986 93.859012524200665 0.015632899245327181 0.010818756311787858 0.00064052380254300822 0.010440304889889507 0.014170401374645314 0.0086837414278205793 0.0029659816225582891 -0.0081444112403013108 -0.0033412558770496426 -0.0082279101285829825 -0.0018504470741028678 -0.0051068229769181683 -0.004833305004088434 -0.0023318116346608062 -0.00099080343836155382 -0.0081678184753835592 -0.0059443135290179246 -0.0090161893346735744 -0.0064797175633642505 -0.0083443228653289625 -0.0095123663685051235 -0.013776114204600204 -0.01081135365426128 -0.013795783251939808 -0.011460444777792567 -0.0093275189726942931 -0.011333426198885652 -0.0053543042122453366 -0.010023442768500063 -0.0084653608913057843 -0.0041851054200427174 -0.0086722265833562018 -0.0073860250822737339 -0.0038181504372722941 -0.0059522064136000863 -0.0089292123961789496 -0.0067124410128086565 -0.007360727057960037 -0.0071933257961150979 -0.005504862179890796 -0.0065279067776632949 -0.0049940334615590221 -0.0065195165003095745 -0.006854811348334558 -0.0060349183950013652 -0.0060761145963581075 -0.0020435027289136265 -0.0038517869006345906 -0.0043274733178114144 -0.0066282701457105984 -0.0023407665193617769 -0.0041837550512628828 -0.0046029049771379865 -0.0033664558381888312 -0.0049213761511419513 -0.0049035361485849065 -0.00580579251228985 0.0043820302696484861 -0.4516181271455757 0.0056856157441022084 -0.0008331068638781202 -0.0019524169711769498 -0.0051236717024477386 -0.0030917638664467728 -0.004193005270583694 0.0018226798299600111 -0.0025717851310162188 5.910298841049072e-05 -0.0044574374243519371 0.0015897700681654497 0.002126653303439828 0.00247746254598432 0.0026429352370717085 -0.98672882736635925 0.0015549504377916357 0.0055334545161820417 -0.92067657707570039 0.0033175120655030144 -1.0573878311276967 0.0036326012463753915 0.0039723770013646176 0.0014893165048592977 -0.0012778166920810116 -0.0019392025064675078 0.0019277387955553282 0.00053127394456955503 -0.0039364124237801501 0.0024702226869853516 0.0059229358854958163 0.0029278342296161775 -0.0017040909464661096 0.0033994448461823062 -0.80611034472100673 0.0065594012672088864 0.0041987696122556817 -0.00045758186394439897 -0.0044250954052251629 -0.0035081115234425475 -0.00075729459445988793 -0.0057568764324481825 -0.0089682696554964775 -0.010326407718200287 -0.0092485982226535174 -0.006448891894324571 -0.0071445686172549663 -0.0083707350170290767 -0.0054638889302139892 -0.0023220199043263567 -0.00052830437744399994 -0.004298174953733724 -0.014524344849542119 -0.019647671670863905 -0.01894470649909559 -0.013260655767522934 -0.015621738209131167 -0.012166763334146909 -0.012741594308041095 -0.014009213043949503 -0.01284293776690331 -0.010979943072873399 -0.0095137285566921116 -0.012256939914284804 -0.01222003517418168 -0.011601003726457839 -0.014143265037324633 -0.013953040098926875 -0.013962852177408615 -0.0093174120759774142 -0.0097597159205935775 -0.0078278476912797823 -0.0093646345927933354 -0.0091624320958391819 -0.0079298969698258573 -0.0060616059957497408 -0.0068479302668043307 -0.006677541741866775 -0.0050189661455245418 -0.0045370727831361563 -0.0061140526394771189 -0.0079957691003577809 -0.0066761488626328669 -0.0062396593535061417 -0.007591507813326656 -0.0072332953840618551 -0.00098819608119869728 -0.0034012969166576992 0.0013087266796629887 -0.0022484142979644212 -0.0060418092659065281 -0.0062166686655461476 -0.0032186596929274225 -0.0023025629243233273 -0.00461539493218939 -0.0046218352888191885 -0.0033209344213780733 -0.00017972028083051983 -0.0021571460306183746 0.001445521823863434 0.0011111822220991226 0.0019118968892482182 0.00076846851718444242 0.0012133079498324977 0.0023593081860415546 3.9225393557867222e-05 -0.00092892187744377918 -0.00098254616257484675 -0.0028400023438213077 -0.0027494712057984146 -0.0011616869630083921 -0.0012437464837284883 -0.00030968672344225401 -0.00093352641218208713 -0.00054241508994432421 0.0029264313572925239 0.0027851320334894205 0.0019214522654587562 0.00039613113546985764 0.001455128904690392 -0.0043815775118986027 -0.0037204471463609967 -0.0053713607858905553 -0.0051000771931713103 -0.0046857971434082976 -0.0032492231757500342 -0.0045944843945851903 -0.0045990459948239883 -0.0027795548779241848 -0.0018043814330181776 -0.0024809606116643541 -0.00092456717031758583 -0.001982590435825991 -0.0016321406451873769 -0.0032980505847637798 -0.0028264365260651943 -0.0024941581280334109 -0.0027093209228043398 -0.0028787582063469603 -0.00056275744117754273 -0.0016024685862594831 -0.0019493320938808159 -0.00088755131406442094 -0.0016885212087835329 -0.0013327739779452276 -0.00014298427760408628 0.00034439264111253221 -0.0011929083097597082 -0.00038533093820208874 -0.00068994974985050778 -0.00044539773871377704 -0.0012462386386510307 -0.0012621024589919089 0.00016661752823081665 0.0013396171483880154 0.0068039426801991465 0.0019087973781681444 0.00089806142974396385 0.00033961961504479676 8.7577664927197861e-05 0.0028138514488136165 0.00097305800456097893 -0.00049897587335481102 -0.00025185839952965913 0.0014084938349799752 0.0032422258275019338 0.0029831319992943217 0.0060860648010840797 0.012386450342513186 -0.021187672565646493 0.019118909689579352 1.4848740330580146 0.0051248636561452504 0.0049754710231959213 1.8060357879376099 0.0096711924625820407 1.81458324847691 0.0049664528895890254 0.0056477450441740048 -0.010964891765566663 -0.014183857724478489 -0.0098119047783923469 -0.01763066360616844 -0.0078492611337639059 -0.012796485988828096 -0.007785954330973963 -0.0052356494763355146 -0.0062116120357683796 0.0010632640413806259 -0.00078620200597468576 0.0055330917480001518 0.0069716161052563886 0.0079914658231428348 0.0051744187907789112 0.001840092850613935 0.000249863380594538 -0.00078347719206594418 -0.001997027394908979 -0.0059349557947380952 -0.0030565061916259066 -0.0051079826516926517 -0.0072404543934642355 -0.0032555239003153294 -0.0059120003521258733 -0.0041587635732264136 -0.00099454863771561604 0.00020808649139018344 -0.0031418106220223365 -0.0032892051602078243 0.00014508845599808654 -0.0039061329758665747 -0.0036269284384757641 -0.0026688054559310392 -0.0061584571764004073 -0.0045144564239696511 -0.0044710441124429573 -0.0051689013380146857 -0.0052803624568748819 -0.0032361748545411267 -0.0038973552107580411 -0.0067693156607715153 -0.0043853298042780759 -0.0034920433005532388 0.0048241266933492823 0.32601397157454226 -0.0045775871171968964 0.0037080694955386115 0.0037730931642336405 0.004838040327849966 -0.0098491358265778029 1.1441263149350922 0.0042596865113362012 0.0037209972576041994 0.0059069483894168412 -0.010405264000300892 -0.0069713756988594956 -0.0094976011170713002 -0.0055340279535174373 
</DataArray>
</CellData>
</Piece>
</UnstructuredGrid>
</VTKFile>
