<?xml version="1.0"?>
<VTKFile type="UnstructuredGrid" version="0.1" byte_order="LittleEndian">
<UnstructuredGrid>
<Piece NumberOfPoints="3142" NumberOfCells="1054">
<Points>
<DataArray type="Float64" NumberOfComponents="3" format="ascii">
0.02576622439977887 0.024532886826226379 0 0 0 0 0.049999999999899652 0 0 0.02576622439977887 0.024532886826226379 0 0 0 0 0 0.050000000000207989 0 0.02576622439977887 0.024532886826226379 0 0.049999999999899652 0 0 0.053064897599215843 0.048131547304697528 0 0.02576622439977887 0.024532886826226379 0 0.053064897599215843 0.048131547304697528 0 0 0.050000000000207989 0 0 0.050000000000207989 0 0 0.10000000000041601 0 0.044310582753132287 0.101412518374475 0 0 0.10000000000041601 0 0.044310582753132287 0.101412518374475 0 0 0.15000000000062411 0 0.053064897599215843 0.048131547304697528 0 0.044310582753132287 0.101412518374475 0 0.083411279318303222 0.089699755330707398 0 0.053064897599215843 0.048131547304697528 0 0 0.050000000000207989 0 0.044310582753132287 0.101412518374475 0 0.044310582753132287 0.101412518374475 0 0.083411279318303222 0.089699755330707398 0 0.065374659239632718 0.1448908038746782 0 0.083411279318303222 0.089699755330707398 0 0.065374659239632718 0.1448908038746782 0 0.1053400320299198 0.12877248826361379 0 0.083411279318303222 0.089699755330707398 0 0.12372429750337779 0.095814237875728972 0 0.1053400320299198 0.12877248826361379 0 0.12372429750337779 0.095814237875728972 0 0.1053400320299198 0.12877248826361379 0 0.14332333627550789 0.14578431753966009 0 0.12372429750337779 0.095814237875728972 0 0.10266856499169109 0.044518360900210059 0 0.14618258501891079 0.062070108745602003 0 0.083411279318303222 0.089699755330707398 0 0.12372429750337779 0.095814237875728972 0 0.10266856499169109 0.044518360900210059 0 0.10266856499169109 0.044518360900210059 0 0.099999999999814668 0 0 0.14999999999970359 0 0 0.049999999999899652 0 0 0.053064897599215843 0.048131547304697528 0 0.099999999999814668 0 0 0.053064897599215843 0.048131547304697528 0 0.10266856499169109 0.044518360900210059 0 0.099999999999814668 0 0 0.053064897599215843 0.048131547304697528 0 0.083411279318303222 0.089699755330707398 0 0.10266856499169109 0.044518360900210059 0 0.044081577119474857 0.2271058242433576 0 0 0.20000000000083221 0 0 0.25000000000104028 0 0.044081577119474857 0.2271058242433576 0 0 0.20000000000083221 0 0.038512288486115001 0.1844147282893184 0 0.044081577119474857 0.2271058242433576 0 0.038512288486115001 0.1844147282893184 0 0.083105206071467416 0.20007701332709979 0 0.038512288486115001 0.1844147282893184 0 0 0.15000000000062411 0 0.065374659239632718 0.1448908038746782 0 0.044310582753132287 0.101412518374475 0 0 0.15000000000062411 0 0.065374659239632718 0.1448908038746782 0 0.038512288486115001 0.1844147282893184 0 0.065374659239632718 0.1448908038746782 0 0.083105206071467416 0.20007701332709979 0 0 0.20000000000083221 0 0.038512288486115001 0.1844147282893184 0 0 0.15000000000062411 0 0.065374659239632718 0.1448908038746782 0 0.1053400320299198 0.12877248826361379 0 0.106902708054812 0.16453234188234539 0 0.1053400320299198 0.12877248826361379 0 0.106902708054812 0.16453234188234539 0 0.14332333627550789 0.14578431753966009 0 0.065374659239632718 0.1448908038746782 0 0.106902708054812 0.16453234188234539 0 0.083105206071467416 0.20007701332709979 0 0.083105206071467416 0.20007701332709979 0 0.095326043202144745 0.24554465089224409 0 0.13737030665753211 0.20313708640667491 0 0.106902708054812 0.16453234188234539 0 0.083105206071467416 0.20007701332709979 0 0.13737030665753211 0.20313708640667491 0 0.044081577119474857 0.2271058242433576 0 0.083105206071467416 0.20007701332709979 0 0.095326043202144745 0.24554465089224409 0 0.044081577119474857 0.2271058242433576 0 0.095326043202144745 0.24554465089224409 0 0.049706944316556423 0.27522722923869108 0 0.095326043202144745 0.24554465089224409 0 0.14377654328998779 0.2442024734791064 0 0.13737030665753211 0.20313708640667491 0 0.17933913398461551 0.2350063570234002 0 0.14377654328998779 0.2442024734791064 0 0.13737030665753211 0.20313708640667491 0 0.17933913398461551 0.2350063570234002 0 0.13737030665753211 0.20313708640667491 0 0.18124454140915969 0.18790916706335251 0 0.18124454140915969 0.18790916706335251 0 0.14332333627550789 0.14578431753966009 0 0.18652628422869419 0.14162325200928061 0 0.106902708054812 0.16453234188234539 0 0.13737030665753211 0.20313708640667491 0 0.14332333627550789 0.14578431753966009 0 0.13737030665753211 0.20313708640667491 0 0.18124454140915969 0.18790916706335251 0 0.14332333627550789 0.14578431753966009 0 0.14332333627550789 0.14578431753966009 0 0.18652628422869419 0.14162325200928061 0 0.16141998738593399 0.10404039647458049 0 0.18652628422869419 0.14162325200928061 0 0.22985637510995899 0.1298347970200906 0 0.2185883431182947 0.18019736283949719 0 0.22985637510995899 0.1298347970200906 0 0.2185883431182947 0.18019736283949719 0 0.25557216766470708 0.15874861286892261 0 0.2185883431182947 0.18019736283949719 0 0.25557216766470708 0.15874861286892261 0 0.26429849586623999 0.19346700179430079 0 0.18124454140915969 0.18790916706335251 0 0.18652628422869419 0.14162325200928061 0 0.2185883431182947 0.18019736283949719 0 0.17933913398461551 0.2350063570234002 0 0.18124454140915969 0.18790916706335251 0 0.224700362040408 0.22206622194729711 0 0.18124454140915969 0.18790916706335251 0 0.2185883431182947 0.18019736283949719 0 0.224700362040408 0.22206622194729711 0 0.2185883431182947 0.18019736283949719 0 0.224700362040408 0.22206622194729711 0 0.26429849586623999 0.19346700179430079 0 0.224700362040408 0.22206622194729711 0 0.25195515620380449 0.25883339815888678 0 0.21049769590865089 0.26857363548218488 0 0.17933913398461551 0.2350063570234002 0 0.224700362040408 0.22206622194729711 0 0.21049769590865089 0.26857363548218488 0 0.184418230509967 0.038773194583122873 0 0.14999999999970359 0 0 0.14618258501891079 0.062070108745602003 0 0.184418230509967 0.038773194583122873 0 0.14618258501891079 0.062070108745602003 0 0.19922788606653311 0.085920220746880993 0 0.184418230509967 0.038773194583122873 0 0.14999999999970359 0 0 0.19999999999955789 0 0 0.10266856499169109 0.044518360900210059 0 0.14999999999970359 0 0 0.14618258501891079 0.062070108745602003 0 0.12372429750337779 0.095814237875728972 0 0.14618258501891079 0.062070108745602003 0 0.16141998738593399 0.10404039647458049 0 0.12372429750337779 0.095814237875728972 0 0.14332333627550789 0.14578431753966009 0 0.16141998738593399 0.10404039647458049 0 0.18652628422869419 0.14162325200928061 0 0.16141998738593399 0.10404039647458049 0 0.19922788606653311 0.085920220746880993 0 0.14618258501891079 0.062070108745602003 0 0.16141998738593399 0.10404039647458049 0 0.19922788606653311 0.085920220746880993 0 0.18652628422869419 0.14162325200928061 0 0.22985637510995899 0.1298347970200906 0 0.19922788606653311 0.085920220746880993 0 0.22985637510995899 0.1298347970200906 0 0.19922788606653311 0.085920220746880993 0 0.24218496799700481 0.089025544070598317 0 0.22985637510995899 0.1298347970200906 0 0.24218496799700481 0.089025544070598317 0 0.27474541102162192 0.11822029332053539 0 0.19922788606653311 0.085920220746880993 0 0.24218496799700481 0.089025544070598317 0 0.22668068146512929 0.045875643423131329 0 0.24218496799700481 0.089025544070598317 0 0.22668068146512929 0.045875643423131329 0 0.27499999999933927 0.060310814194988557 0 0.184418230509967 0.038773194583122873 0 0.19922788606653311 0.085920220746880993 0 0.22668068146512929 0.045875643423131329 0 0.184418230509967 0.038773194583122873 0 0.22668068146512929 0.045875643423131329 0 0.19999999999955789 0 0 0.22668068146512929 0.045875643423131329 0 0.19999999999955789 0 0 0.24999999999941211 0 0 0.24999999999941211 0 0 0.27499999999933927 0.060310814194988557 0 0.29999999999926641 0 0 0.22668068146512929 0.045875643423131329 0 0.24999999999941211 0 0 0.27499999999933927 0.060310814194988557 0 0.27499999999933927 0.060310814194988557 0 0.29999999999926641 0 0 0.32541448401678508 0.046215317981507749 0 0.29999999999926641 0 0 0.32541448401678508 0.046215317981507749 0 0.34999999999912063 0 0 0.32541448401678508 0.046215317981507749 0 0.3615861437013822 0.03582617922508851 0 0.35312867752657662 0.084946736076730367 0 0.3615861437013822 0.03582617922508851 0 0.35312867752657662 0.084946736076730367 0 0.39591832466117061 0.056982757562006353 0 0.32541448401678508 0.046215317981507749 0 0.3615861437013822 0.03582617922508851 0 0.34999999999912063 0 0 0.3615861437013822 0.03582617922508851 0 0.34999999999912063 0 0 0.3999999999989749 0 0 0.35312867752657662 0.084946736076730367 0 0.36246644853392812 0.1399454205365751 0 0.39823268594401579 0.1116623613130045 0 0.35312867752657662 0.084946736076730367 0 0.32215584939770009 0.1218492143506909 0 0.36246644853392812 0.1399454205365751 0 0.32541448401678508 0.046215317981507749 0 0.35312867752657662 0.084946736076730367 0 0.3096713403101819 0.085471541595262421 0 0.35312867752657662 0.084946736076730367 0 0.32215584939770009 0.1218492143506909 0 0.3096713403101819 0.085471541595262421 0 0.32215584939770009 0.1218492143506909 0 0.3096713403101819 0.085471541595262421 0 0.27474541102162192 0.11822029332053539 0 0.27499999999933927 0.060310814194988557 0 0.32541448401678508 0.046215317981507749 0 0.3096713403101819 0.085471541595262421 0 0.27499999999933927 0.060310814194988557 0 0.3096713403101819 0.085471541595262421 0 0.27474541102162192 0.11822029332053539 0 0.24218496799700481 0.089025544070598317 0 0.27499999999933927 0.060310814194988557 0 0.27474541102162192 0.11822029332053539 0 0.22985637510995899 0.1298347970200906 0 0.27474541102162192 0.11822029332053539 0 0.25557216766470708 0.15874861286892261 0 0.27474541102162192 0.11822029332053539 0 0.25557216766470708 0.15874861286892261 0 0.29336099386129338 0.15892013001050981 0 0.25557216766470708 0.15874861286892261 0 0.29336099386129338 0.15892013001050981 0 0.26429849586623999 0.19346700179430079 0 0.29336099386129338 0.15892013001050981 0 0.31255190597181792 0.19850845631528771 0 0.33084213324567391 0.16272720141332131 0 0.29336099386129338 0.15892013001050981 0 0.26429849586623999 0.19346700179430079 0 0.31255190597181792 0.19850845631528771 0 0.32215584939770009 0.1218492143506909 0 0.27474541102162192 0.11822029332053539 0 0.29336099386129338 0.15892013001050981 0 0.224700362040408 0.22206622194729711 0 0.28040350263641872 0.23054717217092141 0 0.25195515620380449 0.25883339815888678 0 0.224700362040408 0.22206622194729711 0 0.28040350263641872 0.23054717217092141 0 0.26429849586623999 0.19346700179430079 0 0.28040350263641872 0.23054717217092141 0 0.26429849586623999 0.19346700179430079 0 0.31255190597181792 0.19850845631528771 0 0.28040350263641872 0.23054717217092141 0 0.33758650185219202 0.23837101504325639 0 0.29132859388405002 0.27203693976649962 0 0.28040350263641872 0.23054717217092141 0 0.33758650185219202 0.23837101504325639 0 0.31255190597181792 0.19850845631528771 0 0.33758650185219202 0.23837101504325639 0 0.31255190597181792 0.19850845631528771 0 0.3572130504031617 0.1874703368446563 0 0.33758650185219202 0.23837101504325639 0 0.3572130504031617 0.1874703368446563 0 0.38831533174504851 0.2189834941785925 0 0.33758650185219202 0.23837101504325639 0 0.38831533174504851 0.2189834941785925 0 0.3786248352540974 0.27082301512024259 0 0.32215584939770009 0.1218492143506909 0 0.29336099386129338 0.15892013001050981 0 0.33084213324567391 0.16272720141332131 0 0.32215584939770009 0.1218492143506909 0 0.33084213324567391 0.16272720141332131 0 0.36246644853392812 0.1399454205365751 0 0.31255190597181792 0.19850845631528771 0 0.33084213324567391 0.16272720141332131 0 0.3572130504031617 0.1874703368446563 0 0.3572130504031617 0.1874703368446563 0 0.36246644853392812 0.1399454205365751 0 0.39801143831225599 0.16651381068160659 0 0.33084213324567391 0.16272720141332131 0 0.3572130504031617 0.1874703368446563 0 0.36246644853392812 0.1399454205365751 0 0.36246644853392812 0.1399454205365751 0 0.39801143831225599 0.16651381068160659 0 0.39823268594401579 0.1116623613130045 0 0.39801143831225599 0.16651381068160659 0 0.42905200079338551 0.19982395548231649 0 0.44288491854585582 0.14116182884956319 0 0.39801143831225599 0.16651381068160659 0 0.44288491854585582 0.14116182884956319 0 0.39823268594401579 0.1116623613130045 0 0.38831533174504851 0.2189834941785925 0 0.42377727103934271 0.25099357235810238 0 0.3786248352540974 0.27082301512024259 0 0.3572130504031617 0.1874703368446563 0 0.39801143831225599 0.16651381068160659 0 0.38831533174504851 0.2189834941785925 0 0.39801143831225599 0.16651381068160659 0 0.38831533174504851 0.2189834941785925 0 0.42905200079338551 0.19982395548231649 0 0.38831533174504851 0.2189834941785925 0 0.42905200079338551 0.19982395548231649 0 0.42377727103934271 0.25099357235810238 0 0.42905200079338551 0.19982395548231649 0 0.46429753744194407 0.22870891180733599 0 0.42377727103934271 0.25099357235810238 0 0.42905200079338551 0.19982395548231649 0 0.46429753744194407 0.22870891180733599 0 0.47357141910802508 0.1873585799078378 0 0.47357141910802508 0.1873585799078378 0 0.51729576145820033 0.1683240575987815 0 0.50760557329222289 0.20700468884612061 0 0.46429753744194407 0.22870891180733599 0 0.47357141910802508 0.1873585799078378 0 0.50760557329222289 0.20700468884612061 0 0.46429753744194407 0.22870891180733599 0 0.49695729691142171 0.25014895411178018 0 0.50760557329222289 0.20700468884612061 0 0.44288491854585582 0.14116182884956319 0 0.47357141910802508 0.1873585799078378 0 0.48466639505193998 0.1421439844745814 0 0.42905200079338551 0.19982395548231649 0 0.44288491854585582 0.14116182884956319 0 0.47357141910802508 0.1873585799078378 0 0.47357141910802508 0.1873585799078378 0 0.48466639505193998 0.1421439844745814 0 0.51729576145820033 0.1683240575987815 0 0.44288491854585582 0.14116182884956319 0 0.48466639505193998 0.1421439844745814 0 0.47881186583059909 0.093591717165689425 0 0.48466639505193998 0.1421439844745814 0 0.47881186583059909 0.093591717165689425 0 0.51076801031701946 0.1202837388510348 0 0.44288491854585582 0.14116182884956319 0 0.47881186583059909 0.093591717165689425 0 0.43698630808430822 0.080423614171545449 0 0.47881186583059909 0.093591717165689425 0 0.47040171442036788 0.044141676406503738 0 0.43698630808430822 0.080423614171545449 0 0.47881186583059909 0.093591717165689425 0 0.47040171442036788 0.044141676406503738 0 0.52375890611712683 0.059318771819432882 0 0.47040171442036788 0.044141676406503738 0 0.49999999999869432 0 0 0.52375890611712683 0.059318771819432882 0 0.47040171442036788 0.044141676406503738 0 0.49999999999869432 0 0 0.44999999999882923 0 0 0.47040171442036788 0.044141676406503738 0 0.44999999999882923 0 0 0.4320097814748517 0.037406712692169303 0 0.47040171442036788 0.044141676406503738 0 0.4320097814748517 0.037406712692169303 0 0.43698630808430822 0.080423614171545449 0 0.4320097814748517 0.037406712692169303 0 0.3999999999989749 0 0 0.39591832466117061 0.056982757562006353 0 0.4320097814748517 0.037406712692169303 0 0.39591832466117061 0.056982757562006353 0 0.43698630808430822 0.080423614171545449 0 0.44999999999882923 0 0 0.4320097814748517 0.037406712692169303 0 0.3999999999989749 0 0 0.3615861437013822 0.03582617922508851 0 0.3999999999989749 0 0 0.39591832466117061 0.056982757562006353 0 0.35312867752657662 0.084946736076730367 0 0.39591832466117061 0.056982757562006353 0 0.39823268594401579 0.1116623613130045 0 0.44288491854585582 0.14116182884956319 0 0.39823268594401579 0.1116623613130045 0 0.43698630808430822 0.080423614171545449 0 0.39591832466117061 0.056982757562006353 0 0.39823268594401579 0.1116623613130045 0 0.43698630808430822 0.080423614171545449 0 0.42161023666869668 0.39493916313643851 0 0.38707855792647411 0.42299362914874578 0 0.43249999999999988 0.43937499999999979 0 0.42161023666869668 0.39493916313643851 0 0.38083244760691543 0.38531983672244652 0 0.38707855792647411 0.42299362914874578 0 0.42161023666869668 0.39493916313643851 0 0.38083244760691543 0.38531983672244652 0 0.40076539126862748 0.34589349467022118 0 0.38707855792647411 0.42299362914874578 0 0.3908716102680424 0.47010282357248828 0 0.43249999999999988 0.43937499999999979 0 0.3908716102680424 0.47010282357248828 0 0.43507373378304309 0.49699695397193322 0 0.38244435121258652 0.51653317813019495 0 0.3908716102680424 0.47010282357248828 0 0.43507373378304309 0.49699695397193322 0 0.43249999999999988 0.43937499999999979 0 0.43507373378304309 0.49699695397193322 0 0.43249999999999988 0.43937499999999979 0 0.46111841286828259 0.46690301029591341 0 0.43249999999999988 0.43937499999999979 0 0.46111841286828259 0.46690301029591341 0 0.48858720058566618 0.43964267759203868 0 0.43507373378304309 0.49699695397193322 0 0.46111841286828259 0.46690301029591341 0 0.49102375406324739 0.49123754822244059 0 0.46111841286828259 0.46690301029591341 0 0.49102375406324739 0.49123754822244059 0 0.48858720058566618 0.43964267759203868 0 0.48858720058566618 0.43964267759203868 0 0.46655310992796922 0.39650496622958609 0 0.52289427570932567 0.3932284363388488 0 0.43249999999999988 0.43937499999999979 0 0.48858720058566618 0.43964267759203868 0 0.46655310992796922 0.39650496622958609 0 0.42161023666869668 0.39493916313643851 0 0.43249999999999988 0.43937499999999979 0 0.46655310992796922 0.39650496622958609 0 0.42161023666869668 0.39493916313643851 0 0.46655310992796922 0.39650496622958609 0 0.4409427642593301 0.35743108089689513 0 0.46655310992796922 0.39650496622958609 0 0.49077833859261139 0.35229981449445641 0 0.52289427570932567 0.3932284363388488 0 0.49077833859261139 0.35229981449445641 0 0.46226845272279993 0.31901800744800313 0 0.5 0.29999999999999999 0 0.49077833859261139 0.35229981449445641 0 0.46226845272279993 0.31901800744800313 0 0.4409427642593301 0.35743108089689513 0 0.46226845272279993 0.31901800744800313 0 0.4409427642593301 0.35743108089689513 0 0.41914690343363781 0.30688979866601612 0 0.46655310992796922 0.39650496622958609 0 0.49077833859261139 0.35229981449445641 0 0.4409427642593301 0.35743108089689513 0 0.49695729691142171 0.25014895411178018 0 0.4604742573284204 0.27846934318264788 0 0.5 0.29999999999999999 0 0.46429753744194407 0.22870891180733599 0 0.49695729691142171 0.25014895411178018 0 0.4604742573284204 0.27846934318264788 0 0.46226845272279993 0.31901800744800313 0 0.4604742573284204 0.27846934318264788 0 0.5 0.29999999999999999 0 0.46226845272279993 0.31901800744800313 0 0.4604742573284204 0.27846934318264788 0 0.41914690343363781 0.30688979866601612 0 0.46429753744194407 0.22870891180733599 0 0.4604742573284204 0.27846934318264788 0 0.42377727103934271 0.25099357235810238 0 0.4604742573284204 0.27846934318264788 0 0.42377727103934271 0.25099357235810238 0 0.41914690343363781 0.30688979866601612 0 0.42377727103934271 0.25099357235810238 0 0.41914690343363781 0.30688979866601612 0 0.3786248352540974 0.27082301512024259 0 0.41914690343363781 0.30688979866601612 0 0.3786248352540974 0.27082301512024259 0 0.36575549820117997 0.31677992835137742 0 0.42161023666869668 0.39493916313643851 0 0.4409427642593301 0.35743108089689513 0 0.40076539126862748 0.34589349467022118 0 0.4409427642593301 0.35743108089689513 0 0.41914690343363781 0.30688979866601612 0 0.40076539126862748 0.34589349467022118 0 0.41914690343363781 0.30688979866601612 0 0.40076539126862748 0.34589349467022118 0 0.36575549820117997 0.31677992835137742 0 0.40076539126862748 0.34589349467022118 0 0.36575549820117997 0.31677992835137742 0 0.33277555741076909 0.36432196682010132 0 0.38083244760691543 0.38531983672244652 0 0.40076539126862748 0.34589349467022118 0 0.33277555741076909 0.36432196682010132 0 0.36575549820117997 0.31677992835137742 0 0.32752639306529541 0.32610012995269699 0 0.33277555741076909 0.36432196682010132 0 0.32752639306529541 0.32610012995269699 0 0.33277555741076909 0.36432196682010132 0 0.29644548887253103 0.34914008784168082 0 0.33758650185219202 0.23837101504325639 0 0.3786248352540974 0.27082301512024259 0 0.33402499257867951 0.28911035184473982 0 0.3786248352540974 0.27082301512024259 0 0.36575549820117997 0.31677992835137742 0 0.33402499257867951 0.28911035184473982 0 0.36575549820117997 0.31677992835137742 0 0.32752639306529541 0.32610012995269699 0 0.33402499257867951 0.28911035184473982 0 0.32752639306529541 0.32610012995269699 0 0.33402499257867951 0.28911035184473982 0 0.29348325746214782 0.31350119524708198 0 0.33758650185219202 0.23837101504325639 0 0.33402499257867951 0.28911035184473982 0 0.29132859388405002 0.27203693976649962 0 0.33402499257867951 0.28911035184473982 0 0.29132859388405002 0.27203693976649962 0 0.29348325746214782 0.31350119524708198 0 0.29132859388405002 0.27203693976649962 0 0.29348325746214782 0.31350119524708198 0 0.24432083401701241 0.3006253385567515 0 0.29132859388405002 0.27203693976649962 0 0.25195515620380449 0.25883339815888678 0 0.24432083401701241 0.3006253385567515 0 0.28040350263641872 0.23054717217092141 0 0.29132859388405002 0.27203693976649962 0 0.25195515620380449 0.25883339815888678 0 0.33277555741076909 0.36432196682010132 0 0.29644548887253103 0.34914008784168082 0 0.27866744612395528 0.38416094670951489 0 0.32752639306529541 0.32610012995269699 0 0.29644548887253103 0.34914008784168082 0 0.29348325746214782 0.31350119524708198 0 0.29644548887253103 0.34914008784168082 0 0.29348325746214782 0.31350119524708198 0 0.25966125648670141 0.34351016742083729 0 0.29348325746214782 0.31350119524708198 0 0.25966125648670141 0.34351016742083729 0 0.24432083401701241 0.3006253385567515 0 0.29644548887253103 0.34914008784168082 0 0.25966125648670141 0.34351016742083729 0 0.27866744612395528 0.38416094670951489 0 0.25966125648670141 0.34351016742083729 0 0.27866744612395528 0.38416094670951489 0 0.22033343844674469 0.36963382230740238 0 0.27866744612395528 0.38416094670951489 0 0.29124338931648802 0.43334555462578611 0 0.24049127783545701 0.41270748208749802 0 0.29124338931648802 0.43334555462578611 0 0.25982634974572738 0.46097799597715272 0 0.24049127783545701 0.41270748208749802 0 0.27866744612395528 0.38416094670951489 0 0.29124338931648802 0.43334555462578611 0 0.31778888742534622 0.40581751814196781 0 0.33277555741076909 0.36432196682010132 0 0.27866744612395528 0.38416094670951489 0 0.31778888742534622 0.40581751814196781 0 0.33277555741076909 0.36432196682010132 0 0.31778888742534622 0.40581751814196781 0 0.35221190152536241 0.40457127605439203 0 0.31778888742534622 0.40581751814196781 0 0.35221190152536241 0.40457127605439203 0 0.34258405725730701 0.4444034294386992 0 0.29124338931648802 0.43334555462578611 0 0.31778888742534622 0.40581751814196781 0 0.34258405725730701 0.4444034294386992 0 0.38707855792647411 0.42299362914874578 0 0.35221190152536241 0.40457127605439203 0 0.34258405725730701 0.4444034294386992 0 0.38083244760691543 0.38531983672244652 0 0.38707855792647411 0.42299362914874578 0 0.35221190152536241 0.40457127605439203 0 0.38083244760691543 0.38531983672244652 0 0.33277555741076909 0.36432196682010132 0 0.35221190152536241 0.40457127605439203 0 0.3908716102680424 0.47010282357248828 0 0.35024835142131061 0.48654922671676981 0 0.38244435121258652 0.51653317813019495 0 0.3908716102680424 0.47010282357248828 0 0.35024835142131061 0.48654922671676981 0 0.34258405725730701 0.4444034294386992 0 0.38707855792647411 0.42299362914874578 0 0.3908716102680424 0.47010282357248828 0 0.34258405725730701 0.4444034294386992 0 0.29124338931648802 0.43334555462578611 0 0.34258405725730701 0.4444034294386992 0 0.31068898841644388 0.47541502461811092 0 0.35024835142131061 0.48654922671676981 0 0.31068898841644388 0.47541502461811092 0 0.33190227185843768 0.52715113583864037 0 0.35024835142131061 0.48654922671676981 0 0.34258405725730701 0.4444034294386992 0 0.31068898841644388 0.47541502461811092 0 0.31068898841644388 0.47541502461811092 0 0.25982634974572738 0.46097799597715272 0 0.28307294598219601 0.50789252727458634 0 0.29124338931648802 0.43334555462578611 0 0.31068898841644388 0.47541502461811092 0 0.25982634974572738 0.46097799597715272 0 0.25982634974572738 0.46097799597715272 0 0.23975172658309729 0.49475499200540818 0 0.28307294598219601 0.50789252727458634 0 0.23975172658309729 0.49475499200540818 0 0.19604738184454831 0.47787523520405789 0 0.22278230690790279 0.44824268025881547 0 0.19604738184454831 0.47787523520405789 0 0.22278230690790279 0.44824268025881547 0 0.191953871957803 0.42546416763755879 0 0.25982634974572738 0.46097799597715272 0 0.22278230690790279 0.44824268025881547 0 0.24049127783545701 0.41270748208749802 0 0.25982634974572738 0.46097799597715272 0 0.23975172658309729 0.49475499200540818 0 0.22278230690790279 0.44824268025881547 0 0.27866744612395528 0.38416094670951489 0 0.24049127783545701 0.41270748208749802 0 0.22033343844674469 0.36963382230740238 0 0.191953871957803 0.42546416763755879 0 0.1650278706801647 0.38791388161335733 0 0.22033343844674469 0.36963382230740238 0 0.24049127783545701 0.41270748208749802 0 0.191953871957803 0.42546416763755879 0 0.22033343844674469 0.36963382230740238 0 0.22278230690790279 0.44824268025881547 0 0.24049127783545701 0.41270748208749802 0 0.191953871957803 0.42546416763755879 0 0.191953871957803 0.42546416763755879 0 0.13773355295499351 0.42497777642586831 0 0.15801167086041079 0.46008690540259539 0 0.191953871957803 0.42546416763755879 0 0.1650278706801647 0.38791388161335733 0 0.13773355295499351 0.42497777642586831 0 0.1650278706801647 0.38791388161335733 0 0.13773355295499351 0.42497777642586831 0 0.1117088112799664 0.38831403004970022 0 0.13773355295499351 0.42497777642586831 0 0.15801167086041079 0.46008690540259539 0 0.113541300460994 0.46208784312094731 0 0.15801167086041079 0.46008690540259539 0 0.113541300460994 0.46208784312094731 0 0.1216098864341134 0.50637075089503902 0 0.15801167086041079 0.46008690540259539 0 0.1216098864341134 0.50637075089503902 0 0.16618607197337229 0.50652878253548905 0 0.19604738184454831 0.47787523520405789 0 0.15801167086041079 0.46008690540259539 0 0.16618607197337229 0.50652878253548905 0 0.19604738184454831 0.47787523520405789 0 0.191953871957803 0.42546416763755879 0 0.15801167086041079 0.46008690540259539 0 0.25195515620380449 0.25883339815888678 0 0.21049769590865089 0.26857363548218488 0 0.24432083401701241 0.3006253385567515 0 0.21049769590865089 0.26857363548218488 0 0.24432083401701241 0.3006253385567515 0 0.19670163708476801 0.31472518408333222 0 0.21049769590865089 0.26857363548218488 0 0.19670163708476801 0.31472518408333222 0 0.168349569971391 0.28054490850913671 0 0.19670163708476801 0.31472518408333222 0 0.22615676742807109 0.33458786033114157 0 0.18434624290945251 0.35208838264196463 0 0.24432083401701241 0.3006253385567515 0 0.19670163708476801 0.31472518408333222 0 0.22615676742807109 0.33458786033114157 0 0.25966125648670141 0.34351016742083729 0 0.24432083401701241 0.3006253385567515 0 0.22615676742807109 0.33458786033114157 0 0.25966125648670141 0.34351016742083729 0 0.22615676742807109 0.33458786033114157 0 0.22033343844674469 0.36963382230740238 0 0.22615676742807109 0.33458786033114157 0 0.22033343844674469 0.36963382230740238 0 0.18434624290945251 0.35208838264196463 0 0.1650278706801647 0.38791388161335733 0 0.22033343844674469 0.36963382230740238 0 0.18434624290945251 0.35208838264196463 0 0.1650278706801647 0.38791388161335733 0 0.18434624290945251 0.35208838264196463 0 0.14223753364722069 0.3341983344262433 0 0.1650278706801647 0.38791388161335733 0 0.14223753364722069 0.3341983344262433 0 0.1117088112799664 0.38831403004970022 0 0.19670163708476801 0.31472518408333222 0 0.18434624290945251 0.35208838264196463 0 0.14223753364722069 0.3341983344262433 0 0.19670163708476801 0.31472518408333222 0 0.14223753364722069 0.3341983344262433 0 0.168349569971391 0.28054490850913671 0 0.14223753364722069 0.3341983344262433 0 0.168349569971391 0.28054490850913671 0 0.1247745017231483 0.27198077544791172 0 0.14377654328998779 0.2442024734791064 0 0.168349569971391 0.28054490850913671 0 0.1247745017231483 0.27198077544791172 0 0.17933913398461551 0.2350063570234002 0 0.21049769590865089 0.26857363548218488 0 0.168349569971391 0.28054490850913671 0 0.17933913398461551 0.2350063570234002 0 0.14377654328998779 0.2442024734791064 0 0.168349569971391 0.28054490850913671 0 0.095326043202144745 0.24554465089224409 0 0.093851963071650835 0.30582068233324772 0 0.049706944316556423 0.27522722923869108 0 0.095326043202144745 0.24554465089224409 0 0.14377654328998779 0.2442024734791064 0 0.1247745017231483 0.27198077544791172 0 0.095326043202144745 0.24554465089224409 0 0.1247745017231483 0.27198077544791172 0 0.093851963071650835 0.30582068233324772 0 0.14223753364722069 0.3341983344262433 0 0.1247745017231483 0.27198077544791172 0 0.093851963071650835 0.30582068233324772 0 0.093851963071650835 0.30582068233324772 0 0.046389130980076937 0.32668781832131749 0 0.049706944316556423 0.27522722923869108 0 0.093851963071650835 0.30582068233324772 0 0.087545339447545459 0.35122518864182262 0 0.046389130980076937 0.32668781832131749 0 0.14223753364722069 0.3341983344262433 0 0.093851963071650835 0.30582068233324772 0 0.087545339447545459 0.35122518864182262 0 0.14223753364722069 0.3341983344262433 0 0.087545339447545459 0.35122518864182262 0 0.1117088112799664 0.38831403004970022 0 0.087545339447545459 0.35122518864182262 0 0.1117088112799664 0.38831403004970022 0 0.050583896093752537 0.38543522283434112 0 0.087545339447545459 0.35122518864182262 0 0.046389130980076937 0.32668781832131749 0 0.050583896093752537 0.38543522283434112 0 0 0.35000000000145642 0 0.046389130980076937 0.32668781832131749 0 0.050583896093752537 0.38543522283434112 0 0 0.35000000000145642 0 0.046389130980076937 0.32668781832131749 0 0 0.30000000000124832 0 0.046389130980076937 0.32668781832131749 0 0 0.30000000000124832 0 0.049706944316556423 0.27522722923869108 0 0 0.30000000000124832 0 0 0.25000000000104028 0 0.049706944316556423 0.27522722923869108 0 0.044081577119474857 0.2271058242433576 0 0 0.25000000000104028 0 0.049706944316556423 0.27522722923869108 0 0.068743045408989428 0.48853989837882689 0 0.113541300460994 0.46208784312094731 0 0.078358742472063481 0.43365249433908948 0 0.068743045408989428 0.48853989837882689 0 0.113541300460994 0.46208784312094731 0 0.1216098864341134 0.50637075089503902 0 0.13773355295499351 0.42497777642586831 0 0.113541300460994 0.46208784312094731 0 0.078358742472063481 0.43365249433908948 0 0.13773355295499351 0.42497777642586831 0 0.1117088112799664 0.38831403004970022 0 0.078358742472063481 0.43365249433908948 0 0.1117088112799664 0.38831403004970022 0 0.078358742472063481 0.43365249433908948 0 0.050583896093752537 0.38543522283434112 0 0.078358742472063481 0.43365249433908948 0 0.035463093262830522 0.42673416072819947 0 0.050583896093752537 0.38543522283434112 0 0 0.35000000000145642 0 0.050583896093752537 0.38543522283434112 0 0 0.40000000000166441 0 0.035463093262830522 0.42673416072819947 0 0.050583896093752537 0.38543522283434112 0 0 0.40000000000166441 0 0.035463093262830522 0.42673416072819947 0 0 0.40000000000166441 0 0 0.45000000000187229 0 0.035463093262830522 0.42673416072819947 0 0 0.45000000000187229 0 0.033550201249889847 0.46247875832467239 0 0.068743045408989428 0.48853989837882689 0 0.033550201249889847 0.46247875832467239 0 0 0.50000000000205869 0 0.068743045408989428 0.48853989837882689 0 0.078358742472063481 0.43365249433908948 0 0.033550201249889847 0.46247875832467239 0 0.078358742472063481 0.43365249433908948 0 0.035463093262830522 0.42673416072819947 0 0.033550201249889847 0.46247875832467239 0 0 0.45000000000187229 0 0.033550201249889847 0.46247875832467239 0 0 0.50000000000205869 0 0.068743045408989428 0.48853989837882689 0 0 0.50000000000205869 0 0.044576108720083309 0.53509043209532614 0 0 0.50000000000205869 0 0 0.55000000000173355 0 0.044576108720083309 0.53509043209532614 0 0 0.55000000000173355 0 0.044576108720083309 0.53509043209532614 0 0.034381862692950467 0.57372682250960894 0 0.044576108720083309 0.53509043209532614 0 0.077693244765132896 0.56932317963405099 0 0.034381862692950467 0.57372682250960894 0 0.068743045408989428 0.48853989837882689 0 0.044576108720083309 0.53509043209532614 0 0.085622222639554768 0.53333248912060549 0 0.068743045408989428 0.48853989837882689 0 0.085622222639554768 0.53333248912060549 0 0.1216098864341134 0.50637075089503902 0 0.044576108720083309 0.53509043209532614 0 0.085622222639554768 0.53333248912060549 0 0.077693244765132896 0.56932317963405099 0 0.085622222639554768 0.53333248912060549 0 0.1154888278694548 0.56733818459978413 0 0.077693244765132896 0.56932317963405099 0 0.085622222639554768 0.53333248912060549 0 0.1216098864341134 0.50637075089503902 0 0.1154888278694548 0.56733818459978413 0 0.1024350934457823 0.60772393977513839 0 0.1154888278694548 0.56733818459978413 0 0.077693244765132896 0.56932317963405099 0 0.1024350934457823 0.60772393977513839 0 0.050069554451969707 0.61308520079857043 0 0.086179601630648681 0.64647209519980475 0 0.1024350934457823 0.60772393977513839 0 0.077693244765132896 0.56932317963405099 0 0.050069554451969707 0.61308520079857043 0 0.077693244765132896 0.56932317963405099 0 0.050069554451969707 0.61308520079857043 0 0.034381862692950467 0.57372682250960894 0 0 0.55000000000173355 0 0.034381862692950467 0.57372682250960894 0 0 0.60000000000138687 0 0.050069554451969707 0.61308520079857043 0 0 0.60000000000138687 0 0 0.65000000000104008 0 0.050069554451969707 0.61308520079857043 0 0.034381862692950467 0.57372682250960894 0 0 0.60000000000138687 0 0 0.65000000000104008 0 0.046634677244967337 0.671418230738282 0 0 0.7000000000006934 0 0.050069554451969707 0.61308520079857043 0 0.046634677244967337 0.671418230738282 0 0.086179601630648681 0.64647209519980475 0 0.050069554451969707 0.61308520079857043 0 0 0.65000000000104008 0 0.046634677244967337 0.671418230738282 0 0 0.7000000000006934 0 0.049706944316475897 0.72477277076253799 0 0 0.75000000000034661 0 0.046634677244967337 0.671418230738282 0 0 0.7000000000006934 0 0.049706944316475897 0.72477277076253799 0 0.049706944316475897 0.72477277076253799 0 0 0.75000000000034661 0 0.04408157711937423 0.7728941757575627 0 0.049706944316475897 0.72477277076253799 0 0.1020579365089687 0.69352219419301997 0 0.090953281884486245 0.7564451946902494 0 0.1020579365089687 0.69352219419301997 0 0.1215415378367805 0.72939333680004137 0 0.090953281884486245 0.7564451946902494 0 0.046634677244967337 0.671418230738282 0 0.049706944316475897 0.72477277076253799 0 0.1020579365089687 0.69352219419301997 0 0.1215415378367805 0.72939333680004137 0 0.090953281884486245 0.7564451946902494 0 0.14335651144331049 0.75565258250209677 0 0.046634677244967337 0.671418230738282 0 0.1020579365089687 0.69352219419301997 0 0.086179601630648681 0.64647209519980475 0 0.1020579365089687 0.69352219419301997 0 0.086179601630648681 0.64647209519980475 0 0.1241190223511371 0.64391885572885044 0 0.1024350934457823 0.60772393977513839 0 0.086179601630648681 0.64647209519980475 0 0.1241190223511371 0.64391885572885044 0 0.1020579365089687 0.69352219419301997 0 0.1241190223511371 0.64391885572885044 0 0.16500388252850301 0.66612077714085194 0 0.1241190223511371 0.64391885572885044 0 0.16500388252850301 0.66612077714085194 0 0.15720202157091859 0.60665697304410315 0 0.16500388252850301 0.66612077714085194 0 0.19914261668318661 0.62286739485272158 0 0.15720202157091859 0.60665697304410315 0 0.1020579365089687 0.69352219419301997 0 0.16500388252850301 0.66612077714085194 0 0.15332765547575641 0.71200081858233666 0 0.1215415378367805 0.72939333680004137 0 0.15332765547575641 0.71200081858233666 0 0.14335651144331049 0.75565258250209677 0 0.1020579365089687 0.69352219419301997 0 0.1215415378367805 0.72939333680004137 0 0.15332765547575641 0.71200081858233666 0 0.16500388252850301 0.66612077714085194 0 0.15332765547575641 0.71200081858233666 0 0.19068556247388771 0.71028988922845504 0 0.15332765547575641 0.71200081858233666 0 0.14335651144331049 0.75565258250209677 0 0.18269480424590959 0.75905448272264375 0 0.15332765547575641 0.71200081858233666 0 0.19068556247388771 0.71028988922845504 0 0.18269480424590959 0.75905448272264375 0 0.19068556247388771 0.71028988922845504 0 0.2248999640082178 0.72584299459689172 0 0.18269480424590959 0.75905448272264375 0 0.19068556247388771 0.71028988922845504 0 0.2248999640082178 0.72584299459689172 0 0.2236846579037573 0.67380363126050236 0 0.2248999640082178 0.72584299459689172 0 0.2236846579037573 0.67380363126050236 0 0.26439878998046262 0.7048065392091396 0 0.2248999640082178 0.72584299459689172 0 0.22556077506376701 0.77837424984191617 0 0.25676291524611189 0.7436741304886243 0 0.2248999640082178 0.72584299459689172 0 0.25676291524611189 0.7436741304886243 0 0.26439878998046262 0.7048065392091396 0 0.16500388252850301 0.66612077714085194 0 0.2236846579037573 0.67380363126050236 0 0.19914261668318661 0.62286739485272158 0 0.16500388252850301 0.66612077714085194 0 0.19068556247388771 0.71028988922845504 0 0.2236846579037573 0.67380363126050236 0 0.2236846579037573 0.67380363126050236 0 0.2459498854893499 0.63248470766216769 0 0.19914261668318661 0.62286739485272158 0 0.2236846579037573 0.67380363126050236 0 0.2459498854893499 0.63248470766216769 0 0.27820712747429932 0.65530134213254643 0 0.2459498854893499 0.63248470766216769 0 0.19914261668318661 0.62286739485272158 0 0.22549374774072969 0.58452645269293457 0 0.2459498854893499 0.63248470766216769 0 0.22549374774072969 0.58452645269293457 0 0.26573297623774761 0.59828298563722948 0 0.19914261668318661 0.62286739485272158 0 0.22549374774072969 0.58452645269293457 0 0.18381867841758909 0.57774125163628387 0 0.22549374774072969 0.58452645269293457 0 0.20050006573841939 0.53248514016039872 0 0.18381867841758909 0.57774125163628387 0 0.22549374774072969 0.58452645269293457 0 0.25115337790845271 0.54719303014923271 0 0.26573297623774761 0.59828298563722948 0 0.22549374774072969 0.58452645269293457 0 0.20050006573841939 0.53248514016039872 0 0.25115337790845271 0.54719303014923271 0 0.23975172658309729 0.49475499200540818 0 0.20050006573841939 0.53248514016039872 0 0.25115337790845271 0.54719303014923271 0 0.19604738184454831 0.47787523520405789 0 0.20050006573841939 0.53248514016039872 0 0.16618607197337229 0.50652878253548905 0 0.23975172658309729 0.49475499200540818 0 0.19604738184454831 0.47787523520405789 0 0.20050006573841939 0.53248514016039872 0 0.20050006573841939 0.53248514016039872 0 0.14934928745814749 0.55042914607228977 0 0.18381867841758909 0.57774125163628387 0 0.20050006573841939 0.53248514016039872 0 0.16618607197337229 0.50652878253548905 0 0.14934928745814749 0.55042914607228977 0 0.1216098864341134 0.50637075089503902 0 0.16618607197337229 0.50652878253548905 0 0.14934928745814749 0.55042914607228977 0 0.1216098864341134 0.50637075089503902 0 0.1154888278694548 0.56733818459978413 0 0.14934928745814749 0.55042914607228977 0 0.1154888278694548 0.56733818459978413 0 0.14934928745814749 0.55042914607228977 0 0.15720202157091859 0.60665697304410315 0 0.1024350934457823 0.60772393977513839 0 0.1154888278694548 0.56733818459978413 0 0.15720202157091859 0.60665697304410315 0 0.1024350934457823 0.60772393977513839 0 0.1241190223511371 0.64391885572885044 0 0.15720202157091859 0.60665697304410315 0 0.19914261668318661 0.62286739485272158 0 0.15720202157091859 0.60665697304410315 0 0.18381867841758909 0.57774125163628387 0 0.14934928745814749 0.55042914607228977 0 0.15720202157091859 0.60665697304410315 0 0.18381867841758909 0.57774125163628387 0 0.10000000000041601 1 0 0.10266856499240549 0.95548163909968886 0 0.15000000000062411 1 0 0.10266856499240549 0.95548163909968886 0 0.053064897599294662 0.95186845269532028 0 0.083411279318375747 0.91030024466934134 0 0.10000000000041601 1 0 0.050000000000207989 1 0 0.053064897599294662 0.95186845269532028 0 0.10000000000041601 1 0 0.10266856499240549 0.95548163909968886 0 0.053064897599294662 0.95186845269532028 0 0.050000000000207989 1 0 0.025766224399875661 0.97546711317377799 0 0.053064897599294662 0.95186845269532028 0 0.050000000000207989 1 0 0 1 0 0.025766224399875661 0.97546711317377799 0 0 1 0 0.025766224399875661 0.97546711317377799 0 0 0.94999999999979179 0 0.025766224399875661 0.97546711317377799 0 0 0.94999999999979179 0 0.053064897599294662 0.95186845269532028 0 0 0.94999999999979179 0 0.053064897599294662 0.95186845269532028 0 0.0443105827531413 0.89858748162559932 0 0.053064897599294662 0.95186845269532028 0 0.0443105827531413 0.89858748162559932 0 0.083411279318375747 0.91030024466934134 0 0 0.94999999999979179 0 0 0.89999999999958358 0 0.0443105827531413 0.89858748162559932 0 0 0.89999999999958358 0 0.0443105827531413 0.89858748162559932 0 0 0.84999999999965292 0 0.0443105827531413 0.89858748162559932 0 0.083411279318375747 0.91030024466934134 0 0.065374659239661639 0.8551091961254178 0 0.083411279318375747 0.91030024466934134 0 0.10562472963403439 0.87143394428979881 0 0.065374659239661639 0.8551091961254178 0 0.10266856499240549 0.95548163909968886 0 0.083411279318375747 0.91030024466934134 0 0.1241151115713819 0.9045666525468371 0 0.10266856499240549 0.95548163909968886 0 0.1241151115713819 0.9045666525468371 0 0.14617343800780541 0.93808063414349496 0 0.1241151115713819 0.9045666525468371 0 0.10562472963403439 0.87143394428979881 0 0.14474682429600511 0.85524784522713515 0 0.083411279318375747 0.91030024466934134 0 0.1241151115713819 0.9045666525468371 0 0.10562472963403439 0.87143394428979881 0 0.10562472963403439 0.87143394428979881 0 0.1074251789111534 0.83564394292147814 0 0.14474682429600511 0.85524784522713515 0 0.1074251789111534 0.83564394292147814 0 0.065374659239661639 0.8551091961254178 0 0.083105206071452636 0.79992298667296435 0 0.10562472963403439 0.87143394428979881 0 0.1074251789111534 0.83564394292147814 0 0.065374659239661639 0.8551091961254178 0 0.065374659239661639 0.8551091961254178 0 0 0.84999999999965292 0 0.038512288486097702 0.8155852717111195 0 0.0443105827531413 0.89858748162559932 0 0.065374659239661639 0.8551091961254178 0 0 0.84999999999965292 0 0 0.84999999999965292 0 0.038512288486097702 0.8155852717111195 0 0 0.79999999999999982 0 0.065374659239661639 0.8551091961254178 0 0.038512288486097702 0.8155852717111195 0 0.083105206071452636 0.79992298667296435 0 0.038512288486097702 0.8155852717111195 0 0.04408157711937423 0.7728941757575627 0 0.083105206071452636 0.79992298667296435 0 0.038512288486097702 0.8155852717111195 0 0 0.79999999999999982 0 0.04408157711937423 0.7728941757575627 0 0 0.79999999999999982 0 0 0.75000000000034661 0 0.04408157711937423 0.7728941757575627 0 0.049706944316475897 0.72477277076253799 0 0.04408157711937423 0.7728941757575627 0 0.090953281884486245 0.7564451946902494 0 0.04408157711937423 0.7728941757575627 0 0.090953281884486245 0.7564451946902494 0 0.083105206071452636 0.79992298667296435 0 0.1074251789111534 0.83564394292147814 0 0.083105206071452636 0.79992298667296435 0 0.1382744753146134 0.79650574229207483 0 0.090953281884486245 0.7564451946902494 0 0.083105206071452636 0.79992298667296435 0 0.1382744753146134 0.79650574229207483 0 0.090953281884486245 0.7564451946902494 0 0.14335651144331049 0.75565258250209677 0 0.1382744753146134 0.79650574229207483 0 0.14335651144331049 0.75565258250209677 0 0.1382744753146134 0.79650574229207483 0 0.18269480424590959 0.75905448272264375 0 0.1382744753146134 0.79650574229207483 0 0.18269480424590959 0.75905448272264375 0 0.17777405986036951 0.81832336108265358 0 0.2248999640082178 0.72584299459689172 0 0.18269480424590959 0.75905448272264375 0 0.22556077506376701 0.77837424984191617 0 0.22556077506376701 0.77837424984191617 0 0.21858834311891909 0.81980263716112767 0 0.26104540868854792 0.81401944968719064 0 0.22556077506376701 0.77837424984191617 0 0.21858834311891909 0.81980263716112767 0 0.17777405986036951 0.81832336108265358 0 0.18269480424590959 0.75905448272264375 0 0.22556077506376701 0.77837424984191617 0 0.17777405986036951 0.81832336108265358 0 0.21858834311891909 0.81980263716112767 0 0.19741632902693801 0.86755867406447229 0 0.17777405986036951 0.81832336108265358 0 0.21858834311891909 0.81980263716112767 0 0.2401283238295133 0.85648409884788523 0 0.26104540868854792 0.81401944968719064 0 0.21858834311891909 0.81980263716112767 0 0.2401283238295133 0.85648409884788523 0 0.19741632902693801 0.86755867406447229 0 0.19741632902693801 0.86755867406447229 0 0.17777405986036951 0.81832336108265358 0 0.14474682429600511 0.85524784522713515 0 0.19741632902693801 0.86755867406447229 0 0.14474682429600511 0.85524784522713515 0 0.16206583317966519 0.89685560785156404 0 0.1382744753146134 0.79650574229207483 0 0.17777405986036951 0.81832336108265358 0 0.14474682429600511 0.85524784522713515 0 0.1074251789111534 0.83564394292147814 0 0.1382744753146134 0.79650574229207483 0 0.14474682429600511 0.85524784522713515 0 0.1241151115713819 0.9045666525468371 0 0.14474682429600511 0.85524784522713515 0 0.16206583317966519 0.89685560785156404 0 0.1241151115713819 0.9045666525468371 0 0.16206583317966519 0.89685560785156404 0 0.14617343800780541 0.93808063414349496 0 0.16206583317966519 0.89685560785156404 0 0.19901705110390991 0.9175543425573498 0 0.14617343800780541 0.93808063414349496 0 0.19741632902693801 0.86755867406447229 0 0.16206583317966519 0.89685560785156404 0 0.19901705110390991 0.9175543425573498 0 0.19741632902693801 0.86755867406447229 0 0.24536017905392571 0.90704567837671446 0 0.19901705110390991 0.9175543425573498 0 0.2401283238295133 0.85648409884788523 0 0.19741632902693801 0.86755867406447229 0 0.24536017905392571 0.90704567837671446 0 0.24536017905392571 0.90704567837671446 0 0.19901705110390991 0.9175543425573498 0 0.22850979588452081 0.95594428570238643 0 0.19901705110390991 0.9175543425573498 0 0.22850979588452081 0.95594428570238643 0 0.18474005699953849 0.96231585248064622 0 0.24536017905392571 0.90704567837671446 0 0.22850979588452081 0.95594428570238643 0 0.27609987656793722 0.94991445621608572 0 0.22850979588452081 0.95594428570238643 0 0.20000000000083221 1 0 0.25000000000104028 1 0 0.22850979588452081 0.95594428570238643 0 0.20000000000083221 1 0 0.18474005699953849 0.96231585248064622 0 0.20000000000083221 1 0 0.18474005699953849 0.96231585248064622 0 0.15000000000062411 1 0 0.19901705110390991 0.9175543425573498 0 0.18474005699953849 0.96231585248064622 0 0.14617343800780541 0.93808063414349496 0 0.18474005699953849 0.96231585248064622 0 0.14617343800780541 0.93808063414349496 0 0.15000000000062411 1 0 0.10266856499240549 0.95548163909968886 0 0.14617343800780541 0.93808063414349496 0 0.15000000000062411 1 0 0.35000000000145642 1 0 0.36184234618600131 0.96443954459096326 0 0.32544832635163229 0.95485394099568932 0 0.35000000000145642 1 0 0.36184234618600131 0.96443954459096326 0 0.40000000000166441 1 0 0.36184234618600131 0.96443954459096326 0 0.32544832635163229 0.95485394099568932 0 0.35752321586431363 0.9185439911803448 0 0.36184234618600131 0.96443954459096326 0 0.35752321586431363 0.9185439911803448 0 0.39641108128798319 0.94356127926187128 0 0.35000000000145642 1 0 0.32544832635163229 0.95485394099568932 0 0.30000000000124832 1 0 0.30000000000124832 1 0 0.25000000000104028 1 0 0.27609987656793722 0.94991445621608572 0 0.22850979588452081 0.95594428570238643 0 0.25000000000104028 1 0 0.27609987656793722 0.94991445621608572 0 0.32544832635163229 0.95485394099568932 0 0.30000000000124832 1 0 0.27609987656793722 0.94991445621608572 0 0.32544832635163229 0.95485394099568932 0 0.27609987656793722 0.94991445621608572 0 0.30864387279288652 0.89906554525974958 0 0.24536017905392571 0.90704567837671446 0 0.27270076654418179 0.87751467830216623 0 0.30864387279288652 0.89906554525974958 0 0.24536017905392571 0.90704567837671446 0 0.27609987656793722 0.94991445621608572 0 0.30864387279288652 0.89906554525974958 0 0.2401283238295133 0.85648409884788523 0 0.24536017905392571 0.90704567837671446 0 0.27270076654418179 0.87751467830216623 0 0.30864387279288652 0.89906554525974958 0 0.35752321586431363 0.9185439911803448 0 0.35864759629805099 0.87963482415279515 0 0.32544832635163229 0.95485394099568932 0 0.30864387279288652 0.89906554525974958 0 0.35752321586431363 0.9185439911803448 0 0.35752321586431363 0.9185439911803448 0 0.35864759629805099 0.87963482415279515 0 0.39767323751400468 0.89584229130535065 0 0.35864759629805099 0.87963482415279515 0 0.33403534827021109 0.84402799729020661 0 0.39536230704883951 0.84069429572832477 0 0.33403534827021109 0.84402799729020661 0 0.35642984951668422 0.80994399665655703 0 0.39536230704883951 0.84069429572832477 0 0.33403534827021109 0.84402799729020661 0 0.30857225866488791 0.81101973481716805 0 0.35642984951668422 0.80994399665655703 0 0.30864387279288652 0.89906554525974958 0 0.35864759629805099 0.87963482415279515 0 0.33403534827021109 0.84402799729020661 0 0.30864387279288652 0.89906554525974958 0 0.33403534827021109 0.84402799729020661 0 0.29209212897034281 0.84715728365233667 0 0.27270076654418179 0.87751467830216623 0 0.30864387279288652 0.89906554525974958 0 0.29209212897034281 0.84715728365233667 0 0.2401283238295133 0.85648409884788523 0 0.27270076654418179 0.87751467830216623 0 0.29209212897034281 0.84715728365233667 0 0.2401283238295133 0.85648409884788523 0 0.29209212897034281 0.84715728365233667 0 0.26104540868854792 0.81401944968719064 0 0.29209212897034281 0.84715728365233667 0 0.26104540868854792 0.81401944968719064 0 0.30857225866488791 0.81101973481716805 0 0.33403534827021109 0.84402799729020661 0 0.29209212897034281 0.84715728365233667 0 0.30857225866488791 0.81101973481716805 0 0.26104540868854792 0.81401944968719064 0 0.30857225866488791 0.81101973481716805 0 0.2792923945214143 0.77665808831789485 0 0.30857225866488791 0.81101973481716805 0 0.2792923945214143 0.77665808831789485 0 0.33123028043633618 0.77629643437932982 0 0.22556077506376701 0.77837424984191617 0 0.26104540868854792 0.81401944968719064 0 0.2792923945214143 0.77665808831789485 0 0.2792923945214143 0.77665808831789485 0 0.25676291524611189 0.7436741304886243 0 0.29904318922293632 0.74132814928635593 0 0.22556077506376701 0.77837424984191617 0 0.2792923945214143 0.77665808831789485 0 0.25676291524611189 0.7436741304886243 0 0.2792923945214143 0.77665808831789485 0 0.33123028043633618 0.77629643437932982 0 0.29904318922293632 0.74132814928635593 0 0.33123028043633618 0.77629643437932982 0 0.29904318922293632 0.74132814928635593 0 0.35415581127540569 0.73730480045900215 0 0.30857225866488791 0.81101973481716805 0 0.33123028043633618 0.77629643437932982 0 0.35642984951668422 0.80994399665655703 0 0.33123028043633618 0.77629643437932982 0 0.35642984951668422 0.80994399665655703 0 0.38586766253264881 0.78219501014812498 0 0.33123028043633618 0.77629643437932982 0 0.38586766253264881 0.78219501014812498 0 0.35415581127540569 0.73730480045900215 0 0.38586766253264881 0.78219501014812498 0 0.42676259796334498 0.76772545931379299 0 0.40326160981139969 0.73346192995102844 0 0.38586766253264881 0.78219501014812498 0 0.35415581127540569 0.73730480045900215 0 0.40326160981139969 0.73346192995102844 0 0.38586766253264881 0.78219501014812498 0 0.42609163930740518 0.80361684430568059 0 0.39536230704883951 0.84069429572832477 0 0.35642984951668422 0.80994399665655703 0 0.38586766253264881 0.78219501014812498 0 0.39536230704883951 0.84069429572832477 0 0.38586766253264881 0.78219501014812498 0 0.42609163930740518 0.80361684430568059 0 0.42676259796334498 0.76772545931379299 0 0.42676259796334498 0.76772545931379299 0 0.4656888918609538 0.78493261229743638 0 0.45582236402875981 0.73896743678908217 0 0.4656888918609538 0.78493261229743638 0 0.45582236402875981 0.73896743678908217 0 0.50945740445113552 0.75476055527778108 0 0.4656888918609538 0.78493261229743638 0 0.50731287292894423 0.78963574450233831 0 0.50945740445113552 0.75476055527778108 0 0.4656888918609538 0.78493261229743638 0 0.50627822638148745 0.8263979829520941 0 0.50731287292894423 0.78963574450233831 0 0.42609163930740518 0.80361684430568059 0 0.4656888918609538 0.78493261229743638 0 0.45677673713123867 0.84253684404072415 0 0.42609163930740518 0.80361684430568059 0 0.42676259796334498 0.76772545931379299 0 0.4656888918609538 0.78493261229743638 0 0.4656888918609538 0.78493261229743638 0 0.45677673713123867 0.84253684404072415 0 0.50627822638148745 0.8263979829520941 0 0.45677673713123867 0.84253684404072415 0 0.50202631463681879 0.87892870825713787 0 0.50627822638148745 0.8263979829520941 0 0.45677673713123867 0.84253684404072415 0 0.44003836461056539 0.88093474584252718 0 0.50202631463681879 0.87892870825713787 0 0.45677673713123867 0.84253684404072415 0 0.39536230704883951 0.84069429572832477 0 0.44003836461056539 0.88093474584252718 0 0.39536230704883951 0.84069429572832477 0 0.39767323751400468 0.89584229130535065 0 0.44003836461056539 0.88093474584252718 0 0.42609163930740518 0.80361684430568059 0 0.45677673713123867 0.84253684404072415 0 0.39536230704883951 0.84069429572832477 0 0.35864759629805099 0.87963482415279515 0 0.39536230704883951 0.84069429572832477 0 0.39767323751400468 0.89584229130535065 0 0.35752321586431363 0.9185439911803448 0 0.39767323751400468 0.89584229130535065 0 0.39641108128798319 0.94356127926187128 0 0.39767323751400468 0.89584229130535065 0 0.4367309254023824 0.92065556789053882 0 0.39641108128798319 0.94356127926187128 0 0.39767323751400468 0.89584229130535065 0 0.4367309254023824 0.92065556789053882 0 0.44003836461056539 0.88093474584252718 0 0.4367309254023824 0.92065556789053882 0 0.44003836461056539 0.88093474584252718 0 0.47401147028110507 0.91529957330468115 0 0.44003836461056539 0.88093474584252718 0 0.47401147028110507 0.91529957330468115 0 0.50202631463681879 0.87892870825713787 0 0.47401147028110507 0.91529957330468115 0 0.47135117303824892 0.95556877749289892 0 0.52122150208832174 0.94089974453840242 0 0.47401147028110507 0.91529957330468115 0 0.52122150208832174 0.94089974453840242 0 0.50202631463681879 0.87892870825713787 0 0.4367309254023824 0.92065556789053882 0 0.47401147028110507 0.91529957330468115 0 0.47135117303824892 0.95556877749289892 0 0.4367309254023824 0.92065556789053882 0 0.47135117303824892 0.95556877749289892 0 0.4308986359464303 0.96395712492906194 0 0.47135117303824892 0.95556877749289892 0 0.50000000000205869 1 0 0.52122150208832174 0.94089974453840242 0 0.47135117303824892 0.95556877749289892 0 0.45000000000187229 1 0 0.50000000000205869 1 0 0.47135117303824892 0.95556877749289892 0 0.45000000000187229 1 0 0.4308986359464303 0.96395712492906194 0 0.45000000000187229 1 0 0.4308986359464303 0.96395712492906194 0 0.40000000000166441 1 0 0.4308986359464303 0.96395712492906194 0 0.39641108128798319 0.94356127926187128 0 0.40000000000166441 1 0 0.4367309254023824 0.92065556789053882 0 0.4308986359464303 0.96395712492906194 0 0.39641108128798319 0.94356127926187128 0 0.36184234618600131 0.96443954459096326 0 0.39641108128798319 0.94356127926187128 0 0.40000000000166441 1 0 0.33122374654748771 0.57588941099433744 0 0.31502927232353312 0.6134992213375432 0 0.35765792684946668 0.6000687869219653 0 0.31502927232353312 0.6134992213375432 0 0.35765792684946668 0.6000687869219653 0 0.35864735590330371 0.63903383440414463 0 0.35765792684946668 0.6000687869219653 0 0.35864735590330371 0.63903383440414463 0 0.39743091024207589 0.6239520004230239 0 0.33122374654748771 0.57588941099433744 0 0.35765792684946668 0.6000687869219653 0 0.37272913873093971 0.56192925302619479 0 0.37272913873093971 0.56192925302619479 0 0.33190227185843768 0.52715113583864037 0 0.38244435121258652 0.51653317813019495 0 0.33122374654748771 0.57588941099433744 0 0.37272913873093971 0.56192925302619479 0 0.33190227185843768 0.52715113583864037 0 0.35024835142131061 0.48654922671676981 0 0.33190227185843768 0.52715113583864037 0 0.38244435121258652 0.51653317813019495 0 0.33122374654748771 0.57588941099433744 0 0.33190227185843768 0.52715113583864037 0 0.29110487519241501 0.56588143995431495 0 0.33190227185843768 0.52715113583864037 0 0.28307294598219601 0.50789252727458634 0 0.29110487519241501 0.56588143995431495 0 0.31068898841644388 0.47541502461811092 0 0.33190227185843768 0.52715113583864037 0 0.28307294598219601 0.50789252727458634 0 0.23975172658309729 0.49475499200540818 0 0.28307294598219601 0.50789252727458634 0 0.25115337790845271 0.54719303014923271 0 0.28307294598219601 0.50789252727458634 0 0.25115337790845271 0.54719303014923271 0 0.29110487519241501 0.56588143995431495 0 0.25115337790845271 0.54719303014923271 0 0.29110487519241501 0.56588143995431495 0 0.26573297623774761 0.59828298563722948 0 0.33122374654748771 0.57588941099433744 0 0.31502927232353312 0.6134992213375432 0 0.29110487519241501 0.56588143995431495 0 0.31502927232353312 0.6134992213375432 0 0.29110487519241501 0.56588143995431495 0 0.26573297623774761 0.59828298563722948 0 0.31502927232353312 0.6134992213375432 0 0.26573297623774761 0.59828298563722948 0 0.27820712747429932 0.65530134213254643 0 0.2459498854893499 0.63248470766216769 0 0.26573297623774761 0.59828298563722948 0 0.27820712747429932 0.65530134213254643 0 0.2236846579037573 0.67380363126050236 0 0.27820712747429932 0.65530134213254643 0 0.26439878998046262 0.7048065392091396 0 0.27820712747429932 0.65530134213254643 0 0.31378396441836959 0.70157213313026345 0 0.32263089806001177 0.66003674931826484 0 0.27820712747429932 0.65530134213254643 0 0.26439878998046262 0.7048065392091396 0 0.31378396441836959 0.70157213313026345 0 0.31502927232353312 0.6134992213375432 0 0.27820712747429932 0.65530134213254643 0 0.32263089806001177 0.66003674931826484 0 0.25676291524611189 0.7436741304886243 0 0.26439878998046262 0.7048065392091396 0 0.29904318922293632 0.74132814928635593 0 0.26439878998046262 0.7048065392091396 0 0.29904318922293632 0.74132814928635593 0 0.31378396441836959 0.70157213313026345 0 0.29904318922293632 0.74132814928635593 0 0.31378396441836959 0.70157213313026345 0 0.35415581127540569 0.73730480045900215 0 0.31378396441836959 0.70157213313026345 0 0.36622285152418499 0.69092437780804039 0 0.35415581127540569 0.73730480045900215 0 0.36622285152418499 0.69092437780804039 0 0.35415581127540569 0.73730480045900215 0 0.40326160981139969 0.73346192995102844 0 0.31502927232353312 0.6134992213375432 0 0.32263089806001177 0.66003674931826484 0 0.35864735590330371 0.63903383440414463 0 0.31378396441836959 0.70157213313026345 0 0.36622285152418499 0.69092437780804039 0 0.32263089806001177 0.66003674931826484 0 0.36622285152418499 0.69092437780804039 0 0.32263089806001177 0.66003674931826484 0 0.35864735590330371 0.63903383440414463 0 0.36622285152418499 0.69092437780804039 0 0.35864735590330371 0.63903383440414463 0 0.3977710372045391 0.65868194622830212 0 0.35864735590330371 0.63903383440414463 0 0.3977710372045391 0.65868194622830212 0 0.39743091024207589 0.6239520004230239 0 0.36622285152418499 0.69092437780804039 0 0.3977710372045391 0.65868194622830212 0 0.43323420005758778 0.6913544522562407 0 0.3977710372045391 0.65868194622830212 0 0.43323420005758778 0.6913544522562407 0 0.43846182030517877 0.64845797726506715 0 0.43846182030517877 0.64845797726506715 0 0.43545892161006339 0.61093128915313821 0 0.39743091024207589 0.6239520004230239 0 0.3977710372045391 0.65868194622830212 0 0.43846182030517877 0.64845797726506715 0 0.39743091024207589 0.6239520004230239 0 0.36622285152418499 0.69092437780804039 0 0.40326160981139969 0.73346192995102844 0 0.43323420005758778 0.6913544522562407 0 0.40326160981139969 0.73346192995102844 0 0.43323420005758778 0.6913544522562407 0 0.45582236402875981 0.73896743678908217 0 0.42676259796334498 0.76772545931379299 0 0.40326160981139969 0.73346192995102844 0 0.45582236402875981 0.73896743678908217 0 0.43323420005758778 0.6913544522562407 0 0.45582236402875981 0.73896743678908217 0 0.5 0.69999999999999996 0 0.45582236402875981 0.73896743678908217 0 0.5 0.69999999999999996 0 0.50945740445113552 0.75476055527778108 0 0.43323420005758778 0.6913544522562407 0 0.47913475093885149 0.66010775372412711 0 0.5 0.69999999999999996 0 0.43846182030517877 0.64845797726506715 0 0.47913475093885149 0.66010775372412711 0 0.47095389620662098 0.61892551373708504 0 0.43846182030517877 0.64845797726506715 0 0.47095389620662098 0.61892551373708504 0 0.43545892161006339 0.61093128915313821 0 0.43323420005758778 0.6913544522562407 0 0.43846182030517877 0.64845797726506715 0 0.47913475093885149 0.66010775372412711 0 0.47913475093885149 0.66010775372412711 0 0.47095389620662098 0.61892551373708504 0 0.50715858906372158 0.63295939104129484 0 0.47095389620662098 0.61892551373708504 0 0.5166924242153631 0.59825134841919447 0 0.50715858906372158 0.63295939104129484 0 0.47095389620662098 0.61892551373708504 0 0.46666084890304671 0.57634471035397938 0 0.5166924242153631 0.59825134841919447 0 0.47095389620662098 0.61892551373708504 0 0.46666084890304671 0.57634471035397938 0 0.43545892161006339 0.61093128915313821 0 0.43545892161006339 0.61093128915313821 0 0.4089290844030305 0.58728915500154233 0 0.39743091024207589 0.6239520004230239 0 0.46666084890304671 0.57634471035397938 0 0.43545892161006339 0.61093128915313821 0 0.4089290844030305 0.58728915500154233 0 0.46666084890304671 0.57634471035397938 0 0.4089290844030305 0.58728915500154233 0 0.42644501560315817 0.54603747078095544 0 0.37272913873093971 0.56192925302619479 0 0.4089290844030305 0.58728915500154233 0 0.42644501560315817 0.54603747078095544 0 0.35765792684946668 0.6000687869219653 0 0.37272913873093971 0.56192925302619479 0 0.4089290844030305 0.58728915500154233 0 0.35765792684946668 0.6000687869219653 0 0.4089290844030305 0.58728915500154233 0 0.39743091024207589 0.6239520004230239 0 0.37272913873093971 0.56192925302619479 0 0.38244435121258652 0.51653317813019495 0 0.42644501560315817 0.54603747078095544 0 0.43507373378304309 0.49699695397193322 0 0.38244435121258652 0.51653317813019495 0 0.42644501560315817 0.54603747078095544 0 0.46666084890304671 0.57634471035397938 0 0.47793794143994173 0.52940715638744962 0 0.53245488764484505 0.55078124999999989 0 0.43507373378304309 0.49699695397193322 0 0.49102375406324739 0.49123754822244059 0 0.47793794143994173 0.52940715638744962 0 0.43507373378304309 0.49699695397193322 0 0.42644501560315817 0.54603747078095544 0 0.47793794143994173 0.52940715638744962 0 0.46666084890304671 0.57634471035397938 0 0.42644501560315817 0.54603747078095544 0 0.47793794143994173 0.52940715638744962 0 0.49102375406324739 0.49123754822244059 0 0.47793794143994173 0.52940715638744962 0 0.53330375813596242 0.50827942741749099 0 0.47793794143994173 0.52940715638744962 0 0.53245488764484505 0.55078124999999989 0 0.53330375813596242 0.50827942741749099 0 0.53245488764484505 0.55078124999999989 0 0.53330375813596242 0.50827942741749099 0 0.57435499076887508 0.54267261987897775 0 0.53245488764484505 0.55078124999999989 0 0.57435499076887508 0.54267261987897775 0 0.57412547362576272 0.58273804879550706 0 0.53330375813596242 0.50827942741749099 0 0.57611405284611883 0.50165903596042916 0 0.57435499076887508 0.54267261987897775 0 0.57611405284611883 0.50165903596042916 0 0.57435499076887508 0.54267261987897775 0 0.62042975506801734 0.54295974692364424 0 0.57435499076887508 0.54267261987897775 0 0.62042975506801734 0.54295974692364424 0 0.57412547362576272 0.58273804879550706 0 0.57611405284611883 0.50165903596042916 0 0.62042975506801734 0.54295974692364424 0 0.61547661924074692 0.48539576058873962 0 0.5991018319127801 0.62925360607495295 0 0.6405463747586706 0.63290524857395714 0 0.63065402604362242 0.59661356661633302 0 0.57412547362576272 0.58273804879550706 0 0.5991018319127801 0.62925360607495295 0 0.63065402604362242 0.59661356661633302 0 0.62042975506801734 0.54295974692364424 0 0.57412547362576272 0.58273804879550706 0 0.63065402604362242 0.59661356661633302 0 0.57412547362576272 0.58273804879550706 0 0.5498280205245758 0.6290146943450976 0 0.5991018319127801 0.62925360607495295 0 0.46666084890304671 0.57634471035397938 0 0.53245488764484505 0.55078124999999989 0 0.5166924242153631 0.59825134841919447 0 0.57412547362576272 0.58273804879550706 0 0.5166924242153631 0.59825134841919447 0 0.5498280205245758 0.6290146943450976 0 0.53245488764484505 0.55078124999999989 0 0.57412547362576272 0.58273804879550706 0 0.5166924242153631 0.59825134841919447 0 0.5166924242153631 0.59825134841919447 0 0.50715858906372158 0.63295939104129484 0 0.5498280205245758 0.6290146943450976 0 0.47913475093885149 0.66010775372412711 0 0.50715858906372158 0.63295939104129484 0 0.52584555706968406 0.66664215091846768 0 0.50715858906372158 0.63295939104129484 0 0.52584555706968406 0.66664215091846768 0 0.5498280205245758 0.6290146943450976 0 0.47913475093885149 0.66010775372412711 0 0.52584555706968406 0.66664215091846768 0 0.5 0.69999999999999996 0 0.52584555706968406 0.66664215091846768 0 0.54999999999999993 0.69999999999999996 0 0.57484956128872922 0.66573805030881994 0 0.52584555706968406 0.66664215091846768 0 0.5498280205245758 0.6290146943450976 0 0.57484956128872922 0.66573805030881994 0 0.5 0.69999999999999996 0 0.55363780716230748 0.74348740161571747 0 0.50945740445113552 0.75476055527778108 0 0.52584555706968406 0.66664215091846768 0 0.5 0.69999999999999996 0 0.54999999999999993 0.69999999999999996 0 0.5 0.69999999999999996 0 0.54999999999999993 0.69999999999999996 0 0.5 0.69999999999999996 0 0.54999999999999993 0.69999999999999996 0 0.55363780716230748 0.74348740161571747 0 0.55363780716230748 0.74348740161571747 0 0.59999999999999976 0.69999999999999996 0 0.59636844454254345 0.75937156204589151 0 0.54999999999999993 0.69999999999999996 0 0.59999999999999976 0.69999999999999996 0 0.54999999999999993 0.69999999999999996 0 0.59999999999999976 0.69999999999999996 0 0.57484956128872922 0.66573805030881994 0 0.54999999999999993 0.69999999999999996 0 0.55363780716230748 0.74348740161571747 0 0.59999999999999976 0.69999999999999996 0 0.59999999999999976 0.69999999999999996 0 0.6499999999999998 0.69999999999999996 0 0.59999999999999976 0.69999999999999996 0 0.62460753523532009 0.66851202781000296 0 0.6499999999999998 0.69999999999999996 0 0.59999999999999976 0.69999999999999996 0 0.63221990677827677 0.73442891067859706 0 0.59636844454254345 0.75937156204589151 0 0.5498280205245758 0.6290146943450976 0 0.57484956128872922 0.66573805030881994 0 0.5991018319127801 0.62925360607495295 0 0.59999999999999976 0.69999999999999996 0 0.57484956128872922 0.66573805030881994 0 0.62460753523532009 0.66851202781000296 0 0.57484956128872922 0.66573805030881994 0 0.62460753523532009 0.66851202781000296 0 0.5991018319127801 0.62925360607495295 0 0.62460753523532009 0.66851202781000296 0 0.5991018319127801 0.62925360607495295 0 0.6405463747586706 0.63290524857395714 0 0.62460753523532009 0.66851202781000296 0 0.6405463747586706 0.63290524857395714 0 0.675261390228442 0.65996937624687813 0 0.62460753523532009 0.66851202781000296 0 0.675261390228442 0.65996937624687813 0 0.6499999999999998 0.69999999999999996 0 0.675261390228442 0.65996937624687813 0 0.6499999999999998 0.69999999999999996 0 0.69999999999999984 0.69999999999999996 0 0.6405463747586706 0.63290524857395714 0 0.675261390228442 0.65996937624687813 0 0.67529834988829951 0.61613270668143583 0 0.63221990677827677 0.73442891067859706 0 0.66427993341343905 0.73232764502436276 0 0.64753070846764316 0.77332939069435502 0 0.63221990677827677 0.73442891067859706 0 0.6499999999999998 0.69999999999999996 0 0.66427993341343905 0.73232764502436276 0 0.59999999999999976 0.69999999999999996 0 0.63221990677827677 0.73442891067859706 0 0.6499999999999998 0.69999999999999996 0 0.6499999999999998 0.69999999999999996 0 0.69999999999999984 0.69999999999999996 0 0.6499999999999998 0.69999999999999996 0 0.66427993341343905 0.73232764502436276 0 0.69999999999999984 0.69999999999999996 0 0.66427993341343905 0.73232764502436276 0 0.69999999999999984 0.69999999999999996 0 0.6916490518212759 0.75387992374886192 0 0.69999999999999984 0.69999999999999996 0 0.72501250972655151 0.74067302935308721 0 0.6916490518212759 0.75387992374886192 0 0.69999999999999984 0.69999999999999996 0 0.74999999999999989 0.69999999999999996 0 0.72501250972655151 0.74067302935308721 0 0.69999999999999984 0.69999999999999996 0 0.74999999999999989 0.69999999999999996 0 0.72500000000000064 0.67022701834392062 0 0.69999999999999984 0.69999999999999996 0 0.74999999999999989 0.69999999999999996 0 0.74999999999999989 0.69999999999999996 0 0.72501250972655151 0.74067302935308721 0 0.75841349681148107 0.75422312624214749 0 0.675261390228442 0.65996937624687813 0 0.71406021706547751 0.63292083137662503 0 0.72500000000000064 0.67022701834392062 0 0.675261390228442 0.65996937624687813 0 0.71406021706547751 0.63292083137662503 0 0.67529834988829951 0.61613270668143583 0 0.675261390228442 0.65996937624687813 0 0.69999999999999984 0.69999999999999996 0 0.72500000000000064 0.67022701834392062 0 0.71406021706547751 0.63292083137662503 0 0.72500000000000064 0.67022701834392062 0 0.74994237037456724 0.62775548192980357 0 0.72500000000000064 0.67022701834392062 0 0.74994237037456724 0.62775548192980357 0 0.7750489929959945 0.66593931409600093 0 0.71406021706547751 0.63292083137662503 0 0.74994237037456724 0.62775548192980357 0 0.71809016091162536 0.58185040402320831 0 0.74994237037456724 0.62775548192980357 0 0.71809016091162536 0.58185040402320831 0 0.77293540622714185 0.59448302402785813 0 0.71406021706547751 0.63292083137662503 0 0.71809016091162536 0.58185040402320831 0 0.67529834988829951 0.61613270668143583 0 0.71809016091162536 0.58185040402320831 0 0.67569444444444449 0.53500863336860327 0 0.67323294229744413 0.57556450033612505 0 0.71809016091162536 0.58185040402320831 0 0.67529834988829951 0.61613270668143583 0 0.67323294229744413 0.57556450033612505 0 0.71809016091162536 0.58185040402320831 0 0.7152569930854884 0.5237994455134295 0 0.77151014687832564 0.54436834383023036 0 0.7152569930854884 0.5237994455134295 0 0.77151014687832564 0.54436834383023036 0 0.73947346780852752 0.49062440112282169 0 0.7152569930854884 0.5237994455134295 0 0.67569444444444449 0.53500863336860327 0 0.69385896817107129 0.48377516041410151 0 0.71809016091162536 0.58185040402320831 0 0.7152569930854884 0.5237994455134295 0 0.67569444444444449 0.53500863336860327 0 0.62042975506801734 0.54295974692364424 0 0.67569444444444449 0.53500863336860327 0 0.67323294229744413 0.57556450033612505 0 0.67569444444444449 0.53500863336860327 0 0.6541250972820879 0.49999999999999989 0 0.69385896817107129 0.48377516041410151 0 0.62042975506801734 0.54295974692364424 0 0.67569444444444449 0.53500863336860327 0 0.6541250972820879 0.49999999999999989 0 0.62042975506801734 0.54295974692364424 0 0.61547661924074692 0.48539576058873962 0 0.6541250972820879 0.49999999999999989 0 0.62042975506801734 0.54295974692364424 0 0.63065402604362242 0.59661356661633302 0 0.67323294229744413 0.57556450033612505 0 0.6405463747586706 0.63290524857395714 0 0.63065402604362242 0.59661356661633302 0 0.67529834988829951 0.61613270668143583 0 0.63065402604362242 0.59661356661633302 0 0.67529834988829951 0.61613270668143583 0 0.67323294229744413 0.57556450033612505 0 0.60000000000138687 1 0 0.62065498684670595 0.95224934003983619 0 0.57382506491224949 0.9629411906298494 0 0.60000000000138687 1 0 0.62065498684670595 0.95224934003983619 0 0.65000000000104008 1 0 0.62065498684670595 0.95224934003983619 0 0.57382506491224949 0.9629411906298494 0 0.57724883562309992 0.92155686857100794 0 0.60000000000138687 1 0 0.57382506491224949 0.9629411906298494 0 0.55000000000173355 1 0 0.55000000000173355 1 0 0.50000000000205869 1 0 0.52122150208832174 0.94089974453840242 0 0.57382506491224949 0.9629411906298494 0 0.52122150208832174 0.94089974453840242 0 0.57724883562309992 0.92155686857100794 0 0.57382506491224949 0.9629411906298494 0 0.55000000000173355 1 0 0.52122150208832174 0.94089974453840242 0 0.52122150208832174 0.94089974453840242 0 0.54783390826260769 0.89287767010860219 0 0.57724883562309992 0.92155686857100794 0 0.52122150208832174 0.94089974453840242 0 0.50202631463681879 0.87892870825713787 0 0.54783390826260769 0.89287767010860219 0 0.54783390826260769 0.89287767010860219 0 0.5832743223239254 0.88483152652961872 0 0.55899371797446828 0.85003102233514438 0 0.54783390826260769 0.89287767010860219 0 0.5832743223239254 0.88483152652961872 0 0.57724883562309992 0.92155686857100794 0 0.5832743223239254 0.88483152652961872 0 0.57724883562309992 0.92155686857100794 0 0.61885627562261258 0.90282959257498208 0 0.62065498684670595 0.95224934003983619 0 0.57724883562309992 0.92155686857100794 0 0.61885627562261258 0.90282959257498208 0 0.5832743223239254 0.88483152652961872 0 0.61885627562261258 0.90282959257498208 0 0.61343887413683884 0.856862479058357 0 0.61343887413683884 0.856862479058357 0 0.60294066490120068 0.80851322453934582 0 0.65005442820240822 0.82644988530054031 0 0.61343887413683884 0.856862479058357 0 0.55899371797446828 0.85003102233514438 0 0.60294066490120068 0.80851322453934582 0 0.55899371797446828 0.85003102233514438 0 0.54782696902220018 0.79245182748204157 0 0.60294066490120068 0.80851322453934582 0 0.5832743223239254 0.88483152652961872 0 0.61343887413683884 0.856862479058357 0 0.55899371797446828 0.85003102233514438 0 0.50202631463681879 0.87892870825713787 0 0.54783390826260769 0.89287767010860219 0 0.55899371797446828 0.85003102233514438 0 0.50202631463681879 0.87892870825713787 0 0.55899371797446828 0.85003102233514438 0 0.50627822638148745 0.8263979829520941 0 0.55899371797446828 0.85003102233514438 0 0.50627822638148745 0.8263979829520941 0 0.54782696902220018 0.79245182748204157 0 0.50627822638148745 0.8263979829520941 0 0.54782696902220018 0.79245182748204157 0 0.50731287292894423 0.78963574450233831 0 0.54782696902220018 0.79245182748204157 0 0.50731287292894423 0.78963574450233831 0 0.50945740445113552 0.75476055527778108 0 0.55363780716230748 0.74348740161571747 0 0.54782696902220018 0.79245182748204157 0 0.50945740445113552 0.75476055527778108 0 0.55363780716230748 0.74348740161571747 0 0.54782696902220018 0.79245182748204157 0 0.59636844454254345 0.75937156204589151 0 0.54782696902220018 0.79245182748204157 0 0.60294066490120068 0.80851322453934582 0 0.59636844454254345 0.75937156204589151 0 0.60294066490120068 0.80851322453934582 0 0.59636844454254345 0.75937156204589151 0 0.64753070846764316 0.77332939069435502 0 0.63221990677827677 0.73442891067859706 0 0.59636844454254345 0.75937156204589151 0 0.64753070846764316 0.77332939069435502 0 0.60294066490120068 0.80851322453934582 0 0.64753070846764316 0.77332939069435502 0 0.65005442820240822 0.82644988530054031 0 0.64753070846764316 0.77332939069435502 0 0.68024162096458085 0.79868546898116533 0 0.65005442820240822 0.82644988530054031 0 0.64753070846764316 0.77332939069435502 0 0.68024162096458085 0.79868546898116533 0 0.6916490518212759 0.75387992374886192 0 0.66427993341343905 0.73232764502436276 0 0.64753070846764316 0.77332939069435502 0 0.6916490518212759 0.75387992374886192 0 0.72501250972655151 0.74067302935308721 0 0.6916490518212759 0.75387992374886192 0 0.72500000000000064 0.7952620967744265 0 0.72501250972655151 0.74067302935308721 0 0.72500000000000064 0.7952620967744265 0 0.75841349681148107 0.75422312624214749 0 0.68024162096458085 0.79868546898116533 0 0.6916490518212759 0.75387992374886192 0 0.72500000000000064 0.7952620967744265 0 0.68024162096458085 0.79868546898116533 0 0.72500000000000064 0.7952620967744265 0 0.68697391633157634 0.84450604838764298 0 0.72500000000000064 0.7952620967744265 0 0.72863726579783861 0.85390518901155588 0 0.68697391633157634 0.84450604838764298 0 0.72500000000000064 0.7952620967744265 0 0.72863726579783861 0.85390518901155588 0 0.76901770135486491 0.84293557325473656 0 0.72863726579783861 0.85390518901155588 0 0.68697391633157634 0.84450604838764298 0 0.7250000000005199 0.89375000000045834 0 0.68697391633157634 0.84450604838764298 0 0.66412543161245952 0.88015090885499059 0 0.7250000000005199 0.89375000000045834 0 0.68697391633157634 0.84450604838764298 0 0.65005442820240822 0.82644988530054031 0 0.66412543161245952 0.88015090885499059 0 0.68024162096458085 0.79868546898116533 0 0.68697391633157634 0.84450604838764298 0 0.65005442820240822 0.82644988530054031 0 0.61343887413683884 0.856862479058357 0 0.65005442820240822 0.82644988530054031 0 0.66412543161245952 0.88015090885499059 0 0.61885627562261258 0.90282959257498208 0 0.61343887413683884 0.856862479058357 0 0.66412543161245952 0.88015090885499059 0 0.61885627562261258 0.90282959257498208 0 0.65507451745379841 0.92229208810758578 0 0.66412543161245952 0.88015090885499059 0 0.62065498684670595 0.95224934003983619 0 0.61885627562261258 0.90282959257498208 0 0.65507451745379841 0.92229208810758578 0 0.65507451745379841 0.92229208810758578 0 0.68987011941058407 0.92105047536677087 0 0.68015064798562208 0.95924320340003011 0 0.65507451745379841 0.92229208810758578 0 0.66412543161245952 0.88015090885499059 0 0.68987011941058407 0.92105047536677087 0 0.66412543161245952 0.88015090885499059 0 0.7250000000005199 0.89375000000045834 0 0.68987011941058407 0.92105047536677087 0 0.72863726579783861 0.85390518901155588 0 0.7250000000005199 0.89375000000045834 0 0.76891166905518427 0.88835469571185499 0 0.7250000000005199 0.89375000000045834 0 0.7250000000005199 0.94981617647078953 0 0.75729602384198635 0.92353652857884294 0 0.7250000000005199 0.89375000000045834 0 0.68987011941058407 0.92105047536677087 0 0.7250000000005199 0.94981617647078953 0 0.68987011941058407 0.92105047536677087 0 0.7250000000005199 0.94981617647078953 0 0.68015064798562208 0.95924320340003011 0 0.7250000000005199 0.94981617647078953 0 0.7000000000006934 1 0 0.75000000000034661 1 0 0.7250000000005199 0.94981617647078953 0 0.75000000000034661 1 0 0.770759834363826 0.95919399014344442 0 0.7250000000005199 0.94981617647078953 0 0.7000000000006934 1 0 0.68015064798562208 0.95924320340003011 0 0.7000000000006934 1 0 0.68015064798562208 0.95924320340003011 0 0.65000000000104008 1 0 0.62065498684670595 0.95224934003983619 0 0.65507451745379841 0.92229208810758578 0 0.68015064798562208 0.95924320340003011 0 0.62065498684670595 0.95224934003983619 0 0.68015064798562208 0.95924320340003011 0 0.65000000000104008 1 0 0.84999999999965292 1 0 0.85170973911348691 0.93569607295217616 0 0.89898474358632463 0.95391965591118966 0 0.84999999999965292 1 0 0.81486180804382891 0.96321394949790495 0 0.85170973911348691 0.93569607295217616 0 0.81486180804382891 0.96321394949790495 0 0.79680861578988083 0.92656778056766709 0 0.85170973911348691 0.93569607295217616 0 0.84999999999965292 1 0 0.81486180804382891 0.96321394949790495 0 0.79999999999999982 1 0 0.81486180804382891 0.96321394949790495 0 0.79999999999999982 1 0 0.770759834363826 0.95919399014344442 0 0.79999999999999982 1 0 0.75000000000034661 1 0 0.770759834363826 0.95919399014344442 0 0.7250000000005199 0.94981617647078953 0 0.770759834363826 0.95919399014344442 0 0.75729602384198635 0.92353652857884294 0 0.81486180804382891 0.96321394949790495 0 0.770759834363826 0.95919399014344442 0 0.79680861578988083 0.92656778056766709 0 0.79680861578988083 0.92656778056766709 0 0.75729602384198635 0.92353652857884294 0 0.76891166905518427 0.88835469571185499 0 0.770759834363826 0.95919399014344442 0 0.79680861578988083 0.92656778056766709 0 0.75729602384198635 0.92353652857884294 0 0.7250000000005199 0.89375000000045834 0 0.75729602384198635 0.92353652857884294 0 0.76891166905518427 0.88835469571185499 0 0.79680861578988083 0.92656778056766709 0 0.76891166905518427 0.88835469571185499 0 0.81159157511211755 0.88795995483179491 0 0.81159157511211755 0.88795995483179491 0 0.85170973911348691 0.93569607295217616 0 0.85600844944837662 0.88483418979512773 0 0.79680861578988083 0.92656778056766709 0 0.81159157511211755 0.88795995483179491 0 0.85170973911348691 0.93569607295217616 0 0.85170973911348691 0.93569607295217616 0 0.85600844944837662 0.88483418979512773 0 0.90416666666660628 0.9041666666666166 0 0.85600844944837662 0.88483418979512773 0 0.82709327591091286 0.84937141670920724 0 0.88088768115933802 0.84674609810493673 0 0.82709327591091286 0.84937141670920724 0 0.84725310900444062 0.80779732082917555 0 0.88088768115933802 0.84674609810493673 0 0.82709327591091286 0.84937141670920724 0 0.80041942726660109 0.81543261647703358 0 0.84725310900444062 0.80779732082917555 0 0.81159157511211755 0.88795995483179491 0 0.85600844944837662 0.88483418979512773 0 0.82709327591091286 0.84937141670920724 0 0.76891166905518427 0.88835469571185499 0 0.81159157511211755 0.88795995483179491 0 0.76901770135486491 0.84293557325473656 0 0.81159157511211755 0.88795995483179491 0 0.82709327591091286 0.84937141670920724 0 0.76901770135486491 0.84293557325473656 0 0.72863726579783861 0.85390518901155588 0 0.76891166905518427 0.88835469571185499 0 0.76901770135486491 0.84293557325473656 0 0.76901770135486491 0.84293557325473656 0 0.80041942726660109 0.81543261647703358 0 0.77094201086366854 0.79647480515688507 0 0.82709327591091286 0.84937141670920724 0 0.76901770135486491 0.84293557325473656 0 0.80041942726660109 0.81543261647703358 0 0.80041942726660109 0.81543261647703358 0 0.77094201086366854 0.79647480515688507 0 0.80185942888539485 0.77452061303608133 0 0.72500000000000064 0.7952620967744265 0 0.77094201086366854 0.79647480515688507 0 0.75841349681148107 0.75422312624214749 0 0.72500000000000064 0.7952620967744265 0 0.76901770135486491 0.84293557325473656 0 0.77094201086366854 0.79647480515688507 0 0.77094201086366854 0.79647480515688507 0 0.75841349681148107 0.75422312624214749 0 0.80185942888539485 0.77452061303608133 0 0.75841349681148107 0.75422312624214749 0 0.80185942888539485 0.77452061303608133 0 0.78578450296893509 0.73292684821144505 0 0.80185942888539485 0.77452061303608133 0 0.84725310900444062 0.80779732082917555 0 0.85491058998424563 0.76004753345552634 0 0.80185942888539485 0.77452061303608133 0 0.85491058998424563 0.76004753345552634 0 0.81864958914779962 0.73589050177899629 0 0.80041942726660109 0.81543261647703358 0 0.80185942888539485 0.77452061303608133 0 0.84725310900444062 0.80779732082917555 0 0.84725310900444062 0.80779732082917555 0 0.85491058998424563 0.76004753345552634 0 0.90299850604011456 0.79563452813489832 0 0.85491058998424563 0.76004753345552634 0 0.90299850604011456 0.79563452813489832 0 0.89999166460796554 0.74528934923809909 0 0.90299850604011456 0.79563452813489832 0 0.94399509803918602 0.75600490196082126 0 0.95386563387742829 0.80414874155775029 0 0.90299850604011456 0.79563452813489832 0 0.94399509803918602 0.75600490196082126 0 0.89999166460796554 0.74528934923809909 0 0.94399509803918602 0.75600490196082126 0 0.97435614836745565 0.77499999999987745 0 0.95386563387742829 0.80414874155775029 0 0.94399509803918602 0.75600490196082126 0 0.97435614836745565 0.77499999999987745 0 0.97166519676947294 0.73337114490064459 0 0.97435614836745565 0.77499999999987745 0 0.97166519676947294 0.73337114490064459 0 1 0.74999999999993494 0 0.97435614836745565 0.77499999999987745 0 1 0.7999999999998193 0 1 0.74999999999993494 0 0.97435614836745565 0.77499999999987745 0 1 0.7999999999998193 0 0.95386563387742829 0.80414874155775029 0 1 0.84999999999982645 0 0.93677536231884972 0.85000000000000286 0 0.95391631417670719 0.89584263333814784 0 0.95386563387742829 0.80414874155775029 0 1 0.84999999999982645 0 0.93677536231884972 0.85000000000000286 0 1 0.7999999999998193 0 0.95386563387742829 0.80414874155775029 0 1 0.84999999999982645 0 0.93677536231884972 0.85000000000000286 0 0.88088768115933802 0.84674609810493673 0 0.90416666666660628 0.9041666666666166 0 0.90299850604011456 0.79563452813489832 0 0.95386563387742829 0.80414874155775029 0 0.93677536231884972 0.85000000000000286 0 0.90299850604011456 0.79563452813489832 0 0.93677536231884972 0.85000000000000286 0 0.88088768115933802 0.84674609810493673 0 0.84725310900444062 0.80779732082917555 0 0.90299850604011456 0.79563452813489832 0 0.88088768115933802 0.84674609810493673 0 0.85600844944837662 0.88483418979512773 0 0.88088768115933802 0.84674609810493673 0 0.90416666666660628 0.9041666666666166 0 0.85170973911348691 0.93569607295217616 0 0.90416666666660628 0.9041666666666166 0 0.89898474358632463 0.95391965591118966 0 0.90416666666660628 0.9041666666666166 0 0.95391631417670719 0.89584263333814784 0 0.94399509803919068 0.9439950980391687 0 0.90416666666660628 0.9041666666666166 0 0.94399509803919068 0.9439950980391687 0 0.89898474358632463 0.95391965591118966 0 0.93677536231884972 0.85000000000000286 0 0.90416666666660628 0.9041666666666166 0 0.95391631417670719 0.89584263333814784 0 1 0.84999999999982645 0 0.95391631417670719 0.89584263333814784 0 1 0.8999999999998336 0 1 0.8999999999998336 0 0.97435614836744289 0.92499999999990257 0 1 0.94999999999997109 0 0.95391631417670719 0.89584263333814784 0 1 0.8999999999998336 0 0.97435614836744289 0.92499999999990257 0 0.95391631417670719 0.89584263333814784 0 0.97435614836744289 0.92499999999990257 0 0.94399509803919068 0.9439950980391687 0 0.97435614836744289 0.92499999999990257 0 0.94399509803919068 0.9439950980391687 0 0.97166519676946206 0.96662885509935492 0 0.97435614836744289 0.92499999999990257 0 0.97166519676946206 0.96662885509935492 0 1 0.94999999999997109 0 0.97166519676946206 0.96662885509935492 0 1 0.94999999999997109 0 1 1 0 0.97166519676946206 0.96662885509935492 0 1 1 0 0.94999999999979179 1 0 0.94399509803919068 0.9439950980391687 0 0.97166519676946206 0.96662885509935492 0 0.94999999999979179 1 0 0.94999999999979179 1 0 0.89898474358632463 0.95391965591118966 0 0.89999999999958358 1 0 0.94399509803919068 0.9439950980391687 0 0.94999999999979179 1 0 0.89898474358632463 0.95391965591118966 0 0.84999999999965292 1 0 0.89898474358632463 0.95391965591118966 0 0.89999999999958358 1 0 0.81723410853263523 0.59419663659258926 0 0.86956835336234861 0.571283299838105 0 0.82862096804812391 0.55037090955459045 0 0.81723410853263523 0.59419663659258926 0 0.87159648282691515 0.61285406320581504 0 0.83758014339878906 0.63222013025741819 0 0.81723410853263523 0.59419663659258926 0 0.79884539758237771 0.62875045078114233 0 0.83758014339878906 0.63222013025741819 0 0.81723410853263523 0.59419663659258926 0 0.87159648282691515 0.61285406320581504 0 0.86956835336234861 0.571283299838105 0 0.86956835336234861 0.571283299838105 0 0.86907294890112186 0.52008116128001669 0 0.82862096804812391 0.55037090955459045 0 0.86907294890112186 0.52008116128001669 0 0.81441713509985358 0.51161854125224959 0 0.82862096804812391 0.55037090955459045 0 0.86907294890112186 0.52008116128001669 0 0.81441713509985358 0.51161854125224959 0 0.84723782639812573 0.48638347960178252 0 0.81441713509985358 0.51161854125224959 0 0.82862096804812391 0.55037090955459045 0 0.77151014687832564 0.54436834383023036 0 0.81441713509985358 0.51161854125224959 0 0.77151014687832564 0.54436834383023036 0 0.77846603114747959 0.49850927265137401 0 0.77151014687832564 0.54436834383023036 0 0.77846603114747959 0.49850927265137401 0 0.73947346780852752 0.49062440112282169 0 0.71809016091162536 0.58185040402320831 0 0.77151014687832564 0.54436834383023036 0 0.77293540622714185 0.59448302402785813 0 0.81723410853263523 0.59419663659258926 0 0.77151014687832564 0.54436834383023036 0 0.77293540622714185 0.59448302402785813 0 0.81723410853263523 0.59419663659258926 0 0.82862096804812391 0.55037090955459045 0 0.77151014687832564 0.54436834383023036 0 0.81723410853263523 0.59419663659258926 0 0.77293540622714185 0.59448302402785813 0 0.79884539758237771 0.62875045078114233 0 0.74994237037456724 0.62775548192980357 0 0.77293540622714185 0.59448302402785813 0 0.79884539758237771 0.62875045078114233 0 0.74994237037456724 0.62775548192980357 0 0.7750489929959945 0.66593931409600093 0 0.79884539758237771 0.62875045078114233 0 0.74999999999999989 0.69999999999999996 0 0.72500000000000064 0.67022701834392062 0 0.7750489929959945 0.66593931409600093 0 0.7750489929959945 0.66593931409600093 0 0.79999999999999982 0.69999999999999996 0 0.82457059160610424 0.66831947184359608 0 0.7750489929959945 0.66593931409600093 0 0.79884539758237771 0.62875045078114233 0 0.82457059160610424 0.66831947184359608 0 0.74999999999999989 0.69999999999999996 0 0.75841349681148107 0.75422312624214749 0 0.78578450296893509 0.73292684821144505 0 0.74999999999999989 0.69999999999999996 0 0.79999999999999982 0.69999999999999996 0 0.78578450296893509 0.73292684821144505 0 0.74999999999999989 0.69999999999999996 0 0.7750489929959945 0.66593931409600093 0 0.79999999999999982 0.69999999999999996 0 0.74999999999999989 0.69999999999999996 0 0.79999999999999982 0.69999999999999996 0 0.80185942888539485 0.77452061303608133 0 0.78578450296893509 0.73292684821144505 0 0.81864958914779962 0.73589050177899629 0 0.79999999999999982 0.69999999999999996 0 0.78578450296893509 0.73292684821144505 0 0.81864958914779962 0.73589050177899629 0 0.85491058998424563 0.76004753345552634 0 0.81864958914779962 0.73589050177899629 0 0.84999999999999987 0.69999999999999996 0 0.79999999999999982 0.69999999999999996 0 0.84999999999999987 0.69999999999999996 0 0.79999999999999982 0.69999999999999996 0 0.84999999999999987 0.69999999999999996 0 0.82457059160610424 0.66831947184359608 0 0.79999999999999982 0.69999999999999996 0 0.81864958914779962 0.73589050177899629 0 0.84999999999999987 0.69999999999999996 0 0.84999999999999987 0.69999999999999996 0 0.89999999999999991 0.69999999999999996 0 0.85491058998424563 0.76004753345552634 0 0.84999999999999987 0.69999999999999996 0 0.89999166460796554 0.74528934923809909 0 0.79884539758237771 0.62875045078114233 0 0.83758014339878906 0.63222013025741819 0 0.82457059160610424 0.66831947184359608 0 0.84999999999999987 0.69999999999999996 0 0.82457059160610424 0.66831947184359608 0 0.87712158428786946 0.65709029563313581 0 0.87159648282691515 0.61285406320581504 0 0.83758014339878906 0.63222013025741819 0 0.87712158428786946 0.65709029563313581 0 0.83758014339878906 0.63222013025741819 0 0.82457059160610424 0.66831947184359608 0 0.87712158428786946 0.65709029563313581 0 0.87712158428786946 0.65709029563313581 0 0.92057473616084773 0.66770436535372446 0 0.91750694127105259 0.63017627779935648 0 0.87159648282691515 0.61285406320581504 0 0.87712158428786946 0.65709029563313581 0 0.91750694127105259 0.63017627779935648 0 0.84999999999999987 0.69999999999999996 0 0.87712158428786946 0.65709029563313581 0 0.89999999999999991 0.69999999999999996 0 0.87712158428786946 0.65709029563313581 0 0.92057473616084773 0.66770436535372446 0 0.89999999999999991 0.69999999999999996 0 0.92057473616084773 0.66770436535372446 0 0.91750694127105259 0.63017627779935648 0 0.9578014258160763 0.65787212321113708 0 0.84999999999999987 0.69999999999999996 0 0.89999166460796554 0.74528934923809909 0 0.89999999999999991 0.69999999999999996 0 0.89999999999999991 0.69999999999999996 0 0.94999999999999996 0.69999999999999996 0 0.92057473616084773 0.66770436535372446 0 0.89999999999999991 0.69999999999999996 0 0.94999999999999996 0.69999999999999996 0 0.89999166460796554 0.74528934923809909 0 0.89999999999999991 0.69999999999999996 0 0.94999999999999996 0.69999999999999996 0 0.94399509803918602 0.75600490196082126 0 0.89999166460796554 0.74528934923809909 0 0.94999999999999996 0.69999999999999996 0 0.94399509803918602 0.75600490196082126 0 0.94999999999999996 0.69999999999999996 0 0.97166519676947294 0.73337114490064459 0 0.94999999999999996 0.69999999999999996 0 1 0.69999999999999996 0 0.94999999999999996 0.69999999999999996 0 1 0.69999999999999996 0 0.97166519676947294 0.73337114490064459 0 1 0.69999999999999996 0 0.97166519676947294 0.73337114490064459 0 1 0.74999999999993494 0 0.91750694127105259 0.63017627779935648 0 0.9578014258160763 0.65787212321113708 0 0.95867599106212187 0.60011091146651041 0 0.92057473616084773 0.66770436535372446 0 0.94999999999999996 0.69999999999999996 0 0.9578014258160763 0.65787212321113708 0 0.94999999999999996 0.69999999999999996 0 1 0.69999999999999996 0 0.9578014258160763 0.65787212321113708 0 1 0.69999999999999996 0 0.9578014258160763 0.65787212321113708 0 1 0.64999999999986979 0 0.9578014258160763 0.65787212321113708 0 1 0.64999999999986979 0 0.95867599106212187 0.60011091146651041 0 0.95867599106212187 0.60011091146651041 0 0.93732437411268477 0.55911392101136159 0 1 0.54999999999963112 0 1 0.64999999999986979 0 1 0.59999999999973963 0 0.95867599106212187 0.60011091146651041 0 1 0.59999999999973963 0 0.95867599106212187 0.60011091146651041 0 1 0.54999999999963112 0 0.91750694127105259 0.63017627779935648 0 0.95867599106212187 0.60011091146651041 0 0.91143117093204207 0.58709913730335972 0 0.95867599106212187 0.60011091146651041 0 0.91143117093204207 0.58709913730335972 0 0.93732437411268477 0.55911392101136159 0 0.86956835336234861 0.571283299838105 0 0.91143117093204207 0.58709913730335972 0 0.90900154012161016 0.53607784105648792 0 0.87159648282691515 0.61285406320581504 0 0.86956835336234861 0.571283299838105 0 0.91143117093204207 0.58709913730335972 0 0.87159648282691515 0.61285406320581504 0 0.91750694127105259 0.63017627779935648 0 0.91143117093204207 0.58709913730335972 0 0.86907294890112186 0.52008116128001669 0 0.90900154012161016 0.53607784105648792 0 0.91696753777131557 0.497780560203536 0 0.86956835336234861 0.571283299838105 0 0.86907294890112186 0.52008116128001669 0 0.90900154012161016 0.53607784105648792 0 0.90900154012161016 0.53607784105648792 0 0.93732437411268477 0.55911392101136159 0 0.95631871884947484 0.51827533208233789 0 0.91143117093204207 0.58709913730335972 0 0.90900154012161016 0.53607784105648792 0 0.93732437411268477 0.55911392101136159 0 0.90900154012161016 0.53607784105648792 0 0.95631871884947484 0.51827533208233789 0 0.91696753777131557 0.497780560203536 0 0.93732437411268477 0.55911392101136159 0 0.95631871884947484 0.51827533208233789 0 1 0.54999999999963112 0 0.95631871884947484 0.51827533208233789 0 1 0.54999999999963112 0 1 0.49999999999950101 0 0.95631871884947484 0.51827533208233789 0 1 0.49999999999950101 0 0.96228564064454991 0.48206450662049471 0 1 0.49999999999950101 0 1 0.44999999999963131 0 0.96228564064454991 0.48206450662049471 0 1 0.44999999999963131 0 0.93814194660195893 0.44426664081746747 0 0.96228564064454991 0.48206450662049471 0 0.93814194660195893 0.44426664081746747 0 0.96228564064454991 0.48206450662049471 0 0.91696753777131557 0.497780560203536 0 0.95631871884947484 0.51827533208233789 0 0.96228564064454991 0.48206450662049471 0 0.91696753777131557 0.497780560203536 0 1 0.39999999999978308 0 0.95871855522754235 0.40006508612975411 0 1 0.34999999999993492 0 1 0.44999999999963131 0 1 0.39999999999978308 0 0.95871855522754235 0.40006508612975411 0 1 0.44999999999963131 0 0.93814194660195893 0.44426664081746747 0 0.95871855522754235 0.40006508612975411 0 0.95871855522754235 0.40006508612975411 0 0.90594285160987287 0.4141265964174129 0 0.91750694127107502 0.36982372220068471 0 0.93814194660195893 0.44426664081746747 0 0.95871855522754235 0.40006508612975411 0 0.90594285160987287 0.4141265964174129 0 0.90594285160987287 0.4141265964174129 0 0.88594198078881503 0.46167788676578442 0 0.86411095495256451 0.42388805655111889 0 0.90594285160987287 0.4141265964174129 0 0.86411095495256451 0.42388805655111889 0 0.86844634540301924 0.38530937474099819 0 0.90594285160987287 0.4141265964174129 0 0.86844634540301924 0.38530937474099819 0 0.91750694127107502 0.36982372220068471 0 0.93814194660195893 0.44426664081746747 0 0.91696753777131557 0.497780560203536 0 0.88594198078881503 0.46167788676578442 0 0.93814194660195893 0.44426664081746747 0 0.90594285160987287 0.4141265964174129 0 0.88594198078881503 0.46167788676578442 0 0.86907294890112186 0.52008116128001669 0 0.91696753777131557 0.497780560203536 0 0.88594198078881503 0.46167788676578442 0 0.86907294890112186 0.52008116128001669 0 0.88594198078881503 0.46167788676578442 0 0.84723782639812573 0.48638347960178252 0 0.81441713509985358 0.51161854125224959 0 0.84723782639812573 0.48638347960178252 0 0.81400510706333218 0.47357325943904899 0 0.84723782639812573 0.48638347960178252 0 0.81400510706333218 0.47357325943904899 0 0.84925632466077294 0.45359738909549091 0 0.81400510706333218 0.47357325943904899 0 0.84925632466077294 0.45359738909549091 0 0.81973119833356312 0.43505687159469048 0 0.88594198078881503 0.46167788676578442 0 0.84723782639812573 0.48638347960178252 0 0.84925632466077294 0.45359738909549091 0 0.84925632466077294 0.45359738909549091 0 0.86411095495256451 0.42388805655111889 0 0.81973119833356312 0.43505687159469048 0 0.88594198078881503 0.46167788676578442 0 0.84925632466077294 0.45359738909549091 0 0.86411095495256451 0.42388805655111889 0 0.86411095495256451 0.42388805655111889 0 0.86844634540301924 0.38530937474099819 0 0.81308179852519835 0.39754945808726527 0 0.86844634540301924 0.38530937474099819 0 0.81308179852519835 0.39754945808726527 0 0.83573492347052902 0.36590755630746369 0 0.86411095495256451 0.42388805655111889 0 0.81308179852519835 0.39754945808726527 0 0.81973119833356312 0.43505687159469048 0 0.81973119833356312 0.43505687159469048 0 0.77354604466818633 0.40378688774472771 0 0.77972660463949339 0.45529290596363098 0 0.81308179852519835 0.39754945808726527 0 0.81973119833356312 0.43505687159469048 0 0.77354604466818633 0.40378688774472771 0 0.81308179852519835 0.39754945808726527 0 0.77354604466818633 0.40378688774472771 0 0.78145581580700685 0.34881365920033602 0 0.77354604466818633 0.40378688774472771 0 0.77972660463949339 0.45529290596363098 0 0.73483647259922602 0.44789725365921768 0 0.77972660463949339 0.45529290596363098 0 0.73483647259922602 0.44789725365921768 0 0.73947346780852752 0.49062440112282169 0 0.77972660463949339 0.45529290596363098 0 0.77846603114747959 0.49850927265137401 0 0.73947346780852752 0.49062440112282169 0 0.81400510706333218 0.47357325943904899 0 0.77972660463949339 0.45529290596363098 0 0.77846603114747959 0.49850927265137401 0 0.81441713509985358 0.51161854125224959 0 0.81400510706333218 0.47357325943904899 0 0.77846603114747959 0.49850927265137401 0 0.81400510706333218 0.47357325943904899 0 0.81973119833356312 0.43505687159469048 0 0.77972660463949339 0.45529290596363098 0 0.79999999999999982 0.29999999999999999 0 0.77075983436335049 0.25919399014334171 0 0.81486180804364938 0.26321394949780091 0 0.79999999999999982 0.29999999999999999 0 0.74999999999999989 0.29999999999999999 0 0.79999999999999982 0.29999999999999999 0 0.77075983436335049 0.25919399014334171 0 0.74999999999999989 0.29999999999999999 0 0.79999999999999982 0.29999999999999999 0 0.78145581580700685 0.34881365920033602 0 0.74999999999999989 0.29999999999999999 0 0.78145581580700685 0.34881365920033602 0 0.73090396928863699 0.33699297293167962 0 0.74999999999999989 0.29999999999999999 0 0.77354604466818633 0.40378688774472771 0 0.78145581580700685 0.34881365920033602 0 0.74764719760526988 0.3719647154012321 0 0.78145581580700685 0.34881365920033602 0 0.74764719760526988 0.3719647154012321 0 0.73090396928863699 0.33699297293167962 0 0.81308179852519835 0.39754945808726527 0 0.78145581580700685 0.34881365920033602 0 0.83573492347052902 0.36590755630746369 0 0.79999999999999982 0.29999999999999999 0 0.78145581580700685 0.34881365920033602 0 0.82500000000000062 0.33010209762754811 0 0.78145581580700685 0.34881365920033602 0 0.82500000000000062 0.33010209762754811 0 0.83573492347052902 0.36590755630746369 0 0.82500000000000062 0.33010209762754811 0 0.83573492347052902 0.36590755630746369 0 0.87430060258887643 0.34056085888204451 0 0.86844634540301924 0.38530937474099819 0 0.83573492347052902 0.36590755630746369 0 0.87430060258887643 0.34056085888204451 0 0.82500000000000062 0.33010209762754811 0 0.87430060258887643 0.34056085888204451 0 0.84999999999999987 0.29999999999999999 0 0.87430060258887643 0.34056085888204451 0 0.84999999999999987 0.29999999999999999 0 0.89999999999999991 0.29999999999999999 0 0.84999999999999987 0.29999999999999999 0 0.81486180804364938 0.26321394949780091 0 0.8517097391133297 0.2356960729520409 0 0.84999999999999987 0.29999999999999999 0 0.89898474358614167 0.25391965591104898 0 0.8517097391133297 0.2356960729520409 0 0.84999999999999987 0.29999999999999999 0 0.89999999999999991 0.29999999999999999 0 0.79999999999999982 0.29999999999999999 0 0.82500000000000062 0.33010209762754811 0 0.84999999999999987 0.29999999999999999 0 0.79999999999999982 0.29999999999999999 0 0.84999999999999987 0.29999999999999999 0 0.81486180804364938 0.26321394949780091 0 0.79999999999999982 0.29999999999999999 0 0.84999999999999987 0.29999999999999999 0 0.84999999999999987 0.29999999999999999 0 0.89898474358614167 0.25391965591104898 0 0.89999999999999991 0.29999999999999999 0 0.89999999999999991 0.29999999999999999 0 0.94999999999999996 0.29999999999999999 0 0.89999999999999991 0.29999999999999999 0 0.92012390126144183 0.33123581297173937 0 0.94999999999999996 0.29999999999999999 0 0.89898474358614167 0.25391965591104898 0 0.89999999999999991 0.29999999999999999 0 0.94999999999999996 0.29999999999999999 0 0.89898474358614167 0.25391965591104898 0 0.94999999999999996 0.29999999999999999 0 0.94399509803921056 0.24399509803922639 0 0.86844634540301924 0.38530937474099819 0 0.87430060258887643 0.34056085888204451 0 0.91750694127107502 0.36982372220068471 0 0.87430060258887643 0.34056085888204451 0 0.92012390126144183 0.33123581297173937 0 0.91750694127107502 0.36982372220068471 0 0.87430060258887643 0.34056085888204451 0 0.89999999999999991 0.29999999999999999 0 0.92012390126144183 0.33123581297173937 0 0.92012390126144183 0.33123581297173937 0 0.91750694127107502 0.36982372220068471 0 0.95780851984364423 0.34215720972155339 0 0.95871855522754235 0.40006508612975411 0 0.91750694127107502 0.36982372220068471 0 0.95780851984364423 0.34215720972155339 0 0.92012390126144183 0.33123581297173937 0 0.95780851984364423 0.34215720972155339 0 0.94999999999999996 0.29999999999999999 0 0.95780851984364423 0.34215720972155339 0 0.94999999999999996 0.29999999999999999 0 1 0.29999999999999999 0 0.95780851984364423 0.34215720972155339 0 1 0.34999999999993492 0 1 0.29999999999999999 0 0.95871855522754235 0.40006508612975411 0 0.95780851984364423 0.34215720972155339 0 1 0.34999999999993492 0 0.94999999999999996 0.29999999999999999 0 0.97166519676951801 0.26662885509932011 0 0.94399509803921056 0.24399509803922639 0 0.94999999999999996 0.29999999999999999 0 1 0.29999999999999999 0 0.94999999999999996 0.29999999999999999 0 1 0.29999999999999999 0 0.97166519676951801 0.26662885509932011 0 1 0.29999999999999999 0 0.97166519676951801 0.26662885509932011 0 1 0.24999999999987299 0 0.97166519676951801 0.26662885509932011 0 0.97435614836740092 0.22499999999981049 0 1 0.24999999999987299 0 0.97435614836740092 0.22499999999981049 0 1 0.24999999999987299 0 1 0.19999999999974799 0 0.97435614836740092 0.22499999999981049 0 0.94399509803921056 0.24399509803922639 0 0.95391631417672862 0.19584263333809451 0 0.97166519676951801 0.26662885509932011 0 0.97435614836740092 0.22499999999981049 0 0.94399509803921056 0.24399509803922639 0 0.97435614836740092 0.22499999999981049 0 0.95391631417672862 0.19584263333809451 0 1 0.19999999999974799 0 0.95391631417672862 0.19584263333809451 0 1 0.14999999999961891 0 0.93677536231883773 0.14999999999999089 0 1 0.14999999999961891 0 0.93677536231883773 0.14999999999999089 0 0.95386563387744361 0.1041487415577465 0 0.95391631417672862 0.19584263333809451 0 1 0.19999999999974799 0 1 0.14999999999961891 0 0.95391631417672862 0.19584263333809451 0 0.93677536231883773 0.14999999999999089 0 0.90416666666668166 0.20416666666667119 0 0.93677536231883773 0.14999999999999089 0 0.88088768115941807 0.14674609810479519 0 0.90416666666668166 0.20416666666667119 0 0.93677536231883773 0.14999999999999089 0 0.88088768115941807 0.14674609810479519 0 0.90299850604006393 0.09563452813493091 0 0.88088768115941807 0.14674609810479519 0 0.90416666666668166 0.20416666666667119 0 0.85600844944842547 0.1848341897950983 0 0.89898474358614167 0.25391965591104898 0 0.90416666666668166 0.20416666666667119 0 0.8517097391133297 0.2356960729520409 0 0.89898474358614167 0.25391965591104898 0 0.94399509803921056 0.24399509803922639 0 0.90416666666668166 0.20416666666667119 0 0.94399509803921056 0.24399509803922639 0 0.95391631417672862 0.19584263333809451 0 0.90416666666668166 0.20416666666667119 0 0.94999999999986839 0 0 0.97166519676946894 0.033371144900598393 0 0.94399509803922566 0.056004901960802607 0 0.94999999999986839 0 0 1 0 0 0.97166519676946894 0.033371144900598393 0 1 0 0 1 0.049999999999896842 0 0.97166519676946894 0.033371144900598393 0 1 0.049999999999896842 0 0.97166519676946894 0.033371144900598393 0 0.97435614836748241 0.074999999999825387 0 0.97166519676946894 0.033371144900598393 0 0.94399509803922566 0.056004901960802607 0 0.97435614836748241 0.074999999999825387 0 0.94399509803922566 0.056004901960802607 0 0.97435614836748241 0.074999999999825387 0 0.95386563387744361 0.1041487415577465 0 0.97435614836748241 0.074999999999825387 0 1 0.099999999999753911 0 0.95386563387744361 0.1041487415577465 0 1 0.049999999999896842 0 0.97435614836748241 0.074999999999825387 0 1 0.099999999999753911 0 1 0.14999999999961891 0 1 0.099999999999753911 0 0.95386563387744361 0.1041487415577465 0 0.93677536231883773 0.14999999999999089 0 0.95386563387744361 0.1041487415577465 0 0.90299850604006393 0.09563452813493091 0 0.88088768115941807 0.14674609810479519 0 0.90299850604006393 0.09563452813493091 0 0.84725310900442086 0.10779732082922661 0 0.90299850604006393 0.09563452813493091 0 0.899991664607802 0.045289349238254978 0 0.85491058998398861 0.060047533455626502 0 0.94399509803922566 0.056004901960802607 0 0.95386563387744361 0.1041487415577465 0 0.90299850604006393 0.09563452813493091 0 0.94399509803922566 0.056004901960802607 0 0.90299850604006393 0.09563452813493091 0 0.899991664607802 0.045289349238254978 0 0.94999999999986839 0 0 0.94399509803922566 0.056004901960802607 0 0.899991664607802 0.045289349238254978 0 0.899991664607802 0.045289349238254978 0 0.89999999999973679 0 0 0.84999999999960507 0 0 0.94999999999986839 0 0 0.899991664607802 0.045289349238254978 0 0.89999999999973679 0 0 0.84999999999960507 0 0 0.81864958914740749 0.035890501779055867 0 0.79999999999947335 0 0 0.899991664607802 0.045289349238254978 0 0.84999999999960507 0 0 0.85491058998398861 0.060047533455626502 0 0.85491058998398861 0.060047533455626502 0 0.81864958914740749 0.035890501779055867 0 0.80185942888501827 0.074520613036224564 0 0.84999999999960507 0 0 0.85491058998398861 0.060047533455626502 0 0.81864958914740749 0.035890501779055867 0 0.85491058998398861 0.060047533455626502 0 0.84725310900442086 0.10779732082922661 0 0.80185942888501827 0.074520613036224564 0 0.90299850604006393 0.09563452813493091 0 0.85491058998398861 0.060047533455626502 0 0.84725310900442086 0.10779732082922661 0 0.84725310900442086 0.10779732082922661 0 0.80076557130237269 0.1154587552654202 0 0.80185942888501827 0.074520613036224564 0 0.84725310900442086 0.10779732082922661 0 0.80076557130237269 0.1154587552654202 0 0.82709327591102189 0.14937141670914489 0 0.80076557130237269 0.1154587552654202 0 0.76878382444651716 0.097147941686331368 0 0.80185942888501827 0.074520613036224564 0 0.76878382444651716 0.097147941686331368 0 0.77144070960558853 0.14311854477243749 0 0.72525833953073282 0.1032114801687094 0 0.80076557130237269 0.1154587552654202 0 0.76878382444651716 0.097147941686331368 0 0.77144070960558853 0.14311854477243749 0 0.76878382444651716 0.097147941686331368 0 0.80185942888501827 0.074520613036224564 0 0.7527966693318906 0.053051678021508272 0 0.81864958914740749 0.035890501779055867 0 0.80185942888501827 0.074520613036224564 0 0.78393852574753176 0.032039079577822822 0 0.80185942888501827 0.074520613036224564 0 0.78393852574753176 0.032039079577822822 0 0.7527966693318906 0.053051678021508272 0 0.78393852574753176 0.032039079577822822 0 0.7527966693318906 0.053051678021508272 0 0.74999999999934175 0 0 0.78393852574753176 0.032039079577822822 0 0.79999999999947335 0 0 0.74999999999934175 0 0 0.81864958914740749 0.035890501779055867 0 0.78393852574753176 0.032039079577822822 0 0.79999999999947335 0 0 0.81283102246527783 0.1881007222486438 0 0.8517097391133297 0.2356960729520409 0 0.79680861578956375 0.22656778056752541 0 0.81283102246527783 0.1881007222486438 0 0.8517097391133297 0.2356960729520409 0 0.85600844944842547 0.1848341897950983 0 0.81486180804364938 0.26321394949780091 0 0.8517097391133297 0.2356960729520409 0 0.79680861578956375 0.22656778056752541 0 0.90416666666668166 0.20416666666667119 0 0.8517097391133297 0.2356960729520409 0 0.85600844944842547 0.1848341897950983 0 0.88088768115941807 0.14674609810479519 0 0.85600844944842547 0.1848341897950983 0 0.82709327591102189 0.14937141670914489 0 0.88088768115941807 0.14674609810479519 0 0.84725310900442086 0.10779732082922661 0 0.82709327591102189 0.14937141670914489 0 0.81283102246527783 0.1881007222486438 0 0.85600844944842547 0.1848341897950983 0 0.82709327591102189 0.14937141670914489 0 0.81283102246527783 0.1881007222486438 0 0.77144070960558853 0.14311854477243749 0 0.76587607630038135 0.18880039518954719 0 0.81283102246527783 0.1881007222486438 0 0.82709327591102189 0.14937141670914489 0 0.77144070960558853 0.14311854477243749 0 0.80076557130237269 0.1154587552654202 0 0.82709327591102189 0.14937141670914489 0 0.77144070960558853 0.14311854477243749 0 0.77144070960558853 0.14311854477243749 0 0.76587607630038135 0.18880039518954719 0 0.72634814642510737 0.16106886917518889 0 0.76587607630038135 0.18880039518954719 0 0.79680861578956375 0.22656778056752541 0 0.75668890529066124 0.2244279804069782 0 0.81283102246527783 0.1881007222486438 0 0.76587607630038135 0.18880039518954719 0 0.79680861578956375 0.22656778056752541 0 0.77075983436335049 0.25919399014334171 0 0.81486180804364938 0.26321394949780091 0 0.79680861578956375 0.22656778056752541 0 0.77075983436335049 0.25919399014334171 0 0.79680861578956375 0.22656778056752541 0 0.75668890529066124 0.2244279804069782 0 0.77075983436335049 0.25919399014334171 0 0.75668890529066124 0.2244279804069782 0 0.72500000000000064 0.2498161764706 0 0.75668890529066124 0.2244279804069782 0 0.72500000000000064 0.2498161764706 0 0.72500000000001008 0.19776155966387679 0 0.72500000000000064 0.2498161764706 0 0.69397719155551807 0.2245125647000914 0 0.72500000000001008 0.19776155966387679 0 0.72500000000000064 0.2498161764706 0 0.69397719155551807 0.2245125647000914 0 0.67933712972090698 0.25920070958121938 0 0.69397719155551807 0.2245125647000914 0 0.72500000000001008 0.19776155966387679 0 0.6865991819015953 0.189116534044597 0 0.76587607630038135 0.18880039518954719 0 0.75668890529066124 0.2244279804069782 0 0.72500000000001008 0.19776155966387679 0 0.76587607630038135 0.18880039518954719 0 0.72500000000001008 0.19776155966387679 0 0.72634814642510737 0.16106886917518889 0 0.77144070960558853 0.14311854477243749 0 0.72634814642510737 0.16106886917518889 0 0.72525833953073282 0.1032114801687094 0 0.72634814642510737 0.16106886917518889 0 0.68391457121233579 0.14440470121196541 0 0.72525833953073282 0.1032114801687094 0 0.72500000000001008 0.19776155966387679 0 0.72634814642510737 0.16106886917518889 0 0.6865991819015953 0.189116534044597 0 0.72634814642510737 0.16106886917518889 0 0.68391457121233579 0.14440470121196541 0 0.6865991819015953 0.189116534044597 0 0.68391457121233579 0.14440470121196541 0 0.64011864159029941 0.18789607982138171 0 0.6865991819015953 0.189116534044597 0 0.68391457121233579 0.14440470121196541 0 0.65290632656860115 0.11434202593454081 0 0.6236733212988993 0.14864538214901801 0 0.68391457121233579 0.14440470121196541 0 0.64011864159029941 0.18789607982138171 0 0.6236733212988993 0.14864538214901801 0 0.64011864159029941 0.18789607982138171 0 0.65394964615507722 0.22666784374016369 0 0.59814117807200873 0.23398510860739519 0 0.65394964615507722 0.22666784374016369 0 0.59814117807200873 0.23398510860739519 0 0.62657463266645097 0.26524202571255862 0 0.69397719155551807 0.2245125647000914 0 0.65394964615507722 0.22666784374016369 0 0.67933712972090698 0.25920070958121938 0 0.64011864159029941 0.18789607982138171 0 0.65394964615507722 0.22666784374016369 0 0.6865991819015953 0.189116534044597 0 0.69397719155551807 0.2245125647000914 0 0.65394964615507722 0.22666784374016369 0 0.6865991819015953 0.189116534044597 0 0.69999999999921003 0 0 0.72683645290270404 0.027797073151180601 0 0.7010294155333181 0.056779085686491267 0 0.69999999999921003 0 0 0.7010294155333181 0.056779085686491267 0 0.66369801598854572 0.036327466368102787 0 0.7527966693318906 0.053051678021508272 0 0.74999999999934175 0 0 0.72683645290270404 0.027797073151180601 0 0.69999999999921003 0 0 0.74999999999934175 0 0 0.72683645290270404 0.027797073151180601 0 0.7527966693318906 0.053051678021508272 0 0.72683645290270404 0.027797073151180601 0 0.7010294155333181 0.056779085686491267 0 0.7010294155333181 0.056779085686491267 0 0.72525833953073282 0.1032114801687094 0 0.68330259535470161 0.10038702501083881 0 0.7527966693318906 0.053051678021508272 0 0.7010294155333181 0.056779085686491267 0 0.72525833953073282 0.1032114801687094 0 0.76878382444651716 0.097147941686331368 0 0.7527966693318906 0.053051678021508272 0 0.72525833953073282 0.1032114801687094 0 0.68391457121233579 0.14440470121196541 0 0.72525833953073282 0.1032114801687094 0 0.68330259535470161 0.10038702501083881 0 0.68330259535470161 0.10038702501083881 0 0.65290632656860115 0.11434202593454081 0 0.65408113592120842 0.073941773121567966 0 0.68391457121233579 0.14440470121196541 0 0.68330259535470161 0.10038702501083881 0 0.65290632656860115 0.11434202593454081 0 0.65290632656860115 0.11434202593454081 0 0.61956000905586006 0.1043312481793135 0 0.6236733212988993 0.14864538214901801 0 0.65290632656860115 0.11434202593454081 0 0.65408113592120842 0.073941773121567966 0 0.61956000905586006 0.1043312481793135 0 0.65408113592120842 0.073941773121567966 0 0.61940220174112337 0.047251958781050582 0 0.61956000905586006 0.1043312481793135 0 0.7010294155333181 0.056779085686491267 0 0.68330259535470161 0.10038702501083881 0 0.65408113592120842 0.073941773121567966 0 0.7010294155333181 0.056779085686491267 0 0.65408113592120842 0.073941773121567966 0 0.66369801598854572 0.036327466368102787 0 0.65408113592120842 0.073941773121567966 0 0.66369801598854572 0.036327466368102787 0 0.61940220174112337 0.047251958781050582 0 0.66369801598854572 0.036327466368102787 0 0.64999999999907843 0 0 0.61940220174112337 0.047251958781050582 0 0.69999999999921003 0 0 0.66369801598854572 0.036327466368102787 0 0.64999999999907843 0 0 0.59999999999894682 0 0 0.57396793757665954 0.037011367187645222 0 0.5499999999988151 0 0 0.64999999999907843 0 0 0.59999999999894682 0 0 0.61940220174112337 0.047251958781050582 0 0.59999999999894682 0 0 0.61940220174112337 0.047251958781050582 0 0.57396793757665954 0.037011367187645222 0 0.61940220174112337 0.047251958781050582 0 0.57396793757665954 0.037011367187645222 0 0.57667858002728545 0.078486105337742612 0 0.61940220174112337 0.047251958781050582 0 0.57667858002728545 0.078486105337742612 0 0.61956000905586006 0.1043312481793135 0 0.61956000905586006 0.1043312481793135 0 0.58516465772821369 0.11653801664834119 0 0.6236733212988993 0.14864538214901801 0 0.57667858002728545 0.078486105337742612 0 0.61956000905586006 0.1043312481793135 0 0.58516465772821369 0.11653801664834119 0 0.58516465772821369 0.11653801664834119 0 0.54979595918804436 0.1060565713905809 0 0.56202748619534593 0.15054058349222879 0 0.57667858002728545 0.078486105337742612 0 0.58516465772821369 0.11653801664834119 0 0.54979595918804436 0.1060565713905809 0 0.54979595918804436 0.1060565713905809 0 0.51076801031701946 0.1202837388510348 0 0.52375890611712683 0.059318771819432882 0 0.47881186583059909 0.093591717165689425 0 0.51076801031701946 0.1202837388510348 0 0.52375890611712683 0.059318771819432882 0 0.57667858002728545 0.078486105337742612 0 0.54979595918804436 0.1060565713905809 0 0.52375890611712683 0.059318771819432882 0 0.57396793757665954 0.037011367187645222 0 0.52375890611712683 0.059318771819432882 0 0.5499999999988151 0 0 0.57396793757665954 0.037011367187645222 0 0.57667858002728545 0.078486105337742612 0 0.52375890611712683 0.059318771819432882 0 0.49999999999869432 0 0 0.52375890611712683 0.059318771819432882 0 0.5499999999988151 0 0 0.59814117807200873 0.23398510860739519 0 0.59443395090188023 0.18455690917515069 0 0.55306006949600994 0.20198184231352201 0 0.59814117807200873 0.23398510860739519 0 0.55306006949600994 0.20198184231352201 0 0.54248833945060504 0.2520322959927106 0 0.64011864159029941 0.18789607982138171 0 0.59814117807200873 0.23398510860739519 0 0.59443395090188023 0.18455690917515069 0 0.64011864159029941 0.18789607982138171 0 0.59443395090188023 0.18455690917515069 0 0.6236733212988993 0.14864538214901801 0 0.58516465772821369 0.11653801664834119 0 0.6236733212988993 0.14864538214901801 0 0.56202748619534593 0.15054058349222879 0 0.59443395090188023 0.18455690917515069 0 0.6236733212988993 0.14864538214901801 0 0.56202748619534593 0.15054058349222879 0 0.59443395090188023 0.18455690917515069 0 0.56202748619534593 0.15054058349222879 0 0.55306006949600994 0.20198184231352201 0 0.56202748619534593 0.15054058349222879 0 0.51729576145820033 0.1683240575987815 0 0.55306006949600994 0.20198184231352201 0 0.54979595918804436 0.1060565713905809 0 0.51076801031701946 0.1202837388510348 0 0.56202748619534593 0.15054058349222879 0 0.48466639505193998 0.1421439844745814 0 0.51076801031701946 0.1202837388510348 0 0.51729576145820033 0.1683240575987815 0 0.51076801031701946 0.1202837388510348 0 0.56202748619534593 0.15054058349222879 0 0.51729576145820033 0.1683240575987815 0 0.51729576145820033 0.1683240575987815 0 0.50760557329222289 0.20700468884612061 0 0.55306006949600994 0.20198184231352201 0 0.50760557329222289 0.20700468884612061 0 0.55306006949600994 0.20198184231352201 0 0.54248833945060504 0.2520322959927106 0 0.49695729691142171 0.25014895411178018 0 0.50760557329222289 0.20700468884612061 0 0.54248833945060504 0.2520322959927106 0 0.49695729691142171 0.25014895411178018 0 0.5 0.29999999999999999 0 0.54248833945060504 0.2520322959927106 0 0.5 0.29999999999999999 0 0.54999999999999993 0.29999999999999999 0 0.52752007115234678 0.33170632466418198 0 0.5 0.29999999999999999 0 0.54999999999999993 0.29999999999999999 0 0.54248833945060504 0.2520322959927106 0 0.5 0.29999999999999999 0 0.54999999999999993 0.29999999999999999 0 0.54999999999999993 0.29999999999999999 0 0.54248833945060504 0.2520322959927106 0 0.5794309697024993 0.27124795968204829 0 0.59814117807200873 0.23398510860739519 0 0.54248833945060504 0.2520322959927106 0 0.5794309697024993 0.27124795968204829 0 0.54999999999999993 0.29999999999999999 0 0.59999999999999976 0.29999999999999999 0 0.54999999999999993 0.29999999999999999 0 0.5794309697024993 0.27124795968204829 0 0.59999999999999976 0.29999999999999999 0 0.59999999999999976 0.29999999999999999 0 0.6499999999999998 0.29999999999999999 0 0.5794309697024993 0.27124795968204829 0 0.59999999999999976 0.29999999999999999 0 0.62657463266645097 0.26524202571255862 0 0.59814117807200873 0.23398510860739519 0 0.5794309697024993 0.27124795968204829 0 0.62657463266645097 0.26524202571255862 0 0.61959173890754571 0.33832250091341232 0 0.56836770495988642 0.3523062350852913 0 0.6084546825910605 0.37989672713932537 0 0.59999999999999976 0.29999999999999999 0 0.61959173890754571 0.33832250091341232 0 0.6499999999999998 0.29999999999999999 0 0.59999999999999976 0.29999999999999999 0 0.61959173890754571 0.33832250091341232 0 0.56836770495988642 0.3523062350852913 0 0.54999999999999993 0.29999999999999999 0 0.59999999999999976 0.29999999999999999 0 0.56836770495988642 0.3523062350852913 0 0.56836770495988642 0.3523062350852913 0 0.52752007115234678 0.33170632466418198 0 0.52289427570932567 0.3932284363388488 0 0.54999999999999993 0.29999999999999999 0 0.56836770495988642 0.3523062350852913 0 0.52752007115234678 0.33170632466418198 0 0.49077833859261139 0.35229981449445641 0 0.5 0.29999999999999999 0 0.52752007115234678 0.33170632466418198 0 0.49077833859261139 0.35229981449445641 0 0.52752007115234678 0.33170632466418198 0 0.52289427570932567 0.3932284363388488 0 0.56836770495988642 0.3523062350852913 0 0.52289427570932567 0.3932284363388488 0 0.57744073070774993 0.41535148636609359 0 0.52289427570932567 0.3932284363388488 0 0.53823865529665704 0.45873898050322898 0 0.57744073070774993 0.41535148636609359 0 0.48858720058566618 0.43964267759203868 0 0.52289427570932567 0.3932284363388488 0 0.53823865529665704 0.45873898050322898 0 0.49102375406324739 0.49123754822244059 0 0.53330375813596242 0.50827942741749099 0 0.53823865529665704 0.45873898050322898 0 0.49102375406324739 0.49123754822244059 0 0.48858720058566618 0.43964267759203868 0 0.53823865529665704 0.45873898050322898 0 0.53330375813596242 0.50827942741749099 0 0.57611405284611883 0.50165903596042916 0 0.53823865529665704 0.45873898050322898 0 0.57611405284611883 0.50165903596042916 0 0.57975577671020095 0.46172033326338591 0 0.61547661924074692 0.48539576058873962 0 0.57611405284611883 0.50165903596042916 0 0.53823865529665704 0.45873898050322898 0 0.57975577671020095 0.46172033326338591 0 0.57975577671020095 0.46172033326338591 0 0.61209567303293111 0.44669033081290321 0 0.57744073070774993 0.41535148636609359 0 0.53823865529665704 0.45873898050322898 0 0.57975577671020095 0.46172033326338591 0 0.57744073070774993 0.41535148636609359 0 0.57975577671020095 0.46172033326338591 0 0.61209567303293111 0.44669033081290321 0 0.61547661924074692 0.48539576058873962 0 0.56836770495988642 0.3523062350852913 0 0.57744073070774993 0.41535148636609359 0 0.6084546825910605 0.37989672713932537 0 0.61209567303293111 0.44669033081290321 0 0.57744073070774993 0.41535148636609359 0 0.63912439215427275 0.41063340167983359 0 0.57744073070774993 0.41535148636609359 0 0.6084546825910605 0.37989672713932537 0 0.63912439215427275 0.41063340167983359 0 0.6084546825910605 0.37989672713932537 0 0.63912439215427275 0.41063340167983359 0 0.65481233915350323 0.35652751921065562 0 0.63912439215427275 0.41063340167983359 0 0.65178832218679827 0.45929119821019959 0 0.6879972333610942 0.43038561374960838 0 0.63912439215427275 0.41063340167983359 0 0.68128176404677243 0.38629093627004979 0 0.6879972333610942 0.43038561374960838 0 0.63912439215427275 0.41063340167983359 0 0.68128176404677243 0.38629093627004979 0 0.65481233915350323 0.35652751921065562 0 0.61547661924074692 0.48539576058873962 0 0.6541250972820879 0.49999999999999989 0 0.65178832218679827 0.45929119821019959 0 0.61209567303293111 0.44669033081290321 0 0.61547661924074692 0.48539576058873962 0 0.65178832218679827 0.45929119821019959 0 0.61209567303293111 0.44669033081290321 0 0.63912439215427275 0.41063340167983359 0 0.65178832218679827 0.45929119821019959 0 0.65178832218679827 0.45929119821019959 0 0.69385896817107129 0.48377516041410151 0 0.6879972333610942 0.43038561374960838 0 0.6541250972820879 0.49999999999999989 0 0.65178832218679827 0.45929119821019959 0 0.69385896817107129 0.48377516041410151 0 0.7152569930854884 0.5237994455134295 0 0.69385896817107129 0.48377516041410151 0 0.73947346780852752 0.49062440112282169 0 0.69385896817107129 0.48377516041410151 0 0.73483647259922602 0.44789725365921768 0 0.6879972333610942 0.43038561374960838 0 0.69385896817107129 0.48377516041410151 0 0.73483647259922602 0.44789725365921768 0 0.73947346780852752 0.49062440112282169 0 0.68128176404677243 0.38629093627004979 0 0.72622533758026719 0.40265885511101601 0 0.71508799138962864 0.36622814920737751 0 0.73483647259922602 0.44789725365921768 0 0.6879972333610942 0.43038561374960838 0 0.72622533758026719 0.40265885511101601 0 0.68128176404677243 0.38629093627004979 0 0.6879972333610942 0.43038561374960838 0 0.72622533758026719 0.40265885511101601 0 0.77354604466818633 0.40378688774472771 0 0.73483647259922602 0.44789725365921768 0 0.72622533758026719 0.40265885511101601 0 0.72622533758026719 0.40265885511101601 0 0.74764719760526988 0.3719647154012321 0 0.71508799138962864 0.36622814920737751 0 0.77354604466818633 0.40378688774472771 0 0.72622533758026719 0.40265885511101601 0 0.74764719760526988 0.3719647154012321 0 0.74764719760526988 0.3719647154012321 0 0.71508799138962864 0.36622814920737751 0 0.73090396928863699 0.33699297293167962 0 0.71508799138962864 0.36622814920737751 0 0.68887083591306764 0.33632058575757479 0 0.73090396928863699 0.33699297293167962 0 0.68128176404677243 0.38629093627004979 0 0.71508799138962864 0.36622814920737751 0 0.68887083591306764 0.33632058575757479 0 0.68887083591306764 0.33632058575757479 0 0.73090396928863699 0.33699297293167962 0 0.69999999999999984 0.29999999999999999 0 0.72500000000000064 0.2498161764706 0 0.74999999999999989 0.29999999999999999 0 0.69999999999999984 0.29999999999999999 0 0.74999999999999989 0.29999999999999999 0 0.69999999999999984 0.29999999999999999 0 0.73090396928863699 0.33699297293167962 0 0.74999999999999989 0.29999999999999999 0 0.69999999999999984 0.29999999999999999 0 0.77075983436335049 0.25919399014334171 0 0.72500000000000064 0.2498161764706 0 0.74999999999999989 0.29999999999999999 0 0.72500000000000064 0.2498161764706 0 0.69999999999999984 0.29999999999999999 0 0.67933712972090698 0.25920070958121938 0 0.69999999999999984 0.29999999999999999 0 0.67933712972090698 0.25920070958121938 0 0.6499999999999998 0.29999999999999999 0 0.68887083591306764 0.33632058575757479 0 0.69999999999999984 0.29999999999999999 0 0.6499999999999998 0.29999999999999999 0 0.69999999999999984 0.29999999999999999 0 0.6499999999999998 0.29999999999999999 0 0.67933712972090698 0.25920070958121938 0 0.62657463266645097 0.26524202571255862 0 0.6499999999999998 0.29999999999999999 0 0.65394964615507722 0.22666784374016369 0 0.67933712972090698 0.25920070958121938 0 0.62657463266645097 0.26524202571255862 0 0.59999999999999976 0.29999999999999999 0 0.62657463266645097 0.26524202571255862 0 0.6499999999999998 0.29999999999999999 0 0.61959173890754571 0.33832250091341232 0 0.6499999999999998 0.29999999999999999 0 0.65481233915350323 0.35652751921065562 0 0.61959173890754571 0.33832250091341232 0 0.6084546825910605 0.37989672713932537 0 0.65481233915350323 0.35652751921065562 0 0.68128176404677243 0.38629093627004979 0 0.68887083591306764 0.33632058575757479 0 0.65481233915350323 0.35652751921065562 0 0.68887083591306764 0.33632058575757479 0 0.6499999999999998 0.29999999999999999 0 0.65481233915350323 0.35652751921065562 0 
</DataArray>
</Points>
<Cells>
<DataArray type="UInt32" Name="connectivity" format="ascii">
0 1 2 3 4 5 6 7 8 9 10 11 12 13 14 15 16 17 18 19 20 21 22 23 24 25 26 27 28 29 30 31 32 33 34 35 36 37 38 39 40 41 42 43 44 45 46 47 48 49 50 51 52 53 54 55 56 57 58 59 60 61 62 63 64 65 66 67 68 69 70 71 72 73 74 75 76 77 78 79 80 81 82 83 84 85 86 87 88 89 90 91 92 93 94 95 96 97 98 99 100 101 102 103 104 105 106 107 108 109 110 111 112 113 114 115 116 117 118 119 120 121 122 123 124 125 126 127 128 129 130 131 132 133 134 135 136 137 138 139 140 141 142 143 144 145 146 147 148 149 150 151 152 153 154 155 156 157 158 159 160 161 162 163 164 165 166 167 168 169 170 171 172 173 174 175 176 177 178 179 180 181 182 183 184 185 186 187 188 189 190 191 192 193 194 195 196 197 198 199 200 201 202 203 204 205 206 207 208 209 210 211 212 213 214 215 216 217 218 219 220 221 222 223 224 225 226 227 228 229 230 231 232 233 234 235 236 237 238 239 240 241 242 243 244 245 246 247 248 249 250 251 252 253 254 255 256 257 258 259 260 261 262 263 264 265 266 267 268 269 270 271 272 273 274 275 276 277 278 279 280 281 282 283 284 285 286 287 288 289 290 291 292 293 294 295 296 297 298 299 300 301 302 303 304 305 306 307 308 309 310 311 312 313 314 315 316 317 318 319 320 321 322 323 324 325 326 327 328 329 330 331 332 333 334 335 336 337 338 339 340 341 342 343 344 345 346 347 348 349 350 351 352 353 354 355 356 357 358 359 360 361 362 363 364 365 366 367 368 369 370 371 372 373 374 375 376 377 378 379 380 381 382 383 384 385 386 387 388 389 390 391 392 393 394 395 396 397 398 399 400 401 402 403 404 405 406 407 408 409 410 411 412 413 414 415 416 417 418 419 420 421 422 423 424 425 426 427 428 429 430 431 432 433 434 435 436 437 438 439 440 441 442 443 444 445 446 447 448 449 450 451 452 453 454 455 456 457 458 459 460 461 462 463 464 465 466 467 468 469 470 471 472 473 474 475 476 477 478 479 480 481 482 483 484 485 486 487 488 489 490 491 492 493 494 495 496 497 498 499 500 501 502 503 504 505 506 507 508 509 510 511 512 513 514 515 516 517 518 519 520 521 522 523 524 525 526 527 528 529 530 531 532 533 534 535 536 537 538 539 540 541 542 543 544 545 546 547 548 549 550 551 552 553 554 555 556 557 558 559 560 561 562 563 564 565 566 567 568 569 570 571 572 573 574 575 576 577 578 579 580 581 582 583 584 585 586 587 588 589 590 591 592 593 594 595 596 597 598 599 600 601 602 603 604 605 606 607 608 609 610 611 612 613 614 615 616 617 618 619 620 621 622 623 624 625 626 627 628 629 630 631 632 633 634 635 636 637 638 639 640 641 642 643 644 645 646 647 648 649 650 651 652 653 654 655 656 657 658 659 660 661 662 663 664 665 666 667 668 669 670 671 672 673 674 675 676 677 678 679 680 681 682 683 684 685 686 687 688 689 690 691 692 693 694 695 696 697 698 699 700 701 702 703 704 705 706 707 708 709 710 711 712 713 714 715 716 717 718 719 720 721 722 723 724 725 726 727 728 729 730 731 732 733 734 735 736 737 738 739 740 741 742 743 744 745 746 747 748 749 750 751 752 753 754 755 756 757 758 759 760 761 762 763 764 765 766 767 768 769 770 771 772 773 774 775 776 777 778 779 780 781 782 783 784 785 786 787 788 789 790 791 792 793 794 795 796 797 798 799 800 801 802 803 804 805 806 807 808 809 810 811 812 813 814 815 816 817 818 819 820 821 822 823 824 825 826 827 828 829 830 831 832 833 834 835 836 837 838 839 840 841 842 843 844 845 846 847 848 849 850 851 852 853 854 855 856 857 858 859 860 861 862 863 864 865 866 867 868 869 870 871 872 873 874 875 876 877 878 879 880 881 882 883 884 885 886 887 888 889 890 891 892 893 894 895 896 897 898 899 900 901 902 903 904 905 906 907 908 909 910 911 912 913 914 915 916 917 918 919 920 921 922 923 924 925 926 927 928 929 930 931 932 933 934 935 936 937 938 939 940 941 942 943 944 945 946 947 948 949 950 951 952 953 954 955 956 957 958 959 960 961 962 963 964 965 966 967 968 969 970 971 972 973 974 975 976 977 978 979 980 981 982 983 984 985 986 987 988 989 990 991 992 993 994 995 996 997 998 999 1000 1001 1002 1003 1004 1005 1006 1007 1008 1009 1010 1011 1012 1013 1014 1015 1016 1017 1018 1019 1020 1021 1022 1023 1024 1025 1026 1027 1028 1029 1030 1031 1032 1033 1034 1035 1036 1037 1038 1039 1040 1041 1042 1043 1044 1045 1046 1047 1048 1049 1050 1051 1052 1053 1054 1055 1056 1057 1058 1059 1060 1061 1062 1063 1064 1065 1066 1067 1068 1069 1070 1071 1072 1073 1074 1075 1076 1077 1078 1079 1080 1081 1082 1083 1084 1085 1086 1087 1088 1089 1090 1091 1092 1093 1094 1095 1096 1097 1098 1099 1100 1101 1102 1103 1104 1105 1106 1107 1108 1109 1110 1111 1112 1113 1114 1115 1116 1117 1118 1119 1120 1121 1122 1123 1124 1125 1126 1127 1128 1129 1130 1131 1132 1133 1134 1135 1136 1137 1138 1139 1140 1141 1142 1143 1144 1145 1146 1147 1148 1149 1150 1151 1152 1153 1154 1155 1156 1157 1158 1159 1160 1161 1162 1163 1164 1165 1166 1167 1168 1169 1170 1171 1172 1173 1174 1175 1176 1177 1178 1179 1180 1181 1182 1183 1184 1185 1186 1187 1188 1189 1190 1191 1192 1193 1194 1195 1196 1197 1198 1199 1200 1201 1202 1203 1204 1205 1206 1207 1208 1209 1210 1211 1212 1213 1214 1215 1216 1217 1218 1219 1220 1221 1222 1223 1224 1225 1226 1227 1228 1229 1230 1231 1232 1233 1234 1235 1236 1237 1238 1239 1240 1241 1242 1243 1244 1245 1246 1247 1248 1249 1250 1251 1252 1253 1254 1255 1256 1257 1258 1259 1260 1261 1262 1263 1264 1265 1266 1267 1268 1269 1270 1271 1272 1273 1274 1275 1276 1277 1278 1279 1280 1281 1282 1283 1284 1285 1286 1287 1288 1289 1290 1291 1292 1293 1294 1295 1296 1297 1298 1299 1300 1301 1302 1303 1304 1305 1306 1307 1308 1309 1310 1311 1312 1313 1314 1315 1316 1317 1318 1319 1320 1321 1322 1323 1324 1325 1326 1327 1328 1329 1330 1331 1332 1333 1334 1335 1336 1337 1338 1339 1340 1341 1342 1343 1344 1345 1346 1347 1348 1349 1350 1351 1352 1353 1354 1355 1356 1357 1358 1359 1360 1361 1362 1363 1364 1365 1366 1367 1368 1369 1370 1371 1372 1373 1374 1375 1376 1377 1378 1379 1380 1381 1382 1383 1384 1385 1386 1387 1388 1389 1390 1391 1392 1393 1394 1395 1396 1397 1398 1399 1400 1401 1402 1403 1404 1405 1406 1407 1408 1409 1410 1411 1412 1413 1414 1415 1416 1417 1418 1419 1420 1421 1422 1423 1424 1425 1426 1427 1428 1429 1430 1431 1432 1433 1434 1435 1436 1437 1438 1439 1440 1441 1442 1443 1444 1445 1446 1447 1448 1449 1450 1451 1452 1453 1454 1455 1456 1457 1458 1459 1460 1461 1462 1463 1464 1465 1466 1467 1468 1469 1470 1471 1472 1473 1474 1475 1476 1477 1478 1479 1480 1481 1482 1483 1484 1485 1486 1487 1488 1489 1490 1491 1492 1493 1494 1495 1496 1497 1498 1499 1500 1501 1502 1503 1504 1505 1506 1507 1508 1509 1510 1511 1512 1513 1514 1515 1516 1517 1518 1519 1520 1521 1522 1523 1524 1525 1526 1527 1528 1529 1530 1531 1532 1533 1534 1535 1536 1537 1538 1539 1540 1541 1542 1543 1544 1545 1546 1547 1548 1549 1550 1551 1552 1553 1554 1555 1556 1557 1558 1559 1560 1561 1562 1563 1564 1565 1566 1567 1568 1569 1570 1571 1572 1573 1574 1575 1576 1577 1578 1579 1580 1581 1582 1583 1584 1585 1586 1587 1588 1589 1590 1591 1592 1593 1594 1595 1596 1597 1598 1599 1600 1601 1602 1603 1604 1605 1606 1607 1608 1609 1610 1611 1612 1613 1614 1615 1616 1617 1618 1619 1620 1621 1622 1623 1624 1625 1626 1627 1628 1629 1630 1631 1632 1633 1634 1635 1636 1637 1638 1639 1640 1641 1642 1643 1644 1645 1646 1647 1648 1649 1650 1651 1652 1653 1654 1655 1656 1657 1658 1659 1660 1661 1662 1663 1664 1665 1666 1667 1668 1669 1670 1671 1672 1673 1674 1675 1676 1677 1678 1679 1680 1681 1682 1683 1684 1685 1686 1687 1688 1689 1690 1691 1692 1693 1694 1695 1696 1697 1698 1699 1700 1701 1702 1703 1704 1705 1706 1707 1708 1709 1710 1711 1712 1713 1714 1715 1716 1717 1718 1719 1720 1721 1722 1723 1724 1725 1726 1727 1728 1729 1730 1731 1732 1733 1734 1735 1736 1737 1738 1739 1740 1741 1742 1743 1744 1745 1746 1747 1748 1749 1750 1751 1752 1753 1754 1755 1756 1757 1758 1759 1760 1761 1762 1763 1764 1765 1766 1767 1768 1769 1770 1771 1772 1773 1774 1775 1776 1777 1778 1779 1780 1781 1782 1783 1784 1785 1786 1787 1788 1789 1790 1791 1792 1793 1794 1795 1796 1797 1798 1799 1800 1801 1802 1803 1804 1805 1806 1807 1808 1809 1810 1811 1812 1813 1814 1815 1816 1817 1818 1819 1820 1821 1822 1823 1824 1825 1826 1827 1828 1829 1830 1831 1832 1833 1834 1835 1836 1837 1838 1839 1840 1841 1842 1843 1844 1845 1846 1847 1848 1849 1850 1851 1852 1853 1854 1855 1856 1857 1858 1859 1860 1861 1862 1863 1864 1865 1866 1867 1868 1869 1870 1871 1872 1873 1874 1875 1876 1877 1878 1879 1880 1881 1882 1883 1884 1885 1886 1887 1888 1889 1890 1891 1892 1893 1894 1895 1896 1897 1898 1899 1900 1901 1902 1903 1904 1905 1906 1907 1908 1909 1910 1911 1912 1913 1914 1915 1916 1917 1918 1919 1920 1921 1922 1923 1924 1925 1926 1927 1928 1929 1930 1931 1932 1933 1934 1935 1936 1937 1938 1939 1940 1941 1942 1943 1944 1945 1946 1947 1948 1949 1950 1951 1952 1953 1954 1955 1956 1957 1958 1959 1960 1961 1962 1963 1964 1965 1966 1967 1968 1969 1970 1971 1972 1973 1974 1975 1976 1977 1978 1979 1980 1981 1982 1983 1984 1985 1986 1987 1988 1989 1990 1991 1992 1993 1994 1995 1996 1997 1998 1999 2000 2001 2002 2003 2004 2005 2006 2007 2008 2009 2010 2011 2012 2013 2014 2015 2016 2017 2018 2019 2020 2021 2022 2023 2024 2025 2026 2027 2028 2029 2030 2031 2032 2033 2034 2035 2036 2037 2038 2039 2040 2041 2042 2043 2044 2045 2046 2047 2048 2049 2050 2051 2052 2053 2054 2055 2056 2057 2058 2059 2060 2061 2062 2063 2064 2065 2066 2067 2068 2069 2070 2071 2072 2073 2074 2075 2076 2077 2078 2079 2080 2081 2082 2083 2084 2085 2086 2087 2088 2089 2090 2091 2092 2093 2094 2095 2096 2097 2098 2099 2100 2101 2102 2103 2104 2105 2106 2107 2108 2109 2110 2111 2112 2113 2114 2115 2116 2117 2118 2119 2120 2121 2122 2123 2124 2125 2126 2127 2128 2129 2130 2131 2132 2133 2134 2135 2136 2137 2138 2139 2140 2141 2142 2143 2144 2145 2146 2147 2148 2149 2150 2151 2152 2153 2154 2155 2156 2157 2158 2159 2160 2161 2162 2163 2164 2165 2166 2167 2168 2169 2170 2171 2172 2173 2174 2175 2176 2177 2178 2179 2180 2181 2182 2183 2184 2185 2186 2187 2188 2189 2190 2191 2192 2193 2194 2195 2196 2197 2198 2199 2200 2201 2202 2203 2204 2205 2206 2207 2208 2209 2210 2211 2212 2213 2214 2215 2216 2217 2218 2219 2220 2221 2222 2223 2224 2225 2226 2227 2228 2229 2230 2231 2232 2233 2234 2235 2236 2237 2238 2239 2240 2241 2242 2243 2244 2245 2246 2247 2248 2249 2250 2251 2252 2253 2254 2255 2256 2257 2258 2259 2260 2261 2262 2263 2264 2265 2266 2267 2268 2269 2270 2271 2272 2273 2274 2275 2276 2277 2278 2279 2280 2281 2282 2283 2284 2285 2286 2287 2288 2289 2290 2291 2292 2293 2294 2295 2296 2297 2298 2299 2300 2301 2302 2303 2304 2305 2306 2307 2308 2309 2310 2311 2312 2313 2314 2315 2316 2317 2318 2319 2320 2321 2322 2323 2324 2325 2326 2327 2328 2329 2330 2331 2332 2333 2334 2335 2336 2337 2338 2339 2340 2341 2342 2343 2344 2345 2346 2347 2348 2349 2350 2351 2352 2353 2354 2355 2356 2357 2358 2359 2360 2361 2362 2363 2364 2365 2366 2367 2368 2369 2370 2371 2372 2373 2374 2375 2376 2377 2378 2379 2380 2381 2382 2383 2384 2385 2386 2387 2388 2389 2390 2391 2392 2393 2394 2395 2396 2397 2398 2399 2400 2401 2402 2403 2404 2405 2406 2407 2408 2409 2410 2411 2412 2413 2414 2415 2416 2417 2418 2419 2420 2421 2422 2423 2424 2425 2426 2427 2428 2429 2430 2431 2432 2433 2434 2435 2436 2437 2438 2439 2440 2441 2442 2443 2444 2445 2446 2447 2448 2449 2450 2451 2452 2453 2454 2455 2456 2457 2458 2459 2460 2461 2462 2463 2464 2465 2466 2467 2468 2469 2470 2471 2472 2473 2474 2475 2476 2477 2478 2479 2480 2481 2482 2483 2484 2485 2486 2487 2488 2489 2490 2491 2492 2493 2494 2495 2496 2497 2498 2499 2500 2501 2502 2503 2504 2505 2506 2507 2508 2509 2510 2511 2512 2513 2514 2515 2516 2517 2518 2519 2520 2521 2522 2523 2524 2525 2526 2527 2528 2529 2530 2531 2532 2533 2534 2535 2536 2537 2538 2539 2540 2541 2542 2543 2544 2545 2546 2547 2548 2549 2550 2551 2552 2553 2554 2555 2556 2557 2558 2559 2560 2561 2562 2563 2564 2565 2566 2567 2568 2569 2570 2571 2572 2573 2574 2575 2576 2577 2578 2579 2580 2581 2582 2583 2584 2585 2586 2587 2588 2589 2590 2591 2592 2593 2594 2595 2596 2597 2598 2599 2600 2601 2602 2603 2604 2605 2606 2607 2608 2609 2610 2611 2612 2613 2614 2615 2616 2617 2618 2619 2620 2621 2622 2623 2624 2625 2626 2627 2628 2629 2630 2631 2632 2633 2634 2635 2636 2637 2638 2639 2640 2641 2642 2643 2644 2645 2646 2647 2648 2649 2650 2651 2652 2653 2654 2655 2656 2657 2658 2659 2660 2661 2662 2663 2664 2665 2666 2667 2668 2669 2670 2671 2672 2673 2674 2675 2676 2677 2678 2679 2680 2681 2682 2683 2684 2685 2686 2687 2688 2689 2690 2691 2692 2693 2694 2695 2696 2697 2698 2699 2700 2701 2702 2703 2704 2705 2706 2707 2708 2709 2710 2711 2712 2713 2714 2715 2716 2717 2718 2719 2720 2721 2722 2723 2724 2725 2726 2727 2728 2729 2730 2731 2732 2733 2734 2735 2736 2737 2738 2739 2740 2741 2742 2743 2744 2745 2746 2747 2748 2749 2750 2751 2752 2753 2754 2755 2756 2757 2758 2759 2760 2761 2762 2763 2764 2765 2766 2767 2768 2769 2770 2771 2772 2773 2774 2775 2776 2777 2778 2779 2780 2781 2782 2783 2784 2785 2786 2787 2788 2789 2790 2791 2792 2793 2794 2795 2796 2797 2798 2799 2800 2801 2802 2803 2804 2805 2806 2807 2808 2809 2810 2811 2812 2813 2814 2815 2816 2817 2818 2819 2820 2821 2822 2823 2824 2825 2826 2827 2828 2829 2830 2831 2832 2833 2834 2835 2836 2837 2838 2839 2840 2841 2842 2843 2844 2845 2846 2847 2848 2849 2850 2851 2852 2853 2854 2855 2856 2857 2858 2859 2860 2861 2862 2863 2864 2865 2866 2867 2868 2869 2870 2871 2872 2873 2874 2875 2876 2877 2878 2879 2880 2881 2882 2883 2884 2885 2886 2887 2888 2889 2890 2891 2892 2893 2894 2895 2896 2897 2898 2899 2900 2901 2902 2903 2904 2905 2906 2907 2908 2909 2910 2911 2912 2913 2914 2915 2916 2917 2918 2919 2920 2921 2922 2923 2924 2925 2926 2927 2928 2929 2930 2931 2932 2933 2934 2935 2936 2937 2938 2939 2940 2941 2942 2943 2944 2945 2946 2947 2948 2949 2950 2951 2952 2953 2954 2955 2956 2957 2958 2959 2960 2961 2962 2963 2964 2965 2966 2967 2968 2969 2970 2971 2972 2973 2974 2975 2976 2977 2978 2979 2980 2981 2982 2983 2984 2985 2986 2987 2988 2989 2990 2991 2992 2993 2994 2995 2996 2997 2998 2999 3000 3001 3002 3003 3004 3005 3006 3007 3008 3009 3010 3011 3012 3013 3014 3015 3016 3017 3018 3019 3020 3021 3022 3023 3024 3025 3026 3027 3028 3029 3030 3031 3032 3033 3034 3035 3036 3037 3038 3039 3040 3041 3042 3043 3044 3045 3046 3047 3048 3049 3050 3051 3052 3053 3054 3055 3056 3057 3058 3059 3060 3061 3062 3063 3064 3065 3066 3067 3068 3069 3070 3071 3072 3073 3074 3075 3076 3077 3078 3079 3080 3081 3082 3083 3084 3085 3086 3087 3088 3089 3090 3091 3092 3093 3094 3095 3096 3097 3098 3099 3100 3101 3102 3103 3104 3105 3106 3107 3108 3109 3110 3111 3112 3113 3114 3115 3116 3117 3118 3119 3120 3121 3122 3123 3124 3125 3126 3127 3128 3129 3130 3131 3132 3133 3134 3135 3136 3137 3138 3139 3140 3141 
</DataArray>
<DataArray type="UInt32" Name="offsets" format="ascii">
3 6 9 12 15 18 21 24 27 30 33 36 39 42 45 48 51 54 57 60 63 66 69 72 75 78 81 84 87 90 93 96 99 102 105 108 111 114 117 120 123 126 129 132 135 138 141 144 147 150 153 156 159 162 165 168 171 174 177 180 183 186 189 192 195 198 201 204 207 210 213 216 219 222 225 228 231 234 237 240 243 246 249 252 255 258 261 264 267 270 273 276 279 282 285 288 291 294 297 300 303 306 309 312 315 318 321 324 327 330 333 336 339 342 345 348 351 354 357 360 363 366 369 372 375 378 381 384 387 390 393 396 399 402 405 408 411 414 417 420 423 426 429 432 435 438 441 444 447 450 453 456 459 462 465 468 471 474 477 480 483 486 489 492 495 498 501 504 507 510 513 516 519 522 525 528 531 534 537 540 543 546 549 552 555 558 561 564 567 570 573 576 579 582 585 588 591 594 597 600 603 606 609 612 615 618 621 624 627 630 633 636 639 642 645 648 651 654 657 660 663 666 669 672 675 678 681 684 687 690 693 696 699 702 705 708 711 714 717 720 723 726 729 732 735 738 741 744 747 750 753 756 759 762 765 768 771 774 777 780 783 786 789 792 795 798 801 804 807 810 813 816 819 822 825 828 831 834 837 840 843 846 849 852 855 858 861 864 867 870 873 876 879 882 885 888 891 894 897 900 903 906 909 912 915 918 921 924 927 930 933 936 939 942 945 948 951 954 957 960 963 966 969 972 975 978 981 984 987 990 993 996 999 1002 1005 1008 1011 1014 1017 1020 1023 1026 1029 1032 1035 1038 1041 1044 1047 1050 1053 1056 1059 1062 1065 1068 1071 1074 1077 1080 1083 1086 1089 1092 1095 1098 1101 1104 1107 1110 1113 1116 1119 1122 1125 1128 1131 1134 1137 1140 1143 1146 1149 1152 1155 1158 1161 1164 1167 1170 1173 1176 1179 1182 1185 1188 1191 1194 1197 1200 1203 1206 1209 1212 1215 1218 1221 1224 1227 1230 1233 1236 1239 1242 1245 1248 1251 1254 1257 1260 1263 1266 1269 1272 1275 1278 1281 1284 1287 1290 1293 1296 1299 1302 1305 1308 1311 1314 1317 1320 1323 1326 1329 1332 1335 1338 1341 1344 1347 1350 1353 1356 1359 1362 1365 1368 1371 1374 1377 1380 1383 1386 1389 1392 1395 1398 1401 1404 1407 1410 1413 1416 1419 1422 1425 1428 1431 1434 1437 1440 1443 1446 1449 1452 1455 1458 1461 1464 1467 1470 1473 1476 1479 1482 1485 1488 1491 1494 1497 1500 1503 1506 1509 1512 1515 1518 1521 1524 1527 1530 1533 1536 1539 1542 1545 1548 1551 1554 1557 1560 1563 1566 1569 1572 1575 1578 1581 1584 1587 1590 1593 1596 1599 1602 1605 1608 1611 1614 1616 1619 1622 1624 1627 1630 1632 1635 1638 1641 1644 1647 1650 1653 1656 1659 1662 1665 1668 1671 1673 1676 1679 1682 1685 1688 1690 1693 1696 1699 1702 1705 1708 1711 1714 1717 1720 1723 1726 1729 1732 1735 1738 1741 1744 1747 1750 1753 1756 1759 1762 1765 1768 1771 1774 1777 1780 1783 1786 1789 1792 1795 1798 1801 1804 1807 1810 1813 1816 1819 1822 1825 1828 1831 1834 1837 1840 1843 1846 1849 1852 1855 1858 1861 1864 1867 1870 1873 1876 1879 1882 1885 1888 1891 1894 1897 1900 1903 1906 1909 1912 1915 1918 1921 1924 1927 1930 1933 1936 1939 1942 1945 1948 1951 1954 1957 1960 1963 1966 1969 1972 1975 1978 1981 1984 1987 1990 1993 1996 1999 2002 2005 2008 2011 2014 2017 2020 2023 2026 2029 2032 2035 2038 2041 2044 2047 2050 2053 2056 2059 2062 2065 2068 2071 2074 2077 2080 2083 2086 2089 2092 2095 2098 2101 2104 2107 2110 2113 2116 2119 2122 2125 2128 2131 2134 2137 2140 2143 2146 2149 2152 2155 2158 2161 2164 2167 2170 2173 2176 2179 2182 2185 2188 2191 2194 2196 2199 2202 2205 2207 2210 2213 2215 2218 2221 2224 2227 2230 2233 2236 2239 2242 2245 2248 2250 2253 2256 2259 2262 2264 2267 2270 2273 2276 2279 2282 2285 2288 2291 2294 2297 2300 2303 2306 2309 2312 2315 2318 2321 2324 2327 2330 2333 2336 2339 2342 2345 2348 2351 2354 2357 2360 2363 2366 2369 2372 2375 2378 2381 2384 2387 2390 2393 2396 2399 2402 2405 2408 2411 2414 2417 2420 2423 2426 2429 2432 2435 2438 2440 2443 2446 2449 2452 2455 2458 2461 2464 2467 2470 2473 2476 2479 2482 2484 2487 2490 2492 2495 2497 2500 2503 2506 2509 2512 2515 2518 2521 2524 2527 2530 2533 2536 2538 2541 2544 2547 2550 2553 2556 2559 2562 2565 2568 2571 2574 2577 2580 2583 2586 2589 2592 2595 2598 2601 2604 2607 2610 2613 2616 2619 2622 2625 2628 2631 2634 2637 2640 2643 2646 2649 2652 2655 2658 2661 2664 2667 2670 2673 2676 2679 2682 2685 2688 2691 2694 2697 2700 2703 2706 2709 2712 2715 2718 2721 2724 2727 2730 2733 2736 2739 2742 2745 2748 2751 2754 2757 2760 2763 2766 2769 2772 2775 2778 2781 2784 2787 2790 2793 2796 2799 2802 2805 2808 2811 2814 2817 2820 2823 2826 2829 2832 2835 2838 2841 2844 2847 2850 2853 2856 2859 2862 2865 2868 2871 2874 2877 2880 2883 2886 2889 2892 2895 2898 2901 2904 2907 2910 2913 2916 2919 2922 2925 2928 2931 2934 2937 2940 2943 2946 2948 2951 2954 2956 2959 2961 2964 2967 2970 2973 2976 2979 2982 2985 2988 2991 2994 2997 3000 3003 3006 3009 3012 3015 3018 3021 3024 3027 3030 3033 3036 3039 3042 3045 3048 3051 3054 3057 3060 3063 3066 3069 3072 3075 3078 3081 3084 3087 3090 3093 3096 3099 3102 3104 3107 3110 3113 3116 3119 3121 3124 3127 3130 3133 3136 3139 3142 
</DataArray>
<DataArray type="UInt32" Name="types" format="ascii">
5 5 5 5 5 5 5 5 5 5 5 5 5 5 5 5 5 5 5 5 5 5 5 5 5 5 5 5 5 5 5 5 5 5 5 5 5 5 5 5 5 5 5 5 5 5 5 5 5 5 5 5 5 5 5 5 5 5 5 5 5 5 5 5 5 5 5 5 5 5 5 5 5 5 5 5 5 5 5 5 5 5 5 5 5 5 5 5 5 5 5 5 5 5 5 5 5 5 5 5 5 5 5 5 5 5 5 5 5 5 5 5 5 5 5 5 5 5 5 5 5 5 5 5 5 5 5 5 5 5 5 5 5 5 5 5 5 5 5 5 5 5 5 5 5 5 5 5 5 5 5 5 5 5 5 5 5 5 5 5 5 5 5 5 5 5 5 5 5 5 5 5 5 5 5 5 5 5 5 5 5 5 5 5 5 5 5 5 5 5 5 5 5 5 5 5 5 5 5 5 5 5 5 5 5 5 5 5 5 5 5 5 5 5 5 5 5 5 5 5 5 5 5 5 5 5 5 5 5 5 5 5 5 5 5 5 5 5 5 5 5 5 5 5 5 5 5 5 5 5 5 5 5 5 5 5 5 5 5 5 5 5 5 5 5 5 5 5 5 5 5 5 5 5 5 5 5 5 5 5 5 5 5 5 5 5 5 5 5 5 5 5 5 5 5 5 5 5 5 5 5 5 5 5 5 5 5 5 5 5 5 5 5 5 5 5 5 5 5 5 5 5 5 5 5 5 5 5 5 5 5 5 5 5 5 5 5 5 5 5 5 5 5 5 5 5 5 5 5 5 5 5 5 5 5 5 5 5 5 5 5 5 5 5 5 5 5 5 5 5 5 5 5 5 5 5 5 5 5 5 5 5 5 5 5 5 5 5 5 5 5 5 5 5 5 5 5 5 5 5 5 5 5 5 5 5 5 5 5 5 5 5 5 5 5 5 5 5 5 5 5 5 5 5 5 5 5 5 5 5 5 5 5 5 5 5 5 5 5 5 5 5 5 5 5 5 5 5 5 5 5 5 5 5 5 5 5 5 5 5 5 5 5 5 5 5 5 5 5 5 5 5 5 5 5 5 5 5 5 5 5 5 5 5 5 5 5 5 5 5 5 5 5 5 5 5 5 5 5 5 5 5 5 5 5 5 5 5 5 5 5 5 5 5 5 5 5 5 5 5 5 5 5 5 5 5 5 5 5 5 5 5 5 5 5 5 5 5 3 5 5 3 5 5 3 5 5 5 5 5 5 5 5 5 5 5 5 5 3 5 5 5 5 5 3 5 5 5 5 5 5 5 5 5 5 5 5 5 5 5 5 5 5 5 5 5 5 5 5 5 5 5 5 5 5 5 5 5 5 5 5 5 5 5 5 5 5 5 5 5 5 5 5 5 5 5 5 5 5 5 5 5 5 5 5 5 5 5 5 5 5 5 5 5 5 5 5 5 5 5 5 5 5 5 5 5 5 5 5 5 5 5 5 5 5 5 5 5 5 5 5 5 5 5 5 5 5 5 5 5 5 5 5 5 5 5 5 5 5 5 5 5 5 5 5 5 5 5 5 5 5 5 5 5 5 5 5 5 5 5 5 5 5 5 5 5 5 5 5 5 5 5 5 5 5 5 5 5 5 5 5 5 5 5 5 5 5 5 5 5 5 5 5 3 5 5 5 3 5 5 3 5 5 5 5 5 5 5 5 5 5 5 3 5 5 5 5 3 5 5 5 5 5 5 5 5 5 5 5 5 5 5 5 5 5 5 5 5 5 5 5 5 5 5 5 5 5 5 5 5 5 5 5 5 5 5 5 5 5 5 5 5 5 5 5 5 5 5 5 5 5 5 5 5 5 5 3 5 5 5 5 5 5 5 5 5 5 5 5 5 5 3 5 5 3 5 3 5 5 5 5 5 5 5 5 5 5 5 5 5 3 5 5 5 5 5 5 5 5 5 5 5 5 5 5 5 5 5 5 5 5 5 5 5 5 5 5 5 5 5 5 5 5 5 5 5 5 5 5 5 5 5 5 5 5 5 5 5 5 5 5 5 5 5 5 5 5 5 5 5 5 5 5 5 5 5 5 5 5 5 5 5 5 5 5 5 5 5 5 5 5 5 5 5 5 5 5 5 5 5 5 5 5 5 5 5 5 5 5 5 5 5 5 5 5 5 5 5 5 5 5 5 5 5 5 5 5 5 5 5 5 5 5 5 5 5 5 5 5 5 5 5 5 5 5 5 5 3 5 5 3 5 3 5 5 5 5 5 5 5 5 5 5 5 5 5 5 5 5 5 5 5 5 5 5 5 5 5 5 5 5 5 5 5 5 5 5 5 5 5 5 5 5 5 5 5 5 5 5 5 3 5 5 5 5 5 3 5 5 5 5 5 5 5 
</DataArray>
</Cells>
<PointData Scalars="" Vectors="displacement," Tensors="">
<DataArray type="Float64" Name="displacement" NumberOfComponents="3" format="ascii">
-0.00017401869584123206 -0.0002785633500038369 0 -3.6928595896213249e-07 -8.8597823467972255e-07 0 -4.6008682348135216e-08 -4.3741015520734215e-07 0 -0.00017401869584123206 -0.0002785633500038369 0 -3.6928595896213249e-07 -8.8597823467972255e-07 0 -0.00050085643016422763 -0.00071235516246583356 0 -0.00017401869584123206 -0.0002785633500038369 0 -4.6008682348135216e-08 -4.3741015520734215e-07 0 -0.00030059941306571225 -0.00048068007947394434 0 -0.00017401869584123206 -0.0002785633500038369 0 -0.00030059941306571225 -0.00048068007947394434 0 -0.00050085643016422763 -0.00071235516246583356 0 -0.00050085643016422763 -0.00071235516246583356 0 -0.00079226477149547437 -0.0012700753797277825 0 -0.00065027533225862802 -0.0011114671540676938 0 -0.00079226477149547437 -0.0012700753797277825 0 -0.00065027533225862802 -0.0011114671540676938 0 -0.001016638753696294 -0.0017798190981789831 0 -0.00030059941306571225 -0.00048068007947394434 0 -0.00065027533225862802 -0.0011114671540676938 0 -0.00046931697862114419 -0.0008879721472413168 0 -0.00030059941306571225 -0.00048068007947394434 0 -0.00050085643016422763 -0.00071235516246583356 0 -0.00065027533225862802 -0.0011114671540676938 0 -0.00065027533225862802 -0.0011114671540676938 0 -0.00046931697862114419 -0.0008879721472413168 0 -0.00077413966014071387 -0.001513582969459052 0 -0.00046931697862114419 -0.0008879721472413168 0 -0.00077413966014071387 -0.001513582969459052 0 -0.00058580405254816611 -0.0012606390938719203 0 -0.00046931697862114419 -0.0008879721472413168 0 -0.0004122631373243252 -0.00090516882545216141 0 -0.00058580405254816611 -0.0012606390938719203 0 -0.0004122631373243252 -0.00090516882545216141 0 -0.00058580405254816611 -0.0012606390938719203 0 -0.0005545514840459791 -0.0013799873897431482 0 -0.0004122631373243252 -0.00090516882545216141 0 -0.00021406442917525558 -0.00041719701560347019 0 -0.00023692804740512425 -0.00056556954615205309 0 -0.00046931697862114419 -0.0008879721472413168 0 -0.0004122631373243252 -0.00090516882545216141 0 -0.00021406442917525558 -0.00041719701560347019 0 -0.00021406442917525558 -0.00041719701560347019 0 -8.1234704131977286e-08 -4.5573145291579973e-07 0 -4.3889665579746599e-08 -4.1914635455756055e-07 0 -4.6008682348135216e-08 -4.3741015520734215e-07 0 -0.00030059941306571225 -0.00048068007947394434 0 -8.1234704131977286e-08 -4.5573145291579973e-07 0 -0.00030059941306571225 -0.00048068007947394434 0 -0.00021406442917525558 -0.00041719701560347019 0 -8.1234704131977286e-08 -4.5573145291579973e-07 0 -0.00030059941306571225 -0.00048068007947394434 0 -0.00046931697862114419 -0.0008879721472413168 0 -0.00021406442917525558 -0.00041719701560347019 0 -0.0011133873415208272 -0.0024222867112655656 0 -0.0011820441213610084 -0.0022738908290176468 0 -0.0013166301275011605 -0.0027630339191677205 0 -0.0011133873415208272 -0.0024222867112655656 0 -0.0011820441213610084 -0.0022738908290176468 0 -0.0010062216888663616 -0.0020053560802398862 0 -0.0011133873415208272 -0.0024222867112655656 0 -0.0010062216888663616 -0.0020053560802398862 0 -0.00090842904212814287 -0.0020466202631696287 0 -0.0010062216888663616 -0.0020053560802398862 0 -0.001016638753696294 -0.0017798190981789831 0 -0.00077413966014071387 -0.001513582969459052 0 -0.00065027533225862802 -0.0011114671540676938 0 -0.001016638753696294 -0.0017798190981789831 0 -0.00077413966014071387 -0.001513582969459052 0 -0.0010062216888663616 -0.0020053560802398862 0 -0.00077413966014071387 -0.001513582969459052 0 -0.00090842904212814287 -0.0020466202631696287 0 -0.0011820441213610084 -0.0022738908290176468 0 -0.0010062216888663616 -0.0020053560802398862 0 -0.001016638753696294 -0.0017798190981789831 0 -0.00077413966014071387 -0.001513582969459052 0 -0.00058580405254816611 -0.0012606390938719203 0 -0.00071580883905739525 -0.0016285336740924936 0 -0.00058580405254816611 -0.0012606390938719203 0 -0.00071580883905739525 -0.0016285336740924936 0 -0.0005545514840459791 -0.0013799873897431482 0 -0.00077413966014071387 -0.001513582969459052 0 -0.00071580883905739525 -0.0016285336740924936 0 -0.00090842904212814287 -0.0020466202631696287 0 -0.00090842904212814287 -0.0020466202631696287 0 -0.00099243930080886145 -0.0024854460106657535 0 -0.00074884496606666387 -0.0019671948077108407 0 -0.00071580883905739525 -0.0016285336740924936 0 -0.00090842904212814287 -0.0020466202631696287 0 -0.00074884496606666387 -0.0019671948077108407 0 -0.0011133873415208272 -0.0024222867112655656 0 -0.00090842904212814287 -0.0020466202631696287 0 -0.00099243930080886145 -0.0024854460106657535 0 -0.0011133873415208272 -0.0024222867112655656 0 -0.00099243930080886145 -0.0024854460106657535 0 -0.0012109700885558315 -0.0028941903513131331 0 -0.00099243930080886145 -0.0024854460106657535 0 -0.0008371768089091156 -0.0023714109459979345 0 -0.00074884496606666387 -0.0019671948077108407 0 -0.00071214823180661125 -0.0022176139941660639 0 -0.0008371768089091156 -0.0023714109459979345 0 -0.00074884496606666387 -0.0019671948077108407 0 -0.00071214823180661125 -0.0022176139941660639 0 -0.00074884496606666387 -0.0019671948077108407 0 -0.00058748996754267907 -0.001748245441625064 0 -0.00058748996754267907 -0.001748245441625064 0 -0.0005545514840459791 -0.0013799873897431482 0 -0.00044383542716508792 -0.0012909900215107419 0 -0.00071580883905739525 -0.0016285336740924936 0 -0.00074884496606666387 -0.0019671948077108407 0 -0.0005545514840459791 -0.0013799873897431482 0 -0.00074884496606666387 -0.0019671948077108407 0 -0.00058748996754267907 -0.001748245441625064 0 -0.0005545514840459791 -0.0013799873897431482 0 -0.0005545514840459791 -0.0013799873897431482 0 -0.00044383542716508792 -0.0012909900215107419 0 -0.00037083012186136356 -0.00095231137544049939 0 -0.00044383542716508792 -0.0012909900215107419 0 -0.00032959392177555122 -0.0011416653703897198 0 -0.00048045424758289972 -0.0016284441926183914 0 -0.00032959392177555122 -0.0011416653703897198 0 -0.00048045424758289972 -0.0016284441926183914 0 -0.00035353534671936577 -0.0013904354858276242 0 -0.00048045424758289972 -0.0016284441926183914 0 -0.00035353534671936577 -0.0013904354858276242 0 -0.00041331353327314087 -0.0017062436846560409 0 -0.00058748996754267907 -0.001748245441625064 0 -0.00044383542716508792 -0.0012909900215107419 0 -0.00048045424758289972 -0.0016284441926183914 0 -0.00071214823180661125 -0.0022176139941660639 0 -0.00058748996754267907 -0.001748245441625064 0 -0.00056404869418750483 -0.0020234721942341267 0 -0.00058748996754267907 -0.001748245441625064 0 -0.00048045424758289972 -0.0016284441926183914 0 -0.00056404869418750483 -0.0020234721942341267 0 -0.00048045424758289972 -0.0016284441926183914 0 -0.00056404869418750483 -0.0020234721942341267 0 -0.00041331353327314087 -0.0017062436846560409 0 -0.00056404869418750483 -0.0020234721942341267 0 -0.00057298912808087749 -0.0023395603685204946 0 -0.00069802317590165206 -0.0024977121085045855 0 -0.00071214823180661125 -0.0022176139941660639 0 -0.00056404869418750483 -0.0020234721942341267 0 -0.00069802317590165206 -0.0024977121085045855 0 -0.00011871472905105203 -0.00033536830142702831 0 -4.3889665579746599e-08 -4.1914635455756055e-07 0 -0.00023692804740512425 -0.00056556954615205309 0 -0.00011871472905105203 -0.00033536830142702831 0 -0.00023692804740512425 -0.00056556954615205309 0 -0.00025070243395318599 -0.00075548490038840756 0 -0.00011871472905105203 -0.00033536830142702831 0 -4.3889665579746599e-08 -4.1914635455756055e-07 0 -4.7866678144221571e-08 -4.2017998911380571e-07 0 -0.00021406442917525558 -0.00041719701560347019 0 -4.3889665579746599e-08 -4.1914635455756055e-07 0 -0.00023692804740512425 -0.00056556954615205309 0 -0.0004122631373243252 -0.00090516882545216141 0 -0.00023692804740512425 -0.00056556954615205309 0 -0.00037083012186136356 -0.00095231137544049939 0 -0.0004122631373243252 -0.00090516882545216141 0 -0.0005545514840459791 -0.0013799873897431482 0 -0.00037083012186136356 -0.00095231137544049939 0 -0.00044383542716508792 -0.0012909900215107419 0 -0.00037083012186136356 -0.00095231137544049939 0 -0.00025070243395318599 -0.00075548490038840756 0 -0.00023692804740512425 -0.00056556954615205309 0 -0.00037083012186136356 -0.00095231137544049939 0 -0.00025070243395318599 -0.00075548490038840756 0 -0.00044383542716508792 -0.0012909900215107419 0 -0.00032959392177555122 -0.0011416653703897198 0 -0.00025070243395318599 -0.00075548490038840756 0 -0.00032959392177555122 -0.0011416653703897198 0 -0.00025070243395318599 -0.00075548490038840756 0 -0.00020588333204125768 -0.00076262145515030829 0 -0.00032959392177555122 -0.0011416653703897198 0 -0.00020588333204125768 -0.00076262145515030829 0 -0.00023124174411781026 -0.0010074440649453544 0 -0.00025070243395318599 -0.00075548490038840756 0 -0.00020588333204125768 -0.00076262145515030829 0 -0.00010848994647925392 -0.00038709200879313258 0 -0.00020588333204125768 -0.00076262145515030829 0 -0.00010848994647925392 -0.00038709200879313258 0 -0.00010828483196744587 -0.00049941120657345578 0 -0.00011871472905105203 -0.00033536830142702831 0 -0.00025070243395318599 -0.00075548490038840756 0 -0.00010848994647925392 -0.00038709200879313258 0 -0.00011871472905105203 -0.00033536830142702831 0 -0.00010848994647925392 -0.00038709200879313258 0 -4.7866678144221571e-08 -4.2017998911380571e-07 0 -0.00010848994647925392 -0.00038709200879313258 0 -4.7866678144221571e-08 -4.2017998911380571e-07 0 -3.9423581474089725e-08 -4.0789566498309327e-07 0 -3.9423581474089725e-08 -4.0789566498309327e-07 0 -0.00010828483196744587 -0.00049941120657345578 0 -1.183632484937455e-08 -3.95777277239648e-07 0 -0.00010848994647925392 -0.00038709200879313258 0 -3.9423581474089725e-08 -4.0789566498309327e-07 0 -0.00010828483196744587 -0.00049941120657345578 0 -0.00010828483196744587 -0.00049941120657345578 0 -1.183632484937455e-08 -3.95777277239648e-07 0 -5.6205764858993965e-05 -0.00037044622268370088 0 -1.183632484937455e-08 -3.95777277239648e-07 0 -5.6205764858993965e-05 -0.00037044622268370088 0 -1.2733877202663689e-08 -3.8973553593993404e-07 0 -5.6205764858993965e-05 -0.00037044622268370088 0 -2.7048587733876798e-05 -0.00028097931340061188 0 -8.1311597758129664e-05 -0.00068429489470637746 0 -2.7048587733876798e-05 -0.00028097931340061188 0 -8.1311597758129664e-05 -0.00068429489470637746 0 -2.2851531577603779e-05 -0.00044269892923202043 0 -5.6205764858993965e-05 -0.00037044622268370088 0 -2.7048587733876798e-05 -0.00028097931340061188 0 -1.2733877202663689e-08 -3.8973553593993404e-07 0 -2.7048587733876798e-05 -0.00028097931340061188 0 -1.2733877202663689e-08 -3.8973553593993404e-07 0 9.382647808856774e-10 -3.7430420783511744e-07 0 -8.1311597758129664e-05 -0.00068429489470637746 0 -0.00014620053259773857 -0.001150227198526249 0 -6.287074036036595e-05 -0.00088625099161603158 0 -8.1311597758129664e-05 -0.00068429489470637746 0 -0.00017229963744968437 -0.0010146743890853977 0 -0.00014620053259773857 -0.001150227198526249 0 -5.6205764858993965e-05 -0.00037044622268370088 0 -8.1311597758129664e-05 -0.00068429489470637746 0 -0.00012437449758940673 -0.00070408892862095038 0 -8.1311597758129664e-05 -0.00068429489470637746 0 -0.00017229963744968437 -0.0010146743890853977 0 -0.00012437449758940673 -0.00070408892862095038 0 -0.00017229963744968437 -0.0010146743890853977 0 -0.00012437449758940673 -0.00070408892862095038 0 -0.00023124174411781026 -0.0010074440649453544 0 -0.00010828483196744587 -0.00049941120657345578 0 -5.6205764858993965e-05 -0.00037044622268370088 0 -0.00012437449758940673 -0.00070408892862095038 0 -0.00010828483196744587 -0.00049941120657345578 0 -0.00012437449758940673 -0.00070408892862095038 0 -0.00023124174411781026 -0.0010074440649453544 0 -0.00020588333204125768 -0.00076262145515030829 0 -0.00010828483196744587 -0.00049941120657345578 0 -0.00023124174411781026 -0.0010074440649453544 0 -0.00032959392177555122 -0.0011416653703897198 0 -0.00023124174411781026 -0.0010074440649453544 0 -0.00035353534671936577 -0.0013904354858276242 0 -0.00023124174411781026 -0.0010074440649453544 0 -0.00035353534671936577 -0.0013904354858276242 0 -0.00028721684703682585 -0.0013626703734436996 0 -0.00035353534671936577 -0.0013904354858276242 0 -0.00028721684703682585 -0.0013626703734436996 0 -0.00041331353327314087 -0.0017062436846560409 0 -0.00028721684703682585 -0.0013626703734436996 0 -0.0003302030075528339 -0.0017082642564085922 0 -0.00023309244306003016 -0.001372142180294502 0 -0.00028721684703682585 -0.0013626703734436996 0 -0.00041331353327314087 -0.0017062436846560409 0 -0.0003302030075528339 -0.0017082642564085922 0 -0.00017229963744968437 -0.0010146743890853977 0 -0.00023124174411781026 -0.0010074440649453544 0 -0.00028721684703682585 -0.0013626703734436996 0 -0.00056404869418750483 -0.0020234721942341267 0 -0.00045523127473094443 -0.0020360791817768237 0 -0.00057298912808087749 -0.0023395603685204946 0 -0.00056404869418750483 -0.0020234721942341267 0 -0.00045523127473094443 -0.0020360791817768237 0 -0.00041331353327314087 -0.0017062436846560409 0 -0.00045523127473094443 -0.0020360791817768237 0 -0.00041331353327314087 -0.0017062436846560409 0 -0.0003302030075528339 -0.0017082642564085922 0 -0.00045523127473094443 -0.0020360791817768237 0 -0.00035321437180575011 -0.002047834805129193 0 -0.00050315224669481994 -0.002408764188170702 0 -0.00045523127473094443 -0.0020360791817768237 0 -0.00035321437180575011 -0.002047834805129193 0 -0.0003302030075528339 -0.0017082642564085922 0 -0.00035321437180575011 -0.002047834805129193 0 -0.0003302030075528339 -0.0017082642564085922 0 -0.00023184805278055569 -0.0015740073128262609 0 -0.00035321437180575011 -0.002047834805129193 0 -0.00023184805278055569 -0.0015740073128262609 0 -0.00023020681185170066 -0.0018295977416249321 0 -0.00035321437180575011 -0.002047834805129193 0 -0.00023020681185170066 -0.0018295977416249321 0 -0.00032987709016307065 -0.0022989458710565179 0 -0.00017229963744968437 -0.0010146743890853977 0 -0.00028721684703682585 -0.0013626703734436996 0 -0.00023309244306003016 -0.001372142180294502 0 -0.00017229963744968437 -0.0010146743890853977 0 -0.00023309244306003016 -0.001372142180294502 0 -0.00014620053259773857 -0.001150227198526249 0 -0.0003302030075528339 -0.0017082642564085922 0 -0.00023309244306003016 -0.001372142180294502 0 -0.00023184805278055569 -0.0015740073128262609 0 -0.00023184805278055569 -0.0015740073128262609 0 -0.00014620053259773857 -0.001150227198526249 0 -0.00013049114131694387 -0.0013550840391260653 0 -0.00023309244306003016 -0.001372142180294502 0 -0.00023184805278055569 -0.0015740073128262609 0 -0.00014620053259773857 -0.001150227198526249 0 -0.00014620053259773857 -0.001150227198526249 0 -0.00013049114131694387 -0.0013550840391260653 0 -6.287074036036595e-05 -0.00088625099161603158 0 -0.00013049114131694387 -0.0013550840391260653 0 -0.0001226643991594395 -0.0016166540073772908 0 -3.1968216034749093e-05 -0.0010944814132028415 0 -0.00013049114131694387 -0.0013550840391260653 0 -3.1968216034749093e-05 -0.0010944814132028415 0 -6.287074036036595e-05 -0.00088625099161603158 0 -0.00023020681185170066 -0.0018295977416249321 0 -0.0002269771537521962 -0.0020813202896042583 0 -0.00032987709016307065 -0.0022989458710565179 0 -0.00023184805278055569 -0.0015740073128262609 0 -0.00013049114131694387 -0.0013550840391260653 0 -0.00023020681185170066 -0.0018295977416249321 0 -0.00013049114131694387 -0.0013550840391260653 0 -0.00023020681185170066 -0.0018295977416249321 0 -0.0001226643991594395 -0.0016166540073772908 0 -0.00023020681185170066 -0.0018295977416249321 0 -0.0001226643991594395 -0.0016166540073772908 0 -0.0002269771537521962 -0.0020813202896042583 0 -0.0001226643991594395 -0.0016166540073772908 0 -0.0001024223240705586 -0.0018266282466027359 0 -0.0002269771537521962 -0.0020813202896042583 0 -0.0001226643991594395 -0.0016166540073772908 0 -0.0001024223240705586 -0.0018266282466027359 0 -2.3618138212656275e-05 -0.0014436630891357433 0 -2.3618138212656275e-05 -0.0014436630891357433 0 5.3547415799046155e-05 -0.0012118939208772977 0 2.6198901306215177e-05 -0.0015351961586365973 0 -0.0001024223240705586 -0.0018266282466027359 0 -2.3618138212656275e-05 -0.0014436630891357433 0 2.6198901306215177e-05 -0.0015351961586365973 0 -0.0001024223240705586 -0.0018266282466027359 0 -6.9392943878544066e-05 -0.0019559809401478406 0 2.6198901306215177e-05 -0.0015351961586365973 0 -3.1968216034749093e-05 -0.0010944814132028415 0 -2.3618138212656275e-05 -0.0014436630891357433 0 2.0286234400927093e-05 -0.0010599607201303011 0 -0.0001226643991594395 -0.0016166540073772908 0 -3.1968216034749093e-05 -0.0010944814132028415 0 -2.3618138212656275e-05 -0.0014436630891357433 0 -2.3618138212656275e-05 -0.0014436630891357433 0 2.0286234400927093e-05 -0.0010599607201303011 0 5.3547415799046155e-05 -0.0012118939208772977 0 -3.1968216034749093e-05 -0.0010944814132028415 0 2.0286234400927093e-05 -0.0010599607201303011 0 2.5164399297351655e-05 -0.0006849938780459883 0 2.0286234400927093e-05 -0.0010599607201303011 0 2.5164399297351655e-05 -0.0006849938780459883 0 5.0652857161674303e-05 -0.00086192014643314378 0 -3.1968216034749093e-05 -0.0010944814132028415 0 2.5164399297351655e-05 -0.0006849938780459883 0 -5.199448877986468e-06 -0.00061061830402434102 0 2.5164399297351655e-05 -0.0006849938780459883 0 1.6957423720427404e-05 -0.00031982221238049935 0 -5.199448877986468e-06 -0.00061061830402434102 0 2.5164399297351655e-05 -0.0006849938780459883 0 1.6957423720427404e-05 -0.00031982221238049935 0 4.1492311622367303e-05 -0.0004111345470249122 0 1.6957423720427404e-05 -0.00031982221238049935 0 1.2109857599886147e-08 -3.4684743670961099e-07 0 4.1492311622367303e-05 -0.0004111345470249122 0 1.6957423720427404e-05 -0.00031982221238049935 0 1.2109857599886147e-08 -3.4684743670961099e-07 0 4.8699888840983086e-09 -3.6513718194855651e-07 0 1.6957423720427404e-05 -0.00031982221238049935 0 4.8699888840983086e-09 -3.6513718194855651e-07 0 7.9418367290220371e-07 -0.0002804454042825806 0 1.6957423720427404e-05 -0.00031982221238049935 0 7.9418367290220371e-07 -0.0002804454042825806 0 -5.199448877986468e-06 -0.00061061830402434102 0 7.9418367290220371e-07 -0.0002804454042825806 0 9.382647808856774e-10 -3.7430420783511744e-07 0 -2.2851531577603779e-05 -0.00044269892923202043 0 7.9418367290220371e-07 -0.0002804454042825806 0 -2.2851531577603779e-05 -0.00044269892923202043 0 -5.199448877986468e-06 -0.00061061830402434102 0 4.8699888840983086e-09 -3.6513718194855651e-07 0 7.9418367290220371e-07 -0.0002804454042825806 0 9.382647808856774e-10 -3.7430420783511744e-07 0 -2.7048587733876798e-05 -0.00028097931340061188 0 9.382647808856774e-10 -3.7430420783511744e-07 0 -2.2851531577603779e-05 -0.00044269892923202043 0 -8.1311597758129664e-05 -0.00068429489470637746 0 -2.2851531577603779e-05 -0.00044269892923202043 0 -6.287074036036595e-05 -0.00088625099161603158 0 -3.1968216034749093e-05 -0.0010944814132028415 0 -6.287074036036595e-05 -0.00088625099161603158 0 -5.199448877986468e-06 -0.00061061830402434102 0 -2.2851531577603779e-05 -0.00044269892923202043 0 -6.287074036036595e-05 -0.00088625099161603158 0 -5.199448877986468e-06 -0.00061061830402434102 0 -0.00030925546693633588 -0.0033468731955531455 0 -0.00039395268646481033 -0.0036568433248783143 0 -0.00025652637648177509 -0.0037371532299819549 0 -0.00030925546693633588 -0.0033468731955531455 0 -0.00040805102210410732 -0.003321696850686116 0 -0.00039395268646481033 -0.0036568433248783143 0 -0.00030925546693633588 -0.0033468731955531455 0 -0.00040805102210410732 -0.003321696850686116 0 -0.00035632245563545093 -0.002933941642779242 0 -0.00039395268646481033 -0.0036568433248783143 0 -0.00038357492087726764 -0.0040939145731803067 0 -0.00025652637648177509 -0.0037371532299819549 0 -0.00038357492087726764 -0.0040939145731803067 0 -0.00022928820817265825 -0.0042643205068392124 0 -0.00042985068878877408 -0.0045600354551961295 0 -0.00038357492087726764 -0.0040939145731803067 0 -0.00022928820817265825 -0.0042643205068392124 0 -0.00025652637648177509 -0.0037371532299819549 0 -0.00022928820817265825 -0.0042643205068392124 0 -0.00025652637648177509 -0.0037371532299819549 0 -0.00015482032765447043 -0.0039567814104048624 0 -0.00025652637648177509 -0.0037371532299819549 0 -0.00015482032765447043 -0.0039567814104048624 0 -0.00010170790710681103 -0.003702162021863882 0 -0.00022928820817265825 -0.0042643205068392124 0 -0.00015482032765447043 -0.0039567814104048624 0 -4.8179209013473725e-05 -0.0041302387592635518 0 -0.00015482032765447043 -0.0039567814104048624 0 -4.8179209013473725e-05 -0.0041302387592635518 0 -0.00010170790710681103 -0.003702162021863882 0 -0.00010170790710681103 -0.003702162021863882 0 -0.00019821328583271951 -0.0033293337611212648 0 -8.2098355937420189e-05 -0.0033441116393460994 0 -0.00025652637648177509 -0.0037371532299819549 0 -0.00010170790710681103 -0.003702162021863882 0 -0.00019821328583271951 -0.0033293337611212648 0 -0.00030925546693633588 -0.0033468731955531455 0 -0.00025652637648177509 -0.0037371532299819549 0 -0.00019821328583271951 -0.0033293337611212648 0 -0.00030925546693633588 -0.0033468731955531455 0 -0.00019821328583271951 -0.0033293337611212648 0 -0.00027954974918826327 -0.0029897445286664946 0 -0.00019821328583271951 -0.0033293337611212648 0 -0.0001807516896039568 -0.0029484982830355376 0 -8.2098355937420189e-05 -0.0033441116393460994 0 -0.0001807516896039568 -0.0029484982830355376 0 -0.00026774811703725375 -0.0026384569104518718 0 -0.00024186545078210583 -0.0024400670266524174 0 -0.0001807516896039568 -0.0029484982830355376 0 -0.00026774811703725375 -0.0026384569104518718 0 -0.00027954974918826327 -0.0029897445286664946 0 -0.00026774811703725375 -0.0026384569104518718 0 -0.00027954974918826327 -0.0029897445286664946 0 -0.00031478622880539071 -0.0025707796012348983 0 -0.00019821328583271951 -0.0033293337611212648 0 -0.0001807516896039568 -0.0029484982830355376 0 -0.00027954974918826327 -0.0029897445286664946 0 -6.9392943878544066e-05 -0.0019559809401478406 0 -0.00022546220615911818 -0.0022909651048717374 0 -0.00024186545078210583 -0.0024400670266524174 0 -0.0001024223240705586 -0.0018266282466027359 0 -6.9392943878544066e-05 -0.0019559809401478406 0 -0.00022546220615911818 -0.0022909651048717374 0 -0.00026774811703725375 -0.0026384569104518718 0 -0.00022546220615911818 -0.0022909651048717374 0 -0.00024186545078210583 -0.0024400670266524174 0 -0.00026774811703725375 -0.0026384569104518718 0 -0.00022546220615911818 -0.0022909651048717374 0 -0.00031478622880539071 -0.0025707796012348983 0 -0.0001024223240705586 -0.0018266282466027359 0 -0.00022546220615911818 -0.0022909651048717374 0 -0.0002269771537521962 -0.0020813202896042583 0 -0.00022546220615911818 -0.0022909651048717374 0 -0.0002269771537521962 -0.0020813202896042583 0 -0.00031478622880539071 -0.0025707796012348983 0 -0.0002269771537521962 -0.0020813202896042583 0 -0.00031478622880539071 -0.0025707796012348983 0 -0.00032987709016307065 -0.0022989458710565179 0 -0.00031478622880539071 -0.0025707796012348983 0 -0.00032987709016307065 -0.0022989458710565179 0 -0.00040909625134166885 -0.0027207429209275291 0 -0.00030925546693633588 -0.0033468731955531455 0 -0.00027954974918826327 -0.0029897445286664946 0 -0.00035632245563545093 -0.002933941642779242 0 -0.00027954974918826327 -0.0029897445286664946 0 -0.00031478622880539071 -0.0025707796012348983 0 -0.00035632245563545093 -0.002933941642779242 0 -0.00031478622880539071 -0.0025707796012348983 0 -0.00035632245563545093 -0.002933941642779242 0 -0.00040909625134166885 -0.0027207429209275291 0 -0.00035632245563545093 -0.002933941642779242 0 -0.00040909625134166885 -0.0027207429209275291 0 -0.000517165301887357 -0.0032027270829772712 0 -0.00040805102210410732 -0.003321696850686116 0 -0.00035632245563545093 -0.002933941642779242 0 -0.000517165301887357 -0.0032027270829772712 0 -0.00040909625134166885 -0.0027207429209275291 0 -0.00049879425700443086 -0.0028596856949220997 0 -0.000517165301887357 -0.0032027270829772712 0 -0.00049879425700443086 -0.0028596856949220997 0 -0.000517165301887357 -0.0032027270829772712 0 -0.00059662902322533257 -0.003125950421525121 0 -0.00035321437180575011 -0.002047834805129193 0 -0.00032987709016307065 -0.0022989458710565179 0 -0.00043815918427420286 -0.0025118951569801894 0 -0.00032987709016307065 -0.0022989458710565179 0 -0.00040909625134166885 -0.0027207429209275291 0 -0.00043815918427420286 -0.0025118951569801894 0 -0.00040909625134166885 -0.0027207429209275291 0 -0.00049879425700443086 -0.0028596856949220997 0 -0.00043815918427420286 -0.0025118951569801894 0 -0.00049879425700443086 -0.0028596856949220997 0 -0.00043815918427420286 -0.0025118951569801894 0 -0.00056151553945394501 -0.0027945436384453483 0 -0.00035321437180575011 -0.002047834805129193 0 -0.00043815918427420286 -0.0025118951569801894 0 -0.00050315224669481994 -0.002408764188170702 0 -0.00043815918427420286 -0.0025118951569801894 0 -0.00050315224669481994 -0.002408764188170702 0 -0.00056151553945394501 -0.0027945436384453483 0 -0.00050315224669481994 -0.002408764188170702 0 -0.00056151553945394501 -0.0027945436384453483 0 -0.00066511137550346623 -0.0027512578920497132 0 -0.00050315224669481994 -0.002408764188170702 0 -0.00057298912808087749 -0.0023395603685204946 0 -0.00066511137550346623 -0.0027512578920497132 0 -0.00045523127473094443 -0.0020360791817768237 0 -0.00050315224669481994 -0.002408764188170702 0 -0.00057298912808087749 -0.0023395603685204946 0 -0.000517165301887357 -0.0032027270829772712 0 -0.00059662902322533257 -0.003125950421525121 0 -0.00068276491209714465 -0.003492681765023676 0 -0.00049879425700443086 -0.0028596856949220997 0 -0.00059662902322533257 -0.003125950421525121 0 -0.00056151553945394501 -0.0027945436384453483 0 -0.00059662902322533257 -0.003125950421525121 0 -0.00056151553945394501 -0.0027945436384453483 0 -0.00068803766116557862 -0.0031362485643844627 0 -0.00056151553945394501 -0.0027945436384453483 0 -0.00068803766116557862 -0.0031362485643844627 0 -0.00066511137550346623 -0.0027512578920497132 0 -0.00059662902322533257 -0.003125950421525121 0 -0.00068803766116557862 -0.0031362485643844627 0 -0.00068276491209714465 -0.003492681765023676 0 -0.00068803766116557862 -0.0031362485643844627 0 -0.00068276491209714465 -0.003492681765023676 0 -0.00083864451399772431 -0.0034725507826699614 0 -0.00068276491209714465 -0.003492681765023676 0 -0.000693313434243584 -0.0039471387090248026 0 -0.00083423571662410577 -0.0038550208925146111 0 -0.000693313434243584 -0.0039471387090248026 0 -0.00082871723421890716 -0.0042926922437381033 0 -0.00083423571662410577 -0.0038550208925146111 0 -0.00068276491209714465 -0.003492681765023676 0 -0.000693313434243584 -0.0039471387090248026 0 -0.00058758449510957871 -0.0036243913040106658 0 -0.000517165301887357 -0.0032027270829772712 0 -0.00068276491209714465 -0.003492681765023676 0 -0.00058758449510957871 -0.0036243913040106658 0 -0.000517165301887357 -0.0032027270829772712 0 -0.00058758449510957871 -0.0036243913040106658 0 -0.00048843275675681467 -0.0035471285770845807 0 -0.00058758449510957871 -0.0036243913040106658 0 -0.00048843275675681467 -0.0035471285770845807 0 -0.00053517738034433216 -0.0039437330468159422 0 -0.000693313434243584 -0.0039471387090248026 0 -0.00058758449510957871 -0.0036243913040106658 0 -0.00053517738034433216 -0.0039437330468159422 0 -0.00039395268646481033 -0.0036568433248783143 0 -0.00048843275675681467 -0.0035471285770845807 0 -0.00053517738034433216 -0.0039437330468159422 0 -0.00040805102210410732 -0.003321696850686116 0 -0.00039395268646481033 -0.0036568433248783143 0 -0.00048843275675681467 -0.0035471285770845807 0 -0.00040805102210410732 -0.003321696850686116 0 -0.000517165301887357 -0.0032027270829772712 0 -0.00048843275675681467 -0.0035471285770845807 0 -0.00038357492087726764 -0.0040939145731803067 0 -0.00053291649404862962 -0.0043381770629834851 0 -0.00042985068878877408 -0.0045600354551961295 0 -0.00038357492087726764 -0.0040939145731803067 0 -0.00053291649404862962 -0.0043381770629834851 0 -0.00053517738034433216 -0.0039437330468159422 0 -0.00039395268646481033 -0.0036568433248783143 0 -0.00038357492087726764 -0.0040939145731803067 0 -0.00053517738034433216 -0.0039437330468159422 0 -0.000693313434243584 -0.0039471387090248026 0 -0.00053517738034433216 -0.0039437330468159422 0 -0.00066617125177260148 -0.0043182736089353597 0 -0.00053291649404862962 -0.0043381770629834851 0 -0.00066617125177260148 -0.0043182736089353597 0 -0.00064041764245659173 -0.0047865390132847572 0 -0.00053291649404862962 -0.0043381770629834851 0 -0.00053517738034433216 -0.0039437330468159422 0 -0.00066617125177260148 -0.0043182736089353597 0 -0.00066617125177260148 -0.0043182736089353597 0 -0.00082871723421890716 -0.0042926922437381033 0 -0.00080476967324070038 -0.0047106674780998817 0 -0.000693313434243584 -0.0039471387090248026 0 -0.00066617125177260148 -0.0043182736089353597 0 -0.00082871723421890716 -0.0042926922437381033 0 -0.00082871723421890716 -0.0042926922437381033 0 -0.00094665411951875796 -0.0046827185096978254 0 -0.00080476967324070038 -0.0047106674780998817 0 -0.00094665411951875796 -0.0046827185096978254 0 -0.001077254178912853 -0.0046172466900750537 0 -0.00093910391192158853 -0.0042518912156089706 0 -0.001077254178912853 -0.0046172466900750537 0 -0.00093910391192158853 -0.0042518912156089706 0 -0.0010104457698557896 -0.0040941030563189885 0 -0.00082871723421890716 -0.0042926922437381033 0 -0.00093910391192158853 -0.0042518912156089706 0 -0.00083423571662410577 -0.0038550208925146111 0 -0.00082871723421890716 -0.0042926922437381033 0 -0.00094665411951875796 -0.0046827185096978254 0 -0.00093910391192158853 -0.0042518912156089706 0 -0.00068276491209714465 -0.003492681765023676 0 -0.00083423571662410577 -0.0038550208925146111 0 -0.00083864451399772431 -0.0034725507826699614 0 -0.0010104457698557896 -0.0040941030563189885 0 -0.0010428517879197071 -0.003776053370927564 0 -0.00083864451399772431 -0.0034725507826699614 0 -0.00083423571662410577 -0.0038550208925146111 0 -0.0010104457698557896 -0.0040941030563189885 0 -0.00083864451399772431 -0.0034725507826699614 0 -0.00093910391192158853 -0.0042518912156089706 0 -0.00083423571662410577 -0.0038550208925146111 0 -0.0010104457698557896 -0.0040941030563189885 0 -0.0010104457698557896 -0.0040941030563189885 0 -0.0011937379541706661 -0.0042158366368908158 0 -0.0011816111208537905 -0.0045263549685656988 0 -0.0010104457698557896 -0.0040941030563189885 0 -0.0010428517879197071 -0.003776053370927564 0 -0.0011937379541706661 -0.0042158366368908158 0 -0.0010428517879197071 -0.003776053370927564 0 -0.0011937379541706661 -0.0042158366368908158 0 -0.001220340695437806 -0.0039020281970712349 0 -0.0011937379541706661 -0.0042158366368908158 0 -0.0011816111208537905 -0.0045263549685656988 0 -0.0013408676025583968 -0.0046538638808695338 0 -0.0011816111208537905 -0.0045263549685656988 0 -0.0013408676025583968 -0.0046538638808695338 0 -0.0013940642561628852 -0.0050914881229477387 0 -0.0011816111208537905 -0.0045263549685656988 0 -0.0013940642561628852 -0.0050914881229477387 0 -0.0012349548415608394 -0.0049841287645497898 0 -0.001077254178912853 -0.0046172466900750537 0 -0.0011816111208537905 -0.0045263549685656988 0 -0.0012349548415608394 -0.0049841287645497898 0 -0.001077254178912853 -0.0046172466900750537 0 -0.0010104457698557896 -0.0040941030563189885 0 -0.0011816111208537905 -0.0045263549685656988 0 -0.00057298912808087749 -0.0023395603685204946 0 -0.00069802317590165206 -0.0024977121085045855 0 -0.00066511137550346623 -0.0027512578920497132 0 -0.00069802317590165206 -0.0024977121085045855 0 -0.00066511137550346623 -0.0027512578920497132 0 -0.00082278548500612991 -0.0029766916436294141 0 -0.00069802317590165206 -0.0024977121085045855 0 -0.00082278548500612991 -0.0029766916436294141 0 -0.00084202117958917522 -0.0026911513889246001 0 -0.00082278548500612991 -0.0029766916436294141 0 -0.00076926854828552986 -0.0031161404610396204 0 -0.00092318622296746577 -0.0033749852239824958 0 -0.00066511137550346623 -0.0027512578920497132 0 -0.00082278548500612991 -0.0029766916436294141 0 -0.00076926854828552986 -0.0031161404610396204 0 -0.00068803766116557862 -0.0031362485643844627 0 -0.00066511137550346623 -0.0027512578920497132 0 -0.00076926854828552986 -0.0031161404610396204 0 -0.00068803766116557862 -0.0031362485643844627 0 -0.00076926854828552986 -0.0031161404610396204 0 -0.00083864451399772431 -0.0034725507826699614 0 -0.00076926854828552986 -0.0031161404610396204 0 -0.00083864451399772431 -0.0034725507826699614 0 -0.00092318622296746577 -0.0033749852239824958 0 -0.0010428517879197071 -0.003776053370927564 0 -0.00083864451399772431 -0.0034725507826699614 0 -0.00092318622296746577 -0.0033749852239824958 0 -0.0010428517879197071 -0.003776053370927564 0 -0.00092318622296746577 -0.0033749852239824958 0 -0.0010266312123920057 -0.0032833765167468516 0 -0.0010428517879197071 -0.003776053370927564 0 -0.0010266312123920057 -0.0032833765167468516 0 -0.001220340695437806 -0.0039020281970712349 0 -0.00082278548500612991 -0.0029766916436294141 0 -0.00092318622296746577 -0.0033749852239824958 0 -0.0010266312123920057 -0.0032833765167468516 0 -0.00082278548500612991 -0.0029766916436294141 0 -0.0010266312123920057 -0.0032833765167468516 0 -0.00084202117958917522 -0.0026911513889246001 0 -0.0010266312123920057 -0.0032833765167468516 0 -0.00084202117958917522 -0.0026911513889246001 0 -0.00095849700127871508 -0.0026914926703762638 0 -0.0008371768089091156 -0.0023714109459979345 0 -0.00084202117958917522 -0.0026911513889246001 0 -0.00095849700127871508 -0.0026914926703762638 0 -0.00071214823180661125 -0.0022176139941660639 0 -0.00069802317590165206 -0.0024977121085045855 0 -0.00084202117958917522 -0.0026911513889246001 0 -0.00071214823180661125 -0.0022176139941660639 0 -0.0008371768089091156 -0.0023714109459979345 0 -0.00084202117958917522 -0.0026911513889246001 0 -0.00099243930080886145 -0.0024854460106657535 0 -0.0011296010566476434 -0.0031029147485707584 0 -0.0012109700885558315 -0.0028941903513131331 0 -0.00099243930080886145 -0.0024854460106657535 0 -0.0008371768089091156 -0.0023714109459979345 0 -0.00095849700127871508 -0.0026914926703762638 0 -0.00099243930080886145 -0.0024854460106657535 0 -0.00095849700127871508 -0.0026914926703762638 0 -0.0011296010566476434 -0.0031029147485707584 0 -0.0010266312123920057 -0.0032833765167468516 0 -0.00095849700127871508 -0.0026914926703762638 0 -0.0011296010566476434 -0.0031029147485707584 0 -0.0011296010566476434 -0.0031029147485707584 0 -0.001329034271436515 -0.0034217326650897864 0 -0.0012109700885558315 -0.0028941903513131331 0 -0.0011296010566476434 -0.0031029147485707584 0 -0.0012368272447726505 -0.0035782990074838547 0 -0.001329034271436515 -0.0034217326650897864 0 -0.0010266312123920057 -0.0032833765167468516 0 -0.0011296010566476434 -0.0031029147485707584 0 -0.0012368272447726505 -0.0035782990074838547 0 -0.0010266312123920057 -0.0032833765167468516 0 -0.0012368272447726505 -0.0035782990074838547 0 -0.001220340695437806 -0.0039020281970712349 0 -0.0012368272447726505 -0.0035782990074838547 0 -0.001220340695437806 -0.0039020281970712349 0 -0.001423264416369743 -0.0040104256692768932 0 -0.0012368272447726505 -0.0035782990074838547 0 -0.001329034271436515 -0.0034217326650897864 0 -0.001423264416369743 -0.0040104256692768932 0 -0.001529135531565518 -0.0037550520613710225 0 -0.001329034271436515 -0.0034217326650897864 0 -0.001423264416369743 -0.0040104256692768932 0 -0.001529135531565518 -0.0037550520613710225 0 -0.001329034271436515 -0.0034217326650897864 0 -0.0014295180615009129 -0.0032562617827778099 0 -0.001329034271436515 -0.0034217326650897864 0 -0.0014295180615009129 -0.0032562617827778099 0 -0.0012109700885558315 -0.0028941903513131331 0 -0.0014295180615009129 -0.0032562617827778099 0 -0.0013166301275011605 -0.0027630339191677205 0 -0.0012109700885558315 -0.0028941903513131331 0 -0.0011133873415208272 -0.0024222867112655656 0 -0.0013166301275011605 -0.0027630339191677205 0 -0.0012109700885558315 -0.0028941903513131331 0 -0.0015461734993895031 -0.0050339507996466229 0 -0.0013408676025583968 -0.0046538638808695338 0 -0.0014122054692597681 -0.0044433316661167286 0 -0.0015461734993895031 -0.0050339507996466229 0 -0.0013408676025583968 -0.0046538638808695338 0 -0.0013940642561628852 -0.0050914881229477387 0 -0.0011937379541706661 -0.0042158366368908158 0 -0.0013408676025583968 -0.0046538638808695338 0 -0.0014122054692597681 -0.0044433316661167286 0 -0.0011937379541706661 -0.0042158366368908158 0 -0.001220340695437806 -0.0039020281970712349 0 -0.0014122054692597681 -0.0044433316661167286 0 -0.001220340695437806 -0.0039020281970712349 0 -0.0014122054692597681 -0.0044433316661167286 0 -0.001423264416369743 -0.0040104256692768932 0 -0.0014122054692597681 -0.0044433316661167286 0 -0.0015476120552963286 -0.004466615624083797 0 -0.001423264416369743 -0.0040104256692768932 0 -0.001529135531565518 -0.0037550520613710225 0 -0.001423264416369743 -0.0040104256692768932 0 -0.001621636419770908 -0.0042628752948702152 0 -0.0015476120552963286 -0.004466615624083797 0 -0.001423264416369743 -0.0040104256692768932 0 -0.001621636419770908 -0.0042628752948702152 0 -0.0015476120552963286 -0.004466615624083797 0 -0.001621636419770908 -0.0042628752948702152 0 -0.0017131252950030559 -0.0047801624649542506 0 -0.0015476120552963286 -0.004466615624083797 0 -0.0017131252950030559 -0.0047801624649542506 0 -0.0016196424573708301 -0.0048409153475133977 0 -0.0015461734993895031 -0.0050339507996466229 0 -0.0016196424573708301 -0.0048409153475133977 0 -0.0018108445845524724 -0.0053079520233996645 0 -0.0015461734993895031 -0.0050339507996466229 0 -0.0014122054692597681 -0.0044433316661167286 0 -0.0016196424573708301 -0.0048409153475133977 0 -0.0014122054692597681 -0.0044433316661167286 0 -0.0015476120552963286 -0.004466615624083797 0 -0.0016196424573708301 -0.0048409153475133977 0 -0.0017131252950030559 -0.0047801624649542506 0 -0.0016196424573708301 -0.0048409153475133977 0 -0.0018108445845524724 -0.0053079520233996645 0 -0.0015461734993895031 -0.0050339507996466229 0 -0.0018108445845524724 -0.0053079520233996645 0 -0.0017275048013736781 -0.0055772650813898927 0 -0.0018108445845524724 -0.0053079520233996645 0 -0.0019194194393376484 -0.0058405728779541031 0 -0.0017275048013736781 -0.0055772650813898927 0 -0.0019194194393376484 -0.0058405728779541031 0 -0.0017275048013736781 -0.0055772650813898927 0 -0.0018532531899811445 -0.006010057954353532 0 -0.0017275048013736781 -0.0055772650813898927 0 -0.0016882152509913176 -0.005855470242582551 0 -0.0018532531899811445 -0.006010057954353532 0 -0.0015461734993895031 -0.0050339507996466229 0 -0.0017275048013736781 -0.0055772650813898927 0 -0.0015793462884837255 -0.0054600868395064577 0 -0.0015461734993895031 -0.0050339507996466229 0 -0.0015793462884837255 -0.0054600868395064577 0 -0.0013940642561628852 -0.0050914881229477387 0 -0.0017275048013736781 -0.0055772650813898927 0 -0.0015793462884837255 -0.0054600868395064577 0 -0.0016882152509913176 -0.005855470242582551 0 -0.0015793462884837255 -0.0054600868395064577 0 -0.0015473853649037419 -0.0057402143323550554 0 -0.0016882152509913176 -0.005855470242582551 0 -0.0015793462884837255 -0.0054600868395064577 0 -0.0013940642561628852 -0.0050914881229477387 0 -0.0015473853649037419 -0.0057402143323550554 0 -0.0016967853916676756 -0.006194392890614419 0 -0.0015473853649037419 -0.0057402143323550554 0 -0.0016882152509913176 -0.005855470242582551 0 -0.0016967853916676756 -0.006194392890614419 0 -0.0018985786524516699 -0.0063849728715432317 0 -0.0018658825153842142 -0.0066407622696507164 0 -0.0016967853916676756 -0.006194392890614419 0 -0.0016882152509913176 -0.005855470242582551 0 -0.0018985786524516699 -0.0063849728715432317 0 -0.0016882152509913176 -0.005855470242582551 0 -0.0018985786524516699 -0.0063849728715432317 0 -0.0018532531899811445 -0.006010057954353532 0 -0.0019194194393376484 -0.0058405728779541031 0 -0.0018532531899811445 -0.006010057954353532 0 -0.002042558800286429 -0.0063791229453350178 0 -0.0018985786524516699 -0.0063849728715432317 0 -0.002042558800286429 -0.0063791229453350178 0 -0.0021824160212706297 -0.0069148366247669766 0 -0.0018985786524516699 -0.0063849728715432317 0 -0.0018532531899811445 -0.006010057954353532 0 -0.002042558800286429 -0.0063791229453350178 0 -0.0021824160212706297 -0.0069148366247669766 0 -0.0020823234382869749 -0.0070068842019626728 0 -0.0023381967837385401 -0.0074460138429218161 0 -0.0018985786524516699 -0.0063849728715432317 0 -0.0020823234382869749 -0.0070068842019626728 0 -0.0018658825153842142 -0.0066407622696507164 0 -0.0018985786524516699 -0.0063849728715432317 0 -0.0021824160212706297 -0.0069148366247669766 0 -0.0020823234382869749 -0.0070068842019626728 0 -0.0023381967837385401 -0.0074460138429218161 0 -0.0022476742252911432 -0.0075519344346840472 0 -0.002505797816726254 -0.0079666879575295262 0 -0.0020823234382869749 -0.0070068842019626728 0 -0.0023381967837385401 -0.0074460138429218161 0 -0.0022476742252911432 -0.0075519344346840472 0 -0.0022476742252911432 -0.0075519344346840472 0 -0.002505797816726254 -0.0079666879575295262 0 -0.0024367201363483183 -0.0080598332894069973 0 -0.0022476742252911432 -0.0075519344346840472 0 -0.0019573979443642032 -0.0070871218586009673 0 -0.0022168397074671621 -0.0077614849536438192 0 -0.0019573979443642032 -0.0070871218586009673 0 -0.0020125225027131845 -0.0074081838725762114 0 -0.0022168397074671621 -0.0077614849536438192 0 -0.0020823234382869749 -0.0070068842019626728 0 -0.0022476742252911432 -0.0075519344346840472 0 -0.0019573979443642032 -0.0070871218586009673 0 -0.0020125225027131845 -0.0074081838725762114 0 -0.0022168397074671621 -0.0077614849536438192 0 -0.0020318056087560129 -0.0076211242764593458 0 -0.0020823234382869749 -0.0070068842019626728 0 -0.0019573979443642032 -0.0070871218586009673 0 -0.0018658825153842142 -0.0066407622696507164 0 -0.0019573979443642032 -0.0070871218586009673 0 -0.0018658825153842142 -0.0066407622696507164 0 -0.001721089227009857 -0.0065162419369167923 0 -0.0016967853916676756 -0.006194392890614419 0 -0.0018658825153842142 -0.0066407622696507164 0 -0.001721089227009857 -0.0065162419369167923 0 -0.0019573979443642032 -0.0070871218586009673 0 -0.001721089227009857 -0.0065162419369167923 0 -0.0016357981868093305 -0.0066465065858983549 0 -0.001721089227009857 -0.0065162419369167923 0 -0.0016357981868093305 -0.0066465065858983549 0 -0.0014909278092906956 -0.0060457445858813951 0 -0.0016357981868093305 -0.0066465065858983549 0 -0.0013750097663837845 -0.0061117103561451162 0 -0.0014909278092906956 -0.0060457445858813951 0 -0.0019573979443642032 -0.0070871218586009673 0 -0.0016357981868093305 -0.0066465065858983549 0 -0.0018345706964035533 -0.0071502319786696323 0 -0.0020125225027131845 -0.0074081838725762114 0 -0.0018345706964035533 -0.0071502319786696323 0 -0.0020318056087560129 -0.0076211242764593458 0 -0.0019573979443642032 -0.0070871218586009673 0 -0.0020125225027131845 -0.0074081838725762114 0 -0.0018345706964035533 -0.0071502319786696323 0 -0.0016357981868093305 -0.0066465065858983549 0 -0.0018345706964035533 -0.0071502319786696323 0 -0.0016880112298552452 -0.0070453619275497705 0 -0.0018345706964035533 -0.0071502319786696323 0 -0.0020318056087560129 -0.0076211242764593458 0 -0.0019030916343981351 -0.0075676891255887146 0 -0.0018345706964035533 -0.0071502319786696323 0 -0.0016880112298552452 -0.0070453619275497705 0 -0.0019030916343981351 -0.0075676891255887146 0 -0.0016880112298552452 -0.0070453619275497705 0 -0.0016115977289615645 -0.0071307715226919125 0 -0.0019030916343981351 -0.0075676891255887146 0 -0.0016880112298552452 -0.0070453619275497705 0 -0.0016115977289615645 -0.0071307715226919125 0 -0.0014307481020437635 -0.0065871363563511313 0 -0.0016115977289615645 -0.0071307715226919125 0 -0.0014307481020437635 -0.0065871363563511313 0 -0.0013707955319906897 -0.0068182652023046682 0 -0.0016115977289615645 -0.0071307715226919125 0 -0.0018263621764311327 -0.0076724796332665636 0 -0.0015578375988007285 -0.0072450980656262529 0 -0.0016115977289615645 -0.0071307715226919125 0 -0.0015578375988007285 -0.0072450980656262529 0 -0.0013707955319906897 -0.0068182652023046682 0 -0.0016357981868093305 -0.0066465065858983549 0 -0.0014307481020437635 -0.0065871363563511313 0 -0.0013750097663837845 -0.0061117103561451162 0 -0.0016357981868093305 -0.0066465065858983549 0 -0.0016880112298552452 -0.0070453619275497705 0 -0.0014307481020437635 -0.0065871363563511313 0 -0.0014307481020437635 -0.0065871363563511313 0 -0.0012131181284349615 -0.006096800683071407 0 -0.0013750097663837845 -0.0061117103561451162 0 -0.0014307481020437635 -0.0065871363563511313 0 -0.0012131181284349615 -0.006096800683071407 0 -0.0011408921793022674 -0.0062603418512327856 0 -0.0012131181284349615 -0.006096800683071407 0 -0.0013750097663837845 -0.0061117103561451162 0 -0.0011720630641392218 -0.0056451926308373054 0 -0.0012131181284349615 -0.006096800683071407 0 -0.0011720630641392218 -0.0056451926308373054 0 -0.0010400125655544061 -0.0056886772040836897 0 -0.0013750097663837845 -0.0061117103561451162 0 -0.0011720630641392218 -0.0056451926308373054 0 -0.0013187212875874869 -0.0056785675725763611 0 -0.0011720630641392218 -0.0056451926308373054 0 -0.001157695236107439 -0.0051672859787792024 0 -0.0013187212875874869 -0.0056785675725763611 0 -0.0011720630641392218 -0.0056451926308373054 0 -0.00099193629774696479 -0.0051927958251299462 0 -0.0010400125655544061 -0.0056886772040836897 0 -0.0011720630641392218 -0.0056451926308373054 0 -0.001157695236107439 -0.0051672859787792024 0 -0.00099193629774696479 -0.0051927958251299462 0 -0.00094665411951875796 -0.0046827185096978254 0 -0.001157695236107439 -0.0051672859787792024 0 -0.00099193629774696479 -0.0051927958251299462 0 -0.001077254178912853 -0.0046172466900750537 0 -0.001157695236107439 -0.0051672859787792024 0 -0.0012349548415608394 -0.0049841287645497898 0 -0.00094665411951875796 -0.0046827185096978254 0 -0.001077254178912853 -0.0046172466900750537 0 -0.001157695236107439 -0.0051672859787792024 0 -0.001157695236107439 -0.0051672859787792024 0 -0.0013854419167490968 -0.0054806533935621311 0 -0.0013187212875874869 -0.0056785675725763611 0 -0.001157695236107439 -0.0051672859787792024 0 -0.0012349548415608394 -0.0049841287645497898 0 -0.0013854419167490968 -0.0054806533935621311 0 -0.0013940642561628852 -0.0050914881229477387 0 -0.0012349548415608394 -0.0049841287645497898 0 -0.0013854419167490968 -0.0054806533935621311 0 -0.0013940642561628852 -0.0050914881229477387 0 -0.0015473853649037419 -0.0057402143323550554 0 -0.0013854419167490968 -0.0054806533935621311 0 -0.0015473853649037419 -0.0057402143323550554 0 -0.0013854419167490968 -0.0054806533935621311 0 -0.0014909278092906956 -0.0060457445858813951 0 -0.0016967853916676756 -0.006194392890614419 0 -0.0015473853649037419 -0.0057402143323550554 0 -0.0014909278092906956 -0.0060457445858813951 0 -0.0016967853916676756 -0.006194392890614419 0 -0.001721089227009857 -0.0065162419369167923 0 -0.0014909278092906956 -0.0060457445858813951 0 -0.0013750097663837845 -0.0061117103561451162 0 -0.0014909278092906956 -0.0060457445858813951 0 -0.0013187212875874869 -0.0056785675725763611 0 -0.0013854419167490968 -0.0054806533935621311 0 -0.0014909278092906956 -0.0060457445858813951 0 -0.0013187212875874869 -0.0056785675725763611 0 -0.0030311183563128891 -0.010092590574743101 0 -0.0028930776329225234 -0.0096695074207787824 0 -0.0028867256045408659 -0.0099639117336831617 0 -0.0028930776329225234 -0.0096695074207787824 0 -0.0030317652707142224 -0.0097727712723856778 0 -0.0028038823228429526 -0.0092942459991179477 0 -0.0030311183563128891 -0.010092590574743101 0 -0.0031856635138878277 -0.010234320726016518 0 -0.0030317652707142224 -0.0097727712723856778 0 -0.0030311183563128891 -0.010092590574743101 0 -0.0028930776329225234 -0.0096695074207787824 0 -0.0030317652707142224 -0.0097727712723856778 0 -0.0031856635138878277 -0.010234320726016518 0 -0.0031880151625406803 -0.010076920229252662 0 -0.0030317652707142224 -0.0097727712723856778 0 -0.0031856635138878277 -0.010234320726016518 0 -0.0033425036672193225 -0.010384652186030862 0 -0.0031880151625406803 -0.010076920229252662 0 -0.0033425036672193225 -0.010384652186030862 0 -0.0031880151625406803 -0.010076920229252662 0 -0.0031912552603298671 -0.0099165103390347967 0 -0.0031880151625406803 -0.010076920229252662 0 -0.0031912552603298671 -0.0099165103390347967 0 -0.0030317652707142224 -0.0097727712723856778 0 -0.0031912552603298671 -0.0099165103390347967 0 -0.0030317652707142224 -0.0097727712723856778 0 -0.0028861658662102489 -0.0092941961089284299 0 -0.0030317652707142224 -0.0097727712723856778 0 -0.0028861658662102489 -0.0092941961089284299 0 -0.0028038823228429526 -0.0092942459991179477 0 -0.0031912552603298671 -0.0099165103390347967 0 -0.0030300630255242745 -0.0094448852014260235 0 -0.0028861658662102489 -0.0092941961089284299 0 -0.0030300630255242745 -0.0094448852014260235 0 -0.0028861658662102489 -0.0092941961089284299 0 -0.0028593940209117388 -0.0089651472212889018 0 -0.0028861658662102489 -0.0092941961089284299 0 -0.0028038823228429526 -0.0092942459991179477 0 -0.0026670292605237519 -0.008811415200840585 0 -0.0028038823228429526 -0.0092942459991179477 0 -0.0025986223213545138 -0.0088640723758915199 0 -0.0026670292605237519 -0.008811415200840585 0 -0.0028930776329225234 -0.0096695074207787824 0 -0.0028038823228429526 -0.0092942459991179477 0 -0.0026631536443409566 -0.0091360689786700987 0 -0.0028930776329225234 -0.0096695074207787824 0 -0.0026631536443409566 -0.0091360689786700987 0 -0.0027147117258499364 -0.0093981748591013825 0 -0.0026631536443409566 -0.0091360689786700987 0 -0.0025986223213545138 -0.0088640723758915199 0 -0.002417216276277378 -0.0086132526078850323 0 -0.0028038823228429526 -0.0092942459991179477 0 -0.0026631536443409566 -0.0091360689786700987 0 -0.0025986223213545138 -0.0088640723758915199 0 -0.0025986223213545138 -0.0088640723758915199 0 -0.0024600880895327996 -0.0085110982735932313 0 -0.002417216276277378 -0.0086132526078850323 0 -0.0024600880895327996 -0.0085110982735932313 0 -0.0026670292605237519 -0.008811415200840585 0 -0.0024057768055148056 -0.008219428853781581 0 -0.0025986223213545138 -0.0088640723758915199 0 -0.0024600880895327996 -0.0085110982735932313 0 -0.0026670292605237519 -0.008811415200840585 0 -0.0026670292605237519 -0.008811415200840585 0 -0.0028593940209117388 -0.0089651472212889018 0 -0.0026099575363246618 -0.0085043146850128596 0 -0.0028861658662102489 -0.0092941961089284299 0 -0.0026670292605237519 -0.008811415200840585 0 -0.0028593940209117388 -0.0089651472212889018 0 -0.0028593940209117388 -0.0089651472212889018 0 -0.0026099575363246618 -0.0085043146850128596 0 -0.0026812328048029001 -0.0084741304565585304 0 -0.0026670292605237519 -0.008811415200840585 0 -0.0026099575363246618 -0.0085043146850128596 0 -0.0024057768055148056 -0.008219428853781581 0 -0.0026099575363246618 -0.0085043146850128596 0 -0.0024367201363483183 -0.0080598332894069973 0 -0.0024057768055148056 -0.008219428853781581 0 -0.0026099575363246618 -0.0085043146850128596 0 -0.0026812328048029001 -0.0084741304565585304 0 -0.0024367201363483183 -0.0080598332894069973 0 -0.0026812328048029001 -0.0084741304565585304 0 -0.002505797816726254 -0.0079666879575295262 0 -0.0024367201363483183 -0.0080598332894069973 0 -0.0022476742252911432 -0.0075519344346840472 0 -0.0024367201363483183 -0.0080598332894069973 0 -0.0022168397074671621 -0.0077614849536438192 0 -0.0024367201363483183 -0.0080598332894069973 0 -0.0022168397074671621 -0.0077614849536438192 0 -0.0024057768055148056 -0.008219428853781581 0 -0.0024600880895327996 -0.0085110982735932313 0 -0.0024057768055148056 -0.008219428853781581 0 -0.0022073297743931009 -0.0080473144411460119 0 -0.0022168397074671621 -0.0077614849536438192 0 -0.0024057768055148056 -0.008219428853781581 0 -0.0022073297743931009 -0.0080473144411460119 0 -0.0022168397074671621 -0.0077614849536438192 0 -0.0020318056087560129 -0.0076211242764593458 0 -0.0022073297743931009 -0.0080473144411460119 0 -0.0020318056087560129 -0.0076211242764593458 0 -0.0022073297743931009 -0.0080473144411460119 0 -0.0019030916343981351 -0.0075676891255887146 0 -0.0022073297743931009 -0.0080473144411460119 0 -0.0019030916343981351 -0.0075676891255887146 0 -0.0021618232171687567 -0.0081774989350973052 0 -0.0016115977289615645 -0.0071307715226919125 0 -0.0019030916343981351 -0.0075676891255887146 0 -0.0018263621764311327 -0.0076724796332665636 0 -0.0018263621764311327 -0.0076724796332665636 0 -0.0020328720321103368 -0.0081045970586717982 0 -0.001861243259673472 -0.0079620686967531232 0 -0.0018263621764311327 -0.0076724796332665636 0 -0.0020328720321103368 -0.0081045970586717982 0 -0.0021618232171687567 -0.0081774989350973052 0 -0.0019030916343981351 -0.0075676891255887146 0 -0.0018263621764311327 -0.0076724796332665636 0 -0.0021618232171687567 -0.0081774989350973052 0 -0.0020328720321103368 -0.0081045970586717982 0 -0.0023065335138599831 -0.0086186370456697841 0 -0.0021618232171687567 -0.0081774989350973052 0 -0.0020328720321103368 -0.0081045970586717982 0 -0.0021310512190906763 -0.0084252761008702746 0 -0.001861243259673472 -0.0079620686967531232 0 -0.0020328720321103368 -0.0081045970586717982 0 -0.0021310512190906763 -0.0084252761008702746 0 -0.0023065335138599831 -0.0086186370456697841 0 -0.0023065335138599831 -0.0086186370456697841 0 -0.0021618232171687567 -0.0081774989350973052 0 -0.002417216276277378 -0.0086132526078850323 0 -0.0023065335138599831 -0.0086186370456697841 0 -0.002417216276277378 -0.0086132526078850323 0 -0.002523918852749346 -0.0089749077171849059 0 -0.0022073297743931009 -0.0080473144411460119 0 -0.0021618232171687567 -0.0081774989350973052 0 -0.002417216276277378 -0.0086132526078850323 0 -0.0024600880895327996 -0.0085110982735932313 0 -0.0022073297743931009 -0.0080473144411460119 0 -0.002417216276277378 -0.0086132526078850323 0 -0.0026631536443409566 -0.0091360689786700987 0 -0.002417216276277378 -0.0086132526078850323 0 -0.002523918852749346 -0.0089749077171849059 0 -0.0026631536443409566 -0.0091360689786700987 0 -0.002523918852749346 -0.0089749077171849059 0 -0.0027147117258499364 -0.0093981748591013825 0 -0.002523918852749346 -0.0089749077171849059 0 -0.0025006694232708624 -0.009089224615061663 0 -0.0027147117258499364 -0.0093981748591013825 0 -0.0023065335138599831 -0.0086186370456697841 0 -0.002523918852749346 -0.0089749077171849059 0 -0.0025006694232708624 -0.009089224615061663 0 -0.0023065335138599831 -0.0086186370456697841 0 -0.0023414605525077649 -0.0089009038978650687 0 -0.0025006694232708624 -0.009089224615061663 0 -0.0021310512190906763 -0.0084252761008702746 0 -0.0023065335138599831 -0.0086186370456697841 0 -0.0023414605525077649 -0.0089009038978650687 0 -0.0023414605525077649 -0.0089009038978650687 0 -0.0025006694232708624 -0.009089224615061663 0 -0.0025676281796544556 -0.0093856734235184206 0 -0.0025006694232708624 -0.009089224615061663 0 -0.0025676281796544556 -0.0093856734235184206 0 -0.0026893422352494492 -0.0095360737393603758 0 -0.0023414605525077649 -0.0089009038978650687 0 -0.0025676281796544556 -0.0093856734235184206 0 -0.0024531072593425031 -0.0092383131468685934 0 -0.0025676281796544556 -0.0093856734235184206 0 -0.0027554599479101024 -0.0098486283184988036 0 -0.0026506724602767735 -0.0097405516576348512 0 -0.0025676281796544556 -0.0093856734235184206 0 -0.0027554599479101024 -0.0098486283184988036 0 -0.0026893422352494492 -0.0095360737393603758 0 -0.0027554599479101024 -0.0098486283184988036 0 -0.0026893422352494492 -0.0095360737393603758 0 -0.0028867256045408659 -0.0099639117336831617 0 -0.0025006694232708624 -0.009089224615061663 0 -0.0026893422352494492 -0.0095360737393603758 0 -0.0027147117258499364 -0.0093981748591013825 0 -0.0026893422352494492 -0.0095360737393603758 0 -0.0027147117258499364 -0.0093981748591013825 0 -0.0028867256045408659 -0.0099639117336831617 0 -0.0028930776329225234 -0.0096695074207787824 0 -0.0027147117258499364 -0.0093981748591013825 0 -0.0028867256045408659 -0.0099639117336831617 0 -0.0025544429177927581 -0.0095014907796700347 0 -0.0024150078496400864 -0.009175374814284501 0 -0.0023990303258913563 -0.0091792661392476795 0 -0.0025544429177927581 -0.0095014907796700347 0 -0.0024150078496400864 -0.009175374814284501 0 -0.0025967151431534941 -0.0093544988725438039 0 -0.0024150078496400864 -0.009175374814284501 0 -0.0023990303258913563 -0.0091792661392476795 0 -0.0021724344105953143 -0.0087863562929091157 0 -0.0024150078496400864 -0.009175374814284501 0 -0.0021724344105953143 -0.0087863562929091157 0 -0.0022938956614753821 -0.0088982943136633342 0 -0.0025544429177927581 -0.0095014907796700347 0 -0.0023990303258913563 -0.0091792661392476795 0 -0.0025795170334559649 -0.0096297142331811976 0 -0.0025795170334559649 -0.0096297142331811976 0 -0.0026506724602767735 -0.0097405516576348512 0 -0.0024531072593425031 -0.0092383131468685934 0 -0.0025676281796544556 -0.0093856734235184206 0 -0.0026506724602767735 -0.0097405516576348512 0 -0.0024531072593425031 -0.0092383131468685934 0 -0.0023990303258913563 -0.0091792661392476795 0 -0.0025795170334559649 -0.0096297142331811976 0 -0.0024531072593425031 -0.0092383131468685934 0 -0.0023990303258913563 -0.0091792661392476795 0 -0.0024531072593425031 -0.0092383131468685934 0 -0.002159291216990664 -0.0087071349199142698 0 -0.0023414605525077649 -0.0089009038978650687 0 -0.0021379178720527395 -0.0085706883458400492 0 -0.002159291216990664 -0.0087071349199142698 0 -0.0023414605525077649 -0.0089009038978650687 0 -0.0024531072593425031 -0.0092383131468685934 0 -0.002159291216990664 -0.0087071349199142698 0 -0.0021310512190906763 -0.0084252761008702746 0 -0.0023414605525077649 -0.0089009038978650687 0 -0.0021379178720527395 -0.0085706883458400492 0 -0.002159291216990664 -0.0087071349199142698 0 -0.0021724344105953143 -0.0087863562929091157 0 -0.00192331743197936 -0.0084184855955165994 0 -0.0023990303258913563 -0.0091792661392476795 0 -0.002159291216990664 -0.0087071349199142698 0 -0.0021724344105953143 -0.0087863562929091157 0 -0.0021724344105953143 -0.0087863562929091157 0 -0.00192331743197936 -0.0084184855955165994 0 -0.00195264035601836 -0.0084679572692935214 0 -0.00192331743197936 -0.0084184855955165994 0 -0.0017724206805296498 -0.0081194172203364751 0 -0.0015333924760431541 -0.0079441264945933569 0 -0.0017724206805296498 -0.0081194172203364751 0 -0.0014830933926059649 -0.0077190121283728808 0 -0.0015333924760431541 -0.0079441264945933569 0 -0.0017724206805296498 -0.0081194172203364751 0 -0.0016743960966897693 -0.0078357507198479094 0 -0.0014830933926059649 -0.0077190121283728808 0 -0.002159291216990664 -0.0087071349199142698 0 -0.00192331743197936 -0.0084184855955165994 0 -0.0017724206805296498 -0.0081194172203364751 0 -0.002159291216990664 -0.0087071349199142698 0 -0.0017724206805296498 -0.0081194172203364751 0 -0.0019209708891010935 -0.0082339848164993817 0 -0.0021379178720527395 -0.0085706883458400492 0 -0.002159291216990664 -0.0087071349199142698 0 -0.0019209708891010935 -0.0082339848164993817 0 -0.0021310512190906763 -0.0084252761008702746 0 -0.0021379178720527395 -0.0085706883458400492 0 -0.0019209708891010935 -0.0082339848164993817 0 -0.0021310512190906763 -0.0084252761008702746 0 -0.0019209708891010935 -0.0082339848164993817 0 -0.001861243259673472 -0.0079620686967531232 0 -0.0019209708891010935 -0.0082339848164993817 0 -0.001861243259673472 -0.0079620686967531232 0 -0.0016743960966897693 -0.0078357507198479094 0 -0.0017724206805296498 -0.0081194172203364751 0 -0.0019209708891010935 -0.0082339848164993817 0 -0.0016743960966897693 -0.0078357507198479094 0 -0.001861243259673472 -0.0079620686967531232 0 -0.0016743960966897693 -0.0078357507198479094 0 -0.0016143515814969365 -0.0075406136411117304 0 -0.0016743960966897693 -0.0078357507198479094 0 -0.0016143515814969365 -0.0075406136411117304 0 -0.0013976154187200628 -0.0074216456720975869 0 -0.0018263621764311327 -0.0076724796332665636 0 -0.001861243259673472 -0.0079620686967531232 0 -0.0016143515814969365 -0.0075406136411117304 0 -0.0016143515814969365 -0.0075406136411117304 0 -0.0015578375988007285 -0.0072450980656262529 0 -0.001370042808893808 -0.0071251025131690597 0 -0.0018263621764311327 -0.0076724796332665636 0 -0.0016143515814969365 -0.0075406136411117304 0 -0.0015578375988007285 -0.0072450980656262529 0 -0.0016143515814969365 -0.0075406136411117304 0 -0.0013976154187200628 -0.0074216456720975869 0 -0.001370042808893808 -0.0071251025131690597 0 -0.0013976154187200628 -0.0074216456720975869 0 -0.001370042808893808 -0.0071251025131690597 0 -0.001098026261184574 -0.0069460211458237282 0 -0.0016743960966897693 -0.0078357507198479094 0 -0.0013976154187200628 -0.0074216456720975869 0 -0.0014830933926059649 -0.0077190121283728808 0 -0.0013976154187200628 -0.0074216456720975869 0 -0.0014830933926059649 -0.0077190121283728808 0 -0.0011763375685388418 -0.0073467836924624459 0 -0.0013976154187200628 -0.0074216456720975869 0 -0.0011763375685388418 -0.0073467836924624459 0 -0.001098026261184574 -0.0069460211458237282 0 -0.0011763375685388418 -0.0073467836924624459 0 -0.00088150673845438315 -0.0070700436580925872 0 -0.00082849212857332365 -0.0067625443428190584 0 -0.0011763375685388418 -0.0073467836924624459 0 -0.001098026261184574 -0.0069460211458237282 0 -0.00082849212857332365 -0.0067625443428190584 0 -0.0011763375685388418 -0.0073467836924624459 0 -0.0011248550897817369 -0.0074683141378028605 0 -0.0015333924760431541 -0.0079441264945933569 0 -0.0014830933926059649 -0.0077190121283728808 0 -0.0011763375685388418 -0.0073467836924624459 0 -0.0015333924760431541 -0.0079441264945933569 0 -0.0011763375685388418 -0.0073467836924624459 0 -0.0011248550897817369 -0.0074683141378028605 0 -0.00088150673845438315 -0.0070700436580925872 0 -0.00088150673845438315 -0.0070700436580925872 0 -0.00075846002004906947 -0.0071439888832382486 0 -0.00054292822071992132 -0.0066514012642172127 0 -0.00075846002004906947 -0.0071439888832382486 0 -0.00054292822071992132 -0.0066514012642172127 0 -0.00021129232635432694 -0.006669148325806059 0 -0.00075846002004906947 -0.0071439888832382486 0 -0.0005595335678139395 -0.007019703609052708 0 -0.00021129232635432694 -0.006669148325806059 0 -0.00075846002004906947 -0.0071439888832382486 0 -0.00095177423593525545 -0.0073936994089510216 0 -0.0005595335678139395 -0.007019703609052708 0 -0.0011248550897817369 -0.0074683141378028605 0 -0.00075846002004906947 -0.0071439888832382486 0 -0.0013232568771785246 -0.0077667224627785483 0 -0.0011248550897817369 -0.0074683141378028605 0 -0.00088150673845438315 -0.0070700436580925872 0 -0.00075846002004906947 -0.0071439888832382486 0 -0.00075846002004906947 -0.0071439888832382486 0 -0.0013232568771785246 -0.0077667224627785483 0 -0.00095177423593525545 -0.0073936994089510216 0 -0.0013232568771785246 -0.0077667224627785483 0 -0.0015986332324258411 -0.0078833307879283276 0 -0.00095177423593525545 -0.0073936994089510216 0 -0.0013232568771785246 -0.0077667224627785483 0 -0.0017412103593436531 -0.0082000509337367064 0 -0.0015986332324258411 -0.0078833307879283276 0 -0.0013232568771785246 -0.0077667224627785483 0 -0.0015333924760431541 -0.0079441264945933569 0 -0.0017412103593436531 -0.0082000509337367064 0 -0.0015333924760431541 -0.0079441264945933569 0 -0.00195264035601836 -0.0084679572692935214 0 -0.0017412103593436531 -0.0082000509337367064 0 -0.0011248550897817369 -0.0074683141378028605 0 -0.0013232568771785246 -0.0077667224627785483 0 -0.0015333924760431541 -0.0079441264945933569 0 -0.00192331743197936 -0.0084184855955165994 0 -0.0015333924760431541 -0.0079441264945933569 0 -0.00195264035601836 -0.0084679572692935214 0 -0.0021724344105953143 -0.0087863562929091157 0 -0.00195264035601836 -0.0084679572692935214 0 -0.0022938956614753821 -0.0088982943136633342 0 -0.00195264035601836 -0.0084679572692935214 0 -0.0021016569547476389 -0.0085662295070077429 0 -0.0022938956614753821 -0.0088982943136633342 0 -0.00195264035601836 -0.0084679572692935214 0 -0.0021016569547476389 -0.0085662295070077429 0 -0.0017412103593436531 -0.0082000509337367064 0 -0.0021016569547476389 -0.0085662295070077429 0 -0.0017412103593436531 -0.0082000509337367064 0 -0.0020364457238148947 -0.0083528606836493213 0 -0.0017412103593436531 -0.0082000509337367064 0 -0.0020364457238148947 -0.0083528606836493213 0 -0.0015986332324258411 -0.0078833307879283276 0 -0.0020364457238148947 -0.0083528606836493213 0 -0.0024169495702494269 -0.0086924269748266999 0 -0.0023562664350078861 -0.0082456593063148734 0 -0.0020364457238148947 -0.0083528606836493213 0 -0.0023562664350078861 -0.0082456593063148734 0 -0.0015986332324258411 -0.0078833307879283276 0 -0.0021016569547476389 -0.0085662295070077429 0 -0.0020364457238148947 -0.0083528606836493213 0 -0.0024169495702494269 -0.0086924269748266999 0 -0.0021016569547476389 -0.0085662295070077429 0 -0.0024169495702494269 -0.0086924269748266999 0 -0.0024341842080166627 -0.0089488232794608883 0 -0.0024169495702494269 -0.0086924269748266999 0 -0.00289955731922012 -0.0088320966036018328 0 -0.0023562664350078861 -0.0082456593063148734 0 -0.0024169495702494269 -0.0086924269748266999 0 -0.0027074757349776126 -0.0091426945283570385 0 -0.00289955731922012 -0.0088320966036018328 0 -0.0024169495702494269 -0.0086924269748266999 0 -0.0027074757349776126 -0.0091426945283570385 0 -0.0024341842080166627 -0.0089488232794608883 0 -0.0027074757349776126 -0.0091426945283570385 0 -0.0024341842080166627 -0.0089488232794608883 0 -0.0025967151431534941 -0.0093544988725438039 0 -0.0024341842080166627 -0.0089488232794608883 0 -0.0022938956614753821 -0.0088982943136633342 0 -0.0025967151431534941 -0.0093544988725438039 0 -0.0021016569547476389 -0.0085662295070077429 0 -0.0024341842080166627 -0.0089488232794608883 0 -0.0022938956614753821 -0.0088982943136633342 0 -0.0024150078496400864 -0.009175374814284501 0 -0.0022938956614753821 -0.0088982943136633342 0 -0.0025967151431534941 -0.0093544988725438039 0 -0.00071420883020314205 -0.0052888734181980798 0 -0.00086349517948166134 -0.0057233978641853091 0 -0.00064122633607433162 -0.0054715024851647136 0 -0.00086349517948166134 -0.0057233978641853091 0 -0.00064122633607433162 -0.0054715024851647136 0 -0.00072574697652935433 -0.0058784060176268497 0 -0.00064122633607433162 -0.0054715024851647136 0 -0.00072574697652935433 -0.0058784060176268497 0 -0.00050183728858298475 -0.0056100374550445455 0 -0.00071420883020314205 -0.0052888734181980798 0 -0.00064122633607433162 -0.0054715024851647136 0 -0.00051268929029966959 -0.0050381636743521991 0 -0.00051268929029966959 -0.0050381636743521991 0 -0.00064041764245659173 -0.0047865390132847572 0 -0.00042985068878877408 -0.0045600354551961295 0 -0.00071420883020314205 -0.0052888734181980798 0 -0.00051268929029966959 -0.0050381636743521991 0 -0.00064041764245659173 -0.0047865390132847572 0 -0.00053291649404862962 -0.0043381770629834851 0 -0.00064041764245659173 -0.0047865390132847572 0 -0.00042985068878877408 -0.0045600354551961295 0 -0.00071420883020314205 -0.0052888734181980798 0 -0.00064041764245659173 -0.0047865390132847572 0 -0.00086574121470511898 -0.0052862155411962045 0 -0.00064041764245659173 -0.0047865390132847572 0 -0.00080476967324070038 -0.0047106674780998817 0 -0.00086574121470511898 -0.0052862155411962045 0 -0.00066617125177260148 -0.0043182736089353597 0 -0.00064041764245659173 -0.0047865390132847572 0 -0.00080476967324070038 -0.0047106674780998817 0 -0.00094665411951875796 -0.0046827185096978254 0 -0.00080476967324070038 -0.0047106674780998817 0 -0.00099193629774696479 -0.0051927958251299462 0 -0.00080476967324070038 -0.0047106674780998817 0 -0.00099193629774696479 -0.0051927958251299462 0 -0.00086574121470511898 -0.0052862155411962045 0 -0.00099193629774696479 -0.0051927958251299462 0 -0.00086574121470511898 -0.0052862155411962045 0 -0.0010400125655544061 -0.0056886772040836897 0 -0.00071420883020314205 -0.0052888734181980798 0 -0.00086349517948166134 -0.0057233978641853091 0 -0.00086574121470511898 -0.0052862155411962045 0 -0.00086349517948166134 -0.0057233978641853091 0 -0.00086574121470511898 -0.0052862155411962045 0 -0.0010400125655544061 -0.0056886772040836897 0 -0.00086349517948166134 -0.0057233978641853091 0 -0.0010400125655544061 -0.0056886772040836897 0 -0.0011408921793022674 -0.0062603418512327856 0 -0.0012131181284349615 -0.006096800683071407 0 -0.0010400125655544061 -0.0056886772040836897 0 -0.0011408921793022674 -0.0062603418512327856 0 -0.0014307481020437635 -0.0065871363563511313 0 -0.0011408921793022674 -0.0062603418512327856 0 -0.0013707955319906897 -0.0068182652023046682 0 -0.0011408921793022674 -0.0062603418512327856 0 -0.0011413720701957527 -0.0066648594965270881 0 -0.00095684276163395215 -0.0061972251905334248 0 -0.0011408921793022674 -0.0062603418512327856 0 -0.0013707955319906897 -0.0068182652023046682 0 -0.0011413720701957527 -0.0066648594965270881 0 -0.00086349517948166134 -0.0057233978641853091 0 -0.0011408921793022674 -0.0062603418512327856 0 -0.00095684276163395215 -0.0061972251905334248 0 -0.0015578375988007285 -0.0072450980656262529 0 -0.0013707955319906897 -0.0068182652023046682 0 -0.001370042808893808 -0.0071251025131690597 0 -0.0013707955319906897 -0.0068182652023046682 0 -0.001370042808893808 -0.0071251025131690597 0 -0.0011413720701957527 -0.0066648594965270881 0 -0.001370042808893808 -0.0071251025131690597 0 -0.0011413720701957527 -0.0066648594965270881 0 -0.001098026261184574 -0.0069460211458237282 0 -0.0011413720701957527 -0.0066648594965270881 0 -0.00085024951449441406 -0.0064120311086585981 0 -0.001098026261184574 -0.0069460211458237282 0 -0.00085024951449441406 -0.0064120311086585981 0 -0.001098026261184574 -0.0069460211458237282 0 -0.00082849212857332365 -0.0067625443428190584 0 -0.00086349517948166134 -0.0057233978641853091 0 -0.00095684276163395215 -0.0061972251905334248 0 -0.00072574697652935433 -0.0058784060176268497 0 -0.0011413720701957527 -0.0066648594965270881 0 -0.00085024951449441406 -0.0064120311086585981 0 -0.00095684276163395215 -0.0061972251905334248 0 -0.00085024951449441406 -0.0064120311086585981 0 -0.00095684276163395215 -0.0061972251905334248 0 -0.00072574697652935433 -0.0058784060176268497 0 -0.00085024951449441406 -0.0064120311086585981 0 -0.00072574697652935433 -0.0058784060176268497 0 -0.00058848666019988862 -0.0059730126220951876 0 -0.00072574697652935433 -0.0058784060176268497 0 -0.00058848666019988862 -0.0059730126220951876 0 -0.00050183728858298475 -0.0056100374550445455 0 -0.00085024951449441406 -0.0064120311086585981 0 -0.00058848666019988862 -0.0059730126220951876 0 -0.00049985079866676546 -0.0062115888786173877 0 -0.00058848666019988862 -0.0059730126220951876 0 -0.00049985079866676546 -0.0062115888786173877 0 -0.00034901883648389098 -0.0057414654123329788 0 -0.00034901883648389098 -0.0057414654123329788 0 -0.00028739802744310477 -0.0053631999637208071 0 -0.00050183728858298475 -0.0056100374550445455 0 -0.00058848666019988862 -0.0059730126220951876 0 -0.00034901883648389098 -0.0057414654123329788 0 -0.00050183728858298475 -0.0056100374550445455 0 -0.00085024951449441406 -0.0064120311086585981 0 -0.00082849212857332365 -0.0067625443428190584 0 -0.00049985079866676546 -0.0062115888786173877 0 -0.00082849212857332365 -0.0067625443428190584 0 -0.00049985079866676546 -0.0062115888786173877 0 -0.00054292822071992132 -0.0066514012642172127 0 -0.00088150673845438315 -0.0070700436580925872 0 -0.00082849212857332365 -0.0067625443428190584 0 -0.00054292822071992132 -0.0066514012642172127 0 -0.00049985079866676546 -0.0062115888786173877 0 -0.00054292822071992132 -0.0066514012642172127 0 -0.00012040373169426703 -0.0060801339592692263 0 -0.00054292822071992132 -0.0066514012642172127 0 -0.00012040373169426703 -0.0060801339592692263 0 -0.00021129232635432694 -0.006669148325806059 0 -0.00049985079866676546 -0.0062115888786173877 0 -0.00014986238817137008 -0.0057298735063343424 0 -0.00012040373169426703 -0.0060801339592692263 0 -0.00034901883648389098 -0.0057414654123329788 0 -0.00014986238817137008 -0.0057298735063343424 0 -0.00011635735008546889 -0.0053291871629053316 0 -0.00034901883648389098 -0.0057414654123329788 0 -0.00011635735008546889 -0.0053291871629053316 0 -0.00028739802744310477 -0.0053631999637208071 0 -0.00049985079866676546 -0.0062115888786173877 0 -0.00034901883648389098 -0.0057414654123329788 0 -0.00014986238817137008 -0.0057298735063343424 0 -0.00014986238817137008 -0.0057298735063343424 0 -0.00011635735008546889 -0.0053291871629053316 0 6.7091544643751728e-05 -0.0053104767104680791 0 -0.00011635735008546889 -0.0053291871629053316 0 0.00012333348587995009 -0.0049714566889050311 0 6.7091544643751728e-05 -0.0053104767104680791 0 -0.00011635735008546889 -0.0053291871629053316 0 -0.00010223464451655105 -0.0049286974086487807 0 0.00012333348587995009 -0.0049714566889050311 0 -0.00011635735008546889 -0.0053291871629053316 0 -0.00010223464451655105 -0.0049286974086487807 0 -0.00028739802744310477 -0.0053631999637208071 0 -0.00028739802744310477 -0.0053631999637208071 0 -0.00038202170898585616 -0.0052008824751992961 0 -0.00050183728858298475 -0.0056100374550445455 0 -0.00010223464451655105 -0.0049286974086487807 0 -0.00028739802744310477 -0.0053631999637208071 0 -0.00038202170898585616 -0.0052008824751992961 0 -0.00010223464451655105 -0.0049286974086487807 0 -0.00038202170898585616 -0.0052008824751992961 0 -0.00026709843820014924 -0.0047445249913968058 0 -0.00051268929029966959 -0.0050381636743521991 0 -0.00038202170898585616 -0.0052008824751992961 0 -0.00026709843820014924 -0.0047445249913968058 0 -0.00064122633607433162 -0.0054715024851647136 0 -0.00051268929029966959 -0.0050381636743521991 0 -0.00038202170898585616 -0.0052008824751992961 0 -0.00064122633607433162 -0.0054715024851647136 0 -0.00038202170898585616 -0.0052008824751992961 0 -0.00050183728858298475 -0.0056100374550445455 0 -0.00051268929029966959 -0.0050381636743521991 0 -0.00042985068878877408 -0.0045600354551961295 0 -0.00026709843820014924 -0.0047445249913968058 0 -0.00022928820817265825 -0.0042643205068392124 0 -0.00042985068878877408 -0.0045600354551961295 0 -0.00026709843820014924 -0.0047445249913968058 0 -0.00010223464451655105 -0.0049286974086487807 0 -6.5649534943315604e-05 -0.0044796199226377169 0 0.00014666441539698969 -0.0045514148414319416 0 -0.00022928820817265825 -0.0042643205068392124 0 -4.8179209013473725e-05 -0.0041302387592635518 0 -6.5649534943315604e-05 -0.0044796199226377169 0 -0.00022928820817265825 -0.0042643205068392124 0 -0.00026709843820014924 -0.0047445249913968058 0 -6.5649534943315604e-05 -0.0044796199226377169 0 -0.00010223464451655105 -0.0049286974086487807 0 -0.00026709843820014924 -0.0047445249913968058 0 -6.5649534943315604e-05 -0.0044796199226377169 0 -4.8179209013473725e-05 -0.0041302387592635518 0 -6.5649534943315604e-05 -0.0044796199226377169 0 9.2434215776032882e-05 -0.0042229983183999188 0 -6.5649534943315604e-05 -0.0044796199226377169 0 0.00014666441539698969 -0.0045514148414319416 0 9.2434215776032882e-05 -0.0042229983183999188 0 0.00014666441539698969 -0.0045514148414319416 0 9.2434215776032882e-05 -0.0042229983183999188 0 0.00025894234179164497 -0.0044480980053089496 0 0.00014666441539698969 -0.0045514148414319416 0 0.00025894234179164497 -0.0044480980053089496 0 0.00033521505985265493 -0.0047077923510698569 0 9.2434215776032882e-05 -0.0042229983183999188 0 0.000186613630344862 -0.0041693973325248436 0 0.00025894234179164497 -0.0044480980053089496 0 0.000186613630344862 -0.0041693973325248436 0 0.00025894234179164497 -0.0044480980053089496 0 0.00038009611502314846 -0.0044700806638858417 0 0.00025894234179164497 -0.0044480980053089496 0 0.00038009611502314846 -0.0044700806638858417 0 0.00033521505985265493 -0.0047077923510698569 0 0.000186613630344862 -0.0041693973325248436 0 0.00038009611502314846 -0.0044700806638858417 0 0.0002246797642144442 -0.0041067565680639479 0 0.00047914777997375065 -0.0049484391334961297 0 0.00065506655860739932 -0.0050072038208477934 0 0.00053531424540338962 -0.004796970278759965 0 0.00033521505985265493 -0.0047077923510698569 0 0.00047914777997375065 -0.0049484391334961297 0 0.00053531424540338962 -0.004796970278759965 0 0.00038009611502314846 -0.0044700806638858417 0 0.00033521505985265493 -0.0047077923510698569 0 0.00053531424540338962 -0.004796970278759965 0 0.00033521505985265493 -0.0047077923510698569 0 0.00028695567315884104 -0.0050854748965553434 0 0.00047914777997375065 -0.0049484391334961297 0 -0.00010223464451655105 -0.0049286974086487807 0 0.00014666441539698969 -0.0045514148414319416 0 0.00012333348587995009 -0.0049714566889050311 0 0.00033521505985265493 -0.0047077923510698569 0 0.00012333348587995009 -0.0049714566889050311 0 0.00028695567315884104 -0.0050854748965553434 0 0.00014666441539698969 -0.0045514148414319416 0 0.00033521505985265493 -0.0047077923510698569 0 0.00012333348587995009 -0.0049714566889050311 0 0.00012333348587995009 -0.0049714566889050311 0 6.7091544643751728e-05 -0.0053104767104680791 0 0.00028695567315884104 -0.0050854748965553434 0 -0.00014986238817137008 -0.0057298735063343424 0 6.7091544643751728e-05 -0.0053104767104680791 0 0.00014999044706926517 -0.0054979380347835519 0 6.7091544643751728e-05 -0.0053104767104680791 0 0.00014999044706926517 -0.0054979380347835519 0 0.00028695567315884104 -0.0050854748965553434 0 -0.00014986238817137008 -0.0057298735063343424 0 0.00014999044706926517 -0.0054979380347835519 0 -0.00012040373169426703 -0.0060801339592692263 0 0.00014999044706926517 -0.0054979380347835519 0 9.9524311045132702e-05 -0.0053872452132602677 0 0.00036873639265432565 -0.0051546098504347809 0 0.00014999044706926517 -0.0054979380347835519 0 0.00028695567315884104 -0.0050854748965553434 0 0.00036873639265432565 -0.0051546098504347809 0 -0.00012040373169426703 -0.0060801339592692263 0 0.00026288791633005139 -0.0064882356841148743 0 -0.00021129232635432694 -0.006669148325806059 0 0.00014999044706926517 -0.0054979380347835519 0 -0.00012040373169426703 -0.0060801339592692263 0 9.9524311045132702e-05 -0.0053872452132602677 0 -0.065010474402158222 -0.021846345935711671 0 0.016402818145494061 0.0073323843626216306 0 -0.00012040373169426703 -0.0060801339592692263 0 0.00047535033825207368 -0.0061973979816360766 0 0.00026288791633005139 -0.0064882356841148743 0 0.00026288791633005139 -0.0064882356841148743 0 0.001232377593972105 -0.0058022462950268628 0 0.00042755530705445801 -0.0061534294639987008 0 0.016402818145494061 0.0073323843626216306 0 -0.00609507178578587 -0.012795708587651987 0 9.9524311045132702e-05 -0.0053872452132602677 0 0.00047987963618522338 -0.0052238534792151412 0 0.00036873639265432565 -0.0051546098504347809 0 0.00047535033825207368 -0.0061973979816360766 0 0.00026288791633005139 -0.0064882356841148743 0 0.001232377593972105 -0.0058022462950268628 0 -0.00609507178578587 -0.012795708587651987 0 -0.00088319380048222478 -0.0011486688755558716 0 0.00047987963618522338 -0.0052238534792151412 0 0.00064000757110526188 -0.00512759944971127 0 0.00088764997104385439 -0.0053024455501976516 0 0.001232377593972105 -0.0058022462950268628 0 0.0011294521836802056 -0.0054480246290243457 0 0.00042755530705445801 -0.0061534294639987008 0 0.00028695567315884104 -0.0050854748965553434 0 0.00036873639265432565 -0.0051546098504347809 0 0.00047914777997375065 -0.0049484391334961297 0 0.00047987963618522338 -0.0052238534792151412 0 0.00036873639265432565 -0.0051546098504347809 0 0.00064000757110526188 -0.00512759944971127 0 0.00036873639265432565 -0.0051546098504347809 0 0.00064000757110526188 -0.00512759944971127 0 0.00047914777997375065 -0.0049484391334961297 0 0.00064000757110526188 -0.00512759944971127 0 0.00047914777997375065 -0.0049484391334961297 0 0.00065506655860739932 -0.0050072038208477934 0 0.00064000757110526188 -0.00512759944971127 0 0.00065506655860739932 -0.0050072038208477934 0 0.00091411666788827743 -0.0052598608399635257 0 0.00064000757110526188 -0.00512759944971127 0 0.00091411666788827743 -0.0052598608399635257 0 0.00088764997104385439 -0.0053024455501976516 0 0.00091411666788827743 -0.0052598608399635257 0 0.00088764997104385439 -0.0053024455501976516 0 0.0012878139139456788 -0.0055620875523684308 0 0.00065506655860739932 -0.0050072038208477934 0 0.00091411666788827743 -0.0052598608399635257 0 0.00075206191868081702 -0.0050409579529365842 0 0.0011294521836802056 -0.0054480246290243457 0 0.0015181732713528701 -0.0047629137520659327 0 0.00056135314974725312 -0.0053897051725470529 0 0.0011294521836802056 -0.0054480246290243457 0 0.0020064827550527035 -0.0049063075887748556 0 0.0015181732713528701 -0.0047629137520659327 0 0.001232377593972105 -0.0058022462950268628 0 0.0011294521836802056 -0.0054480246290243457 0 0.0020064827550527035 -0.0049063075887748556 0 -0.00088319380048222478 -0.0011486688755558716 0 -0.0033014651422599707 -0.0067311781448500139 0 0.0020064827550527035 -0.0049063075887748556 0 0.0015181732713528701 -0.0047629137520659327 0 0.0027379191043557915 -0.0036916595874706285 0 0.0015181732713528701 -0.0047629137520659327 0 0.0027379191043557915 -0.0036916595874706285 0 0.0013144346574526251 -0.0042273651567458432 0 0.0027379191043557915 -0.0036916595874706285 0 0.0019610680732453432 -0.003197386123466353 0 0.0013144346574526251 -0.0042273651567458432 0 0.0027379191043557915 -0.0036916595874706285 0 0.003423699145496859 -0.0021851494991119405 0 0.0019610680732453432 -0.003197386123466353 0 0.0012878139139456788 -0.0055620875523684308 0 0.0016929153863807513 -0.0059691198936802367 0 0.0012775833904412155 -0.0056342525401887741 0 -0.0033014651422599707 -0.0067311781448500139 0 -0.0040812105836601255 -0.0062128969963161119 0 0.003423699145496859 -0.0021851494991119405 0 0.0019610680732453432 -0.003197386123466353 0 0.0018947440864597936 -0.0022369115642405179 0 0.00091411666788827743 -0.0052598608399635257 0 0.0010005737340600925 -0.0053612353732007912 0 0.0012775833904412155 -0.0056342525401887741 0 0.00091411666788827743 -0.0052598608399635257 0 0.0010005737340600925 -0.0053612353732007912 0 0.00075206191868081702 -0.0050409579529365842 0 0.00091411666788827743 -0.0052598608399635257 0 0.0012878139139456788 -0.0055620875523684308 0 0.0012775833904412155 -0.0056342525401887741 0 0.0010005737340600925 -0.0053612353732007912 0 0.0012775833904412155 -0.0056342525401887741 0 0.0011447933865358093 -0.0056080857197690617 0 0.0012775833904412155 -0.0056342525401887741 0 0.0011447933865358093 -0.0056080857197690617 0 0.0015720051194820991 -0.0060730951654977871 0 0.0010005737340600925 -0.0053612353732007912 0 0.0011447933865358093 -0.0056080857197690617 0 0.00077143269383066042 -0.0050744136368393858 0 0.0011447933865358093 -0.0056080857197690617 0 0.00077143269383066042 -0.0050744136368393858 0 0.0010523376803479093 -0.0055822140869056774 0 0.0010005737340600925 -0.0053612353732007912 0 0.00077143269383066042 -0.0050744136368393858 0 0.00075206191868081702 -0.0050409579529365842 0 0.00077143269383066042 -0.0050744136368393858 0 0.0004821178897771883 -0.0045727230518823455 0 0.00060854794319261036 -0.0048071013782825653 0 0.00077143269383066042 -0.0050744136368393858 0 0.00075206191868081702 -0.0050409579529365842 0 0.00060854794319261036 -0.0048071013782825653 0 0.00077143269383066042 -0.0050744136368393858 0 0.00053691536865304917 -0.0046888636223041029 0 0.0007682642367357206 -0.0051931049020326765 0 0.00053691536865304917 -0.0046888636223041029 0 0.0007682642367357206 -0.0051931049020326765 0 0.00046736348805107996 -0.0045977100395895127 0 0.00053691536865304917 -0.0046888636223041029 0 0.0004821178897771883 -0.0045727230518823455 0 0.0003534166339368067 -0.0043231962761509689 0 0.00077143269383066042 -0.0050744136368393858 0 0.00053691536865304917 -0.0046888636223041029 0 0.0004821178897771883 -0.0045727230518823455 0 0.00038009611502314846 -0.0044700806638858417 0 0.0004821178897771883 -0.0045727230518823455 0 0.00060854794319261036 -0.0048071013782825653 0 0.0004821178897771883 -0.0045727230518823455 0 0.00033346211421725206 -0.0042889128788121079 0 0.0003534166339368067 -0.0043231962761509689 0 0.00038009611502314846 -0.0044700806638858417 0 0.0004821178897771883 -0.0045727230518823455 0 0.00033346211421725206 -0.0042889128788121079 0 0.00038009611502314846 -0.0044700806638858417 0 0.0002246797642144442 -0.0041067565680639479 0 0.00033346211421725206 -0.0042889128788121079 0 0.00038009611502314846 -0.0044700806638858417 0 0.00053531424540338962 -0.004796970278759965 0 0.00060854794319261036 -0.0048071013782825653 0 0.00065506655860739932 -0.0050072038208477934 0 0.00053531424540338962 -0.004796970278759965 0 0.00075206191868081702 -0.0050409579529365842 0 0.00053531424540338962 -0.004796970278759965 0 0.00075206191868081702 -0.0050409579529365842 0 0.00060854794319261036 -0.0048071013782825653 0 -0.0035008225526422213 -0.0077218042859439505 0 -0.0027959901401916646 -0.0070856004575208433 0 -0.0027921016501740972 -0.0078499575621121132 0 -0.0035008225526422213 -0.0077218042859439505 0 -0.0027959901401916646 -0.0070856004575208433 0 -0.0038636409271732065 -0.006828117048260098 0 -0.0027959901401916646 -0.0070856004575208433 0 -0.0027921016501740972 -0.0078499575621121132 0 -0.0021803402087928235 -0.0075158633255838396 0 -0.0035008225526422213 -0.0077218042859439505 0 -0.0027921016501740972 -0.0078499575621121132 0 -0.0031445722766659016 -0.008367476278882631 0 -0.0031445722766659016 -0.008367476278882631 0 -0.00289955731922012 -0.0088320966036018328 0 -0.0023562664350078861 -0.0082456593063148734 0 -0.0027921016501740972 -0.0078499575621121132 0 -0.0023562664350078861 -0.0082456593063148734 0 -0.0021803402087928235 -0.0075158633255838396 0 -0.0027921016501740972 -0.0078499575621121132 0 -0.0031445722766659016 -0.008367476278882631 0 -0.0023562664350078861 -0.0082456593063148734 0 -0.0023562664350078861 -0.0082456593063148734 0 -0.0017388085247761009 -0.0076280238609868125 0 -0.0021803402087928235 -0.0075158633255838396 0 -0.0023562664350078861 -0.0082456593063148734 0 -0.0015986332324258411 -0.0078833307879283276 0 -0.0017388085247761009 -0.0076280238609868125 0 -0.0017388085247761009 -0.0076280238609868125 0 -0.0016007011489110898 -0.0071627380996420777 0 -0.0010965484244894247 -0.0072062889366461772 0 -0.0017388085247761009 -0.0076280238609868125 0 -0.0016007011489110898 -0.0071627380996420777 0 -0.0021803402087928235 -0.0075158633255838396 0 -0.0016007011489110898 -0.0071627380996420777 0 -0.0021803402087928235 -0.0075158633255838396 0 -0.0019135763964437853 -0.0067613948456649786 0 -0.0027959901401916646 -0.0070856004575208433 0 -0.0021803402087928235 -0.0075158633255838396 0 -0.0019135763964437853 -0.0067613948456649786 0 -0.0016007011489110898 -0.0071627380996420777 0 -0.0019135763964437853 -0.0067613948456649786 0 -0.0010911712153077991 -0.0065403393303193379 0 -0.0010911712153077991 -0.0065403393303193379 0 -0.00030234866825952245 -0.0063774126737915719 0 -0.0004362594653870357 -0.0056644142671429514 0 -0.0010911712153077991 -0.0065403393303193379 0 -0.0010965484244894247 -0.0072062889366461772 0 -0.00030234866825952245 -0.0063774126737915719 0 -0.0010965484244894247 -0.0072062889366461772 0 -0.00033084428521469643 -0.0068728411491749764 0 -0.00030234866825952245 -0.0063774126737915719 0 -0.0016007011489110898 -0.0071627380996420777 0 -0.0010911712153077991 -0.0065403393303193379 0 -0.0010965484244894247 -0.0072062889366461772 0 -0.0015986332324258411 -0.0078833307879283276 0 -0.0017388085247761009 -0.0076280238609868125 0 -0.0010965484244894247 -0.0072062889366461772 0 -0.0015986332324258411 -0.0078833307879283276 0 -0.0010965484244894247 -0.0072062889366461772 0 -0.00095177423593525545 -0.0073936994089510216 0 -0.0010965484244894247 -0.0072062889366461772 0 -0.00095177423593525545 -0.0073936994089510216 0 -0.00033084428521469643 -0.0068728411491749764 0 -0.00095177423593525545 -0.0073936994089510216 0 -0.00033084428521469643 -0.0068728411491749764 0 -0.0005595335678139395 -0.007019703609052708 0 -0.00033084428521469643 -0.0068728411491749764 0 -0.0005595335678139395 -0.007019703609052708 0 -0.00021129232635432694 -0.006669148325806059 0 0.00026288791633005139 -0.0064882356841148743 0 -0.00033084428521469643 -0.0068728411491749764 0 -0.00021129232635432694 -0.006669148325806059 0 0.00026288791633005139 -0.0064882356841148743 0 -0.00033084428521469643 -0.0068728411491749764 0 0.00042755530705445801 -0.0061534294639987008 0 -0.00033084428521469643 -0.0068728411491749764 0 -0.00030234866825952245 -0.0063774126737915719 0 0.00042755530705445801 -0.0061534294639987008 0 -0.00030234866825952245 -0.0063774126737915719 0 0.00042755530705445801 -0.0061534294639987008 0 0.00056135314974725312 -0.0053897051725470529 0 0.0011294521836802056 -0.0054480246290243457 0 0.00042755530705445801 -0.0061534294639987008 0 0.00056135314974725312 -0.0053897051725470529 0 -0.00030234866825952245 -0.0063774126737915719 0 0.00056135314974725312 -0.0053897051725470529 0 -0.0004362594653870357 -0.0056644142671429514 0 0.00056135314974725312 -0.0053897051725470529 0 0.00025576446282787223 -0.0047996834948510368 0 -0.0004362594653870357 -0.0056644142671429514 0 0.00056135314974725312 -0.0053897051725470529 0 0.00025576446282787223 -0.0047996834948510368 0 0.0013144346574526251 -0.0042273651567458432 0 0.0015181732713528701 -0.0047629137520659327 0 0.00056135314974725312 -0.0053897051725470529 0 0.0013144346574526251 -0.0042273651567458432 0 0.0019610680732453432 -0.003197386123466353 0 0.0013144346574526251 -0.0042273651567458432 0 0.00057671048229636455 -0.0035915070221148367 0 0.0019610680732453432 -0.003197386123466353 0 0.00057671048229636455 -0.0035915070221148367 0 0.0018947440864597936 -0.0022369115642405179 0 0.00025576446282787223 -0.0047996834948510368 0 0.0013144346574526251 -0.0042273651567458432 0 0.00057671048229636455 -0.0035915070221148367 0 0.00025576446282787223 -0.0047996834948510368 0 0.00057671048229636455 -0.0035915070221148367 0 -0.00069567839319120868 -0.0049523634814424072 0 0.00057671048229636455 -0.0035915070221148367 0 -0.00079920271162130349 -0.0038910350779746998 0 -0.00069567839319120868 -0.0049523634814424072 0 0.00057671048229636455 -0.0035915070221148367 0 -0.00079920271162130349 -0.0038910350779746998 0 -0.00040728778651674506 -0.0025715968581504723 0 -0.00079920271162130349 -0.0038910350779746998 0 -0.00069567839319120868 -0.0049523634814424072 0 -0.0017425642216009479 -0.0043005946621709409 0 -0.00069567839319120868 -0.0049523634814424072 0 -0.0014746858627017469 -0.0057418438453294895 0 -0.0017425642216009479 -0.0043005946621709409 0 -0.00069567839319120868 -0.0049523634814424072 0 -0.0004362594653870357 -0.0056644142671429514 0 -0.0014746858627017469 -0.0057418438453294895 0 0.00025576446282787223 -0.0047996834948510368 0 -0.00069567839319120868 -0.0049523634814424072 0 -0.0004362594653870357 -0.0056644142671429514 0 -0.0010911712153077991 -0.0065403393303193379 0 -0.0004362594653870357 -0.0056644142671429514 0 -0.0014746858627017469 -0.0057418438453294895 0 -0.0019135763964437853 -0.0067613948456649786 0 -0.0010911712153077991 -0.0065403393303193379 0 -0.0014746858627017469 -0.0057418438453294895 0 -0.0019135763964437853 -0.0067613948456649786 0 -0.0023224122446981626 -0.0062080175873919169 0 -0.0014746858627017469 -0.0057418438453294895 0 -0.0027959901401916646 -0.0070856004575208433 0 -0.0019135763964437853 -0.0067613948456649786 0 -0.0023224122446981626 -0.0062080175873919169 0 -0.0023224122446981626 -0.0062080175873919169 0 -0.0023534803479036319 -0.0054097499187302882 0 -0.0031689019425348479 -0.0059194808181671551 0 -0.0023224122446981626 -0.0062080175873919169 0 -0.0014746858627017469 -0.0057418438453294895 0 -0.0023534803479036319 -0.0054097499187302882 0 -0.0014746858627017469 -0.0057418438453294895 0 -0.0017425642216009479 -0.0043005946621709409 0 -0.0023534803479036319 -0.0054097499187302882 0 -0.00079920271162130349 -0.0038910350779746998 0 -0.0017425642216009479 -0.0043005946621709409 0 -0.0015755693181781507 -0.0029290942918172701 0 -0.0017425642216009479 -0.0043005946621709409 0 -0.0030955713922391302 -0.0047027466144623983 0 -0.0024904419950014362 -0.0035623087965620547 0 -0.0017425642216009479 -0.0043005946621709409 0 -0.0023534803479036319 -0.0054097499187302882 0 -0.0030955713922391302 -0.0047027466144623983 0 -0.0023534803479036319 -0.0054097499187302882 0 -0.0030955713922391302 -0.0047027466144623983 0 -0.0031689019425348479 -0.0059194808181671551 0 -0.0030955713922391302 -0.0047027466144623983 0 -0.0042392668632778435 -0.0056937744918612518 0 -0.0045412524762744417 -0.0043244655464644175 0 -0.0030955713922391302 -0.0047027466144623983 0 -0.0045412524762744417 -0.0043244655464644175 0 -0.0034729562284986407 -0.0034085275720360259 0 -0.0030955713922391302 -0.0047027466144623983 0 -0.0042392668632778435 -0.0056937744918612518 0 -0.0031689019425348479 -0.0059194808181671551 0 -0.0042392668632778435 -0.0056937744918612518 0 -0.0031689019425348479 -0.0059194808181671551 0 -0.0038636409271732065 -0.006828117048260098 0 -0.0027959901401916646 -0.0070856004575208433 0 -0.0023224122446981626 -0.0062080175873919169 0 -0.0031689019425348479 -0.0059194808181671551 0 -0.0027959901401916646 -0.0070856004575208433 0 -0.0031689019425348479 -0.0059194808181671551 0 -0.0038636409271732065 -0.006828117048260098 0 -0.0049007227985245327 -0.0010571265922145472 0 -0.0028310748964619162 -0.00045880792592136333 0 -0.0033660910953824765 0.0011076662818317051 0 -0.0049007227985245327 -0.0010571265922145472 0 -0.0036770278996018455 -0.0019854079372915159 0 -0.0028310748964619162 -0.00045880792592136333 0 -0.0036770278996018455 -0.0019854079372915159 0 -0.0025901426017982654 -0.0023091602078850818 0 -0.0028310748964619162 -0.00045880792592136333 0 -0.0049007227985245327 -0.0010571265922145472 0 -0.0036770278996018455 -0.0019854079372915159 0 -0.0047804353898515473 -0.0027620434308972281 0 -0.0036770278996018455 -0.0019854079372915159 0 -0.0047804353898515473 -0.0027620434308972281 0 -0.0034729562284986407 -0.0034085275720360259 0 -0.0047804353898515473 -0.0027620434308972281 0 -0.0045412524762744417 -0.0043244655464644175 0 -0.0034729562284986407 -0.0034085275720360259 0 -0.0030955713922391302 -0.0047027466144623983 0 -0.0034729562284986407 -0.0034085275720360259 0 -0.0024904419950014362 -0.0035623087965620547 0 -0.0036770278996018455 -0.0019854079372915159 0 -0.0034729562284986407 -0.0034085275720360259 0 -0.0025901426017982654 -0.0023091602078850818 0 -0.0025901426017982654 -0.0023091602078850818 0 -0.0024904419950014362 -0.0035623087965620547 0 -0.0015755693181781507 -0.0029290942918172701 0 -0.0034729562284986407 -0.0034085275720360259 0 -0.0025901426017982654 -0.0023091602078850818 0 -0.0024904419950014362 -0.0035623087965620547 0 -0.0017425642216009479 -0.0043005946621709409 0 -0.0024904419950014362 -0.0035623087965620547 0 -0.0015755693181781507 -0.0029290942918172701 0 -0.0025901426017982654 -0.0023091602078850818 0 -0.0015755693181781507 -0.0029290942918172701 0 -0.001501517726684358 -0.0014830177626322745 0 -0.001501517726684358 -0.0014830177626322745 0 -0.0028310748964619162 -0.00045880792592136333 0 -0.0013302009325750854 0.00015282873121476586 0 -0.0025901426017982654 -0.0023091602078850818 0 -0.001501517726684358 -0.0014830177626322745 0 -0.0028310748964619162 -0.00045880792592136333 0 -0.0028310748964619162 -0.00045880792592136333 0 -0.0013302009325750854 0.00015282873121476586 0 -0.0017955740987495132 0.0017542770980402819 0 -0.0013302009325750854 0.00015282873121476586 0 -0.00039225291510902415 -0.00060034620305770127 0 -0.00011204156412552778 0.0014484643161890975 0 -0.00039225291510902415 -0.00060034620305770127 0 0.00091847726603932036 0.00053542146595960327 0 -0.00011204156412552778 0.0014484643161890975 0 -0.00039225291510902415 -0.00060034620305770127 0 0.00045317723842539995 -0.0012651418804040186 0 0.00091847726603932036 0.00053542146595960327 0 -0.001501517726684358 -0.0014830177626322745 0 -0.0013302009325750854 0.00015282873121476586 0 -0.00039225291510902415 -0.00060034620305770127 0 -0.0015755693181781507 -0.0029290942918172701 0 -0.001501517726684358 -0.0014830177626322745 0 -0.00040728778651674506 -0.0025715968581504723 0 -0.001501517726684358 -0.0014830177626322745 0 -0.00039225291510902415 -0.00060034620305770127 0 -0.00040728778651674506 -0.0025715968581504723 0 -0.00079920271162130349 -0.0038910350779746998 0 -0.0015755693181781507 -0.0029290942918172701 0 -0.00040728778651674506 -0.0025715968581504723 0 -0.00040728778651674506 -0.0025715968581504723 0 0.00045317723842539995 -0.0012651418804040186 0 0.00081516106970736706 -0.0021281350774159363 0 -0.00039225291510902415 -0.00060034620305770127 0 -0.00040728778651674506 -0.0025715968581504723 0 0.00045317723842539995 -0.0012651418804040186 0 0.00045317723842539995 -0.0012651418804040186 0 0.00081516106970736706 -0.0021281350774159363 0 0.0016404957968348989 -0.00087829300511749902 0 0.00057671048229636455 -0.0035915070221148367 0 0.00081516106970736706 -0.0021281350774159363 0 0.0018947440864597936 -0.0022369115642405179 0 0.00057671048229636455 -0.0035915070221148367 0 -0.00040728778651674506 -0.0025715968581504723 0 0.00081516106970736706 -0.0021281350774159363 0 0.00081516106970736706 -0.0021281350774159363 0 0.0018947440864597936 -0.0022369115642405179 0 0.0016404957968348989 -0.00087829300511749902 0 0.0018947440864597936 -0.0022369115642405179 0 0.0016404957968348989 -0.00087829300511749902 0 0.0028025606314744694 -0.0011399846273112454 0 0.0016404957968348989 -0.00087829300511749902 0 0.00091847726603932036 0.00053542146595960327 0 0.0024880346085381006 0.0012779000489097857 0 0.0016404957968348989 -0.00087829300511749902 0 0.0024880346085381006 0.0012779000489097857 0 0.0030171580379959807 5.8547445276057359e-05 0 0.00045317723842539995 -0.0012651418804040186 0 0.0016404957968348989 -0.00087829300511749902 0 0.00091847726603932036 0.00053542146595960327 0 0.00091847726603932036 0.00053542146595960327 0 0.0024880346085381006 0.0012779000489097857 0 0.0016266190795906803 0.0028433214481738646 0 0.0024880346085381006 0.0012779000489097857 0 0.0016266190795906803 0.0028433214481738646 0 0.0033977460231481987 0.0032506308649342982 0 0.0016266190795906803 0.0028433214481738646 0 0.0033740273988482668 0.0049720435647882394 0 0.0016450302285263179 0.0047886498360383773 0 0.0016266190795906803 0.0028433214481738646 0 0.0033740273988482668 0.0049720435647882394 0 0.0033977460231481987 0.0032506308649342982 0 0.0033740273988482668 0.0049720435647882394 0 0.0028767692577347766 0.005981824741849091 0 0.0016450302285263179 0.0047886498360383773 0 0.0033740273988482668 0.0049720435647882394 0 0.0028767692577347766 0.005981824741849091 0 0.0045701394240605583 0.0064048489265851171 0 0.0028767692577347766 0.005981824741849091 0 0.0045701394240605583 0.0064048489265851171 0 0.004136104799763075 0.0074269426426478696 0 0.0028767692577347766 0.005981824741849091 0 0.002083238172467142 0.0066283103058973744 0 0.004136104799763075 0.0074269426426478696 0 0.0028767692577347766 0.005981824741849091 0 0.002083238172467142 0.0066283103058973744 0 0.0016450302285263179 0.0047886498360383773 0 0.00030705373274950035 0.0058949578158312569 0 1.7475441027366809e-05 0.0035724117655156445 0 -0.0013708401816688322 0.0036851531903769911 0 0.0016450302285263179 0.0047886498360383773 0 0.00030705373274950035 0.0058949578158312569 0 1.7475441027366809e-05 0.0035724117655156445 0 0.002083238172467142 0.0066283103058973744 0 0.0016450302285263179 0.0047886498360383773 0 0.00030705373274950035 0.0058949578158312569 0 1.7475441027366809e-05 0.0035724117655156445 0 -0.00011204156412552778 0.0014484643161890975 0 -0.0017955740987495132 0.0017542770980402819 0 0.0016266190795906803 0.0028433214481738646 0 0.0016450302285263179 0.0047886498360383773 0 1.7475441027366809e-05 0.0035724117655156445 0 0.0016266190795906803 0.0028433214481738646 0 1.7475441027366809e-05 0.0035724117655156445 0 -0.00011204156412552778 0.0014484643161890975 0 0.00091847726603932036 0.00053542146595960327 0 0.0016266190795906803 0.0028433214481738646 0 -0.00011204156412552778 0.0014484643161890975 0 -0.0013302009325750854 0.00015282873121476586 0 -0.00011204156412552778 0.0014484643161890975 0 -0.0017955740987495132 0.0017542770980402819 0 -0.0028310748964619162 -0.00045880792592136333 0 -0.0017955740987495132 0.0017542770980402819 0 -0.0033660910953824765 0.0011076662818317051 0 -0.0017955740987495132 0.0017542770980402819 0 -0.0013708401816688322 0.0036851531903769911 0 -0.0029492048137719612 0.0028247977104576029 0 -0.0017955740987495132 0.0017542770980402819 0 -0.0029492048137719612 0.0028247977104576029 0 -0.0033660910953824765 0.0011076662818317051 0 1.7475441027366809e-05 0.0035724117655156445 0 -0.0017955740987495132 0.0017542770980402819 0 -0.0013708401816688322 0.0036851531903769911 0 0.00030705373274950035 0.0058949578158312569 0 -0.0013708401816688322 0.0036851531903769911 0 -0.0013182098776282616 0.0052638362219949511 0 -0.0013182098776282616 0.0052638362219949511 0 -0.002238278041260981 0.0040935238234930992 0 -0.0029813280469360233 0.0047195742757686994 0 -0.0013708401816688322 0.0036851531903769911 0 -0.0013182098776282616 0.0052638362219949511 0 -0.002238278041260981 0.0040935238234930992 0 -0.0013708401816688322 0.0036851531903769911 0 -0.002238278041260981 0.0040935238234930992 0 -0.0029492048137719612 0.0028247977104576029 0 -0.002238278041260981 0.0040935238234930992 0 -0.0029492048137719612 0.0028247977104576029 0 -0.0036301463997839285 0.0035869028111662543 0 -0.002238278041260981 0.0040935238234930992 0 -0.0036301463997839285 0.0035869028111662543 0 -0.0029813280469360233 0.0047195742757686994 0 -0.0036301463997839285 0.0035869028111662543 0 -0.0029813280469360233 0.0047195742757686994 0 -0.0046705488700908675 0.0042435884413054362 0 -0.0036301463997839285 0.0035869028111662543 0 -0.0046705488700908675 0.0042435884413054362 0 -0.0048183261807673589 0.0025212295434296496 0 -0.0029492048137719612 0.0028247977104576029 0 -0.0036301463997839285 0.0035869028111662543 0 -0.0048183261807673589 0.0025212295434296496 0 -0.0048183261807673589 0.0025212295434296496 0 -0.0033660910953824765 0.0011076662818317051 0 -0.0049030131405114682 0.00074465089526280087 0 -0.0029492048137719612 0.0028247977104576029 0 -0.0048183261807673589 0.0025212295434296496 0 -0.0033660910953824765 0.0011076662818317051 0 -0.0049007227985245327 -0.0010571265922145472 0 -0.0033660910953824765 0.0011076662818317051 0 -0.0049030131405114682 0.00074465089526280087 0 0.0012336855262037765 -0.0059974690037190009 0 0.0013101357731402968 -0.0063532879222009441 0 0.0010053872469355488 -0.0057383254685378273 0 0.0012336855262037765 -0.0059974690037190009 0 0.0016715747442240529 -0.0067874709935839533 0 0.0016576559358687916 -0.0065515760331907391 0 0.0012336855262037765 -0.0059974690037190009 0 0.0014062017424160622 -0.0060795542922442245 0 0.0016576559358687916 -0.0065515760331907391 0 0.0012336855262037765 -0.0059974690037190009 0 0.0016715747442240529 -0.0067874709935839533 0 0.0013101357731402968 -0.0063532879222009441 0 0.0013101357731402968 -0.0063532879222009441 0 0.00097009543424239229 -0.0058339779536096216 0 0.0010053872469355488 -0.0057383254685378273 0 0.00097009543424239229 -0.0058339779536096216 0 0.00074925985626632624 -0.0052774282273988964 0 0.0010053872469355488 -0.0057383254685378273 0 0.00097009543424239229 -0.0058339779536096216 0 0.00074925985626632624 -0.0052774282273988964 0 0.00073569542655467263 -0.0053212497333726483 0 0.00074925985626632624 -0.0052774282273988964 0 0.0010053872469355488 -0.0057383254685378273 0 0.0007682642367357206 -0.0051931049020326765 0 0.00074925985626632624 -0.0052774282273988964 0 0.0007682642367357206 -0.0051931049020326765 0 0.00059404797162964404 -0.0049009977820342037 0 0.0007682642367357206 -0.0051931049020326765 0 0.00059404797162964404 -0.0049009977820342037 0 0.00046736348805107996 -0.0045977100395895127 0 0.00077143269383066042 -0.0050744136368393858 0 0.0007682642367357206 -0.0051931049020326765 0 0.0010523376803479093 -0.0055822140869056774 0 0.0012336855262037765 -0.0059974690037190009 0 0.0007682642367357206 -0.0051931049020326765 0 0.0010523376803479093 -0.0055822140869056774 0 0.0012336855262037765 -0.0059974690037190009 0 0.0010053872469355488 -0.0057383254685378273 0 0.0007682642367357206 -0.0051931049020326765 0 0.0012336855262037765 -0.0059974690037190009 0 0.0010523376803479093 -0.0055822140869056774 0 0.0014062017424160622 -0.0060795542922442245 0 0.0011447933865358093 -0.0056080857197690617 0 0.0010523376803479093 -0.0055822140869056774 0 0.0014062017424160622 -0.0060795542922442245 0 0.0011447933865358093 -0.0056080857197690617 0 0.0015720051194820991 -0.0060730951654977871 0 0.0014062017424160622 -0.0060795542922442245 0 0.0016929153863807513 -0.0059691198936802367 0 0.0012775833904412155 -0.0056342525401887741 0 0.0015720051194820991 -0.0060730951654977871 0 0.0015720051194820991 -0.0060730951654977871 0 0.0020992861965522212 -0.0065007047002747422 0 0.0019365441081868212 -0.0066541602479957863 0 0.0015720051194820991 -0.0060730951654977871 0 0.0014062017424160622 -0.0060795542922442245 0 0.0019365441081868212 -0.0066541602479957863 0 0.003423699145496859 -0.0021851494991119405 0 0.0018947440864597936 -0.0022369115642405179 0 0.0028025606314744694 -0.0011399846273112454 0 0.003423699145496859 -0.0021851494991119405 0 0.0040740169724920519 -0.00044061467472880476 0 0.0028025606314744694 -0.0011399846273112454 0 0.0016929153863807513 -0.0059691198936802367 0 0.0015720051194820991 -0.0060730951654977871 0 0.0020992861965522212 -0.0065007047002747422 0 -0.0040812105836601255 -0.0062128969963161119 0 -0.0056167399225066006 0.0025652093266955215 0 0.0016404957968348989 -0.00087829300511749902 0 0.0028025606314744694 -0.0011399846273112454 0 0.0030171580379959807 5.8547445276057359e-05 0 0.0040740169724920519 -0.00044061467472880476 0 0.0028025606314744694 -0.0011399846273112454 0 0.0030171580379959807 5.8547445276057359e-05 0 0.0024880346085381006 0.0012779000489097857 0 0.0030171580379959807 5.8547445276057359e-05 0 0.0046458111780683315 0.0015140161424476524 0 -0.0056167399225066006 0.0025652093266955215 0 -0.0082121595429197215 -0.015856206737997609 0 0.0020992861965522212 -0.0065007047002747422 0 0.0025203588760430067 -0.0071529318652189594 0 0.0019365441081868212 -0.0066541602479957863 0 0.0040740169724920519 -0.00044061467472880476 0 0.0030171580379959807 5.8547445276057359e-05 0 0.0046458111780683315 0.0015140161424476524 0 -0.0082121595429197215 -0.015856206737997609 0 -0.0089017615362810727 0.01951525375724035 0 0.0024880346085381006 0.0012779000489097857 0 0.0046458111780683315 0.0015140161424476524 0 0.0033977460231481987 0.0032506308649342982 0 0.0014062017424160622 -0.0060795542922442245 0 0.0016576559358687916 -0.0065515760331907391 0 0.0019365441081868212 -0.0066541602479957863 0 0.0025203588760430067 -0.0071529318652189594 0 0.0019365441081868212 -0.0066541602479957863 0 0.002186782244460611 -0.0072763170294569881 0 0.0016715747442240529 -0.0067874709935839533 0 0.0016576559358687916 -0.0065515760331907391 0 0.002186782244460611 -0.0072763170294569881 0 0.0016576559358687916 -0.0065515760331907391 0 0.0019365441081868212 -0.0066541602479957863 0 0.002186782244460611 -0.0072763170294569881 0 0.002186782244460611 -0.0072763170294569881 0 0.0026879748882907843 -0.0080168642602782021 0 0.0021517663900686005 -0.0075786535026852019 0 0.0016715747442240529 -0.0067874709935839533 0 0.002186782244460611 -0.0072763170294569881 0 0.0021517663900686005 -0.0075786535026852019 0 0.0025203588760430067 -0.0071529318652189594 0 0.002186782244460611 -0.0072763170294569881 0 0.0029847334893054081 -0.0078868437496748163 0 0.002186782244460611 -0.0072763170294569881 0 0.0026879748882907843 -0.0080168642602782021 0 0.0029847334893054081 -0.0078868437496748163 0 0.0026879748882907843 -0.0080168642602782021 0 0.0021517663900686005 -0.0075786535026852019 0 0.0028713090797030248 -0.0085259268276922217 0 0.0046458111780683315 0.0015140161424476524 0 0.0033977460231481987 0.0032506308649342982 0 0.0052001486108567817 0.0035640107423132372 0 -0.0089017615362810727 0.01951525375724035 0 -0.019878954660117777 -0.025167514783986416 0 0.0026879748882907843 -0.0080168642602782021 0 0.0029847334893054081 -0.0078868437496748163 0 0.0035189751047494501 -0.0087459978353302426 0 0.0033977460231481987 0.0032506308649342982 0 0.0052001486108567817 0.0035640107423132372 0 0.0057358142393037744 0.0057368588276055024 0 0.0033740273988482668 0.0049720435647882394 0 0.0033977460231481987 0.0032506308649342982 0 0.0057358142393037744 0.0057368588276055024 0 0.0033740273988482668 0.0049720435647882394 0 0.0057358142393037744 0.0057368588276055024 0 0.0045701394240605583 0.0064048489265851171 0 -0.019878954660117777 -0.025167514783986416 0 0.0032229094308045322 0.021777862990076752 0 0.0057358142393037744 0.0057368588276055024 0 0.0064321725525816617 0.0079800386630806217 0 0.0045701394240605583 0.0064048489265851171 0 0.0064321725525816617 0.0079800386630806217 0 0.0045701394240605583 0.0064048489265851171 0 0.004136104799763075 0.0074269426426478696 0 0.0021517663900686005 -0.0075786535026852019 0 0.0028713090797030248 -0.0085259268276922217 0 0.0020571877916045183 -0.0077680138535499337 0 0.0026879748882907843 -0.0080168642602782021 0 0.0035189751047494501 -0.0087459978353302426 0 0.0028713090797030248 -0.0085259268276922217 0 0.0035189751047494501 -0.0087459978353302426 0 0.0041527998870648829 -0.0096883522020107162 0 0.0028713090797030248 -0.0085259268276922217 0 0.0041527998870648829 -0.0096883522020107162 0 0.0028713090797030248 -0.0085259268276922217 0 0.0031474686578257731 -0.0091242408636230139 0 0.0028713090797030248 -0.0085259268276922217 0 0.0031474686578257731 -0.0091242408636230139 0 0.0020571877916045183 -0.0077680138535499337 0 0.0020571877916045183 -0.0077680138535499337 0 0.001538078774865172 -0.0069617932092774061 0 0.0017906217403179437 -0.0074842724962039245 0 0.0031474686578257731 -0.0091242408636230139 0 0.0023718600763263349 -0.0083305446604512497 0 0.0020571877916045183 -0.0077680138535499337 0 0.0023718600763263349 -0.0083305446604512497 0 0.0020571877916045183 -0.0077680138535499337 0 0.0017906217403179437 -0.0074842724962039245 0 0.0021517663900686005 -0.0075786535026852019 0 0.0020571877916045183 -0.0077680138535499337 0 0.001647936818564741 -0.0070032967919416789 0 0.0020571877916045183 -0.0077680138535499337 0 0.001647936818564741 -0.0070032967919416789 0 0.001538078774865172 -0.0069617932092774061 0 0.0013101357731402968 -0.0063532879222009441 0 0.001647936818564741 -0.0070032967919416789 0 0.0012277146925371604 -0.0063892688374488291 0 0.0016715747442240529 -0.0067874709935839533 0 0.0013101357731402968 -0.0063532879222009441 0 0.001647936818564741 -0.0070032967919416789 0 0.0016715747442240529 -0.0067874709935839533 0 0.0021517663900686005 -0.0075786535026852019 0 0.001647936818564741 -0.0070032967919416789 0 0.00097009543424239229 -0.0058339779536096216 0 0.0012277146925371604 -0.0063892688374488291 0 0.0010344508874843578 -0.0060165533286552541 0 0.0013101357731402968 -0.0063532879222009441 0 0.00097009543424239229 -0.0058339779536096216 0 0.0012277146925371604 -0.0063892688374488291 0 0.0012277146925371604 -0.0063892688374488291 0 0.001538078774865172 -0.0069617932092774061 0 0.001320483096483349 -0.0066034949534348967 0 0.001647936818564741 -0.0070032967919416789 0 0.0012277146925371604 -0.0063892688374488291 0 0.001538078774865172 -0.0069617932092774061 0 0.0012277146925371604 -0.0063892688374488291 0 0.001320483096483349 -0.0066034949534348967 0 0.0010344508874843578 -0.0060165533286552541 0 0.001538078774865172 -0.0069617932092774061 0 0.001320483096483349 -0.0066034949534348967 0 0.0017906217403179437 -0.0074842724962039245 0 0.001320483096483349 -0.0066034949534348967 0 0.0017906217403179437 -0.0074842724962039245 0 0.0014360115272809947 -0.0066795200326440225 0 0.001320483096483349 -0.0066034949534348967 0 0.0014360115272809947 -0.0066795200326440225 0 0.0011527404082207718 -0.0061646375015884432 0 0.0014360115272809947 -0.0066795200326440225 0 0.001197932546974419 -0.0059316458533097199 0 0.0011527404082207718 -0.0061646375015884432 0 0.001197932546974419 -0.0059316458533097199 0 0.00089851665658332257 -0.0055433791411435597 0 0.0011527404082207718 -0.0061646375015884432 0 0.00089851665658332257 -0.0055433791411435597 0 0.0011527404082207718 -0.0061646375015884432 0 0.0010344508874843578 -0.0060165533286552541 0 0.001320483096483349 -0.0066034949534348967 0 0.0011527404082207718 -0.0061646375015884432 0 0.0010344508874843578 -0.0060165533286552541 0 0.0010860819444753925 -0.0052514485731822019 0 0.00086130042917380333 -0.0051219547609065467 0 0.0010366086555717634 -0.004670076438753985 0 0.001197932546974419 -0.0059316458533097199 0 0.0010860819444753925 -0.0052514485731822019 0 0.00086130042917380333 -0.0051219547609065467 0 0.001197932546974419 -0.0059316458533097199 0 0.00089851665658332257 -0.0055433791411435597 0 0.00086130042917380333 -0.0051219547609065467 0 0.00086130042917380333 -0.0051219547609065467 0 0.00066613730565193163 -0.0050055219154391036 0 0.00059344636632805412 -0.0046054206483625865 0 0.00089851665658332257 -0.0055433791411435597 0 0.00086130042917380333 -0.0051219547609065467 0 0.00066613730565193163 -0.0050055219154391036 0 0.00066613730565193163 -0.0050055219154391036 0 0.0007573702519379636 -0.0053758388304028289 0 0.00054643349278713069 -0.0048401187002289686 0 0.00066613730565193163 -0.0050055219154391036 0 0.00054643349278713069 -0.0048401187002289686 0 0.00043618721688417164 -0.0044966475514523511 0 0.00066613730565193163 -0.0050055219154391036 0 0.00043618721688417164 -0.0044966475514523511 0 0.00059344636632805412 -0.0046054206483625865 0 0.00089851665658332257 -0.0055433791411435597 0 0.0010344508874843578 -0.0060165533286552541 0 0.0007573702519379636 -0.0053758388304028289 0 0.00089851665658332257 -0.0055433791411435597 0 0.00066613730565193163 -0.0050055219154391036 0 0.0007573702519379636 -0.0053758388304028289 0 0.00097009543424239229 -0.0058339779536096216 0 0.0010344508874843578 -0.0060165533286552541 0 0.0007573702519379636 -0.0053758388304028289 0 0.00097009543424239229 -0.0058339779536096216 0 0.0007573702519379636 -0.0053758388304028289 0 0.00073569542655467263 -0.0053212497333726483 0 0.00074925985626632624 -0.0052774282273988964 0 0.00073569542655467263 -0.0053212497333726483 0 0.00058376372853290919 -0.0049505621819380449 0 0.00073569542655467263 -0.0053212497333726483 0 0.00058376372853290919 -0.0049505621819380449 0 0.00060744160848143507 -0.0050244745299418692 0 0.00058376372853290919 -0.0049505621819380449 0 0.00060744160848143507 -0.0050244745299418692 0 0.0004534674646710996 -0.0046564727884886425 0 0.0007573702519379636 -0.0053758388304028289 0 0.00073569542655467263 -0.0053212497333726483 0 0.00060744160848143507 -0.0050244745299418692 0 0.00060744160848143507 -0.0050244745299418692 0 0.00054643349278713069 -0.0048401187002289686 0 0.0004534674646710996 -0.0046564727884886425 0 0.0007573702519379636 -0.0053758388304028289 0 0.00060744160848143507 -0.0050244745299418692 0 0.00054643349278713069 -0.0048401187002289686 0 0.00054643349278713069 -0.0048401187002289686 0 0.00043618721688417164 -0.0044966475514523511 0 0.00030375582781361655 -0.0042903370415883066 0 0.00043618721688417164 -0.0044966475514523511 0 0.00030375582781361655 -0.0042903370415883066 0 0.00025729001486202657 -0.0041376258329811335 0 0.00054643349278713069 -0.0048401187002289686 0 0.00030375582781361655 -0.0042903370415883066 0 0.0004534674646710996 -0.0046564727884886425 0 0.0004534674646710996 -0.0046564727884886425 0 0.00023221548796944301 -0.0041255138534870535 0 0.00042901823392091067 -0.0045715039206848255 0 0.00030375582781361655 -0.0042903370415883066 0 0.0004534674646710996 -0.0046564727884886425 0 0.00023221548796944301 -0.0041255138534870535 0 0.00030375582781361655 -0.0042903370415883066 0 0.00023221548796944301 -0.0041255138534870535 0 5.7358282654428104e-05 -0.0037306023342523688 0 0.00023221548796944301 -0.0041255138534870535 0 0.00042901823392091067 -0.0045715039206848255 0 0.00030781814388606426 -0.0042644898369588275 0 0.00042901823392091067 -0.0045715039206848255 0 0.00030781814388606426 -0.0042644898369588275 0 0.00046736348805107996 -0.0045977100395895127 0 0.00042901823392091067 -0.0045715039206848255 0 0.00059404797162964404 -0.0049009977820342037 0 0.00046736348805107996 -0.0045977100395895127 0 0.00058376372853290919 -0.0049505621819380449 0 0.00042901823392091067 -0.0045715039206848255 0 0.00059404797162964404 -0.0049009977820342037 0 0.00074925985626632624 -0.0052774282273988964 0 0.00058376372853290919 -0.0049505621819380449 0 0.00059404797162964404 -0.0049009977820342037 0 0.00058376372853290919 -0.0049505621819380449 0 0.0004534674646710996 -0.0046564727884886425 0 0.00042901823392091067 -0.0045715039206848255 0 0.00089710464717351456 -0.0024830123349975685 0 0.00063631297312331586 -0.0020692975795398015 0 0.00082012696762552584 -0.0022721302516372725 0 -0.001122228932577834 -0.0038774168336232779 0 -0.00084398555774073728 -0.0026777290953205746 0 0.00089710464717351456 -0.0024830123349975685 0 0.00063631297312331586 -0.0020692975795398015 0 0.00068535531323434744 -0.0022917363357238974 0 -8.7580568959588033e-05 -0.0034804335580715363 0 5.7358282654428104e-05 -0.0037306023342523688 0 -0.00016612309227023508 -0.0032923151126461533 0 5.7358282654428104e-05 -0.0037306023342523688 0 -5.9458405190537751e-05 -0.0034566933378707937 0 -0.00016612309227023508 -0.0032923151126461533 0 0.00023221548796944301 -0.0041255138534870535 0 5.7358282654428104e-05 -0.0037306023342523688 0 7.5582830498341439e-05 -0.0037671887600357261 0 5.7358282654428104e-05 -0.0037306023342523688 0 7.5582830498341439e-05 -0.0037671887600357261 0 -5.9458405190537751e-05 -0.0034566933378707937 0 0.00030375582781361655 -0.0042903370415883066 0 5.7358282654428104e-05 -0.0037306023342523688 0 0.00025729001486202657 -0.0041376258329811335 0 -8.7580568959588033e-05 -0.0034804335580715363 0 5.7358282654428104e-05 -0.0037306023342523688 0 9.3288776894851896e-05 -0.0037945950009068341 0 5.7358282654428104e-05 -0.0037306023342523688 0 9.3288776894851896e-05 -0.0037945950009068341 0 0.00025729001486202657 -0.0041376258329811335 0 9.3288776894851896e-05 -0.0037945950009068341 0 0.00025729001486202657 -0.0041376258329811335 0 0.00030532449908796913 -0.004111023281744077 0 0.00043618721688417164 -0.0044966475514523511 0 0.00025729001486202657 -0.0041376258329811335 0 0.00030532449908796913 -0.004111023281744077 0 9.3288776894851896e-05 -0.0037945950009068341 0 0.00030532449908796913 -0.004111023281744077 0 3.9407636164416451e-05 -0.0037096628395162923 0 0.00030532449908796913 -0.004111023281744077 0 3.9407636164416451e-05 -0.0037096628395162923 0 0.00025799409564426497 -0.0039335140185474161 0 0.0011358580680471955 -0.0027090840625861893 0 0.00082012696762552584 -0.0022721302516372725 0 0.00086711808722495138 -0.0021860522103492679 0 0.0011358580680471955 -0.0027090840625861893 0 0.0011818774912737355 -0.0025813265620903518 0 0.00086711808722495138 -0.0021860522103492679 0 -0.0016958728606568524 0.00034532102832488649 0 -0.0017879549438307022 -0.009816033887416746 0 -8.7580568959588033e-05 -0.0034804335580715363 0 9.3288776894851896e-05 -0.0037945950009068341 0 3.9407636164416451e-05 -0.0037096628395162923 0 0.00089710464717351456 -0.0024830123349975685 0 0.0011358580680471955 -0.0027090840625861893 0 0.00082012696762552584 -0.0022721302516372725 0 -0.001122228932577834 -0.0038774168336232779 0 -0.0016958728606568524 0.00034532102832488649 0 0.0011358580680471955 -0.0027090840625861893 0 0.0011818774912737355 -0.0025813265620903518 0 0.0014194963555651718 -0.002936092795466807 0 -0.0017879549438307022 -0.009816033887416746 0 -0.0045378357942884662 0.0042014386433873886 0 0.00025799409564426497 -0.0039335140185474161 0 0.00050101438905660772 -0.0042573756589641661 0 0.00058797121373782481 -0.0041920570945056688 0 0.0011818774912737355 -0.0025813265620903518 0 0.0014194963555651718 -0.002936092795466807 0 0.0017665407131199757 -0.0031914783175721385 0 0.0011818774912737355 -0.0025813265620903518 0 0.0017665407131199757 -0.0031914783175721385 0 0.0013850632005733565 -0.0027263697447091374 0 0.00043618721688417164 -0.0044966475514523511 0 0.00030532449908796913 -0.004111023281744077 0 0.00059344636632805412 -0.0046054206483625865 0 0.00030532449908796913 -0.004111023281744077 0 0.00050101438905660772 -0.0042573756589641661 0 0.00059344636632805412 -0.0046054206483625865 0 0.00030532449908796913 -0.004111023281744077 0 0.00025799409564426497 -0.0039335140185474161 0 0.00050101438905660772 -0.0042573756589641661 0 0.00050101438905660772 -0.0042573756589641661 0 0.00059344636632805412 -0.0046054206483625865 0 0.00074955677866732622 -0.0045025197154873195 0 0.00086130042917380333 -0.0051219547609065467 0 0.00059344636632805412 -0.0046054206483625865 0 0.00074955677866732622 -0.0045025197154873195 0 0.00050101438905660772 -0.0042573756589641661 0 0.00074955677866732622 -0.0045025197154873195 0 0.00058797121373782481 -0.0041920570945056688 0 0.00074955677866732622 -0.0045025197154873195 0 0.00058797121373782481 -0.0041920570945056688 0 0.0010298657383878973 -0.0042865737007613796 0 0.00074955677866732622 -0.0045025197154873195 0 0.0010366086555717634 -0.004670076438753985 0 0.0010298657383878973 -0.0042865737007613796 0 0.00086130042917380333 -0.0051219547609065467 0 0.00074955677866732622 -0.0045025197154873195 0 0.0010366086555717634 -0.004670076438753985 0 0.0017665407131199757 -0.0031914783175721385 0 0.0017140826599651336 -0.0031129030373932324 0 0.0013850632005733565 -0.0027263697447091374 0 -0.0045378357942884662 0.0042014386433873886 0 0.0011079258430547682 -0.012204350261109878 0 0.0017665407131199757 -0.0031914783175721385 0 0.0022362802123499733 -0.0035515346002095104 0 0.0017140826599651336 -0.0031129030373932324 0 0.0022362802123499733 -0.0035515346002095104 0 0.0017140826599651336 -0.0031129030373932324 0 0.001775703549674848 -0.0031829735623071479 0 0.0017140826599651336 -0.0031129030373932324 0 0.0014273337083915048 -0.0027250816596691364 0 0.001775703549674848 -0.0031829735623071479 0 0.0014273337083915048 -0.0027250816596691364 0 0.001775703549674848 -0.0031829735623071479 0 0.0013779530644515525 -0.0026176188763485497 0 0.0014273337083915048 -0.0027250816596691364 0 0.0013850632005733565 -0.0027263697447091374 0 0.0011365922183511953 -0.0022840000188658737 0 0.0017140826599651336 -0.0031129030373932324 0 0.0014273337083915048 -0.0027250816596691364 0 0.0013850632005733565 -0.0027263697447091374 0 0.0014273337083915048 -0.0027250816596691364 0 0.0011365922183511953 -0.0022840000188658737 0 0.0013779530644515525 -0.0026176188763485497 0 0.0011365922183511953 -0.0022840000188658737 0 0.0010699859554397801 -0.0020196647576744215 0 0.00080956288496325643 -0.0016792558416864744 0 0.0010699859554397801 -0.0020196647576744215 0 0.00080956288496325643 -0.0016792558416864744 0 0.00063404287848555364 -0.0012267498816038857 0 0.0011365922183511953 -0.0022840000188658737 0 0.0013779530644515525 -0.0026176188763485497 0 0.0010699859554397801 -0.0020196647576744215 0 0.0011365922183511953 -0.0022840000188658737 0 0.00080956288496325643 -0.0016792558416864744 0 0.00095354986683525943 -0.0021125870368547436 0 0.00080956288496325643 -0.0016792558416864744 0 0.00059368052409533947 -0.0014219274483985714 0 0.00095354986683525943 -0.0021125870368547436 0 0.00080956288496325643 -0.0016792558416864744 0 0.00059368052409533947 -0.0014219274483985714 0 0.00041525611209532605 -0.0009520763773913231 0 0.00059368052409533947 -0.0014219274483985714 0 0.00095354986683525943 -0.0021125870368547436 0 0.00067696242659540519 -0.00171689124457565 0 0.0011818774912737355 -0.0025813265620903518 0 0.00095354986683525943 -0.0021125870368547436 0 0.00086711808722495138 -0.0021860522103492679 0 0.0011818774912737355 -0.0025813265620903518 0 0.0013850632005733565 -0.0027263697447091374 0 0.00095354986683525943 -0.0021125870368547436 0 0.0013850632005733565 -0.0027263697447091374 0 0.0011365922183511953 -0.0022840000188658737 0 0.00095354986683525943 -0.0021125870368547436 0 -1.4267689843979603e-08 -4.3814891511304975e-07 0 0.00022821069452095042 -0.00040401784941000723 0 0.00031116403810533736 -0.0006174479618335718 0 -1.4267689843979603e-08 -4.3814891511304975e-07 0 4.063653202151978e-07 -9.5180575645733263e-07 0 0.00022821069452095042 -0.00040401784941000723 0 4.063653202151978e-07 -9.5180575645733263e-07 0 0.00048860444846852806 -0.00078393166230695123 0 0.00022821069452095042 -0.00040401784941000723 0 0.00048860444846852806 -0.00078393166230695123 0 0.00022821069452095042 -0.00040401784941000723 0 0.00054245992382701111 -0.00096373433217875569 0 0.00022821069452095042 -0.00040401784941000723 0 0.00031116403810533736 -0.0006174479618335718 0 0.00054245992382701111 -0.00096373433217875569 0 0.00031116403810533736 -0.0006174479618335718 0 0.00054245992382701111 -0.00096373433217875569 0 0.00063404287848555364 -0.0012267498816038857 0 0.00054245992382701111 -0.00096373433217875569 0 0.00080231783776684937 -0.0014135455344227565 0 0.00063404287848555364 -0.0012267498816038857 0 0.00048860444846852806 -0.00078393166230695123 0 0.00054245992382701111 -0.00096373433217875569 0 0.00080231783776684937 -0.0014135455344227565 0 0.0010699859554397801 -0.0020196647576744215 0 0.00080231783776684937 -0.0014135455344227565 0 0.00063404287848555364 -0.0012267498816038857 0 0.00080956288496325643 -0.0016792558416864744 0 0.00063404287848555364 -0.0012267498816038857 0 0.00041525611209532605 -0.0009520763773913231 0 0.00059368052409533947 -0.0014219274483985714 0 0.00041525611209532605 -0.0009520763773913231 0 0.00034188012729252171 -0.00095404659820855946 0 0.00041525611209532605 -0.0009520763773913231 0 0.00017423837466633892 -0.00042840797192854693 0 0.00017736053883340375 -0.00052624926854227924 0 0.00031116403810533736 -0.0006174479618335718 0 0.00063404287848555364 -0.0012267498816038857 0 0.00041525611209532605 -0.0009520763773913231 0 0.00031116403810533736 -0.0006174479618335718 0 0.00041525611209532605 -0.0009520763773913231 0 0.00017423837466633892 -0.00042840797192854693 0 -1.4267689843979603e-08 -4.3814891511304975e-07 0 0.00031116403810533736 -0.0006174479618335718 0 0.00017423837466633892 -0.00042840797192854693 0 0.00017423837466633892 -0.00042840797192854693 0 9.9427983434682049e-08 -5.044757474559228e-07 0 1.3402998853376165e-10 -3.8369462676490343e-07 0 -1.4267689843979603e-08 -4.3814891511304975e-07 0 0.00017423837466633892 -0.00042840797192854693 0 9.9427983434682049e-08 -5.044757474559228e-07 0 1.3402998853376165e-10 -3.8369462676490343e-07 0 7.9058636177569867e-05 -0.00028668730939108246 0 3.6923592244298188e-08 -3.8952714430137859e-07 0 0.00017423837466633892 -0.00042840797192854693 0 1.3402998853376165e-10 -3.8369462676490343e-07 0 0.00017736053883340375 -0.00052624926854227924 0 0.00017736053883340375 -0.00052624926854227924 0 7.9058636177569867e-05 -0.00028668730939108246 0 0.00016297988604938715 -0.00059085456050877278 0 1.3402998853376165e-10 -3.8369462676490343e-07 0 0.00017736053883340375 -0.00052624926854227924 0 7.9058636177569867e-05 -0.00028668730939108246 0 0.00017736053883340375 -0.00052624926854227924 0 0.00034188012729252171 -0.00095404659820855946 0 0.00016297988604938715 -0.00059085456050877278 0 0.00041525611209532605 -0.0009520763773913231 0 0.00017736053883340375 -0.00052624926854227924 0 0.00034188012729252171 -0.00095404659820855946 0 0.00034188012729252171 -0.00095404659820855946 0 0.00028349588632854071 -0.00093736480935344927 0 0.00016297988604938715 -0.00059085456050877278 0 0.00034188012729252171 -0.00095404659820855946 0 0.00028349588632854071 -0.00093736480935344927 0 0.00045376613329251795 -0.0012921566895751665 0 0.00028349588632854071 -0.00093736480935344927 0 0.00018908347840843233 -0.00074146576395438084 0 0.00016297988604938715 -0.00059085456050877278 0 0.00018908347840843233 -0.00074146576395438084 0 0.00030828280133534351 -0.0011111987468765425 0 0.00015751781511988164 -0.00073446748611085961 0 0.00028349588632854071 -0.00093736480935344927 0 0.00018908347840843233 -0.00074146576395438084 0 0.00030828280133534351 -0.0011111987468765425 0 0.00018908347840843233 -0.00074146576395438084 0 0.00016297988604938715 -0.00059085456050877278 0 8.137415974725794e-05 -0.00038667781674630517 0 7.9058636177569867e-05 -0.00028668730939108246 0 0.00016297988604938715 -0.00059085456050877278 0 5.4550491266191611e-05 -0.00024244373359441057 0 0.00016297988604938715 -0.00059085456050877278 0 5.4550491266191611e-05 -0.00024244373359441057 0 8.137415974725794e-05 -0.00038667781674630517 0 5.4550491266191611e-05 -0.00024244373359441057 0 8.137415974725794e-05 -0.00038667781674630517 0 1.1766791075527694e-08 -3.5365652575092859e-07 0 5.4550491266191611e-05 -0.00024244373359441057 0 3.6923592244298188e-08 -3.8952714430137859e-07 0 1.1766791075527694e-08 -3.5365652575092859e-07 0 7.9058636177569867e-05 -0.00028668730939108246 0 5.4550491266191611e-05 -0.00024244373359441057 0 3.6923592244298188e-08 -3.8952714430137859e-07 0 0.00054442221952001374 -0.0016023533111444986 0 0.00086711808722495138 -0.0021860522103492679 0 0.00062526781960701701 -0.0018896612300791885 0 0.00054442221952001374 -0.0016023533111444986 0 0.00086711808722495138 -0.0021860522103492679 0 0.00067696242659540519 -0.00171689124457565 0 0.00082012696762552584 -0.0022721302516372725 0 0.00086711808722495138 -0.0021860522103492679 0 0.00062526781960701701 -0.0018896612300791885 0 0.00095354986683525943 -0.0021125870368547436 0 0.00086711808722495138 -0.0021860522103492679 0 0.00067696242659540519 -0.00171689124457565 0 0.00059368052409533947 -0.0014219274483985714 0 0.00067696242659540519 -0.00171689124457565 0 0.00045376613329251795 -0.0012921566895751665 0 0.00059368052409533947 -0.0014219274483985714 0 0.00034188012729252171 -0.00095404659820855946 0 0.00045376613329251795 -0.0012921566895751665 0 0.00054442221952001374 -0.0016023533111444986 0 0.00067696242659540519 -0.00171689124457565 0 0.00045376613329251795 -0.0012921566895751665 0 0.00054442221952001374 -0.0016023533111444986 0 0.00030828280133534351 -0.0011111987468765425 0 0.00042388103010648439 -0.001478614000459805 0 0.00054442221952001374 -0.0016023533111444986 0 0.00045376613329251795 -0.0012921566895751665 0 0.00030828280133534351 -0.0011111987468765425 0 0.00028349588632854071 -0.00093736480935344927 0 0.00045376613329251795 -0.0012921566895751665 0 0.00030828280133534351 -0.0011111987468765425 0 0.00030828280133534351 -0.0011111987468765425 0 0.00042388103010648439 -0.001478614000459805 0 0.00027541403175609708 -0.0011737906347615158 0 0.00042388103010648439 -0.001478614000459805 0 0.00062526781960701701 -0.0018896612300791885 0 0.00049450743869282343 -0.0017463306032426212 0 0.00054442221952001374 -0.0016023533111444986 0 0.00042388103010648439 -0.001478614000459805 0 0.00062526781960701701 -0.0018896612300791885 0 0.00063631297312331586 -0.0020692975795398015 0 0.00082012696762552584 -0.0022721302516372725 0 0.00062526781960701701 -0.0018896612300791885 0 0.00063631297312331586 -0.0020692975795398015 0 0.00062526781960701701 -0.0018896612300791885 0 0.00049450743869282343 -0.0017463306032426212 0 0.00063631297312331586 -0.0020692975795398015 0 0.00049450743869282343 -0.0017463306032426212 0 0.00046011628903285873 -0.0018557908443476896 0 0.00049450743869282343 -0.0017463306032426212 0 0.00046011628903285873 -0.0018557908443476896 0 0.00035078388723312705 -0.0014555018209115782 0 0.00046011628903285873 -0.0018557908443476896 0 0.00032719087557260285 -0.0015906306540453203 0 0.00035078388723312705 -0.0014555018209115782 0 0.00046011628903285873 -0.0018557908443476896 0 0.00032719087557260285 -0.0015906306540453203 0 0.00034281462123838841 -0.0018094613874676767 0 0.00032719087557260285 -0.0015906306540453203 0 0.00035078388723312705 -0.0014555018209115782 0 0.0002585142363925422 -0.0013172352606706308 0 0.00042388103010648439 -0.001478614000459805 0 0.00049450743869282343 -0.0017463306032426212 0 0.00035078388723312705 -0.0014555018209115782 0 0.00042388103010648439 -0.001478614000459805 0 0.00035078388723312705 -0.0014555018209115782 0 0.00027541403175609708 -0.0011737906347615158 0 0.00030828280133534351 -0.0011111987468765425 0 0.00027541403175609708 -0.0011737906347615158 0 0.00015751781511988164 -0.00073446748611085961 0 0.00027541403175609708 -0.0011737906347615158 0 0.00018878003813444544 -0.00099135741447222217 0 0.00015751781511988164 -0.00073446748611085961 0 0.00035078388723312705 -0.0014555018209115782 0 0.00027541403175609708 -0.0011737906347615158 0 0.0002585142363925422 -0.0013172352606706308 0 0.00027541403175609708 -0.0011737906347615158 0 0.00018878003813444544 -0.00099135741447222217 0 0.0002585142363925422 -0.0013172352606706308 0 0.00018878003813444544 -0.00099135741447222217 0 0.00018677645672580427 -0.001255223834504253 0 0.0002585142363925422 -0.0013172352606706308 0 0.00018878003813444544 -0.00099135741447222217 0 0.00012477492056044688 -0.00076412030096534615 0 0.00013845683465173972 -0.00098323914601752241 0 0.00018878003813444544 -0.00099135741447222217 0 0.00018677645672580427 -0.001255223834504253 0 0.00013845683465173972 -0.00098323914601752241 0 0.00018677645672580427 -0.001255223834504253 0 0.00024004792925745214 -0.0015348838236892224 0 0.00013869392855498522 -0.001535228393688345 0 0.00024004792925745214 -0.0015348838236892224 0 0.00013869392855498522 -0.001535228393688345 0 0.00019771382917513298 -0.0017597716547696983 0 0.00032719087557260285 -0.0015906306540453203 0 0.00024004792925745214 -0.0015348838236892224 0 0.00034281462123838841 -0.0018094613874676767 0 0.00018677645672580427 -0.001255223834504253 0 0.00024004792925745214 -0.0015348838236892224 0 0.0002585142363925422 -0.0013172352606706308 0 0.00032719087557260285 -0.0015906306540453203 0 0.00024004792925745214 -0.0015348838236892224 0 0.0002585142363925422 -0.0013172352606706308 0 1.6603386094051905e-08 -3.3931842728975532e-07 0 3.5237959351027067e-05 -0.00019413746144151357 0 6.776758983020317e-05 -0.00038890708846359639 0 1.6603386094051905e-08 -3.3931842728975532e-07 0 6.776758983020317e-05 -0.00038890708846359639 0 3.7649331162548913e-05 -0.00024193702529734306 0 8.137415974725794e-05 -0.00038667781674630517 0 1.1766791075527694e-08 -3.5365652575092859e-07 0 3.5237959351027067e-05 -0.00019413746144151357 0 1.6603386094051905e-08 -3.3931842728975532e-07 0 1.1766791075527694e-08 -3.5365652575092859e-07 0 3.5237959351027067e-05 -0.00019413746144151357 0 8.137415974725794e-05 -0.00038667781674630517 0 3.5237959351027067e-05 -0.00019413746144151357 0 6.776758983020317e-05 -0.00038890708846359639 0 6.776758983020317e-05 -0.00038890708846359639 0 0.00015751781511988164 -0.00073446748611085961 0 0.00012528312722607707 -0.00068354025339360032 0 8.137415974725794e-05 -0.00038667781674630517 0 6.776758983020317e-05 -0.00038890708846359639 0 0.00015751781511988164 -0.00073446748611085961 0 0.00018908347840843233 -0.00074146576395438084 0 8.137415974725794e-05 -0.00038667781674630517 0 0.00015751781511988164 -0.00073446748611085961 0 0.00018878003813444544 -0.00099135741447222217 0 0.00015751781511988164 -0.00073446748611085961 0 0.00012528312722607707 -0.00068354025339360032 0 0.00012528312722607707 -0.00068354025339360032 0 0.00012477492056044688 -0.00076412030096534615 0 7.8515735601354531e-05 -0.0004913580123995354 0 0.00018878003813444544 -0.00099135741447222217 0 0.00012528312722607707 -0.00068354025339360032 0 0.00012477492056044688 -0.00076412030096534615 0 0.00012477492056044688 -0.00076412030096534615 0 9.9181453162056855e-05 -0.00069006682391821081 0 0.00013845683465173972 -0.00098323914601752241 0 0.00012477492056044688 -0.00076412030096534615 0 7.8515735601354531e-05 -0.0004913580123995354 0 9.9181453162056855e-05 -0.00069006682391821081 0 7.8515735601354531e-05 -0.0004913580123995354 0 4.5538215601505761e-05 -0.00031123231876998962 0 9.9181453162056855e-05 -0.00069006682391821081 0 6.776758983020317e-05 -0.00038890708846359639 0 0.00012528312722607707 -0.00068354025339360032 0 7.8515735601354531e-05 -0.0004913580123995354 0 6.776758983020317e-05 -0.00038890708846359639 0 7.8515735601354531e-05 -0.0004913580123995354 0 3.7649331162548913e-05 -0.00024193702529734306 0 7.8515735601354531e-05 -0.0004913580123995354 0 3.7649331162548913e-05 -0.00024193702529734306 0 4.5538215601505761e-05 -0.00031123231876998962 0 3.7649331162548913e-05 -0.00024193702529734306 0 1.6419855359708417e-08 -3.2895674184842133e-07 0 4.5538215601505761e-05 -0.00031123231876998962 0 1.6603386094051905e-08 -3.3931842728975532e-07 0 3.7649331162548913e-05 -0.00024193702529734306 0 1.6419855359708417e-08 -3.2895674184842133e-07 0 1.4710880774377254e-08 -3.28269728119496e-07 0 3.2350677843802877e-05 -0.00024688764785122253 0 2.1508539973015409e-08 -3.3622822467041245e-07 0 1.6419855359708417e-08 -3.2895674184842133e-07 0 1.4710880774377254e-08 -3.28269728119496e-07 0 4.5538215601505761e-05 -0.00031123231876998962 0 1.4710880774377254e-08 -3.28269728119496e-07 0 4.5538215601505761e-05 -0.00031123231876998962 0 3.2350677843802877e-05 -0.00024688764785122253 0 4.5538215601505761e-05 -0.00031123231876998962 0 3.2350677843802877e-05 -0.00024688764785122253 0 6.5206337054774972e-05 -0.00052418750411059362 0 4.5538215601505761e-05 -0.00031123231876998962 0 6.5206337054774972e-05 -0.00052418750411059362 0 9.9181453162056855e-05 -0.00069006682391821081 0 9.9181453162056855e-05 -0.00069006682391821081 0 9.316793187563842e-05 -0.00077875808370616055 0 0.00013845683465173972 -0.00098323914601752241 0 6.5206337054774972e-05 -0.00052418750411059362 0 9.9181453162056855e-05 -0.00069006682391821081 0 9.316793187563842e-05 -0.00077875808370616055 0 9.316793187563842e-05 -0.00077875808370616055 0 7.05420309445418e-05 -0.00072375536326356189 0 9.6580654850814186e-05 -0.0010195644988111679 0 6.5206337054774972e-05 -0.00052418750411059362 0 9.316793187563842e-05 -0.00077875808370616055 0 7.05420309445418e-05 -0.00072375536326356189 0 7.05420309445418e-05 -0.00072375536326356189 0 5.0652857161674303e-05 -0.00086192014643314378 0 4.1492311622367303e-05 -0.0004111345470249122 0 2.5164399297351655e-05 -0.0006849938780459883 0 5.0652857161674303e-05 -0.00086192014643314378 0 4.1492311622367303e-05 -0.0004111345470249122 0 6.5206337054774972e-05 -0.00052418750411059362 0 7.05420309445418e-05 -0.00072375536326356189 0 4.1492311622367303e-05 -0.0004111345470249122 0 3.2350677843802877e-05 -0.00024688764785122253 0 4.1492311622367303e-05 -0.0004111345470249122 0 2.1508539973015409e-08 -3.3622822467041245e-07 0 3.2350677843802877e-05 -0.00024688764785122253 0 6.5206337054774972e-05 -0.00052418750411059362 0 4.1492311622367303e-05 -0.0004111345470249122 0 1.2109857599886147e-08 -3.4684743670961099e-07 0 4.1492311622367303e-05 -0.0004111345470249122 0 2.1508539973015409e-08 -3.3622822467041245e-07 0 0.00013869392855498522 -0.001535228393688345 0 0.00013304012628698197 -0.0012251222586331246 0 8.806947209333754e-05 -0.0013826435197979096 0 0.00013869392855498522 -0.001535228393688345 0 8.806947209333754e-05 -0.0013826435197979096 0 5.5000995485383378e-05 -0.0017274001849248274 0 0.00018677645672580427 -0.001255223834504253 0 0.00013869392855498522 -0.001535228393688345 0 0.00013304012628698197 -0.0012251222586331246 0 0.00018677645672580427 -0.001255223834504253 0 0.00013304012628698197 -0.0012251222586331246 0 0.00013845683465173972 -0.00098323914601752241 0 9.316793187563842e-05 -0.00077875808370616055 0 0.00013845683465173972 -0.00098323914601752241 0 9.6580654850814186e-05 -0.0010195644988111679 0 0.00013304012628698197 -0.0012251222586331246 0 0.00013845683465173972 -0.00098323914601752241 0 9.6580654850814186e-05 -0.0010195644988111679 0 0.00013304012628698197 -0.0012251222586331246 0 9.6580654850814186e-05 -0.0010195644988111679 0 8.806947209333754e-05 -0.0013826435197979096 0 9.6580654850814186e-05 -0.0010195644988111679 0 5.3547415799046155e-05 -0.0012118939208772977 0 8.806947209333754e-05 -0.0013826435197979096 0 7.05420309445418e-05 -0.00072375536326356189 0 5.0652857161674303e-05 -0.00086192014643314378 0 9.6580654850814186e-05 -0.0010195644988111679 0 2.0286234400927093e-05 -0.0010599607201303011 0 5.0652857161674303e-05 -0.00086192014643314378 0 5.3547415799046155e-05 -0.0012118939208772977 0 5.0652857161674303e-05 -0.00086192014643314378 0 9.6580654850814186e-05 -0.0010195644988111679 0 5.3547415799046155e-05 -0.0012118939208772977 0 5.3547415799046155e-05 -0.0012118939208772977 0 2.6198901306215177e-05 -0.0015351961586365973 0 8.806947209333754e-05 -0.0013826435197979096 0 2.6198901306215177e-05 -0.0015351961586365973 0 8.806947209333754e-05 -0.0013826435197979096 0 5.5000995485383378e-05 -0.0017274001849248274 0 -6.9392943878544066e-05 -0.0019559809401478406 0 2.6198901306215177e-05 -0.0015351961586365973 0 5.5000995485383378e-05 -0.0017274001849248274 0 -6.9392943878544066e-05 -0.0019559809401478406 0 -0.00024186545078210583 -0.0024400670266524174 0 5.5000995485383378e-05 -0.0017274001849248274 0 -0.00024186545078210583 -0.0024400670266524174 0 -0.0002613066141195807 -0.0029384262997590783 0 -0.00014277090218596782 -0.0029171679476481366 0 -0.00024186545078210583 -0.0024400670266524174 0 -0.00010978103500362408 -0.0019378475228373699 0 5.5000995485383378e-05 -0.0017274001849248274 0 -0.0047725160363970088 -0.0017214297176352839 0 0.00085955140545403413 -0.0029049388910500412 0 -0.00010978103500362408 -0.0019378475228373699 0 5.5000995485383378e-05 -0.0017274001849248274 0 6.1015169710097569e-05 -0.0017642749555570169 0 0.00013869392855498522 -0.001535228393688345 0 5.5000995485383378e-05 -0.0017274001849248274 0 6.1015169710097569e-05 -0.0017642749555570169 0 0.00085955140545403413 -0.0029049388910500412 0 -0.00070540542741711579 -0.0021855279364537379 0 -0.00010978103500362408 -0.0019378475228373699 0 6.1015169710097569e-05 -0.0017642749555570169 0 0.00012356187871957552 -0.0019599457885166077 0 -0.00070540542741711579 -0.0021855279364537379 0 -0.00038578637781326683 -0.0027397841750395227 0 6.1015169710097569e-05 -0.0017642749555570169 0 0.00012356187871957552 -0.0019599457885166077 0 0.00019771382917513298 -0.0017597716547696983 0 0.00013869392855498522 -0.001535228393688345 0 6.1015169710097569e-05 -0.0017642749555570169 0 0.00019771382917513298 -0.0017597716547696983 0 -0.000133350659622491 -0.0031974756349539384 0 -0.0001127616588652603 -0.0031899150241726593 0 -3.5055145623124815e-05 -0.0034239450283568302 0 -0.00023025438686747953 -0.0029573670115832442 0 -0.000133350659622491 -0.0031974756349539384 0 -0.00021167851876383509 -0.0030280928275844259 0 -0.00023025438686747953 -0.0029573670115832442 0 -0.000133350659622491 -0.0031974756349539384 0 -0.0001127616588652603 -0.0031899150241726593 0 -0.0002613066141195807 -0.0029384262997590783 0 -0.00023025438686747953 -0.0029573670115832442 0 -0.0001127616588652603 -0.0031899150241726593 0 -0.0001127616588652603 -0.0031899150241726593 0 -0.00014277090218596782 -0.0029171679476481366 0 -8.2098355937420189e-05 -0.0033441116393460994 0 -0.0002613066141195807 -0.0029384262997590783 0 -0.0001127616588652603 -0.0031899150241726593 0 -0.00014277090218596782 -0.0029171679476481366 0 -0.0001807516896039568 -0.0029484982830355376 0 -0.00024186545078210583 -0.0024400670266524174 0 -0.00014277090218596782 -0.0029171679476481366 0 -0.0001807516896039568 -0.0029484982830355376 0 -0.00014277090218596782 -0.0029171679476481366 0 -8.2098355937420189e-05 -0.0033441116393460994 0 -0.0001127616588652603 -0.0031899150241726593 0 -8.2098355937420189e-05 -0.0033441116393460994 0 1.797613881466567e-05 -0.0035942528737909962 0 -8.2098355937420189e-05 -0.0033441116393460994 0 3.3372066403194302e-05 -0.0038473948707367107 0 1.797613881466567e-05 -0.0035942528737909962 0 -0.00010170790710681103 -0.003702162021863882 0 -8.2098355937420189e-05 -0.0033441116393460994 0 3.3372066403194302e-05 -0.0038473948707367107 0 -4.8179209013473725e-05 -0.0041302387592635518 0 9.2434215776032882e-05 -0.0042229983183999188 0 3.3372066403194302e-05 -0.0038473948707367107 0 -4.8179209013473725e-05 -0.0041302387592635518 0 -0.00010170790710681103 -0.003702162021863882 0 3.3372066403194302e-05 -0.0038473948707367107 0 9.2434215776032882e-05 -0.0042229983183999188 0 0.000186613630344862 -0.0041693973325248436 0 3.3372066403194302e-05 -0.0038473948707367107 0 0.000186613630344862 -0.0041693973325248436 0 0.00010925163665958963 -0.0039066255389883908 0 0.0002246797642144442 -0.0041067565680639479 0 0.000186613630344862 -0.0041693973325248436 0 3.3372066403194302e-05 -0.0038473948707367107 0 0.00010925163665958963 -0.0039066255389883908 0 0.00010925163665958963 -0.0039066255389883908 0 0.00012489035781538163 -0.0038527957450399464 0 1.797613881466567e-05 -0.0035942528737909962 0 3.3372066403194302e-05 -0.0038473948707367107 0 0.00010925163665958963 -0.0039066255389883908 0 1.797613881466567e-05 -0.0035942528737909962 0 0.00010925163665958963 -0.0039066255389883908 0 0.00012489035781538163 -0.0038527957450399464 0 0.0002246797642144442 -0.0041067565680639479 0 -0.0001127616588652603 -0.0031899150241726593 0 1.797613881466567e-05 -0.0035942528737909962 0 -3.5055145623124815e-05 -0.0034239450283568302 0 0.00012489035781538163 -0.0038527957450399464 0 1.797613881466567e-05 -0.0035942528737909962 0 6.507612117342802e-05 -0.0036755180533071851 0 1.797613881466567e-05 -0.0035942528737909962 0 -3.5055145623124815e-05 -0.0034239450283568302 0 6.507612117342802e-05 -0.0036755180533071851 0 -3.5055145623124815e-05 -0.0034239450283568302 0 6.507612117342802e-05 -0.0036755180533071851 0 -6.8878952688647548e-05 -0.0033722129130603334 0 6.507612117342802e-05 -0.0036755180533071851 0 0.00021211129798019059 -0.0040221680801424912 0 0.00017776043814836403 -0.0039453377091754191 0 6.507612117342802e-05 -0.0036755180533071851 0 3.7961126959792707e-05 -0.0036300327523248067 0 0.00017776043814836403 -0.0039453377091754191 0 6.507612117342802e-05 -0.0036755180533071851 0 3.7961126959792707e-05 -0.0036300327523248067 0 -6.8878952688647548e-05 -0.0033722129130603334 0 0.0002246797642144442 -0.0041067565680639479 0 0.00033346211421725206 -0.0042889128788121079 0 0.00021211129798019059 -0.0040221680801424912 0 0.00012489035781538163 -0.0038527957450399464 0 0.0002246797642144442 -0.0041067565680639479 0 0.00021211129798019059 -0.0040221680801424912 0 0.00012489035781538163 -0.0038527957450399464 0 6.507612117342802e-05 -0.0036755180533071851 0 0.00021211129798019059 -0.0040221680801424912 0 0.00021211129798019059 -0.0040221680801424912 0 0.0003534166339368067 -0.0043231962761509689 0 0.00017776043814836403 -0.0039453377091754191 0 0.00033346211421725206 -0.0042889128788121079 0 0.00021211129798019059 -0.0040221680801424912 0 0.0003534166339368067 -0.0043231962761509689 0 0.00053691536865304917 -0.0046888636223041029 0 0.0003534166339368067 -0.0043231962761509689 0 0.00046736348805107996 -0.0045977100395895127 0 0.0003534166339368067 -0.0043231962761509689 0 0.00030781814388606426 -0.0042644898369588275 0 0.00017776043814836403 -0.0039453377091754191 0 0.0003534166339368067 -0.0043231962761509689 0 0.00030781814388606426 -0.0042644898369588275 0 0.00046736348805107996 -0.0045977100395895127 0 3.7961126959792707e-05 -0.0036300327523248067 0 0.00014581571495608084 -0.0038992569327186825 0 1.4029142708815186e-05 -0.0036037450630725214 0 0.00030781814388606426 -0.0042644898369588275 0 0.00017776043814836403 -0.0039453377091754191 0 0.00014581571495608084 -0.0038992569327186825 0 3.7961126959792707e-05 -0.0036300327523248067 0 0.00017776043814836403 -0.0039453377091754191 0 0.00014581571495608084 -0.0038992569327186825 0 0.00023221548796944301 -0.0041255138534870535 0 0.00030781814388606426 -0.0042644898369588275 0 0.00014581571495608084 -0.0038992569327186825 0 0.00014581571495608084 -0.0038992569327186825 0 7.5582830498341439e-05 -0.0037671887600357261 0 1.4029142708815186e-05 -0.0036037450630725214 0 0.00023221548796944301 -0.0041255138534870535 0 0.00014581571495608084 -0.0038992569327186825 0 7.5582830498341439e-05 -0.0037671887600357261 0 7.5582830498341439e-05 -0.0037671887600357261 0 1.4029142708815186e-05 -0.0036037450630725214 0 -5.9458405190537751e-05 -0.0034566933378707937 0 1.4029142708815186e-05 -0.0036037450630725214 0 -0.00010027295274855575 -0.0033257349956753745 0 -5.9458405190537751e-05 -0.0034566933378707937 0 3.7961126959792707e-05 -0.0036300327523248067 0 1.4029142708815186e-05 -0.0036037450630725214 0 -0.00010027295274855575 -0.0033257349956753745 0 -0.00010027295274855575 -0.0033257349956753745 0 -5.9458405190537751e-05 -0.0034566933378707937 0 -0.00019645977751269505 -0.0031398381753579624 0 0.00046011628903285873 -0.0018557908443476896 0 0.00068535531323434744 -0.0022917363357238974 0 0.00049627240949141492 -0.0021424169522908871 0 -0.00084398555774073728 -0.0026777290953205746 0 -0.00064363929880316927 -0.0027384225343341328 0 -5.9458405190537751e-05 -0.0034566933378707937 0 -0.00016612309227023508 -0.0032923151126461533 0 -0.00019645977751269505 -0.0031398381753579624 0 0.00063631297312331586 -0.0020692975795398015 0 0.00046011628903285873 -0.0018557908443476896 0 0.00068535531323434744 -0.0022917363357238974 0 0.00046011628903285873 -0.0018557908443476896 0 0.00049627240949141492 -0.0021424169522908871 0 0.00034281462123838841 -0.0018094613874676767 0 0.00049627240949141492 -0.0021424169522908871 0 0.00034281462123838841 -0.0018094613874676767 0 0.00031295885646770682 -0.0020275140506664812 0 -0.00010027295274855575 -0.0033257349956753745 0 -0.00019645977751269505 -0.0031398381753579624 0 -0.00021167851876383509 -0.0030280928275844259 0 -0.00064363929880316927 -0.0027384225343341328 0 -0.00038578637781326683 -0.0027397841750395227 0 0.00034281462123838841 -0.0018094613874676767 0 0.00019771382917513298 -0.0017597716547696983 0 0.00031295885646770682 -0.0020275140506664812 0 0.00024004792925745214 -0.0015348838236892224 0 0.00034281462123838841 -0.0018094613874676767 0 0.00019771382917513298 -0.0017597716547696983 0 0.00012356187871957552 -0.0019599457885166077 0 0.00019771382917513298 -0.0017597716547696983 0 0.00031295885646770682 -0.0020275140506664812 0 -0.000133350659622491 -0.0031974756349539384 0 -0.00021167851876383509 -0.0030280928275844259 0 -6.8878952688647548e-05 -0.0033722129130603334 0 -0.000133350659622491 -0.0031974756349539384 0 -3.5055145623124815e-05 -0.0034239450283568302 0 -6.8878952688647548e-05 -0.0033722129130603334 0 3.7961126959792707e-05 -0.0036300327523248067 0 -0.00010027295274855575 -0.0033257349956753745 0 -6.8878952688647548e-05 -0.0033722129130603334 0 -0.00010027295274855575 -0.0033257349956753745 0 -0.00021167851876383509 -0.0030280928275844259 0 -6.8878952688647548e-05 -0.0033722129130603334 0 
</DataArray>
</PointData>
<CellData Scalars="region_id,cross_section_updated,displacement_divergence," Vectors="" Tensors="stress,">
<DataArray type="Float64" Name="region_id" format="ascii">
1 1 1 1 1 1 1 1 1 1 1 1 1 1 1 1 1 1 1 1 1 1 1 1 1 1 1 1 1 1 1 1 1 1 1 1 1 1 1 1 1 1 1 1 1 1 1 1 1 1 1 1 1 1 1 1 1 1 1 1 1 1 1 1 1 1 1 1 1 1 1 1 1 1 1 1 1 1 1 1 1 1 1 1 1 1 1 1 1 1 1 1 1 1 1 1 1 1 1 1 1 1 1 1 1 1 1 1 1 1 1 1 1 1 1 1 1 1 1 1 1 1 1 1 1 1 1 1 1 1 1 1 1 1 1 1 1 1 1 1 1 1 1 1 1 1 1 1 1 1 1 1 1 1 1 1 1 1 1 1 1 1 1 1 1 1 1 1 1 1 1 1 1 1 1 1 1 1 1 1 1 1 1 1 1 1 1 1 1 1 1 1 1 1 1 1 1 1 1 1 1 1 1 1 1 1 1 1 1 1 1 1 1 1 1 1 1 1 1 1 1 1 1 1 1 1 1 1 1 1 1 1 1 1 1 1 1 1 1 1 1 1 1 1 1 1 1 1 1 1 1 1 1 1 1 1 1 1 1 1 1 1 1 1 1 1 1 1 1 1 1 1 1 1 1 1 1 1 1 1 1 1 1 1 1 1 1 1 1 1 1 1 1 1 1 1 1 1 1 1 1 1 1 1 1 1 1 1 1 1 1 1 1 1 1 1 1 1 1 1 1 1 1 1 1 1 1 1 1 1 1 1 1 1 1 1 1 1 1 1 1 1 1 1 1 1 1 1 1 1 1 1 1 1 1 1 1 1 1 1 1 1 1 1 1 1 1 1 1 1 1 1 1 1 1 1 1 1 1 1 1 1 1 1 1 1 1 1 1 1 1 1 1 1 1 1 1 1 1 1 1 1 1 1 1 1 1 1 1 1 1 1 1 1 1 1 1 1 1 1 1 1 1 1 1 1 1 1 1 1 1 1 1 1 1 1 1 1 1 1 1 1 1 1 1 1 1 1 1 1 1 1 1 1 1 1 1 1 1 1 1 1 1 1 1 1 1 1 1 1 1 1 1 1 1 1 1 1 1 1 1 1 1 1 1 1 1 1 1 1 1 1 1 1 1 1 1 1 1 1 1 1 1 1 1 1 1 1 1 1 1 1 1 1 1 1 1 1 1 1 1 1 1 1 1 1 1 1 1 1 1 1 1 1 1 1 1 1 3 1 1 3 1 1 3 1 1 1 1 1 1 1 1 1 1 1 1 1 3 1 1 1 1 1 3 1 1 1 1 1 1 1 1 1 1 1 1 1 1 1 1 1 1 1 1 1 1 1 1 1 1 1 1 1 1 1 1 1 1 1 1 1 1 1 1 1 1 1 1 1 1 1 1 1 1 1 1 1 1 1 1 1 1 1 1 1 1 1 1 1 1 1 1 1 1 1 1 1 1 1 1 1 1 1 1 1 1 1 1 1 1 1 1 1 1 1 1 1 1 1 1 1 1 1 1 1 1 1 1 1 1 1 1 1 1 1 1 1 1 1 1 1 1 1 1 1 1 1 1 1 1 1 1 1 1 1 1 1 1 1 1 1 1 1 1 1 1 1 1 1 1 1 1 1 1 1 1 1 1 1 1 1 1 1 1 1 1 1 1 1 1 1 1 3 1 1 1 3 1 1 3 1 1 1 1 1 1 1 1 1 1 1 3 1 1 1 1 3 1 1 1 1 1 1 1 1 1 1 1 1 1 1 1 1 1 1 1 1 1 1 1 1 1 1 1 1 1 1 1 1 1 1 1 1 1 1 1 1 1 1 1 1 1 1 1 1 1 1 1 1 1 1 1 1 1 1 2 1 1 1 1 1 1 1 1 1 1 1 1 1 1 2 1 1 2 1 2 1 1 1 1 1 1 1 1 1 1 1 1 1 2 1 1 1 1 1 1 1 1 1 1 1 1 1 1 1 1 1 1 1 1 1 1 1 1 1 1 1 1 1 1 1 1 1 1 1 1 1 1 1 1 1 1 1 1 1 1 1 1 1 1 1 1 1 1 1 1 1 1 1 1 1 1 1 1 1 1 1 1 1 1 1 1 1 1 1 1 1 1 1 1 1 1 1 1 1 1 1 1 1 1 1 1 1 1 1 1 1 1 1 1 1 1 1 1 1 1 1 1 1 1 1 1 1 1 1 1 1 1 1 1 1 1 1 1 1 1 1 1 1 1 1 1 1 1 1 1 2 1 1 2 1 2 1 1 1 1 1 1 1 1 1 1 1 1 1 1 1 1 1 1 1 1 1 1 1 1 1 1 1 1 1 1 1 1 1 1 1 1 1 1 1 1 1 1 1 1 1 1 1 2 1 1 1 1 1 2 1 1 1 1 1 1 1 
</DataArray>
<DataArray type="Float64" Name="stress" NumberOfComponents="9" format="ascii">
-452.3441148361203 -283.04195981565658 0 -283.04195981565658 -1359.1013190786946 0 0 0 -452.86135847870378 -234.2323072092056 -289.53065170894683 0 -289.53065170894683 -1595.8783620898835 0 0 0 -457.52766732477221 -305.73857768777373 -200.12435377583506 0 -200.12435377583506 -1174.9817240919867 0 0 0 -370.18007544494014 -109.93494701037264 -217.73493157937958 0 -217.73493157937958 -1432.0902271598486 0 0 0 -385.50629354255534 -39.351918382946295 -75.724972688483945 0 -75.724972688483945 -1202.9204362815231 0 0 0 -310.56808866611726 -6.099278233881023 -23.320988789327679 0 -23.320988789327679 -1089.4863587693294 0 0 0 -273.89640925080266 -122.57299653324091 -152.84103707126542 0 -152.84103707126542 -1263.6810561321436 0 0 0 -346.56351316634607 -19.849057059251891 -80.215465284688506 0 -80.215465284688506 -1199.8175984356528 0 0 0 -304.91666387372607 -24.242007590398998 -74.94768309034356 0 -74.94768309034356 -1127.5246192869254 0 0 0 -287.94165671933115 -83.485326003015359 -102.53663370027766 0 -102.53663370027766 -1166.3712225726345 0 0 0 -312.46413714391241 -161.59542273260422 -120.47604864547367 0 -120.47604864547367 -1137.9752663073068 0 0 0 -324.89267225997719 -95.8506759486894 -99.792415711145622 0 -99.792415711145622 -1102.0210975940749 0 0 0 -299.467943385691 -240.356508029303 -154.39585688927843 0 -154.39585688927843 -1117.2498941739268 0 0 0 -339.4016005508073 -142.20687164908855 -146.24416146934328 0 -146.24416146934328 -1109.5617191454196 0 0 0 -312.94214769862691 -374.35653597803184 -192.237637797773 0 -192.237637797773 -1123.3086161808296 0 0 0 -374.41628803971537 -399.19204940237609 -249.78950279388505 0 -249.78950279388505 -1197.3507016677115 0 0 0 -399.13568776752186 -209.27034857212314 -171.78067109095733 0 -171.78067109095733 -1072.0817197836436 0 0 0 -320.33801708894168 -242.5359709005314 -181.02517799901153 0 -181.02517799901153 -1167.8392627662392 0 0 0 -352.5938084166927 -5.7981226970396165 -1.7046738593301143 0 -1.7046738593301143 -1045.4379665481629 0 0 0 -262.8090223113004 -1.0389948042352444 -3.2429917518356888 0 -3.2429917518356888 -1081.999523610928 0 0 0 -270.75962960379093 -17.667856649797642 -12.221164226414885 0 -12.221164226414885 -1084.1483280442476 0 0 0 -275.45404617351141 3.2456850447604211 -10.595060406869948 0 -10.595060406869948 -1088.7606550340442 0 0 0 -271.3787424973209 -29.347940032463725 -49.960780820986656 0 -49.960780820986656 -1163.0922152494484 0 0 0 -298.11003882047805 -9.8533553291729277 -30.24723833221401 0 -30.24723833221401 -1128.8695093966369 0 0 0 -284.68071618145245 -8.062485292538895 -13.370152605485487 0 -13.370152605485487 -1056.7071875489419 0 0 0 -266.19241821037053 -32.45798725670511 -65.31062699115239 0 -65.31062699115239 -1118.182661542286 0 0 0 -287.66016219974767 -114.13226087512834 -89.995692672809582 0 -89.995692672809582 -1142.3902833371947 0 0 0 -314.13063605308088 -52.023929019280104 -51.145020679631557 0 -51.145020679631557 -1120.3766743883298 0 0 0 -293.10015085190253 -36.949585268376154 -25.596831609023184 0 -25.596831609023184 -1100.2504328692969 0 0 0 -284.30000453441801 -40.206624013701685 -51.004238057478688 0 -51.004238057478688 -1121.6776342369726 0 0 0 -290.47106456266852 -10.846859198632956 -10.708204889957642 0 -10.708204889957642 -1104.2018366910652 0 0 0 -278.76217397242453 -16.402341602350589 -0.32033661438276795 0 -0.32033661438276795 -1081.3841495810448 0 0 0 -274.44662279584918 -30.885982013016928 -22.700130373482963 0 -22.700130373482963 -1094.718511289283 0 0 0 -281.40112332557533 -63.032063752822978 -35.378281160228482 0 -35.378281160228482 -1099.4155179493382 0 0 0 -290.6118954255403 -60.32883258647621 -39.216776594995054 0 -39.216776594995054 -1076.4422965522836 0 0 0 -284.19278228469011 -115.36991560080594 -68.86490973091577 0 -68.86490973091577 -1078.5669598107033 0 0 0 -298.48421885287723 -62.492889291230313 -58.071181999542318 0 -58.071181999542318 -1094.7642167108884 0 0 0 -289.31427650052967 -91.908354666453874 -65.112622846401734 0 -65.112622846401734 -1106.2426881078245 0 0 0 -299.53776069356957 -122.54828007886124 -92.542484221658142 0 -92.542484221658142 -1081.8838412522732 0 0 0 -301.10803033278364 -146.07956208077553 -67.679184881887977 0 -67.679184881887977 -1058.9269419498223 0 0 0 -301.25162600764952 -144.4237165279157 -64.243554215263657 0 -64.243554215263657 -1056.3653205933629 0 0 0 -300.19725928031966 -119.19567137876174 -49.722391551693363 0 -49.722391551693363 -1037.1473493049025 0 0 0 -289.08575517091595 -116.21709069338081 -65.896215822512431 0 -65.896215822512431 -1077.9322014601169 0 0 0 -298.53732303837421 -91.58903003329867 -43.615823562785863 0 -43.615823562785863 -1087.291707901521 0 0 0 -294.72018448370494 -98.683380578681181 -44.860036019643985 0 -44.860036019643985 -1058.323261066299 0 0 0 -289.25166041124498 -127.02724473096882 -49.041159793112683 0 -49.041159793112683 -1065.5912013378934 0 0 0 -298.15461151721559 -86.814870193645675 -23.297344802959287 0 -23.297344802959287 -1066.8298248582628 0 0 0 -288.41117376297689 -68.38621579107803 -22.463533160172801 0 -22.463533160172801 -1061.5628404389909 0 0 0 -282.48726405751722 -267.44660063241599 -131.04421907134622 0 -131.04421907134622 -1057.1292432808859 0 0 0 -331.14396097832548 -223.06726833169938 -106.74501066087765 0 -106.74501066087765 -1041.4670226074288 0 0 0 -316.13357273478215 -345.55594321830114 -122.42365332331744 0 -122.42365332331744 -1036.6423767744907 0 0 0 -345.54957999819794 -244.84234074748241 -139.96323286993615 0 -139.96323286993615 -1051.1351900058849 0 0 0 -323.99438268834177 -146.5945644200836 -122.90477053765278 0 -122.90477053765278 -1063.7366057080515 0 0 0 -302.58279253203375 -168.41239945518737 -107.41763508964618 0 -107.41763508964618 -1107.3436003650818 0 0 0 -318.93899995506752 -174.22829284331908 -96.291959013889709 0 -96.291959013889709 -1067.1815914280789 0 0 0 -310.35247106784948 -209.87834972792191 -121.09973400796048 0 -121.09973400796048 -1078.9038740281931 0 0 0 -322.19555593902851 -159.83580570852735 -86.795257266268834 0 -86.795257266268834 -1057.1845745823971 0 0 0 -304.25509507273125 -217.29137825127816 -86.547348477814239 0 -86.547348477814239 -1047.2352744101779 0 0 0 -316.1316631653641 -180.72225625593001 -77.35289081305757 0 -77.35289081305757 -1030.4658026322204 0 0 0 -302.79701472203749 -206.30599811677314 -89.073185894640233 0 -89.073185894640233 -1015.29655573322 0 0 0 -305.40063846249825 -261.33446256760089 -88.866678197624708 0 -88.866678197624708 -1027.2470726432887 0 0 0 -322.14538380272256 -269.80771965817706 -109.87412246596818 0 -109.87412246596818 -1050.0981266662916 0 0 0 -329.97646158111712 -257.10250261129244 -102.4941439432976 0 -102.4941439432976 -998.00561562215717 0 0 0 -313.77702955836241 -337.13327167619377 -94.547176702852468 0 -94.547176702852468 -1011.4538508472702 0 0 0 -337.14678063086598 -330.89226081069472 -71.791161212111618 0 -71.791161212111618 -992.85334087448291 0 0 0 -330.93640042129437 -259.72344985958296 -75.296125470083268 0 -75.296125470083268 -976.55101999512624 0 0 0 -309.06861746367736 -254.28886500286541 -50.777463381085511 0 -50.777463381085511 -955.09022956686431 0 0 0 -302.34477364243241 -320.28861543207938 -48.631397858278781 0 -48.631397858278781 -960.86010196117707 0 0 0 -320.28717934831417 -265.88848042962161 -35.801262556246741 0 -35.801262556246741 -962.216116156721 0 0 0 -307.02614914658557 -239.13831092941382 -26.557010221878613 0 -26.557010221878613 -949.72455643594685 0 0 0 -297.21571684134011 -251.21994431650953 -28.965747249380197 0 -28.965747249380197 -926.21791414935547 0 0 0 -294.35946461646625 -313.24999817267764 -30.176776512360366 0 -30.176776512360366 -939.83749622672792 0 0 0 -313.27187359985135 -195.16487280640939 -31.527374932026078 0 -31.527374932026078 -979.58215975669577 0 0 0 -293.68675814077631 -189.19970300544992 -36.777166658459464 0 -36.777166658459464 -975.34818849619546 0 0 0 -291.13697287541129 -217.31567740880351 -39.642714673654268 0 -39.642714673654268 -963.84248866532209 0 0 0 -295.28954151853134 -229.8107777904786 -51.989841508131576 0 -51.989841508131576 -1000.1489874726296 0 0 0 -307.48994131577683 -182.93570025373026 -51.065330600356106 0 -51.065330600356106 -990.51269755609019 0 0 0 -293.36209945245514 -262.6817591259512 -51.37757395257205 0 -51.37757395257205 -985.3720986934095 0 0 0 -312.01346445484023 -222.03233095235191 -66.278881670568921 0 -66.278881670568921 -1009.5680970941955 0 0 0 -307.90010701163675 -216.3875677845067 -70.906739259614596 0 -70.906739259614596 -1007.7408615609418 0 0 0 -306.03210733636217 -173.41091122138641 -65.449585453024213 0 -65.449585453024213 -1034.4626483569837 0 0 0 -301.96838989459229 -151.52898736028772 -56.263209543544008 0 -56.263209543544008 -1019.3494158036574 0 0 0 -292.71960079098619 -159.88564333158911 -55.53846730865245 0 -55.53846730865245 -1044.3944435525882 0 0 0 -301.07002172104444 -165.93794145963966 -48.460294459614261 0 -48.460294459614261 -1020.9599521131031 0 0 0 -296.72447339318558 -134.90985672715692 -44.265054232326975 0 -44.265054232326975 -1023.5334389304171 0 0 0 -289.61082391439368 -191.2018164891424 -59.20875491908474 0 -59.20875491908474 -1020.7811807727212 0 0 0 -302.9957493154659 -110.81080028199585 -27.444580119561579 0 -27.444580119561579 -1050.4432879901751 0 0 0 -290.31352206804286 -103.65358793977293 -36.447911533161516 0 -36.447911533161516 -1039.331034157939 0 0 0 -285.74615552442765 -140.60250236878232 -41.526652028210265 0 -41.526652028210265 -1038.7589955270007 0 0 0 -294.84037447394599 -128.72684288427581 -24.953167382780066 0 -24.953167382780066 -1030.8702652299271 0 0 0 -289.89927702855084 -122.54381879832613 -32.284090573307196 0 -32.284090573307196 -1019.841780743297 0 0 0 -285.59639988540584 -146.38702189291871 -36.688642390022778 0 -36.688642390022778 -1009.6720004834028 0 0 0 -289.01475559408027 -145.87329492420611 -33.075316002209092 0 -33.075316002209092 -1005.6631428895296 0 0 0 -287.88410945343401 -136.97255672031883 -27.033952591527623 0 -27.033952591527623 -993.32623314209468 0 0 0 -282.57469746560332 -159.67635390286364 -47.362423434070251 0 -47.362423434070251 -1000.7212663978385 0 0 0 -290.09940507517535 -180.62989480686065 -46.949729374092158 0 -46.949729374092158 -1007.0893584184471 0 0 0 -296.92981330632688 -149.38220312620535 -41.382842159425081 0 -41.382842159425081 -1009.0856670521498 0 0 0 -289.61696754458865 -154.70166024309628 -31.461600415841986 0 -31.461600415841986 -992.89353342216214 0 0 0 -286.89879841631478 -164.85578011958978 -39.328542635642748 0 -39.328542635642748 -998.49594704504261 0 0 0 -290.83793179115787 -178.67394212468616 -24.149371216551913 0 -24.149371216551913 -971.00412808439933 0 0 0 -287.41951755227137 -164.54700182795909 -11.528333312471773 0 -11.528333312471773 -981.7351724058733 0 0 0 -286.57054355845798 -161.43344434969299 -9.8377424250563195 0 -9.8377424250563195 -965.10360511282215 0 0 0 -281.63426236562862 -167.73713434435831 -28.456944557180805 0 -28.456944557180805 -1003.3319500031535 0 0 0 -292.76727108687805 -155.89881116113588 -31.851553708379015 0 -31.851553708379015 -1000.9198823143333 0 0 0 -289.20467336886736 -124.38088183062922 -19.218745502240381 0 -19.218745502240381 -985.08469840695352 0 0 0 -277.36639505939587 -147.07490188655538 -34.055131276673137 0 -34.055131276673137 -1006.6033258236866 0 0 0 -288.41955692756051 -109.17798826807416 -18.247179552161015 0 -18.247179552161015 -989.96937517777769 0 0 0 -274.78684086146291 -141.54772101721574 -4.8767641225091438 0 -4.8767641225091438 -1002.0804985238747 0 0 0 -285.90705488527237 -119.39052210291652 62.728136041960738 0 62.728136041960738 -881.49215524855026 0 0 0 -250.22066933786664 -76.962184256080434 38.220761571417597 0 38.220761571417597 -957.27407426962736 0 0 0 -258.55906463142691 -114.73319547140795 16.380206301617932 0 16.380206301617932 -1023.2394771098616 0 0 0 -284.49316814531721 -177.49810195660427 14.380133595924008 0 14.380133595924008 -937.67280642347396 0 0 0 -278.79272709501959 -111.75507399490317 15.928280894761428 0 15.928280894761428 -949.20520161651064 0 0 0 -265.24006890285358 -141.48286344016321 47.847523532096147 0 47.847523532096147 -905.28660063767552 0 0 0 -261.69236601945954 -163.00251411813952 30.345357895633121 0 30.345357895633121 -891.11452017951842 0 0 0 -263.5292585744146 -196.19036346257437 31.917495812383777 0 31.917495812383777 -902.25409867804217 0 0 0 -274.61111553515411 -214.54043619625503 9.0208045350531734 0 9.0208045350531734 -929.05859623989568 0 0 0 -285.89975810903758 -213.89669950410126 24.901581787772898 0 24.901581787772898 -869.47484780345258 0 0 0 -270.8428868268885 -246.13750899984939 20.047294646706462 0 20.047294646706462 -877.16176751639546 0 0 0 -280.82481912906121 -246.34060197677348 34.920743426849754 0 34.920743426849754 -833.2512599139925 0 0 0 -269.89796547269151 -289.47279691275514 15.373903121342957 0 15.373903121342957 -868.46472589804671 0 0 0 -289.48438070270043 -248.21048097288792 18.865129847333492 0 18.865129847333492 -867.77906028142525 0 0 0 -278.99738531357832 -253.97111014255768 5.4213173740068896 0 5.4213173740068896 -907.40971596897441 0 0 0 -290.34520652788297 -255.00766361839266 -2.8649589554471504 0 -2.8649589554471504 -910.72727727558674 0 0 0 -291.43373522349481 -243.0206364148616 4.41638744882124 0 4.41638744882124 -903.57900425369075 0 0 0 -286.6499101671381 -299.48436976751293 0.85288061334775578 0 0.85288061334775578 -898.47827233679982 0 0 0 -299.4906605260781 -267.84469396550713 -12.230855684361984 0 -12.230855684361984 -916.73971673827316 0 0 0 -296.14610267594503 -221.35960756613792 -17.314873302709429 0 -17.314873302709429 -940.56428717146491 0 0 0 -290.48097368440062 -195.06648494529389 3.9177926962705669 0 3.9177926962705669 -921.40533699350067 0 0 0 -279.11795548469871 -221.18585323064073 -8.558929710049938 0 -8.558929710049938 -941.49551068551443 0 0 0 -290.67034097903877 -24.433074165351172 80.940773063477081 0 80.940773063477081 -985.12865636837159 0 0 0 -252.39043263343092 -74.520324135138253 60.513492990815507 0 60.513492990815507 -1001.0075418683209 0 0 0 -268.88196650086502 -69.696771873952002 57.733800072890858 0 57.733800072890858 -990.25621590227729 0 0 0 -264.98824694405766 -12.238249699541939 64.045970159972057 0 64.045970159972057 -1007.6724976730557 0 0 0 -254.97768684314997 55.899296108653743 68.07715490657074 0 68.07715490657074 -1012.9274202530669 0 0 0 -239.25703103610385 25.989750397975513 83.388267994401758 0 83.388267994401758 -975.58128070192379 0 0 0 -237.3978825759873 20.545943742098473 60.175175005988422 0 60.175175005988422 -974.61949572471485 0 0 0 -238.51838799565365 -16.034869904004609 59.773841623585668 0 59.773841623585668 -930.13993807551014 0 0 0 -236.54370199487857 35.19407853456778 73.395103352394926 0 73.395103352394926 -942.07268373635088 0 0 0 -226.719651300446 5.9170301833869416 75.717583676411778 0 75.717583676411778 -888.0113244888289 0 0 0 -220.52357357635992 -75.19397081508373 16.29764183309635 0 16.29764183309635 -906.48444571525215 0 0 0 -245.4196041325838 -28.569176086885363 59.839368519583076 0 59.839368519583076 -967.74263873008204 0 0 0 -249.07795370424219 -64.165716531916246 51.53586482787523 0 51.53586482787523 -976.59939026401298 0 0 0 -260.19127669898182 -71.721296220171098 47.289953324817532 0 47.289953324817532 -1000.5275066525392 0 0 0 -268.06220071817734 -109.28552960007119 -1.1939827946384867 0 -1.1939827946384867 -1001.4697241532976 0 0 0 -277.68881343834278 -218.17100239314391 72.325858028779976 0 72.325858028779976 -1102.2914587789273 0 0 0 -330.11561529301775 -120.18941350302725 28.824492867833669 0 28.824492867833669 -1022.6875020287589 0 0 0 -285.71922888294671 -224.35269363055613 45.011565800498829 0 45.011565800498829 -998.89596960673407 0 0 0 -305.81216580932255 -99.035892405112463 26.792447827624528 0 26.792447827624528 -955.64511694730754 0 0 0 -263.67025233810546 -209.83922851517127 -79.319910485628725 0 -79.319910485628725 -1115.9676401080242 0 0 0 -331.45171715579932 -65.960154816191107 -8.7495441357602886 0 -8.7495441357602886 -1000.4483158237217 0 0 0 -266.60211765997815 -325.59369455951446 -5.2710241960530766 0 -5.2710241960530766 -1026.9704052491402 0 0 0 -338.14102495216412 -176.10785744201476 -10.136919094214136 0 -10.136919094214136 -976.82759481392281 0 0 0 -288.23386306398459 -154.79825989611555 -45.225995355668147 0 -45.225995355668147 -1037.0823164581375 0 0 0 -297.97014408856313 -210.06733682608137 -27.274412015190819 0 -27.274412015190819 -997.03993598415855 0 0 0 -301.77681820256021 -149.02846772149181 -16.933745160180933 0 -16.933745160180933 -974.77730099527378 0 0 0 -280.95144217919119 -170.87643878336053 -5.0840435807810991 0 -5.0840435807810991 -1001.0298592757563 0 0 0 -292.97657451477949 -133.18439469498117 53.595844078361552 0 53.595844078361552 -995.58169492379193 0 0 0 -282.19152240469384 -116.81338828338312 39.476876769287628 0 39.476876769287628 -975.216388879855 0 0 0 -273.00744429080964 -143.74444846103347 37.319272167103009 0 37.319272167103009 -981.37983053903054 0 0 0 -281.28106975001583 -105.76443029801999 28.246025883400762 0 28.246025883400762 -1006.7987650869818 0 0 0 -278.14079884625039 -83.712752595429265 54.305176608125294 0 54.305176608125294 -996.50010380563299 0 0 0 -270.053214100265 -107.85696269144955 24.906398507619542 0 24.906398507619542 -1013.7883551542836 0 0 0 -280.41132946143352 -64.51887650861903 36.333393753561722 0 36.333393753561722 -1004.2848093919758 0 0 0 -267.20092147514873 -147.71541394436395 -19.73577654126143 0 -19.73577654126143 -1016.9102385582746 0 0 0 -291.15641312565958 -121.00930849207225 -1.470435048847321 0 -1.470435048847321 -985.20583772080317 0 0 0 -276.55378655321897 -122.18391941105483 4.8132736689912008 0 4.8132736689912008 -1017.3662459217066 0 0 0 -284.88754133319026 -89.81310777937756 9.4127816040336256 0 9.4127816040336256 -1005.2960828913106 0 0 0 -273.77729766767129 -106.62743354189013 -12.66288448298701 0 -12.66288448298701 -1002.0684090945566 0 0 0 -277.17396065911146 -119.40865786159338 -7.4208661704246879 0 -7.4208661704246879 -1039.6061921739138 0 0 0 -289.75371250887656 -74.232996397265453 1.5901523960828854 0 1.5901523960828854 -1025.9059659573186 0 0 0 -275.03474058864572 -99.25931716957848 -12.605193107062178 0 -12.605193107062178 -1055.4899753615473 0 0 0 -288.68732313278133 -89.357523380105818 -16.121883322732174 0 -16.121883322732174 -1026.5789589987999 0 0 0 -278.98412059472651 -62.677058240270071 30.145562541368008 0 30.145562541368008 -1036.8039908235696 0 0 0 -274.87026226595981 -103.95207213309959 16.076131420056299 0 16.076131420056299 -1040.5226486535921 0 0 0 -286.11868019667281 -57.325912943376011 20.719355568981427 0 20.719355568981427 -1026.2991224957104 0 0 0 -270.90625885977136 -84.768574847095806 8.0482946332597294 0 8.0482946332597294 -1047.7547851359386 0 0 0 -283.13083999575838 -64.781428364347903 25.410629598946798 0 25.410629598946798 -1043.9901742284783 0 0 0 -277.19290064820689 -31.108474265890436 32.541014256570634 0 32.541014256570634 -1049.4119988043708 0 0 0 -270.13011826756519 -8.2167507745241437 45.437825596462972 0 45.437825596462972 -1047.4390349446116 0 0 0 -263.91394642978389 -7.1414395383922056 41.768273784781059 0 41.768273784781059 -1065.079729336866 0 0 0 -268.05529221881397 -33.73416579557329 42.480157210418838 0 42.480157210418838 -1052.367350080789 0 0 0 -271.52537896909075 -42.01788611690381 48.009605208034372 0 48.009605208034372 -1025.4066086252169 0 0 0 -266.85612368552984 -36.241180207222442 49.441624108227188 0 49.441624108227188 -1022.7393974775532 0 0 0 -264.74514442119334 -36.344381844227428 56.765200729891063 0 56.765200729891063 -1025.1795895942087 0 0 0 -265.38099285960971 2.0452934960858329 57.00009464836694 0 57.00009464836694 -1029.1897752321474 0 0 0 -256.78612043401563 -25.823735173226851 56.596850808765794 0 56.596850808765794 -1022.3405878474969 0 0 0 -262.0410807551807 -36.747954126665832 64.823005916824513 0 64.823005916824513 -991.27113878934142 0 0 0 -257.00477322900235 -75.305824651813964 44.642474931669085 0 44.642474931669085 -1020.2802516188458 0 0 0 -273.89651906766449 37.580540783310425 69.899970445549343 0 69.899970445549343 -1017.5992330071331 0 0 0 -245.00467305595566 23.898127557299176 59.945038992396121 0 59.945038992396121 -1030.5101835964579 0 0 0 -251.65301400979024 1.6542931883641927 75.021362383207816 0 75.021362383207816 -1005.4835074773699 0 0 0 -250.95730357225142 -1.2925113875862735 52.768865157512892 0 52.768865157512892 -1049.11148721272 0 0 0 -262.60099965007703 38.000349896629814 52.496422596584125 0 52.496422596584125 -1053.8536105053845 0 0 0 -253.96331515218844 33.413881169954152 66.276412800998514 0 66.276412800998514 -1030.7256546921076 0 0 0 -249.32794338053816 22.929401620812314 44.349839722674005 0 44.349839722674005 -1067.2835685593382 0 0 0 -261.08854173463169 20.648585650300674 53.826199044247915 0 53.826199044247915 -1047.6874184227172 0 0 0 -256.75970819310419 36.317780453488922 44.448591394371761 0 44.448591394371761 -1066.145350832453 0 0 0 -257.45689259474148 20.336427770811497 38.499264310230046 0 38.499264310230046 -1075.432748155592 0 0 0 -263.77408009619558 7.905520557930231 34.021533969127631 0 34.021533969127631 -1082.0173278080383 0 0 0 -268.52795181252623 9.0849315932764512 43.439712880939624 0 43.439712880939624 -1064.0021041113214 0 0 0 -263.72929312951101 11.26202110589611 38.120377535653461 0 38.120377535653461 -1076.9483162326569 0 0 0 -266.42157378169031 -35.21800022683783 32.50821356660731 0 32.50821356660731 -1064.3258248330731 0 0 0 -274.88595626497772 -15.270885646094939 29.216460909568696 0 29.216460909568696 -1074.7690005134036 0 0 0 -272.50997153987464 -7.5768018545472842 35.455202034364675 0 35.455202034364675 -1064.8842936110159 0 0 0 -268.11527386639091 -6.8715681658181893 39.057218943407861 0 39.057218943407861 -1071.8301806325744 0 0 0 -269.67543719959713 -0.35778960304287466 28.846104159363612 0 28.846104159363612 -1087.4730521173733 0 0 0 -271.95771043010427 1.5459429460192951 30.601069220833324 0 30.601069220833324 -1081.6346528343283 0 0 0 -270.02217747207715 -9.2866313267008991 26.305922095479673 0 26.305922095479673 -1089.1672952085992 0 0 0 -274.6134816338249 11.295603476757151 29.097158323381336 0 29.097158323381336 -1087.9114882250287 0 0 0 -269.15397118706869 7.0022782532960264 22.567635889635682 0 22.567635889635682 -1098.4967032236145 0 0 0 -272.87360624257963 17.591902026370462 26.677412997370084 0 26.677412997370084 -1091.443450569639 0 0 0 -268.46288713581771 17.705105854320209 25.658261080783177 0 25.658261080783177 -1090.9255155497976 0 0 0 -268.30510242386936 9.3203114691325482 32.776547832701908 0 32.776547832701908 -1081.2935875875503 0 0 0 -267.99331902960398 -69.379707188524208 -6.3964127198621554 0 -6.3964127198621554 -1043.3678531775531 0 0 0 -278.18689009151922 -62.804191228944319 -2.3007526245382905 0 -2.3007526245382905 -1069.856238219375 0 0 0 -283.16510736207988 -46.355875214732237 -1.7609673728366033 0 -1.7609673728366033 -1065.2765700860891 0 0 0 -277.90811132520537 -43.78651752390715 12.031023048610678 0 12.031023048610678 -1080.8852310977818 0 0 0 -281.16793715542235 -47.647396203179596 12.214102969430996 0 12.214102969430996 -1056.6140629966176 0 0 0 -276.06536479994884 -46.957201288830674 17.182738702360439 0 17.182738702360439 -1048.7448242442042 0 0 0 -273.92550638325861 -54.186220716812386 20.353792905380942 0 20.353792905380942 -1067.0601496545169 0 0 0 -280.31159259283231 -25.059280508240704 24.344362779140283 0 24.344362779140283 -1056.2880023624143 0 0 0 -270.33682071766327 -22.923943554601465 21.332949223647574 0 21.332949223647574 -1076.6690150808536 0 0 0 -274.89823965886353 -24.114693867840288 18.39370041708662 0 18.39370041708662 -1081.4052778114419 0 0 0 -276.37999291982123 -7.7656863721038007 23.10699442265468 0 23.10699442265468 -1084.4116841844866 0 0 0 -273.04434263914777 -20.50566957875867 16.787209113073914 0 16.787209113073914 -1071.1207113468081 0 0 0 -272.90659523139243 -36.799834046720207 3.1555225023456615 0 3.1555225023456615 -1083.7865816483836 0 0 0 -280.14660392377618 -36.013472290150958 1.3621572637161989 0 1.3621572637161989 -1086.2311751701118 0 0 0 -280.56116186506551 -32.554846147378839 -9.3958597330329212 0 -9.3958597330329212 -1093.7782853734379 0 0 0 -281.58328288020471 -63.200440564590281 -16.81003614062638 0 -16.81003614062638 -1085.0393812173306 0 0 0 -287.05995544548023 -43.523873779466612 -15.690742555772431 0 -15.690742555772431 -1078.7847195712156 0 0 0 -280.57714833767068 -3.8918680943914765 5.5337912424624847 0 5.5337912424624847 -1087.9101948129526 0 0 0 -272.95051572683622 -26.990497922622581 -5.7446285359441163 0 -5.7446285359441163 -1086.7743745088319 0 0 0 -278.44121810786328 -32.446096527729651 -1.8823117762847232 0 -1.8823117762847232 -1097.8968229702532 0 0 0 -282.58572987449611 -7.4304229696697348 7.5312741583779825 0 7.5312741583779825 -1083.5009659650714 0 0 0 -272.73284723368556 -9.8263607945195872 7.6904791053418649 0 7.6904791053418649 -1081.1135434004218 0 0 0 -272.73497604873546 -1.9655586303625228 14.319358178658149 0 14.319358178658149 -1084.0942460768883 0 0 0 -271.51495117681276 -16.591269760127034 12.756539078018932 0 12.756539078018932 -1089.2996499104092 0 0 0 -276.47272991763384 -9.867410043799282 20.474026461668018 0 20.474026461668018 -1088.8781552814817 0 0 0 -274.68639133132001 0.52885413493163469 19.234449287490861 0 19.234449287490861 -1087.4731276147913 0 0 0 -271.73606836996464 -6.6415645777965437 16.971326950421371 0 16.971326950421371 -1088.3576008313348 0 0 0 -273.74979135228295 -0.43917648569686207 9.1716882694554442 0 9.1716882694554442 -1084.8306445160679 0 0 0 -271.31745525044153 -1.5548509032978473 7.1898281987741939 0 7.1898281987741939 -1064.6042112955247 0 0 0 -266.53976554970586 -0.90056509435453336 6.7892919440735113 0 6.7892919440735113 -1078.3264578284334 0 0 0 -269.80675573069675 -2.0004406893938049 4.4039967262524442 0 4.4039967262524442 -1052.8862559269435 0 0 0 -263.72167415408398 -1.4280412197008445 2.6394517225464824 0 2.6394517225464824 -1077.5023254824628 0 0 0 -269.73259167554056 6.7321782673443522 21.982615868217181 0 21.982615868217181 -1101.1404455395896 0 0 0 -273.60206681806176 6.9465250451094107 22.130575049799063 0 22.130575049799063 -1098.2988879939894 0 0 0 -272.83809073722023 -0.22191316909902525 23.91761194379751 0 23.91761194379751 -1097.1719799759667 0 0 0 -274.34847328626529 2.8137229959838805 25.181960925284784 0 25.181960925284784 -1089.0901154055964 0 0 0 -271.56909810240268 -2.9894243050396199 21.10244035231517 0 21.10244035231517 -1097.3822826022861 0 0 0 -275.09292672683182 3.0016226998823186 17.720505927646514 0 17.720505927646514 -1091.5310478514075 0 0 0 -272.13235628788152 0.41686562790664539 8.6524568979148171 0 8.6524568979148171 -1083.2172762511364 0 0 0 -270.70010265580731 -2.4454245214301409 10.512508018479821 0 10.512508018479821 -1100.0340052276551 0 0 0 -275.619857437272 2.1811160035863395 8.9725590096954875 0 8.9725590096954875 -1102.8189241734926 0 0 0 -275.15945204247555 1.5378654575943074 8.5485936360710184 0 8.5485936360710184 -1104.7839225340213 0 0 0 -275.81151426910765 5.5776131376173907 12.110793142375769 0 12.110793142375769 -1111.6748207354012 0 0 0 -276.52430189944607 -1.2848747394581324 14.457298572393483 0 14.457298572393483 -1107.1437766702852 0 0 0 -277.10716285243541 0.099912110254990694 15.286778457291462 0 15.286778457291462 -1104.2970634814428 0 0 0 -276.04928784279673 -0.63842395602478064 6.4384087541573081 0 6.4384087541573081 -1126.1638659980254 0 0 0 -281.70057248851299 0.0028362269586068578 6.2877696393006772 0 6.2877696393006772 -1121.2789559488319 0 0 0 -280.31902993046788 3.3850969872304955 6.8987358232070619 0 6.8987358232070619 -1135.1294573944476 0 0 0 -282.93609010180404 0.30839367712724197 1.8228553541248402 0 1.8228553541248402 -1128.0610575025967 0 0 0 -281.93816595636781 7.3492112337553408 7.4411078876782994 0 7.4411078876782994 -1122.1132415296743 0 0 0 -278.69100757397882 5.6772861533277137 13.642534211883685 0 13.642534211883685 -1109.6940323271992 0 0 0 -276.00418654346822 12.719726538542545 13.543861846797881 0 13.543861846797881 -1108.1755542317369 0 0 0 -273.86395692329825 3.3615376298821502 6.242218664430311 0 6.242218664430311 -1114.1258632433055 0 0 0 -277.69108140335538 15.692885172718888 10.863911124920378 0 10.863911124920378 -1107.7963452458589 0 0 0 -273.025865018285 7.8297650691024501 11.792471349318021 0 11.792471349318021 -1106.0872442357158 0 0 0 -274.56436979165392 13.634613612768135 -1.4701956738435911 0 -1.4701956738435911 -1108.7914947020672 0 0 0 -273.78922027232466 9.5004343640111983 -12.010668338122059 0 -12.010668338122059 -1110.585710953299 0 0 0 -275.27131914732217 12.055574619423624 1.1167590062686941 0 1.1167590062686941 -1113.800198322162 0 0 0 -275.43615592568403 5.0712449440684395 -2.6800301511984799 0 -2.6800301511984799 -1120.645621264528 0 0 0 -278.89359408011524 4.0416708747679877 1.630334943192338 0 1.630334943192338 -1147.5595867956617 0 0 0 -285.8794789802223 4.2222287538661476 -4.5562855900957402 0 -4.5562855900957402 -1141.4484398781515 0 0 0 -284.30655278107133 2.2590647277465905 3.3409574313491248 0 3.3409574313491248 -1127.9212153958224 0 0 0 -281.41553766701963 4.3273251357359186 -8.4107063083579305 0 -8.4107063083579305 -1131.7356236929336 0 0 0 -281.85207463929964 14.226266281264884 -12.246399348999148 0 -12.246399348999148 -1115.9506659119259 0 0 0 -275.43109990766573 0.053964283791174239 -3.9263491611218342 0 -3.9263491611218342 -1119.323078788726 0 0 0 -279.81727862623393 2.4638883961943066 -11.723501887270231 0 -11.723501887270231 -1109.9501483720887 0 0 0 -276.87156499397406 0.16451364771273802 -10.033170658893141 0 -10.033170658893141 -1108.3321688488304 0 0 0 -277.04191380027987 0.77396870152733754 -14.207883436939937 0 -14.207883436939937 -1085.9591759719733 0 0 0 -271.29630181761149 4.4798036845841125 -29.662828979664937 0 -29.662828979664937 -1089.475991464411 0 0 0 -271.24904694495672 19.929901889018311 -41.347193466175668 0 -41.347193466175668 -1090.3146817954839 0 0 0 -267.59619497661652 13.828194137017817 -24.66251370064856 0 -24.66251370064856 -1101.5690693114211 0 0 0 -271.93521879360196 8.8989536968738321 -43.923309376821635 0 -43.923309376821635 -1085.6810473510304 0 0 0 -269.19552341353938 4.203824541643371 -17.096958529383755 0 -17.096958529383755 -1107.6970269809572 0 0 0 -275.87330060982731 18.072652419150927 -23.051943062575447 0 -23.051943062575447 -1098.9629147009155 0 0 0 -270.22256557044102 17.509035649441103 -10.542382949524836 0 -10.542382949524836 -1107.502161773642 0 0 0 -272.49828153104954 35.229758635629423 -24.890797651153662 0 -24.890797651153662 -1098.8082854908798 0 0 0 -265.89463171381385 23.3597001917542 -17.651294175402199 0 -17.651294175402199 -1104.525387263433 0 0 0 -270.29142176791993 51.402477455266762 -19.671524871925612 0 -19.671524871925612 -1094.8984626149868 0 0 0 -260.87399628993035 21.220072293890553 -36.513684440651105 0 -36.513684440651105 -1096.2523734437018 0 0 0 -268.7580752874519 20.319065528383362 -46.945078143711726 0 -46.945078143711726 -1082.2790754259695 0 0 0 -265.49000247439653 28.195828701253504 -41.928565779949167 0 -41.928565779949167 -1089.0295174886978 0 0 0 -265.20842219686028 36.801923787925261 -41.673063816811009 0 -41.673063816811009 -1095.5539690761798 0 0 0 -264.68801132206409 20.042343143352127 -58.043109361257848 0 -58.043109361257848 -1089.2380867825204 0 0 0 -267.29893590979259 36.762187941975753 -58.483350289262205 0 -58.483350289262205 -1089.4757835988494 0 0 0 -263.17839891421863 59.366907604712651 -62.237947309748506 0 -62.237947309748506 -1084.1407422083139 0 0 0 -256.19345865090054 42.495530101897202 -51.543627417239804 0 -51.543627417239804 -1105.8116463326387 0 0 0 -265.82902905768606 83.17940149731723 -50.157591499500995 0 -50.157591499500995 -1092.3564154549176 0 0 0 -252.29425348939938 66.807289576018277 -77.616503411829399 0 -77.616503411829399 -1080.6389943373122 0 0 0 -253.45792619032324 52.40709456118384 -69.31186409275233 0 -69.31186409275233 -1105.628460278378 0 0 0 -263.30534142929901 46.602846721822061 -23.23064219127707 0 -23.23064219127707 -1102.5982388063167 0 0 0 -263.9988480211241 57.533659869612165 -44.154160731345655 0 -44.154160731345655 -1091.3291623376863 0 0 0 -258.44887561701944 69.404680903518965 -23.282226682241344 0 -23.282226682241344 -1100.0257120816159 0 0 0 -257.655257794524 95.422948013762834 -21.328182680767895 0 -21.328182680767895 -1095.679375969672 0 0 0 -250.06410698897707 59.238556810205409 -3.4189449438260908 0 -3.4189449438260908 -1097.0708028174322 0 0 0 -259.4580615018067 82.752539584196711 -5.4877657676815943 0 -5.4877657676815943 -1090.7759497629213 0 0 0 -252.00585254468024 54.877264474137064 -3.3358012452836192 0 -3.3358012452836192 -1096.1702978387166 0 0 0 -260.32325834114408 48.785975728715584 14.310636583452833 0 14.310636583452833 -1090.8773737356914 0 0 0 -260.52284950174408 62.601702109522648 15.95873761392977 0 15.95873761392977 -1089.9171154629657 0 0 0 -256.82885333836111 51.892983325187288 14.648318452865169 0 14.648318452865169 -1091.0002749935784 0 0 0 -259.77682291709743 40.635239303215258 31.840607842762438 0 31.840607842762438 -1081.4802741056737 0 0 0 -260.21125870061542 19.627639640421705 26.629044900761983 0 26.629044900761983 -1088.9650945635517 0 0 0 -267.33436373078183 29.799581123550524 27.894514503613891 0 27.894514503613891 -1085.9104536415034 0 0 0 -264.02771812948822 26.342767274173639 11.30951257138986 0 11.30951257138986 -1098.6092484359287 0 0 0 -268.06662029043764 36.470617950849828 20.259009995336783 0 20.259009995336783 -1092.2350758360735 0 0 0 -263.94111447130672 14.301922328063483 15.561210387293862 0 15.561210387293862 -1101.6290059511575 0 0 0 -271.83177090577374 29.882680280347131 13.364787441931185 0 13.364787441931185 -1098.512155601933 0 0 0 -267.15736883039676 15.587683633352299 3.8474174692150882 0 3.8474174692150882 -1103.6668776872339 0 0 0 -272.01979851347005 27.833751028200822 0.43151322373159928 0 0.43151322373159928 -1103.7263603238116 0 0 0 -268.97315232390247 28.427688776916057 -15.117766147906877 0 -15.117766147906877 -1099.5165363678198 0 0 0 -267.77221189772581 31.01238905980972 -2.2490269412264752 0 -2.2490269412264752 -1102.6047408455561 0 0 0 -267.89808794643795 45.800373606058201 3.3782044005602074 0 3.3782044005602074 -1093.9473316242425 0 0 0 -262.03673950454549 -27.429292770690097 -14.163030706231439 0 -14.163030706231439 -1006.4014896491733 0 0 0 -258.45769560496586 -15.431764011957057 -19.776685060010209 0 -19.776685060010209 -1017.1455609370423 0 0 0 -258.1443312372503 -5.4449376684251547 -6.6410596486930444 0 -6.6410596486930444 -1005.4238214807665 0 0 0 -252.71718978729768 -12.483254061286004 -6.3377232093716884 0 -6.3377232093716884 -1000.2149103699282 0 0 0 -253.17454110780267 -0.039699733741144883 0.80164718968171655 0 0.80164718968171655 -1002.3760517629635 0 0 0 -250.60393787417706 0.98158814480120782 0.15711307593411469 0 0.15711307593411469 -1000.8322168829909 0 0 0 -249.96265718454742 -0.64122162582043529 0.14364528979785973 0 0.14364528979785973 -998.91634746272393 0 0 0 -249.88939227213541 -1.4934933261201877 0.70033136408164864 0 0.70033136408164864 -1000.3031506823572 0 0 0 -250.44916100212049 -4.9007281351732672 -8.106617418146044 0 -8.106617418146044 -1013.0488282093356 0 0 0 -254.48738908612631 -8.9586713868714014 -16.369157391487533 0 -16.369157391487533 -1010.6501444739615 0 0 0 -254.9022039652084 0.0636999701609966 -4.9513482345810189 0 -4.9513482345810189 -1006.1123935711366 0 0 0 -251.51217340024414 -7.1516077949809187 -12.739658929509915 0 -12.739658929509915 -1025.8248935589436 0 0 0 -258.24412533847953 -9.1515223472752041 -24.299739898102871 0 -24.299739898102871 -1037.4239137349032 0 0 0 -261.64385902054346 -9.4569517495788205 -36.664008268452562 0 -36.664008268452562 -1026.322741695245 0 0 0 -258.94492336120629 -16.002566609269707 -27.609172802513058 0 -27.609172802513058 -1007.7615511909771 0 0 0 -255.94102945006216 -46.610688193384703 -35.723751491286748 0 -35.723751491286748 -1022.5212181773804 0 0 0 -267.28297659269083 -9.550327086307334 -49.416066051708185 0 -49.416066051708185 -1024.6397922081323 0 0 0 -258.54752982360969 -30.739599123213338 -42.552903086849028 0 -42.552903086849028 -1036.5542012326259 0 0 0 -266.82345008895936 -17.706781521863945 -53.377702646779653 0 -53.377702646779653 -1045.11505367119 0 0 0 -265.70545879826261 -11.413723401106836 -45.891298910094974 0 -45.891298910094974 -1060.4150502411212 0 0 0 -267.9571934105561 -4.6961407608959007 -42.865268014624235 0 -42.865268014624235 -1039.3960408132023 0 0 0 -261.0230453935236 -8.5406952099510818 -20.490138284209024 0 -20.490138284209024 -1058.178992068275 0 0 0 -266.67992181955742 1.715136962521683 -15.232114048991207 0 -15.232114048991207 -1023.5522303004254 0 0 0 -255.45927333447526 2.3095768243474595 -14.914260558679416 0 -14.914260558679416 -1046.7325724906186 0 0 0 -261.10574891656688 3.3204940940995584 -28.94564637089843 0 -28.94564637089843 -1041.8680132495247 0 0 0 -259.63687978885673 -4.9302464399469272 -30.553948347568621 0 -30.553948347568621 -1072.3726184032994 0 0 0 -269.32571621081195 -1.3353877367826499 -14.698466241751248 0 -14.698466241751248 -1065.681728542153 0 0 0 -266.75427906973346 0.76412429410572291 -14.032887954781472 0 -14.032887954781472 -1082.2892898380178 0 0 0 -270.38129138597617 5.2937835634622843 -29.98563073700916 0 -29.98563073700916 -1089.4486595198473 0 0 0 -271.03871898909597 4.8853573976666667 -35.443466493436972 0 -35.443466493436972 -1067.0106873470795 0 0 0 -265.5313324873523 8.420692005935507 -52.023493819909163 0 -52.023493819909163 -1050.3014982493823 0 0 0 -260.47020156086319 0.56530682951665767 -49.714512019642825 0 -49.714512019642825 -1075.2690607263444 0 0 0 -268.67593847420653 11.978457477416669 -53.56227804019629 0 -53.56227804019629 -1075.2697602035987 0 0 0 -265.8228256815446 26.408334100993102 -64.463668115390647 0 -64.463668115390647 -1074.2943544319501 0 0 0 -261.97150508274046 4.8724635776161449 -71.998952411932805 0 -71.998952411932805 -1075.6413603316323 0 0 0 -267.69222418850495 24.797884232808428 -76.745376880568074 0 -76.745376880568074 -1094.6654436644894 0 0 0 -267.46688985792025 9.2024779432240393 -96.949066229587515 0 -96.949066229587515 -1073.9405731495408 0 0 0 -266.18452380157851 -4.3519203550943075 -90.995919138490535 0 -90.995919138490535 -1075.4169290539103 0 0 0 -269.94221235225018 30.097241850458886 -78.046435948075214 0 -78.046435948075214 -1068.7299933523573 0 0 0 -259.65818787547414 5.0970541840333681 -84.773341488282313 0 -84.773341488282313 -1045.1589214189862 0 0 0 -260.01546680873753 11.849708625153198 -106.82030701679287 0 -106.82030701679287 -1054.1920641429042 0 0 0 -260.585588879439 -40.16806709681714 -98.199173842744131 0 -98.199173842744131 -1068.7698815843523 0 0 0 -277.2344871702926 -24.423896802165928 -78.76558133107028 0 -78.76558133107028 -1057.3382810478961 0 0 0 -270.44054446251403 -24.230815129663824 -66.900537508246998 0 -66.900537508246998 -1030.1225073430869 0 0 0 -263.58833061818768 4.5046711645973119 -71.311862088972248 0 -71.311862088972248 -1051.5054475963479 0 0 0 -261.7501941079372 -10.876761245947819 -58.426543293747272 0 -58.426543293747272 -1060.2672779411587 0 0 0 -267.78600979677685 -37.483439740147332 -59.419340260399622 0 -59.419340260399622 -1041.1869326219075 0 0 0 -269.66759309051349 -19.301846207274139 -45.712590474929812 0 -45.712590474929812 -1005.218027493378 0 0 0 -256.12996842516259 -59.043688775639566 -56.84196027309099 0 -56.84196027309099 -1024.9791729968165 0 0 0 -271.00571544311515 -36.677689430975079 -70.23343377108813 0 -70.23343377108813 -1023.8100728214631 0 0 0 -265.12194056310818 -74.574637085631366 -81.957115868000074 0 -81.957115868000074 -1035.4065439155274 0 0 0 -277.49529525028993 -30.651167853572588 -97.330811601070309 0 -97.330811601070309 -1036.0638751471306 0 0 0 -266.67876075017466 -58.732117303903578 -70.544273298530015 0 -70.544273298530015 -1004.6532846226582 0 0 0 -265.84635048164091 -100.05850789147917 -56.426216136550465 0 -56.426216136550465 -1027.4448073324456 0 0 0 -281.87582880598166 -141.60804227929066 -81.79757864941439 0 -81.79757864941439 -1033.9373694194364 0 0 0 -293.88635292468143 -112.89411066456705 -29.829938061867324 0 -29.829938061867324 -1009.3222528442166 0 0 0 -280.55409087719636 -79.678733660641228 -24.619841398600329 0 -24.619841398600329 -1002.1711124541762 0 0 0 -270.46246152870481 -54.071419697737838 -20.478315905488671 0 -20.478315905488671 -1002.314461526601 0 0 0 -264.09647030608539 -40.108570105976924 -43.571715931831932 0 -43.571715931831932 -1001.7558520102539 0 0 0 -260.46610552905759 -70.961355095154431 -27.16747647810007 0 -27.16747647810007 -1013.0860952902694 0 0 0 -271.01186259635597 -21.697203439342047 -17.528312443427239 0 -17.528312443427239 -998.42270197186735 0 0 0 -255.02997635280281 -270.4371085343073 -56.813603094295104 0 -56.813603094295104 -985.98470443659608 0 0 0 -314.10545324272516 -429.12224276736742 -50.511312067032122 0 -50.511312067032122 -1016.8244859945189 0 0 0 -361.48668219047067 -230.80312271021739 -119.13746807595044 0 -119.13746807595044 -1005.1394469674087 0 0 0 -308.98564241940676 -314.00767761874442 -102.91060662165182 0 -102.91060662165182 -1036.3016079627464 0 0 0 -337.57732139537359 -281.10254122207971 -46.027627823960756 0 -46.027627823960756 -1003.7819639100926 0 0 0 -321.2211262830433 -184.12510810511867 -39.448660474837602 0 -39.448660474837602 -1007.7700559666373 0 0 0 -297.97379101793922 -115.3862155461693 -37.030949491680076 0 -37.030949491680076 -999.40650271963204 0 0 0 -278.69817956645056 -182.3198418688994 -44.865095058115003 0 -44.865095058115003 -1000.1051999575247 0 0 0 -295.60626045660638 -175.09738729741093 -106.56313690824652 0 -106.56313690824652 -1028.7768038656905 0 0 0 -300.96854779077603 -105.0124313200904 -116.63988325682476 0 -116.63988325682476 -1043.060162416914 0 0 0 -287.01814843425109 -88.616543629693297 -95.344117161249414 0 -95.344117161249414 -1014.2417845753862 0 0 0 -275.7145820512701 -65.016155914677711 -108.45742343453821 0 -108.45742343453821 -1044.1094373857577 0 0 0 -277.2813983251076 -104.94659638157646 -168.59397128213823 0 -168.59397128213823 -1036.9307888376861 0 0 0 -285.46934630481701 -165.64045161992362 -112.03109656740799 0 -112.03109656740799 -1021.8818859734374 0 0 0 -296.88058439834003 -148.94828148731361 -148.82928687829553 0 -148.82928687829553 -1050.0418519400628 0 0 0 -299.74753335684545 24.164112175311402 -174.64769897542556 0 -174.64769897542556 -1058.5257994158474 0 0 0 -258.59042181013456 18.206717374000164 -153.81668620806704 0 -153.81668620806704 -1085.6800022801654 0 0 0 -266.86832122654187 51.751822246833399 -149.69168745925981 0 -149.69168745925981 -1081.0920876369564 0 0 0 -257.3350663475303 -100.02367609491193 -157.3726891862143 0 -157.3726891862143 -1075.0621619837875 0 0 0 -293.77145951967395 -15.183534071777103 -143.35258885920484 0 -143.35258885920484 -1045.4934577940967 0 0 0 -265.16924796646799 -70.730707562704993 -135.13537536472722 0 -135.13537536472722 -1066.0451071180578 0 0 0 -284.19395367019206 -20.758505556050295 -129.82468409354897 0 -129.82468409354897 -1059.8950480800813 0 0 0 -270.16338840903336 -17.004877845944065 -115.79441182049777 0 -115.79441182049777 -1069.8645971830629 0 0 0 -271.71736875725219 28.597337020782106 -126.35992842334781 0 -126.35992842334781 -1067.6465846908213 0 0 0 -259.76231191750867 -28.008509944775142 -136.59792631818641 0 -136.59792631818641 -1088.6492504503585 0 0 0 -279.16444009878251 23.133286247173601 -113.18098455324639 0 -113.18098455324639 -1090.9499078316403 0 0 0 -266.95415539611531 77.201640981660603 -122.17486905515125 0 -122.17486905515125 -1092.0039931590491 0 0 0 -253.70058804434666 45.59501803520925 -105.13109572423491 0 -105.13109572423491 -1077.2468710640824 0 0 0 -257.91296325721942 82.546267335871562 -92.735509782912231 0 -92.735509782912231 -1092.481590467356 0 0 0 -252.48383078287134 40.608210861550106 -87.705915473620962 0 -87.705915473620962 -1096.7141966819217 0 0 0 -264.02649645509337 76.062283886373734 -95.311601826921617 0 -95.311601826921617 -1096.9191587859168 0 0 0 -255.21421872488736 118.55288550270961 -101.24887974554622 0 -101.24887974554622 -1107.0412278703843 0 0 0 -247.12208559191822 45.480627093412295 -129.55751673123541 0 -129.55751673123541 -1103.5571474316803 0 0 0 -264.51913008456722 135.28825053266337 -141.40211658765384 0 -141.40211658765384 -1099.5981191100127 0 0 0 -241.07746714433779 122.0813316744152 -98.363102172698859 0 -98.363102172698859 -1101.9766572383669 0 0 0 -244.97383139098838 205.04107862122964 -93.361051092548678 0 -93.361051092548678 -1100.394348651469 0 0 0 -223.83831750756053 170.18676596211981 -97.956296642600137 0 -97.956296642600137 -1112.4582431511353 0 0 0 -235.56786929725467 169.47188413488584 -170.52280885586151 0 -170.52280885586151 -1078.4926529985169 0 0 0 -227.25519221590821 60.287579646742415 -165.67662586148253 0 -165.67662586148253 -1114.4242213251546 0 0 0 -263.53416041960281 139.38099254282406 -153.19203070225103 0 -153.19203070225103 -1131.4688953735968 0 0 0 -248.02197570769295 238.31441316215751 -111.80811989128415 0 -111.80811989128415 -1135.4399428551042 0 0 0 -224.28138242323803 514.3579391865112 -136.27768509322414 0 -136.27768509322414 -1040.682439788814 0 0 0 -131.58112515057496 311.99447763425906 -221.25566876354105 0 -221.25566876354105 -941.33637950590855 0 0 0 -157.33547546791124 313.59416612844416 -255.17864931958684 0 -255.17864931958684 -968.25256194562098 0 0 0 -163.66459895429489 187.11663251745358 -227.98952511150947 0 -227.98952511150947 -1035.7516896042071 0 0 0 -212.15876427168769 291.28709848248297 -147.40168167636966 0 -147.40168167636966 -1080.5920318813926 0 0 0 -197.32623334972786 138.1203079480722 -195.15099098612973 0 -195.15099098612973 -1037.375790543801 0 0 0 -224.81387064893238 72.245260555692767 -296.2070585294905 0 -296.2070585294905 -930.26701304527705 0 0 0 -214.50543812239539 -130.41799271376294 -208.45992253759505 0 -208.45992253759505 -1023.4774861252363 0 0 0 -288.47386970975094 48.110481663994506 -243.45775392670708 0 -243.45775392670708 -1039.5972243207725 0 0 0 -247.87168566419496 -111.03953501153495 -190.39333932933914 0 -190.39333932933914 -1063.3333917454918 0 0 0 -293.5932316892567 31.912946358805129 -191.59815946409162 0 -191.59815946409162 -1075.8259982658838 0 0 0 -260.97826297677057 -90.696504277218082 -199.21105599503335 0 -199.21105599503335 -1055.5982447811002 0 0 0 -286.57368726457844 -183.3838485474862 -169.55107876202237 0 -169.55107876202237 -1014.95518410554 0 0 0 -299.58475816325699 -271.47281644895793 -158.89523722026479 0 -158.89523722026479 -1043.5116210174019 0 0 0 -328.74610936658883 -135.97344820091712 -229.90142560394634 0 -229.90142560394634 -1000.4838165285109 0 0 0 -284.11431618235656 -299.81701298420137 -183.39230588125429 0 -183.39230588125429 -1043.7351520760676 0 0 0 -335.88804126506636 -133.01163158934196 -228.66776265345834 0 -228.66776265345834 -1026.0320263873164 0 0 0 -289.76091449416435 -511.0592855737172 -117.90584659611886 0 -117.90584659611886 -1023.2548289821098 0 0 0 -383.5785286389559 -335.79947989513585 -225.2815633721375 0 -225.2815633721375 -951.64996448736565 0 0 0 -321.8623610956256 -277.80614729119407 -194.71113706275355 0 -194.71113706275355 -959.96028782416397 0 0 0 -309.44160877883951 -472.43332190521778 -128.21784490483515 0 -128.21784490483515 -1033.3401841683335 0 0 0 -376.4433765183885 -499.44767099928049 -121.46494570205141 0 -121.46494570205141 -966.254455059463 0 0 0 -366.42553151468519 -746.95232994075832 -86.915994677295203 0 -86.915994677295203 -1011.5348506748105 0 0 0 -439.62179515389198 -438.84165044499696 -93.175451987113775 0 -93.175451987113775 -986.03982464669934 0 0 0 -356.22036877292339 -570.7803232159149 -86.893410937918816 0 -86.893410937918816 -1003.473181976331 0 0 0 -393.56337629806148 -443.64709496188334 -74.462258151064816 0 -74.462258151064816 -1033.4542592853359 0 0 0 -369.27533856180435 -282.00461645817904 -165.49859893926077 0 -165.49859893926077 -986.42515216131642 0 0 0 -317.10744215487193 -300.61260523532746 -94.562047682257344 0 -94.562047682257344 -982.87793597144264 0 0 0 -320.87263530169275 133.34652486447294 25.214704675799112 0 25.214704675799112 -1067.3483140515409 0 0 0 -233.5004472967662 119.01501533000373 12.597472905237964 0 12.597472905237964 -1081.2625757663518 0 0 0 -240.56189010908747 165.20474611720695 21.50776433478859 0 21.50776433478859 -1066.4959588359543 0 0 0 -225.32280317968704 101.03437061333989 35.396703337522922 0 35.396703337522922 -1070.3987759533265 0 0 0 -242.34110133499689 74.349040554323892 55.940417303772847 0 55.940417303772847 -1044.4393209263071 0 0 0 -242.52257009299547 113.1455072364497 45.305731948457151 0 45.305731948457151 -1057.8340754208439 0 0 0 -236.17214204609854 80.078091627868844 61.713763901498623 0 61.713763901498623 -1036.1044424103729 0 0 0 -239.00658769562619 85.966174554284635 41.591995644382223 0 41.591995644382223 -1067.0270509623845 0 0 0 -245.26521910202541 69.039270646310342 35.672688933331301 0 35.672688933331301 -1072.5617760135974 0 0 0 -250.88062634182143 52.231528400426896 54.095020220986044 0 54.095020220986044 -1053.2145891503396 0 0 0 -250.24576518747767 43.859155461060254 31.220720461465817 0 31.220720461465817 -1080.1781089383021 0 0 0 -259.07973836931114 57.756973385549827 34.879371672094294 0 34.879371672094294 -1075.8340067427653 0 0 0 -254.51925833930363 81.14951952399224 16.596443390340482 0 16.596443390340482 -1085.6134443123628 0 0 0 -251.11598119709288 98.239488524474382 17.081033858443334 0 17.081033858443334 -1082.838260643819 0 0 0 -246.14969302983582 88.593377643021995 17.880891846290979 0 17.880891846290979 -1084.8604542976391 0 0 0 -249.06676916365495 107.61421376118324 -6.9596275801222873 0 -6.9596275801222873 -1093.3874187936744 0 0 0 -246.44330125812303 73.57414980499334 -11.229397535293174 0 -11.229397535293174 -1100.731059631089 0 0 0 -256.7892274565238 71.696376184901055 -43.824479578954197 0 -43.824479578954197 -1106.9458275651668 0 0 0 -258.81236284506576 113.1810481354305 -36.738805843485352 0 -36.738805843485352 -1104.9760294420703 0 0 0 -247.94874532665926 106.78107592225024 -39.931180375430813 0 -39.931180375430813 -1094.7688803621122 0 0 0 -246.99695110996527 108.1581433496458 -7.1846420104275239 0 -7.1846420104275239 -1094.4251034396239 0 0 0 -246.56674002249565 84.917499986485154 -69.19118056577372 0 -69.19118056577372 -1095.8574986364488 0 0 0 -252.73499966249005 97.640179978148808 -68.923358743106292 0 -68.923358743106292 -1107.1209223904989 0 0 0 -252.3701856030857 130.54836255944838 -62.391258004519841 0 -62.391258004519841 -1093.5973536058882 0 0 0 -240.76224776161007 132.68347589185669 -59.725318444111963 0 -59.725318444111963 -1111.0839592068223 0 0 0 -244.60012082874164 190.73019278535162 -44.050654806277635 0 -44.050654806277635 -1084.1822067517787 0 0 0 -223.3630034916057 150.19371056103216 -5.0867234072184146 0 -5.0867234072184146 -1082.3411577432762 0 0 0 -233.03686179556109 155.39795710176531 -30.307105648161041 0 -30.307105648161041 -1088.9230947444667 0 0 0 -233.38128441067511 128.1211572392649 -17.727385371757464 0 -17.727385371757464 -1095.1903409479601 0 0 0 -241.76729592717402 181.69453562276135 -7.1285669204171427 0 -7.1285669204171427 -1082.510466188608 0 0 0 -225.20398264146047 155.01660602818083 12.110701914357833 0 12.110701914357833 -1066.1110835967847 0 0 0 -227.77361939215098 204.86318921227758 3.0341120608700294 0 3.0341120608700294 -1064.8004316018632 0 0 0 -214.98431059739733 195.53677967930071 5.6832453982005973 0 5.6832453982005973 -1064.4528300308993 0 0 0 -217.22901258789898 180.29713898482191 36.843110400774094 0 36.843110400774094 -1040.3434428395551 0 0 0 -215.01157596368444 210.1811488720532 20.422453369818641 0 20.422453369818641 -1047.9446820237754 0 0 0 -209.44088328793077 194.38216870180349 -40.122821648382796 0 -40.122821648382796 -1098.4630481023596 0 0 0 -226.02021985013835 266.98594612788065 -16.841241898517183 0 -16.841241898517183 -1060.4331584051743 0 0 0 -198.36180306932329 274.10854626128094 -95.63509281297047 0 -95.63509281297047 -1106.6925925069172 0 0 0 -208.14601156140816 308.12586918267766 -18.577775188876785 0 -18.577775188876785 -1053.2427477026067 0 0 0 -186.27921962998266 392.63549593594689 4.5816107113819271 0 4.5816107113819271 -1071.4971749765136 0 0 0 -169.71541976014214 298.32179049034858 37.402423958594682 0 37.402423958594682 -1022.9768026820748 0 0 0 -181.1637530479311 237.61983356549081 54.523584381581713 0 54.523584381581713 -1027.6329469053417 0 0 0 -197.50327833496249 220.33413579401622 48.913644532456601 0 48.913644532456601 -1029.8073582629077 0 0 0 -202.36830561722309 262.29360803787279 19.503962892542404 0 19.503962892542404 -1038.5724611758699 0 0 0 -194.06971328449924 273.66548106975597 106.96012558609618 0 106.96012558609618 -1045.0466105575433 0 0 0 -192.84528237194763 269.66809618830666 147.29436542574376 0 147.29436542574376 -838.05956656500712 0 0 0 -142.09786759417511 194.2544275557832 103.67046323127215 0 103.67046323127215 -975.21007186831162 0 0 0 -195.23891107813301 211.94329771123193 92.461212302940112 0 92.461212302940112 -966.45022654198397 0 0 0 -188.6267322076892 198.77653759500481 52.441519219688416 0 52.441519219688416 -1024.0778475026382 0 0 0 -206.32532747690857 153.67287216499744 65.21401333931135 0 65.21401333931135 -1017.977231837036 0 0 0 -216.07608991800862 169.3829983333444 82.189397024683785 0 82.189397024683785 -994.64009470177916 0 0 0 -206.31427409210755 114.45229547948293 61.714325877969259 0 61.714325877969259 -1028.2503887481216 0 0 0 -228.44952331716013 149.54507809762799 47.643102753950188 0 47.643102753950188 -1047.7182587575508 0 0 0 -224.54329516498092 139.65172666973285 35.321847348639494 0 35.321847348639494 -1053.2445155310597 0 0 0 -228.39819721533149 116.75346599678858 64.234606525104937 0 64.234606525104937 -1027.250795636392 0 0 0 -227.6243324099006 75.772375976578587 80.605213326613239 0 80.605213326613239 -979.38428503102477 0 0 0 -225.90297726361177 99.294521530657562 94.695547229667682 0 94.695547229667682 -930.42966570672297 0 0 0 -207.78378604401689 51.32273302413887 87.332514493208635 0 87.332514493208635 -904.1289934883298 0 0 0 -213.20156511604728 89.174151592040744 80.553100706884834 0 80.553100706884834 -975.31437954348507 0 0 0 -221.53505698786148 114.90636266717593 96.053733175860543 0 96.053733175860543 -925.15523276515887 0 0 0 -202.56221752449619 21.972526357827064 76.543478564989528 0 76.543478564989528 -920.98676163198252 0 0 0 -224.75355881853875 96.412857514501866 121.69992670309421 0 121.69992670309421 -788.46794532628519 0 0 0 -173.01377195294526 44.24626464426693 92.352359601582066 0 92.352359601582066 -807.40157439941925 0 0 0 -190.78882743878819 107.18173232568552 125.35800324688148 0 125.35800324688148 -654.91903728790203 0 0 0 -136.93432624055458 27.233053117010968 82.913176518899832 0 82.913176518899832 -714.83048856701498 0 0 0 -171.89935886250078 41.579006232984227 57.646504710563931 0 57.646504710563931 -712.96356541986029 0 0 0 -167.84613979671946 54.735326880855609 59.279948830864136 0 59.279948830864136 -673.40907221599809 0 0 0 -154.66843633378539 -7.7596510714215583 61.814190073239843 0 61.814190073239843 -666.82156515932729 0 0 0 -168.6453040576871 264.57168876227934 50.623918047900474 0 50.623918047900474 -502.68208623198552 0 0 0 -59.527599367426774 184.9523118039192 40.816503934100638 0 40.816503934100638 -469.88780541447704 0 0 0 -71.233873402639801 113.17806358845837 89.646174297605285 0 89.646174297605285 -610.39758641106891 0 0 0 -124.30488070565298 200.10866821059608 152.64255864712004 0 152.64255864712004 -646.27591134849081 0 0 0 -111.54181078447345 175.96817597747668 140.57451443939749 0 140.57451443939749 -791.8107675002957 0 0 0 -153.96064788070453 208.41877013266731 152.90441984894369 0 152.90441984894369 -645.3445425256723 0 0 0 -109.23144309825238 146.98884651832532 128.93329972623587 0 128.93329972623587 -809.22322716296003 0 0 0 -165.55859516115879 274.55096855339184 170.94444809591096 0 170.94444809591096 -818.99730475566275 0 0 0 -136.11158405056699 429.53284705964415 201.37547929341144 0 201.37547929341144 -818.98867079285264 0 0 0 -97.36395593330144 291.06291776727858 165.9328567896755 0 165.9328567896755 -764.49875967493608 0 0 0 -118.35896047691494 326.74277660458483 154.26707443438215 0 154.26707443438215 -1200.4631040624699 0 0 0 -218.4300818644715 456.02711331744513 91.663718506268197 0 91.663718506268197 -32.701618183349638 0 0 0 105.83137378352467 270.93598130153168 243.21805139726985 0 243.21805139726985 -610.87125661485334 0 0 0 -84.983818828330641 745.72036429136642 -82.870443146794969 0 -82.870443146794969 -922.57736454005499 0 0 0 -44.214250062172141 259.18406795860028 366.39609523950003 0 366.39609523950003 -629.98726965636342 0 0 0 -92.700800424439876 1.8729037443060772 0.271012445107361 0 0.271012445107361 0.40826050986847617 0 0 0 0.57029106354363845 1170.1428170016397 -329.10436567452416 0 -329.10436567452416 -302.39759665167003 0 0 0 216.93630508749357 830.79650487949493 -128.51508684674764 0 -128.51508684674764 -289.9908093972299 0 0 0 135.20142387056603 -0.67880391676947327 -0.048192345102807399 0 -0.048192345102807399 -0.59654679470649885 0 0 0 -0.3188376778689932 736.0606175948833 37.106545756712876 0 37.106545756712876 -226.09222811193104 0 0 0 127.49209737073761 1522.9067927759495 70.035544718415622 0 70.035544718415622 -276.2540582803681 0 0 0 311.66318362389461 0.10685958620839475 0.28030939187634185 0 0.28030939187634185 -0.012981432434248319 0 0 0 0.023469538443536608 807.23964233642391 -11.353638292232063 0 -11.353638292232063 -188.01121608596623 0 0 0 154.80710656261408 1074.9136353748454 133.78895270502153 0 133.78895270502153 -166.5932257354998 0 0 0 227.0801024098364 316.70953840314041 94.695510260095034 0 94.695510260095034 -298.69925011215673 0 0 0 4.5025720727453518 558.59642310098343 -4.2767746008839822 0 -4.2767746008839822 -82.891450160355816 0 0 0 118.92624323515747 446.31990546265843 56.143058683959623 0 56.143058683959623 -395.33834078079417 0 0 0 12.745391170465155 339.79291796079542 13.74393546740248 0 13.74393546740248 -298.8509041926518 0 0 0 10.235503442036133 496.27315804281398 -51.136795507577517 0 -51.136795507577517 -359.54764440521649 0 0 0 34.181378409399258 590.35730156608133 -1.6459054802414812 0 -1.6459054802414812 -126.89170715263026 0 0 0 115.86639860336163 786.76332416228024 -32.140765720771014 0 -32.140765720771014 -200.75926208483361 0 0 0 146.50101551936177 349.39833836707112 12.715624660629601 0 12.715624660629601 -416.48900354667239 0 0 0 -16.772666294899864 1036.9005980019092 81.567705707721132 0 81.567705707721132 -373.06966893128993 0 0 0 165.95773226765414 1104.0556056069181 46.630428597630271 0 46.630428597630271 -150.70877328026654 0 0 0 238.33670808166198 1598.6288892598627 17.620703877214055 0 17.620703877214055 -158.38636313623647 0 0 0 360.06063153090599 0.16861808042939397 0.21223372328754314 0 0.21223372328754314 0.66062360716195734 0 0 0 0.20731042189783788 1503.6404460596311 109.0428421417073 0 109.0428421417073 -170.2712973608609 0 0 0 333.34228717469136 1182.5325780384146 -6.2837511894072122 0 -6.2837511894072122 -262.69202149335979 0 0 0 229.96013913626348 920.99474198911184 150.00792562229299 0 150.00792562229299 -279.1229298801627 0 0 0 160.46795302723785 1390.8052843062251 103.82698557064145 0 103.82698557064145 -216.57641038415568 0 0 0 293.5572184805178 795.77322347639074 -39.754256723025208 0 -39.754256723025208 -205.32975315528893 0 0 0 147.61086758027523 0.546725945353006 0.32223514414089316 0 0.32223514414089316 1.6900815443086279 0 0 0 0.55920187241540853 979.40433038315223 53.519998720014428 0 53.519998720014428 -290.10310736669544 0 0 0 172.32530575411374 520.16301842431858 -31.314260139566613 0 -31.314260139566613 -406.8760967083017 0 0 0 28.321730429004674 377.05549427147434 -95.874078982985793 0 -95.874078982985793 -407.51411408942295 0 0 0 -7.6146549544882873 607.35893043127817 -52.759327990946076 0 -52.759327990946076 -151.83658568314786 0 0 0 113.88058618703235 382.39925875947756 -64.719311318443033 0 -64.719311318443033 -415.0633742647442 0 0 0 -8.1660288763168865 534.32728241254244 -94.336072800092552 0 -94.336072800092552 -469.45351400815707 0 0 0 16.218442101096116 317.05640702266419 -116.68628835313496 0 -116.68628835313496 -558.82892642569459 0 0 0 -60.443129850757032 216.33854771424467 -95.293000294744161 0 -95.293000294744161 -588.20993715567238 0 0 0 -92.967847360357155 275.99735227823851 -32.396439332695991 0 -32.396439332695991 -554.51393068350762 0 0 0 -69.629144601316852 136.52540497537211 -71.849697639657279 0 -71.849697639657279 -603.98978526628161 0 0 0 -116.86609507272806 158.94307646811922 -72.463483529728819 0 -72.463483529728819 -533.72578676071498 0 0 0 -93.695677573147805 69.329616024765897 -109.80615433134108 0 -109.80615433134108 -650.68523561180996 0 0 0 -145.33890489676159 23.594016615853434 -90.315364812639473 0 -90.315364812639473 -774.3742783320231 0 0 0 -187.69506542904219 16.864904592056973 -58.358632668912605 0 -58.358632668912605 -695.31638749177182 0 0 0 -169.61287072492814 43.035351599707212 -33.343415126623768 0 -33.343415126623768 -669.35352015891772 0 0 0 -156.57954213980287 40.023191557894279 21.81942204232007 0 21.81942204232007 -620.66173292504027 0 0 0 -145.15963534178718 -27.706491733193616 -7.5526320204189688 0 -7.5526320204189688 -654.84028372953162 0 0 0 -170.63669386568108 15.005189004502427 3.1315598499597854 0 3.1315598499597854 -677.19930695186849 0 0 0 -165.5485294868422 -21.613849740040678 5.3562012997390411 0 5.3562012997390411 -658.36159266486266 0 0 0 -169.99386060122515 124.40322260310029 -25.027230430825512 0 -25.027230430825512 -548.03620983623614 0 0 0 -105.90824680828393 269.46165418633996 -43.416658287637802 0 -43.416658287637802 -431.29137383286707 0 0 0 -40.457429911632744 181.5865360889029 14.13914927002952 0 14.13914927002952 -537.99798062978698 0 0 0 -89.102861135221247 -737.75913811778219 -67.308501842669102 0 -67.308501842669102 -987.20637137199083 0 0 0 -431.24137737244337 -1094.4442456088595 -1.0299162882001838 0 -1.0299162882001838 -961.2951398121786 0 0 0 -513.93484635526011 -697.03715223964355 -12.658739450071153 0 -12.658739450071153 -963.23169446700558 0 0 0 -415.06721167666183 -1081.5110953411349 -47.133343119371602 0 -47.133343119371602 -964.53151975915353 0 0 0 -511.51065377507439 -851.47873441549655 -66.394971990605882 0 -66.394971990605882 -986.34047558328894 0 0 0 -459.4548024996966 -530.58608912813452 -176.40100920399846 0 -176.40100920399846 -944.96981691002293 0 0 0 -368.88897650954004 -694.15733960432681 -46.132026453363324 0 -46.132026453363324 -998.4739187001087 0 0 0 -423.15781457610819 -471.88503136812642 -125.25536550094239 0 -125.25536550094239 -901.62428648171772 0 0 0 -343.37732946246115 -246.65812739784542 -173.30159246876792 0 -173.30159246876792 -974.14256807309448 0 0 0 -305.20017386773543 -210.11399246464498 -130.97460204751178 0 -130.97460204751178 -798.26327486930677 0 0 0 -252.09431683348794 -270.90977704409306 -174.41837062129093 0 -174.41837062129093 -916.96700817525925 0 0 0 -296.96919630483899 -376.50482627238466 -39.990663461389886 0 -39.990663461389886 -890.26890949893004 0 0 0 -316.69343394282964 -476.03588014514025 -114.46698358721778 0 -114.46698358721778 -916.42262210936678 0 0 0 -348.11462556362676 -228.35055751372147 -133.68856317783366 0 -133.68856317783366 -772.37636294160257 0 0 0 -250.18173011383169 150.4924227785084 31.330715881423203 0 31.330715881423203 -723.76151408273836 0 0 0 -143.31727282605721 16.941349626924421 -151.41107067130531 0 -151.41107067130531 -655.09156833833549 0 0 0 -159.53755467785322 239.23770698393503 -115.38861864783667 0 -115.38861864783667 -772.07246816886936 0 0 0 -133.20869029623361 -67.208850262039959 -108.77467637640439 0 -108.77467637640439 -873.74657261568791 0 0 0 -235.23885571943083 -143.7147619217767 -267.4303670543718 0 -267.4303670543718 -877.19604550430449 0 0 0 -255.22770185652007 -27.429690277023838 -185.37013415595993 0 -185.37013415595993 -938.93444021836694 0 0 0 -241.59103262384815 138.68998389200078 -289.76549212333202 0 -289.76549212333202 -710.85736773359895 0 0 0 -143.04184596039977 362.79468746517068 -246.66493543420984 0 -246.66493543420984 -951.24790396681783 0 0 0 -147.11330412541156 365.9341932944335 -211.67938526162504 0 -211.67938526162504 -921.96572098617253 0 0 0 -139.00788192293476 641.3201009932842 -361.40190885721495 0 -361.40190885721495 -596.78053080305153 0 0 0 11.134892547557342 695.64655736307566 -34.990146613649813 0 -34.990146613649813 -475.56962265742663 0 0 0 55.01923367641291 365.29909378873708 -191.65866112571575 0 -191.65866112571575 -517.56523259567257 0 0 0 -38.066534701735691 558.27299493503824 40.192318498066925 0 40.192318498066925 -539.51057632023071 0 0 0 4.6906046537019392 691.08190556290992 -49.952548877720346 0 -49.952548877720346 -292.57462748236685 0 0 0 99.626819520134632 286.46577556878947 -62.848175900046499 0 -62.848175900046499 -544.39645191678756 0 0 0 -64.482669086999977 399.43231018900588 154.06503872797975 0 154.06503872797975 -534.46953005391879 0 0 0 -33.759304966228228 626.01608862610328 64.550166365468158 0 64.550166365468158 -520.14133007363125 0 0 0 26.468689638117667 771.84478153301916 158.24055335025787 0 158.24055335025787 -331.34800438896218 0 0 0 110.12419428601424 832.71630787084405 106.34397559969079 0 106.34397559969079 -491.85263165396373 0 0 0 85.215919054220194 707.66907588612753 252.96535732937036 0 252.96535732937036 -533.44543644125645 0 0 0 43.555909861217771 415.66843829784352 171.9014692898586 0 171.9014692898586 -503.37614981952674 0 0 0 -21.92692788042018 373.76614544953372 194.62678829286386 0 194.62678829286386 -645.23278310246315 0 0 0 -67.866659413231901 70.476197098054513 134.59540428933269 0 134.59540428933269 -699.97846460464109 0 0 0 -157.37556687664699 112.55082663614618 284.1400757534534 0 284.1400757534534 -710.86360426448209 0 0 0 -149.57819440708457 24.136884110078427 152.46324289695133 0 152.46324289695133 -823.20504864800569 0 0 0 -199.76704113448204 -193.38986796064819 138.14461381940328 0 138.14461381940328 -715.01614699882612 0 0 0 -227.10150373986835 36.536462339920035 114.50203265454275 0 114.50203265454275 -782.50401086279817 0 0 0 -186.49188713071999 138.77835607904399 51.030620911919868 0 51.030620911919868 -662.35052119242437 0 0 0 -130.89304127834475 -73.438239418442663 -42.67905555639436 0 -42.67905555639436 -699.89350223393922 0 0 0 -193.33293541309558 -198.93203762929636 40.754745971258671 0 40.754745971258671 -818.01360247745765 0 0 0 -254.23641002668876 -330.47494889196696 -47.241163884714297 0 -47.241163884714297 -854.21812091682114 0 0 0 -296.17326745219725 -497.56528597163367 55.468304906739831 0 55.468304906739831 -940.07452975233878 0 0 0 -359.40995393099354 -503.45682339849554 35.84498967063027 0 35.84498967063027 -976.00967855107228 0 0 0 -369.86662548739059 -442.06550299200012 90.242919345096198 0 90.242919345096198 -806.79618415404366 0 0 0 -312.21542178651111 -259.93810187907366 146.38919187879947 0 146.38919187879947 -928.57921377308958 0 0 0 -297.12932891304172 -191.98439918242204 268.67312867026976 0 268.67312867026976 -865.27253145153111 0 0 0 -264.31423265848866 -394.88698474887821 213.7238978608566 0 213.7238978608566 -896.72857803342561 0 0 0 -322.90389069557574 -450.56040614513768 74.658369486021911 0 74.658369486021911 -915.28638516551109 0 0 0 -341.46169782766265 -633.91389010467174 143.26230449187915 0 143.26230449187915 -937.31509835960787 0 0 0 -392.80724711606854 -968.96639743526225 63.490492613769675 0 63.490492613769675 -974.1912691141506 0 0 0 -485.78941663735372 -605.04149824566503 90.824437148856759 0 90.824437148856759 -979.99037066409073 0 0 0 -396.25796722743917 -701.39728947469666 44.806955761552672 0 44.806955761552672 -976.40821410545868 0 0 0 -419.45137589503884 -1121.9444664466714 3.3340057111727219 0 3.3340057111727219 -961.82740825367182 0 0 0 -520.94296867508547 -704.9330128973611 1.1893972557331836 0 1.1893972557331836 -871.64385243764991 0 0 0 -394.14421633375287 -757.59115679375736 19.800128578248746 0 19.800128578248746 -1017.4324999541823 0 0 0 -443.75591418698514 -204.08127182159168 167.71179081539094 0 167.71179081539094 -957.42093704039166 0 0 0 -290.37555221549576 -466.74388029577926 118.60106902178183 0 118.60106902178183 -1048.292935254181 0 0 0 -378.75920388748978 -267.52807969696914 206.40532084152437 0 206.40532084152437 -991.79305909243783 0 0 0 -314.83028469735154 -582.14075386245099 125.24517225844602 0 125.24517225844602 -976.58284607490714 0 0 0 -389.68089998434039 -530.65306501851433 89.833274666957095 0 89.833274666957095 -1007.66638198181 0 0 0 -384.57986175008159 -835.98618013618761 105.39628275375959 0 105.39628275375959 -977.1878935044715 0 0 0 -453.29351841016523 -614.21770329518858 128.27751659106002 0 128.27751659106002 -940.79091909542149 0 0 0 -388.75215559765275 -537.48205056044026 171.04923760478846 0 171.04923760478846 -967.88129586690502 0 0 0 -376.34083660683609 -355.48513673795196 244.16483514233721 0 244.16483514233721 -901.56723295516713 0 0 0 -314.26309242327898 -366.23836318521626 197.02015745156814 0 197.02015745156814 -963.79639557164683 0 0 0 -332.50868968921577 -244.42024640705313 178.15615977083098 0 178.15615977083098 -936.02003065146891 0 0 0 -295.11006926463097 -160.65486078625349 246.92825745174719 0 246.92825745174719 -955.40294978830616 0 0 0 -279.01445264363952 -143.71734799390524 273.63915481335005 0 273.63915481335005 -1004.2843271406205 0 0 0 -287.00041878363146 -285.57679930490025 277.67642377033843 0 277.67642377033843 -946.91777823313589 0 0 0 -308.12364438450953 -103.19516605494584 300.05204170194997 0 300.05204170194997 -985.06771026823867 0 0 0 -272.06571908079616 74.588509654761651 324.15864895727691 0 324.15864895727691 -982.06149287848302 0 0 0 -226.86824580593043 88.500446529393571 317.55504447512465 0 317.55504447512465 -937.46195021459653 0 0 0 -212.24037592130071 247.9831149044918 316.29228393401678 0 316.29228393401678 -922.24188960595188 0 0 0 -168.56469367536494 -106.06653366628575 330.262363616203 0 330.262363616203 -922.17657976919918 0 0 0 -257.06077835887129 -132.02471918030096 323.64370466170465 0 323.64370466170465 -875.17063369923835 0 0 0 -251.7988382198846 41.930043253272288 300.07102689065346 0 300.07102689065346 -929.46193964524423 0 0 0 -221.88297409799316 14.370785393593451 193.61772072576832 0 193.61772072576832 -827.18230831669553 0 0 0 -203.20288073077563 217.89903020882639 334.87871604008592 0 334.87871604008592 -793.0850304892956 0 0 0 -143.79650007011765 86.287192073691585 291.73882160285928 0 291.73882160285928 -799.53534847858646 0 0 0 -178.31203910122395 419.62391214585807 230.93704631480318 0 230.93704631480318 -738.91782000738613 0 0 0 -79.823476965382383 432.33068957183036 189.25597208274752 0 189.25597208274752 -594.52181346489215 0 0 0 -40.547780973265162 376.73795716176664 240.06102574724059 0 240.06102574724059 -750.85946609196617 0 0 0 -93.530377232549654 536.64075062055883 290.32841366599723 0 290.32841366599723 -650.48367022024718 0 0 0 -28.460729899922057 771.61841598852243 129.61678702097845 0 129.61678702097845 -496.99960970186976 0 0 0 68.654701571662827 501.69482100701771 254.87569595819002 0 254.87569595819002 -840.20013880526449 0 0 0 -84.626329449561581 552.49644177118103 242.07248566177188 0 242.07248566177188 -612.87578496958804 0 0 0 -15.094835799601313 302.09451189365393 331.21142507635159 0 331.21142507635159 -768.54915776355358 0 0 0 -116.6136614674749 318.49950474660778 297.39785051262493 0 297.39785051262493 -878.69957367868687 0 0 0 -140.05001723301979 599.6440669621461 185.42298333572921 0 185.42298333572921 -919.96822966199124 0 0 0 -80.081040674961059 309.39430694367593 119.85599779549693 0 119.85599779549693 -1183.6954269155904 0 0 0 -218.57527999297918 554.32851592060751 241.21261774552295 0 241.21261774552295 -943.82549546686914 0 0 0 -97.374244886565975 350.73005374421609 141.65244828284176 0 141.65244828284176 -1183.5692395997157 0 0 0 -208.20979646387423 621.23686859631744 -0.098256530161961564 0 -0.098256530161961564 -1161.5205350888427 0 0 0 -135.07091662313087 547.57292599033838 97.626356264492642 0 97.626356264492642 -1202.6701989716153 0 0 0 -163.77431824531857 450.95644169375373 -11.022387612806597 0 -11.022387612806597 -1553.4301711737426 0 0 0 -275.61843236999721 179.03095882251546 26.266192535394111 0 26.266192535394111 -1409.4648006426814 0 0 0 -307.6084604550424 98.571898546387274 189.51564402297325 0 189.51564402297325 -1169.9321395702336 0 0 0 -267.84006025596227 36.279860033046134 117.82376868561369 0 117.82376868561369 -1356.8082551086645 0 0 0 -330.13209876890414 169.79357544761388 121.33931185395363 0 121.33931185395363 -1507.8874536582898 0 0 0 -334.52346955266785 81.609583487692589 304.58638946896667 0 304.58638946896667 -1074.1398537384148 0 0 0 -248.13256756268061 249.96403675221336 275.67129595541292 0 275.67129595541292 -1148.738357544582 0 0 0 -224.69358019809215 79.750560423580851 256.66834093187549 0 256.66834093187549 -1102.3163014142031 0 0 0 -255.64143524765529 285.46265072504252 305.85999883019866 0 305.85999883019866 -1009.7193367520349 0 0 0 -181.06417150674838 -87.733920105074844 272.99982919550894 0 272.99982919550894 -1068.2856686204996 0 0 0 -289.00489718139363 -268.88641445667224 207.67133964346681 0 207.67133964346681 -1068.4911412159072 0 0 0 -334.344388918145 -29.48343190092919 198.97431236450024 0 198.97431236450024 -1100.2862789815144 0 0 0 -282.44242772061079 -86.695529765642505 191.69978282492366 0 191.69978282492366 -1013.9760629582588 0 0 0 -275.16789818097573 -61.809006558412648 216.33562668398281 0 216.33562668398281 -1230.536196622078 0 0 0 -323.0863007951225 -15.960761357157025 115.61259018127976 0 115.61259018127976 -1351.7129873029808 0 0 0 -341.91843716503354 -21.232715308509796 70.514077863266721 0 70.514077863266721 -1168.1697237156441 0 0 0 -297.35060975603847 62.720416844629653 104.29799424766497 0 104.29799424766497 -1118.7886875917684 0 0 0 -264.01706768678469 -24.465829720903002 121.9375826626997 0 121.9375826626997 -1141.7398972773108 0 0 0 -291.55143174955356 -82.398742534154735 93.892772602322566 0 93.892772602322566 -1080.0303820097015 0 0 0 -290.60728113596406 10.085362623698757 36.479148419565718 0 36.479148419565718 -1059.456945716852 0 0 0 -262.34289577328741 -12.243231098684191 24.132417381734058 0 24.132417381734058 -1019.5175238872689 0 0 0 -257.94018874648827 -28.142272426850923 30.438843382406731 0 30.438843382406731 -1030.201605606162 0 0 0 -264.58596950825313 -13.258689995259374 54.400776849376371 0 54.400776849376371 -983.46292356658432 0 0 0 -249.18040339046001 -143.18017147216949 85.646481511758452 0 85.646481511758452 -971.53705677654511 0 0 0 -278.67930706217828 -148.54306729512817 101.09796716215578 0 101.09796716215578 -1040.5730788927308 0 0 0 -297.27903654696479 -352.36984653195452 107.33860164878524 0 107.33860164878524 -1042.4513508794571 0 0 0 -348.70529935285288 160.0048456497434 -171.46898515476914 0 -171.46898515476914 -870.96367961705982 0 0 0 -177.73970849182842 288.49518384000294 -131.83725828327033 0 -131.83725828327033 -791.91110138709701 0 0 0 -125.85397938677488 354.03316142997073 -134.6150332505913 0 -134.6150332505913 -784.12318984758713 0 0 0 -107.52250710440467 222.83263592457661 -107.64247246892455 0 -107.64247246892455 -981.85416206658192 0 0 0 -189.75538153550133 86.633245779720539 -131.42518657400251 0 -131.42518657400251 -1042.7685681923199 0 0 0 -239.03383060315008 37.752844896675924 -136.24875739490926 0 -136.24875739490926 -910.30947788095364 0 0 0 -218.13915824607011 12.137168679977549 -155.1259301761504 0 -155.1259301761504 -1017.6448538987715 0 0 0 -251.37692130469804 82.276999810328789 -133.50937602313434 0 -133.50937602313434 -903.83725752973623 0 0 0 -205.39006442985078 31.774660793236762 -140.02274103577702 0 -140.02274103577702 -793.75814086738683 0 0 0 -190.49587001853706 -4.161893348698527 -85.31538836006348 0 -85.31538836006348 -782.69741995642289 0 0 0 -196.7148283262801 158.93625800359223 -78.417593392530762 0 -78.417593392530762 -752.40967017456933 0 0 0 -148.36835304274337 195.70045480793215 -154.85669709137255 0 -154.85669709137255 -734.3826808154754 0 0 0 -134.67055650188559 94.223944330830022 -102.68487854405839 0 -102.68487854405839 -840.09786751572756 0 0 0 -186.46848079622475 201.24844543405379 -89.028477498442584 0 -89.028477498442584 -721.14187243850392 0 0 0 -129.9733567511139 332.39802201007069 -124.34514432574451 0 -124.34514432574451 -671.79043867586006 0 0 0 -84.848104166448138 385.73320859682917 -69.714983736425893 0 -69.714983736425893 -502.7050450122515 0 0 0 -29.242959103855355 647.3721038221006 -26.921941714816057 0 -26.921941714816057 -170.77542269452351 0 0 0 119.14917028189438 658.8999576423721 -43.199254221539377 0 -43.199254221539377 -218.06736349742459 0 0 0 110.20814853623642 547.42000276598765 -99.857350105557998 0 -99.857350105557998 -576.51910732402939 0 0 0 -7.2747761395107773 946.18187328562192 213.77800675478375 0 213.77800675478375 -367.3072023093265 0 0 0 144.71866774407354 1313.6922374415167 75.653944891835494 0 75.653944891835494 -220.95738044468908 0 0 0 273.18371424920679 784.64432960123349 -44.190541819671125 0 -44.190541819671125 -246.84019629371505 0 0 0 134.4510333268795 0.94755333787910756 0.44077630408968727 0 0.44077630408968727 2.9409338913234984 0 0 0 0.97212180730065123 801.72738563363396 225.41232333388592 0 225.41232333388592 -595.06983745947809 0 0 0 51.664387043538909 944.80185174813744 99.643384974585146 0 99.643384974585146 -249.30593840990986 0 0 0 173.87397833455688 903.63617528754298 63.691795194930705 0 63.691795194930705 -452.61687290745067 0 0 0 112.75482559502325 1.4104137324313408 0.26264697927897063 0 0.26264697927897063 4.3973480530004601 0 0 0 1.4519404463579502 799.64789882204605 -55.044329819227642 0 -55.044329819227642 -295.921452274888 0 0 0 125.93161163678997 1116.0833022611464 148.13963039431678 0 148.13963039431678 -311.23300890474593 0 0 0 201.21257333909955 1.9952298021247943 0.71705842631957317 0 0.71705842631957317 6.0298239339495092 0 0 0 2.0062634340185759 690.94319828432458 190.40791240130875 0 190.40791240130875 -549.94276990040214 0 0 0 35.250107095980411 393.91153646632665 -72.320980013680241 0 -72.320980013680241 -616.12398209211824 0 0 0 -55.553111406448807 678.02571756666794 -20.394068494751082 0 -20.394068494751082 -342.21094979280315 0 0 0 83.95369194346722 408.35921489874363 -60.891643548985485 0 -60.891643548985485 -878.1232033250526 0 0 0 -117.44099710657702 525.66223523724329 -130.2147066792113 0 -130.2147066792113 -646.25980486130902 0 0 0 -30.149392406015977 565.21659858109524 -34.483047736421213 0 -34.483047736421213 -930.87341097986427 0 0 0 -91.414203099693623 390.24873216845663 -114.31864671928088 0 -114.31864671928088 -866.01982902755299 0 0 0 -118.94277421477364 858.41537188529674 -41.361929329521445 0 -41.361929329521445 -396.75140922347964 0 0 0 115.41599066545314 728.18072113018206 -51.5372630969282 0 -51.5372630969282 -387.82737636232196 0 0 0 85.088336191965936 608.3339464100078 -112.49651739099681 0 -112.49651739099681 -899.71344854706786 0 0 0 -72.844875534264588 1053.931476806315 48.177554322247033 0 48.177554322247033 -385.96513942713318 0 0 0 166.99158434479568 2.329918480520301 0.085763277280756389 0 0.085763277280756389 7.6922958014864466 0 0 0 2.5055535705016867 1005.3413946859901 -47.489170385846592 0 -47.489170385846592 -403.12215478388862 0 0 0 150.55480997552422 1009.1372350894557 146.45759346428895 0 146.45759346428895 -400.84831679238283 0 0 0 152.07222957426876 769.08860278906332 8.4438387167600695 0 8.4438387167600695 -727.20810545270615 0 0 0 10.470124334089178 793.2794173698212 134.82296560008217 0 134.82296560008217 -683.11899280368834 0 0 0 27.540106141533215 3.7695694909848427 0.82518420219961564 0 0.82518420219961564 9.8301891711355047 0 0 0 3.3999396655300869 1306.8870153996977 35.647531803586389 0 35.647531803586389 -536.03215877938419 0 0 0 192.71371415507838 953.33990650476971 -134.29671089758813 0 -134.29671089758813 -862.15820808981516 0 0 0 22.795424603737956 436.68313954252426 -4.9450578014088933 0 -4.9450578014088933 -1277.2249975655668 0 0 0 -210.13546450576086 807.48259701452116 51.789886692111395 0 51.789886692111395 -600.71492583099825 0 0 0 51.691917795880727 1172.6167781737749 -45.031471980432194 0 -45.031471980432194 -538.62827229743925 0 0 0 158.49712646908301 784.13107118371136 152.93575871074245 0 152.93575871074245 -942.06049816272935 0 0 0 -39.482356744754725 568.99593366282261 -97.581798852653151 0 -97.581798852653151 -1236.8882960979663 0 0 0 -166.97309060878615 85.079922702522254 -23.510328292603845 0 -23.510328292603845 -1491.1018058001218 0 0 0 -351.50547077439796 283.80993514560578 74.275186702861902 0 74.275186702861902 -1598.6152550468178 0 0 0 -328.70132997530345 240.49713544413316 -81.333898581027881 0 -81.333898581027881 -1725.2149052423338 0 0 0 -371.17944244954924 218.48521197154878 -84.628761214516089 0 -84.628761214516089 -1156.0769439297874 0 0 0 -234.39793298955919 200.32351006039244 -122.32602055955931 0 -122.32602055955931 -1332.3556218949234 0 0 0 -283.00802795863274 145.71829186490686 -127.42938794709607 0 -127.42938794709607 -1178.3364858584337 0 0 0 -258.1545484983817 190.15974634914431 -133.67687406331697 0 -133.67687406331697 -989.28618478784335 0 0 0 -199.78160960967585 304.74948817466702 -83.354421905150502 0 -83.354421905150502 -1129.3402813526918 0 0 0 -206.14769829450779 24.58459989072162 -133.64774214294948 0 -133.64774214294948 -1234.8725816457336 0 0 0 -302.57199543875322 54.862630701893146 -131.10974730172256 0 -131.10974730172256 -1053.3642683857513 0 0 0 -249.62540942096521 49.280327923805999 -77.008490749090015 0 -77.008490749090015 -1390.171205824161 0 0 0 -335.22271947508943 70.973594941287104 -112.83079077574257 0 -112.83079077574257 -1204.955835264871 0 0 0 -283.49556008089615 39.219282805375769 -118.68154371651462 0 -118.68154371651462 -1222.1425214127703 0 0 0 -295.73080965184909 75.579801175807916 -103.38252460531294 0 -103.38252460531294 -1422.1082660417424 0 0 0 -336.63211621648315 29.642064872958144 -55.283068307089252 0 -55.283068307089252 -1706.9245672990037 0 0 0 -419.32062560651138 57.671643083697745 -74.873492136517143 0 -74.873492136517143 -1402.1041577487304 0 0 0 -336.10812866625838 31.28528034730698 -71.095211478273995 0 -71.095211478273995 -1585.0364891349 0 0 0 -388.43780219689779 9.5202402899540175 -47.588330363580326 0 -47.588330363580326 -1405.7911610626616 0 0 0 -349.06773019317643 15.685654448636797 -128.00794377136117 0 -128.00794377136117 -1247.7780173534156 0 0 0 -308.02309072619437 -0.3348185930475438 -102.16332539546147 0 -102.16332539546147 -1432.1280451926586 0 0 0 -358.11571594642589 188.5012651833531 -86.628771006097367 0 -86.628771006097367 -1177.4267983895115 0 0 0 -247.23138330154006 109.67718094060301 -36.851569764597116 0 -36.851569764597116 -1414.5284706295765 0 0 0 -326.2128224222426 70.207221955440218 -88.110771044013234 0 -88.110771044013234 -1250.2908294900863 0 0 0 -295.02090188366128 120.30722000106925 -86.253712955538049 0 -86.253712955538049 -1061.2288728478397 0 0 0 -235.23041321169148 55.058960782294662 -99.684713572730288 0 -99.684713572730288 -1267.6814063200154 0 0 0 -303.15561138443104 21.152420722279658 -117.49317111772871 0 -117.49317111772871 -1110.7537021004982 0 0 0 -272.40032034455407 50.840676542946312 -117.1630991378297 0 -117.1630991378297 -1006.9675911929298 0 0 0 -239.03172866249588 68.009364736300085 -112.91285649141582 0 -112.91285649141582 -1094.408239786444 0 0 0 -256.59971876253621 24.959279000106562 -117.45262497374006 0 -117.45262497374006 -1234.2977935069503 0 0 0 -302.33462862671195 41.595188548758415 -128.00815553329039 0 -128.00815553329039 -1119.8889585853613 0 0 0 -269.57344250915094 8.0156771835017935 -158.70687338672974 0 -158.70687338672974 -1099.7767171799624 0 0 0 -272.94025999911537 19.773281071931251 -128.17337611965741 0 -128.17337611965741 -1072.5637682046854 0 0 0 -263.19762178318842 8.6036017152209752 -142.27644527260009 0 -142.27644527260009 -904.46120261800024 0 0 0 -223.96440022569368 -21.373634675503126 -135.65166797097345 0 -135.65166797097345 -1021.8263101188932 0 0 0 -260.79998619859998 -7.9119109859066157 -128.4527608439148 0 -128.4527608439148 -928.31711706142778 0 0 0 -234.05725701183201 1.346476678799263 -134.98807183256304 0 -134.98807183256304 -1014.2205009511963 0 0 0 -253.21850606809949 -20.115420547124359 -118.91649871079971 0 -118.91649871079971 -1016.3466284010319 0 0 0 -259.11551223703873 -3.2626230881332958 -148.23405371837953 0 -148.23405371837953 -1057.4581286187422 0 0 0 -265.18018792672046 -10.278441518730403 -105.34585049446241 0 -105.34585049446241 -1023.0953352150773 0 0 0 -258.34344418345125 31.168945275606347 -76.625021216924779 0 -76.625021216924779 -939.28730490348607 0 0 0 -227.0295899069697 10.332666842541585 -113.90121764964897 0 -113.90121764964897 -918.42194441176252 0 0 0 -227.02231939230478 -29.12089324027329 -103.94786301438035 0 -103.94786301438035 -854.84670856420234 0 0 0 -220.99190045111891 -66.340034104113897 -79.314000776551893 0 -79.314000776551893 -958.33915244455693 0 0 0 -256.16979663716722 -34.771889712625125 -76.176657388555952 0 -76.176657388555952 -861.12081096985821 0 0 0 -223.97317517062038 -66.393955145198788 -78.172669351281456 0 -78.172669351281456 -875.07931552916352 0 0 0 -235.36831766859063 -32.677642022808868 -86.07263262466472 0 -86.07263262466472 -777.29535129106989 0 0 0 -202.49324832847014 -16.738376612731145 -92.370967190703595 0 -92.370967190703595 -838.12611641863828 0 0 0 -213.71612325784258 -20.211656555647096 -119.8114389920438 0 -119.8114389920438 -841.4162760518866 0 0 0 -215.40698315188456 -11.434650177596815 -121.86455460378238 0 -121.86455460378238 -911.72804579963918 0 0 0 -230.79067399430969 -42.565124551217536 -108.6753832844206 0 -108.6753832844206 -931.28353261567418 0 0 0 -243.46216429172216 167.46526858738139 -11.580881792394848 0 -11.580881792394848 -725.10134500987351 0 0 0 -139.4090191056232 -0.40627784099533515 -0.37683022623395912 0 -0.37683022623395912 -1.2010259469964315 0 0 0 -0.40182594699794161 212.30481274335875 -18.766102549845755 0 -18.766102549845755 -718.28129898059433 0 0 0 -126.49412155930895 -73.669511163667948 -7.8551797539894324 0 -7.8551797539894324 -723.68068267914759 0 0 0 -199.33754846070337 -83.186854663535541 -10.818113735099701 0 -10.818113735099701 -716.8661475957706 0 0 0 -200.01325056482665 -93.663763392815326 -32.56001375773667 0 -32.56001375773667 -862.80856060939368 0 0 0 -239.11808100055259 -92.816744478514011 -26.449187091635849 0 -26.449187091635849 -785.77274376129935 0 0 0 -219.6473720599538 -17.362217905129455 -61.145611990500583 0 -61.145611990500583 -893.15653771071084 0 0 0 -227.62968890395996 29.635348482865311 -18.604236584958016 0 -18.604236584958016 -714.60786889949486 0 0 0 -171.24313010415722 -26.917478632946313 -44.417161640052882 0 -44.417161640052882 -872.61790441038647 0 0 0 -224.88384576083354 99.592836802254851 -46.777016425726742 0 -46.777016425726742 -838.92321726160526 0 0 0 -184.83259511483698 42.681279147371242 -82.564255744695402 0 -82.564255744695402 -980.92245582311443 0 0 0 -234.56029416893489 122.82081031009284 -15.573670077404245 0 -15.573670077404245 -698.3487111757513 0 0 0 -143.88197521641541 236.08691469913606 -21.60774008062026 0 -21.60774008062026 -690.69259657362272 0 0 0 -113.65142046862161 208.83629581047489 19.381263076916184 0 19.381263076916184 -808.80425658343756 0 0 0 -149.99199019324033 268.64976574785396 -34.42826454222859 0 -34.42826454222859 -792.72015377443586 0 0 0 -131.01759700664547 -0.40180996999831509 -0.53288137768667032 0 -0.53288137768667032 -1.199536656671818 0 0 0 -0.40033665666753349 39.611696363905594 -27.413904699504201 0 -27.413904699504201 -693.88942370191126 0 0 0 -163.5694318345013 270.63405255139287 -19.987891876584104 0 -19.987891876584104 -716.11973593738003 0 0 0 -111.37142084649622 -0.41336745427471033 -0.38244522670759129 0 -0.38244522670759129 -1.2033891514270749 0 0 0 -0.40418915142544609 376.77861117061138 19.658483442432953 0 19.658483442432953 -684.94920660321168 0 0 0 -77.042648858149732 -0.46559714041381461 -0.35587457161417846 0 -0.35587457161417846 -1.2207990468121466 0 0 0 -0.42159904680649007 510.46851808929705 -65.699341727366573 0 -65.699341727366573 -580.44800153089182 0 0 0 -17.49487086039835 529.45334422668077 -4.1605336768575398 0 -4.1605336768575398 -632.72385567070023 0 0 0 -25.817627861004766 394.24084863958865 49.778421865028349 0 49.778421865028349 -697.96721196596536 0 0 0 -75.931590831594349 145.10318150620901 -66.483332217780571 0 -66.483332217780571 -942.70665528678865 0 0 0 -199.40086844514485 204.33325239742499 -95.085782759288463 0 -95.085782759288463 -930.86351461621234 0 0 0 -181.63256555469707 327.14083221531064 -9.7224583517945575 0 -9.7224583517945575 -674.66931296147413 0 0 0 -86.88212018654076 323.35181619602156 -41.133524743275302 0 -41.133524743275302 -881.90582778752389 0 0 0 -139.63850289787604 192.23560651398975 -115.60117996247754 0 -115.60117996247754 -1068.9808945488021 0 0 0 -219.18632200870297 435.11785659171301 -74.374475694680768 0 -74.374475694680768 -549.24219011990499 0 0 0 -28.531083382048564 779.97617905613617 12.224332570595379 0 12.224332570595379 -488.19642059205148 0 0 0 72.944939616020861 506.61571332777476 -96.429154751855208 0 -96.429154751855208 -649.26726994269848 0 0 0 -35.662889153730703 349.02192346867497 -6.425929076209286 0 -6.425929076209286 -1021.3288240413121 0 0 0 -168.07672514315908 532.73421859331143 -71.888751401317222 0 -71.888751401317222 -618.30223267372457 0 0 0 -21.392003520103799 -0.21162529620084247 -0.60824310590482322 0 -0.60824310590482322 -0.99620463339249454 0 0 0 -0.3019574823983342 846.18686156079366 18.804532143384666 0 18.804532143384666 -467.77221038960124 0 0 0 94.603662792797422 614.83728118634258 96.505339849506072 0 96.505339849506072 -581.31778712759569 0 0 0 8.3798735146870058 381.50024925483501 -37.898808312459551 0 -37.898808312459551 -923.4659632312181 0 0 0 -135.49142849409611 247.27387220404898 44.895797012643015 0 44.895797012643015 -1123.6653726406448 0 0 0 -219.09787510914884 215.0741344440321 -11.860715818107792 0 -11.860715818107792 -1052.1806331807675 0 0 0 -209.27662468418384 324.8169190497498 49.692856649888199 0 49.692856649888199 -927.02970032138296 0 0 0 -150.55319531790829 126.43584314988743 18.156929669714373 0 18.156929669714373 -1102.5295748198541 0 0 0 -244.02343291749116 47.138536301053477 8.37943770649008 0 8.37943770649008 -1176.6683787569714 0 0 0 -282.38246061397945 19.248077329460557 -0.83185713141020978 0 -0.83185713141020978 -1260.339755671318 0 0 0 -310.27291958546402 83.451668621929002 -0.04806664837613539 0 -0.04806664837613539 -1247.8182302942032 0 0 0 -291.09164041806844 102.21297672728497 3.9638033950975569 0 3.9638033950975569 -1160.8710805041221 0 0 0 -264.66452594420957 13.612325530757289 32.656838664940651 0 32.656838664940651 -1105.5491815272699 0 0 0 -272.98421399912831 -8.0328718511633497 42.636220792596852 0 42.636220792596852 -1166.381866008162 0 0 0 -293.6036844648313 47.068965821524557 26.313980967406678 0 26.313980967406678 -1092.3134737005239 0 0 0 -261.31112696974981 168.23792136345725 21.275754792796079 0 21.275754792796079 -999.37722812618995 0 0 0 -207.78482669068302 279.26702705927437 -9.8422571579525311 0 -9.8422571579525311 -972.11613641574786 0 0 0 -173.2122773391186 154.57610859499329 38.756670738049024 0 38.756670738049024 -1041.8209295355441 0 0 0 -221.81120523513772 -243.29871001996736 172.59345980978424 0 172.59345980978424 -1272.5310784090179 0 0 0 -378.95744710724631 -482.47060369710499 272.93025110500736 0 272.93025110500736 -1450.1038623556869 0 0 0 -483.14361651319797 -211.21848122133505 221.84349035519193 0 221.84349035519193 -1740.7631877182773 0 0 0 -487.99541723490296 70.699461299030304 59.765715132767923 0 59.765715132767923 -1371.0666431877278 0 0 0 -325.09179547217434 -167.66677533797599 169.35936467827992 0 169.35936467827992 -1468.5532806868066 0 0 0 -409.05501400619573 -2.32125279243769 76.035464236953999 0 76.035464236953999 -1263.2398231157958 0 0 0 -316.39026897705844 -3.3886994614716741 36.106253697586112 0 36.106253697586112 -1352.6450514508406 0 0 0 -339.00843772807787 -21.698513584445664 40.387265363112419 0 40.387265363112419 -1350.4090983790395 0 0 0 -343.02690299087146 10.573900796021636 8.5712119633519706 0 8.5712119633519706 -1289.529709341703 0 0 0 -319.7389521364201 -33.90418616047566 63.376859753097847 0 63.376859753097847 -1204.2549257923538 0 0 0 -309.53977798820711 -130.01513083518864 92.310672769247731 0 92.310672769247731 -1124.2841793358193 0 0 0 -313.57482754275202 -236.86068249368216 139.53678701286151 0 139.53678701286151 -1180.7376258987288 0 0 0 -354.39957709810272 -83.381778208874863 105.34515174923672 0 105.34515174923672 -1303.440298746166 0 0 0 -346.70551923876019 -174.83193888111055 115.21086718121498 0 115.21086718121498 -1156.3793968255638 0 0 0 -332.8028339266686 -241.75598710641668 166.71570083461236 0 166.71570083461236 -1273.7197127176521 0 0 0 -378.86892495601722 -377.69030113856957 153.70462521184433 0 153.70462521184433 -1133.7063847177621 0 0 0 -377.84917146408293 -378.20144869330551 153.85428021410266 0 153.85428021410266 -1133.8766937709349 0 0 0 -378.01953561606012 -319.16988315386533 88.089736851202289 0 88.089736851202289 -957.27419626315952 0 0 0 -319.11101985425626 -243.1668311031286 88.149432745402351 0 88.149432745402351 -1009.2697026873357 0 0 0 -313.10913344761599 -215.71070723419922 61.716054486022642 0 61.716054486022642 -960.71184738408476 0 0 0 -294.10563865457101 -253.30148406442046 82.900296669877207 0 82.900296669877207 -1011.4402725842118 0 0 0 -316.1854391621581 -214.61924817516814 94.642123186844231 0 94.642123186844231 -1049.1201020681265 0 0 0 -315.93483756082378 -113.96495917697666 72.004707025258085 0 72.004707025258085 -1027.65400597813 0 0 0 -285.40474128877662 -130.59893208681706 49.160895208251745 0 49.160895208251745 -951.4058512576994 0 0 0 -270.50119583612923 -139.48229968139231 69.606139544941726 0 69.606139544941726 -1009.5047864723456 0 0 0 -287.24677153843459 -190.21464101124286 68.68947116900182 0 68.68947116900182 -969.84811681938731 0 0 0 -290.01568945765769 -189.44200610530947 50.386377641924241 0 50.386377641924241 -913.21194655146974 0 0 0 -275.66348816419475 -135.94962127335066 37.307306101633458 0 37.307306101633458 -893.52215159041725 0 0 0 -257.36794321594209 -225.99796914831347 56.988888651882803 0 56.988888651882803 -904.09000328711682 0 0 0 -282.5219931088576 -268.3692960871598 79.308951582576867 0 79.308951582576867 -947.0668471008272 0 0 0 -303.85903579699681 -235.79258145644195 62.692230753486797 0 62.692230753486797 -921.81452260757555 0 0 0 -289.40177601600442 -270.60587337469093 50.101988722767558 0 50.101988722767558 -865.42137687058084 0 0 0 -284.00681256131793 -302.15271136900276 68.040236194438876 0 68.040236194438876 -906.61913763448786 0 0 0 -302.19296225087265 -251.68564037377467 61.350469878985386 0 61.350469878985386 -911.86191483344237 0 0 0 -290.88688880180428 91.640544843276757 -8.2390008634631613 0 -8.2390008634631613 -938.860153273793 0 0 0 -211.80490210762923 24.521121167915226 26.068035536184425 0 26.068035536184425 -1006.1430094462012 0 0 0 -245.40547206957126 121.38431254337888 -22.488794721377872 0 -22.488794721377872 -863.12421856352194 0 0 0 -185.43497650503582 108.66316293844557 -11.202471544501122 0 -11.202471544501122 -987.05125473871158 0 0 0 -219.59702295006673 -49.462491808519076 45.250187002694474 0 45.250187002694474 -1043.355780971588 0 0 0 -273.20456819502704 -45.301662826410279 46.83692616472365 0 46.83692616472365 -1031.4174012249496 0 0 0 -269.17976601283999 31.025315023706298 8.7442685989389446 0 8.7442685989389446 -975.65937921423665 0 0 0 -236.1585160476327 -22.012110806410874 3.5302478015300949 0 3.5302478015300949 -901.1117655905141 0 0 0 -230.78096909923136 -82.711490979088239 36.557783545569805 0 36.557783545569805 -970.60595258302465 0 0 0 -263.32936089052828 -78.335611477884186 40.109917745161397 0 40.109917745161397 -953.70050888666719 0 0 0 -258.00903009113767 -112.03529662670326 33.869232498583187 0 33.869232498583187 -920.02209464249586 0 0 0 -258.01434781729972 40.444655507665175 -13.770205964962543 0 -13.770205964962543 -874.10363001049973 0 0 0 -208.41474362570898 -31.038032969578126 17.081858394331725 0 17.081858394331725 -929.82210648259661 0 0 0 -240.21503486304391 120.5600220548281 -16.073819824007586 0 -16.073819824007586 -872.37456917718191 0 0 0 -187.95363678058902 52.383844670910321 -12.974995836403195 0 -12.974995836403195 -837.66979684228909 0 0 0 -196.32148804284475 71.636279745649404 -10.53664756621356 0 -10.53664756621356 -837.00119512809169 0 0 0 -191.34122884561054 24.568843871466242 -24.250949891733626 0 -24.250949891733626 -812.05455299193591 0 0 0 -196.87142728011736 1.0041793999571382 -6.9913758253035212 0 -6.9913758253035212 -819.90944114909689 0 0 0 -204.72631543728517 54.642105214485127 -34.010890225005141 0 -34.010890225005141 -768.6186083453731 0 0 0 -178.49412578272177 -45.132320194070871 -17.726749501003496 0 -17.726749501003496 -795.49461646904638 0 0 0 -210.1567341657792 -42.039116159205946 9.7818242106156958 0 9.7818242106156958 -880.04980613473845 0 0 0 -230.52223057348613 -39.624586534513355 -5.1926955461217403 0 -5.1926955461217403 -841.03429208512489 0 0 0 -220.1647196549095 -119.07155077450955 15.458733391969787 0 15.458733391969787 -846.37284623797473 0 0 0 -241.36109925312098 -152.64931404021996 27.480232332811113 0 27.480232332811113 -858.15874924643572 0 0 0 -252.70201582166379 -78.897240358341392 10.71836965374473 0 10.71836965374473 -852.51840254724129 0 0 0 -232.85391072639572 -112.36196776902443 0.0011296281818431453 0 0.0011296281818431453 -805.45789734742993 0 0 0 -229.45496627911371 -108.20947324690678 12.988620902795219 0 12.988620902795219 -806.16902812489752 0 0 0 -228.59462534295108 -166.47515989766828 22.396127879778646 0 22.396127879778646 -793.35877402074243 0 0 0 -239.95848347960271 -159.56950120068052 10.043424198212278 0 10.043424198212278 -765.30237665228424 0 0 0 -231.21796946324127 -46.865152076659513 -8.1556809273836279 0 -8.1556809273836279 -750.85296343871937 0 0 0 -199.42952887884479 -35.679767459206232 -25.000442409509674 0 -25.000442409509674 -697.0454486448125 0 0 0 -183.18130402600491 -11.965031648990589 -14.864079917588597 0 -14.864079917588597 -756.69996212149454 0 0 0 -192.16624844262105 -89.44197311593166 -12.975171091415177 0 -12.975171091415177 -755.22801947722292 0 0 0 -211.1674981482887 -23.29699967599845 -12.743446165095492 0 -12.743446165095492 -791.88250555685499 0 0 0 -203.79487630821359 -264.28685641225718 42.25182642929002 0 42.25182642929002 -817.80703616982419 0 0 0 -270.52347314552037 -255.04894344410738 40.031635048901705 0 40.031635048901705 -814.62307955473898 0 0 0 -267.4180057497116 -254.46431000060466 46.686904598408034 0 46.686904598408034 -859.60024206161643 0 0 0 -278.51613801555527 -278.8761433655373 50.675811184949048 0 50.675811184949048 -836.59747588849336 0 0 0 -278.86840481350765 -241.52726471070253 39.134323347978096 0 39.134323347978096 -842.08624125097333 0 0 0 -270.90337649041896 -202.899570374647 33.960649419561719 0 33.960649419561719 -820.35064274148203 0 0 0 -255.81255327903233 -241.28035874890804 50.23144144390654 0 50.23144144390654 -847.82833608110718 0 0 0 -272.27717370750378 -182.42485229329372 34.193912513046143 0 34.193912513046143 -871.84183504815451 0 0 0 -263.56667183536206 -198.68941000866334 27.57734893093857 0 27.57734893093857 -811.05058288266105 0 0 0 -252.43499822283115 -204.6199643048372 28.251703350443677 0 28.251703350443677 -789.77703773214739 0 0 0 -248.59925050924613 -198.45026178416859 35.086646017395651 0 35.086646017395651 -811.2493296632033 0 0 0 -252.42489786184299 -201.83797578579072 23.881972733042232 0 23.881972733042232 -770.57217715518664 0 0 0 -243.10253823524442 -219.8721941933199 38.600811563898787 0 38.600811563898787 -794.04690221175076 0 0 0 -253.47977410126754 -238.09467355811216 34.115646124361774 0 34.115646124361774 -787.28473342034249 0 0 0 -256.34485174461372 -240.06135970928122 44.076099897311053 0 44.076099897311053 -815.35673266023525 0 0 0 -263.85452309237917 -245.69926320329819 34.684266351581869 0 34.684266351581869 -796.48394961493022 0 0 0 -260.54580320455716 -254.50751536453413 41.407834194900374 0 41.407834194900374 -794.21067354613251 0 0 0 -262.17954722766672 -256.48923122680191 37.592012403454845 0 37.592012403454845 -792.12630107306609 0 0 0 -262.15388307496698 -266.02992609975485 41.429074486185016 0 41.429074486185016 -798.09095289596428 0 0 0 -266.03021974892982 -266.48065043484024 34.94960751281171 0 34.94960751281171 -799.39844628564936 0 0 0 -266.46977418012244 -263.18395709019404 38.535708133822851 0 38.535708133822851 -789.56280870792841 0 0 0 -263.1866914495306 -254.72999436452085 40.158536034851778 0 40.158536034851778 -789.96999788519827 0 0 0 -261.17499806242978 -254.07595391905778 35.075912875559524 0 35.075912875559524 -798.50691226621075 0 0 0 -263.14571654631709 -238.34397988751746 42.850467453568172 0 42.850467453568172 -787.4322318447438 0 0 0 -256.44405293306534 -208.60764480388377 42.625346080880604 0 42.625346080880604 -777.42954460268652 0 0 0 -246.50929735164266 -220.85145853800861 33.364725634904516 0 33.364725634904516 -791.72982237741689 0 0 0 -253.14532022885635 -210.05368379786387 35.926504446084152 0 35.926504446084152 -792.59673335721754 0 0 0 -250.66260428877035 -217.46929667612892 43.671534004786849 0 43.671534004786849 -796.98728382623597 0 0 0 -253.61414512559134 -214.53021283298392 47.859430686432518 0 47.859430686432518 -839.4056878510944 0 0 0 -263.48397517101961 -222.67298600398408 32.591934671850765 0 32.591934671850765 -850.59508385637446 0 0 0 -268.31701746508958 -242.02380353709418 32.986456761171098 0 32.986456761171098 -815.46637529510804 0 0 0 -264.37254470805055 -253.53059202384151 40.475309776456093 0 40.475309776456093 -811.78652275808997 0 0 0 -266.32927869548286 -248.3923931079666 42.945833432768268 0 42.945833432768268 -798.00755874365632 0 0 0 -261.59998796290574 -276.98435548065044 27.976529396213888 0 27.976529396213888 -831.01321800913934 0 0 0 -276.9993933724474 -122.30088829370752 46.446278448861449 0 46.446278448861449 -719.01452939166097 0 0 0 -210.32885442134202 -98.338438832632619 37.628388494147089 0 37.628388494147089 -738.02691891489758 0 0 0 -209.09133943688289 -109.43200297398948 -7.0051066482352553 0 -7.0051066482352553 -704.07868580256354 0 0 0 -203.37767219413831 -140.0721519433223 24.172724056328718 0 24.172724056328718 -778.80233087016722 0 0 0 -229.71862070337238 -189.31552855336076 38.16374924524257 0 38.16374924524257 -790.97649418152082 0 0 0 -245.07300568372023 -173.61602211869445 32.183323405779106 0 32.183323405779106 -742.28387904309216 0 0 0 -228.97497529044654 -144.30149659696463 37.06960039512694 0 37.06960039512694 -784.21738570863567 0 0 0 -232.12972057640013 -155.57595500951368 64.289566210417945 0 64.289566210417945 -774.88484757014294 0 0 0 -232.61520064491424 -198.29275526539482 56.76143683679436 0 56.76143683679436 -805.15919356310928 0 0 0 -250.86298720712603 -167.8713507776057 49.855689954989202 0 49.855689954989202 -852.36211113851527 0 0 0 -255.05836547903016 -186.38293764912555 50.584897454989232 0 50.584897454989232 -858.4928090481244 0 0 0 -261.21893667431243 -150.91345222141604 85.013916718804239 0 85.013916718804239 -874.99761953539723 0 0 0 -256.4777679392032 -94.807072042736991 90.995924042258366 0 90.995924042258366 -706.47852433973185 0 0 0 -200.32139909561738 -1.6937020192935961 153.72693370549428 0 153.72693370549428 -899.53882014267356 0 0 0 -225.3081305404919 -55.802371747006688 72.001256035692904 0 72.001256035692904 -1089.7927565381108 0 0 0 -286.39878207127941 -302.5109225071451 -260.17247709660978 0 -260.17247709660978 -783.10932216159745 0 0 0 -271.40506116718552 78.594366740195937 247.81743456032757 0 247.81743456032757 -609.55716076169756 0 0 0 -132.74069850537512 -0.064946136779916341 -0.039773189210509471 0 -0.039773189210509471 -0.55529072661821655 0 0 0 -0.15505921584953319 70.458653157405251 -94.797403882143954 0 -94.797403882143954 -467.83668475360753 0 0 0 -99.344507899050313 -92.188602350565361 6.2228855090803563 0 6.2228855090803563 -592.99690123312575 0 0 0 -171.29637589592267 -0.43715896398657694 -0.095313081303832009 0 -0.095313081303832009 -1.2113196546559761 0 0 0 -0.41211965466063838 300.45180011493585 -64.208931591712599 0 -64.208931591712599 -592.03924748367353 0 0 0 -72.896861842184762 -0.39192914280642388 -0.18012477807240582 0 -0.18012477807240582 -1.1962430475939181 0 0 0 -0.39704304760008557 97.383393637165454 -24.578149833870611 0 -24.578149833870611 -639.50195004029001 0 0 0 -135.5296391007812 77.062365737663185 -56.247261082314253 0 -56.247261082314253 -669.31033143851755 0 0 0 -148.06199142521382 -205.26621335127038 26.84235446090679 0 26.84235446090679 -699.86799500169582 0 0 0 -226.28355208824178 -177.11095211615634 36.967580170738074 0 36.967580170738074 -650.21841221179329 0 0 0 -206.83234108198758 -186.91194791660882 30.752229271847682 0 30.752229271847682 -641.70918681515695 0 0 0 -207.15528368294144 -112.47398718658042 89.720428614737784 0 89.720428614737784 -536.15621597318841 0 0 0 -162.15755078994243 -259.35681236732671 -82.318430124127417 0 -82.318430124127417 -851.23718524917149 0 0 0 -277.64849940412455 -221.45232631390149 -81.201055491838815 0 -81.201055491838815 -393.11023380272309 0 0 0 -153.64064002915688 -199.96600299741954 -144.04816513205697 0 -144.04816513205697 -1199.5347996561554 0 0 0 -349.87520066339357 -88.36950751297627 -82.392626762353984 0 -82.392626762353984 -795.11719842217735 0 0 0 -220.87167648378863 -117.78188542953831 -7.4329045357580981 0 -7.4329045357580981 -691.00805325383408 0 0 0 -202.19748467084264 -143.60260468208685 -6.0584012280210118 0 -6.0584012280210118 -826.7505340735122 0 0 0 -242.58828468889942 -38.21940442302639 50.777532052867627 0 50.777532052867627 -833.01915558399378 0 0 0 -217.80964000175504 28.279479468974841 91.738515161476016 0 91.738515161476016 -790.48770736534061 0 0 0 -190.55205697409201 -48.648641750691866 47.86933502932925 0 47.86933502932925 -902.5820203484592 0 0 0 -237.80766552478752 -12.356548911790924 60.569942308793372 0 60.569942308793372 -811.98040937467886 0 0 0 -206.08423957161767 -47.058775572073898 37.334599222788711 0 37.334599222788711 -728.8769776960155 0 0 0 -193.98393831702191 -65.322231332957017 45.680101834747347 0 45.680101834747347 -732.79456153597857 0 0 0 -199.5291982172339 -102.60068667495989 18.684008104419718 0 18.684008104419718 -745.14860131865498 0 0 0 -211.93732199840224 -64.49217969702886 37.507401000714111 0 37.507401000714111 -735.03846662838259 0 0 0 -199.88266158135275 -63.864101159765141 44.245032929626859 0 44.245032929626859 -708.76767257612482 0 0 0 -193.15794343397283 -179.35463414732862 16.46490053659727 0 16.46490053659727 -719.62584847093717 0 0 0 -224.74512065456656 -137.17760261292278 22.818459406661532 0 22.818459406661532 -713.81111984689869 0 0 0 -212.74718061495605 -142.40916569020192 20.525904514063313 0 20.525904514063313 -728.32714807464254 0 0 0 -217.68407844121111 -174.59549977974939 25.966072464907484 0 25.966072464907484 -718.08650392576055 0 0 0 -223.17050092637737 -108.8149163457914 -9.8260917180878096 0 -9.8260917180878096 -714.23674175429096 0 0 0 -205.76291452502107 -137.96736735057675 8.0305337358313409 0 8.0305337358313409 -763.1817513929891 0 0 0 -225.28727968589101 -140.94895838812317 6.3113291479480722 0 6.3113291479480722 -725.09301154224704 0 0 0 -216.51049248259233 -49.769385003210118 23.806143669530002 0 23.806143669530002 -701.52264386333263 0 0 0 -187.82300721663614 -84.413952363098588 8.3152023050397474 0 8.3152023050397474 -707.08722879962556 0 0 0 -197.87529529068092 -100.25880528687276 19.380781778437722 0 19.380781778437722 -732.6508076420896 0 0 0 -208.2274032322407 -83.739603597180576 -4.9197579211988796 0 -4.9197579211988796 -744.84707728224384 0 0 0 -207.14667021985588 -52.554846276803147 -22.916534478100402 0 -22.916534478100402 -695.28314007247297 0 0 0 -186.95949658731868 -21.302433721253692 -60.762701843291325 0 -60.762701843291325 -693.53226384406116 0 0 0 -178.7086743913278 -70.468808050141433 -49.326610671913386 0 -49.326610671913386 -727.51243986850204 0 0 0 -199.49531197966098 -54.228067753387222 -56.283120063026672 0 -56.283120063026672 -792.90744494181672 0 0 0 -211.78387817380053 -136.53251946795172 -6.8553050818948122 0 -6.8553050818948122 -799.33978452847623 0 0 0 -233.96807599910699 -106.06876924721109 -31.989194435244372 0 -31.989194435244372 -813.56597147494722 0 0 0 -229.90868518053912 -105.99536047359936 -24.610486466415296 0 -24.610486466415296 -739.82912356471593 0 0 0 -211.45612100957953 -78.033253984999646 -54.461522460798278 0 -54.461522460798278 -793.58836994302692 0 0 0 -217.90540598200732 -119.11546482199537 -23.303749206911107 0 -23.303749206911107 -781.18703619977168 0 0 0 -225.07562525544108 -91.510303714690963 -43.923460567166899 0 -43.923460567166899 -832.06780536905171 0 0 0 -230.89452727093521 -124.26618703652366 -21.810988511021264 0 -21.810988511021264 -795.72955821948926 0 0 0 -229.998936314003 -155.57658894269298 0.15230120810747394 0 0.15230120810747394 -762.02984077909787 0 0 0 -229.40160743044817 -139.36416805649969 -7.8046819141063679 0 -7.8046819141063679 -746.50761388127648 0 0 0 -221.46794548444404 -130.83671229795573 -3.4996194741408004 0 -3.4996194741408004 -688.22723173407576 0 0 0 -204.76598600800799 165.82904222124171 -15.280445431315911 0 -15.280445431315911 -712.64345729104207 0 0 0 -136.70360376744998 -0.40440831021236812 -0.30835657098962993 0 -0.30835657098962993 -1.2004027700650997 0 0 0 -0.401202770069367 -167.89962839195346 5.8815367718761991 0 5.8815367718761991 -697.85367072760391 0 0 0 -216.4383247798894 108.22326553559719 -14.052378475272747 0 -14.052378475272747 -719.77023005738374 0 0 0 -152.88674113044658 86.176370209043625 -8.3874277381080447 0 -8.3874277381080447 -710.05570278437926 0 0 0 -155.96983314383374 160.07404224023423 -15.742462164828339 0 -15.742462164828339 -692.98461263102809 0 0 0 -133.22764259769838 -195.59624057304131 20.265237485094076 0 20.265237485094076 -684.18866572641946 0 0 0 -219.94622657486548 -0.4057884701007618 -0.24346301932148723 0 -0.24346301932148723 -1.2008628233589316 0 0 0 -0.4016628233649232 86.181748626894205 -13.42598439599027 0 -13.42598439599027 -671.21595210537362 0 0 0 -146.25855086961974 59.859624205620435 -32.876302732900058 0 -32.876302732900058 -734.5101286950262 0 0 0 -168.6626261223513 182.86123002393106 -23.545177195376027 0 -23.545177195376027 -663.55696751624737 0 0 0 -120.17393437307896 -171.1731317423787 23.253509488222335 0 23.253509488222335 -689.17112038380947 0 0 0 -215.08606303154716 -173.95783824361445 24.915469694352851 0 24.915469694352851 -692.88813132973519 0 0 0 -216.71149239333783 -163.70393192583776 16.61893961811893 0 16.61893961811893 -744.1500085440648 0 0 0 -226.96348511747544 -170.30794061438155 13.612696320728901 0 13.612696320728901 -686.69434833843206 0 0 0 -214.25057223820295 
</DataArray>
<DataArray type="Float64" Name="cross_section_updated" format="ascii">
1 1 1 1 1 1 1 1 1 1 1 1 1 1 1 1 1 1 1 1 1 1 1 1 1 1 1 1 1 1 1 1 1 1 1 1 1 1 1 1 1 1 1 1 1 1 1 1 1 1 1 1 1 1 1 1 1 1 1 1 1 1 1 1 1 1 1 1 1 1 1 1 1 1 1 1 1 1 1 1 1 1 1 1 1 1 1 1 1 1 1 1 1 1 1 1 1 1 1 1 1 1 1 1 1 1 1 1 1 1 1 1 1 1 1 1 1 1 1 1 1 1 1 1 1 1 1 1 1 1 1 1 1 1 1 1 1 1 1 1 1 1 1 1 1 1 1 1 1 1 1 1 1 1 1 1 1 1 1 1 1 1 1 1 1 1 1 1 1 1 1 1 1 1 1 1 1 1 1 1 1 1 1 1 1 1 1 1 1 1 1 1 1 1 1 1 1 1 1 1 1 1 1 1 1 1 1 1 1 1 1 1 1 1 1 1 1 1 1 1 1 1 1 1 1 1 1 1 1 1 1 1 1 1 1 1 1 1 1 1 1 1 1 1 1 1 1 1 1 1 1 1 1 1 1 1 1 1 1 1 1 1 1 1 1 1 1 1 1 1 1 1 1 1 1 1 1 1 1 1 1 1 1 1 1 1 1 1 1 1 1 1 1 1 1 1 1 1 1 1 1 1 1 1 1 1 1 1 1 1 1 1 1 1 1 1 1 1 1 1 1 1 1 1 1 1 1 1 1 1 1 1 1 1 1 1 1 1 1 1 1 1 1 1 1 1 1 1 1 1 1 1 1 1 1 1 1 1 1 1 1 1 1 1 1 1 1 1 1 1 1 1 1 1 1 1 1 1 1 1 1 1 1 1 1 1 1 1 1 1 1 1 1 1 1 1 1 1 1 1 1 1 1 1 1 1 1 1 1 1 1 1 1 1 1 1 1 1 1 1 1 1 1 1 1 1 1 1 1 1 1 1 1 1 1 1 1 1 1 1 1 1 1 1 1 1 1 1 1 1 1 1 1 1 1 1 1 1 1 1 1 1 1 1 1 1 1 1 1 1 1 1 1 1 1 1 1 1 1 1 1 1 1 1 1 1 1 1 1 1 1 1 1 1 1 1 1 1 1 1 1 1 1 1 1 1 1 1 1 1 1 1 1 1 1 1 1 1 1 1 1 1 1 1 1 1 1 1 1 1 1 1 1 1 1 1 1 1 0.0015949236158120956 1 1 0.0013057272079062352 1 1 0.0019088725728055372 1 1 1 1 1 1 1 1 1 1 1 1 1 0.0031332829631602992 1 1 1 1 1 0.0048271991797330495 1 1 1 1 1 1 1 1 1 1 1 1 1 1 1 1 1 1 1 1 1 1 1 1 1 1 1 1 1 1 1 1 1 1 1 1 1 1 1 1 1 1 1 1 1 1 1 1 1 1 1 1 1 1 1 1 1 1 1 1 1 1 1 1 1 1 1 1 1 1 1 1 1 1 1 1 1 1 1 1 1 1 1 1 1 1 1 1 1 1 1 1 1 1 1 1 1 1 1 1 1 1 1 1 1 1 1 1 1 1 1 1 1 1 1 1 1 1 1 1 1 1 1 1 1 1 1 1 1 1 1 1 1 1 1 1 1 1 1 1 1 1 1 1 1 1 1 1 1 1 1 1 1 1 1 1 1 1 1 1 1 1 1 1 1 1 1 1 0.0069220302100571167 1 1 1 0.0093635190166062744 1 1 0.012058901249827333 1 1 1 1 1 1 1 1 1 1 1 0.014966855577461902 1 1 1 1 0.018075623764013542 1 1 1 1 1 1 1 1 1 1 1 1 1 1 1 1 1 1 1 1 1 1 1 1 1 1 1 1 1 1 1 1 1 1 1 1 1 1 1 1 1 1 1 1 1 1 1 1 1 1 1 1 1 1 1 1 1 1 1.0000000018879455e-06 1 1 1 1 1 1 1 1 1 1 1 1 1 1 9.99999994644174e-07 1 1 9.9999999796443473e-07 1 9.9999999292939984e-07 1 1 1 1 1 1 1 1 1 1 1 1 1 0.0001321910612573007 1 1 1 1 1 1 1 1 1 1 1 1 1 1 1 1 1 1 1 1 1 1 1 1 1 1 1 1 1 1 1 1 1 1 1 1 1 1 1 1 1 1 1 1 1 1 1 1 1 1 1 1 1 1 1 1 1 1 1 1 1 1 1 1 1 1 1 1 1 1 1 1 1 1 1 1 1 1 1 1 1 1 1 1 1 1 1 1 1 1 1 1 1 1 1 1 1 1 1 1 1 1 1 1 1 1 1 1 1 1 1 1 1 1 1 1 1 1 1 1 1 1 1 1 1 1 1 1 1 1 1 1 1 1 1 1 0.00049971061153914571 1 1 1.0000000058275026e-06 1 1.0000000077096775e-06 1 1 1 1 1 1 1 1 1 1 1 1 1 1 1 1 1 1 1 1 1 1 1 1 1 1 1 1 1 1 1 1 1 1 1 1 1 1 1 1 1 1 1 1 1 1 1 1.0000000053344074e-06 1 1 1 1 1 1.000000007490235e-06 1 1 1 1 1 1 1 
</DataArray>
<DataArray type="Float64" Name="displacement_divergence" format="ascii">
-0.011321533961967594 -0.011438191683119308 -0.0092545018861235045 -0.0096376573385638861 -0.0077642022166529321 -0.0068474102312700673 -0.0086640878291586558 -0.0076229165968431569 -0.0071985414179832757 -0.0078116034285978173 -0.0081223168064994342 -0.0074866985846422721 -0.0084850400137701822 -0.0078235536924656738 -0.0093604072009928849 -0.0099783921941880467 -0.0080084504272235433 -0.0088148452104173172 -0.0065702255577825067 -0.0067689907400947866 -0.0068863511543377845 -0.0067844685624330256 -0.007452750970511941 -0.0071170179045363068 -0.006654810455259258 -0.0071915040549936915 -0.0078532659013270251 -0.0073275037712975666 -0.0071075001133604539 -0.0072617766140667152 -0.0069690543493106105 -0.0068611655698962298 -0.0070350280831393761 -0.0072652973856385181 -0.0071048195571172465 -0.0074621054713219365 -0.0072328569125132379 -0.007488444017339245 -0.0075277007583195929 -0.0075312906501912302 -0.0075049314820079972 -0.0072271438792728959 -0.0074634330759593605 -0.007368004612092624 -0.0072312915102811307 -0.0074538652879303892 -0.0072102793440744252 -0.0070621816014379349 -0.0082785990244581362 -0.0079033393183695518 -0.0086387394999549484 -0.0080998595672085449 -0.0075645698133008435 -0.0079734749988766892 -0.007758811776696236 -0.0080548888984757119 -0.0076063773768182772 -0.0079032915791341016 -0.0075699253680509412 -0.0076350159615624601 -0.0080536345950680613 -0.0082494115395279292 -0.0078444257389590592 -0.0084286695157716508 -0.0082734100105323598 -0.0077267154365919331 -0.0075586193410608106 -0.0080071794837078547 -0.0076756537286646383 -0.0074303929210335004 -0.0073589866154116562 -0.0078317968399962846 -0.0073421689535194089 -0.0072784243218852844 -0.0073822385379632843 -0.0076872485328944237 -0.0073340524863113746 -0.0078003366113710056 -0.0076975026752909206 -0.0076508026834090533 -0.0075492097473648032 -0.007317990019774654 -0.007526750543026102 -0.007418111834829634 -0.0072402705978598311 -0.0075748937328866464 -0.0072578380517010627 -0.007143653888110689 -0.0073710093618486461 -0.0072474819257137765 -0.0071399099971351382 -0.0072253688898520144 -0.0071971027363358399 -0.0070643674366400872 -0.007252485126879385 -0.0074232453326581781 -0.0072404241886147094 -0.0071724699604078668 -0.0072709482947789471 -0.0071854879388067866 -0.0071642635889614479 -0.007040856559140718 -0.0073191817771719493 -0.0072301168342216865 -0.0069341598764848991 -0.0072104889231890124 -0.0068696710215365789 -0.0071476763721318101 -0.0062555167334466671 -0.0064639766157856705 -0.0071123292036329305 -0.0069698181773754919 -0.006631001722571337 -0.0065423091504864918 -0.0065882314643603661 -0.0068652778883788543 -0.0071474939527259411 -0.006771072170672212 -0.0070206204782265313 -0.0067474491368172875 -0.0072371095175675117 -0.0069749346328394574 -0.0072586301631970742 -0.0072858433805873717 -0.0071662477541784538 -0.0074872665131519543 -0.0074036525668986271 -0.007262024342110018 -0.0069779488871174727 -0.0072667585244759704 -0.0063097608158357715 -0.006722049162521615 -0.0066247061736014468 -0.0063744421710787546 -0.0059814257759025907 -0.0059349470643996899 -0.0059629596998913388 -0.0059135925498719349 -0.0056679912825111367 -0.0055130893394089997 -0.0061354901033145899 -0.0062269488426060504 -0.0065047819174745489 -0.0067015550179544414 -0.0069422203359585585 -0.008252890382325441 -0.007142980722073658 -0.0076453041452330638 -0.0065917563084526218 -0.0082862929288949824 -0.0066650529414994525 -0.0084535256238041125 -0.0072058465765996154 -0.007449253602214074 -0.0075444204550640034 -0.0070237860544797841 -0.0073244143628694788 -0.0070547880601173341 -0.0068251861072702383 -0.0070320267437503949 -0.0069535199711562648 -0.0067513303525066314 -0.0070102832365358525 -0.0066800230368787121 -0.0072789103281414927 -0.0069138446638304686 -0.0071221885333297569 -0.0068444324416917866 -0.0069293490164777935 -0.0072438428127219179 -0.0068758685147161502 -0.0072171830783195404 -0.0069746030148681547 -0.0068717565566490113 -0.0071529670049168131 -0.0067726564714942891 -0.0070782709998939708 -0.0069298225162051641 -0.0067532529566891181 -0.0065978486607446013 -0.00670138230547037 -0.0067881344742272663 -0.0066714030921382617 -0.0066186286105298364 -0.0066345248214902258 -0.0064196530108503735 -0.0065510270188794961 -0.0064251193307250515 -0.0068474129766916275 -0.0061251168263988937 -0.0062913253502447641 -0.0062739325893062907 -0.0065650249912519165 -0.0063490828788047154 -0.0062331985845134573 -0.006527213543365773 -0.0064189927048275836 -0.0064364223148685173 -0.0065943520024048796 -0.0067131987953131661 -0.0065932323282377747 -0.0066605393445422559 -0.0068721489066244229 -0.0068127492884968791 -0.0067028818466597639 -0.0067418859299899214 -0.0067989427607526021 -0.0067505544368019199 -0.0068653370408456038 -0.0067288492796766866 -0.0068218401560644903 -0.0067115721783954363 -0.0067076275605967295 -0.0066998329757400957 -0.0069546722522879773 -0.0070791276840519862 -0.006947702783130151 -0.0070291984288855386 -0.0069016341199987369 -0.0068481376595814492 -0.0070077898148207945 -0.0067584205179415935 -0.0068724559914715849 -0.0069094998229955185 -0.0068261085659786815 -0.0068226648807847845 -0.0070036650980944137 -0.0070140290466266519 -0.0070395820720051128 -0.0071764988861370144 -0.0070144287084417528 -0.0068237628931709024 -0.0069610304526965816 -0.0070646432468623871 -0.0068183211808421455 -0.0068183744012183939 -0.0067878737794203007 -0.0069118182479408485 -0.0068671597832830056 -0.0067934017092491084 -0.0068437447838070736 -0.006782936381261026 -0.0066634941387426483 -0.0067451688932674281 -0.0065930418538521062 -0.0067433147918885272 -0.0068400516704515413 -0.0068209522684305052 -0.0068587118321566248 -0.0067892274525600746 -0.0068773231681707875 -0.0068033089071970476 -0.0067675025663951754 -0.0068904964359317936 -0.0068789863010619151 -0.0068952878567276887 -0.0069131075474861553 -0.0069276790713108521 -0.0069012321960699452 -0.0070425143122128248 -0.0070079757482616883 -0.0070734022525450928 -0.0070484541489091723 -0.0069672751893494617 -0.0069001046635866758 -0.0068465989230824462 -0.0069422770350839047 -0.0068256466254570936 -0.0068641092447913471 -0.0068447305068080957 -0.006881782978683082 -0.0068859038981421011 -0.0069723398520028651 -0.0071469869745055814 -0.0071076638195267938 -0.0070353884416754914 -0.007046301865982485 -0.0068857774976916562 -0.0069954319656558295 -0.0069217891248493091 -0.0069260478450069718 -0.0067824075454402666 -0.0067812261736239221 -0.0066899048744154394 -0.0067983804698400208 -0.006729888085338448 -0.0068968325152456988 -0.0067555641392610111 -0.0068124570382762789 -0.0066473657928452917 -0.0067572855441979801 -0.0065218499072482589 -0.0067189518821863248 -0.0066372500618599173 -0.0066302105549215229 -0.0066172002830516066 -0.0066824733977448383 -0.0065794599728554726 -0.0064048364662725177 -0.0066457257264421477 -0.0063073563372349831 -0.006336448154758088 -0.0065826335357324905 -0.0065999712005281042 -0.0064612218904254864 -0.0064413814448631285 -0.006251602674724438 -0.0064864515375451792 -0.0063001463136170138 -0.0065080814585286167 -0.0065130712375436051 -0.0064207213334590285 -0.0064944205729274423 -0.0065052814675153753 -0.0066833590932695586 -0.0066006929532372027 -0.0067016655072609788 -0.0065985278617826659 -0.0067957942726443316 -0.0066789342207599113 -0.0068004949628367728 -0.0067243288080975488 -0.0066943052974431788 -0.0066974521986609414 -0.0065509184876136363 -0.0064614423901241287 -0.0064536082809312778 -0.0063179297446824267 -0.0063293635276950901 -0.0062650984468543836 -0.0062490664296137033 -0.0062472348068033645 -0.0062612290250529667 -0.0063621847271531917 -0.0063725550991301644 -0.0062878043350060586 -0.0064561031334620378 -0.0065410964755136525 -0.0064736230840301417 -0.0063985257362515341 -0.0066820744148172878 -0.0064636882455902378 -0.0066705862522240256 -0.0066426364699566087 -0.0066989298352639337 -0.006525576134838066 -0.0066669980454889533 -0.0063864818333619205 -0.0065276437229141449 -0.0064909219947214408 -0.0067331429052703284 -0.0066688569767433536 -0.0067595322846494424 -0.0067759679747273795 -0.0066382833121838014 -0.0065117550390215578 -0.0067168984618552162 -0.0066455706420386063 -0.0065492876270684779 -0.0066923056047125951 -0.0066866722464480055 -0.006654613095039473 -0.0067485553088062547 -0.0064914546968868614 -0.0065003866702184471 -0.0065146397219859459 -0.0069308621792573133 -0.0067610136115628383 -0.0065897082654546579 -0.0065437548526984246 -0.0066946502449194145 -0.0067416898272628367 -0.0064032492106290417 -0.0067751428860778617 -0.0066280485140776946 -0.0069373823812572677 -0.0066669690187544095 -0.0066461587620410267 -0.0070468957201495486 -0.0073471588231170532 -0.0070138522719298962 -0.0067615615382176086 -0.0066024117576521379 -0.0065116526382264367 -0.0067752965649088837 -0.0063757494088200473 -0.0078526363310681274 -0.0090371670547617911 -0.0077246410604852045 -0.008439433034884293 -0.0080305281570761111 -0.0074493447754484798 -0.006967454489161265 -0.0073901565114151552 -0.0075242136947693827 -0.0071754537108563166 -0.0068928645512817271 -0.0069320349581277405 -0.007136733657620381 -0.0074220146099584772 -0.0074936883339210966 -0.0064647605452533563 -0.0066717080306635118 -0.0064333766586883029 -0.0073442864879918468 -0.0066292311991617281 -0.0071048488417548294 -0.0067540847102257884 -0.006792934218931318 -0.0064940577979377134 -0.0069791110024695346 -0.0066738538849029361 -0.0063425147011086647 -0.0064478240814304366 -0.0063120957695717711 -0.0066006624113773282 -0.0063803554681221564 -0.0061780521397979682 -0.0066129782521142239 -0.00602693667860843 -0.0061243457847746652 -0.0055959579376889945 -0.005889196732431351 -0.0056813798053977072 -0.0065883540104900579 -0.006200549392692295 -0.0056070345605809258 -0.0032895281287644053 -0.0039333868866978094 -0.004091614973857377 -0.0053039691067922057 -0.0049331558337432279 -0.0056203467662233123 -0.0053626359530599133 -0.0072118467427437702 -0.006196792141604901 -0.0073398307922314023 -0.0065244565744192184 -0.0071643421816144637 -0.0074896189540814284 -0.0082186527341646942 -0.007102857904558918 -0.0083972010316266631 -0.0072440228623540937 -0.0095894632159739309 -0.0080465590273906262 -0.0077360402194709688 -0.0094110844129597082 -0.0091606382878671178 -0.010990544878847319 -0.0089055092193230656 -0.0098390844074515427 -0.0092318834640450764 -0.0079276860538717783 -0.0080218158825423047 -0.0058375111824191667 -0.0060140472527271949 -0.0056330700794921616 -0.0060585275333749772 -0.0060630642523248901 -0.0059043035511524705 -0.0059751646923906498 -0.0061316304775506109 -0.0062720156585455294 -0.0062561441296869399 -0.0064769934592327633 -0.0063629814584825889 -0.0062778995299273277 -0.006153742325745927 -0.0062266692290913472 -0.0061610825314530465 -0.0064197306864130776 -0.0064703090711266675 -0.0061987186331664695 -0.0061749237777491417 -0.0061641685005623947 -0.0063183749915622367 -0.0063092546400771443 -0.0060190561940402509 -0.006115003020718518 -0.0055840750872901621 -0.0058259215448890136 -0.0058345321102668823 -0.0060441823981793319 -0.0056300995660365193 -0.0056943404848037726 -0.0053746077649349244 -0.0054307253146974876 -0.0053752893990920928 -0.0052360220821982828 -0.005650505496253469 -0.0049590450767331012 -0.0052036502890352304 -0.0046569804907495502 -0.0042428854940035343 -0.004529093826198316 -0.0049375819583740432 -0.0050592076404305519 -0.004851742832112458 -0.0048211320592986689 -0.0035524466898543827 -0.0048809727769532889 -0.004715668305192218 -0.0051581331869227365 -0.005401902247950216 -0.0051578568523026891 -0.0057112380829290044 -0.0056135823791245362 -0.0057099549303833153 -0.0056906083102475323 -0.0056475744315902798 -0.0051945946511004135 -0.0053300391279011983 -0.0055383764246965395 -0.0050640554381123914 -0.005618838970463471 -0.0043253442988236274 -0.0047697206859696941 -0.003423358156013856 -0.0042974839715625157 -0.0041961534949179766 -0.0038667109083446449 -0.0042161326014421852 -0.0014881899841856783 -0.0017808468350659842 -0.0031076220176413372 -0.0027885452696118501 -0.0038490161970176212 -0.0027307860774563042 -0.0041389648790289835 -0.0034027896012641806 -0.0024340988983325151 -0.0029589740119228686 -0.0054607520466118109 0.0026457843445881341 -0.0021245954707082848 -0.0011053562515543069 -0.0023175200106110155 1.4257276588590964 0.0054234076271873488 0.0033800355967641554 -0.79709419467248299 0.0031873024342684575 0.0077915795905974059 0.05867384610884141 0.0038701776640653468 0.0056770025602459473 0.00011256430181863508 0.0029731560808789054 0.00031863477926161177 0.00025588758605089856 0.00085453446023496527 0.0028966599650840641 0.0036625253879840336 -0.00041931665737252044 0.0041489433066913828 0.0059584177020415574 0.0090015157882726571 0.51827605474459482 0.0083335571793673041 0.0057490034784065946 0.0040116988256809344 0.0073389304620129076 0.0036902716895068632 1.3980046810385216 0.0043081326438528453 0.00070804326072512747 -0.00019036637386218858 0.0028470146546758224 -0.00020415072190790168 0.00040546105252742271 -0.0015110782462689348 -0.0023241961840089059 -0.0017407286150329243 -0.0029216523768181984 -0.0023423919393286974 -0.0036334726224190195 -0.0046923766357260394 -0.0042403217681232092 -0.0039144885534950699 -0.0036289908835446666 -0.0042659173466420355 -0.0041387132371710211 -0.0042498465150306343 -0.0026477061702070911 -0.0010114357477908134 -0.0022275715283805314 -0.010781034434311082 -0.012848371158881516 -0.010376680291916546 -0.012787766344376852 -0.011486370062492424 -0.0092222244127385389 -0.010578945364402723 -0.0085844332365615367 -0.0076300043466933781 -0.0063023579208372205 -0.0074242299076208995 -0.0079173358485707529 -0.0087028656390906733 -0.0062545432528457456 -0.0035829318206514436 -0.0039884388669463033 -0.00333021725740585 -0.0058809713929857399 -0.0063806925464130193 -0.0060397758155962544 -0.0035760461490099704 -0.0036778326031352837 -0.003475197048073364 0.00027837231368896612 0.0013754808419103384 -0.0009516633675433761 0.00011726511634256934 0.0024906704880033881 -0.0016120667271749961 -0.00084398262415572023 0.00066171724095294426 0.00275310485715035 0.0021303979763555025 0.00108889774653044 -0.00054817319701051109 -0.0016966664853308167 -0.0039343891719161635 -0.0037394548601771133 -0.0049941760283620518 -0.0056775375934967065 -0.0046622971782679795 -0.0032723260319586327 -0.0048333233853273955 -0.0063559102506672432 -0.0074043316863049297 -0.0089852488482748474 -0.0092466656371847922 -0.0078053855446627504 -0.0074282332228260417 -0.0066078558164622192 -0.0080725972673894152 -0.0085365424456915612 -0.0098201811779016907 -0.012144735415933826 -0.0099064491806859709 -0.010486284397375964 -0.013023574216877137 -0.0098536054083438185 -0.011093897854674628 -0.0072593888053873847 -0.0094689800971872358 -0.0078707571174337805 -0.0097420224996084964 -0.0096144965437520505 -0.011332337960254138 -0.0097188038899413132 -0.0094085209151709287 -0.0078565773105819803 -0.0083127172422303997 -0.0073777517316157837 -0.006975361316090993 -0.0071750104695907872 -0.0077030911096127369 -0.0068016429770199069 -0.0056717061451482566 -0.0053060093980325223 -0.0042141173418841268 -0.0064265194589717724 -0.0062949709554971159 -0.0055470743524498288 -0.0050800720182693909 -0.0035949125017529365 -0.0044578009775306029 -0.0019955869241345507 -0.0010136945243316292 -0.002338259430813748 -0.00071151824749804589 0.0017163675392915592 -0.0021156582362390416 -0.00037737089499003339 -0.0029153415366868704 -0.0035012504308254908 -0.00200202601687402 -0.0054643819998244775 -0.0024343561221641594 -0.0052052449115968652 -0.0033767729155782522 -0.0040943579561329158 -0.0068904608092499042 -0.0076902115113759856 -0.0066960015063990685 -0.0082533024692226439 -0.0083630867388167635 -0.0062033141890670135 -0.0056173395049522873 -0.0063910358811913835 -0.0045266042876687049 -0.0072251224295348387 -0.0083586097229536166 -0.0070610606930152781 -0.0068791974545243974 -0.0080771575198780587 -0.0085479609291258529 -0.0074337652439009777 -0.006600426692169592 -0.0072887857937388237 -0.0072651820283990975 -0.0065585723943321871 -0.0064485047186622069 -0.0066146492377063201 -0.006229510084761504 -0.0069669826765544687 -0.0074319759136741203 -0.0087176324838213123 -0.004443492712295688 -0.0031463494846693529 -0.002688062677610098 -0.0047438845383875328 -0.0059758457650787499 -0.005453478956151725 -0.0062844230326174477 -0.0051347516107462729 -0.0047623967504634435 -0.00491787070815701 -0.003709208826068594 -0.0033667639125471299 -0.0046617120199056034 -0.0032493339187778525 -0.0021212026041612098 -0.00073107397759639148 0.002978729257047355 0.0027552037134059015 -0.00018186940348775826 0.0036179666936018619 0.0068295928562301655 0.0033612758331719866 2.4303045182516287 0.0012916096760884578 0.0043468494583639092 0.0028188706398755842 3.629851115894875 0.0031482902909197585 0.0050303143334774897 5.0156585850464399 0.00088125267739948884 -0.001388827785161223 0.0020988422985866451 -0.002936024927664399 -0.00075373481015038324 -0.0022853550774922793 -0.0029735693553693508 0.0028853997666363485 0.0021272084047991857 -0.0018211218883566541 0.0041747896086198888 6.2638839262542172 0.0037638702493881238 0.0038018057393566841 0.00026175310835220567 0.00068850265353833859 8.4998491638252176 0.0048178428538769302 0.00056988561509341285 -0.0052533866126440176 0.0012922979448970195 0.0039624281617270662 -0.00098705891861886053 -0.0041743272652196017 -0.0087876367693599522 -0.008217533249382597 -0.0092794860612387398 -0.0058599483247389894 -0.0070752006989658056 -0.0064538637124595399 -0.0049945402402418963 -0.0051536924573626908 -0.0075642998859687949 -0.0062406352355241085 -0.0083805679868772243 -0.0070873890020224165 -0.0073932702412962403 -0.0084158029054120995 -0.010483015640162768 -0.0084027032166564541 -0.0097109450549224541 -0.0087266932548294152 -0.0077005772681548734 -0.0089528928986606429 -0.0061807845825384844 -0.0081553205605560779 -0.0073755225470915342 -0.0058807603302922923 -0.0075788902846107564 -0.006810008008613859 -0.0059757932165624278 -0.0064149929690633933 -0.0075583657156677933 -0.0067393360627287652 -0.0068235064999778994 -0.0065799405445797141 -0.0055991100056423104 -0.0065199996549649697 -0.0058514314252958444 -0.0063304626517025064 -0.0064778878059259734 -0.0066295046981680039 -0.0064585861045862794 -0.0056757397476742411 -0.0056755579848076221 -0.0055247975112779762 -0.0064042449159291935 -0.005599329379265508 -0.0058842079417147555 -0.0050623312082117289 -0.0053429030814460725 -0.0053851745787970862 -0.0057697668498577302 -0.0060865541072930678 -0.0034852254776405953 -1.0045648674948544 -0.0031623530389827161 -0.0049834387115175877 -0.0050003312641206665 -0.0059779520250138017 -0.005491184301498836 -0.0056907422225990073 -0.0042810782526039315 -0.00562209614402083 -0.0046208148778709331 -0.0058640073542233773 -0.0035970493804103748 -0.00284128551171553 -0.0037497997548310152 -0.0032754399251661223 -1.0008416416688326 -0.0040892357958625392 -0.0027842855211624093 -1.0104728785636161 -0.0019260662214537552 -1.053997617016226 -0.00043737177150993817 -0.0006454406965251268 -0.001898289770789853 -0.0049850217111286309 -0.0045408141388674217 -0.0021720530046635406 -0.0034909625724469043 -0.0054796580502175923 -0.00071327708455119765 0.0018236234904005361 -0.00089157222884327092 -0.004201918128578978 -0.00053480008800258633 -0.75489370599583472 0.0023650915698199548 0.00020949683786718187 -0.0033872857123524022 -0.0054774468777287338 -0.0052319156171045933 -0.0037638298829477156 -0.0061005858229372795 -0.0070595615153494808 -0.0077568229896366088 -0.0072772910104517141 -0.006616613148605243 -0.0068246053499782071 -0.007340092111620785 -0.0065327781742437474 -0.0051946206672670711 -0.0043303069334779468 -0.0055452801308784553 -0.0094739361776811568 -0.012078590412829949 -0.01219988543087258 -0.0081272948868043558 -0.010226375350154889 -0.0079097567244264602 -0.008475210943201951 -0.0085756725747717817 -0.0079934738034105005 -0.0077384944497051831 -0.0078393706885688027 -0.0088599894274525703 -0.0086676379809690063 -0.0083200708481667128 -0.0094717231239004329 -0.0094462292866020724 -0.0094504883904015027 -0.0079777754963564068 -0.007827728336190401 -0.007352640966364273 -0.0079046359790539509 -0.0078983709390205922 -0.0071351185322194172 -0.0067625298959032281 -0.0071811692884608605 -0.0072503922364414389 -0.0068915872041048713 -0.0064341985803985473 -0.0070630498277214383 -0.007596475894924919 -0.0072350444004001101 -0.0071001703140329492 -0.0075548240562718152 -0.0072721722200451066 -0.0052951225526907258 -0.006135136801739282 -0.0046358744126259108 -0.0054899255737516639 -0.0068301142048756772 -0.0067294941503209978 -0.0059039629011908221 -0.0057695242274807788 -0.0065832340222632046 -0.0064502257522784483 -0.0064503586954324996 -0.0052103685906427222 -0.0060053758715760963 -0.0046988409195147171 -0.0049080372010711082 -0.0047835307211402701 -0.0049217856820029313 -0.005118157885932121 -0.0044623531445680542 -0.0052539183541444878 -0.0057630557643371487 -0.0055041179913727367 -0.0060340274813280234 -0.0063175503955415976 -0.0058213477681598935 -0.0057363741569778394 -0.0057148656335737728 -0.005998962086990068 -0.0057804492365810291 -0.0049857382219711237 -0.0045795326006501172 -0.0048041562110655231 -0.0052791874537072171 -0.0050948719077053492 -0.0067630868286380087 -0.006685450143742791 -0.0069629034503888819 -0.0069717101203376902 -0.0067725844122604748 -0.0063953138319758091 -0.0068069293426875933 -0.0065891667958840501 -0.0063108749555707798 -0.0062149812627311559 -0.0063106224465460728 -0.0060775634558811083 -0.0063369943525316899 -0.0064086212936153419 -0.0065963630773094774 -0.0065136450801139261 -0.006554488680691666 -0.0065538470768741735 -0.006650755493723245 -0.0066617443545030604 -0.0065796672862382657 -0.0065293749515607452 -0.006578642913657928 -0.0064111013233266335 -0.0061627324337910662 -0.0063286330057214096 -0.006266565107219256 -0.0063403536281397815 -0.0065870993792754903 -0.0067079254366272404 -0.0066093136177012637 -0.0066582319673870721 -0.0065399996990726439 -0.0069249848343111856 -0.0052582213605335531 -0.0052272834859220657 -0.0050844418048534568 -0.0057429655175843045 -0.0061268251420930064 -0.0057243743822611645 -0.0058032430144100006 -0.005815380016122855 -0.0062715746801781554 -0.0063764591369757546 -0.0065304734168578141 -0.0064119441984800823 -0.0050080349773904409 -0.0056327032635122998 -0.0071599695517819912 -0.0067851265291796331 -0.0033185174626343752 -0.38764803962383354 -0.0024836126974762604 -0.0042824093973980529 -1.0302991366515954 -0.0018224215460546089 -0.99260761900021333 -0.0033882409775195139 -0.003701549785630337 -0.0056570888022060561 -0.0051708085270496806 -0.0051788820920735147 -0.0040539387697485565 -0.0069412124851031196 -0.0038410160007289092 -0.0087468800165848397 -0.0055217919120947104 -0.0050549371167710674 -0.0060647071172224912 -0.005445241000043885 -0.0047638014243522875 -0.005945191638119675 -0.0051521059892904453 -0.0048495984579255465 -0.0049882299554308562 -0.005298433049960069 -0.004997066539533801 -0.004828948585849327 -0.0056186280163641692 -0.0053186795153738683 -0.0054421019610302809 -0.005579262523159427 -0.005144072863125515 -0.0056321819921472671 -0.0054127623120648061 -0.0046955751804158841 -0.0049468823822670319 -0.0052056850808060093 -0.0051786667554964 -0.004673987414682999 -0.0044677168597831787 -0.0049873827994915271 -0.0052945969543450183 -0.0058492018999777018 -0.0057477171295134966 -0.005286403025239474 -0.0054476351495501701 -0.0056268906313860362 -0.0057723631817733628 -0.0057499734078500786 -0.0057350401857612088 -0.0055366986371111065 -0.0051191496502001888 -0.0034175900941862472 -1.0030069251734166 -0.005410958119497225 -0.0038221685282611578 -0.0038992458285958473 -0.0033306910649424509 -0.0054986556643716461 -1.0041570584123076 -0.0036564637717404966 -0.0042165656530587757 -0.0030043483593269714 -0.0053771515757886704 -0.0054177873098334335 -0.005674087127936888 -0.0053562643059550802 
</DataArray>
</CellData>
</Piece>
</UnstructuredGrid>
</VTKFile>
