<?xml version="1.0"?>
<VTKFile type="UnstructuredGrid" version="0.1" byte_order="LittleEndian">
<UnstructuredGrid>
<Piece NumberOfPoints="3142" NumberOfCells="1054">
<Points>
<DataArray type="Float64" NumberOfComponents="3" format="ascii">
0.02576622439977887 0.024532886826226379 0 0 0 0 0.049999999999899652 0 0 0.02576622439977887 0.024532886826226379 0 0 0 0 0 0.050000000000207989 0 0.02576622439977887 0.024532886826226379 0 0.049999999999899652 0 0 0.053064897599215843 0.048131547304697528 0 0.02576622439977887 0.024532886826226379 0 0.053064897599215843 0.048131547304697528 0 0 0.050000000000207989 0 0 0.050000000000207989 0 0 0.10000000000041601 0 0.044310582753132287 0.101412518374475 0 0 0.10000000000041601 0 0.044310582753132287 0.101412518374475 0 0 0.15000000000062411 0 0.053064897599215843 0.048131547304697528 0 0.044310582753132287 0.101412518374475 0 0.083411279318303222 0.089699755330707398 0 0.053064897599215843 0.048131547304697528 0 0 0.050000000000207989 0 0.044310582753132287 0.101412518374475 0 0.044310582753132287 0.101412518374475 0 0.083411279318303222 0.089699755330707398 0 0.065374659239632718 0.1448908038746782 0 0.083411279318303222 0.089699755330707398 0 0.065374659239632718 0.1448908038746782 0 0.1053400320299198 0.12877248826361379 0 0.083411279318303222 0.089699755330707398 0 0.12372429750337779 0.095814237875728972 0 0.1053400320299198 0.12877248826361379 0 0.12372429750337779 0.095814237875728972 0 0.1053400320299198 0.12877248826361379 0 0.14332333627550789 0.14578431753966009 0 0.12372429750337779 0.095814237875728972 0 0.10266856499169109 0.044518360900210059 0 0.14618258501891079 0.062070108745602003 0 0.083411279318303222 0.089699755330707398 0 0.12372429750337779 0.095814237875728972 0 0.10266856499169109 0.044518360900210059 0 0.10266856499169109 0.044518360900210059 0 0.099999999999814668 0 0 0.14999999999970359 0 0 0.049999999999899652 0 0 0.053064897599215843 0.048131547304697528 0 0.099999999999814668 0 0 0.053064897599215843 0.048131547304697528 0 0.10266856499169109 0.044518360900210059 0 0.099999999999814668 0 0 0.053064897599215843 0.048131547304697528 0 0.083411279318303222 0.089699755330707398 0 0.10266856499169109 0.044518360900210059 0 0.044081577119474857 0.2271058242433576 0 0 0.20000000000083221 0 0 0.25000000000104028 0 0.044081577119474857 0.2271058242433576 0 0 0.20000000000083221 0 0.038512288486115001 0.1844147282893184 0 0.044081577119474857 0.2271058242433576 0 0.038512288486115001 0.1844147282893184 0 0.083105206071467416 0.20007701332709979 0 0.038512288486115001 0.1844147282893184 0 0 0.15000000000062411 0 0.065374659239632718 0.1448908038746782 0 0.044310582753132287 0.101412518374475 0 0 0.15000000000062411 0 0.065374659239632718 0.1448908038746782 0 0.038512288486115001 0.1844147282893184 0 0.065374659239632718 0.1448908038746782 0 0.083105206071467416 0.20007701332709979 0 0 0.20000000000083221 0 0.038512288486115001 0.1844147282893184 0 0 0.15000000000062411 0 0.065374659239632718 0.1448908038746782 0 0.1053400320299198 0.12877248826361379 0 0.106902708054812 0.16453234188234539 0 0.1053400320299198 0.12877248826361379 0 0.106902708054812 0.16453234188234539 0 0.14332333627550789 0.14578431753966009 0 0.065374659239632718 0.1448908038746782 0 0.106902708054812 0.16453234188234539 0 0.083105206071467416 0.20007701332709979 0 0.083105206071467416 0.20007701332709979 0 0.095326043202144745 0.24554465089224409 0 0.13737030665753211 0.20313708640667491 0 0.106902708054812 0.16453234188234539 0 0.083105206071467416 0.20007701332709979 0 0.13737030665753211 0.20313708640667491 0 0.044081577119474857 0.2271058242433576 0 0.083105206071467416 0.20007701332709979 0 0.095326043202144745 0.24554465089224409 0 0.044081577119474857 0.2271058242433576 0 0.095326043202144745 0.24554465089224409 0 0.049706944316556423 0.27522722923869108 0 0.095326043202144745 0.24554465089224409 0 0.14377654328998779 0.2442024734791064 0 0.13737030665753211 0.20313708640667491 0 0.17933913398461551 0.2350063570234002 0 0.14377654328998779 0.2442024734791064 0 0.13737030665753211 0.20313708640667491 0 0.17933913398461551 0.2350063570234002 0 0.13737030665753211 0.20313708640667491 0 0.18124454140915969 0.18790916706335251 0 0.18124454140915969 0.18790916706335251 0 0.14332333627550789 0.14578431753966009 0 0.18652628422869419 0.14162325200928061 0 0.106902708054812 0.16453234188234539 0 0.13737030665753211 0.20313708640667491 0 0.14332333627550789 0.14578431753966009 0 0.13737030665753211 0.20313708640667491 0 0.18124454140915969 0.18790916706335251 0 0.14332333627550789 0.14578431753966009 0 0.14332333627550789 0.14578431753966009 0 0.18652628422869419 0.14162325200928061 0 0.16141998738593399 0.10404039647458049 0 0.18652628422869419 0.14162325200928061 0 0.22985637510995899 0.1298347970200906 0 0.2185883431182947 0.18019736283949719 0 0.22985637510995899 0.1298347970200906 0 0.2185883431182947 0.18019736283949719 0 0.25557216766470708 0.15874861286892261 0 0.2185883431182947 0.18019736283949719 0 0.25557216766470708 0.15874861286892261 0 0.26429849586623999 0.19346700179430079 0 0.18124454140915969 0.18790916706335251 0 0.18652628422869419 0.14162325200928061 0 0.2185883431182947 0.18019736283949719 0 0.17933913398461551 0.2350063570234002 0 0.18124454140915969 0.18790916706335251 0 0.224700362040408 0.22206622194729711 0 0.18124454140915969 0.18790916706335251 0 0.2185883431182947 0.18019736283949719 0 0.224700362040408 0.22206622194729711 0 0.2185883431182947 0.18019736283949719 0 0.224700362040408 0.22206622194729711 0 0.26429849586623999 0.19346700179430079 0 0.224700362040408 0.22206622194729711 0 0.25195515620380449 0.25883339815888678 0 0.21049769590865089 0.26857363548218488 0 0.17933913398461551 0.2350063570234002 0 0.224700362040408 0.22206622194729711 0 0.21049769590865089 0.26857363548218488 0 0.184418230509967 0.038773194583122873 0 0.14999999999970359 0 0 0.14618258501891079 0.062070108745602003 0 0.184418230509967 0.038773194583122873 0 0.14618258501891079 0.062070108745602003 0 0.19922788606653311 0.085920220746880993 0 0.184418230509967 0.038773194583122873 0 0.14999999999970359 0 0 0.19999999999955789 0 0 0.10266856499169109 0.044518360900210059 0 0.14999999999970359 0 0 0.14618258501891079 0.062070108745602003 0 0.12372429750337779 0.095814237875728972 0 0.14618258501891079 0.062070108745602003 0 0.16141998738593399 0.10404039647458049 0 0.12372429750337779 0.095814237875728972 0 0.14332333627550789 0.14578431753966009 0 0.16141998738593399 0.10404039647458049 0 0.18652628422869419 0.14162325200928061 0 0.16141998738593399 0.10404039647458049 0 0.19922788606653311 0.085920220746880993 0 0.14618258501891079 0.062070108745602003 0 0.16141998738593399 0.10404039647458049 0 0.19922788606653311 0.085920220746880993 0 0.18652628422869419 0.14162325200928061 0 0.22985637510995899 0.1298347970200906 0 0.19922788606653311 0.085920220746880993 0 0.22985637510995899 0.1298347970200906 0 0.19922788606653311 0.085920220746880993 0 0.24218496799700481 0.089025544070598317 0 0.22985637510995899 0.1298347970200906 0 0.24218496799700481 0.089025544070598317 0 0.27474541102162192 0.11822029332053539 0 0.19922788606653311 0.085920220746880993 0 0.24218496799700481 0.089025544070598317 0 0.22668068146512929 0.045875643423131329 0 0.24218496799700481 0.089025544070598317 0 0.22668068146512929 0.045875643423131329 0 0.27499999999933927 0.060310814194988557 0 0.184418230509967 0.038773194583122873 0 0.19922788606653311 0.085920220746880993 0 0.22668068146512929 0.045875643423131329 0 0.184418230509967 0.038773194583122873 0 0.22668068146512929 0.045875643423131329 0 0.19999999999955789 0 0 0.22668068146512929 0.045875643423131329 0 0.19999999999955789 0 0 0.24999999999941211 0 0 0.24999999999941211 0 0 0.27499999999933927 0.060310814194988557 0 0.29999999999926641 0 0 0.22668068146512929 0.045875643423131329 0 0.24999999999941211 0 0 0.27499999999933927 0.060310814194988557 0 0.27499999999933927 0.060310814194988557 0 0.29999999999926641 0 0 0.32541448401678508 0.046215317981507749 0 0.29999999999926641 0 0 0.32541448401678508 0.046215317981507749 0 0.34999999999912063 0 0 0.32541448401678508 0.046215317981507749 0 0.3615861437013822 0.03582617922508851 0 0.35312867752657662 0.084946736076730367 0 0.3615861437013822 0.03582617922508851 0 0.35312867752657662 0.084946736076730367 0 0.39591832466117061 0.056982757562006353 0 0.32541448401678508 0.046215317981507749 0 0.3615861437013822 0.03582617922508851 0 0.34999999999912063 0 0 0.3615861437013822 0.03582617922508851 0 0.34999999999912063 0 0 0.3999999999989749 0 0 0.35312867752657662 0.084946736076730367 0 0.36246644853392812 0.1399454205365751 0 0.39823268594401579 0.1116623613130045 0 0.35312867752657662 0.084946736076730367 0 0.32215584939770009 0.1218492143506909 0 0.36246644853392812 0.1399454205365751 0 0.32541448401678508 0.046215317981507749 0 0.35312867752657662 0.084946736076730367 0 0.3096713403101819 0.085471541595262421 0 0.35312867752657662 0.084946736076730367 0 0.32215584939770009 0.1218492143506909 0 0.3096713403101819 0.085471541595262421 0 0.32215584939770009 0.1218492143506909 0 0.3096713403101819 0.085471541595262421 0 0.27474541102162192 0.11822029332053539 0 0.27499999999933927 0.060310814194988557 0 0.32541448401678508 0.046215317981507749 0 0.3096713403101819 0.085471541595262421 0 0.27499999999933927 0.060310814194988557 0 0.3096713403101819 0.085471541595262421 0 0.27474541102162192 0.11822029332053539 0 0.24218496799700481 0.089025544070598317 0 0.27499999999933927 0.060310814194988557 0 0.27474541102162192 0.11822029332053539 0 0.22985637510995899 0.1298347970200906 0 0.27474541102162192 0.11822029332053539 0 0.25557216766470708 0.15874861286892261 0 0.27474541102162192 0.11822029332053539 0 0.25557216766470708 0.15874861286892261 0 0.29336099386129338 0.15892013001050981 0 0.25557216766470708 0.15874861286892261 0 0.29336099386129338 0.15892013001050981 0 0.26429849586623999 0.19346700179430079 0 0.29336099386129338 0.15892013001050981 0 0.31255190597181792 0.19850845631528771 0 0.33084213324567391 0.16272720141332131 0 0.29336099386129338 0.15892013001050981 0 0.26429849586623999 0.19346700179430079 0 0.31255190597181792 0.19850845631528771 0 0.32215584939770009 0.1218492143506909 0 0.27474541102162192 0.11822029332053539 0 0.29336099386129338 0.15892013001050981 0 0.224700362040408 0.22206622194729711 0 0.28040350263641872 0.23054717217092141 0 0.25195515620380449 0.25883339815888678 0 0.224700362040408 0.22206622194729711 0 0.28040350263641872 0.23054717217092141 0 0.26429849586623999 0.19346700179430079 0 0.28040350263641872 0.23054717217092141 0 0.26429849586623999 0.19346700179430079 0 0.31255190597181792 0.19850845631528771 0 0.28040350263641872 0.23054717217092141 0 0.33758650185219202 0.23837101504325639 0 0.29132859388405002 0.27203693976649962 0 0.28040350263641872 0.23054717217092141 0 0.33758650185219202 0.23837101504325639 0 0.31255190597181792 0.19850845631528771 0 0.33758650185219202 0.23837101504325639 0 0.31255190597181792 0.19850845631528771 0 0.3572130504031617 0.1874703368446563 0 0.33758650185219202 0.23837101504325639 0 0.3572130504031617 0.1874703368446563 0 0.38831533174504851 0.2189834941785925 0 0.33758650185219202 0.23837101504325639 0 0.38831533174504851 0.2189834941785925 0 0.3786248352540974 0.27082301512024259 0 0.32215584939770009 0.1218492143506909 0 0.29336099386129338 0.15892013001050981 0 0.33084213324567391 0.16272720141332131 0 0.32215584939770009 0.1218492143506909 0 0.33084213324567391 0.16272720141332131 0 0.36246644853392812 0.1399454205365751 0 0.31255190597181792 0.19850845631528771 0 0.33084213324567391 0.16272720141332131 0 0.3572130504031617 0.1874703368446563 0 0.3572130504031617 0.1874703368446563 0 0.36246644853392812 0.1399454205365751 0 0.39801143831225599 0.16651381068160659 0 0.33084213324567391 0.16272720141332131 0 0.3572130504031617 0.1874703368446563 0 0.36246644853392812 0.1399454205365751 0 0.36246644853392812 0.1399454205365751 0 0.39801143831225599 0.16651381068160659 0 0.39823268594401579 0.1116623613130045 0 0.39801143831225599 0.16651381068160659 0 0.42905200079338551 0.19982395548231649 0 0.44288491854585582 0.14116182884956319 0 0.39801143831225599 0.16651381068160659 0 0.44288491854585582 0.14116182884956319 0 0.39823268594401579 0.1116623613130045 0 0.38831533174504851 0.2189834941785925 0 0.42377727103934271 0.25099357235810238 0 0.3786248352540974 0.27082301512024259 0 0.3572130504031617 0.1874703368446563 0 0.39801143831225599 0.16651381068160659 0 0.38831533174504851 0.2189834941785925 0 0.39801143831225599 0.16651381068160659 0 0.38831533174504851 0.2189834941785925 0 0.42905200079338551 0.19982395548231649 0 0.38831533174504851 0.2189834941785925 0 0.42905200079338551 0.19982395548231649 0 0.42377727103934271 0.25099357235810238 0 0.42905200079338551 0.19982395548231649 0 0.46429753744194407 0.22870891180733599 0 0.42377727103934271 0.25099357235810238 0 0.42905200079338551 0.19982395548231649 0 0.46429753744194407 0.22870891180733599 0 0.47357141910802508 0.1873585799078378 0 0.47357141910802508 0.1873585799078378 0 0.51729576145820033 0.1683240575987815 0 0.50760557329222289 0.20700468884612061 0 0.46429753744194407 0.22870891180733599 0 0.47357141910802508 0.1873585799078378 0 0.50760557329222289 0.20700468884612061 0 0.46429753744194407 0.22870891180733599 0 0.49695729691142171 0.25014895411178018 0 0.50760557329222289 0.20700468884612061 0 0.44288491854585582 0.14116182884956319 0 0.47357141910802508 0.1873585799078378 0 0.48466639505193998 0.1421439844745814 0 0.42905200079338551 0.19982395548231649 0 0.44288491854585582 0.14116182884956319 0 0.47357141910802508 0.1873585799078378 0 0.47357141910802508 0.1873585799078378 0 0.48466639505193998 0.1421439844745814 0 0.51729576145820033 0.1683240575987815 0 0.44288491854585582 0.14116182884956319 0 0.48466639505193998 0.1421439844745814 0 0.47881186583059909 0.093591717165689425 0 0.48466639505193998 0.1421439844745814 0 0.47881186583059909 0.093591717165689425 0 0.51076801031701946 0.1202837388510348 0 0.44288491854585582 0.14116182884956319 0 0.47881186583059909 0.093591717165689425 0 0.43698630808430822 0.080423614171545449 0 0.47881186583059909 0.093591717165689425 0 0.47040171442036788 0.044141676406503738 0 0.43698630808430822 0.080423614171545449 0 0.47881186583059909 0.093591717165689425 0 0.47040171442036788 0.044141676406503738 0 0.52375890611712683 0.059318771819432882 0 0.47040171442036788 0.044141676406503738 0 0.49999999999869432 0 0 0.52375890611712683 0.059318771819432882 0 0.47040171442036788 0.044141676406503738 0 0.49999999999869432 0 0 0.44999999999882923 0 0 0.47040171442036788 0.044141676406503738 0 0.44999999999882923 0 0 0.4320097814748517 0.037406712692169303 0 0.47040171442036788 0.044141676406503738 0 0.4320097814748517 0.037406712692169303 0 0.43698630808430822 0.080423614171545449 0 0.4320097814748517 0.037406712692169303 0 0.3999999999989749 0 0 0.39591832466117061 0.056982757562006353 0 0.4320097814748517 0.037406712692169303 0 0.39591832466117061 0.056982757562006353 0 0.43698630808430822 0.080423614171545449 0 0.44999999999882923 0 0 0.4320097814748517 0.037406712692169303 0 0.3999999999989749 0 0 0.3615861437013822 0.03582617922508851 0 0.3999999999989749 0 0 0.39591832466117061 0.056982757562006353 0 0.35312867752657662 0.084946736076730367 0 0.39591832466117061 0.056982757562006353 0 0.39823268594401579 0.1116623613130045 0 0.44288491854585582 0.14116182884956319 0 0.39823268594401579 0.1116623613130045 0 0.43698630808430822 0.080423614171545449 0 0.39591832466117061 0.056982757562006353 0 0.39823268594401579 0.1116623613130045 0 0.43698630808430822 0.080423614171545449 0 0.42161023666869668 0.39493916313643851 0 0.38707855792647411 0.42299362914874578 0 0.43249999999999988 0.43937499999999979 0 0.42161023666869668 0.39493916313643851 0 0.38083244760691543 0.38531983672244652 0 0.38707855792647411 0.42299362914874578 0 0.42161023666869668 0.39493916313643851 0 0.38083244760691543 0.38531983672244652 0 0.40076539126862748 0.34589349467022118 0 0.38707855792647411 0.42299362914874578 0 0.3908716102680424 0.47010282357248828 0 0.43249999999999988 0.43937499999999979 0 0.3908716102680424 0.47010282357248828 0 0.43507373378304309 0.49699695397193322 0 0.38244435121258652 0.51653317813019495 0 0.3908716102680424 0.47010282357248828 0 0.43507373378304309 0.49699695397193322 0 0.43249999999999988 0.43937499999999979 0 0.43507373378304309 0.49699695397193322 0 0.43249999999999988 0.43937499999999979 0 0.46111841286828259 0.46690301029591341 0 0.43249999999999988 0.43937499999999979 0 0.46111841286828259 0.46690301029591341 0 0.48858720058566618 0.43964267759203868 0 0.43507373378304309 0.49699695397193322 0 0.46111841286828259 0.46690301029591341 0 0.49102375406324739 0.49123754822244059 0 0.46111841286828259 0.46690301029591341 0 0.49102375406324739 0.49123754822244059 0 0.48858720058566618 0.43964267759203868 0 0.48858720058566618 0.43964267759203868 0 0.46655310992796922 0.39650496622958609 0 0.52289427570932567 0.3932284363388488 0 0.43249999999999988 0.43937499999999979 0 0.48858720058566618 0.43964267759203868 0 0.46655310992796922 0.39650496622958609 0 0.42161023666869668 0.39493916313643851 0 0.43249999999999988 0.43937499999999979 0 0.46655310992796922 0.39650496622958609 0 0.42161023666869668 0.39493916313643851 0 0.46655310992796922 0.39650496622958609 0 0.4409427642593301 0.35743108089689513 0 0.46655310992796922 0.39650496622958609 0 0.49077833859261139 0.35229981449445641 0 0.52289427570932567 0.3932284363388488 0 0.49077833859261139 0.35229981449445641 0 0.46226845272279993 0.31901800744800313 0 0.5 0.29999999999999999 0 0.49077833859261139 0.35229981449445641 0 0.46226845272279993 0.31901800744800313 0 0.4409427642593301 0.35743108089689513 0 0.46226845272279993 0.31901800744800313 0 0.4409427642593301 0.35743108089689513 0 0.41914690343363781 0.30688979866601612 0 0.46655310992796922 0.39650496622958609 0 0.49077833859261139 0.35229981449445641 0 0.4409427642593301 0.35743108089689513 0 0.49695729691142171 0.25014895411178018 0 0.4604742573284204 0.27846934318264788 0 0.5 0.29999999999999999 0 0.46429753744194407 0.22870891180733599 0 0.49695729691142171 0.25014895411178018 0 0.4604742573284204 0.27846934318264788 0 0.46226845272279993 0.31901800744800313 0 0.4604742573284204 0.27846934318264788 0 0.5 0.29999999999999999 0 0.46226845272279993 0.31901800744800313 0 0.4604742573284204 0.27846934318264788 0 0.41914690343363781 0.30688979866601612 0 0.46429753744194407 0.22870891180733599 0 0.4604742573284204 0.27846934318264788 0 0.42377727103934271 0.25099357235810238 0 0.4604742573284204 0.27846934318264788 0 0.42377727103934271 0.25099357235810238 0 0.41914690343363781 0.30688979866601612 0 0.42377727103934271 0.25099357235810238 0 0.41914690343363781 0.30688979866601612 0 0.3786248352540974 0.27082301512024259 0 0.41914690343363781 0.30688979866601612 0 0.3786248352540974 0.27082301512024259 0 0.36575549820117997 0.31677992835137742 0 0.42161023666869668 0.39493916313643851 0 0.4409427642593301 0.35743108089689513 0 0.40076539126862748 0.34589349467022118 0 0.4409427642593301 0.35743108089689513 0 0.41914690343363781 0.30688979866601612 0 0.40076539126862748 0.34589349467022118 0 0.41914690343363781 0.30688979866601612 0 0.40076539126862748 0.34589349467022118 0 0.36575549820117997 0.31677992835137742 0 0.40076539126862748 0.34589349467022118 0 0.36575549820117997 0.31677992835137742 0 0.33277555741076909 0.36432196682010132 0 0.38083244760691543 0.38531983672244652 0 0.40076539126862748 0.34589349467022118 0 0.33277555741076909 0.36432196682010132 0 0.36575549820117997 0.31677992835137742 0 0.32752639306529541 0.32610012995269699 0 0.33277555741076909 0.36432196682010132 0 0.32752639306529541 0.32610012995269699 0 0.33277555741076909 0.36432196682010132 0 0.29644548887253103 0.34914008784168082 0 0.33758650185219202 0.23837101504325639 0 0.3786248352540974 0.27082301512024259 0 0.33402499257867951 0.28911035184473982 0 0.3786248352540974 0.27082301512024259 0 0.36575549820117997 0.31677992835137742 0 0.33402499257867951 0.28911035184473982 0 0.36575549820117997 0.31677992835137742 0 0.32752639306529541 0.32610012995269699 0 0.33402499257867951 0.28911035184473982 0 0.32752639306529541 0.32610012995269699 0 0.33402499257867951 0.28911035184473982 0 0.29348325746214782 0.31350119524708198 0 0.33758650185219202 0.23837101504325639 0 0.33402499257867951 0.28911035184473982 0 0.29132859388405002 0.27203693976649962 0 0.33402499257867951 0.28911035184473982 0 0.29132859388405002 0.27203693976649962 0 0.29348325746214782 0.31350119524708198 0 0.29132859388405002 0.27203693976649962 0 0.29348325746214782 0.31350119524708198 0 0.24432083401701241 0.3006253385567515 0 0.29132859388405002 0.27203693976649962 0 0.25195515620380449 0.25883339815888678 0 0.24432083401701241 0.3006253385567515 0 0.28040350263641872 0.23054717217092141 0 0.29132859388405002 0.27203693976649962 0 0.25195515620380449 0.25883339815888678 0 0.33277555741076909 0.36432196682010132 0 0.29644548887253103 0.34914008784168082 0 0.27866744612395528 0.38416094670951489 0 0.32752639306529541 0.32610012995269699 0 0.29644548887253103 0.34914008784168082 0 0.29348325746214782 0.31350119524708198 0 0.29644548887253103 0.34914008784168082 0 0.29348325746214782 0.31350119524708198 0 0.25966125648670141 0.34351016742083729 0 0.29348325746214782 0.31350119524708198 0 0.25966125648670141 0.34351016742083729 0 0.24432083401701241 0.3006253385567515 0 0.29644548887253103 0.34914008784168082 0 0.25966125648670141 0.34351016742083729 0 0.27866744612395528 0.38416094670951489 0 0.25966125648670141 0.34351016742083729 0 0.27866744612395528 0.38416094670951489 0 0.22033343844674469 0.36963382230740238 0 0.27866744612395528 0.38416094670951489 0 0.29124338931648802 0.43334555462578611 0 0.24049127783545701 0.41270748208749802 0 0.29124338931648802 0.43334555462578611 0 0.25982634974572738 0.46097799597715272 0 0.24049127783545701 0.41270748208749802 0 0.27866744612395528 0.38416094670951489 0 0.29124338931648802 0.43334555462578611 0 0.31778888742534622 0.40581751814196781 0 0.33277555741076909 0.36432196682010132 0 0.27866744612395528 0.38416094670951489 0 0.31778888742534622 0.40581751814196781 0 0.33277555741076909 0.36432196682010132 0 0.31778888742534622 0.40581751814196781 0 0.35221190152536241 0.40457127605439203 0 0.31778888742534622 0.40581751814196781 0 0.35221190152536241 0.40457127605439203 0 0.34258405725730701 0.4444034294386992 0 0.29124338931648802 0.43334555462578611 0 0.31778888742534622 0.40581751814196781 0 0.34258405725730701 0.4444034294386992 0 0.38707855792647411 0.42299362914874578 0 0.35221190152536241 0.40457127605439203 0 0.34258405725730701 0.4444034294386992 0 0.38083244760691543 0.38531983672244652 0 0.38707855792647411 0.42299362914874578 0 0.35221190152536241 0.40457127605439203 0 0.38083244760691543 0.38531983672244652 0 0.33277555741076909 0.36432196682010132 0 0.35221190152536241 0.40457127605439203 0 0.3908716102680424 0.47010282357248828 0 0.35024835142131061 0.48654922671676981 0 0.38244435121258652 0.51653317813019495 0 0.3908716102680424 0.47010282357248828 0 0.35024835142131061 0.48654922671676981 0 0.34258405725730701 0.4444034294386992 0 0.38707855792647411 0.42299362914874578 0 0.3908716102680424 0.47010282357248828 0 0.34258405725730701 0.4444034294386992 0 0.29124338931648802 0.43334555462578611 0 0.34258405725730701 0.4444034294386992 0 0.31068898841644388 0.47541502461811092 0 0.35024835142131061 0.48654922671676981 0 0.31068898841644388 0.47541502461811092 0 0.33190227185843768 0.52715113583864037 0 0.35024835142131061 0.48654922671676981 0 0.34258405725730701 0.4444034294386992 0 0.31068898841644388 0.47541502461811092 0 0.31068898841644388 0.47541502461811092 0 0.25982634974572738 0.46097799597715272 0 0.28307294598219601 0.50789252727458634 0 0.29124338931648802 0.43334555462578611 0 0.31068898841644388 0.47541502461811092 0 0.25982634974572738 0.46097799597715272 0 0.25982634974572738 0.46097799597715272 0 0.23975172658309729 0.49475499200540818 0 0.28307294598219601 0.50789252727458634 0 0.23975172658309729 0.49475499200540818 0 0.19604738184454831 0.47787523520405789 0 0.22278230690790279 0.44824268025881547 0 0.19604738184454831 0.47787523520405789 0 0.22278230690790279 0.44824268025881547 0 0.191953871957803 0.42546416763755879 0 0.25982634974572738 0.46097799597715272 0 0.22278230690790279 0.44824268025881547 0 0.24049127783545701 0.41270748208749802 0 0.25982634974572738 0.46097799597715272 0 0.23975172658309729 0.49475499200540818 0 0.22278230690790279 0.44824268025881547 0 0.27866744612395528 0.38416094670951489 0 0.24049127783545701 0.41270748208749802 0 0.22033343844674469 0.36963382230740238 0 0.191953871957803 0.42546416763755879 0 0.1650278706801647 0.38791388161335733 0 0.22033343844674469 0.36963382230740238 0 0.24049127783545701 0.41270748208749802 0 0.191953871957803 0.42546416763755879 0 0.22033343844674469 0.36963382230740238 0 0.22278230690790279 0.44824268025881547 0 0.24049127783545701 0.41270748208749802 0 0.191953871957803 0.42546416763755879 0 0.191953871957803 0.42546416763755879 0 0.13773355295499351 0.42497777642586831 0 0.15801167086041079 0.46008690540259539 0 0.191953871957803 0.42546416763755879 0 0.1650278706801647 0.38791388161335733 0 0.13773355295499351 0.42497777642586831 0 0.1650278706801647 0.38791388161335733 0 0.13773355295499351 0.42497777642586831 0 0.1117088112799664 0.38831403004970022 0 0.13773355295499351 0.42497777642586831 0 0.15801167086041079 0.46008690540259539 0 0.113541300460994 0.46208784312094731 0 0.15801167086041079 0.46008690540259539 0 0.113541300460994 0.46208784312094731 0 0.1216098864341134 0.50637075089503902 0 0.15801167086041079 0.46008690540259539 0 0.1216098864341134 0.50637075089503902 0 0.16618607197337229 0.50652878253548905 0 0.19604738184454831 0.47787523520405789 0 0.15801167086041079 0.46008690540259539 0 0.16618607197337229 0.50652878253548905 0 0.19604738184454831 0.47787523520405789 0 0.191953871957803 0.42546416763755879 0 0.15801167086041079 0.46008690540259539 0 0.25195515620380449 0.25883339815888678 0 0.21049769590865089 0.26857363548218488 0 0.24432083401701241 0.3006253385567515 0 0.21049769590865089 0.26857363548218488 0 0.24432083401701241 0.3006253385567515 0 0.19670163708476801 0.31472518408333222 0 0.21049769590865089 0.26857363548218488 0 0.19670163708476801 0.31472518408333222 0 0.168349569971391 0.28054490850913671 0 0.19670163708476801 0.31472518408333222 0 0.22615676742807109 0.33458786033114157 0 0.18434624290945251 0.35208838264196463 0 0.24432083401701241 0.3006253385567515 0 0.19670163708476801 0.31472518408333222 0 0.22615676742807109 0.33458786033114157 0 0.25966125648670141 0.34351016742083729 0 0.24432083401701241 0.3006253385567515 0 0.22615676742807109 0.33458786033114157 0 0.25966125648670141 0.34351016742083729 0 0.22615676742807109 0.33458786033114157 0 0.22033343844674469 0.36963382230740238 0 0.22615676742807109 0.33458786033114157 0 0.22033343844674469 0.36963382230740238 0 0.18434624290945251 0.35208838264196463 0 0.1650278706801647 0.38791388161335733 0 0.22033343844674469 0.36963382230740238 0 0.18434624290945251 0.35208838264196463 0 0.1650278706801647 0.38791388161335733 0 0.18434624290945251 0.35208838264196463 0 0.14223753364722069 0.3341983344262433 0 0.1650278706801647 0.38791388161335733 0 0.14223753364722069 0.3341983344262433 0 0.1117088112799664 0.38831403004970022 0 0.19670163708476801 0.31472518408333222 0 0.18434624290945251 0.35208838264196463 0 0.14223753364722069 0.3341983344262433 0 0.19670163708476801 0.31472518408333222 0 0.14223753364722069 0.3341983344262433 0 0.168349569971391 0.28054490850913671 0 0.14223753364722069 0.3341983344262433 0 0.168349569971391 0.28054490850913671 0 0.1247745017231483 0.27198077544791172 0 0.14377654328998779 0.2442024734791064 0 0.168349569971391 0.28054490850913671 0 0.1247745017231483 0.27198077544791172 0 0.17933913398461551 0.2350063570234002 0 0.21049769590865089 0.26857363548218488 0 0.168349569971391 0.28054490850913671 0 0.17933913398461551 0.2350063570234002 0 0.14377654328998779 0.2442024734791064 0 0.168349569971391 0.28054490850913671 0 0.095326043202144745 0.24554465089224409 0 0.093851963071650835 0.30582068233324772 0 0.049706944316556423 0.27522722923869108 0 0.095326043202144745 0.24554465089224409 0 0.14377654328998779 0.2442024734791064 0 0.1247745017231483 0.27198077544791172 0 0.095326043202144745 0.24554465089224409 0 0.1247745017231483 0.27198077544791172 0 0.093851963071650835 0.30582068233324772 0 0.14223753364722069 0.3341983344262433 0 0.1247745017231483 0.27198077544791172 0 0.093851963071650835 0.30582068233324772 0 0.093851963071650835 0.30582068233324772 0 0.046389130980076937 0.32668781832131749 0 0.049706944316556423 0.27522722923869108 0 0.093851963071650835 0.30582068233324772 0 0.087545339447545459 0.35122518864182262 0 0.046389130980076937 0.32668781832131749 0 0.14223753364722069 0.3341983344262433 0 0.093851963071650835 0.30582068233324772 0 0.087545339447545459 0.35122518864182262 0 0.14223753364722069 0.3341983344262433 0 0.087545339447545459 0.35122518864182262 0 0.1117088112799664 0.38831403004970022 0 0.087545339447545459 0.35122518864182262 0 0.1117088112799664 0.38831403004970022 0 0.050583896093752537 0.38543522283434112 0 0.087545339447545459 0.35122518864182262 0 0.046389130980076937 0.32668781832131749 0 0.050583896093752537 0.38543522283434112 0 0 0.35000000000145642 0 0.046389130980076937 0.32668781832131749 0 0.050583896093752537 0.38543522283434112 0 0 0.35000000000145642 0 0.046389130980076937 0.32668781832131749 0 0 0.30000000000124832 0 0.046389130980076937 0.32668781832131749 0 0 0.30000000000124832 0 0.049706944316556423 0.27522722923869108 0 0 0.30000000000124832 0 0 0.25000000000104028 0 0.049706944316556423 0.27522722923869108 0 0.044081577119474857 0.2271058242433576 0 0 0.25000000000104028 0 0.049706944316556423 0.27522722923869108 0 0.068743045408989428 0.48853989837882689 0 0.113541300460994 0.46208784312094731 0 0.078358742472063481 0.43365249433908948 0 0.068743045408989428 0.48853989837882689 0 0.113541300460994 0.46208784312094731 0 0.1216098864341134 0.50637075089503902 0 0.13773355295499351 0.42497777642586831 0 0.113541300460994 0.46208784312094731 0 0.078358742472063481 0.43365249433908948 0 0.13773355295499351 0.42497777642586831 0 0.1117088112799664 0.38831403004970022 0 0.078358742472063481 0.43365249433908948 0 0.1117088112799664 0.38831403004970022 0 0.078358742472063481 0.43365249433908948 0 0.050583896093752537 0.38543522283434112 0 0.078358742472063481 0.43365249433908948 0 0.035463093262830522 0.42673416072819947 0 0.050583896093752537 0.38543522283434112 0 0 0.35000000000145642 0 0.050583896093752537 0.38543522283434112 0 0 0.40000000000166441 0 0.035463093262830522 0.42673416072819947 0 0.050583896093752537 0.38543522283434112 0 0 0.40000000000166441 0 0.035463093262830522 0.42673416072819947 0 0 0.40000000000166441 0 0 0.45000000000187229 0 0.035463093262830522 0.42673416072819947 0 0 0.45000000000187229 0 0.033550201249889847 0.46247875832467239 0 0.068743045408989428 0.48853989837882689 0 0.033550201249889847 0.46247875832467239 0 0 0.50000000000205869 0 0.068743045408989428 0.48853989837882689 0 0.078358742472063481 0.43365249433908948 0 0.033550201249889847 0.46247875832467239 0 0.078358742472063481 0.43365249433908948 0 0.035463093262830522 0.42673416072819947 0 0.033550201249889847 0.46247875832467239 0 0 0.45000000000187229 0 0.033550201249889847 0.46247875832467239 0 0 0.50000000000205869 0 0.068743045408989428 0.48853989837882689 0 0 0.50000000000205869 0 0.044576108720083309 0.53509043209532614 0 0 0.50000000000205869 0 0 0.55000000000173355 0 0.044576108720083309 0.53509043209532614 0 0 0.55000000000173355 0 0.044576108720083309 0.53509043209532614 0 0.034381862692950467 0.57372682250960894 0 0.044576108720083309 0.53509043209532614 0 0.077693244765132896 0.56932317963405099 0 0.034381862692950467 0.57372682250960894 0 0.068743045408989428 0.48853989837882689 0 0.044576108720083309 0.53509043209532614 0 0.085622222639554768 0.53333248912060549 0 0.068743045408989428 0.48853989837882689 0 0.085622222639554768 0.53333248912060549 0 0.1216098864341134 0.50637075089503902 0 0.044576108720083309 0.53509043209532614 0 0.085622222639554768 0.53333248912060549 0 0.077693244765132896 0.56932317963405099 0 0.085622222639554768 0.53333248912060549 0 0.1154888278694548 0.56733818459978413 0 0.077693244765132896 0.56932317963405099 0 0.085622222639554768 0.53333248912060549 0 0.1216098864341134 0.50637075089503902 0 0.1154888278694548 0.56733818459978413 0 0.1024350934457823 0.60772393977513839 0 0.1154888278694548 0.56733818459978413 0 0.077693244765132896 0.56932317963405099 0 0.1024350934457823 0.60772393977513839 0 0.050069554451969707 0.61308520079857043 0 0.086179601630648681 0.64647209519980475 0 0.1024350934457823 0.60772393977513839 0 0.077693244765132896 0.56932317963405099 0 0.050069554451969707 0.61308520079857043 0 0.077693244765132896 0.56932317963405099 0 0.050069554451969707 0.61308520079857043 0 0.034381862692950467 0.57372682250960894 0 0 0.55000000000173355 0 0.034381862692950467 0.57372682250960894 0 0 0.60000000000138687 0 0.050069554451969707 0.61308520079857043 0 0 0.60000000000138687 0 0 0.65000000000104008 0 0.050069554451969707 0.61308520079857043 0 0.034381862692950467 0.57372682250960894 0 0 0.60000000000138687 0 0 0.65000000000104008 0 0.046634677244967337 0.671418230738282 0 0 0.7000000000006934 0 0.050069554451969707 0.61308520079857043 0 0.046634677244967337 0.671418230738282 0 0.086179601630648681 0.64647209519980475 0 0.050069554451969707 0.61308520079857043 0 0 0.65000000000104008 0 0.046634677244967337 0.671418230738282 0 0 0.7000000000006934 0 0.049706944316475897 0.72477277076253799 0 0 0.75000000000034661 0 0.046634677244967337 0.671418230738282 0 0 0.7000000000006934 0 0.049706944316475897 0.72477277076253799 0 0.049706944316475897 0.72477277076253799 0 0 0.75000000000034661 0 0.04408157711937423 0.7728941757575627 0 0.049706944316475897 0.72477277076253799 0 0.1020579365089687 0.69352219419301997 0 0.090953281884486245 0.7564451946902494 0 0.1020579365089687 0.69352219419301997 0 0.1215415378367805 0.72939333680004137 0 0.090953281884486245 0.7564451946902494 0 0.046634677244967337 0.671418230738282 0 0.049706944316475897 0.72477277076253799 0 0.1020579365089687 0.69352219419301997 0 0.1215415378367805 0.72939333680004137 0 0.090953281884486245 0.7564451946902494 0 0.14335651144331049 0.75565258250209677 0 0.046634677244967337 0.671418230738282 0 0.1020579365089687 0.69352219419301997 0 0.086179601630648681 0.64647209519980475 0 0.1020579365089687 0.69352219419301997 0 0.086179601630648681 0.64647209519980475 0 0.1241190223511371 0.64391885572885044 0 0.1024350934457823 0.60772393977513839 0 0.086179601630648681 0.64647209519980475 0 0.1241190223511371 0.64391885572885044 0 0.1020579365089687 0.69352219419301997 0 0.1241190223511371 0.64391885572885044 0 0.16500388252850301 0.66612077714085194 0 0.1241190223511371 0.64391885572885044 0 0.16500388252850301 0.66612077714085194 0 0.15720202157091859 0.60665697304410315 0 0.16500388252850301 0.66612077714085194 0 0.19914261668318661 0.62286739485272158 0 0.15720202157091859 0.60665697304410315 0 0.1020579365089687 0.69352219419301997 0 0.16500388252850301 0.66612077714085194 0 0.15332765547575641 0.71200081858233666 0 0.1215415378367805 0.72939333680004137 0 0.15332765547575641 0.71200081858233666 0 0.14335651144331049 0.75565258250209677 0 0.1020579365089687 0.69352219419301997 0 0.1215415378367805 0.72939333680004137 0 0.15332765547575641 0.71200081858233666 0 0.16500388252850301 0.66612077714085194 0 0.15332765547575641 0.71200081858233666 0 0.19068556247388771 0.71028988922845504 0 0.15332765547575641 0.71200081858233666 0 0.14335651144331049 0.75565258250209677 0 0.18269480424590959 0.75905448272264375 0 0.15332765547575641 0.71200081858233666 0 0.19068556247388771 0.71028988922845504 0 0.18269480424590959 0.75905448272264375 0 0.19068556247388771 0.71028988922845504 0 0.2248999640082178 0.72584299459689172 0 0.18269480424590959 0.75905448272264375 0 0.19068556247388771 0.71028988922845504 0 0.2248999640082178 0.72584299459689172 0 0.2236846579037573 0.67380363126050236 0 0.2248999640082178 0.72584299459689172 0 0.2236846579037573 0.67380363126050236 0 0.26439878998046262 0.7048065392091396 0 0.2248999640082178 0.72584299459689172 0 0.22556077506376701 0.77837424984191617 0 0.25676291524611189 0.7436741304886243 0 0.2248999640082178 0.72584299459689172 0 0.25676291524611189 0.7436741304886243 0 0.26439878998046262 0.7048065392091396 0 0.16500388252850301 0.66612077714085194 0 0.2236846579037573 0.67380363126050236 0 0.19914261668318661 0.62286739485272158 0 0.16500388252850301 0.66612077714085194 0 0.19068556247388771 0.71028988922845504 0 0.2236846579037573 0.67380363126050236 0 0.2236846579037573 0.67380363126050236 0 0.2459498854893499 0.63248470766216769 0 0.19914261668318661 0.62286739485272158 0 0.2236846579037573 0.67380363126050236 0 0.2459498854893499 0.63248470766216769 0 0.27820712747429932 0.65530134213254643 0 0.2459498854893499 0.63248470766216769 0 0.19914261668318661 0.62286739485272158 0 0.22549374774072969 0.58452645269293457 0 0.2459498854893499 0.63248470766216769 0 0.22549374774072969 0.58452645269293457 0 0.26573297623774761 0.59828298563722948 0 0.19914261668318661 0.62286739485272158 0 0.22549374774072969 0.58452645269293457 0 0.18381867841758909 0.57774125163628387 0 0.22549374774072969 0.58452645269293457 0 0.20050006573841939 0.53248514016039872 0 0.18381867841758909 0.57774125163628387 0 0.22549374774072969 0.58452645269293457 0 0.25115337790845271 0.54719303014923271 0 0.26573297623774761 0.59828298563722948 0 0.22549374774072969 0.58452645269293457 0 0.20050006573841939 0.53248514016039872 0 0.25115337790845271 0.54719303014923271 0 0.23975172658309729 0.49475499200540818 0 0.20050006573841939 0.53248514016039872 0 0.25115337790845271 0.54719303014923271 0 0.19604738184454831 0.47787523520405789 0 0.20050006573841939 0.53248514016039872 0 0.16618607197337229 0.50652878253548905 0 0.23975172658309729 0.49475499200540818 0 0.19604738184454831 0.47787523520405789 0 0.20050006573841939 0.53248514016039872 0 0.20050006573841939 0.53248514016039872 0 0.14934928745814749 0.55042914607228977 0 0.18381867841758909 0.57774125163628387 0 0.20050006573841939 0.53248514016039872 0 0.16618607197337229 0.50652878253548905 0 0.14934928745814749 0.55042914607228977 0 0.1216098864341134 0.50637075089503902 0 0.16618607197337229 0.50652878253548905 0 0.14934928745814749 0.55042914607228977 0 0.1216098864341134 0.50637075089503902 0 0.1154888278694548 0.56733818459978413 0 0.14934928745814749 0.55042914607228977 0 0.1154888278694548 0.56733818459978413 0 0.14934928745814749 0.55042914607228977 0 0.15720202157091859 0.60665697304410315 0 0.1024350934457823 0.60772393977513839 0 0.1154888278694548 0.56733818459978413 0 0.15720202157091859 0.60665697304410315 0 0.1024350934457823 0.60772393977513839 0 0.1241190223511371 0.64391885572885044 0 0.15720202157091859 0.60665697304410315 0 0.19914261668318661 0.62286739485272158 0 0.15720202157091859 0.60665697304410315 0 0.18381867841758909 0.57774125163628387 0 0.14934928745814749 0.55042914607228977 0 0.15720202157091859 0.60665697304410315 0 0.18381867841758909 0.57774125163628387 0 0.10000000000041601 1 0 0.10266856499240549 0.95548163909968886 0 0.15000000000062411 1 0 0.10266856499240549 0.95548163909968886 0 0.053064897599294662 0.95186845269532028 0 0.083411279318375747 0.91030024466934134 0 0.10000000000041601 1 0 0.050000000000207989 1 0 0.053064897599294662 0.95186845269532028 0 0.10000000000041601 1 0 0.10266856499240549 0.95548163909968886 0 0.053064897599294662 0.95186845269532028 0 0.050000000000207989 1 0 0.025766224399875661 0.97546711317377799 0 0.053064897599294662 0.95186845269532028 0 0.050000000000207989 1 0 0 1 0 0.025766224399875661 0.97546711317377799 0 0 1 0 0.025766224399875661 0.97546711317377799 0 0 0.94999999999979179 0 0.025766224399875661 0.97546711317377799 0 0 0.94999999999979179 0 0.053064897599294662 0.95186845269532028 0 0 0.94999999999979179 0 0.053064897599294662 0.95186845269532028 0 0.0443105827531413 0.89858748162559932 0 0.053064897599294662 0.95186845269532028 0 0.0443105827531413 0.89858748162559932 0 0.083411279318375747 0.91030024466934134 0 0 0.94999999999979179 0 0 0.89999999999958358 0 0.0443105827531413 0.89858748162559932 0 0 0.89999999999958358 0 0.0443105827531413 0.89858748162559932 0 0 0.84999999999965292 0 0.0443105827531413 0.89858748162559932 0 0.083411279318375747 0.91030024466934134 0 0.065374659239661639 0.8551091961254178 0 0.083411279318375747 0.91030024466934134 0 0.10562472963403439 0.87143394428979881 0 0.065374659239661639 0.8551091961254178 0 0.10266856499240549 0.95548163909968886 0 0.083411279318375747 0.91030024466934134 0 0.1241151115713819 0.9045666525468371 0 0.10266856499240549 0.95548163909968886 0 0.1241151115713819 0.9045666525468371 0 0.14617343800780541 0.93808063414349496 0 0.1241151115713819 0.9045666525468371 0 0.10562472963403439 0.87143394428979881 0 0.14474682429600511 0.85524784522713515 0 0.083411279318375747 0.91030024466934134 0 0.1241151115713819 0.9045666525468371 0 0.10562472963403439 0.87143394428979881 0 0.10562472963403439 0.87143394428979881 0 0.1074251789111534 0.83564394292147814 0 0.14474682429600511 0.85524784522713515 0 0.1074251789111534 0.83564394292147814 0 0.065374659239661639 0.8551091961254178 0 0.083105206071452636 0.79992298667296435 0 0.10562472963403439 0.87143394428979881 0 0.1074251789111534 0.83564394292147814 0 0.065374659239661639 0.8551091961254178 0 0.065374659239661639 0.8551091961254178 0 0 0.84999999999965292 0 0.038512288486097702 0.8155852717111195 0 0.0443105827531413 0.89858748162559932 0 0.065374659239661639 0.8551091961254178 0 0 0.84999999999965292 0 0 0.84999999999965292 0 0.038512288486097702 0.8155852717111195 0 0 0.79999999999999982 0 0.065374659239661639 0.8551091961254178 0 0.038512288486097702 0.8155852717111195 0 0.083105206071452636 0.79992298667296435 0 0.038512288486097702 0.8155852717111195 0 0.04408157711937423 0.7728941757575627 0 0.083105206071452636 0.79992298667296435 0 0.038512288486097702 0.8155852717111195 0 0 0.79999999999999982 0 0.04408157711937423 0.7728941757575627 0 0 0.79999999999999982 0 0 0.75000000000034661 0 0.04408157711937423 0.7728941757575627 0 0.049706944316475897 0.72477277076253799 0 0.04408157711937423 0.7728941757575627 0 0.090953281884486245 0.7564451946902494 0 0.04408157711937423 0.7728941757575627 0 0.090953281884486245 0.7564451946902494 0 0.083105206071452636 0.79992298667296435 0 0.1074251789111534 0.83564394292147814 0 0.083105206071452636 0.79992298667296435 0 0.1382744753146134 0.79650574229207483 0 0.090953281884486245 0.7564451946902494 0 0.083105206071452636 0.79992298667296435 0 0.1382744753146134 0.79650574229207483 0 0.090953281884486245 0.7564451946902494 0 0.14335651144331049 0.75565258250209677 0 0.1382744753146134 0.79650574229207483 0 0.14335651144331049 0.75565258250209677 0 0.1382744753146134 0.79650574229207483 0 0.18269480424590959 0.75905448272264375 0 0.1382744753146134 0.79650574229207483 0 0.18269480424590959 0.75905448272264375 0 0.17777405986036951 0.81832336108265358 0 0.2248999640082178 0.72584299459689172 0 0.18269480424590959 0.75905448272264375 0 0.22556077506376701 0.77837424984191617 0 0.22556077506376701 0.77837424984191617 0 0.21858834311891909 0.81980263716112767 0 0.26104540868854792 0.81401944968719064 0 0.22556077506376701 0.77837424984191617 0 0.21858834311891909 0.81980263716112767 0 0.17777405986036951 0.81832336108265358 0 0.18269480424590959 0.75905448272264375 0 0.22556077506376701 0.77837424984191617 0 0.17777405986036951 0.81832336108265358 0 0.21858834311891909 0.81980263716112767 0 0.19741632902693801 0.86755867406447229 0 0.17777405986036951 0.81832336108265358 0 0.21858834311891909 0.81980263716112767 0 0.2401283238295133 0.85648409884788523 0 0.26104540868854792 0.81401944968719064 0 0.21858834311891909 0.81980263716112767 0 0.2401283238295133 0.85648409884788523 0 0.19741632902693801 0.86755867406447229 0 0.19741632902693801 0.86755867406447229 0 0.17777405986036951 0.81832336108265358 0 0.14474682429600511 0.85524784522713515 0 0.19741632902693801 0.86755867406447229 0 0.14474682429600511 0.85524784522713515 0 0.16206583317966519 0.89685560785156404 0 0.1382744753146134 0.79650574229207483 0 0.17777405986036951 0.81832336108265358 0 0.14474682429600511 0.85524784522713515 0 0.1074251789111534 0.83564394292147814 0 0.1382744753146134 0.79650574229207483 0 0.14474682429600511 0.85524784522713515 0 0.1241151115713819 0.9045666525468371 0 0.14474682429600511 0.85524784522713515 0 0.16206583317966519 0.89685560785156404 0 0.1241151115713819 0.9045666525468371 0 0.16206583317966519 0.89685560785156404 0 0.14617343800780541 0.93808063414349496 0 0.16206583317966519 0.89685560785156404 0 0.19901705110390991 0.9175543425573498 0 0.14617343800780541 0.93808063414349496 0 0.19741632902693801 0.86755867406447229 0 0.16206583317966519 0.89685560785156404 0 0.19901705110390991 0.9175543425573498 0 0.19741632902693801 0.86755867406447229 0 0.24536017905392571 0.90704567837671446 0 0.19901705110390991 0.9175543425573498 0 0.2401283238295133 0.85648409884788523 0 0.19741632902693801 0.86755867406447229 0 0.24536017905392571 0.90704567837671446 0 0.24536017905392571 0.90704567837671446 0 0.19901705110390991 0.9175543425573498 0 0.22850979588452081 0.95594428570238643 0 0.19901705110390991 0.9175543425573498 0 0.22850979588452081 0.95594428570238643 0 0.18474005699953849 0.96231585248064622 0 0.24536017905392571 0.90704567837671446 0 0.22850979588452081 0.95594428570238643 0 0.27609987656793722 0.94991445621608572 0 0.22850979588452081 0.95594428570238643 0 0.20000000000083221 1 0 0.25000000000104028 1 0 0.22850979588452081 0.95594428570238643 0 0.20000000000083221 1 0 0.18474005699953849 0.96231585248064622 0 0.20000000000083221 1 0 0.18474005699953849 0.96231585248064622 0 0.15000000000062411 1 0 0.19901705110390991 0.9175543425573498 0 0.18474005699953849 0.96231585248064622 0 0.14617343800780541 0.93808063414349496 0 0.18474005699953849 0.96231585248064622 0 0.14617343800780541 0.93808063414349496 0 0.15000000000062411 1 0 0.10266856499240549 0.95548163909968886 0 0.14617343800780541 0.93808063414349496 0 0.15000000000062411 1 0 0.35000000000145642 1 0 0.36184234618600131 0.96443954459096326 0 0.32544832635163229 0.95485394099568932 0 0.35000000000145642 1 0 0.36184234618600131 0.96443954459096326 0 0.40000000000166441 1 0 0.36184234618600131 0.96443954459096326 0 0.32544832635163229 0.95485394099568932 0 0.35752321586431363 0.9185439911803448 0 0.36184234618600131 0.96443954459096326 0 0.35752321586431363 0.9185439911803448 0 0.39641108128798319 0.94356127926187128 0 0.35000000000145642 1 0 0.32544832635163229 0.95485394099568932 0 0.30000000000124832 1 0 0.30000000000124832 1 0 0.25000000000104028 1 0 0.27609987656793722 0.94991445621608572 0 0.22850979588452081 0.95594428570238643 0 0.25000000000104028 1 0 0.27609987656793722 0.94991445621608572 0 0.32544832635163229 0.95485394099568932 0 0.30000000000124832 1 0 0.27609987656793722 0.94991445621608572 0 0.32544832635163229 0.95485394099568932 0 0.27609987656793722 0.94991445621608572 0 0.30864387279288652 0.89906554525974958 0 0.24536017905392571 0.90704567837671446 0 0.27270076654418179 0.87751467830216623 0 0.30864387279288652 0.89906554525974958 0 0.24536017905392571 0.90704567837671446 0 0.27609987656793722 0.94991445621608572 0 0.30864387279288652 0.89906554525974958 0 0.2401283238295133 0.85648409884788523 0 0.24536017905392571 0.90704567837671446 0 0.27270076654418179 0.87751467830216623 0 0.30864387279288652 0.89906554525974958 0 0.35752321586431363 0.9185439911803448 0 0.35864759629805099 0.87963482415279515 0 0.32544832635163229 0.95485394099568932 0 0.30864387279288652 0.89906554525974958 0 0.35752321586431363 0.9185439911803448 0 0.35752321586431363 0.9185439911803448 0 0.35864759629805099 0.87963482415279515 0 0.39767323751400468 0.89584229130535065 0 0.35864759629805099 0.87963482415279515 0 0.33403534827021109 0.84402799729020661 0 0.39536230704883951 0.84069429572832477 0 0.33403534827021109 0.84402799729020661 0 0.35642984951668422 0.80994399665655703 0 0.39536230704883951 0.84069429572832477 0 0.33403534827021109 0.84402799729020661 0 0.30857225866488791 0.81101973481716805 0 0.35642984951668422 0.80994399665655703 0 0.30864387279288652 0.89906554525974958 0 0.35864759629805099 0.87963482415279515 0 0.33403534827021109 0.84402799729020661 0 0.30864387279288652 0.89906554525974958 0 0.33403534827021109 0.84402799729020661 0 0.29209212897034281 0.84715728365233667 0 0.27270076654418179 0.87751467830216623 0 0.30864387279288652 0.89906554525974958 0 0.29209212897034281 0.84715728365233667 0 0.2401283238295133 0.85648409884788523 0 0.27270076654418179 0.87751467830216623 0 0.29209212897034281 0.84715728365233667 0 0.2401283238295133 0.85648409884788523 0 0.29209212897034281 0.84715728365233667 0 0.26104540868854792 0.81401944968719064 0 0.29209212897034281 0.84715728365233667 0 0.26104540868854792 0.81401944968719064 0 0.30857225866488791 0.81101973481716805 0 0.33403534827021109 0.84402799729020661 0 0.29209212897034281 0.84715728365233667 0 0.30857225866488791 0.81101973481716805 0 0.26104540868854792 0.81401944968719064 0 0.30857225866488791 0.81101973481716805 0 0.2792923945214143 0.77665808831789485 0 0.30857225866488791 0.81101973481716805 0 0.2792923945214143 0.77665808831789485 0 0.33123028043633618 0.77629643437932982 0 0.22556077506376701 0.77837424984191617 0 0.26104540868854792 0.81401944968719064 0 0.2792923945214143 0.77665808831789485 0 0.2792923945214143 0.77665808831789485 0 0.25676291524611189 0.7436741304886243 0 0.29904318922293632 0.74132814928635593 0 0.22556077506376701 0.77837424984191617 0 0.2792923945214143 0.77665808831789485 0 0.25676291524611189 0.7436741304886243 0 0.2792923945214143 0.77665808831789485 0 0.33123028043633618 0.77629643437932982 0 0.29904318922293632 0.74132814928635593 0 0.33123028043633618 0.77629643437932982 0 0.29904318922293632 0.74132814928635593 0 0.35415581127540569 0.73730480045900215 0 0.30857225866488791 0.81101973481716805 0 0.33123028043633618 0.77629643437932982 0 0.35642984951668422 0.80994399665655703 0 0.33123028043633618 0.77629643437932982 0 0.35642984951668422 0.80994399665655703 0 0.38586766253264881 0.78219501014812498 0 0.33123028043633618 0.77629643437932982 0 0.38586766253264881 0.78219501014812498 0 0.35415581127540569 0.73730480045900215 0 0.38586766253264881 0.78219501014812498 0 0.42676259796334498 0.76772545931379299 0 0.40326160981139969 0.73346192995102844 0 0.38586766253264881 0.78219501014812498 0 0.35415581127540569 0.73730480045900215 0 0.40326160981139969 0.73346192995102844 0 0.38586766253264881 0.78219501014812498 0 0.42609163930740518 0.80361684430568059 0 0.39536230704883951 0.84069429572832477 0 0.35642984951668422 0.80994399665655703 0 0.38586766253264881 0.78219501014812498 0 0.39536230704883951 0.84069429572832477 0 0.38586766253264881 0.78219501014812498 0 0.42609163930740518 0.80361684430568059 0 0.42676259796334498 0.76772545931379299 0 0.42676259796334498 0.76772545931379299 0 0.4656888918609538 0.78493261229743638 0 0.45582236402875981 0.73896743678908217 0 0.4656888918609538 0.78493261229743638 0 0.45582236402875981 0.73896743678908217 0 0.50945740445113552 0.75476055527778108 0 0.4656888918609538 0.78493261229743638 0 0.50731287292894423 0.78963574450233831 0 0.50945740445113552 0.75476055527778108 0 0.4656888918609538 0.78493261229743638 0 0.50627822638148745 0.8263979829520941 0 0.50731287292894423 0.78963574450233831 0 0.42609163930740518 0.80361684430568059 0 0.4656888918609538 0.78493261229743638 0 0.45677673713123867 0.84253684404072415 0 0.42609163930740518 0.80361684430568059 0 0.42676259796334498 0.76772545931379299 0 0.4656888918609538 0.78493261229743638 0 0.4656888918609538 0.78493261229743638 0 0.45677673713123867 0.84253684404072415 0 0.50627822638148745 0.8263979829520941 0 0.45677673713123867 0.84253684404072415 0 0.50202631463681879 0.87892870825713787 0 0.50627822638148745 0.8263979829520941 0 0.45677673713123867 0.84253684404072415 0 0.44003836461056539 0.88093474584252718 0 0.50202631463681879 0.87892870825713787 0 0.45677673713123867 0.84253684404072415 0 0.39536230704883951 0.84069429572832477 0 0.44003836461056539 0.88093474584252718 0 0.39536230704883951 0.84069429572832477 0 0.39767323751400468 0.89584229130535065 0 0.44003836461056539 0.88093474584252718 0 0.42609163930740518 0.80361684430568059 0 0.45677673713123867 0.84253684404072415 0 0.39536230704883951 0.84069429572832477 0 0.35864759629805099 0.87963482415279515 0 0.39536230704883951 0.84069429572832477 0 0.39767323751400468 0.89584229130535065 0 0.35752321586431363 0.9185439911803448 0 0.39767323751400468 0.89584229130535065 0 0.39641108128798319 0.94356127926187128 0 0.39767323751400468 0.89584229130535065 0 0.4367309254023824 0.92065556789053882 0 0.39641108128798319 0.94356127926187128 0 0.39767323751400468 0.89584229130535065 0 0.4367309254023824 0.92065556789053882 0 0.44003836461056539 0.88093474584252718 0 0.4367309254023824 0.92065556789053882 0 0.44003836461056539 0.88093474584252718 0 0.47401147028110507 0.91529957330468115 0 0.44003836461056539 0.88093474584252718 0 0.47401147028110507 0.91529957330468115 0 0.50202631463681879 0.87892870825713787 0 0.47401147028110507 0.91529957330468115 0 0.47135117303824892 0.95556877749289892 0 0.52122150208832174 0.94089974453840242 0 0.47401147028110507 0.91529957330468115 0 0.52122150208832174 0.94089974453840242 0 0.50202631463681879 0.87892870825713787 0 0.4367309254023824 0.92065556789053882 0 0.47401147028110507 0.91529957330468115 0 0.47135117303824892 0.95556877749289892 0 0.4367309254023824 0.92065556789053882 0 0.47135117303824892 0.95556877749289892 0 0.4308986359464303 0.96395712492906194 0 0.47135117303824892 0.95556877749289892 0 0.50000000000205869 1 0 0.52122150208832174 0.94089974453840242 0 0.47135117303824892 0.95556877749289892 0 0.45000000000187229 1 0 0.50000000000205869 1 0 0.47135117303824892 0.95556877749289892 0 0.45000000000187229 1 0 0.4308986359464303 0.96395712492906194 0 0.45000000000187229 1 0 0.4308986359464303 0.96395712492906194 0 0.40000000000166441 1 0 0.4308986359464303 0.96395712492906194 0 0.39641108128798319 0.94356127926187128 0 0.40000000000166441 1 0 0.4367309254023824 0.92065556789053882 0 0.4308986359464303 0.96395712492906194 0 0.39641108128798319 0.94356127926187128 0 0.36184234618600131 0.96443954459096326 0 0.39641108128798319 0.94356127926187128 0 0.40000000000166441 1 0 0.33122374654748771 0.57588941099433744 0 0.31502927232353312 0.6134992213375432 0 0.35765792684946668 0.6000687869219653 0 0.31502927232353312 0.6134992213375432 0 0.35765792684946668 0.6000687869219653 0 0.35864735590330371 0.63903383440414463 0 0.35765792684946668 0.6000687869219653 0 0.35864735590330371 0.63903383440414463 0 0.39743091024207589 0.6239520004230239 0 0.33122374654748771 0.57588941099433744 0 0.35765792684946668 0.6000687869219653 0 0.37272913873093971 0.56192925302619479 0 0.37272913873093971 0.56192925302619479 0 0.33190227185843768 0.52715113583864037 0 0.38244435121258652 0.51653317813019495 0 0.33122374654748771 0.57588941099433744 0 0.37272913873093971 0.56192925302619479 0 0.33190227185843768 0.52715113583864037 0 0.35024835142131061 0.48654922671676981 0 0.33190227185843768 0.52715113583864037 0 0.38244435121258652 0.51653317813019495 0 0.33122374654748771 0.57588941099433744 0 0.33190227185843768 0.52715113583864037 0 0.29110487519241501 0.56588143995431495 0 0.33190227185843768 0.52715113583864037 0 0.28307294598219601 0.50789252727458634 0 0.29110487519241501 0.56588143995431495 0 0.31068898841644388 0.47541502461811092 0 0.33190227185843768 0.52715113583864037 0 0.28307294598219601 0.50789252727458634 0 0.23975172658309729 0.49475499200540818 0 0.28307294598219601 0.50789252727458634 0 0.25115337790845271 0.54719303014923271 0 0.28307294598219601 0.50789252727458634 0 0.25115337790845271 0.54719303014923271 0 0.29110487519241501 0.56588143995431495 0 0.25115337790845271 0.54719303014923271 0 0.29110487519241501 0.56588143995431495 0 0.26573297623774761 0.59828298563722948 0 0.33122374654748771 0.57588941099433744 0 0.31502927232353312 0.6134992213375432 0 0.29110487519241501 0.56588143995431495 0 0.31502927232353312 0.6134992213375432 0 0.29110487519241501 0.56588143995431495 0 0.26573297623774761 0.59828298563722948 0 0.31502927232353312 0.6134992213375432 0 0.26573297623774761 0.59828298563722948 0 0.27820712747429932 0.65530134213254643 0 0.2459498854893499 0.63248470766216769 0 0.26573297623774761 0.59828298563722948 0 0.27820712747429932 0.65530134213254643 0 0.2236846579037573 0.67380363126050236 0 0.27820712747429932 0.65530134213254643 0 0.26439878998046262 0.7048065392091396 0 0.27820712747429932 0.65530134213254643 0 0.31378396441836959 0.70157213313026345 0 0.32263089806001177 0.66003674931826484 0 0.27820712747429932 0.65530134213254643 0 0.26439878998046262 0.7048065392091396 0 0.31378396441836959 0.70157213313026345 0 0.31502927232353312 0.6134992213375432 0 0.27820712747429932 0.65530134213254643 0 0.32263089806001177 0.66003674931826484 0 0.25676291524611189 0.7436741304886243 0 0.26439878998046262 0.7048065392091396 0 0.29904318922293632 0.74132814928635593 0 0.26439878998046262 0.7048065392091396 0 0.29904318922293632 0.74132814928635593 0 0.31378396441836959 0.70157213313026345 0 0.29904318922293632 0.74132814928635593 0 0.31378396441836959 0.70157213313026345 0 0.35415581127540569 0.73730480045900215 0 0.31378396441836959 0.70157213313026345 0 0.36622285152418499 0.69092437780804039 0 0.35415581127540569 0.73730480045900215 0 0.36622285152418499 0.69092437780804039 0 0.35415581127540569 0.73730480045900215 0 0.40326160981139969 0.73346192995102844 0 0.31502927232353312 0.6134992213375432 0 0.32263089806001177 0.66003674931826484 0 0.35864735590330371 0.63903383440414463 0 0.31378396441836959 0.70157213313026345 0 0.36622285152418499 0.69092437780804039 0 0.32263089806001177 0.66003674931826484 0 0.36622285152418499 0.69092437780804039 0 0.32263089806001177 0.66003674931826484 0 0.35864735590330371 0.63903383440414463 0 0.36622285152418499 0.69092437780804039 0 0.35864735590330371 0.63903383440414463 0 0.3977710372045391 0.65868194622830212 0 0.35864735590330371 0.63903383440414463 0 0.3977710372045391 0.65868194622830212 0 0.39743091024207589 0.6239520004230239 0 0.36622285152418499 0.69092437780804039 0 0.3977710372045391 0.65868194622830212 0 0.43323420005758778 0.6913544522562407 0 0.3977710372045391 0.65868194622830212 0 0.43323420005758778 0.6913544522562407 0 0.43846182030517877 0.64845797726506715 0 0.43846182030517877 0.64845797726506715 0 0.43545892161006339 0.61093128915313821 0 0.39743091024207589 0.6239520004230239 0 0.3977710372045391 0.65868194622830212 0 0.43846182030517877 0.64845797726506715 0 0.39743091024207589 0.6239520004230239 0 0.36622285152418499 0.69092437780804039 0 0.40326160981139969 0.73346192995102844 0 0.43323420005758778 0.6913544522562407 0 0.40326160981139969 0.73346192995102844 0 0.43323420005758778 0.6913544522562407 0 0.45582236402875981 0.73896743678908217 0 0.42676259796334498 0.76772545931379299 0 0.40326160981139969 0.73346192995102844 0 0.45582236402875981 0.73896743678908217 0 0.43323420005758778 0.6913544522562407 0 0.45582236402875981 0.73896743678908217 0 0.5 0.69999999999999996 0 0.45582236402875981 0.73896743678908217 0 0.5 0.69999999999999996 0 0.50945740445113552 0.75476055527778108 0 0.43323420005758778 0.6913544522562407 0 0.47913475093885149 0.66010775372412711 0 0.5 0.69999999999999996 0 0.43846182030517877 0.64845797726506715 0 0.47913475093885149 0.66010775372412711 0 0.47095389620662098 0.61892551373708504 0 0.43846182030517877 0.64845797726506715 0 0.47095389620662098 0.61892551373708504 0 0.43545892161006339 0.61093128915313821 0 0.43323420005758778 0.6913544522562407 0 0.43846182030517877 0.64845797726506715 0 0.47913475093885149 0.66010775372412711 0 0.47913475093885149 0.66010775372412711 0 0.47095389620662098 0.61892551373708504 0 0.50715858906372158 0.63295939104129484 0 0.47095389620662098 0.61892551373708504 0 0.5166924242153631 0.59825134841919447 0 0.50715858906372158 0.63295939104129484 0 0.47095389620662098 0.61892551373708504 0 0.46666084890304671 0.57634471035397938 0 0.5166924242153631 0.59825134841919447 0 0.47095389620662098 0.61892551373708504 0 0.46666084890304671 0.57634471035397938 0 0.43545892161006339 0.61093128915313821 0 0.43545892161006339 0.61093128915313821 0 0.4089290844030305 0.58728915500154233 0 0.39743091024207589 0.6239520004230239 0 0.46666084890304671 0.57634471035397938 0 0.43545892161006339 0.61093128915313821 0 0.4089290844030305 0.58728915500154233 0 0.46666084890304671 0.57634471035397938 0 0.4089290844030305 0.58728915500154233 0 0.42644501560315817 0.54603747078095544 0 0.37272913873093971 0.56192925302619479 0 0.4089290844030305 0.58728915500154233 0 0.42644501560315817 0.54603747078095544 0 0.35765792684946668 0.6000687869219653 0 0.37272913873093971 0.56192925302619479 0 0.4089290844030305 0.58728915500154233 0 0.35765792684946668 0.6000687869219653 0 0.4089290844030305 0.58728915500154233 0 0.39743091024207589 0.6239520004230239 0 0.37272913873093971 0.56192925302619479 0 0.38244435121258652 0.51653317813019495 0 0.42644501560315817 0.54603747078095544 0 0.43507373378304309 0.49699695397193322 0 0.38244435121258652 0.51653317813019495 0 0.42644501560315817 0.54603747078095544 0 0.46666084890304671 0.57634471035397938 0 0.47793794143994173 0.52940715638744962 0 0.53245488764484505 0.55078124999999989 0 0.43507373378304309 0.49699695397193322 0 0.49102375406324739 0.49123754822244059 0 0.47793794143994173 0.52940715638744962 0 0.43507373378304309 0.49699695397193322 0 0.42644501560315817 0.54603747078095544 0 0.47793794143994173 0.52940715638744962 0 0.46666084890304671 0.57634471035397938 0 0.42644501560315817 0.54603747078095544 0 0.47793794143994173 0.52940715638744962 0 0.49102375406324739 0.49123754822244059 0 0.47793794143994173 0.52940715638744962 0 0.53330375813596242 0.50827942741749099 0 0.47793794143994173 0.52940715638744962 0 0.53245488764484505 0.55078124999999989 0 0.53330375813596242 0.50827942741749099 0 0.53245488764484505 0.55078124999999989 0 0.53330375813596242 0.50827942741749099 0 0.57435499076887508 0.54267261987897775 0 0.53245488764484505 0.55078124999999989 0 0.57435499076887508 0.54267261987897775 0 0.57412547362576272 0.58273804879550706 0 0.53330375813596242 0.50827942741749099 0 0.57611405284611883 0.50165903596042916 0 0.57435499076887508 0.54267261987897775 0 0.57611405284611883 0.50165903596042916 0 0.57435499076887508 0.54267261987897775 0 0.62042975506801734 0.54295974692364424 0 0.57435499076887508 0.54267261987897775 0 0.62042975506801734 0.54295974692364424 0 0.57412547362576272 0.58273804879550706 0 0.57611405284611883 0.50165903596042916 0 0.62042975506801734 0.54295974692364424 0 0.61547661924074692 0.48539576058873962 0 0.5991018319127801 0.62925360607495295 0 0.6405463747586706 0.63290524857395714 0 0.63065402604362242 0.59661356661633302 0 0.57412547362576272 0.58273804879550706 0 0.5991018319127801 0.62925360607495295 0 0.63065402604362242 0.59661356661633302 0 0.62042975506801734 0.54295974692364424 0 0.57412547362576272 0.58273804879550706 0 0.63065402604362242 0.59661356661633302 0 0.57412547362576272 0.58273804879550706 0 0.5498280205245758 0.6290146943450976 0 0.5991018319127801 0.62925360607495295 0 0.46666084890304671 0.57634471035397938 0 0.53245488764484505 0.55078124999999989 0 0.5166924242153631 0.59825134841919447 0 0.57412547362576272 0.58273804879550706 0 0.5166924242153631 0.59825134841919447 0 0.5498280205245758 0.6290146943450976 0 0.53245488764484505 0.55078124999999989 0 0.57412547362576272 0.58273804879550706 0 0.5166924242153631 0.59825134841919447 0 0.5166924242153631 0.59825134841919447 0 0.50715858906372158 0.63295939104129484 0 0.5498280205245758 0.6290146943450976 0 0.47913475093885149 0.66010775372412711 0 0.50715858906372158 0.63295939104129484 0 0.52584555706968406 0.66664215091846768 0 0.50715858906372158 0.63295939104129484 0 0.52584555706968406 0.66664215091846768 0 0.5498280205245758 0.6290146943450976 0 0.47913475093885149 0.66010775372412711 0 0.52584555706968406 0.66664215091846768 0 0.5 0.69999999999999996 0 0.52584555706968406 0.66664215091846768 0 0.54999999999999993 0.69999999999999996 0 0.57484956128872922 0.66573805030881994 0 0.52584555706968406 0.66664215091846768 0 0.5498280205245758 0.6290146943450976 0 0.57484956128872922 0.66573805030881994 0 0.5 0.69999999999999996 0 0.55363780716230748 0.74348740161571747 0 0.50945740445113552 0.75476055527778108 0 0.52584555706968406 0.66664215091846768 0 0.5 0.69999999999999996 0 0.54999999999999993 0.69999999999999996 0 0.5 0.69999999999999996 0 0.54999999999999993 0.69999999999999996 0 0.5 0.69999999999999996 0 0.54999999999999993 0.69999999999999996 0 0.55363780716230748 0.74348740161571747 0 0.55363780716230748 0.74348740161571747 0 0.59999999999999976 0.69999999999999996 0 0.59636844454254345 0.75937156204589151 0 0.54999999999999993 0.69999999999999996 0 0.59999999999999976 0.69999999999999996 0 0.54999999999999993 0.69999999999999996 0 0.59999999999999976 0.69999999999999996 0 0.57484956128872922 0.66573805030881994 0 0.54999999999999993 0.69999999999999996 0 0.55363780716230748 0.74348740161571747 0 0.59999999999999976 0.69999999999999996 0 0.59999999999999976 0.69999999999999996 0 0.6499999999999998 0.69999999999999996 0 0.59999999999999976 0.69999999999999996 0 0.62460753523532009 0.66851202781000296 0 0.6499999999999998 0.69999999999999996 0 0.59999999999999976 0.69999999999999996 0 0.63221990677827677 0.73442891067859706 0 0.59636844454254345 0.75937156204589151 0 0.5498280205245758 0.6290146943450976 0 0.57484956128872922 0.66573805030881994 0 0.5991018319127801 0.62925360607495295 0 0.59999999999999976 0.69999999999999996 0 0.57484956128872922 0.66573805030881994 0 0.62460753523532009 0.66851202781000296 0 0.57484956128872922 0.66573805030881994 0 0.62460753523532009 0.66851202781000296 0 0.5991018319127801 0.62925360607495295 0 0.62460753523532009 0.66851202781000296 0 0.5991018319127801 0.62925360607495295 0 0.6405463747586706 0.63290524857395714 0 0.62460753523532009 0.66851202781000296 0 0.6405463747586706 0.63290524857395714 0 0.675261390228442 0.65996937624687813 0 0.62460753523532009 0.66851202781000296 0 0.675261390228442 0.65996937624687813 0 0.6499999999999998 0.69999999999999996 0 0.675261390228442 0.65996937624687813 0 0.6499999999999998 0.69999999999999996 0 0.69999999999999984 0.69999999999999996 0 0.6405463747586706 0.63290524857395714 0 0.675261390228442 0.65996937624687813 0 0.67529834988829951 0.61613270668143583 0 0.63221990677827677 0.73442891067859706 0 0.66427993341343905 0.73232764502436276 0 0.64753070846764316 0.77332939069435502 0 0.63221990677827677 0.73442891067859706 0 0.6499999999999998 0.69999999999999996 0 0.66427993341343905 0.73232764502436276 0 0.59999999999999976 0.69999999999999996 0 0.63221990677827677 0.73442891067859706 0 0.6499999999999998 0.69999999999999996 0 0.6499999999999998 0.69999999999999996 0 0.69999999999999984 0.69999999999999996 0 0.6499999999999998 0.69999999999999996 0 0.66427993341343905 0.73232764502436276 0 0.69999999999999984 0.69999999999999996 0 0.66427993341343905 0.73232764502436276 0 0.69999999999999984 0.69999999999999996 0 0.6916490518212759 0.75387992374886192 0 0.69999999999999984 0.69999999999999996 0 0.72501250972655151 0.74067302935308721 0 0.6916490518212759 0.75387992374886192 0 0.69999999999999984 0.69999999999999996 0 0.74999999999999989 0.69999999999999996 0 0.72501250972655151 0.74067302935308721 0 0.69999999999999984 0.69999999999999996 0 0.74999999999999989 0.69999999999999996 0 0.72500000000000064 0.67022701834392062 0 0.69999999999999984 0.69999999999999996 0 0.74999999999999989 0.69999999999999996 0 0.74999999999999989 0.69999999999999996 0 0.72501250972655151 0.74067302935308721 0 0.75841349681148107 0.75422312624214749 0 0.675261390228442 0.65996937624687813 0 0.71406021706547751 0.63292083137662503 0 0.72500000000000064 0.67022701834392062 0 0.675261390228442 0.65996937624687813 0 0.71406021706547751 0.63292083137662503 0 0.67529834988829951 0.61613270668143583 0 0.675261390228442 0.65996937624687813 0 0.69999999999999984 0.69999999999999996 0 0.72500000000000064 0.67022701834392062 0 0.71406021706547751 0.63292083137662503 0 0.72500000000000064 0.67022701834392062 0 0.74994237037456724 0.62775548192980357 0 0.72500000000000064 0.67022701834392062 0 0.74994237037456724 0.62775548192980357 0 0.7750489929959945 0.66593931409600093 0 0.71406021706547751 0.63292083137662503 0 0.74994237037456724 0.62775548192980357 0 0.71809016091162536 0.58185040402320831 0 0.74994237037456724 0.62775548192980357 0 0.71809016091162536 0.58185040402320831 0 0.77293540622714185 0.59448302402785813 0 0.71406021706547751 0.63292083137662503 0 0.71809016091162536 0.58185040402320831 0 0.67529834988829951 0.61613270668143583 0 0.71809016091162536 0.58185040402320831 0 0.67569444444444449 0.53500863336860327 0 0.67323294229744413 0.57556450033612505 0 0.71809016091162536 0.58185040402320831 0 0.67529834988829951 0.61613270668143583 0 0.67323294229744413 0.57556450033612505 0 0.71809016091162536 0.58185040402320831 0 0.7152569930854884 0.5237994455134295 0 0.77151014687832564 0.54436834383023036 0 0.7152569930854884 0.5237994455134295 0 0.77151014687832564 0.54436834383023036 0 0.73947346780852752 0.49062440112282169 0 0.7152569930854884 0.5237994455134295 0 0.67569444444444449 0.53500863336860327 0 0.69385896817107129 0.48377516041410151 0 0.71809016091162536 0.58185040402320831 0 0.7152569930854884 0.5237994455134295 0 0.67569444444444449 0.53500863336860327 0 0.62042975506801734 0.54295974692364424 0 0.67569444444444449 0.53500863336860327 0 0.67323294229744413 0.57556450033612505 0 0.67569444444444449 0.53500863336860327 0 0.6541250972820879 0.49999999999999989 0 0.69385896817107129 0.48377516041410151 0 0.62042975506801734 0.54295974692364424 0 0.67569444444444449 0.53500863336860327 0 0.6541250972820879 0.49999999999999989 0 0.62042975506801734 0.54295974692364424 0 0.61547661924074692 0.48539576058873962 0 0.6541250972820879 0.49999999999999989 0 0.62042975506801734 0.54295974692364424 0 0.63065402604362242 0.59661356661633302 0 0.67323294229744413 0.57556450033612505 0 0.6405463747586706 0.63290524857395714 0 0.63065402604362242 0.59661356661633302 0 0.67529834988829951 0.61613270668143583 0 0.63065402604362242 0.59661356661633302 0 0.67529834988829951 0.61613270668143583 0 0.67323294229744413 0.57556450033612505 0 0.60000000000138687 1 0 0.62065498684670595 0.95224934003983619 0 0.57382506491224949 0.9629411906298494 0 0.60000000000138687 1 0 0.62065498684670595 0.95224934003983619 0 0.65000000000104008 1 0 0.62065498684670595 0.95224934003983619 0 0.57382506491224949 0.9629411906298494 0 0.57724883562309992 0.92155686857100794 0 0.60000000000138687 1 0 0.57382506491224949 0.9629411906298494 0 0.55000000000173355 1 0 0.55000000000173355 1 0 0.50000000000205869 1 0 0.52122150208832174 0.94089974453840242 0 0.57382506491224949 0.9629411906298494 0 0.52122150208832174 0.94089974453840242 0 0.57724883562309992 0.92155686857100794 0 0.57382506491224949 0.9629411906298494 0 0.55000000000173355 1 0 0.52122150208832174 0.94089974453840242 0 0.52122150208832174 0.94089974453840242 0 0.54783390826260769 0.89287767010860219 0 0.57724883562309992 0.92155686857100794 0 0.52122150208832174 0.94089974453840242 0 0.50202631463681879 0.87892870825713787 0 0.54783390826260769 0.89287767010860219 0 0.54783390826260769 0.89287767010860219 0 0.5832743223239254 0.88483152652961872 0 0.55899371797446828 0.85003102233514438 0 0.54783390826260769 0.89287767010860219 0 0.5832743223239254 0.88483152652961872 0 0.57724883562309992 0.92155686857100794 0 0.5832743223239254 0.88483152652961872 0 0.57724883562309992 0.92155686857100794 0 0.61885627562261258 0.90282959257498208 0 0.62065498684670595 0.95224934003983619 0 0.57724883562309992 0.92155686857100794 0 0.61885627562261258 0.90282959257498208 0 0.5832743223239254 0.88483152652961872 0 0.61885627562261258 0.90282959257498208 0 0.61343887413683884 0.856862479058357 0 0.61343887413683884 0.856862479058357 0 0.60294066490120068 0.80851322453934582 0 0.65005442820240822 0.82644988530054031 0 0.61343887413683884 0.856862479058357 0 0.55899371797446828 0.85003102233514438 0 0.60294066490120068 0.80851322453934582 0 0.55899371797446828 0.85003102233514438 0 0.54782696902220018 0.79245182748204157 0 0.60294066490120068 0.80851322453934582 0 0.5832743223239254 0.88483152652961872 0 0.61343887413683884 0.856862479058357 0 0.55899371797446828 0.85003102233514438 0 0.50202631463681879 0.87892870825713787 0 0.54783390826260769 0.89287767010860219 0 0.55899371797446828 0.85003102233514438 0 0.50202631463681879 0.87892870825713787 0 0.55899371797446828 0.85003102233514438 0 0.50627822638148745 0.8263979829520941 0 0.55899371797446828 0.85003102233514438 0 0.50627822638148745 0.8263979829520941 0 0.54782696902220018 0.79245182748204157 0 0.50627822638148745 0.8263979829520941 0 0.54782696902220018 0.79245182748204157 0 0.50731287292894423 0.78963574450233831 0 0.54782696902220018 0.79245182748204157 0 0.50731287292894423 0.78963574450233831 0 0.50945740445113552 0.75476055527778108 0 0.55363780716230748 0.74348740161571747 0 0.54782696902220018 0.79245182748204157 0 0.50945740445113552 0.75476055527778108 0 0.55363780716230748 0.74348740161571747 0 0.54782696902220018 0.79245182748204157 0 0.59636844454254345 0.75937156204589151 0 0.54782696902220018 0.79245182748204157 0 0.60294066490120068 0.80851322453934582 0 0.59636844454254345 0.75937156204589151 0 0.60294066490120068 0.80851322453934582 0 0.59636844454254345 0.75937156204589151 0 0.64753070846764316 0.77332939069435502 0 0.63221990677827677 0.73442891067859706 0 0.59636844454254345 0.75937156204589151 0 0.64753070846764316 0.77332939069435502 0 0.60294066490120068 0.80851322453934582 0 0.64753070846764316 0.77332939069435502 0 0.65005442820240822 0.82644988530054031 0 0.64753070846764316 0.77332939069435502 0 0.68024162096458085 0.79868546898116533 0 0.65005442820240822 0.82644988530054031 0 0.64753070846764316 0.77332939069435502 0 0.68024162096458085 0.79868546898116533 0 0.6916490518212759 0.75387992374886192 0 0.66427993341343905 0.73232764502436276 0 0.64753070846764316 0.77332939069435502 0 0.6916490518212759 0.75387992374886192 0 0.72501250972655151 0.74067302935308721 0 0.6916490518212759 0.75387992374886192 0 0.72500000000000064 0.7952620967744265 0 0.72501250972655151 0.74067302935308721 0 0.72500000000000064 0.7952620967744265 0 0.75841349681148107 0.75422312624214749 0 0.68024162096458085 0.79868546898116533 0 0.6916490518212759 0.75387992374886192 0 0.72500000000000064 0.7952620967744265 0 0.68024162096458085 0.79868546898116533 0 0.72500000000000064 0.7952620967744265 0 0.68697391633157634 0.84450604838764298 0 0.72500000000000064 0.7952620967744265 0 0.72863726579783861 0.85390518901155588 0 0.68697391633157634 0.84450604838764298 0 0.72500000000000064 0.7952620967744265 0 0.72863726579783861 0.85390518901155588 0 0.76901770135486491 0.84293557325473656 0 0.72863726579783861 0.85390518901155588 0 0.68697391633157634 0.84450604838764298 0 0.7250000000005199 0.89375000000045834 0 0.68697391633157634 0.84450604838764298 0 0.66412543161245952 0.88015090885499059 0 0.7250000000005199 0.89375000000045834 0 0.68697391633157634 0.84450604838764298 0 0.65005442820240822 0.82644988530054031 0 0.66412543161245952 0.88015090885499059 0 0.68024162096458085 0.79868546898116533 0 0.68697391633157634 0.84450604838764298 0 0.65005442820240822 0.82644988530054031 0 0.61343887413683884 0.856862479058357 0 0.65005442820240822 0.82644988530054031 0 0.66412543161245952 0.88015090885499059 0 0.61885627562261258 0.90282959257498208 0 0.61343887413683884 0.856862479058357 0 0.66412543161245952 0.88015090885499059 0 0.61885627562261258 0.90282959257498208 0 0.65507451745379841 0.92229208810758578 0 0.66412543161245952 0.88015090885499059 0 0.62065498684670595 0.95224934003983619 0 0.61885627562261258 0.90282959257498208 0 0.65507451745379841 0.92229208810758578 0 0.65507451745379841 0.92229208810758578 0 0.68987011941058407 0.92105047536677087 0 0.68015064798562208 0.95924320340003011 0 0.65507451745379841 0.92229208810758578 0 0.66412543161245952 0.88015090885499059 0 0.68987011941058407 0.92105047536677087 0 0.66412543161245952 0.88015090885499059 0 0.7250000000005199 0.89375000000045834 0 0.68987011941058407 0.92105047536677087 0 0.72863726579783861 0.85390518901155588 0 0.7250000000005199 0.89375000000045834 0 0.76891166905518427 0.88835469571185499 0 0.7250000000005199 0.89375000000045834 0 0.7250000000005199 0.94981617647078953 0 0.75729602384198635 0.92353652857884294 0 0.7250000000005199 0.89375000000045834 0 0.68987011941058407 0.92105047536677087 0 0.7250000000005199 0.94981617647078953 0 0.68987011941058407 0.92105047536677087 0 0.7250000000005199 0.94981617647078953 0 0.68015064798562208 0.95924320340003011 0 0.7250000000005199 0.94981617647078953 0 0.7000000000006934 1 0 0.75000000000034661 1 0 0.7250000000005199 0.94981617647078953 0 0.75000000000034661 1 0 0.770759834363826 0.95919399014344442 0 0.7250000000005199 0.94981617647078953 0 0.7000000000006934 1 0 0.68015064798562208 0.95924320340003011 0 0.7000000000006934 1 0 0.68015064798562208 0.95924320340003011 0 0.65000000000104008 1 0 0.62065498684670595 0.95224934003983619 0 0.65507451745379841 0.92229208810758578 0 0.68015064798562208 0.95924320340003011 0 0.62065498684670595 0.95224934003983619 0 0.68015064798562208 0.95924320340003011 0 0.65000000000104008 1 0 0.84999999999965292 1 0 0.85170973911348691 0.93569607295217616 0 0.89898474358632463 0.95391965591118966 0 0.84999999999965292 1 0 0.81486180804382891 0.96321394949790495 0 0.85170973911348691 0.93569607295217616 0 0.81486180804382891 0.96321394949790495 0 0.79680861578988083 0.92656778056766709 0 0.85170973911348691 0.93569607295217616 0 0.84999999999965292 1 0 0.81486180804382891 0.96321394949790495 0 0.79999999999999982 1 0 0.81486180804382891 0.96321394949790495 0 0.79999999999999982 1 0 0.770759834363826 0.95919399014344442 0 0.79999999999999982 1 0 0.75000000000034661 1 0 0.770759834363826 0.95919399014344442 0 0.7250000000005199 0.94981617647078953 0 0.770759834363826 0.95919399014344442 0 0.75729602384198635 0.92353652857884294 0 0.81486180804382891 0.96321394949790495 0 0.770759834363826 0.95919399014344442 0 0.79680861578988083 0.92656778056766709 0 0.79680861578988083 0.92656778056766709 0 0.75729602384198635 0.92353652857884294 0 0.76891166905518427 0.88835469571185499 0 0.770759834363826 0.95919399014344442 0 0.79680861578988083 0.92656778056766709 0 0.75729602384198635 0.92353652857884294 0 0.7250000000005199 0.89375000000045834 0 0.75729602384198635 0.92353652857884294 0 0.76891166905518427 0.88835469571185499 0 0.79680861578988083 0.92656778056766709 0 0.76891166905518427 0.88835469571185499 0 0.81159157511211755 0.88795995483179491 0 0.81159157511211755 0.88795995483179491 0 0.85170973911348691 0.93569607295217616 0 0.85600844944837662 0.88483418979512773 0 0.79680861578988083 0.92656778056766709 0 0.81159157511211755 0.88795995483179491 0 0.85170973911348691 0.93569607295217616 0 0.85170973911348691 0.93569607295217616 0 0.85600844944837662 0.88483418979512773 0 0.90416666666660628 0.9041666666666166 0 0.85600844944837662 0.88483418979512773 0 0.82709327591091286 0.84937141670920724 0 0.88088768115933802 0.84674609810493673 0 0.82709327591091286 0.84937141670920724 0 0.84725310900444062 0.80779732082917555 0 0.88088768115933802 0.84674609810493673 0 0.82709327591091286 0.84937141670920724 0 0.80041942726660109 0.81543261647703358 0 0.84725310900444062 0.80779732082917555 0 0.81159157511211755 0.88795995483179491 0 0.85600844944837662 0.88483418979512773 0 0.82709327591091286 0.84937141670920724 0 0.76891166905518427 0.88835469571185499 0 0.81159157511211755 0.88795995483179491 0 0.76901770135486491 0.84293557325473656 0 0.81159157511211755 0.88795995483179491 0 0.82709327591091286 0.84937141670920724 0 0.76901770135486491 0.84293557325473656 0 0.72863726579783861 0.85390518901155588 0 0.76891166905518427 0.88835469571185499 0 0.76901770135486491 0.84293557325473656 0 0.76901770135486491 0.84293557325473656 0 0.80041942726660109 0.81543261647703358 0 0.77094201086366854 0.79647480515688507 0 0.82709327591091286 0.84937141670920724 0 0.76901770135486491 0.84293557325473656 0 0.80041942726660109 0.81543261647703358 0 0.80041942726660109 0.81543261647703358 0 0.77094201086366854 0.79647480515688507 0 0.80185942888539485 0.77452061303608133 0 0.72500000000000064 0.7952620967744265 0 0.77094201086366854 0.79647480515688507 0 0.75841349681148107 0.75422312624214749 0 0.72500000000000064 0.7952620967744265 0 0.76901770135486491 0.84293557325473656 0 0.77094201086366854 0.79647480515688507 0 0.77094201086366854 0.79647480515688507 0 0.75841349681148107 0.75422312624214749 0 0.80185942888539485 0.77452061303608133 0 0.75841349681148107 0.75422312624214749 0 0.80185942888539485 0.77452061303608133 0 0.78578450296893509 0.73292684821144505 0 0.80185942888539485 0.77452061303608133 0 0.84725310900444062 0.80779732082917555 0 0.85491058998424563 0.76004753345552634 0 0.80185942888539485 0.77452061303608133 0 0.85491058998424563 0.76004753345552634 0 0.81864958914779962 0.73589050177899629 0 0.80041942726660109 0.81543261647703358 0 0.80185942888539485 0.77452061303608133 0 0.84725310900444062 0.80779732082917555 0 0.84725310900444062 0.80779732082917555 0 0.85491058998424563 0.76004753345552634 0 0.90299850604011456 0.79563452813489832 0 0.85491058998424563 0.76004753345552634 0 0.90299850604011456 0.79563452813489832 0 0.89999166460796554 0.74528934923809909 0 0.90299850604011456 0.79563452813489832 0 0.94399509803918602 0.75600490196082126 0 0.95386563387742829 0.80414874155775029 0 0.90299850604011456 0.79563452813489832 0 0.94399509803918602 0.75600490196082126 0 0.89999166460796554 0.74528934923809909 0 0.94399509803918602 0.75600490196082126 0 0.97435614836745565 0.77499999999987745 0 0.95386563387742829 0.80414874155775029 0 0.94399509803918602 0.75600490196082126 0 0.97435614836745565 0.77499999999987745 0 0.97166519676947294 0.73337114490064459 0 0.97435614836745565 0.77499999999987745 0 0.97166519676947294 0.73337114490064459 0 1 0.74999999999993494 0 0.97435614836745565 0.77499999999987745 0 1 0.7999999999998193 0 1 0.74999999999993494 0 0.97435614836745565 0.77499999999987745 0 1 0.7999999999998193 0 0.95386563387742829 0.80414874155775029 0 1 0.84999999999982645 0 0.93677536231884972 0.85000000000000286 0 0.95391631417670719 0.89584263333814784 0 0.95386563387742829 0.80414874155775029 0 1 0.84999999999982645 0 0.93677536231884972 0.85000000000000286 0 1 0.7999999999998193 0 0.95386563387742829 0.80414874155775029 0 1 0.84999999999982645 0 0.93677536231884972 0.85000000000000286 0 0.88088768115933802 0.84674609810493673 0 0.90416666666660628 0.9041666666666166 0 0.90299850604011456 0.79563452813489832 0 0.95386563387742829 0.80414874155775029 0 0.93677536231884972 0.85000000000000286 0 0.90299850604011456 0.79563452813489832 0 0.93677536231884972 0.85000000000000286 0 0.88088768115933802 0.84674609810493673 0 0.84725310900444062 0.80779732082917555 0 0.90299850604011456 0.79563452813489832 0 0.88088768115933802 0.84674609810493673 0 0.85600844944837662 0.88483418979512773 0 0.88088768115933802 0.84674609810493673 0 0.90416666666660628 0.9041666666666166 0 0.85170973911348691 0.93569607295217616 0 0.90416666666660628 0.9041666666666166 0 0.89898474358632463 0.95391965591118966 0 0.90416666666660628 0.9041666666666166 0 0.95391631417670719 0.89584263333814784 0 0.94399509803919068 0.9439950980391687 0 0.90416666666660628 0.9041666666666166 0 0.94399509803919068 0.9439950980391687 0 0.89898474358632463 0.95391965591118966 0 0.93677536231884972 0.85000000000000286 0 0.90416666666660628 0.9041666666666166 0 0.95391631417670719 0.89584263333814784 0 1 0.84999999999982645 0 0.95391631417670719 0.89584263333814784 0 1 0.8999999999998336 0 1 0.8999999999998336 0 0.97435614836744289 0.92499999999990257 0 1 0.94999999999997109 0 0.95391631417670719 0.89584263333814784 0 1 0.8999999999998336 0 0.97435614836744289 0.92499999999990257 0 0.95391631417670719 0.89584263333814784 0 0.97435614836744289 0.92499999999990257 0 0.94399509803919068 0.9439950980391687 0 0.97435614836744289 0.92499999999990257 0 0.94399509803919068 0.9439950980391687 0 0.97166519676946206 0.96662885509935492 0 0.97435614836744289 0.92499999999990257 0 0.97166519676946206 0.96662885509935492 0 1 0.94999999999997109 0 0.97166519676946206 0.96662885509935492 0 1 0.94999999999997109 0 1 1 0 0.97166519676946206 0.96662885509935492 0 1 1 0 0.94999999999979179 1 0 0.94399509803919068 0.9439950980391687 0 0.97166519676946206 0.96662885509935492 0 0.94999999999979179 1 0 0.94999999999979179 1 0 0.89898474358632463 0.95391965591118966 0 0.89999999999958358 1 0 0.94399509803919068 0.9439950980391687 0 0.94999999999979179 1 0 0.89898474358632463 0.95391965591118966 0 0.84999999999965292 1 0 0.89898474358632463 0.95391965591118966 0 0.89999999999958358 1 0 0.81723410853263523 0.59419663659258926 0 0.86956835336234861 0.571283299838105 0 0.82862096804812391 0.55037090955459045 0 0.81723410853263523 0.59419663659258926 0 0.87159648282691515 0.61285406320581504 0 0.83758014339878906 0.63222013025741819 0 0.81723410853263523 0.59419663659258926 0 0.79884539758237771 0.62875045078114233 0 0.83758014339878906 0.63222013025741819 0 0.81723410853263523 0.59419663659258926 0 0.87159648282691515 0.61285406320581504 0 0.86956835336234861 0.571283299838105 0 0.86956835336234861 0.571283299838105 0 0.86907294890112186 0.52008116128001669 0 0.82862096804812391 0.55037090955459045 0 0.86907294890112186 0.52008116128001669 0 0.81441713509985358 0.51161854125224959 0 0.82862096804812391 0.55037090955459045 0 0.86907294890112186 0.52008116128001669 0 0.81441713509985358 0.51161854125224959 0 0.84723782639812573 0.48638347960178252 0 0.81441713509985358 0.51161854125224959 0 0.82862096804812391 0.55037090955459045 0 0.77151014687832564 0.54436834383023036 0 0.81441713509985358 0.51161854125224959 0 0.77151014687832564 0.54436834383023036 0 0.77846603114747959 0.49850927265137401 0 0.77151014687832564 0.54436834383023036 0 0.77846603114747959 0.49850927265137401 0 0.73947346780852752 0.49062440112282169 0 0.71809016091162536 0.58185040402320831 0 0.77151014687832564 0.54436834383023036 0 0.77293540622714185 0.59448302402785813 0 0.81723410853263523 0.59419663659258926 0 0.77151014687832564 0.54436834383023036 0 0.77293540622714185 0.59448302402785813 0 0.81723410853263523 0.59419663659258926 0 0.82862096804812391 0.55037090955459045 0 0.77151014687832564 0.54436834383023036 0 0.81723410853263523 0.59419663659258926 0 0.77293540622714185 0.59448302402785813 0 0.79884539758237771 0.62875045078114233 0 0.74994237037456724 0.62775548192980357 0 0.77293540622714185 0.59448302402785813 0 0.79884539758237771 0.62875045078114233 0 0.74994237037456724 0.62775548192980357 0 0.7750489929959945 0.66593931409600093 0 0.79884539758237771 0.62875045078114233 0 0.74999999999999989 0.69999999999999996 0 0.72500000000000064 0.67022701834392062 0 0.7750489929959945 0.66593931409600093 0 0.7750489929959945 0.66593931409600093 0 0.79999999999999982 0.69999999999999996 0 0.82457059160610424 0.66831947184359608 0 0.7750489929959945 0.66593931409600093 0 0.79884539758237771 0.62875045078114233 0 0.82457059160610424 0.66831947184359608 0 0.74999999999999989 0.69999999999999996 0 0.75841349681148107 0.75422312624214749 0 0.78578450296893509 0.73292684821144505 0 0.74999999999999989 0.69999999999999996 0 0.79999999999999982 0.69999999999999996 0 0.78578450296893509 0.73292684821144505 0 0.74999999999999989 0.69999999999999996 0 0.7750489929959945 0.66593931409600093 0 0.79999999999999982 0.69999999999999996 0 0.74999999999999989 0.69999999999999996 0 0.79999999999999982 0.69999999999999996 0 0.80185942888539485 0.77452061303608133 0 0.78578450296893509 0.73292684821144505 0 0.81864958914779962 0.73589050177899629 0 0.79999999999999982 0.69999999999999996 0 0.78578450296893509 0.73292684821144505 0 0.81864958914779962 0.73589050177899629 0 0.85491058998424563 0.76004753345552634 0 0.81864958914779962 0.73589050177899629 0 0.84999999999999987 0.69999999999999996 0 0.79999999999999982 0.69999999999999996 0 0.84999999999999987 0.69999999999999996 0 0.79999999999999982 0.69999999999999996 0 0.84999999999999987 0.69999999999999996 0 0.82457059160610424 0.66831947184359608 0 0.79999999999999982 0.69999999999999996 0 0.81864958914779962 0.73589050177899629 0 0.84999999999999987 0.69999999999999996 0 0.84999999999999987 0.69999999999999996 0 0.89999999999999991 0.69999999999999996 0 0.85491058998424563 0.76004753345552634 0 0.84999999999999987 0.69999999999999996 0 0.89999166460796554 0.74528934923809909 0 0.79884539758237771 0.62875045078114233 0 0.83758014339878906 0.63222013025741819 0 0.82457059160610424 0.66831947184359608 0 0.84999999999999987 0.69999999999999996 0 0.82457059160610424 0.66831947184359608 0 0.87712158428786946 0.65709029563313581 0 0.87159648282691515 0.61285406320581504 0 0.83758014339878906 0.63222013025741819 0 0.87712158428786946 0.65709029563313581 0 0.83758014339878906 0.63222013025741819 0 0.82457059160610424 0.66831947184359608 0 0.87712158428786946 0.65709029563313581 0 0.87712158428786946 0.65709029563313581 0 0.92057473616084773 0.66770436535372446 0 0.91750694127105259 0.63017627779935648 0 0.87159648282691515 0.61285406320581504 0 0.87712158428786946 0.65709029563313581 0 0.91750694127105259 0.63017627779935648 0 0.84999999999999987 0.69999999999999996 0 0.87712158428786946 0.65709029563313581 0 0.89999999999999991 0.69999999999999996 0 0.87712158428786946 0.65709029563313581 0 0.92057473616084773 0.66770436535372446 0 0.89999999999999991 0.69999999999999996 0 0.92057473616084773 0.66770436535372446 0 0.91750694127105259 0.63017627779935648 0 0.9578014258160763 0.65787212321113708 0 0.84999999999999987 0.69999999999999996 0 0.89999166460796554 0.74528934923809909 0 0.89999999999999991 0.69999999999999996 0 0.89999999999999991 0.69999999999999996 0 0.94999999999999996 0.69999999999999996 0 0.92057473616084773 0.66770436535372446 0 0.89999999999999991 0.69999999999999996 0 0.94999999999999996 0.69999999999999996 0 0.89999166460796554 0.74528934923809909 0 0.89999999999999991 0.69999999999999996 0 0.94999999999999996 0.69999999999999996 0 0.94399509803918602 0.75600490196082126 0 0.89999166460796554 0.74528934923809909 0 0.94999999999999996 0.69999999999999996 0 0.94399509803918602 0.75600490196082126 0 0.94999999999999996 0.69999999999999996 0 0.97166519676947294 0.73337114490064459 0 0.94999999999999996 0.69999999999999996 0 1 0.69999999999999996 0 0.94999999999999996 0.69999999999999996 0 1 0.69999999999999996 0 0.97166519676947294 0.73337114490064459 0 1 0.69999999999999996 0 0.97166519676947294 0.73337114490064459 0 1 0.74999999999993494 0 0.91750694127105259 0.63017627779935648 0 0.9578014258160763 0.65787212321113708 0 0.95867599106212187 0.60011091146651041 0 0.92057473616084773 0.66770436535372446 0 0.94999999999999996 0.69999999999999996 0 0.9578014258160763 0.65787212321113708 0 0.94999999999999996 0.69999999999999996 0 1 0.69999999999999996 0 0.9578014258160763 0.65787212321113708 0 1 0.69999999999999996 0 0.9578014258160763 0.65787212321113708 0 1 0.64999999999986979 0 0.9578014258160763 0.65787212321113708 0 1 0.64999999999986979 0 0.95867599106212187 0.60011091146651041 0 0.95867599106212187 0.60011091146651041 0 0.93732437411268477 0.55911392101136159 0 1 0.54999999999963112 0 1 0.64999999999986979 0 1 0.59999999999973963 0 0.95867599106212187 0.60011091146651041 0 1 0.59999999999973963 0 0.95867599106212187 0.60011091146651041 0 1 0.54999999999963112 0 0.91750694127105259 0.63017627779935648 0 0.95867599106212187 0.60011091146651041 0 0.91143117093204207 0.58709913730335972 0 0.95867599106212187 0.60011091146651041 0 0.91143117093204207 0.58709913730335972 0 0.93732437411268477 0.55911392101136159 0 0.86956835336234861 0.571283299838105 0 0.91143117093204207 0.58709913730335972 0 0.90900154012161016 0.53607784105648792 0 0.87159648282691515 0.61285406320581504 0 0.86956835336234861 0.571283299838105 0 0.91143117093204207 0.58709913730335972 0 0.87159648282691515 0.61285406320581504 0 0.91750694127105259 0.63017627779935648 0 0.91143117093204207 0.58709913730335972 0 0.86907294890112186 0.52008116128001669 0 0.90900154012161016 0.53607784105648792 0 0.91696753777131557 0.497780560203536 0 0.86956835336234861 0.571283299838105 0 0.86907294890112186 0.52008116128001669 0 0.90900154012161016 0.53607784105648792 0 0.90900154012161016 0.53607784105648792 0 0.93732437411268477 0.55911392101136159 0 0.95631871884947484 0.51827533208233789 0 0.91143117093204207 0.58709913730335972 0 0.90900154012161016 0.53607784105648792 0 0.93732437411268477 0.55911392101136159 0 0.90900154012161016 0.53607784105648792 0 0.95631871884947484 0.51827533208233789 0 0.91696753777131557 0.497780560203536 0 0.93732437411268477 0.55911392101136159 0 0.95631871884947484 0.51827533208233789 0 1 0.54999999999963112 0 0.95631871884947484 0.51827533208233789 0 1 0.54999999999963112 0 1 0.49999999999950101 0 0.95631871884947484 0.51827533208233789 0 1 0.49999999999950101 0 0.96228564064454991 0.48206450662049471 0 1 0.49999999999950101 0 1 0.44999999999963131 0 0.96228564064454991 0.48206450662049471 0 1 0.44999999999963131 0 0.93814194660195893 0.44426664081746747 0 0.96228564064454991 0.48206450662049471 0 0.93814194660195893 0.44426664081746747 0 0.96228564064454991 0.48206450662049471 0 0.91696753777131557 0.497780560203536 0 0.95631871884947484 0.51827533208233789 0 0.96228564064454991 0.48206450662049471 0 0.91696753777131557 0.497780560203536 0 1 0.39999999999978308 0 0.95871855522754235 0.40006508612975411 0 1 0.34999999999993492 0 1 0.44999999999963131 0 1 0.39999999999978308 0 0.95871855522754235 0.40006508612975411 0 1 0.44999999999963131 0 0.93814194660195893 0.44426664081746747 0 0.95871855522754235 0.40006508612975411 0 0.95871855522754235 0.40006508612975411 0 0.90594285160987287 0.4141265964174129 0 0.91750694127107502 0.36982372220068471 0 0.93814194660195893 0.44426664081746747 0 0.95871855522754235 0.40006508612975411 0 0.90594285160987287 0.4141265964174129 0 0.90594285160987287 0.4141265964174129 0 0.88594198078881503 0.46167788676578442 0 0.86411095495256451 0.42388805655111889 0 0.90594285160987287 0.4141265964174129 0 0.86411095495256451 0.42388805655111889 0 0.86844634540301924 0.38530937474099819 0 0.90594285160987287 0.4141265964174129 0 0.86844634540301924 0.38530937474099819 0 0.91750694127107502 0.36982372220068471 0 0.93814194660195893 0.44426664081746747 0 0.91696753777131557 0.497780560203536 0 0.88594198078881503 0.46167788676578442 0 0.93814194660195893 0.44426664081746747 0 0.90594285160987287 0.4141265964174129 0 0.88594198078881503 0.46167788676578442 0 0.86907294890112186 0.52008116128001669 0 0.91696753777131557 0.497780560203536 0 0.88594198078881503 0.46167788676578442 0 0.86907294890112186 0.52008116128001669 0 0.88594198078881503 0.46167788676578442 0 0.84723782639812573 0.48638347960178252 0 0.81441713509985358 0.51161854125224959 0 0.84723782639812573 0.48638347960178252 0 0.81400510706333218 0.47357325943904899 0 0.84723782639812573 0.48638347960178252 0 0.81400510706333218 0.47357325943904899 0 0.84925632466077294 0.45359738909549091 0 0.81400510706333218 0.47357325943904899 0 0.84925632466077294 0.45359738909549091 0 0.81973119833356312 0.43505687159469048 0 0.88594198078881503 0.46167788676578442 0 0.84723782639812573 0.48638347960178252 0 0.84925632466077294 0.45359738909549091 0 0.84925632466077294 0.45359738909549091 0 0.86411095495256451 0.42388805655111889 0 0.81973119833356312 0.43505687159469048 0 0.88594198078881503 0.46167788676578442 0 0.84925632466077294 0.45359738909549091 0 0.86411095495256451 0.42388805655111889 0 0.86411095495256451 0.42388805655111889 0 0.86844634540301924 0.38530937474099819 0 0.81308179852519835 0.39754945808726527 0 0.86844634540301924 0.38530937474099819 0 0.81308179852519835 0.39754945808726527 0 0.83573492347052902 0.36590755630746369 0 0.86411095495256451 0.42388805655111889 0 0.81308179852519835 0.39754945808726527 0 0.81973119833356312 0.43505687159469048 0 0.81973119833356312 0.43505687159469048 0 0.77354604466818633 0.40378688774472771 0 0.77972660463949339 0.45529290596363098 0 0.81308179852519835 0.39754945808726527 0 0.81973119833356312 0.43505687159469048 0 0.77354604466818633 0.40378688774472771 0 0.81308179852519835 0.39754945808726527 0 0.77354604466818633 0.40378688774472771 0 0.78145581580700685 0.34881365920033602 0 0.77354604466818633 0.40378688774472771 0 0.77972660463949339 0.45529290596363098 0 0.73483647259922602 0.44789725365921768 0 0.77972660463949339 0.45529290596363098 0 0.73483647259922602 0.44789725365921768 0 0.73947346780852752 0.49062440112282169 0 0.77972660463949339 0.45529290596363098 0 0.77846603114747959 0.49850927265137401 0 0.73947346780852752 0.49062440112282169 0 0.81400510706333218 0.47357325943904899 0 0.77972660463949339 0.45529290596363098 0 0.77846603114747959 0.49850927265137401 0 0.81441713509985358 0.51161854125224959 0 0.81400510706333218 0.47357325943904899 0 0.77846603114747959 0.49850927265137401 0 0.81400510706333218 0.47357325943904899 0 0.81973119833356312 0.43505687159469048 0 0.77972660463949339 0.45529290596363098 0 0.79999999999999982 0.29999999999999999 0 0.77075983436335049 0.25919399014334171 0 0.81486180804364938 0.26321394949780091 0 0.79999999999999982 0.29999999999999999 0 0.74999999999999989 0.29999999999999999 0 0.79999999999999982 0.29999999999999999 0 0.77075983436335049 0.25919399014334171 0 0.74999999999999989 0.29999999999999999 0 0.79999999999999982 0.29999999999999999 0 0.78145581580700685 0.34881365920033602 0 0.74999999999999989 0.29999999999999999 0 0.78145581580700685 0.34881365920033602 0 0.73090396928863699 0.33699297293167962 0 0.74999999999999989 0.29999999999999999 0 0.77354604466818633 0.40378688774472771 0 0.78145581580700685 0.34881365920033602 0 0.74764719760526988 0.3719647154012321 0 0.78145581580700685 0.34881365920033602 0 0.74764719760526988 0.3719647154012321 0 0.73090396928863699 0.33699297293167962 0 0.81308179852519835 0.39754945808726527 0 0.78145581580700685 0.34881365920033602 0 0.83573492347052902 0.36590755630746369 0 0.79999999999999982 0.29999999999999999 0 0.78145581580700685 0.34881365920033602 0 0.82500000000000062 0.33010209762754811 0 0.78145581580700685 0.34881365920033602 0 0.82500000000000062 0.33010209762754811 0 0.83573492347052902 0.36590755630746369 0 0.82500000000000062 0.33010209762754811 0 0.83573492347052902 0.36590755630746369 0 0.87430060258887643 0.34056085888204451 0 0.86844634540301924 0.38530937474099819 0 0.83573492347052902 0.36590755630746369 0 0.87430060258887643 0.34056085888204451 0 0.82500000000000062 0.33010209762754811 0 0.87430060258887643 0.34056085888204451 0 0.84999999999999987 0.29999999999999999 0 0.87430060258887643 0.34056085888204451 0 0.84999999999999987 0.29999999999999999 0 0.89999999999999991 0.29999999999999999 0 0.84999999999999987 0.29999999999999999 0 0.81486180804364938 0.26321394949780091 0 0.8517097391133297 0.2356960729520409 0 0.84999999999999987 0.29999999999999999 0 0.89898474358614167 0.25391965591104898 0 0.8517097391133297 0.2356960729520409 0 0.84999999999999987 0.29999999999999999 0 0.89999999999999991 0.29999999999999999 0 0.79999999999999982 0.29999999999999999 0 0.82500000000000062 0.33010209762754811 0 0.84999999999999987 0.29999999999999999 0 0.79999999999999982 0.29999999999999999 0 0.84999999999999987 0.29999999999999999 0 0.81486180804364938 0.26321394949780091 0 0.79999999999999982 0.29999999999999999 0 0.84999999999999987 0.29999999999999999 0 0.84999999999999987 0.29999999999999999 0 0.89898474358614167 0.25391965591104898 0 0.89999999999999991 0.29999999999999999 0 0.89999999999999991 0.29999999999999999 0 0.94999999999999996 0.29999999999999999 0 0.89999999999999991 0.29999999999999999 0 0.92012390126144183 0.33123581297173937 0 0.94999999999999996 0.29999999999999999 0 0.89898474358614167 0.25391965591104898 0 0.89999999999999991 0.29999999999999999 0 0.94999999999999996 0.29999999999999999 0 0.89898474358614167 0.25391965591104898 0 0.94999999999999996 0.29999999999999999 0 0.94399509803921056 0.24399509803922639 0 0.86844634540301924 0.38530937474099819 0 0.87430060258887643 0.34056085888204451 0 0.91750694127107502 0.36982372220068471 0 0.87430060258887643 0.34056085888204451 0 0.92012390126144183 0.33123581297173937 0 0.91750694127107502 0.36982372220068471 0 0.87430060258887643 0.34056085888204451 0 0.89999999999999991 0.29999999999999999 0 0.92012390126144183 0.33123581297173937 0 0.92012390126144183 0.33123581297173937 0 0.91750694127107502 0.36982372220068471 0 0.95780851984364423 0.34215720972155339 0 0.95871855522754235 0.40006508612975411 0 0.91750694127107502 0.36982372220068471 0 0.95780851984364423 0.34215720972155339 0 0.92012390126144183 0.33123581297173937 0 0.95780851984364423 0.34215720972155339 0 0.94999999999999996 0.29999999999999999 0 0.95780851984364423 0.34215720972155339 0 0.94999999999999996 0.29999999999999999 0 1 0.29999999999999999 0 0.95780851984364423 0.34215720972155339 0 1 0.34999999999993492 0 1 0.29999999999999999 0 0.95871855522754235 0.40006508612975411 0 0.95780851984364423 0.34215720972155339 0 1 0.34999999999993492 0 0.94999999999999996 0.29999999999999999 0 0.97166519676951801 0.26662885509932011 0 0.94399509803921056 0.24399509803922639 0 0.94999999999999996 0.29999999999999999 0 1 0.29999999999999999 0 0.94999999999999996 0.29999999999999999 0 1 0.29999999999999999 0 0.97166519676951801 0.26662885509932011 0 1 0.29999999999999999 0 0.97166519676951801 0.26662885509932011 0 1 0.24999999999987299 0 0.97166519676951801 0.26662885509932011 0 0.97435614836740092 0.22499999999981049 0 1 0.24999999999987299 0 0.97435614836740092 0.22499999999981049 0 1 0.24999999999987299 0 1 0.19999999999974799 0 0.97435614836740092 0.22499999999981049 0 0.94399509803921056 0.24399509803922639 0 0.95391631417672862 0.19584263333809451 0 0.97166519676951801 0.26662885509932011 0 0.97435614836740092 0.22499999999981049 0 0.94399509803921056 0.24399509803922639 0 0.97435614836740092 0.22499999999981049 0 0.95391631417672862 0.19584263333809451 0 1 0.19999999999974799 0 0.95391631417672862 0.19584263333809451 0 1 0.14999999999961891 0 0.93677536231883773 0.14999999999999089 0 1 0.14999999999961891 0 0.93677536231883773 0.14999999999999089 0 0.95386563387744361 0.1041487415577465 0 0.95391631417672862 0.19584263333809451 0 1 0.19999999999974799 0 1 0.14999999999961891 0 0.95391631417672862 0.19584263333809451 0 0.93677536231883773 0.14999999999999089 0 0.90416666666668166 0.20416666666667119 0 0.93677536231883773 0.14999999999999089 0 0.88088768115941807 0.14674609810479519 0 0.90416666666668166 0.20416666666667119 0 0.93677536231883773 0.14999999999999089 0 0.88088768115941807 0.14674609810479519 0 0.90299850604006393 0.09563452813493091 0 0.88088768115941807 0.14674609810479519 0 0.90416666666668166 0.20416666666667119 0 0.85600844944842547 0.1848341897950983 0 0.89898474358614167 0.25391965591104898 0 0.90416666666668166 0.20416666666667119 0 0.8517097391133297 0.2356960729520409 0 0.89898474358614167 0.25391965591104898 0 0.94399509803921056 0.24399509803922639 0 0.90416666666668166 0.20416666666667119 0 0.94399509803921056 0.24399509803922639 0 0.95391631417672862 0.19584263333809451 0 0.90416666666668166 0.20416666666667119 0 0.94999999999986839 0 0 0.97166519676946894 0.033371144900598393 0 0.94399509803922566 0.056004901960802607 0 0.94999999999986839 0 0 1 0 0 0.97166519676946894 0.033371144900598393 0 1 0 0 1 0.049999999999896842 0 0.97166519676946894 0.033371144900598393 0 1 0.049999999999896842 0 0.97166519676946894 0.033371144900598393 0 0.97435614836748241 0.074999999999825387 0 0.97166519676946894 0.033371144900598393 0 0.94399509803922566 0.056004901960802607 0 0.97435614836748241 0.074999999999825387 0 0.94399509803922566 0.056004901960802607 0 0.97435614836748241 0.074999999999825387 0 0.95386563387744361 0.1041487415577465 0 0.97435614836748241 0.074999999999825387 0 1 0.099999999999753911 0 0.95386563387744361 0.1041487415577465 0 1 0.049999999999896842 0 0.97435614836748241 0.074999999999825387 0 1 0.099999999999753911 0 1 0.14999999999961891 0 1 0.099999999999753911 0 0.95386563387744361 0.1041487415577465 0 0.93677536231883773 0.14999999999999089 0 0.95386563387744361 0.1041487415577465 0 0.90299850604006393 0.09563452813493091 0 0.88088768115941807 0.14674609810479519 0 0.90299850604006393 0.09563452813493091 0 0.84725310900442086 0.10779732082922661 0 0.90299850604006393 0.09563452813493091 0 0.899991664607802 0.045289349238254978 0 0.85491058998398861 0.060047533455626502 0 0.94399509803922566 0.056004901960802607 0 0.95386563387744361 0.1041487415577465 0 0.90299850604006393 0.09563452813493091 0 0.94399509803922566 0.056004901960802607 0 0.90299850604006393 0.09563452813493091 0 0.899991664607802 0.045289349238254978 0 0.94999999999986839 0 0 0.94399509803922566 0.056004901960802607 0 0.899991664607802 0.045289349238254978 0 0.899991664607802 0.045289349238254978 0 0.89999999999973679 0 0 0.84999999999960507 0 0 0.94999999999986839 0 0 0.899991664607802 0.045289349238254978 0 0.89999999999973679 0 0 0.84999999999960507 0 0 0.81864958914740749 0.035890501779055867 0 0.79999999999947335 0 0 0.899991664607802 0.045289349238254978 0 0.84999999999960507 0 0 0.85491058998398861 0.060047533455626502 0 0.85491058998398861 0.060047533455626502 0 0.81864958914740749 0.035890501779055867 0 0.80185942888501827 0.074520613036224564 0 0.84999999999960507 0 0 0.85491058998398861 0.060047533455626502 0 0.81864958914740749 0.035890501779055867 0 0.85491058998398861 0.060047533455626502 0 0.84725310900442086 0.10779732082922661 0 0.80185942888501827 0.074520613036224564 0 0.90299850604006393 0.09563452813493091 0 0.85491058998398861 0.060047533455626502 0 0.84725310900442086 0.10779732082922661 0 0.84725310900442086 0.10779732082922661 0 0.80076557130237269 0.1154587552654202 0 0.80185942888501827 0.074520613036224564 0 0.84725310900442086 0.10779732082922661 0 0.80076557130237269 0.1154587552654202 0 0.82709327591102189 0.14937141670914489 0 0.80076557130237269 0.1154587552654202 0 0.76878382444651716 0.097147941686331368 0 0.80185942888501827 0.074520613036224564 0 0.76878382444651716 0.097147941686331368 0 0.77144070960558853 0.14311854477243749 0 0.72525833953073282 0.1032114801687094 0 0.80076557130237269 0.1154587552654202 0 0.76878382444651716 0.097147941686331368 0 0.77144070960558853 0.14311854477243749 0 0.76878382444651716 0.097147941686331368 0 0.80185942888501827 0.074520613036224564 0 0.7527966693318906 0.053051678021508272 0 0.81864958914740749 0.035890501779055867 0 0.80185942888501827 0.074520613036224564 0 0.78393852574753176 0.032039079577822822 0 0.80185942888501827 0.074520613036224564 0 0.78393852574753176 0.032039079577822822 0 0.7527966693318906 0.053051678021508272 0 0.78393852574753176 0.032039079577822822 0 0.7527966693318906 0.053051678021508272 0 0.74999999999934175 0 0 0.78393852574753176 0.032039079577822822 0 0.79999999999947335 0 0 0.74999999999934175 0 0 0.81864958914740749 0.035890501779055867 0 0.78393852574753176 0.032039079577822822 0 0.79999999999947335 0 0 0.81283102246527783 0.1881007222486438 0 0.8517097391133297 0.2356960729520409 0 0.79680861578956375 0.22656778056752541 0 0.81283102246527783 0.1881007222486438 0 0.8517097391133297 0.2356960729520409 0 0.85600844944842547 0.1848341897950983 0 0.81486180804364938 0.26321394949780091 0 0.8517097391133297 0.2356960729520409 0 0.79680861578956375 0.22656778056752541 0 0.90416666666668166 0.20416666666667119 0 0.8517097391133297 0.2356960729520409 0 0.85600844944842547 0.1848341897950983 0 0.88088768115941807 0.14674609810479519 0 0.85600844944842547 0.1848341897950983 0 0.82709327591102189 0.14937141670914489 0 0.88088768115941807 0.14674609810479519 0 0.84725310900442086 0.10779732082922661 0 0.82709327591102189 0.14937141670914489 0 0.81283102246527783 0.1881007222486438 0 0.85600844944842547 0.1848341897950983 0 0.82709327591102189 0.14937141670914489 0 0.81283102246527783 0.1881007222486438 0 0.77144070960558853 0.14311854477243749 0 0.76587607630038135 0.18880039518954719 0 0.81283102246527783 0.1881007222486438 0 0.82709327591102189 0.14937141670914489 0 0.77144070960558853 0.14311854477243749 0 0.80076557130237269 0.1154587552654202 0 0.82709327591102189 0.14937141670914489 0 0.77144070960558853 0.14311854477243749 0 0.77144070960558853 0.14311854477243749 0 0.76587607630038135 0.18880039518954719 0 0.72634814642510737 0.16106886917518889 0 0.76587607630038135 0.18880039518954719 0 0.79680861578956375 0.22656778056752541 0 0.75668890529066124 0.2244279804069782 0 0.81283102246527783 0.1881007222486438 0 0.76587607630038135 0.18880039518954719 0 0.79680861578956375 0.22656778056752541 0 0.77075983436335049 0.25919399014334171 0 0.81486180804364938 0.26321394949780091 0 0.79680861578956375 0.22656778056752541 0 0.77075983436335049 0.25919399014334171 0 0.79680861578956375 0.22656778056752541 0 0.75668890529066124 0.2244279804069782 0 0.77075983436335049 0.25919399014334171 0 0.75668890529066124 0.2244279804069782 0 0.72500000000000064 0.2498161764706 0 0.75668890529066124 0.2244279804069782 0 0.72500000000000064 0.2498161764706 0 0.72500000000001008 0.19776155966387679 0 0.72500000000000064 0.2498161764706 0 0.69397719155551807 0.2245125647000914 0 0.72500000000001008 0.19776155966387679 0 0.72500000000000064 0.2498161764706 0 0.69397719155551807 0.2245125647000914 0 0.67933712972090698 0.25920070958121938 0 0.69397719155551807 0.2245125647000914 0 0.72500000000001008 0.19776155966387679 0 0.6865991819015953 0.189116534044597 0 0.76587607630038135 0.18880039518954719 0 0.75668890529066124 0.2244279804069782 0 0.72500000000001008 0.19776155966387679 0 0.76587607630038135 0.18880039518954719 0 0.72500000000001008 0.19776155966387679 0 0.72634814642510737 0.16106886917518889 0 0.77144070960558853 0.14311854477243749 0 0.72634814642510737 0.16106886917518889 0 0.72525833953073282 0.1032114801687094 0 0.72634814642510737 0.16106886917518889 0 0.68391457121233579 0.14440470121196541 0 0.72525833953073282 0.1032114801687094 0 0.72500000000001008 0.19776155966387679 0 0.72634814642510737 0.16106886917518889 0 0.6865991819015953 0.189116534044597 0 0.72634814642510737 0.16106886917518889 0 0.68391457121233579 0.14440470121196541 0 0.6865991819015953 0.189116534044597 0 0.68391457121233579 0.14440470121196541 0 0.64011864159029941 0.18789607982138171 0 0.6865991819015953 0.189116534044597 0 0.68391457121233579 0.14440470121196541 0 0.65290632656860115 0.11434202593454081 0 0.6236733212988993 0.14864538214901801 0 0.68391457121233579 0.14440470121196541 0 0.64011864159029941 0.18789607982138171 0 0.6236733212988993 0.14864538214901801 0 0.64011864159029941 0.18789607982138171 0 0.65394964615507722 0.22666784374016369 0 0.59814117807200873 0.23398510860739519 0 0.65394964615507722 0.22666784374016369 0 0.59814117807200873 0.23398510860739519 0 0.62657463266645097 0.26524202571255862 0 0.69397719155551807 0.2245125647000914 0 0.65394964615507722 0.22666784374016369 0 0.67933712972090698 0.25920070958121938 0 0.64011864159029941 0.18789607982138171 0 0.65394964615507722 0.22666784374016369 0 0.6865991819015953 0.189116534044597 0 0.69397719155551807 0.2245125647000914 0 0.65394964615507722 0.22666784374016369 0 0.6865991819015953 0.189116534044597 0 0.69999999999921003 0 0 0.72683645290270404 0.027797073151180601 0 0.7010294155333181 0.056779085686491267 0 0.69999999999921003 0 0 0.7010294155333181 0.056779085686491267 0 0.66369801598854572 0.036327466368102787 0 0.7527966693318906 0.053051678021508272 0 0.74999999999934175 0 0 0.72683645290270404 0.027797073151180601 0 0.69999999999921003 0 0 0.74999999999934175 0 0 0.72683645290270404 0.027797073151180601 0 0.7527966693318906 0.053051678021508272 0 0.72683645290270404 0.027797073151180601 0 0.7010294155333181 0.056779085686491267 0 0.7010294155333181 0.056779085686491267 0 0.72525833953073282 0.1032114801687094 0 0.68330259535470161 0.10038702501083881 0 0.7527966693318906 0.053051678021508272 0 0.7010294155333181 0.056779085686491267 0 0.72525833953073282 0.1032114801687094 0 0.76878382444651716 0.097147941686331368 0 0.7527966693318906 0.053051678021508272 0 0.72525833953073282 0.1032114801687094 0 0.68391457121233579 0.14440470121196541 0 0.72525833953073282 0.1032114801687094 0 0.68330259535470161 0.10038702501083881 0 0.68330259535470161 0.10038702501083881 0 0.65290632656860115 0.11434202593454081 0 0.65408113592120842 0.073941773121567966 0 0.68391457121233579 0.14440470121196541 0 0.68330259535470161 0.10038702501083881 0 0.65290632656860115 0.11434202593454081 0 0.65290632656860115 0.11434202593454081 0 0.61956000905586006 0.1043312481793135 0 0.6236733212988993 0.14864538214901801 0 0.65290632656860115 0.11434202593454081 0 0.65408113592120842 0.073941773121567966 0 0.61956000905586006 0.1043312481793135 0 0.65408113592120842 0.073941773121567966 0 0.61940220174112337 0.047251958781050582 0 0.61956000905586006 0.1043312481793135 0 0.7010294155333181 0.056779085686491267 0 0.68330259535470161 0.10038702501083881 0 0.65408113592120842 0.073941773121567966 0 0.7010294155333181 0.056779085686491267 0 0.65408113592120842 0.073941773121567966 0 0.66369801598854572 0.036327466368102787 0 0.65408113592120842 0.073941773121567966 0 0.66369801598854572 0.036327466368102787 0 0.61940220174112337 0.047251958781050582 0 0.66369801598854572 0.036327466368102787 0 0.64999999999907843 0 0 0.61940220174112337 0.047251958781050582 0 0.69999999999921003 0 0 0.66369801598854572 0.036327466368102787 0 0.64999999999907843 0 0 0.59999999999894682 0 0 0.57396793757665954 0.037011367187645222 0 0.5499999999988151 0 0 0.64999999999907843 0 0 0.59999999999894682 0 0 0.61940220174112337 0.047251958781050582 0 0.59999999999894682 0 0 0.61940220174112337 0.047251958781050582 0 0.57396793757665954 0.037011367187645222 0 0.61940220174112337 0.047251958781050582 0 0.57396793757665954 0.037011367187645222 0 0.57667858002728545 0.078486105337742612 0 0.61940220174112337 0.047251958781050582 0 0.57667858002728545 0.078486105337742612 0 0.61956000905586006 0.1043312481793135 0 0.61956000905586006 0.1043312481793135 0 0.58516465772821369 0.11653801664834119 0 0.6236733212988993 0.14864538214901801 0 0.57667858002728545 0.078486105337742612 0 0.61956000905586006 0.1043312481793135 0 0.58516465772821369 0.11653801664834119 0 0.58516465772821369 0.11653801664834119 0 0.54979595918804436 0.1060565713905809 0 0.56202748619534593 0.15054058349222879 0 0.57667858002728545 0.078486105337742612 0 0.58516465772821369 0.11653801664834119 0 0.54979595918804436 0.1060565713905809 0 0.54979595918804436 0.1060565713905809 0 0.51076801031701946 0.1202837388510348 0 0.52375890611712683 0.059318771819432882 0 0.47881186583059909 0.093591717165689425 0 0.51076801031701946 0.1202837388510348 0 0.52375890611712683 0.059318771819432882 0 0.57667858002728545 0.078486105337742612 0 0.54979595918804436 0.1060565713905809 0 0.52375890611712683 0.059318771819432882 0 0.57396793757665954 0.037011367187645222 0 0.52375890611712683 0.059318771819432882 0 0.5499999999988151 0 0 0.57396793757665954 0.037011367187645222 0 0.57667858002728545 0.078486105337742612 0 0.52375890611712683 0.059318771819432882 0 0.49999999999869432 0 0 0.52375890611712683 0.059318771819432882 0 0.5499999999988151 0 0 0.59814117807200873 0.23398510860739519 0 0.59443395090188023 0.18455690917515069 0 0.55306006949600994 0.20198184231352201 0 0.59814117807200873 0.23398510860739519 0 0.55306006949600994 0.20198184231352201 0 0.54248833945060504 0.2520322959927106 0 0.64011864159029941 0.18789607982138171 0 0.59814117807200873 0.23398510860739519 0 0.59443395090188023 0.18455690917515069 0 0.64011864159029941 0.18789607982138171 0 0.59443395090188023 0.18455690917515069 0 0.6236733212988993 0.14864538214901801 0 0.58516465772821369 0.11653801664834119 0 0.6236733212988993 0.14864538214901801 0 0.56202748619534593 0.15054058349222879 0 0.59443395090188023 0.18455690917515069 0 0.6236733212988993 0.14864538214901801 0 0.56202748619534593 0.15054058349222879 0 0.59443395090188023 0.18455690917515069 0 0.56202748619534593 0.15054058349222879 0 0.55306006949600994 0.20198184231352201 0 0.56202748619534593 0.15054058349222879 0 0.51729576145820033 0.1683240575987815 0 0.55306006949600994 0.20198184231352201 0 0.54979595918804436 0.1060565713905809 0 0.51076801031701946 0.1202837388510348 0 0.56202748619534593 0.15054058349222879 0 0.48466639505193998 0.1421439844745814 0 0.51076801031701946 0.1202837388510348 0 0.51729576145820033 0.1683240575987815 0 0.51076801031701946 0.1202837388510348 0 0.56202748619534593 0.15054058349222879 0 0.51729576145820033 0.1683240575987815 0 0.51729576145820033 0.1683240575987815 0 0.50760557329222289 0.20700468884612061 0 0.55306006949600994 0.20198184231352201 0 0.50760557329222289 0.20700468884612061 0 0.55306006949600994 0.20198184231352201 0 0.54248833945060504 0.2520322959927106 0 0.49695729691142171 0.25014895411178018 0 0.50760557329222289 0.20700468884612061 0 0.54248833945060504 0.2520322959927106 0 0.49695729691142171 0.25014895411178018 0 0.5 0.29999999999999999 0 0.54248833945060504 0.2520322959927106 0 0.5 0.29999999999999999 0 0.54999999999999993 0.29999999999999999 0 0.52752007115234678 0.33170632466418198 0 0.5 0.29999999999999999 0 0.54999999999999993 0.29999999999999999 0 0.54248833945060504 0.2520322959927106 0 0.5 0.29999999999999999 0 0.54999999999999993 0.29999999999999999 0 0.54999999999999993 0.29999999999999999 0 0.54248833945060504 0.2520322959927106 0 0.5794309697024993 0.27124795968204829 0 0.59814117807200873 0.23398510860739519 0 0.54248833945060504 0.2520322959927106 0 0.5794309697024993 0.27124795968204829 0 0.54999999999999993 0.29999999999999999 0 0.59999999999999976 0.29999999999999999 0 0.54999999999999993 0.29999999999999999 0 0.5794309697024993 0.27124795968204829 0 0.59999999999999976 0.29999999999999999 0 0.59999999999999976 0.29999999999999999 0 0.6499999999999998 0.29999999999999999 0 0.5794309697024993 0.27124795968204829 0 0.59999999999999976 0.29999999999999999 0 0.62657463266645097 0.26524202571255862 0 0.59814117807200873 0.23398510860739519 0 0.5794309697024993 0.27124795968204829 0 0.62657463266645097 0.26524202571255862 0 0.61959173890754571 0.33832250091341232 0 0.56836770495988642 0.3523062350852913 0 0.6084546825910605 0.37989672713932537 0 0.59999999999999976 0.29999999999999999 0 0.61959173890754571 0.33832250091341232 0 0.6499999999999998 0.29999999999999999 0 0.59999999999999976 0.29999999999999999 0 0.61959173890754571 0.33832250091341232 0 0.56836770495988642 0.3523062350852913 0 0.54999999999999993 0.29999999999999999 0 0.59999999999999976 0.29999999999999999 0 0.56836770495988642 0.3523062350852913 0 0.56836770495988642 0.3523062350852913 0 0.52752007115234678 0.33170632466418198 0 0.52289427570932567 0.3932284363388488 0 0.54999999999999993 0.29999999999999999 0 0.56836770495988642 0.3523062350852913 0 0.52752007115234678 0.33170632466418198 0 0.49077833859261139 0.35229981449445641 0 0.5 0.29999999999999999 0 0.52752007115234678 0.33170632466418198 0 0.49077833859261139 0.35229981449445641 0 0.52752007115234678 0.33170632466418198 0 0.52289427570932567 0.3932284363388488 0 0.56836770495988642 0.3523062350852913 0 0.52289427570932567 0.3932284363388488 0 0.57744073070774993 0.41535148636609359 0 0.52289427570932567 0.3932284363388488 0 0.53823865529665704 0.45873898050322898 0 0.57744073070774993 0.41535148636609359 0 0.48858720058566618 0.43964267759203868 0 0.52289427570932567 0.3932284363388488 0 0.53823865529665704 0.45873898050322898 0 0.49102375406324739 0.49123754822244059 0 0.53330375813596242 0.50827942741749099 0 0.53823865529665704 0.45873898050322898 0 0.49102375406324739 0.49123754822244059 0 0.48858720058566618 0.43964267759203868 0 0.53823865529665704 0.45873898050322898 0 0.53330375813596242 0.50827942741749099 0 0.57611405284611883 0.50165903596042916 0 0.53823865529665704 0.45873898050322898 0 0.57611405284611883 0.50165903596042916 0 0.57975577671020095 0.46172033326338591 0 0.61547661924074692 0.48539576058873962 0 0.57611405284611883 0.50165903596042916 0 0.53823865529665704 0.45873898050322898 0 0.57975577671020095 0.46172033326338591 0 0.57975577671020095 0.46172033326338591 0 0.61209567303293111 0.44669033081290321 0 0.57744073070774993 0.41535148636609359 0 0.53823865529665704 0.45873898050322898 0 0.57975577671020095 0.46172033326338591 0 0.57744073070774993 0.41535148636609359 0 0.57975577671020095 0.46172033326338591 0 0.61209567303293111 0.44669033081290321 0 0.61547661924074692 0.48539576058873962 0 0.56836770495988642 0.3523062350852913 0 0.57744073070774993 0.41535148636609359 0 0.6084546825910605 0.37989672713932537 0 0.61209567303293111 0.44669033081290321 0 0.57744073070774993 0.41535148636609359 0 0.63912439215427275 0.41063340167983359 0 0.57744073070774993 0.41535148636609359 0 0.6084546825910605 0.37989672713932537 0 0.63912439215427275 0.41063340167983359 0 0.6084546825910605 0.37989672713932537 0 0.63912439215427275 0.41063340167983359 0 0.65481233915350323 0.35652751921065562 0 0.63912439215427275 0.41063340167983359 0 0.65178832218679827 0.45929119821019959 0 0.6879972333610942 0.43038561374960838 0 0.63912439215427275 0.41063340167983359 0 0.68128176404677243 0.38629093627004979 0 0.6879972333610942 0.43038561374960838 0 0.63912439215427275 0.41063340167983359 0 0.68128176404677243 0.38629093627004979 0 0.65481233915350323 0.35652751921065562 0 0.61547661924074692 0.48539576058873962 0 0.6541250972820879 0.49999999999999989 0 0.65178832218679827 0.45929119821019959 0 0.61209567303293111 0.44669033081290321 0 0.61547661924074692 0.48539576058873962 0 0.65178832218679827 0.45929119821019959 0 0.61209567303293111 0.44669033081290321 0 0.63912439215427275 0.41063340167983359 0 0.65178832218679827 0.45929119821019959 0 0.65178832218679827 0.45929119821019959 0 0.69385896817107129 0.48377516041410151 0 0.6879972333610942 0.43038561374960838 0 0.6541250972820879 0.49999999999999989 0 0.65178832218679827 0.45929119821019959 0 0.69385896817107129 0.48377516041410151 0 0.7152569930854884 0.5237994455134295 0 0.69385896817107129 0.48377516041410151 0 0.73947346780852752 0.49062440112282169 0 0.69385896817107129 0.48377516041410151 0 0.73483647259922602 0.44789725365921768 0 0.6879972333610942 0.43038561374960838 0 0.69385896817107129 0.48377516041410151 0 0.73483647259922602 0.44789725365921768 0 0.73947346780852752 0.49062440112282169 0 0.68128176404677243 0.38629093627004979 0 0.72622533758026719 0.40265885511101601 0 0.71508799138962864 0.36622814920737751 0 0.73483647259922602 0.44789725365921768 0 0.6879972333610942 0.43038561374960838 0 0.72622533758026719 0.40265885511101601 0 0.68128176404677243 0.38629093627004979 0 0.6879972333610942 0.43038561374960838 0 0.72622533758026719 0.40265885511101601 0 0.77354604466818633 0.40378688774472771 0 0.73483647259922602 0.44789725365921768 0 0.72622533758026719 0.40265885511101601 0 0.72622533758026719 0.40265885511101601 0 0.74764719760526988 0.3719647154012321 0 0.71508799138962864 0.36622814920737751 0 0.77354604466818633 0.40378688774472771 0 0.72622533758026719 0.40265885511101601 0 0.74764719760526988 0.3719647154012321 0 0.74764719760526988 0.3719647154012321 0 0.71508799138962864 0.36622814920737751 0 0.73090396928863699 0.33699297293167962 0 0.71508799138962864 0.36622814920737751 0 0.68887083591306764 0.33632058575757479 0 0.73090396928863699 0.33699297293167962 0 0.68128176404677243 0.38629093627004979 0 0.71508799138962864 0.36622814920737751 0 0.68887083591306764 0.33632058575757479 0 0.68887083591306764 0.33632058575757479 0 0.73090396928863699 0.33699297293167962 0 0.69999999999999984 0.29999999999999999 0 0.72500000000000064 0.2498161764706 0 0.74999999999999989 0.29999999999999999 0 0.69999999999999984 0.29999999999999999 0 0.74999999999999989 0.29999999999999999 0 0.69999999999999984 0.29999999999999999 0 0.73090396928863699 0.33699297293167962 0 0.74999999999999989 0.29999999999999999 0 0.69999999999999984 0.29999999999999999 0 0.77075983436335049 0.25919399014334171 0 0.72500000000000064 0.2498161764706 0 0.74999999999999989 0.29999999999999999 0 0.72500000000000064 0.2498161764706 0 0.69999999999999984 0.29999999999999999 0 0.67933712972090698 0.25920070958121938 0 0.69999999999999984 0.29999999999999999 0 0.67933712972090698 0.25920070958121938 0 0.6499999999999998 0.29999999999999999 0 0.68887083591306764 0.33632058575757479 0 0.69999999999999984 0.29999999999999999 0 0.6499999999999998 0.29999999999999999 0 0.69999999999999984 0.29999999999999999 0 0.6499999999999998 0.29999999999999999 0 0.67933712972090698 0.25920070958121938 0 0.62657463266645097 0.26524202571255862 0 0.6499999999999998 0.29999999999999999 0 0.65394964615507722 0.22666784374016369 0 0.67933712972090698 0.25920070958121938 0 0.62657463266645097 0.26524202571255862 0 0.59999999999999976 0.29999999999999999 0 0.62657463266645097 0.26524202571255862 0 0.6499999999999998 0.29999999999999999 0 0.61959173890754571 0.33832250091341232 0 0.6499999999999998 0.29999999999999999 0 0.65481233915350323 0.35652751921065562 0 0.61959173890754571 0.33832250091341232 0 0.6084546825910605 0.37989672713932537 0 0.65481233915350323 0.35652751921065562 0 0.68128176404677243 0.38629093627004979 0 0.68887083591306764 0.33632058575757479 0 0.65481233915350323 0.35652751921065562 0 0.68887083591306764 0.33632058575757479 0 0.6499999999999998 0.29999999999999999 0 0.65481233915350323 0.35652751921065562 0 
</DataArray>
</Points>
<Cells>
<DataArray type="UInt32" Name="connectivity" format="ascii">
0 1 2 3 4 5 6 7 8 9 10 11 12 13 14 15 16 17 18 19 20 21 22 23 24 25 26 27 28 29 30 31 32 33 34 35 36 37 38 39 40 41 42 43 44 45 46 47 48 49 50 51 52 53 54 55 56 57 58 59 60 61 62 63 64 65 66 67 68 69 70 71 72 73 74 75 76 77 78 79 80 81 82 83 84 85 86 87 88 89 90 91 92 93 94 95 96 97 98 99 100 101 102 103 104 105 106 107 108 109 110 111 112 113 114 115 116 117 118 119 120 121 122 123 124 125 126 127 128 129 130 131 132 133 134 135 136 137 138 139 140 141 142 143 144 145 146 147 148 149 150 151 152 153 154 155 156 157 158 159 160 161 162 163 164 165 166 167 168 169 170 171 172 173 174 175 176 177 178 179 180 181 182 183 184 185 186 187 188 189 190 191 192 193 194 195 196 197 198 199 200 201 202 203 204 205 206 207 208 209 210 211 212 213 214 215 216 217 218 219 220 221 222 223 224 225 226 227 228 229 230 231 232 233 234 235 236 237 238 239 240 241 242 243 244 245 246 247 248 249 250 251 252 253 254 255 256 257 258 259 260 261 262 263 264 265 266 267 268 269 270 271 272 273 274 275 276 277 278 279 280 281 282 283 284 285 286 287 288 289 290 291 292 293 294 295 296 297 298 299 300 301 302 303 304 305 306 307 308 309 310 311 312 313 314 315 316 317 318 319 320 321 322 323 324 325 326 327 328 329 330 331 332 333 334 335 336 337 338 339 340 341 342 343 344 345 346 347 348 349 350 351 352 353 354 355 356 357 358 359 360 361 362 363 364 365 366 367 368 369 370 371 372 373 374 375 376 377 378 379 380 381 382 383 384 385 386 387 388 389 390 391 392 393 394 395 396 397 398 399 400 401 402 403 404 405 406 407 408 409 410 411 412 413 414 415 416 417 418 419 420 421 422 423 424 425 426 427 428 429 430 431 432 433 434 435 436 437 438 439 440 441 442 443 444 445 446 447 448 449 450 451 452 453 454 455 456 457 458 459 460 461 462 463 464 465 466 467 468 469 470 471 472 473 474 475 476 477 478 479 480 481 482 483 484 485 486 487 488 489 490 491 492 493 494 495 496 497 498 499 500 501 502 503 504 505 506 507 508 509 510 511 512 513 514 515 516 517 518 519 520 521 522 523 524 525 526 527 528 529 530 531 532 533 534 535 536 537 538 539 540 541 542 543 544 545 546 547 548 549 550 551 552 553 554 555 556 557 558 559 560 561 562 563 564 565 566 567 568 569 570 571 572 573 574 575 576 577 578 579 580 581 582 583 584 585 586 587 588 589 590 591 592 593 594 595 596 597 598 599 600 601 602 603 604 605 606 607 608 609 610 611 612 613 614 615 616 617 618 619 620 621 622 623 624 625 626 627 628 629 630 631 632 633 634 635 636 637 638 639 640 641 642 643 644 645 646 647 648 649 650 651 652 653 654 655 656 657 658 659 660 661 662 663 664 665 666 667 668 669 670 671 672 673 674 675 676 677 678 679 680 681 682 683 684 685 686 687 688 689 690 691 692 693 694 695 696 697 698 699 700 701 702 703 704 705 706 707 708 709 710 711 712 713 714 715 716 717 718 719 720 721 722 723 724 725 726 727 728 729 730 731 732 733 734 735 736 737 738 739 740 741 742 743 744 745 746 747 748 749 750 751 752 753 754 755 756 757 758 759 760 761 762 763 764 765 766 767 768 769 770 771 772 773 774 775 776 777 778 779 780 781 782 783 784 785 786 787 788 789 790 791 792 793 794 795 796 797 798 799 800 801 802 803 804 805 806 807 808 809 810 811 812 813 814 815 816 817 818 819 820 821 822 823 824 825 826 827 828 829 830 831 832 833 834 835 836 837 838 839 840 841 842 843 844 845 846 847 848 849 850 851 852 853 854 855 856 857 858 859 860 861 862 863 864 865 866 867 868 869 870 871 872 873 874 875 876 877 878 879 880 881 882 883 884 885 886 887 888 889 890 891 892 893 894 895 896 897 898 899 900 901 902 903 904 905 906 907 908 909 910 911 912 913 914 915 916 917 918 919 920 921 922 923 924 925 926 927 928 929 930 931 932 933 934 935 936 937 938 939 940 941 942 943 944 945 946 947 948 949 950 951 952 953 954 955 956 957 958 959 960 961 962 963 964 965 966 967 968 969 970 971 972 973 974 975 976 977 978 979 980 981 982 983 984 985 986 987 988 989 990 991 992 993 994 995 996 997 998 999 1000 1001 1002 1003 1004 1005 1006 1007 1008 1009 1010 1011 1012 1013 1014 1015 1016 1017 1018 1019 1020 1021 1022 1023 1024 1025 1026 1027 1028 1029 1030 1031 1032 1033 1034 1035 1036 1037 1038 1039 1040 1041 1042 1043 1044 1045 1046 1047 1048 1049 1050 1051 1052 1053 1054 1055 1056 1057 1058 1059 1060 1061 1062 1063 1064 1065 1066 1067 1068 1069 1070 1071 1072 1073 1074 1075 1076 1077 1078 1079 1080 1081 1082 1083 1084 1085 1086 1087 1088 1089 1090 1091 1092 1093 1094 1095 1096 1097 1098 1099 1100 1101 1102 1103 1104 1105 1106 1107 1108 1109 1110 1111 1112 1113 1114 1115 1116 1117 1118 1119 1120 1121 1122 1123 1124 1125 1126 1127 1128 1129 1130 1131 1132 1133 1134 1135 1136 1137 1138 1139 1140 1141 1142 1143 1144 1145 1146 1147 1148 1149 1150 1151 1152 1153 1154 1155 1156 1157 1158 1159 1160 1161 1162 1163 1164 1165 1166 1167 1168 1169 1170 1171 1172 1173 1174 1175 1176 1177 1178 1179 1180 1181 1182 1183 1184 1185 1186 1187 1188 1189 1190 1191 1192 1193 1194 1195 1196 1197 1198 1199 1200 1201 1202 1203 1204 1205 1206 1207 1208 1209 1210 1211 1212 1213 1214 1215 1216 1217 1218 1219 1220 1221 1222 1223 1224 1225 1226 1227 1228 1229 1230 1231 1232 1233 1234 1235 1236 1237 1238 1239 1240 1241 1242 1243 1244 1245 1246 1247 1248 1249 1250 1251 1252 1253 1254 1255 1256 1257 1258 1259 1260 1261 1262 1263 1264 1265 1266 1267 1268 1269 1270 1271 1272 1273 1274 1275 1276 1277 1278 1279 1280 1281 1282 1283 1284 1285 1286 1287 1288 1289 1290 1291 1292 1293 1294 1295 1296 1297 1298 1299 1300 1301 1302 1303 1304 1305 1306 1307 1308 1309 1310 1311 1312 1313 1314 1315 1316 1317 1318 1319 1320 1321 1322 1323 1324 1325 1326 1327 1328 1329 1330 1331 1332 1333 1334 1335 1336 1337 1338 1339 1340 1341 1342 1343 1344 1345 1346 1347 1348 1349 1350 1351 1352 1353 1354 1355 1356 1357 1358 1359 1360 1361 1362 1363 1364 1365 1366 1367 1368 1369 1370 1371 1372 1373 1374 1375 1376 1377 1378 1379 1380 1381 1382 1383 1384 1385 1386 1387 1388 1389 1390 1391 1392 1393 1394 1395 1396 1397 1398 1399 1400 1401 1402 1403 1404 1405 1406 1407 1408 1409 1410 1411 1412 1413 1414 1415 1416 1417 1418 1419 1420 1421 1422 1423 1424 1425 1426 1427 1428 1429 1430 1431 1432 1433 1434 1435 1436 1437 1438 1439 1440 1441 1442 1443 1444 1445 1446 1447 1448 1449 1450 1451 1452 1453 1454 1455 1456 1457 1458 1459 1460 1461 1462 1463 1464 1465 1466 1467 1468 1469 1470 1471 1472 1473 1474 1475 1476 1477 1478 1479 1480 1481 1482 1483 1484 1485 1486 1487 1488 1489 1490 1491 1492 1493 1494 1495 1496 1497 1498 1499 1500 1501 1502 1503 1504 1505 1506 1507 1508 1509 1510 1511 1512 1513 1514 1515 1516 1517 1518 1519 1520 1521 1522 1523 1524 1525 1526 1527 1528 1529 1530 1531 1532 1533 1534 1535 1536 1537 1538 1539 1540 1541 1542 1543 1544 1545 1546 1547 1548 1549 1550 1551 1552 1553 1554 1555 1556 1557 1558 1559 1560 1561 1562 1563 1564 1565 1566 1567 1568 1569 1570 1571 1572 1573 1574 1575 1576 1577 1578 1579 1580 1581 1582 1583 1584 1585 1586 1587 1588 1589 1590 1591 1592 1593 1594 1595 1596 1597 1598 1599 1600 1601 1602 1603 1604 1605 1606 1607 1608 1609 1610 1611 1612 1613 1614 1615 1616 1617 1618 1619 1620 1621 1622 1623 1624 1625 1626 1627 1628 1629 1630 1631 1632 1633 1634 1635 1636 1637 1638 1639 1640 1641 1642 1643 1644 1645 1646 1647 1648 1649 1650 1651 1652 1653 1654 1655 1656 1657 1658 1659 1660 1661 1662 1663 1664 1665 1666 1667 1668 1669 1670 1671 1672 1673 1674 1675 1676 1677 1678 1679 1680 1681 1682 1683 1684 1685 1686 1687 1688 1689 1690 1691 1692 1693 1694 1695 1696 1697 1698 1699 1700 1701 1702 1703 1704 1705 1706 1707 1708 1709 1710 1711 1712 1713 1714 1715 1716 1717 1718 1719 1720 1721 1722 1723 1724 1725 1726 1727 1728 1729 1730 1731 1732 1733 1734 1735 1736 1737 1738 1739 1740 1741 1742 1743 1744 1745 1746 1747 1748 1749 1750 1751 1752 1753 1754 1755 1756 1757 1758 1759 1760 1761 1762 1763 1764 1765 1766 1767 1768 1769 1770 1771 1772 1773 1774 1775 1776 1777 1778 1779 1780 1781 1782 1783 1784 1785 1786 1787 1788 1789 1790 1791 1792 1793 1794 1795 1796 1797 1798 1799 1800 1801 1802 1803 1804 1805 1806 1807 1808 1809 1810 1811 1812 1813 1814 1815 1816 1817 1818 1819 1820 1821 1822 1823 1824 1825 1826 1827 1828 1829 1830 1831 1832 1833 1834 1835 1836 1837 1838 1839 1840 1841 1842 1843 1844 1845 1846 1847 1848 1849 1850 1851 1852 1853 1854 1855 1856 1857 1858 1859 1860 1861 1862 1863 1864 1865 1866 1867 1868 1869 1870 1871 1872 1873 1874 1875 1876 1877 1878 1879 1880 1881 1882 1883 1884 1885 1886 1887 1888 1889 1890 1891 1892 1893 1894 1895 1896 1897 1898 1899 1900 1901 1902 1903 1904 1905 1906 1907 1908 1909 1910 1911 1912 1913 1914 1915 1916 1917 1918 1919 1920 1921 1922 1923 1924 1925 1926 1927 1928 1929 1930 1931 1932 1933 1934 1935 1936 1937 1938 1939 1940 1941 1942 1943 1944 1945 1946 1947 1948 1949 1950 1951 1952 1953 1954 1955 1956 1957 1958 1959 1960 1961 1962 1963 1964 1965 1966 1967 1968 1969 1970 1971 1972 1973 1974 1975 1976 1977 1978 1979 1980 1981 1982 1983 1984 1985 1986 1987 1988 1989 1990 1991 1992 1993 1994 1995 1996 1997 1998 1999 2000 2001 2002 2003 2004 2005 2006 2007 2008 2009 2010 2011 2012 2013 2014 2015 2016 2017 2018 2019 2020 2021 2022 2023 2024 2025 2026 2027 2028 2029 2030 2031 2032 2033 2034 2035 2036 2037 2038 2039 2040 2041 2042 2043 2044 2045 2046 2047 2048 2049 2050 2051 2052 2053 2054 2055 2056 2057 2058 2059 2060 2061 2062 2063 2064 2065 2066 2067 2068 2069 2070 2071 2072 2073 2074 2075 2076 2077 2078 2079 2080 2081 2082 2083 2084 2085 2086 2087 2088 2089 2090 2091 2092 2093 2094 2095 2096 2097 2098 2099 2100 2101 2102 2103 2104 2105 2106 2107 2108 2109 2110 2111 2112 2113 2114 2115 2116 2117 2118 2119 2120 2121 2122 2123 2124 2125 2126 2127 2128 2129 2130 2131 2132 2133 2134 2135 2136 2137 2138 2139 2140 2141 2142 2143 2144 2145 2146 2147 2148 2149 2150 2151 2152 2153 2154 2155 2156 2157 2158 2159 2160 2161 2162 2163 2164 2165 2166 2167 2168 2169 2170 2171 2172 2173 2174 2175 2176 2177 2178 2179 2180 2181 2182 2183 2184 2185 2186 2187 2188 2189 2190 2191 2192 2193 2194 2195 2196 2197 2198 2199 2200 2201 2202 2203 2204 2205 2206 2207 2208 2209 2210 2211 2212 2213 2214 2215 2216 2217 2218 2219 2220 2221 2222 2223 2224 2225 2226 2227 2228 2229 2230 2231 2232 2233 2234 2235 2236 2237 2238 2239 2240 2241 2242 2243 2244 2245 2246 2247 2248 2249 2250 2251 2252 2253 2254 2255 2256 2257 2258 2259 2260 2261 2262 2263 2264 2265 2266 2267 2268 2269 2270 2271 2272 2273 2274 2275 2276 2277 2278 2279 2280 2281 2282 2283 2284 2285 2286 2287 2288 2289 2290 2291 2292 2293 2294 2295 2296 2297 2298 2299 2300 2301 2302 2303 2304 2305 2306 2307 2308 2309 2310 2311 2312 2313 2314 2315 2316 2317 2318 2319 2320 2321 2322 2323 2324 2325 2326 2327 2328 2329 2330 2331 2332 2333 2334 2335 2336 2337 2338 2339 2340 2341 2342 2343 2344 2345 2346 2347 2348 2349 2350 2351 2352 2353 2354 2355 2356 2357 2358 2359 2360 2361 2362 2363 2364 2365 2366 2367 2368 2369 2370 2371 2372 2373 2374 2375 2376 2377 2378 2379 2380 2381 2382 2383 2384 2385 2386 2387 2388 2389 2390 2391 2392 2393 2394 2395 2396 2397 2398 2399 2400 2401 2402 2403 2404 2405 2406 2407 2408 2409 2410 2411 2412 2413 2414 2415 2416 2417 2418 2419 2420 2421 2422 2423 2424 2425 2426 2427 2428 2429 2430 2431 2432 2433 2434 2435 2436 2437 2438 2439 2440 2441 2442 2443 2444 2445 2446 2447 2448 2449 2450 2451 2452 2453 2454 2455 2456 2457 2458 2459 2460 2461 2462 2463 2464 2465 2466 2467 2468 2469 2470 2471 2472 2473 2474 2475 2476 2477 2478 2479 2480 2481 2482 2483 2484 2485 2486 2487 2488 2489 2490 2491 2492 2493 2494 2495 2496 2497 2498 2499 2500 2501 2502 2503 2504 2505 2506 2507 2508 2509 2510 2511 2512 2513 2514 2515 2516 2517 2518 2519 2520 2521 2522 2523 2524 2525 2526 2527 2528 2529 2530 2531 2532 2533 2534 2535 2536 2537 2538 2539 2540 2541 2542 2543 2544 2545 2546 2547 2548 2549 2550 2551 2552 2553 2554 2555 2556 2557 2558 2559 2560 2561 2562 2563 2564 2565 2566 2567 2568 2569 2570 2571 2572 2573 2574 2575 2576 2577 2578 2579 2580 2581 2582 2583 2584 2585 2586 2587 2588 2589 2590 2591 2592 2593 2594 2595 2596 2597 2598 2599 2600 2601 2602 2603 2604 2605 2606 2607 2608 2609 2610 2611 2612 2613 2614 2615 2616 2617 2618 2619 2620 2621 2622 2623 2624 2625 2626 2627 2628 2629 2630 2631 2632 2633 2634 2635 2636 2637 2638 2639 2640 2641 2642 2643 2644 2645 2646 2647 2648 2649 2650 2651 2652 2653 2654 2655 2656 2657 2658 2659 2660 2661 2662 2663 2664 2665 2666 2667 2668 2669 2670 2671 2672 2673 2674 2675 2676 2677 2678 2679 2680 2681 2682 2683 2684 2685 2686 2687 2688 2689 2690 2691 2692 2693 2694 2695 2696 2697 2698 2699 2700 2701 2702 2703 2704 2705 2706 2707 2708 2709 2710 2711 2712 2713 2714 2715 2716 2717 2718 2719 2720 2721 2722 2723 2724 2725 2726 2727 2728 2729 2730 2731 2732 2733 2734 2735 2736 2737 2738 2739 2740 2741 2742 2743 2744 2745 2746 2747 2748 2749 2750 2751 2752 2753 2754 2755 2756 2757 2758 2759 2760 2761 2762 2763 2764 2765 2766 2767 2768 2769 2770 2771 2772 2773 2774 2775 2776 2777 2778 2779 2780 2781 2782 2783 2784 2785 2786 2787 2788 2789 2790 2791 2792 2793 2794 2795 2796 2797 2798 2799 2800 2801 2802 2803 2804 2805 2806 2807 2808 2809 2810 2811 2812 2813 2814 2815 2816 2817 2818 2819 2820 2821 2822 2823 2824 2825 2826 2827 2828 2829 2830 2831 2832 2833 2834 2835 2836 2837 2838 2839 2840 2841 2842 2843 2844 2845 2846 2847 2848 2849 2850 2851 2852 2853 2854 2855 2856 2857 2858 2859 2860 2861 2862 2863 2864 2865 2866 2867 2868 2869 2870 2871 2872 2873 2874 2875 2876 2877 2878 2879 2880 2881 2882 2883 2884 2885 2886 2887 2888 2889 2890 2891 2892 2893 2894 2895 2896 2897 2898 2899 2900 2901 2902 2903 2904 2905 2906 2907 2908 2909 2910 2911 2912 2913 2914 2915 2916 2917 2918 2919 2920 2921 2922 2923 2924 2925 2926 2927 2928 2929 2930 2931 2932 2933 2934 2935 2936 2937 2938 2939 2940 2941 2942 2943 2944 2945 2946 2947 2948 2949 2950 2951 2952 2953 2954 2955 2956 2957 2958 2959 2960 2961 2962 2963 2964 2965 2966 2967 2968 2969 2970 2971 2972 2973 2974 2975 2976 2977 2978 2979 2980 2981 2982 2983 2984 2985 2986 2987 2988 2989 2990 2991 2992 2993 2994 2995 2996 2997 2998 2999 3000 3001 3002 3003 3004 3005 3006 3007 3008 3009 3010 3011 3012 3013 3014 3015 3016 3017 3018 3019 3020 3021 3022 3023 3024 3025 3026 3027 3028 3029 3030 3031 3032 3033 3034 3035 3036 3037 3038 3039 3040 3041 3042 3043 3044 3045 3046 3047 3048 3049 3050 3051 3052 3053 3054 3055 3056 3057 3058 3059 3060 3061 3062 3063 3064 3065 3066 3067 3068 3069 3070 3071 3072 3073 3074 3075 3076 3077 3078 3079 3080 3081 3082 3083 3084 3085 3086 3087 3088 3089 3090 3091 3092 3093 3094 3095 3096 3097 3098 3099 3100 3101 3102 3103 3104 3105 3106 3107 3108 3109 3110 3111 3112 3113 3114 3115 3116 3117 3118 3119 3120 3121 3122 3123 3124 3125 3126 3127 3128 3129 3130 3131 3132 3133 3134 3135 3136 3137 3138 3139 3140 3141 
</DataArray>
<DataArray type="UInt32" Name="offsets" format="ascii">
3 6 9 12 15 18 21 24 27 30 33 36 39 42 45 48 51 54 57 60 63 66 69 72 75 78 81 84 87 90 93 96 99 102 105 108 111 114 117 120 123 126 129 132 135 138 141 144 147 150 153 156 159 162 165 168 171 174 177 180 183 186 189 192 195 198 201 204 207 210 213 216 219 222 225 228 231 234 237 240 243 246 249 252 255 258 261 264 267 270 273 276 279 282 285 288 291 294 297 300 303 306 309 312 315 318 321 324 327 330 333 336 339 342 345 348 351 354 357 360 363 366 369 372 375 378 381 384 387 390 393 396 399 402 405 408 411 414 417 420 423 426 429 432 435 438 441 444 447 450 453 456 459 462 465 468 471 474 477 480 483 486 489 492 495 498 501 504 507 510 513 516 519 522 525 528 531 534 537 540 543 546 549 552 555 558 561 564 567 570 573 576 579 582 585 588 591 594 597 600 603 606 609 612 615 618 621 624 627 630 633 636 639 642 645 648 651 654 657 660 663 666 669 672 675 678 681 684 687 690 693 696 699 702 705 708 711 714 717 720 723 726 729 732 735 738 741 744 747 750 753 756 759 762 765 768 771 774 777 780 783 786 789 792 795 798 801 804 807 810 813 816 819 822 825 828 831 834 837 840 843 846 849 852 855 858 861 864 867 870 873 876 879 882 885 888 891 894 897 900 903 906 909 912 915 918 921 924 927 930 933 936 939 942 945 948 951 954 957 960 963 966 969 972 975 978 981 984 987 990 993 996 999 1002 1005 1008 1011 1014 1017 1020 1023 1026 1029 1032 1035 1038 1041 1044 1047 1050 1053 1056 1059 1062 1065 1068 1071 1074 1077 1080 1083 1086 1089 1092 1095 1098 1101 1104 1107 1110 1113 1116 1119 1122 1125 1128 1131 1134 1137 1140 1143 1146 1149 1152 1155 1158 1161 1164 1167 1170 1173 1176 1179 1182 1185 1188 1191 1194 1197 1200 1203 1206 1209 1212 1215 1218 1221 1224 1227 1230 1233 1236 1239 1242 1245 1248 1251 1254 1257 1260 1263 1266 1269 1272 1275 1278 1281 1284 1287 1290 1293 1296 1299 1302 1305 1308 1311 1314 1317 1320 1323 1326 1329 1332 1335 1338 1341 1344 1347 1350 1353 1356 1359 1362 1365 1368 1371 1374 1377 1380 1383 1386 1389 1392 1395 1398 1401 1404 1407 1410 1413 1416 1419 1422 1425 1428 1431 1434 1437 1440 1443 1446 1449 1452 1455 1458 1461 1464 1467 1470 1473 1476 1479 1482 1485 1488 1491 1494 1497 1500 1503 1506 1509 1512 1515 1518 1521 1524 1527 1530 1533 1536 1539 1542 1545 1548 1551 1554 1557 1560 1563 1566 1569 1572 1575 1578 1581 1584 1587 1590 1593 1596 1599 1602 1605 1608 1611 1614 1616 1619 1622 1624 1627 1630 1632 1635 1638 1641 1644 1647 1650 1653 1656 1659 1662 1665 1668 1671 1673 1676 1679 1682 1685 1688 1690 1693 1696 1699 1702 1705 1708 1711 1714 1717 1720 1723 1726 1729 1732 1735 1738 1741 1744 1747 1750 1753 1756 1759 1762 1765 1768 1771 1774 1777 1780 1783 1786 1789 1792 1795 1798 1801 1804 1807 1810 1813 1816 1819 1822 1825 1828 1831 1834 1837 1840 1843 1846 1849 1852 1855 1858 1861 1864 1867 1870 1873 1876 1879 1882 1885 1888 1891 1894 1897 1900 1903 1906 1909 1912 1915 1918 1921 1924 1927 1930 1933 1936 1939 1942 1945 1948 1951 1954 1957 1960 1963 1966 1969 1972 1975 1978 1981 1984 1987 1990 1993 1996 1999 2002 2005 2008 2011 2014 2017 2020 2023 2026 2029 2032 2035 2038 2041 2044 2047 2050 2053 2056 2059 2062 2065 2068 2071 2074 2077 2080 2083 2086 2089 2092 2095 2098 2101 2104 2107 2110 2113 2116 2119 2122 2125 2128 2131 2134 2137 2140 2143 2146 2149 2152 2155 2158 2161 2164 2167 2170 2173 2176 2179 2182 2185 2188 2191 2194 2196 2199 2202 2205 2207 2210 2213 2215 2218 2221 2224 2227 2230 2233 2236 2239 2242 2245 2248 2250 2253 2256 2259 2262 2264 2267 2270 2273 2276 2279 2282 2285 2288 2291 2294 2297 2300 2303 2306 2309 2312 2315 2318 2321 2324 2327 2330 2333 2336 2339 2342 2345 2348 2351 2354 2357 2360 2363 2366 2369 2372 2375 2378 2381 2384 2387 2390 2393 2396 2399 2402 2405 2408 2411 2414 2417 2420 2423 2426 2429 2432 2435 2438 2440 2443 2446 2449 2452 2455 2458 2461 2464 2467 2470 2473 2476 2479 2482 2484 2487 2490 2492 2495 2497 2500 2503 2506 2509 2512 2515 2518 2521 2524 2527 2530 2533 2536 2538 2541 2544 2547 2550 2553 2556 2559 2562 2565 2568 2571 2574 2577 2580 2583 2586 2589 2592 2595 2598 2601 2604 2607 2610 2613 2616 2619 2622 2625 2628 2631 2634 2637 2640 2643 2646 2649 2652 2655 2658 2661 2664 2667 2670 2673 2676 2679 2682 2685 2688 2691 2694 2697 2700 2703 2706 2709 2712 2715 2718 2721 2724 2727 2730 2733 2736 2739 2742 2745 2748 2751 2754 2757 2760 2763 2766 2769 2772 2775 2778 2781 2784 2787 2790 2793 2796 2799 2802 2805 2808 2811 2814 2817 2820 2823 2826 2829 2832 2835 2838 2841 2844 2847 2850 2853 2856 2859 2862 2865 2868 2871 2874 2877 2880 2883 2886 2889 2892 2895 2898 2901 2904 2907 2910 2913 2916 2919 2922 2925 2928 2931 2934 2937 2940 2943 2946 2948 2951 2954 2956 2959 2961 2964 2967 2970 2973 2976 2979 2982 2985 2988 2991 2994 2997 3000 3003 3006 3009 3012 3015 3018 3021 3024 3027 3030 3033 3036 3039 3042 3045 3048 3051 3054 3057 3060 3063 3066 3069 3072 3075 3078 3081 3084 3087 3090 3093 3096 3099 3102 3104 3107 3110 3113 3116 3119 3121 3124 3127 3130 3133 3136 3139 3142 
</DataArray>
<DataArray type="UInt32" Name="types" format="ascii">
5 5 5 5 5 5 5 5 5 5 5 5 5 5 5 5 5 5 5 5 5 5 5 5 5 5 5 5 5 5 5 5 5 5 5 5 5 5 5 5 5 5 5 5 5 5 5 5 5 5 5 5 5 5 5 5 5 5 5 5 5 5 5 5 5 5 5 5 5 5 5 5 5 5 5 5 5 5 5 5 5 5 5 5 5 5 5 5 5 5 5 5 5 5 5 5 5 5 5 5 5 5 5 5 5 5 5 5 5 5 5 5 5 5 5 5 5 5 5 5 5 5 5 5 5 5 5 5 5 5 5 5 5 5 5 5 5 5 5 5 5 5 5 5 5 5 5 5 5 5 5 5 5 5 5 5 5 5 5 5 5 5 5 5 5 5 5 5 5 5 5 5 5 5 5 5 5 5 5 5 5 5 5 5 5 5 5 5 5 5 5 5 5 5 5 5 5 5 5 5 5 5 5 5 5 5 5 5 5 5 5 5 5 5 5 5 5 5 5 5 5 5 5 5 5 5 5 5 5 5 5 5 5 5 5 5 5 5 5 5 5 5 5 5 5 5 5 5 5 5 5 5 5 5 5 5 5 5 5 5 5 5 5 5 5 5 5 5 5 5 5 5 5 5 5 5 5 5 5 5 5 5 5 5 5 5 5 5 5 5 5 5 5 5 5 5 5 5 5 5 5 5 5 5 5 5 5 5 5 5 5 5 5 5 5 5 5 5 5 5 5 5 5 5 5 5 5 5 5 5 5 5 5 5 5 5 5 5 5 5 5 5 5 5 5 5 5 5 5 5 5 5 5 5 5 5 5 5 5 5 5 5 5 5 5 5 5 5 5 5 5 5 5 5 5 5 5 5 5 5 5 5 5 5 5 5 5 5 5 5 5 5 5 5 5 5 5 5 5 5 5 5 5 5 5 5 5 5 5 5 5 5 5 5 5 5 5 5 5 5 5 5 5 5 5 5 5 5 5 5 5 5 5 5 5 5 5 5 5 5 5 5 5 5 5 5 5 5 5 5 5 5 5 5 5 5 5 5 5 5 5 5 5 5 5 5 5 5 5 5 5 5 5 5 5 5 5 5 5 5 5 5 5 5 5 5 5 5 5 5 5 5 5 5 5 5 5 5 5 5 5 5 5 5 5 5 5 5 5 5 5 5 5 5 5 5 5 5 5 5 5 5 5 5 5 5 5 5 5 5 5 5 5 5 5 5 5 5 3 5 5 3 5 5 3 5 5 5 5 5 5 5 5 5 5 5 5 5 3 5 5 5 5 5 3 5 5 5 5 5 5 5 5 5 5 5 5 5 5 5 5 5 5 5 5 5 5 5 5 5 5 5 5 5 5 5 5 5 5 5 5 5 5 5 5 5 5 5 5 5 5 5 5 5 5 5 5 5 5 5 5 5 5 5 5 5 5 5 5 5 5 5 5 5 5 5 5 5 5 5 5 5 5 5 5 5 5 5 5 5 5 5 5 5 5 5 5 5 5 5 5 5 5 5 5 5 5 5 5 5 5 5 5 5 5 5 5 5 5 5 5 5 5 5 5 5 5 5 5 5 5 5 5 5 5 5 5 5 5 5 5 5 5 5 5 5 5 5 5 5 5 5 5 5 5 5 5 5 5 5 5 5 5 5 5 5 5 5 5 5 5 5 5 3 5 5 5 3 5 5 3 5 5 5 5 5 5 5 5 5 5 5 3 5 5 5 5 3 5 5 5 5 5 5 5 5 5 5 5 5 5 5 5 5 5 5 5 5 5 5 5 5 5 5 5 5 5 5 5 5 5 5 5 5 5 5 5 5 5 5 5 5 5 5 5 5 5 5 5 5 5 5 5 5 5 5 3 5 5 5 5 5 5 5 5 5 5 5 5 5 5 3 5 5 3 5 3 5 5 5 5 5 5 5 5 5 5 5 5 5 3 5 5 5 5 5 5 5 5 5 5 5 5 5 5 5 5 5 5 5 5 5 5 5 5 5 5 5 5 5 5 5 5 5 5 5 5 5 5 5 5 5 5 5 5 5 5 5 5 5 5 5 5 5 5 5 5 5 5 5 5 5 5 5 5 5 5 5 5 5 5 5 5 5 5 5 5 5 5 5 5 5 5 5 5 5 5 5 5 5 5 5 5 5 5 5 5 5 5 5 5 5 5 5 5 5 5 5 5 5 5 5 5 5 5 5 5 5 5 5 5 5 5 5 5 5 5 5 5 5 5 5 5 5 5 5 5 3 5 5 3 5 3 5 5 5 5 5 5 5 5 5 5 5 5 5 5 5 5 5 5 5 5 5 5 5 5 5 5 5 5 5 5 5 5 5 5 5 5 5 5 5 5 5 5 5 5 5 5 5 3 5 5 5 5 5 3 5 5 5 5 5 5 5 
</DataArray>
</Cells>
<PointData Scalars="" Vectors="displacement," Tensors="">
<DataArray type="Float64" Name="displacement" NumberOfComponents="3" format="ascii">
-0.0018805365760695861 -0.0026384564544978313 0 -3.6848977795499757e-06 -8.7878413050333978e-06 0 -5.5913241473668142e-07 -4.0132397079036564e-06 0 -0.0018805365760695861 -0.0026384564544978313 0 -3.6848977795499757e-06 -8.7878413050333978e-06 0 -0.005253413681648421 -0.0068729766172337574 0 -0.0018805365760695861 -0.0026384564544978313 0 -5.5913241473668142e-07 -4.0132397079036564e-06 0 -0.0033750222194488286 -0.0043991826557782422 0 -0.0018805365760695861 -0.0026384564544978313 0 -0.0033750222194488286 -0.0043991826557782422 0 -0.005253413681648421 -0.0068729766172337574 0 -0.005253413681648421 -0.0068729766172337574 0 -0.0085302263856958487 -0.011994416983077995 0 -0.0072596180663011059 -0.010216777474806248 0 -0.0085302263856958487 -0.011994416983077995 0 -0.0072596180663011059 -0.010216777474806248 0 -0.011102906141398991 -0.016525552710860911 0 -0.0033750222194488286 -0.0043991826557782422 0 -0.0072596180663011059 -0.010216777474806248 0 -0.0054599105094381073 -0.0080261196420016601 0 -0.0033750222194488286 -0.0043991826557782422 0 -0.005253413681648421 -0.0068729766172337574 0 -0.0072596180663011059 -0.010216777474806248 0 -0.0072596180663011059 -0.010216777474806248 0 -0.0054599105094381073 -0.0080261196420016601 0 -0.0088556050734881018 -0.013707650908868146 0 -0.0054599105094381073 -0.0080261196420016601 0 -0.0088556050734881018 -0.013707650908868146 0 -0.0069518290997195318 -0.011320254004001558 0 -0.0054599105094381073 -0.0080261196420016601 0 -0.0050148090434615714 -0.0081054602309801292 0 -0.0069518290997195318 -0.011320254004001558 0 -0.0050148090434615714 -0.0081054602309801292 0 -0.0069518290997195318 -0.011320254004001558 0 -0.0068162755857767519 -0.012332809701395234 0 -0.0050148090434615714 -0.0081054602309801292 0 -0.0025626653498919691 -0.0037558845469109698 0 -0.0030130938848051776 -0.0050515484386779623 0 -0.0054599105094381073 -0.0080261196420016601 0 -0.0050148090434615714 -0.0081054602309801292 0 -0.0025626653498919691 -0.0037558845469109698 0 -0.0025626653498919691 -0.0037558845469109698 0 -9.8867086420281477e-07 -4.2358844393184661e-06 0 -6.6202513933037991e-07 -3.9054214949189259e-06 0 -5.5913241473668142e-07 -4.0132397079036564e-06 0 -0.0033750222194488286 -0.0043991826557782422 0 -9.8867086420281477e-07 -4.2358844393184661e-06 0 -0.0033750222194488286 -0.0043991826557782422 0 -0.0025626653498919691 -0.0037558845469109698 0 -9.8867086420281477e-07 -4.2358844393184661e-06 0 -0.0033750222194488286 -0.0043991826557782422 0 -0.0054599105094381073 -0.0080261196420016601 0 -0.0025626653498919691 -0.0037558845469109698 0 -0.01258110443365424 -0.021845141444507627 0 -0.012992431708210149 -0.020819615408190318 0 -0.014497203009530595 -0.024999721631930729 0 -0.01258110443365424 -0.021845141444507627 0 -0.012992431708210149 -0.020819615408190318 0 -0.011315281797411494 -0.018229173843467616 0 -0.01258110443365424 -0.021845141444507627 0 -0.011315281797411494 -0.018229173843467616 0 -0.010533424171296987 -0.018395369320930728 0 -0.011315281797411494 -0.018229173843467616 0 -0.011102906141398991 -0.016525552710860911 0 -0.0088556050734881018 -0.013707650908868146 0 -0.0072596180663011059 -0.010216777474806248 0 -0.011102906141398991 -0.016525552710860911 0 -0.0088556050734881018 -0.013707650908868146 0 -0.011315281797411494 -0.018229173843467616 0 -0.0088556050734881018 -0.013707650908868146 0 -0.010533424171296987 -0.018395369320930728 0 -0.012992431708210149 -0.020819615408190318 0 -0.011315281797411494 -0.018229173843467616 0 -0.011102906141398991 -0.016525552710860911 0 -0.0088556050734881018 -0.013707650908868146 0 -0.0069518290997195318 -0.011320254004001558 0 -0.0084775448907852997 -0.014612352126719307 0 -0.0069518290997195318 -0.011320254004001558 0 -0.0084775448907852997 -0.014612352126719307 0 -0.0068162755857767519 -0.012332809701395234 0 -0.0088556050734881018 -0.013707650908868146 0 -0.0084775448907852997 -0.014612352126719307 0 -0.010533424171296987 -0.018395369320930728 0 -0.010533424171296987 -0.018395369320930728 0 -0.011564606713329669 -0.02225878496784351 0 -0.0090410329539976249 -0.017599628596896566 0 -0.0084775448907852997 -0.014612352126719307 0 -0.010533424171296987 -0.018395369320930728 0 -0.0090410329539976249 -0.017599628596896566 0 -0.01258110443365424 -0.021845141444507627 0 -0.010533424171296987 -0.018395369320930728 0 -0.011564606713329669 -0.02225878496784351 0 -0.01258110443365424 -0.021845141444507627 0 -0.011564606713329669 -0.02225878496784351 0 -0.013695150604832874 -0.025926286509416599 0 -0.011564606713329669 -0.02225878496784351 0 -0.010053809229307506 -0.021222118253980866 0 -0.0090410329539976249 -0.017599628596896566 0 -0.0087803684402421971 -0.019863115974696113 0 -0.010053809229307506 -0.021222118253980866 0 -0.0090410329539976249 -0.017599628596896566 0 -0.0087803684402421971 -0.019863115974696113 0 -0.0090410329539976249 -0.017599628596896566 0 -0.007380468160715168 -0.015626543134028371 0 -0.007380468160715168 -0.015626543134028371 0 -0.0068162755857767519 -0.012332809701395234 0 -0.0057187715581721527 -0.011519096263366649 0 -0.0084775448907852997 -0.014612352126719307 0 -0.0090410329539976249 -0.017599628596896566 0 -0.0068162755857767519 -0.012332809701395234 0 -0.0090410329539976249 -0.017599628596896566 0 -0.007380468160715168 -0.015626543134028371 0 -0.0068162755857767519 -0.012332809701395234 0 -0.0068162755857767519 -0.012332809701395234 0 -0.0057187715581721527 -0.011519096263366649 0 -0.0047142318403817825 -0.0084943801915127407 0 -0.0057187715581721527 -0.011519096263366649 0 -0.0045178684142003229 -0.010184115860237916 0 -0.0062633685801067006 -0.014568449252571062 0 -0.0045178684142003229 -0.010184115860237916 0 -0.0062633685801067006 -0.014568449252571062 0 -0.0048774891905167027 -0.012445364751310806 0 -0.0062633685801067006 -0.014568449252571062 0 -0.0048774891905167027 -0.012445364751310806 0 -0.0055664980575966718 -0.015324911799105801 0 -0.007380468160715168 -0.015626543134028371 0 -0.0057187715581721527 -0.011519096263366649 0 -0.0062633685801067006 -0.014568449252571062 0 -0.0087803684402421971 -0.019863115974696113 0 -0.007380468160715168 -0.015626543134028371 0 -0.0072150016271750545 -0.018156734057721641 0 -0.007380468160715168 -0.015626543134028371 0 -0.0062633685801067006 -0.014568449252571062 0 -0.0072150016271750545 -0.018156734057721641 0 -0.0062633685801067006 -0.014568449252571062 0 -0.0072150016271750545 -0.018156734057721641 0 -0.0055664980575966718 -0.015324911799105801 0 -0.0072150016271750545 -0.018156734057721641 0 -0.0072804561621182652 -0.021113602274884229 0 -0.008662130997629764 -0.022457607608412634 0 -0.0087803684402421971 -0.019863115974696113 0 -0.0072150016271750545 -0.018156734057721641 0 -0.008662130997629764 -0.022457607608412634 0 -0.0016313392948752834 -0.002984745876482591 0 -6.6202513933037991e-07 -3.9054214949189259e-06 0 -0.0030130938848051776 -0.0050515484386779623 0 -0.0016313392948752834 -0.002984745876482591 0 -0.0030130938848051776 -0.0050515484386779623 0 -0.003412781680950854 -0.0067254338164040115 0 -0.0016313392948752834 -0.002984745876482591 0 -6.6202513933037991e-07 -3.9054214949189259e-06 0 -6.9085055901425941e-07 -3.9609259569745099e-06 0 -0.0025626653498919691 -0.0037558845469109698 0 -6.6202513933037991e-07 -3.9054214949189259e-06 0 -0.0030130938848051776 -0.0050515484386779623 0 -0.0050148090434615714 -0.0081054602309801292 0 -0.0030130938848051776 -0.0050515484386779623 0 -0.0047142318403817825 -0.0084943801915127407 0 -0.0050148090434615714 -0.0081054602309801292 0 -0.0068162755857767519 -0.012332809701395234 0 -0.0047142318403817825 -0.0084943801915127407 0 -0.0057187715581721527 -0.011519096263366649 0 -0.0047142318403817825 -0.0084943801915127407 0 -0.003412781680950854 -0.0067254338164040115 0 -0.0030130938848051776 -0.0050515484386779623 0 -0.0047142318403817825 -0.0084943801915127407 0 -0.003412781680950854 -0.0067254338164040115 0 -0.0057187715581721527 -0.011519096263366649 0 -0.0045178684142003229 -0.010184115860237916 0 -0.003412781680950854 -0.0067254338164040115 0 -0.0045178684142003229 -0.010184115860237916 0 -0.003412781680950854 -0.0067254338164040115 0 -0.0030042155255473896 -0.0067905420905470144 0 -0.0045178684142003229 -0.010184115860237916 0 -0.0030042155255473896 -0.0067905420905470144 0 -0.0034624877268308613 -0.0089996489564456942 0 -0.003412781680950854 -0.0067254338164040115 0 -0.0030042155255473896 -0.0067905420905470144 0 -0.0016317765837648541 -0.0034435531285192836 0 -0.0030042155255473896 -0.0067905420905470144 0 -0.0016317765837648541 -0.0034435531285192836 0 -0.0018046984578654615 -0.0044487460640855372 0 -0.0016313392948752834 -0.002984745876482591 0 -0.003412781680950854 -0.0067254338164040115 0 -0.0016317765837648541 -0.0034435531285192836 0 -0.0016313392948752834 -0.002984745876482591 0 -0.0016317765837648541 -0.0034435531285192836 0 -6.9085055901425941e-07 -3.9609259569745099e-06 0 -0.0016317765837648541 -0.0034435531285192836 0 -6.9085055901425941e-07 -3.9609259569745099e-06 0 -6.2672836258364195e-07 -3.8979843974337603e-06 0 -6.2672836258364195e-07 -3.8979843974337603e-06 0 -0.0018046984578654615 -0.0044487460640855372 0 -3.6895201338084891e-07 -3.8640504815576613e-06 0 -0.0016317765837648541 -0.0034435531285192836 0 -6.2672836258364195e-07 -3.8979843974337603e-06 0 -0.0018046984578654615 -0.0044487460640855372 0 -0.0018046984578654615 -0.0044487460640855372 0 -3.6895201338084891e-07 -3.8640504815576613e-06 0 -0.0011361694312622878 -0.0033127154426744899 0 -3.6895201338084891e-07 -3.8640504815576613e-06 0 -0.0011361694312622878 -0.0033127154426744899 0 -3.6005223705307669e-07 -3.8920721595248672e-06 0 -0.0011361694312622878 -0.0033127154426744899 0 -0.00072821619090004876 -0.0025364743814259775 0 -0.0017345668557350081 -0.0061723104662600231 0 -0.00072821619090004876 -0.0025364743814259775 0 -0.0017345668557350081 -0.0061723104662600231 0 -0.00090574174442877877 -0.0040462707766935561 0 -0.0011361694312622878 -0.0033127154426744899 0 -0.00072821619090004876 -0.0025364743814259775 0 -3.6005223705307669e-07 -3.8920721595248672e-06 0 -0.00072821619090004876 -0.0025364743814259775 0 -3.6005223705307669e-07 -3.8920721595248672e-06 0 -2.7107133893789628e-07 -3.8409119620183339e-06 0 -0.0017345668557350081 -0.0061723104662600231 0 -0.0026183966802907086 -0.010425244139512568 0 -0.001670087967133039 -0.008126129589480887 0 -0.0017345668557350081 -0.0061723104662600231 0 -0.0028549033039692753 -0.0091140524132324752 0 -0.0026183966802907086 -0.010425244139512568 0 -0.0011361694312622878 -0.0033127154426744899 0 -0.0017345668557350081 -0.0061723104662600231 0 -0.0021683172792159428 -0.0063007847421960497 0 -0.0017345668557350081 -0.0061723104662600231 0 -0.0028549033039692753 -0.0091140524132324752 0 -0.0021683172792159428 -0.0063007847421960497 0 -0.0028549033039692753 -0.0091140524132324752 0 -0.0021683172792159428 -0.0063007847421960497 0 -0.0034624877268308613 -0.0089996489564456942 0 -0.0018046984578654615 -0.0044487460640855372 0 -0.0011361694312622878 -0.0033127154426744899 0 -0.0021683172792159428 -0.0063007847421960497 0 -0.0018046984578654615 -0.0044487460640855372 0 -0.0021683172792159428 -0.0063007847421960497 0 -0.0034624877268308613 -0.0089996489564456942 0 -0.0030042155255473896 -0.0067905420905470144 0 -0.0018046984578654615 -0.0044487460640855372 0 -0.0034624877268308613 -0.0089996489564456942 0 -0.0045178684142003229 -0.010184115860237916 0 -0.0034624877268308613 -0.0089996489564456942 0 -0.0048774891905167027 -0.012445364751310806 0 -0.0034624877268308613 -0.0089996489564456942 0 -0.0048774891905167027 -0.012445364751310806 0 -0.0041683890551310531 -0.012229015582668146 0 -0.0048774891905167027 -0.012445364751310806 0 -0.0041683890551310531 -0.012229015582668146 0 -0.0055664980575966718 -0.015324911799105801 0 -0.0041683890551310531 -0.012229015582668146 0 -0.0046145198127907046 -0.015417989609639164 0 -0.0035626024737477964 -0.012372111828571222 0 -0.0041683890551310531 -0.012229015582668146 0 -0.0055664980575966718 -0.015324911799105801 0 -0.0046145198127907046 -0.015417989609639164 0 -0.0028549033039692753 -0.0091140524132324752 0 -0.0034624877268308613 -0.0089996489564456942 0 -0.0041683890551310531 -0.012229015582668146 0 -0.0072150016271750545 -0.018156734057721641 0 -0.0059827077931487154 -0.018382425270305851 0 -0.0072804561621182652 -0.021113602274884229 0 -0.0072150016271750545 -0.018156734057721641 0 -0.0059827077931487154 -0.018382425270305851 0 -0.0055664980575966718 -0.015324911799105801 0 -0.0059827077931487154 -0.018382425270305851 0 -0.0055664980575966718 -0.015324911799105801 0 -0.0046145198127907046 -0.015417989609639164 0 -0.0059827077931487154 -0.018382425270305851 0 -0.0046806682821405087 -0.018627694742338382 0 -0.006412255138292175 -0.021882304703421476 0 -0.0059827077931487154 -0.018382425270305851 0 -0.0046806682821405087 -0.018627694742338382 0 -0.0046145198127907046 -0.015417989609639164 0 -0.0046806682821405087 -0.018627694742338382 0 -0.0046145198127907046 -0.015417989609639164 0 -0.003481741462534218 -0.014278422253088919 0 -0.0046806682821405087 -0.018627694742338382 0 -0.003481741462534218 -0.014278422253088919 0 -0.0032291210420604993 -0.016732850272308312 0 -0.0046806682821405087 -0.018627694742338382 0 -0.0032291210420604993 -0.016732850272308312 0 -0.0040070888179740216 -0.021133516784499543 0 -0.0028549033039692753 -0.0091140524132324752 0 -0.0041683890551310531 -0.012229015582668146 0 -0.0035626024737477964 -0.012372111828571222 0 -0.0028549033039692753 -0.0091140524132324752 0 -0.0035626024737477964 -0.012372111828571222 0 -0.0026183966802907086 -0.010425244139512568 0 -0.0046145198127907046 -0.015417989609639164 0 -0.0035626024737477964 -0.012372111828571222 0 -0.003481741462534218 -0.014278422253088919 0 -0.003481741462534218 -0.014278422253088919 0 -0.0026183966802907086 -0.010425244139512568 0 -0.0024143099274064389 -0.012423924387801794 0 -0.0035626024737477964 -0.012372111828571222 0 -0.003481741462534218 -0.014278422253088919 0 -0.0026183966802907086 -0.010425244139512568 0 -0.0026183966802907086 -0.010425244139512568 0 -0.0024143099274064389 -0.012423924387801794 0 -0.001670087967133039 -0.008126129589480887 0 -0.0024143099274064389 -0.012423924387801794 0 -0.0021510070970427848 -0.015004349643647712 0 -0.0013828725127540498 -0.010282410510886027 0 -0.0024143099274064389 -0.012423924387801794 0 -0.0013828725127540498 -0.010282410510886027 0 -0.001670087967133039 -0.008126129589480887 0 -0.0032291210420604993 -0.016732850272308312 0 -0.0026707063978162571 -0.019231058978788407 0 -0.0040070888179740216 -0.021133516784499543 0 -0.003481741462534218 -0.014278422253088919 0 -0.0024143099274064389 -0.012423924387801794 0 -0.0032291210420604993 -0.016732850272308312 0 -0.0024143099274064389 -0.012423924387801794 0 -0.0032291210420604993 -0.016732850272308312 0 -0.0021510070970427848 -0.015004349643647712 0 -0.0032291210420604993 -0.016732850272308312 0 -0.0021510070970427848 -0.015004349643647712 0 -0.0026707063978162571 -0.019231058978788407 0 -0.0021510070970427848 -0.015004349643647712 0 -0.0015658145623035989 -0.017236103716856091 0 -0.0026707063978162571 -0.019231058978788407 0 -0.0021510070970427848 -0.015004349643647712 0 -0.0015658145623035989 -0.017236103716856091 0 -0.0011589103711222783 -0.013853250205046972 0 -0.0011589103711222783 -0.013853250205046972 0 -0.00025026996023663956 -0.012216336804217019 0 -0.00049662303210181791 -0.015318068891707736 0 -0.0015658145623035989 -0.017236103716856091 0 -0.0011589103711222783 -0.013853250205046972 0 -0.00049662303210181791 -0.015318068891707736 0 -0.0015658145623035989 -0.017236103716856091 0 -0.00083471106349819804 -0.018901270000233446 0 -0.00049662303210181791 -0.015318068891707736 0 -0.0013828725127540498 -0.010282410510886027 0 -0.0011589103711222783 -0.013853250205046972 0 -0.00073125507179175352 -0.01028416541916119 0 -0.0021510070970427848 -0.015004349643647712 0 -0.0013828725127540498 -0.010282410510886027 0 -0.0011589103711222783 -0.013853250205046972 0 -0.0011589103711222783 -0.013853250205046972 0 -0.00073125507179175352 -0.01028416541916119 0 -0.00025026996023663956 -0.012216336804217019 0 -0.0013828725127540498 -0.010282410510886027 0 -0.00073125507179175352 -0.01028416541916119 0 -0.0005517996658871364 -0.0065950770799590771 0 -0.00073125507179175352 -0.01028416541916119 0 -0.0005517996658871364 -0.0065950770799590771 0 -0.00026004992133718823 -0.0085406463764991416 0 -0.0013828725127540498 -0.010282410510886027 0 -0.0005517996658871364 -0.0065950770799590771 0 -0.00087110771041332981 -0.005701611725042975 0 -0.0005517996658871364 -0.0065950770799590771 0 -0.00030246465207456026 -0.0030366693290993637 0 -0.00087110771041332981 -0.005701611725042975 0 -0.0005517996658871364 -0.0065950770799590771 0 -0.00030246465207456026 -0.0030366693290993637 0 -4.1815922311183256e-05 -0.0040522469772653084 0 -0.00030246465207456026 -0.0030366693290993637 0 -1.6858695429712396e-07 -3.8376381360440251e-06 0 -4.1815922311183256e-05 -0.0040522469772653084 0 -0.00030246465207456026 -0.0030366693290993637 0 -1.6858695429712396e-07 -3.8376381360440251e-06 0 -1.6154346096436041e-07 -3.890384308885259e-06 0 -0.00030246465207456026 -0.0030366693290993637 0 -1.6154346096436041e-07 -3.890384308885259e-06 0 -0.00043871155095043262 -0.002599064334150246 0 -0.00030246465207456026 -0.0030366693290993637 0 -0.00043871155095043262 -0.002599064334150246 0 -0.00087110771041332981 -0.005701611725042975 0 -0.00043871155095043262 -0.002599064334150246 0 -2.7107133893789628e-07 -3.8409119620183339e-06 0 -0.00090574174442877877 -0.0040462707766935561 0 -0.00043871155095043262 -0.002599064334150246 0 -0.00090574174442877877 -0.0040462707766935561 0 -0.00087110771041332981 -0.005701611725042975 0 -1.6154346096436041e-07 -3.890384308885259e-06 0 -0.00043871155095043262 -0.002599064334150246 0 -2.7107133893789628e-07 -3.8409119620183339e-06 0 -0.00072821619090004876 -0.0025364743814259775 0 -2.7107133893789628e-07 -3.8409119620183339e-06 0 -0.00090574174442877877 -0.0040462707766935561 0 -0.0017345668557350081 -0.0061723104662600231 0 -0.00090574174442877877 -0.0040462707766935561 0 -0.001670087967133039 -0.008126129589480887 0 -0.0013828725127540498 -0.010282410510886027 0 -0.001670087967133039 -0.008126129589480887 0 -0.00087110771041332981 -0.005701611725042975 0 -0.00090574174442877877 -0.0040462707766935561 0 -0.001670087967133039 -0.008126129589480887 0 -0.00087110771041332981 -0.005701611725042975 0 -0.0033863267438166518 -0.031685961073814356 0 -0.004823561090819958 -0.034432182693597532 0 -0.0031988067135620404 -0.035568488750236292 0 -0.0033863267438166518 -0.031685961073814356 0 -0.0047940563890876637 -0.031123438576466163 0 -0.004823561090819958 -0.034432182693597532 0 -0.0033863267438166518 -0.031685961073814356 0 -0.0047940563890876637 -0.031123438576466163 0 -0.0038664764312514302 -0.027479668412163889 0 -0.004823561090819958 -0.034432182693597532 0 -0.0050140525673462461 -0.038625087105456798 0 -0.0031988067135620404 -0.035568488750236292 0 -0.0050140525673462461 -0.038625087105456798 0 -0.0034605669694237244 -0.040681441497821193 0 -0.0057060831957768078 -0.042871159973724864 0 -0.0050140525673462461 -0.038625087105456798 0 -0.0034605669694237244 -0.040681441497821193 0 -0.0031988067135620404 -0.035568488750236292 0 -0.0034605669694237244 -0.040681441497821193 0 -0.0031988067135620404 -0.035568488750236292 0 -0.0022338625975686062 -0.03784652126956424 0 -0.0031988067135620404 -0.035568488750236292 0 -0.0022338625975686062 -0.03784652126956424 0 -0.001016865380691273 -0.03531870193707376 0 -0.0034605669694237244 -0.040681441497821193 0 -0.0022338625975686062 -0.03784652126956424 0 -0.0011698107154643866 -0.039801229479714623 0 -0.0022338625975686062 -0.03784652126956424 0 -0.0011698107154643866 -0.039801229479714623 0 -0.001016865380691273 -0.03531870193707376 0 -0.001016865380691273 -0.03531870193707376 0 -0.0017069161674614542 -0.031617078874627842 0 0.00045196950777973312 -0.031230325764628343 0 -0.0031988067135620404 -0.035568488750236292 0 -0.001016865380691273 -0.03531870193707376 0 -0.0017069161674614542 -0.031617078874627842 0 -0.0033863267438166518 -0.031685961073814356 0 -0.0031988067135620404 -0.035568488750236292 0 -0.0017069161674614542 -0.031617078874627842 0 -0.0033863267438166518 -0.031685961073814356 0 -0.0017069161674614542 -0.031617078874627842 0 -0.0025397386831514808 -0.028261819934748619 0 -0.0017069161674614542 -0.031617078874627842 0 -0.00070249466776527679 -0.027701032708393046 0 0.00045196950777973312 -0.031230325764628343 0 -0.00070249466776527679 -0.027701032708393046 0 -0.0018129167632750423 -0.024827636281619332 0 -0.00070311569404152253 -0.023090409143966539 0 -0.00070249466776527679 -0.027701032708393046 0 -0.0018129167632750423 -0.024827636281619332 0 -0.0025397386831514808 -0.028261819934748619 0 -0.0018129167632750423 -0.024827636281619332 0 -0.0025397386831514808 -0.028261819934748619 0 -0.0031205252947294785 -0.023975976457322152 0 -0.0017069161674614542 -0.031617078874627842 0 -0.00070249466776527679 -0.027701032708393046 0 -0.0025397386831514808 -0.028261819934748619 0 -0.00083471106349819804 -0.018901270000233446 0 -0.0018326896011633448 -0.021376624648075094 0 -0.00070311569404152253 -0.023090409143966539 0 -0.0015658145623035989 -0.017236103716856091 0 -0.00083471106349819804 -0.018901270000233446 0 -0.0018326896011633448 -0.021376624648075094 0 -0.0018129167632750423 -0.024827636281619332 0 -0.0018326896011633448 -0.021376624648075094 0 -0.00070311569404152253 -0.023090409143966539 0 -0.0018129167632750423 -0.024827636281619332 0 -0.0018326896011633448 -0.021376624648075094 0 -0.0031205252947294785 -0.023975976457322152 0 -0.0015658145623035989 -0.017236103716856091 0 -0.0018326896011633448 -0.021376624648075094 0 -0.0026707063978162571 -0.019231058978788407 0 -0.0018326896011633448 -0.021376624648075094 0 -0.0026707063978162571 -0.019231058978788407 0 -0.0031205252947294785 -0.023975976457322152 0 -0.0026707063978162571 -0.019231058978788407 0 -0.0031205252947294785 -0.023975976457322152 0 -0.0040070888179740216 -0.021133516784499543 0 -0.0031205252947294785 -0.023975976457322152 0 -0.0040070888179740216 -0.021133516784499543 0 -0.0047879235736175974 -0.025185118436756908 0 -0.0033863267438166518 -0.031685961073814356 0 -0.0025397386831514808 -0.028261819934748619 0 -0.0038664764312514302 -0.027479668412163889 0 -0.0025397386831514808 -0.028261819934748619 0 -0.0031205252947294785 -0.023975976457322152 0 -0.0038664764312514302 -0.027479668412163889 0 -0.0031205252947294785 -0.023975976457322152 0 -0.0038664764312514302 -0.027479668412163889 0 -0.0047879235736175974 -0.025185118436756908 0 -0.0038664764312514302 -0.027479668412163889 0 -0.0047879235736175974 -0.025185118436756908 0 -0.006277860546390685 -0.029651847664937309 0 -0.0047940563890876637 -0.031123438576466163 0 -0.0038664764312514302 -0.027479668412163889 0 -0.006277860546390685 -0.029651847664937309 0 -0.0047879235736175974 -0.025185118436756908 0 -0.0060728305227996408 -0.026324776059851885 0 -0.006277860546390685 -0.029651847664937309 0 -0.0060728305227996408 -0.026324776059851885 0 -0.006277860546390685 -0.029651847664937309 0 -0.0073191095085124464 -0.028663233992387255 0 -0.0046806682821405087 -0.018627694742338382 0 -0.0040070888179740216 -0.021133516784499543 0 -0.0054484983868285661 -0.023021426253133075 0 -0.0040070888179740216 -0.021133516784499543 0 -0.0047879235736175974 -0.025185118436756908 0 -0.0054484983868285661 -0.023021426253133075 0 -0.0047879235736175974 -0.025185118436756908 0 -0.0060728305227996408 -0.026324776059851885 0 -0.0054484983868285661 -0.023021426253133075 0 -0.0060728305227996408 -0.026324776059851885 0 -0.0054484983868285661 -0.023021426253133075 0 -0.00696820718318804 -0.025519330394017214 0 -0.0046806682821405087 -0.018627694742338382 0 -0.0054484983868285661 -0.023021426253133075 0 -0.006412255138292175 -0.021882304703421476 0 -0.0054484983868285661 -0.023021426253133075 0 -0.006412255138292175 -0.021882304703421476 0 -0.00696820718318804 -0.025519330394017214 0 -0.006412255138292175 -0.021882304703421476 0 -0.00696820718318804 -0.025519330394017214 0 -0.0082640092537005806 -0.024895547559008021 0 -0.006412255138292175 -0.021882304703421476 0 -0.0072804561621182652 -0.021113602274884229 0 -0.0082640092537005806 -0.024895547559008021 0 -0.0059827077931487154 -0.018382425270305851 0 -0.006412255138292175 -0.021882304703421476 0 -0.0072804561621182652 -0.021113602274884229 0 -0.006277860546390685 -0.029651847664937309 0 -0.0073191095085124464 -0.028663233992387255 0 -0.0083223228282636522 -0.031987663507300326 0 -0.0060728305227996408 -0.026324776059851885 0 -0.0073191095085124464 -0.028663233992387255 0 -0.00696820718318804 -0.025519330394017214 0 -0.0073191095085124464 -0.028663233992387255 0 -0.00696820718318804 -0.025519330394017214 0 -0.0084403508074181975 -0.028553157219263062 0 -0.00696820718318804 -0.025519330394017214 0 -0.0084403508074181975 -0.028553157219263062 0 -0.0082640092537005806 -0.024895547559008021 0 -0.0073191095085124464 -0.028663233992387255 0 -0.0084403508074181975 -0.028553157219263062 0 -0.0083223228282636522 -0.031987663507300326 0 -0.0084403508074181975 -0.028553157219263062 0 -0.0083223228282636522 -0.031987663507300326 0 -0.01009630381852125 -0.031404978745132359 0 -0.0083223228282636522 -0.031987663507300326 0 -0.0084042258491492817 -0.03629053861141212 0 -0.0099624990995475955 -0.035031839907965615 0 -0.0084042258491492817 -0.03629053861141212 0 -0.0098095159221774919 -0.03916201235979011 0 -0.0099624990995475955 -0.035031839907965615 0 -0.0083223228282636522 -0.031987663507300326 0 -0.0084042258491492817 -0.03629053861141212 0 -0.0071882352242071332 -0.033524982104118251 0 -0.006277860546390685 -0.029651847664937309 0 -0.0083223228282636522 -0.031987663507300326 0 -0.0071882352242071332 -0.033524982104118251 0 -0.006277860546390685 -0.029651847664937309 0 -0.0071882352242071332 -0.033524982104118251 0 -0.0059553720605349577 -0.033081761886530683 0 -0.0071882352242071332 -0.033524982104118251 0 -0.0059553720605349577 -0.033081761886530683 0 -0.0066410328646050723 -0.036746718325493963 0 -0.0084042258491492817 -0.03629053861141212 0 -0.0071882352242071332 -0.033524982104118251 0 -0.0066410328646050723 -0.036746718325493963 0 -0.004823561090819958 -0.034432182693597532 0 -0.0059553720605349577 -0.033081761886530683 0 -0.0066410328646050723 -0.036746718325493963 0 -0.0047940563890876637 -0.031123438576466163 0 -0.004823561090819958 -0.034432182693597532 0 -0.0059553720605349577 -0.033081761886530683 0 -0.0047940563890876637 -0.031123438576466163 0 -0.006277860546390685 -0.029651847664937309 0 -0.0059553720605349577 -0.033081761886530683 0 -0.0050140525673462461 -0.038625087105456798 0 -0.006705390337248136 -0.040477764183663133 0 -0.0057060831957768078 -0.042871159973724864 0 -0.0050140525673462461 -0.038625087105456798 0 -0.006705390337248136 -0.040477764183663133 0 -0.0066410328646050723 -0.036746718325493963 0 -0.004823561090819958 -0.034432182693597532 0 -0.0050140525673462461 -0.038625087105456798 0 -0.0066410328646050723 -0.036746718325493963 0 -0.0084042258491492817 -0.03629053861141212 0 -0.0066410328646050723 -0.036746718325493963 0 -0.0080974940781665273 -0.039880233714324476 0 -0.006705390337248136 -0.040477764183663133 0 -0.0080974940781665273 -0.039880233714324476 0 -0.0077718312425700507 -0.044330772341460184 0 -0.006705390337248136 -0.040477764183663133 0 -0.0066410328646050723 -0.036746718325493963 0 -0.0080974940781665273 -0.039880233714324476 0 -0.0080974940781665273 -0.039880233714324476 0 -0.0098095159221774919 -0.03916201235979011 0 -0.0094294750980877667 -0.043132959152208321 0 -0.0084042258491492817 -0.03629053861141212 0 -0.0080974940781665273 -0.039880233714324476 0 -0.0098095159221774919 -0.03916201235979011 0 -0.0098095159221774919 -0.03916201235979011 0 -0.010874606070359722 -0.042471821360845888 0 -0.0094294750980877667 -0.043132959152208321 0 -0.010874606070359722 -0.042471821360845888 0 -0.012235815257429837 -0.041522112142419659 0 -0.010978702454628352 -0.038483588352000185 0 -0.012235815257429837 -0.041522112142419659 0 -0.010978702454628352 -0.038483588352000185 0 -0.011778019908940509 -0.036843010332874265 0 -0.0098095159221774919 -0.03916201235979011 0 -0.010978702454628352 -0.038483588352000185 0 -0.0099624990995475955 -0.035031839907965615 0 -0.0098095159221774919 -0.03916201235979011 0 -0.010874606070359722 -0.042471821360845888 0 -0.010978702454628352 -0.038483588352000185 0 -0.0083223228282636522 -0.031987663507300326 0 -0.0099624990995475955 -0.035031839907965615 0 -0.01009630381852125 -0.031404978745132359 0 -0.011778019908940509 -0.036843010332874265 0 -0.012181503516089692 -0.033846320230975883 0 -0.01009630381852125 -0.031404978745132359 0 -0.0099624990995475955 -0.035031839907965615 0 -0.011778019908940509 -0.036843010332874265 0 -0.01009630381852125 -0.031404978745132359 0 -0.010978702454628352 -0.038483588352000185 0 -0.0099624990995475955 -0.035031839907965615 0 -0.011778019908940509 -0.036843010332874265 0 -0.011778019908940509 -0.036843010332874265 0 -0.013581289061266294 -0.037599914611511152 0 -0.013335154453564441 -0.040454887080181551 0 -0.011778019908940509 -0.036843010332874265 0 -0.012181503516089692 -0.033846320230975883 0 -0.013581289061266294 -0.037599914611511152 0 -0.012181503516089692 -0.033846320230975883 0 -0.013581289061266294 -0.037599914611511152 0 -0.013919720928309526 -0.034732413945991747 0 -0.013581289061266294 -0.037599914611511152 0 -0.013335154453564441 -0.040454887080181551 0 -0.014826441741225584 -0.041287112838353929 0 -0.013335154453564441 -0.040454887080181551 0 -0.014826441741225584 -0.041287112838353929 0 -0.015061235430259522 -0.045127760133776132 0 -0.013335154453564441 -0.040454887080181551 0 -0.015061235430259522 -0.045127760133776132 0 -0.013566418703335066 -0.044518025082395121 0 -0.012235815257429837 -0.041522112142419659 0 -0.013335154453564441 -0.040454887080181551 0 -0.013566418703335066 -0.044518025082395121 0 -0.012235815257429837 -0.041522112142419659 0 -0.011778019908940509 -0.036843010332874265 0 -0.013335154453564441 -0.040454887080181551 0 -0.0072804561621182652 -0.021113602274884229 0 -0.008662130997629764 -0.022457607608412634 0 -0.0082640092537005806 -0.024895547559008021 0 -0.008662130997629764 -0.022457607608412634 0 -0.0082640092537005806 -0.024895547559008021 0 -0.0099803806867815592 -0.026780722599913948 0 -0.008662130997629764 -0.022457607608412634 0 -0.0099803806867815592 -0.026780722599913948 0 -0.010176006429700898 -0.024122523360243484 0 -0.0099803806867815592 -0.026780722599913948 0 -0.0093793393981217738 -0.028174560039586512 0 -0.011010041591945102 -0.030337082413399438 0 -0.0082640092537005806 -0.024895547559008021 0 -0.0099803806867815592 -0.026780722599913948 0 -0.0093793393981217738 -0.028174560039586512 0 -0.0084403508074181975 -0.028553157219263062 0 -0.0082640092537005806 -0.024895547559008021 0 -0.0093793393981217738 -0.028174560039586512 0 -0.0084403508074181975 -0.028553157219263062 0 -0.0093793393981217738 -0.028174560039586512 0 -0.01009630381852125 -0.031404978745132359 0 -0.0093793393981217738 -0.028174560039586512 0 -0.01009630381852125 -0.031404978745132359 0 -0.011010041591945102 -0.030337082413399438 0 -0.012181503516089692 -0.033846320230975883 0 -0.01009630381852125 -0.031404978745132359 0 -0.011010041591945102 -0.030337082413399438 0 -0.012181503516089692 -0.033846320230975883 0 -0.011010041591945102 -0.030337082413399438 0 -0.012077431812677937 -0.029371212007168742 0 -0.012181503516089692 -0.033846320230975883 0 -0.012077431812677937 -0.029371212007168742 0 -0.013919720928309526 -0.034732413945991747 0 -0.0099803806867815592 -0.026780722599913948 0 -0.011010041591945102 -0.030337082413399438 0 -0.012077431812677937 -0.029371212007168742 0 -0.0099803806867815592 -0.026780722599913948 0 -0.012077431812677937 -0.029371212007168742 0 -0.010176006429700898 -0.024122523360243484 0 -0.012077431812677937 -0.029371212007168742 0 -0.010176006429700898 -0.024122523360243484 0 -0.011319681829431173 -0.024076516392674874 0 -0.010053809229307506 -0.021222118253980866 0 -0.010176006429700898 -0.024122523360243484 0 -0.011319681829431173 -0.024076516392674874 0 -0.0087803684402421971 -0.019863115974696113 0 -0.008662130997629764 -0.022457607608412634 0 -0.010176006429700898 -0.024122523360243484 0 -0.0087803684402421971 -0.019863115974696113 0 -0.010053809229307506 -0.021222118253980866 0 -0.010176006429700898 -0.024122523360243484 0 -0.011564606713329669 -0.02225878496784351 0 -0.013036318230559549 -0.027696965454507873 0 -0.013695150604832874 -0.025926286509416599 0 -0.011564606713329669 -0.02225878496784351 0 -0.010053809229307506 -0.021222118253980866 0 -0.011319681829431173 -0.024076516392674874 0 -0.011564606713329669 -0.02225878496784351 0 -0.011319681829431173 -0.024076516392674874 0 -0.013036318230559549 -0.027696965454507873 0 -0.012077431812677937 -0.029371212007168742 0 -0.011319681829431173 -0.024076516392674874 0 -0.013036318230559549 -0.027696965454507873 0 -0.013036318230559549 -0.027696965454507873 0 -0.014899713985942947 -0.030478018254877056 0 -0.013695150604832874 -0.025926286509416599 0 -0.013036318230559549 -0.027696965454507873 0 -0.014087084884243348 -0.031848365427446339 0 -0.014899713985942947 -0.030478018254877056 0 -0.012077431812677937 -0.029371212007168742 0 -0.013036318230559549 -0.027696965454507873 0 -0.014087084884243348 -0.031848365427446339 0 -0.012077431812677937 -0.029371212007168742 0 -0.014087084884243348 -0.031848365427446339 0 -0.013919720928309526 -0.034732413945991747 0 -0.014087084884243348 -0.031848365427446339 0 -0.013919720928309526 -0.034732413945991747 0 -0.015782640654813544 -0.035502717936370491 0 -0.014087084884243348 -0.031848365427446339 0 -0.014899713985942947 -0.030478018254877056 0 -0.015782640654813544 -0.035502717936370491 0 -0.016670203375750342 -0.033358406992096828 0 -0.014899713985942947 -0.030478018254877056 0 -0.015782640654813544 -0.035502717936370491 0 -0.016670203375750342 -0.033358406992096828 0 -0.014899713985942947 -0.030478018254877056 0 -0.015693483335473119 -0.029177637116671849 0 -0.014899713985942947 -0.030478018254877056 0 -0.015693483335473119 -0.029177637116671849 0 -0.013695150604832874 -0.025926286509416599 0 -0.015693483335473119 -0.029177637116671849 0 -0.014497203009530595 -0.024999721631930729 0 -0.013695150604832874 -0.025926286509416599 0 -0.01258110443365424 -0.021845141444507627 0 -0.014497203009530595 -0.024999721631930729 0 -0.013695150604832874 -0.025926286509416599 0 -0.016560397427558257 -0.044288187772806263 0 -0.014826441741225584 -0.041287112838353929 0 -0.015603563999610215 -0.039292894092370308 0 -0.016560397427558257 -0.044288187772806263 0 -0.014826441741225584 -0.041287112838353929 0 -0.015061235430259522 -0.045127760133776132 0 -0.013581289061266294 -0.037599914611511152 0 -0.014826441741225584 -0.041287112838353929 0 -0.015603563999610215 -0.039292894092370308 0 -0.013581289061266294 -0.037599914611511152 0 -0.013919720928309526 -0.034732413945991747 0 -0.015603563999610215 -0.039292894092370308 0 -0.013919720928309526 -0.034732413945991747 0 -0.015603563999610215 -0.039292894092370308 0 -0.015782640654813544 -0.035502717936370491 0 -0.015603563999610215 -0.039292894092370308 0 -0.016812916789051752 -0.039334092563967207 0 -0.015782640654813544 -0.035502717936370491 0 -0.016670203375750342 -0.033358406992096828 0 -0.015782640654813544 -0.035502717936370491 0 -0.017468097984477925 -0.037591635505261109 0 -0.016812916789051752 -0.039334092563967207 0 -0.015782640654813544 -0.035502717936370491 0 -0.017468097984477925 -0.037591635505261109 0 -0.016812916789051752 -0.039334092563967207 0 -0.017468097984477925 -0.037591635505261109 0 -0.01815663001893458 -0.04185573750107726 0 -0.016812916789051752 -0.039334092563967207 0 -0.01815663001893458 -0.04185573750107726 0 -0.017330251752406774 -0.042474789355323263 0 -0.016560397427558257 -0.044288187772806263 0 -0.017330251752406774 -0.042474789355323263 0 -0.018766476652541532 -0.046186526999877228 0 -0.016560397427558257 -0.044288187772806263 0 -0.015603563999610215 -0.039292894092370308 0 -0.017330251752406774 -0.042474789355323263 0 -0.015603563999610215 -0.039292894092370308 0 -0.016812916789051752 -0.039334092563967207 0 -0.017330251752406774 -0.042474789355323263 0 -0.01815663001893458 -0.04185573750107726 0 -0.017330251752406774 -0.042474789355323263 0 -0.018766476652541532 -0.046186526999877228 0 -0.016560397427558257 -0.044288187772806263 0 -0.018766476652541532 -0.046186526999877228 0 -0.017812122552068908 -0.048715052632048797 0 -0.018766476652541532 -0.046186526999877228 0 -0.019303032165150884 -0.050562147726410274 0 -0.017812122552068908 -0.048715052632048797 0 -0.019303032165150884 -0.050562147726410274 0 -0.017812122552068908 -0.048715052632048797 0 -0.018518499170256462 -0.052266915575001453 0 -0.017812122552068908 -0.048715052632048797 0 -0.017126868978880466 -0.051342404010475212 0 -0.018518499170256462 -0.052266915575001453 0 -0.016560397427558257 -0.044288187772806263 0 -0.017812122552068908 -0.048715052632048797 0 -0.016509315145732943 -0.048033179234682324 0 -0.016560397427558257 -0.044288187772806263 0 -0.016509315145732943 -0.048033179234682324 0 -0.015061235430259522 -0.045127760133776132 0 -0.017812122552068908 -0.048715052632048797 0 -0.016509315145732943 -0.048033179234682324 0 -0.017126868978880466 -0.051342404010475212 0 -0.016509315145732943 -0.048033179234682324 0 -0.015887529019027513 -0.050670103826427879 0 -0.017126868978880466 -0.051342404010475212 0 -0.016509315145732943 -0.048033179234682324 0 -0.015061235430259522 -0.045127760133776132 0 -0.015887529019027513 -0.050670103826427879 0 -0.016709468574088414 -0.054462426621011528 0 -0.015887529019027513 -0.050670103826427879 0 -0.017126868978880466 -0.051342404010475212 0 -0.016709468574088414 -0.054462426621011528 0 -0.018429138659046912 -0.055594256850053932 0 -0.017613949377768685 -0.058144230047459194 0 -0.016709468574088414 -0.054462426621011528 0 -0.017126868978880466 -0.051342404010475212 0 -0.018429138659046912 -0.055594256850053932 0 -0.017126868978880466 -0.051342404010475212 0 -0.018429138659046912 -0.055594256850053932 0 -0.018518499170256462 -0.052266915575001453 0 -0.019303032165150884 -0.050562147726410274 0 -0.018518499170256462 -0.052266915575001453 0 -0.019816144540538875 -0.054984067964788358 0 -0.018429138659046912 -0.055594256850053932 0 -0.019816144540538875 -0.054984067964788358 0 -0.020326736664637045 -0.059457902774433011 0 -0.018429138659046912 -0.055594256850053932 0 -0.018518499170256462 -0.052266915575001453 0 -0.019816144540538875 -0.054984067964788358 0 -0.020326736664637045 -0.059457902774433011 0 -0.019111298721448435 -0.060870983254825262 0 -0.020834877806900302 -0.063973684748270976 0 -0.018429138659046912 -0.055594256850053932 0 -0.019111298721448435 -0.060870983254825262 0 -0.017613949377768685 -0.058144230047459194 0 -0.018429138659046912 -0.055594256850053932 0 -0.020326736664637045 -0.059457902774433011 0 -0.019111298721448435 -0.060870983254825262 0 -0.020834877806900302 -0.063973684748270976 0 -0.019555593192486044 -0.065658592411026853 0 -0.021359957858672368 -0.06852794436305687 0 -0.019111298721448435 -0.060870983254825262 0 -0.020834877806900302 -0.063973684748270976 0 -0.019555593192486044 -0.065658592411026853 0 -0.019555593192486044 -0.065658592411026853 0 -0.021359957858672368 -0.06852794436305687 0 -0.020236376217567284 -0.070104767574342308 0 -0.019555593192486044 -0.065658592411026853 0 -0.017560883953126039 -0.0621784577879501 0 -0.018557155060680026 -0.068008000399410976 0 -0.017560883953126039 -0.0621784577879501 0 -0.017276433199893824 -0.065156979710345189 0 -0.018557155060680026 -0.068008000399410976 0 -0.019111298721448435 -0.060870983254825262 0 -0.019555593192486044 -0.065658592411026853 0 -0.017560883953126039 -0.0621784577879501 0 -0.017276433199893824 -0.065156979710345189 0 -0.018557155060680026 -0.068008000399410976 0 -0.016809979981611167 -0.067230545327402386 0 -0.019111298721448435 -0.060870983254825262 0 -0.017560883953126039 -0.0621784577879501 0 -0.017613949377768685 -0.058144230047459194 0 -0.017560883953126039 -0.0621784577879501 0 -0.017613949377768685 -0.058144230047459194 0 -0.016349113350984677 -0.057427072165112537 0 -0.016709468574088414 -0.054462426621011528 0 -0.017613949377768685 -0.058144230047459194 0 -0.016349113350984677 -0.057427072165112537 0 -0.017560883953126039 -0.0621784577879501 0 -0.016349113350984677 -0.057427072165112537 0 -0.015188838104552582 -0.058886543465622262 0 -0.016349113350984677 -0.057427072165112537 0 -0.015188838104552582 -0.058886543465622262 0 -0.014877867768476986 -0.053646179747456307 0 -0.015188838104552582 -0.058886543465622262 0 -0.013585978002986564 -0.054552187691587144 0 -0.014877867768476986 -0.053646179747456307 0 -0.017560883953126039 -0.0621784577879501 0 -0.015188838104552582 -0.058886543465622262 0 -0.016031526918702344 -0.063163921770888851 0 -0.017276433199893824 -0.065156979710345189 0 -0.016031526918702344 -0.063163921770888851 0 -0.016809979981611167 -0.067230545327402386 0 -0.017560883953126039 -0.0621784577879501 0 -0.017276433199893824 -0.065156979710345189 0 -0.016031526918702344 -0.063163921770888851 0 -0.015188838104552582 -0.058886543465622262 0 -0.016031526918702344 -0.063163921770888851 0 -0.014729841817223935 -0.062509703714296774 0 -0.016031526918702344 -0.063163921770888851 0 -0.016809979981611167 -0.067230545327402386 0 -0.015497568737858305 -0.066991605831660736 0 -0.016031526918702344 -0.063163921770888851 0 -0.014729841817223935 -0.062509703714296774 0 -0.015497568737858305 -0.066991605831660736 0 -0.014729841817223935 -0.062509703714296774 0 -0.013680004848037473 -0.063440910221734648 0 -0.015497568737858305 -0.066991605831660736 0 -0.014729841817223935 -0.062509703714296774 0 -0.013680004848037473 -0.063440910221734648 0 -0.013212675560772345 -0.058803860201020595 0 -0.013680004848037473 -0.063440910221734648 0 -0.013212675560772345 -0.058803860201020595 0 -0.012053084001064933 -0.061050267651414573 0 -0.013680004848037473 -0.063440910221734648 0 -0.014188894899574858 -0.06812063991115723 0 -0.012715771031122201 -0.064605425288006182 0 -0.013680004848037473 -0.063440910221734648 0 -0.012715771031122201 -0.064605425288006182 0 -0.012053084001064933 -0.061050267651414573 0 -0.015188838104552582 -0.058886543465622262 0 -0.013212675560772345 -0.058803860201020595 0 -0.013585978002986564 -0.054552187691587144 0 -0.015188838104552582 -0.058886543465622262 0 -0.014729841817223935 -0.062509703714296774 0 -0.013212675560772345 -0.058803860201020595 0 -0.013212675560772345 -0.058803860201020595 0 -0.012010092973973253 -0.054818637433695805 0 -0.013585978002986564 -0.054552187691587144 0 -0.013212675560772345 -0.058803860201020595 0 -0.012010092973973253 -0.054818637433695805 0 -0.011053785748652883 -0.056466853751085934 0 -0.012010092973973253 -0.054818637433695805 0 -0.013585978002986564 -0.054552187691587144 0 -0.01227706052254147 -0.050763867836151839 0 -0.012010092973973253 -0.054818637433695805 0 -0.01227706052254147 -0.050763867836151839 0 -0.010948792584315798 -0.051500513949734136 0 -0.013585978002986564 -0.054552187691587144 0 -0.01227706052254147 -0.050763867836151839 0 -0.013679633943852991 -0.050692695996884495 0 -0.01227706052254147 -0.050763867836151839 0 -0.012649712435524624 -0.046393376041742956 0 -0.013679633943852991 -0.050692695996884495 0 -0.01227706052254147 -0.050763867836151839 0 -0.010983759885926319 -0.047070794944202375 0 -0.010948792584315798 -0.051500513949734136 0 -0.01227706052254147 -0.050763867836151839 0 -0.012649712435524624 -0.046393376041742956 0 -0.010983759885926319 -0.047070794944202375 0 -0.010874606070359722 -0.042471821360845888 0 -0.012649712435524624 -0.046393376041742956 0 -0.010983759885926319 -0.047070794944202375 0 -0.012235815257429837 -0.041522112142419659 0 -0.012649712435524624 -0.046393376041742956 0 -0.013566418703335066 -0.044518025082395121 0 -0.010874606070359722 -0.042471821360845888 0 -0.012235815257429837 -0.041522112142419659 0 -0.012649712435524624 -0.046393376041742956 0 -0.012649712435524624 -0.046393376041742956 0 -0.014590323076391014 -0.048698568718890001 0 -0.013679633943852991 -0.050692695996884495 0 -0.012649712435524624 -0.046393376041742956 0 -0.013566418703335066 -0.044518025082395121 0 -0.014590323076391014 -0.048698568718890001 0 -0.015061235430259522 -0.045127760133776132 0 -0.013566418703335066 -0.044518025082395121 0 -0.014590323076391014 -0.048698568718890001 0 -0.015061235430259522 -0.045127760133776132 0 -0.015887529019027513 -0.050670103826427879 0 -0.014590323076391014 -0.048698568718890001 0 -0.015887529019027513 -0.050670103826427879 0 -0.014590323076391014 -0.048698568718890001 0 -0.014877867768476986 -0.053646179747456307 0 -0.016709468574088414 -0.054462426621011528 0 -0.015887529019027513 -0.050670103826427879 0 -0.014877867768476986 -0.053646179747456307 0 -0.016709468574088414 -0.054462426621011528 0 -0.016349113350984677 -0.057427072165112537 0 -0.014877867768476986 -0.053646179747456307 0 -0.013585978002986564 -0.054552187691587144 0 -0.014877867768476986 -0.053646179747456307 0 -0.013679633943852991 -0.050692695996884495 0 -0.014590323076391014 -0.048698568718890001 0 -0.014877867768476986 -0.053646179747456307 0 -0.013679633943852991 -0.050692695996884495 0 -0.021438336083648733 -0.090140127255116817 0 -0.020645611607612399 -0.086005085622846922 0 -0.019727880924798092 -0.089293693921918466 0 -0.020645611607612399 -0.086005085622846922 0 -0.022223634075532718 -0.086456865711422248 0 -0.02063405243373604 -0.082156442657103618 0 -0.021438336083648733 -0.090140127255116817 0 -0.023074773274707566 -0.09095988675958358 0 -0.022223634075532718 -0.086456865711422248 0 -0.021438336083648733 -0.090140127255116817 0 -0.020645611607612399 -0.086005085622846922 0 -0.022223634075532718 -0.086456865711422248 0 -0.023074773274707566 -0.09095988675958358 0 -0.023459879508030791 -0.089063461277902545 0 -0.022223634075532718 -0.086456865711422248 0 -0.023074773274707566 -0.09095988675958358 0 -0.024654931950543395 -0.091758915808624039 0 -0.023459879508030791 -0.089063461277902545 0 -0.024654931950543395 -0.091758915808624039 0 -0.023459879508030791 -0.089063461277902545 0 -0.023880530831946162 -0.087075964437207304 0 -0.023459879508030791 -0.089063461277902545 0 -0.023880530831946162 -0.087075964437207304 0 -0.022223634075532718 -0.086456865711422248 0 -0.023880530831946162 -0.087075964437207304 0 -0.022223634075532718 -0.086456865711422248 0 -0.021746061447422551 -0.081651144212265978 0 -0.022223634075532718 -0.086456865711422248 0 -0.021746061447422551 -0.081651144212265978 0 -0.02063405243373604 -0.082156442657103618 0 -0.023880530831946162 -0.087075964437207304 0 -0.023166525006298164 -0.082408615549366973 0 -0.021746061447422551 -0.081651144212265978 0 -0.023166525006298164 -0.082408615549366973 0 -0.021746061447422551 -0.081651144212265978 0 -0.022511903520246006 -0.077756464642610601 0 -0.021746061447422551 -0.081651144212265978 0 -0.02063405243373604 -0.082156442657103618 0 -0.020505913306885594 -0.077351181591184079 0 -0.02063405243373604 -0.082156442657103618 0 -0.019387942698351118 -0.07826106992564881 0 -0.020505913306885594 -0.077351181591184079 0 -0.020645611607612399 -0.086005085622846922 0 -0.02063405243373604 -0.082156442657103618 0 -0.01918972143729638 -0.081003831252309061 0 -0.020645611607612399 -0.086005085622846922 0 -0.01918972143729638 -0.081003831252309061 0 -0.018899270710222744 -0.08371243145280742 0 -0.01918972143729638 -0.081003831252309061 0 -0.019387942698351118 -0.07826106992564881 0 -0.017861683216193611 -0.07620760887590701 0 -0.02063405243373604 -0.082156442657103618 0 -0.01918972143729638 -0.081003831252309061 0 -0.019387942698351118 -0.07826106992564881 0 -0.019387942698351118 -0.07826106992564881 0 -0.018894171620026358 -0.074972081780463148 0 -0.017861683216193611 -0.07620760887590701 0 -0.018894171620026358 -0.074972081780463148 0 -0.020505913306885594 -0.077351181591184079 0 -0.01928109224441283 -0.072061575201959951 0 -0.019387942698351118 -0.07826106992564881 0 -0.018894171620026358 -0.074972081780463148 0 -0.020505913306885594 -0.077351181591184079 0 -0.020505913306885594 -0.077351181591184079 0 -0.022511903520246006 -0.077756464642610601 0 -0.020892606101441957 -0.074082082174733027 0 -0.021746061447422551 -0.081651144212265978 0 -0.020505913306885594 -0.077351181591184079 0 -0.022511903520246006 -0.077756464642610601 0 -0.022511903520246006 -0.077756464642610601 0 -0.020892606101441957 -0.074082082174733027 0 -0.021913314480154704 -0.073123297146313423 0 -0.020505913306885594 -0.077351181591184079 0 -0.020892606101441957 -0.074082082174733027 0 -0.01928109224441283 -0.072061575201959951 0 -0.020892606101441957 -0.074082082174733027 0 -0.020236376217567284 -0.070104767574342308 0 -0.01928109224441283 -0.072061575201959951 0 -0.020892606101441957 -0.074082082174733027 0 -0.021913314480154704 -0.073123297146313423 0 -0.020236376217567284 -0.070104767574342308 0 -0.021913314480154704 -0.073123297146313423 0 -0.021359957858672368 -0.06852794436305687 0 -0.020236376217567284 -0.070104767574342308 0 -0.019555593192486044 -0.065658592411026853 0 -0.020236376217567284 -0.070104767574342308 0 -0.018557155060680026 -0.068008000399410976 0 -0.020236376217567284 -0.070104767574342308 0 -0.018557155060680026 -0.068008000399410976 0 -0.01928109224441283 -0.072061575201959951 0 -0.018894171620026358 -0.074972081780463148 0 -0.01928109224441283 -0.072061575201959951 0 -0.017414758447122002 -0.070986464110564876 0 -0.018557155060680026 -0.068008000399410976 0 -0.01928109224441283 -0.072061575201959951 0 -0.017414758447122002 -0.070986464110564876 0 -0.018557155060680026 -0.068008000399410976 0 -0.016809979981611167 -0.067230545327402386 0 -0.017414758447122002 -0.070986464110564876 0 -0.016809979981611167 -0.067230545327402386 0 -0.017414758447122002 -0.070986464110564876 0 -0.015497568737858305 -0.066991605831660736 0 -0.017414758447122002 -0.070986464110564876 0 -0.015497568737858305 -0.066991605831660736 0 -0.016297282444580181 -0.072385492570998772 0 -0.013680004848037473 -0.063440910221734648 0 -0.015497568737858305 -0.066991605831660736 0 -0.014188894899574858 -0.06812063991115723 0 -0.014188894899574858 -0.06812063991115723 0 -0.014870864000074613 -0.071924427339101968 0 -0.013271800814583264 -0.070800367350077359 0 -0.014188894899574858 -0.06812063991115723 0 -0.014870864000074613 -0.071924427339101968 0 -0.016297282444580181 -0.072385492570998772 0 -0.015497568737858305 -0.066991605831660736 0 -0.014188894899574858 -0.06812063991115723 0 -0.016297282444580181 -0.072385492570998772 0 -0.014870864000074613 -0.071924427339101968 0 -0.016168311956314324 -0.076523992158926579 0 -0.016297282444580181 -0.072385492570998772 0 -0.014870864000074613 -0.071924427339101968 0 -0.014496603865910042 -0.074885866668511866 0 -0.013271800814583264 -0.070800367350077359 0 -0.014870864000074613 -0.071924427339101968 0 -0.014496603865910042 -0.074885866668511866 0 -0.016168311956314324 -0.076523992158926579 0 -0.016168311956314324 -0.076523992158926579 0 -0.016297282444580181 -0.072385492570998772 0 -0.017861683216193611 -0.07620760887590701 0 -0.016168311956314324 -0.076523992158926579 0 -0.017861683216193611 -0.07620760887590701 0 -0.017781814815384659 -0.079714812416505507 0 -0.017414758447122002 -0.070986464110564876 0 -0.016297282444580181 -0.072385492570998772 0 -0.017861683216193611 -0.07620760887590701 0 -0.018894171620026358 -0.074972081780463148 0 -0.017414758447122002 -0.070986464110564876 0 -0.017861683216193611 -0.07620760887590701 0 -0.01918972143729638 -0.081003831252309061 0 -0.017861683216193611 -0.07620760887590701 0 -0.017781814815384659 -0.079714812416505507 0 -0.01918972143729638 -0.081003831252309061 0 -0.017781814815384659 -0.079714812416505507 0 -0.018899270710222744 -0.08371243145280742 0 -0.017781814815384659 -0.079714812416505507 0 -0.016743572845781041 -0.081002056591462271 0 -0.018899270710222744 -0.08371243145280742 0 -0.016168311956314324 -0.076523992158926579 0 -0.017781814815384659 -0.079714812416505507 0 -0.016743572845781041 -0.081002056591462271 0 -0.016168311956314324 -0.076523992158926579 0 -0.014910259890485332 -0.079324028094989188 0 -0.016743572845781041 -0.081002056591462271 0 -0.014496603865910042 -0.074885866668511866 0 -0.016168311956314324 -0.076523992158926579 0 -0.014910259890485332 -0.079324028094989188 0 -0.014910259890485332 -0.079324028094989188 0 -0.016743572845781041 -0.081002056591462271 0 -0.016200000963088046 -0.083979130687516418 0 -0.016743572845781041 -0.081002056591462271 0 -0.016200000963088046 -0.083979130687516418 0 -0.01789896661336662 -0.085280077401083537 0 -0.014910259890485332 -0.079324028094989188 0 -0.016200000963088046 -0.083979130687516418 0 -0.014307679807105711 -0.082669186386174487 0 -0.016200000963088046 -0.083979130687516418 0 -0.017948391881566481 -0.088430475732800523 0 -0.016074312164552126 -0.087577347586287296 0 -0.016200000963088046 -0.083979130687516418 0 -0.017948391881566481 -0.088430475732800523 0 -0.01789896661336662 -0.085280077401083537 0 -0.017948391881566481 -0.088430475732800523 0 -0.01789896661336662 -0.085280077401083537 0 -0.019727880924798092 -0.089293693921918466 0 -0.016743572845781041 -0.081002056591462271 0 -0.01789896661336662 -0.085280077401083537 0 -0.018899270710222744 -0.08371243145280742 0 -0.01789896661336662 -0.085280077401083537 0 -0.018899270710222744 -0.08371243145280742 0 -0.019727880924798092 -0.089293693921918466 0 -0.020645611607612399 -0.086005085622846922 0 -0.018899270710222744 -0.08371243145280742 0 -0.019727880924798092 -0.089293693921918466 0 -0.012057700213006128 -0.08598161881189488 0 -0.011073799528648672 -0.082666441753568243 0 -0.012431955688831426 -0.082348462964412936 0 -0.012057700213006128 -0.08598161881189488 0 -0.011073799528648672 -0.082666441753568243 0 -0.0099086147976855891 -0.085268263829124238 0 -0.011073799528648672 -0.082666441753568243 0 -0.012431955688831426 -0.082348462964412936 0 -0.010699484011022498 -0.078683697652243825 0 -0.011073799528648672 -0.082666441753568243 0 -0.010699484011022498 -0.078683697652243825 0 -0.0093807668519788178 -0.080372077459533509 0 -0.012057700213006128 -0.08598161881189488 0 -0.012431955688831426 -0.082348462964412936 0 -0.014111365991133443 -0.086756227113275783 0 -0.014111365991133443 -0.086756227113275783 0 -0.016074312164552126 -0.087577347586287296 0 -0.014307679807105711 -0.082669186386174487 0 -0.016200000963088046 -0.083979130687516418 0 -0.016074312164552126 -0.087577347586287296 0 -0.014307679807105711 -0.082669186386174487 0 -0.012431955688831426 -0.082348462964412936 0 -0.014111365991133443 -0.086756227113275783 0 -0.014307679807105711 -0.082669186386174487 0 -0.012431955688831426 -0.082348462964412936 0 -0.014307679807105711 -0.082669186386174487 0 -0.012404971572032727 -0.077653506318076576 0 -0.014910259890485332 -0.079324028094989188 0 -0.013531531671829104 -0.07627547530000435 0 -0.012404971572032727 -0.077653506318076576 0 -0.014910259890485332 -0.079324028094989188 0 -0.014307679807105711 -0.082669186386174487 0 -0.012404971572032727 -0.077653506318076576 0 -0.014496603865910042 -0.074885866668511866 0 -0.014910259890485332 -0.079324028094989188 0 -0.013531531671829104 -0.07627547530000435 0 -0.012404971572032727 -0.077653506318076576 0 -0.010699484011022498 -0.078683697652243825 0 -0.010237092495799072 -0.075252682144304875 0 -0.012431955688831426 -0.082348462964412936 0 -0.012404971572032727 -0.077653506318076576 0 -0.010699484011022498 -0.078683697652243825 0 -0.010699484011022498 -0.078683697652243825 0 -0.010237092495799072 -0.075252682144304875 0 -0.0088273753450952685 -0.076185135324028722 0 -0.010237092495799072 -0.075252682144304875 0 -0.010836623170173865 -0.072445759212441743 0 -0.0084024776415148415 -0.071389862920381172 0 -0.010836623170173865 -0.072445759212441743 0 -0.0096455122916781037 -0.069171618745616129 0 -0.0084024776415148415 -0.071389862920381172 0 -0.010836623170173865 -0.072445759212441743 0 -0.011476665375117621 -0.069878952148703696 0 -0.0096455122916781037 -0.069171618745616129 0 -0.012404971572032727 -0.077653506318076576 0 -0.010237092495799072 -0.075252682144304875 0 -0.010836623170173865 -0.072445759212441743 0 -0.012404971572032727 -0.077653506318076576 0 -0.010836623170173865 -0.072445759212441743 0 -0.012469358442953311 -0.073301539885575154 0 -0.013531531671829104 -0.07627547530000435 0 -0.012404971572032727 -0.077653506318076576 0 -0.012469358442953311 -0.073301539885575154 0 -0.014496603865910042 -0.074885866668511866 0 -0.013531531671829104 -0.07627547530000435 0 -0.012469358442953311 -0.073301539885575154 0 -0.014496603865910042 -0.074885866668511866 0 -0.012469358442953311 -0.073301539885575154 0 -0.013271800814583264 -0.070800367350077359 0 -0.012469358442953311 -0.073301539885575154 0 -0.013271800814583264 -0.070800367350077359 0 -0.011476665375117621 -0.069878952148703696 0 -0.010836623170173865 -0.072445759212441743 0 -0.012469358442953311 -0.073301539885575154 0 -0.011476665375117621 -0.069878952148703696 0 -0.013271800814583264 -0.070800367350077359 0 -0.011476665375117621 -0.069878952148703696 0 -0.012223856333907018 -0.067232831277857716 0 -0.011476665375117621 -0.069878952148703696 0 -0.012223856333907018 -0.067232831277857716 0 -0.010287468275081932 -0.066529911734625066 0 -0.014188894899574858 -0.06812063991115723 0 -0.013271800814583264 -0.070800367350077359 0 -0.012223856333907018 -0.067232831277857716 0 -0.012223856333907018 -0.067232831277857716 0 -0.012715771031122201 -0.064605425288006182 0 -0.011146098640553459 -0.063851711707977488 0 -0.014188894899574858 -0.06812063991115723 0 -0.012223856333907018 -0.067232831277857716 0 -0.012715771031122201 -0.064605425288006182 0 -0.012223856333907018 -0.067232831277857716 0 -0.010287468275081932 -0.066529911734625066 0 -0.011146098640553459 -0.063851711707977488 0 -0.010287468275081932 -0.066529911734625066 0 -0.011146098640553459 -0.063851711707977488 0 -0.0090458301164092914 -0.062833077712948521 0 -0.011476665375117621 -0.069878952148703696 0 -0.010287468275081932 -0.066529911734625066 0 -0.0096455122916781037 -0.069171618745616129 0 -0.010287468275081932 -0.066529911734625066 0 -0.0096455122916781037 -0.069171618745616129 0 -0.0082575634764272803 -0.066398670880908922 0 -0.010287468275081932 -0.066529911734625066 0 -0.0082575634764272803 -0.066398670880908922 0 -0.0090458301164092914 -0.062833077712948521 0 -0.0082575634764272803 -0.066398670880908922 0 -0.0065379082343299645 -0.064712365462562788 0 -0.0071347492392378553 -0.061970555112527075 0 -0.0082575634764272803 -0.066398670880908922 0 -0.0090458301164092914 -0.062833077712948521 0 -0.0071347492392378553 -0.061970555112527075 0 -0.0082575634764272803 -0.066398670880908922 0 -0.006859776718881468 -0.067842912212366574 0 -0.0084024776415148415 -0.071389862920381172 0 -0.0096455122916781037 -0.069171618745616129 0 -0.0082575634764272803 -0.066398670880908922 0 -0.0084024776415148415 -0.071389862920381172 0 -0.0082575634764272803 -0.066398670880908922 0 -0.006859776718881468 -0.067842912212366574 0 -0.0065379082343299645 -0.064712365462562788 0 -0.0065379082343299645 -0.064712365462562788 0 -0.0051183779555524223 -0.065875256408163607 0 -0.0051571403685537372 -0.061943148954540526 0 -0.0051183779555524223 -0.065875256408163607 0 -0.0051571403685537372 -0.061943148954540526 0 -0.0031118547466373438 -0.063014069778840651 0 -0.0051183779555524223 -0.065875256408163607 0 -0.0034542130933371299 -0.066047748246319427 0 -0.0031118547466373438 -0.063014069778840651 0 -0.0051183779555524223 -0.065875256408163607 0 -0.0037442801929770194 -0.069207372658005487 0 -0.0034542130933371299 -0.066047748246319427 0 -0.006859776718881468 -0.067842912212366574 0 -0.0051183779555524223 -0.065875256408163607 0 -0.0059254779102048804 -0.070938631531732355 0 -0.006859776718881468 -0.067842912212366574 0 -0.0065379082343299645 -0.064712365462562788 0 -0.0051183779555524223 -0.065875256408163607 0 -0.0051183779555524223 -0.065875256408163607 0 -0.0059254779102048804 -0.070938631531732355 0 -0.0037442801929770194 -0.069207372658005487 0 -0.0059254779102048804 -0.070938631531732355 0 -0.0043243550730972559 -0.073728491946346966 0 -0.0037442801929770194 -0.069207372658005487 0 -0.0059254779102048804 -0.070938631531732355 0 -0.00694644478334123 -0.074421184197817167 0 -0.0043243550730972559 -0.073728491946346966 0 -0.0059254779102048804 -0.070938631531732355 0 -0.0084024776415148415 -0.071389862920381172 0 -0.00694644478334123 -0.074421184197817167 0 -0.0084024776415148415 -0.071389862920381172 0 -0.0088273753450952685 -0.076185135324028722 0 -0.00694644478334123 -0.074421184197817167 0 -0.006859776718881468 -0.067842912212366574 0 -0.0059254779102048804 -0.070938631531732355 0 -0.0084024776415148415 -0.071389862920381172 0 -0.010237092495799072 -0.075252682144304875 0 -0.0084024776415148415 -0.071389862920381172 0 -0.0088273753450952685 -0.076185135324028722 0 -0.010699484011022498 -0.078683697652243825 0 -0.0088273753450952685 -0.076185135324028722 0 -0.0093807668519788178 -0.080372077459533509 0 -0.0088273753450952685 -0.076185135324028722 0 -0.0074513823960078735 -0.077904820380868642 0 -0.0093807668519788178 -0.080372077459533509 0 -0.0088273753450952685 -0.076185135324028722 0 -0.0074513823960078735 -0.077904820380868642 0 -0.00694644478334123 -0.074421184197817167 0 -0.0074513823960078735 -0.077904820380868642 0 -0.00694644478334123 -0.074421184197817167 0 -0.0058189494294127887 -0.077085745767227598 0 -0.00694644478334123 -0.074421184197817167 0 -0.0058189494294127887 -0.077085745767227598 0 -0.0043243550730972559 -0.073728491946346966 0 -0.0058189494294127887 -0.077085745767227598 0 -0.0063012140274882056 -0.080583190349331507 0 -0.0039850910123878291 -0.078905353771786244 0 -0.0058189494294127887 -0.077085745767227598 0 -0.0039850910123878291 -0.078905353771786244 0 -0.0043243550730972559 -0.073728491946346966 0 -0.0074513823960078735 -0.077904820380868642 0 -0.0058189494294127887 -0.077085745767227598 0 -0.0063012140274882056 -0.080583190349331507 0 -0.0074513823960078735 -0.077904820380868642 0 -0.0063012140274882056 -0.080583190349331507 0 -0.008143711002896712 -0.081735920994507022 0 -0.0063012140274882056 -0.080583190349331507 0 -0.005425329495204979 -0.084159454259940605 0 -0.0039850910123878291 -0.078905353771786244 0 -0.0063012140274882056 -0.080583190349331507 0 -0.0076916756218583324 -0.084660384461990007 0 -0.005425329495204979 -0.084159454259940605 0 -0.0063012140274882056 -0.080583190349331507 0 -0.0076916756218583324 -0.084660384461990007 0 -0.008143711002896712 -0.081735920994507022 0 -0.0076916756218583324 -0.084660384461990007 0 -0.008143711002896712 -0.081735920994507022 0 -0.0099086147976855891 -0.085268263829124238 0 -0.008143711002896712 -0.081735920994507022 0 -0.0093807668519788178 -0.080372077459533509 0 -0.0099086147976855891 -0.085268263829124238 0 -0.0074513823960078735 -0.077904820380868642 0 -0.008143711002896712 -0.081735920994507022 0 -0.0093807668519788178 -0.080372077459533509 0 -0.011073799528648672 -0.082666441753568243 0 -0.0093807668519788178 -0.080372077459533509 0 -0.0099086147976855891 -0.085268263829124238 0 -0.0082570113538981433 -0.048737034925825935 0 -0.0092551987318901484 -0.052296011618547453 0 -0.007466741797005438 -0.05063350803249473 0 -0.0092551987318901484 -0.052296011618547453 0 -0.007466741797005438 -0.05063350803249473 0 -0.0078369306566689837 -0.054110437695485833 0 -0.007466741797005438 -0.05063350803249473 0 -0.0078369306566689837 -0.054110437695485833 0 -0.0061296310551722018 -0.052379084065638216 0 -0.0082570113538981433 -0.048737034925825935 0 -0.007466741797005438 -0.05063350803249473 0 -0.0064963383725238884 -0.04705173619154638 0 -0.0064963383725238884 -0.04705173619154638 0 -0.0077718312425700507 -0.044330772341460184 0 -0.0057060831957768078 -0.042871159973724864 0 -0.0082570113538981433 -0.048737034925825935 0 -0.0064963383725238884 -0.04705173619154638 0 -0.0077718312425700507 -0.044330772341460184 0 -0.006705390337248136 -0.040477764183663133 0 -0.0077718312425700507 -0.044330772341460184 0 -0.0057060831957768078 -0.042871159973724864 0 -0.0082570113538981433 -0.048737034925825935 0 -0.0077718312425700507 -0.044330772341460184 0 -0.0096874635400172725 -0.048283875101042956 0 -0.0077718312425700507 -0.044330772341460184 0 -0.0094294750980877667 -0.043132959152208321 0 -0.0096874635400172725 -0.048283875101042956 0 -0.0080974940781665273 -0.039880233714324476 0 -0.0077718312425700507 -0.044330772341460184 0 -0.0094294750980877667 -0.043132959152208321 0 -0.010874606070359722 -0.042471821360845888 0 -0.0094294750980877667 -0.043132959152208321 0 -0.010983759885926319 -0.047070794944202375 0 -0.0094294750980877667 -0.043132959152208321 0 -0.010983759885926319 -0.047070794944202375 0 -0.0096874635400172725 -0.048283875101042956 0 -0.010983759885926319 -0.047070794944202375 0 -0.0096874635400172725 -0.048283875101042956 0 -0.010948792584315798 -0.051500513949734136 0 -0.0082570113538981433 -0.048737034925825935 0 -0.0092551987318901484 -0.052296011618547453 0 -0.0096874635400172725 -0.048283875101042956 0 -0.0092551987318901484 -0.052296011618547453 0 -0.0096874635400172725 -0.048283875101042956 0 -0.010948792584315798 -0.051500513949734136 0 -0.0092551987318901484 -0.052296011618547453 0 -0.010948792584315798 -0.051500513949734136 0 -0.011053785748652883 -0.056466853751085934 0 -0.012010092973973253 -0.054818637433695805 0 -0.010948792584315798 -0.051500513949734136 0 -0.011053785748652883 -0.056466853751085934 0 -0.013212675560772345 -0.058803860201020595 0 -0.011053785748652883 -0.056466853751085934 0 -0.012053084001064933 -0.061050267651414573 0 -0.011053785748652883 -0.056466853751085934 0 -0.010199740201856735 -0.060156801847607362 0 -0.009440892580956135 -0.056369827325948058 0 -0.011053785748652883 -0.056466853751085934 0 -0.012053084001064933 -0.061050267651414573 0 -0.010199740201856735 -0.060156801847607362 0 -0.0092551987318901484 -0.052296011618547453 0 -0.011053785748652883 -0.056466853751085934 0 -0.009440892580956135 -0.056369827325948058 0 -0.012715771031122201 -0.064605425288006182 0 -0.012053084001064933 -0.061050267651414573 0 -0.011146098640553459 -0.063851711707977488 0 -0.012053084001064933 -0.061050267651414573 0 -0.011146098640553459 -0.063851711707977488 0 -0.010199740201856735 -0.060156801847607362 0 -0.011146098640553459 -0.063851711707977488 0 -0.010199740201856735 -0.060156801847607362 0 -0.0090458301164092914 -0.062833077712948521 0 -0.010199740201856735 -0.060156801847607362 0 -0.0081084873603681773 -0.058625608338025562 0 -0.0090458301164092914 -0.062833077712948521 0 -0.0081084873603681773 -0.058625608338025562 0 -0.0090458301164092914 -0.062833077712948521 0 -0.0071347492392378553 -0.061970555112527075 0 -0.0092551987318901484 -0.052296011618547453 0 -0.009440892580956135 -0.056369827325948058 0 -0.0078369306566689837 -0.054110437695485833 0 -0.010199740201856735 -0.060156801847607362 0 -0.0081084873603681773 -0.058625608338025562 0 -0.009440892580956135 -0.056369827325948058 0 -0.0081084873603681773 -0.058625608338025562 0 -0.009440892580956135 -0.056369827325948058 0 -0.0078369306566689837 -0.054110437695485833 0 -0.0081084873603681773 -0.058625608338025562 0 -0.0078369306566689837 -0.054110437695485833 0 -0.0065179717732585041 -0.055473401352302817 0 -0.0078369306566689837 -0.054110437695485833 0 -0.0065179717732585041 -0.055473401352302817 0 -0.0061296310551722018 -0.052379084065638216 0 -0.0081084873603681773 -0.058625608338025562 0 -0.0065179717732585041 -0.055473401352302817 0 -0.0055214104561299403 -0.058010162375269146 0 -0.0065179717732585041 -0.055473401352302817 0 -0.0055214104561299403 -0.058010162375269146 0 -0.0047331964687255881 -0.054158447539255854 0 -0.0047331964687255881 -0.054158447539255854 0 -0.0044093822928984519 -0.050837203656016718 0 -0.0061296310551722018 -0.052379084065638216 0 -0.0065179717732585041 -0.055473401352302817 0 -0.0047331964687255881 -0.054158447539255854 0 -0.0061296310551722018 -0.052379084065638216 0 -0.0081084873603681773 -0.058625608338025562 0 -0.0071347492392378553 -0.061970555112527075 0 -0.0055214104561299403 -0.058010162375269146 0 -0.0071347492392378553 -0.061970555112527075 0 -0.0055214104561299403 -0.058010162375269146 0 -0.0051571403685537372 -0.061943148954540526 0 -0.0065379082343299645 -0.064712365462562788 0 -0.0071347492392378553 -0.061970555112527075 0 -0.0051571403685537372 -0.061943148954540526 0 -0.0055214104561299403 -0.058010162375269146 0 -0.0051571403685537372 -0.061943148954540526 0 -0.0030344970122274956 -0.058190063561725333 0 -0.0051571403685537372 -0.061943148954540526 0 -0.0030344970122274956 -0.058190063561725333 0 -0.0031118547466373438 -0.063014069778840651 0 -0.0055214104561299403 -0.058010162375269146 0 -0.0031468048726936244 -0.054832835311573902 0 -0.0030344970122274956 -0.058190063561725333 0 -0.0047331964687255881 -0.054158447539255854 0 -0.0031468048726936244 -0.054832835311573902 0 -0.0029740850179867631 -0.051196419706910523 0 -0.0047331964687255881 -0.054158447539255854 0 -0.0029740850179867631 -0.051196419706910523 0 -0.0044093822928984519 -0.050837203656016718 0 -0.0055214104561299403 -0.058010162375269146 0 -0.0047331964687255881 -0.054158447539255854 0 -0.0031468048726936244 -0.054832835311573902 0 -0.0031468048726936244 -0.054832835311573902 0 -0.0029740850179867631 -0.051196419706910523 0 -0.0015139270755732117 -0.051960235314887956 0 -0.0029740850179867631 -0.051196419706910523 0 -0.00079532568629549596 -0.048871507280266666 0 -0.0015139270755732117 -0.051960235314887956 0 -0.0029740850179867631 -0.051196419706910523 0 -0.0027561085946443283 -0.047454277391292668 0 -0.00079532568629549596 -0.048871507280266666 0 -0.0029740850179867631 -0.051196419706910523 0 -0.0027561085946443283 -0.047454277391292668 0 -0.0044093822928984519 -0.050837203656016718 0 -0.0044093822928984519 -0.050837203656016718 0 -0.0052742712408527445 -0.048980002818553109 0 -0.0061296310551722018 -0.052379084065638216 0 -0.0027561085946443283 -0.047454277391292668 0 -0.0044093822928984519 -0.050837203656016718 0 -0.0052742712408527445 -0.048980002818553109 0 -0.0027561085946443283 -0.047454277391292668 0 -0.0052742712408527445 -0.048980002818553109 0 -0.0041804141551096928 -0.045122004108911137 0 -0.0064963383725238884 -0.04705173619154638 0 -0.0052742712408527445 -0.048980002818553109 0 -0.0041804141551096928 -0.045122004108911137 0 -0.007466741797005438 -0.05063350803249473 0 -0.0064963383725238884 -0.04705173619154638 0 -0.0052742712408527445 -0.048980002818553109 0 -0.007466741797005438 -0.05063350803249473 0 -0.0052742712408527445 -0.048980002818553109 0 -0.0061296310551722018 -0.052379084065638216 0 -0.0064963383725238884 -0.04705173619154638 0 -0.0057060831957768078 -0.042871159973724864 0 -0.0041804141551096928 -0.045122004108911137 0 -0.0034605669694237244 -0.040681441497821193 0 -0.0057060831957768078 -0.042871159973724864 0 -0.0041804141551096928 -0.045122004108911137 0 -0.0027561085946443283 -0.047454277391292668 0 -0.0019376643811751847 -0.043231027828948138 0 0.00019874293058574834 -0.044673804086856776 0 -0.0034605669694237244 -0.040681441497821193 0 -0.0011698107154643866 -0.039801229479714623 0 -0.0019376643811751847 -0.043231027828948138 0 -0.0034605669694237244 -0.040681441497821193 0 -0.0041804141551096928 -0.045122004108911137 0 -0.0019376643811751847 -0.043231027828948138 0 -0.0027561085946443283 -0.047454277391292668 0 -0.0041804141551096928 -0.045122004108911137 0 -0.0019376643811751847 -0.043231027828948138 0 -0.0011698107154643866 -0.039801229479714623 0 -0.0019376643811751847 -0.043231027828948138 0 0.00046188926181936588 -0.041031611513980951 0 -0.0019376643811751847 -0.043231027828948138 0 0.00019874293058574834 -0.044673804086856776 0 0.00046188926181936588 -0.041031611513980951 0 0.00019874293058574834 -0.044673804086856776 0 0.00046188926181936588 -0.041031611513980951 0 0.0019936970609821846 -0.043744687475917858 0 0.00019874293058574834 -0.044673804086856776 0 0.0019936970609821846 -0.043744687475917858 0 0.0017741375492524268 -0.047089809751318552 0 0.00046188926181936588 -0.041031611513980951 0 0.0022392560661207974 -0.040288972794293047 0 0.0019936970609821846 -0.043744687475917858 0 0.0022392560661207974 -0.040288972794293047 0 0.0019936970609821846 -0.043744687475917858 0 0.0039348149680175368 -0.043611274301033773 0 0.0019936970609821846 -0.043744687475917858 0 0.0039348149680175368 -0.043611274301033773 0 0.0017741375492524268 -0.047089809751318552 0 0.0022392560661207974 -0.040288972794293047 0 0.0039348149680175368 -0.043611274301033773 0 0.0039054469254419591 -0.038829558298038823 0 0.0025510592919819634 -0.050802235282127794 0 0.0044155156801248081 -0.051028319656296985 0 0.0041367207417487891 -0.048032612560738153 0 0.0017741375492524268 -0.047089809751318552 0 0.0025510592919819634 -0.050802235282127794 0 0.0041367207417487891 -0.048032612560738153 0 0.0039348149680175368 -0.043611274301033773 0 0.0017741375492524268 -0.047089809751318552 0 0.0041367207417487891 -0.048032612560738153 0 0.0017741375492524268 -0.047089809751318552 0 0.00038887264062941178 -0.051140535717889922 0 0.0025510592919819634 -0.050802235282127794 0 -0.0027561085946443283 -0.047454277391292668 0 0.00019874293058574834 -0.044673804086856776 0 -0.00079532568629549596 -0.048871507280266666 0 0.0017741375492524268 -0.047089809751318552 0 -0.00079532568629549596 -0.048871507280266666 0 0.00038887264062941178 -0.051140535717889922 0 0.00019874293058574834 -0.044673804086856776 0 0.0017741375492524268 -0.047089809751318552 0 -0.00079532568629549596 -0.048871507280266666 0 -0.00079532568629549596 -0.048871507280266666 0 -0.0015139270755732117 -0.051960235314887956 0 0.00038887264062941178 -0.051140535717889922 0 -0.0031468048726936244 -0.054832835311573902 0 -0.0015139270755732117 -0.051960235314887956 0 -0.0010279667398841264 -0.054531957019995886 0 -0.0015139270755732117 -0.051960235314887956 0 -0.0010279667398841264 -0.054531957019995886 0 0.00038887264062941178 -0.051140535717889922 0 -0.0031468048726936244 -0.054832835311573902 0 -0.0010279667398841264 -0.054531957019995886 0 -0.0030344970122274956 -0.058190063561725333 0 -0.0010279667398841264 -0.054531957019995886 0 -0.00040342915145208152 -0.056663508191715277 0 0.0011301946077591875 -0.053903371412190648 0 -0.0010279667398841264 -0.054531957019995886 0 0.00038887264062941178 -0.051140535717889922 0 0.0011301946077591875 -0.053903371412190648 0 -0.0030344970122274956 -0.058190063561725333 0 -0.0013066630796546757 -0.062265482444829927 0 -0.0031118547466373438 -0.063014069778840651 0 -0.0010279667398841264 -0.054531957019995886 0 -0.0030344970122274956 -0.058190063561725333 0 -0.00040342915145208152 -0.056663508191715277 0 -0.036780640065378935 -0.059751773566560827 0 0.0080347955844706671 -0.056668532307523063 0 -0.0030344970122274956 -0.058190063561725333 0 -0.0013639969782510526 -0.05896903126104508 0 -0.0013066630796546757 -0.062265482444829927 0 -0.0013066630796546757 -0.062265482444829927 0 0.00057406201867381116 -0.058509048642488855 0 0.00031267626908840039 -0.063400605573772903 0 0.0080347955844706671 -0.056668532307523063 0 -0.0011416994252066322 -0.058123900664772896 0 -0.00040342915145208152 -0.056663508191715277 0 0.0021697869793406571 -0.056816571625815923 0 0.0011301946077591875 -0.053903371412190648 0 -0.0013639969782510526 -0.05896903126104508 0 -0.0013066630796546757 -0.062265482444829927 0 0.00057406201867381116 -0.058509048642488855 0 -0.0011416994252066322 -0.058123900664772896 0 0.0041106114430982466 -0.057467199331962461 0 0.0021697869793406571 -0.056816571625815923 0 0.0035422125109406278 -0.053993394009405386 0 0.0046276093779328105 -0.056418036529486973 0 0.00057406201867381116 -0.058509048642488855 0 0.0018256002172982531 -0.061381114681252298 0 0.00031267626908840039 -0.063400605573772903 0 0.00038887264062941178 -0.051140535717889922 0 0.0011301946077591875 -0.053903371412190648 0 0.0025510592919819634 -0.050802235282127794 0 0.0021697869793406571 -0.056816571625815923 0 0.0011301946077591875 -0.053903371412190648 0 0.0035422125109406278 -0.053993394009405386 0 0.0011301946077591875 -0.053903371412190648 0 0.0035422125109406278 -0.053993394009405386 0 0.0025510592919819634 -0.050802235282127794 0 0.0035422125109406278 -0.053993394009405386 0 0.0025510592919819634 -0.050802235282127794 0 0.0044155156801248081 -0.051028319656296985 0 0.0035422125109406278 -0.053993394009405386 0 0.0044155156801248081 -0.051028319656296985 0 0.005899306662784814 -0.053221399325210243 0 0.0035422125109406278 -0.053993394009405386 0 0.005899306662784814 -0.053221399325210243 0 0.0046276093779328105 -0.056418036529486973 0 0.005899306662784814 -0.053221399325210243 0 0.0046276093779328105 -0.056418036529486973 0 0.0070266337535894478 -0.056664967872105336 0 0.0044155156801248081 -0.051028319656296985 0 0.005899306662784814 -0.053221399325210243 0 0.0060582905440325976 -0.049602751227280098 0 0.0018256002172982531 -0.061381114681252298 0 0.003085973500138586 -0.061178948107521093 0 0.0023353778387683417 -0.064488624876458067 0 0.0018256002172982531 -0.061381114681252298 0 0.0025824536805928713 -0.058723559629614709 0 0.003085973500138586 -0.061178948107521093 0 0.00057406201867381116 -0.058509048642488855 0 0.0018256002172982531 -0.061381114681252298 0 0.0025824536805928713 -0.058723559629614709 0 0.0041106114430982466 -0.057467199331962461 0 0.0054829765243816029 -0.057528455419679263 0 0.0025824536805928713 -0.058723559629614709 0 0.003085973500138586 -0.061178948107521093 0 0.004601343509971237 -0.058357444915014323 0 0.003085973500138586 -0.061178948107521093 0 0.004601343509971237 -0.058357444915014323 0 0.0041994703130623324 -0.062852229628449913 0 0.004601343509971237 -0.058357444915014323 0 0.0056445155492681198 -0.061796050849671685 0 0.0041994703130623324 -0.062852229628449913 0 0.004601343509971237 -0.058357444915014323 0 0.006665511909087451 -0.058702366910417365 0 0.0056445155492681198 -0.061796050849671685 0 0.0070266337535894478 -0.056664967872105336 0 0.0093915939806122894 -0.056396843786371699 0 0.0082678573652228329 -0.054079234660934637 0 0.0054829765243816029 -0.057528455419679263 0 0.00793177500339492 -0.057549540198937273 0 0.006665511909087451 -0.058702366910417365 0 0.0056445155492681198 -0.061796050849671685 0 0.0070041837926640054 -0.062915143058616563 0 0.005899306662784814 -0.053221399325210243 0 0.0077771592276589269 -0.050994156959363955 0 0.0082678573652228329 -0.054079234660934637 0 0.005899306662784814 -0.053221399325210243 0 0.0077771592276589269 -0.050994156959363955 0 0.0060582905440325976 -0.049602751227280098 0 0.005899306662784814 -0.053221399325210243 0 0.0070266337535894478 -0.056664967872105336 0 0.0082678573652228329 -0.054079234660934637 0 0.0077771592276589269 -0.050994156959363955 0 0.0082678573652228329 -0.054079234660934637 0 0.0094196328548602163 -0.05063104532620373 0 0.0082678573652228329 -0.054079234660934637 0 0.0094196328548602163 -0.05063104532620373 0 0.010522753522489587 -0.053786978923325936 0 0.0077771592276589269 -0.050994156959363955 0 0.0094196328548602163 -0.05063104532620373 0 0.0080623520752943559 -0.046795350823093815 0 0.0094196328548602163 -0.05063104532620373 0 0.0080623520752943559 -0.046795350823093815 0 0.01049749967226535 -0.04794619632009689 0 0.0077771592276589269 -0.050994156959363955 0 0.0080623520752943559 -0.046795350823093815 0 0.0060582905440325976 -0.049602751227280098 0 0.0080623520752943559 -0.046795350823093815 0 0.0063139045465877225 -0.042899966998289553 0 0.0060915791424421585 -0.046253546207784997 0 0.0080623520752943559 -0.046795350823093815 0 0.0060582905440325976 -0.049602751227280098 0 0.0060915791424421585 -0.046253546207784997 0 0.0080623520752943559 -0.046795350823093815 0 0.008040498564289171 -0.042011557166676677 0 0.010477372059830875 -0.043832858948046317 0 0.008040498564289171 -0.042011557166676677 0 0.010477372059830875 -0.043832858948046317 0 0.0091121423524809179 -0.039322880583743731 0 0.008040498564289171 -0.042011557166676677 0 0.0063139045465877225 -0.042899966998289553 0 0.0071746319503637095 -0.038666871367771534 0 0.0080623520752943559 -0.046795350823093815 0 0.008040498564289171 -0.042011557166676677 0 0.0063139045465877225 -0.042899966998289553 0 0.0039348149680175368 -0.043611274301033773 0 0.0063139045465877225 -0.042899966998289553 0 0.0060915791424421585 -0.046253546207784997 0 0.0063139045465877225 -0.042899966998289553 0 0.0054761720041872552 -0.040004912430120443 0 0.0071746319503637095 -0.038666871367771534 0 0.0039348149680175368 -0.043611274301033773 0 0.0063139045465877225 -0.042899966998289553 0 0.0054761720041872552 -0.040004912430120443 0 0.0039348149680175368 -0.043611274301033773 0 0.0039054469254419591 -0.038829558298038823 0 0.0054761720041872552 -0.040004912430120443 0 0.0039348149680175368 -0.043611274301033773 0 0.0041367207417487891 -0.048032612560738153 0 0.0060915791424421585 -0.046253546207784997 0 0.0044155156801248081 -0.051028319656296985 0 0.0041367207417487891 -0.048032612560738153 0 0.0060582905440325976 -0.049602751227280098 0 0.0041367207417487891 -0.048032612560738153 0 0.0060582905440325976 -0.049602751227280098 0 0.0060915791424421585 -0.046253546207784997 0 -0.00083006649292881221 -0.08346890131922835 0 0.00035318753442753817 -0.079346145208358115 0 -0.00180676833228292 -0.080462771125219323 0 -0.00083006649292881221 -0.08346890131922835 0 0.00035318753442753817 -0.079346145208358115 0 0.0014698977002893813 -0.083252105561251191 0 0.00035318753442753817 -0.079346145208358115 0 -0.00180676833228292 -0.080462771125219323 0 -0.0013908403804198531 -0.076940870531516811 0 -0.00083006649292881221 -0.08346890131922835 0 -0.00180676833228292 -0.080462771125219323 0 -0.003143811119957061 -0.083766752336772027 0 -0.003143811119957061 -0.083766752336772027 0 -0.005425329495204979 -0.084159454259940605 0 -0.0039850910123878291 -0.078905353771786244 0 -0.00180676833228292 -0.080462771125219323 0 -0.0039850910123878291 -0.078905353771786244 0 -0.0013908403804198531 -0.076940870531516811 0 -0.00180676833228292 -0.080462771125219323 0 -0.003143811119957061 -0.083766752336772027 0 -0.0039850910123878291 -0.078905353771786244 0 -0.0039850910123878291 -0.078905353771786244 0 -0.0024727176513148208 -0.074667571051062129 0 -0.0013908403804198531 -0.076940870531516811 0 -0.0039850910123878291 -0.078905353771786244 0 -0.0043243550730972559 -0.073728491946346966 0 -0.0024727176513148208 -0.074667571051062129 0 -0.0024727176513148208 -0.074667571051062129 0 -0.00089685984292780781 -0.073827302752382834 0 -0.0017078104835064937 -0.070992682730665446 0 -0.0024727176513148208 -0.074667571051062129 0 -0.00089685984292780781 -0.073827302752382834 0 -0.0013908403804198531 -0.076940870531516811 0 -0.00089685984292780781 -0.073827302752382834 0 -0.0013908403804198531 -0.076940870531516811 0 0.00053816725154248301 -0.075211925987798273 0 0.00035318753442753817 -0.079346145208358115 0 -0.0013908403804198531 -0.076940870531516811 0 0.00053816725154248301 -0.075211925987798273 0 -0.00089685984292780781 -0.073827302752382834 0 0.00053816725154248301 -0.075211925987798273 0 0.00054856746439426276 -0.071398880727359407 0 0.00054856746439426276 -0.071398880727359407 0 0.00036413227943183426 -0.067415833292289201 0 0.0022459235706571556 -0.068816547422503815 0 0.00054856746439426276 -0.071398880727359407 0 -0.0017078104835064937 -0.070992682730665446 0 0.00036413227943183426 -0.067415833292289201 0 -0.0017078104835064937 -0.070992682730665446 0 -0.001795236770122131 -0.066226748800534765 0 0.00036413227943183426 -0.067415833292289201 0 -0.00089685984292780781 -0.073827302752382834 0 0.00054856746439426276 -0.071398880727359407 0 -0.0017078104835064937 -0.070992682730665446 0 -0.0043243550730972559 -0.073728491946346966 0 -0.0024727176513148208 -0.074667571051062129 0 -0.0017078104835064937 -0.070992682730665446 0 -0.0043243550730972559 -0.073728491946346966 0 -0.0017078104835064937 -0.070992682730665446 0 -0.0037442801929770194 -0.069207372658005487 0 -0.0017078104835064937 -0.070992682730665446 0 -0.0037442801929770194 -0.069207372658005487 0 -0.001795236770122131 -0.066226748800534765 0 -0.0037442801929770194 -0.069207372658005487 0 -0.001795236770122131 -0.066226748800534765 0 -0.0034542130933371299 -0.066047748246319427 0 -0.001795236770122131 -0.066226748800534765 0 -0.0034542130933371299 -0.066047748246319427 0 -0.0031118547466373438 -0.063014069778840651 0 -0.0013066630796546757 -0.062265482444829927 0 -0.001795236770122131 -0.066226748800534765 0 -0.0031118547466373438 -0.063014069778840651 0 -0.0013066630796546757 -0.062265482444829927 0 -0.001795236770122131 -0.066226748800534765 0 0.00031267626908840039 -0.063400605573772903 0 -0.001795236770122131 -0.066226748800534765 0 0.00036413227943183426 -0.067415833292289201 0 0.00031267626908840039 -0.063400605573772903 0 0.00036413227943183426 -0.067415833292289201 0 0.00031267626908840039 -0.063400605573772903 0 0.0023353778387683417 -0.064488624876458067 0 0.0018256002172982531 -0.061381114681252298 0 0.00031267626908840039 -0.063400605573772903 0 0.0023353778387683417 -0.064488624876458067 0 0.00036413227943183426 -0.067415833292289201 0 0.0023353778387683417 -0.064488624876458067 0 0.0022459235706571556 -0.068816547422503815 0 0.0023353778387683417 -0.064488624876458067 0 0.0036124364860938667 -0.066508622263431627 0 0.0022459235706571556 -0.068816547422503815 0 0.0023353778387683417 -0.064488624876458067 0 0.0036124364860938667 -0.066508622263431627 0 0.0041994703130623324 -0.062852229628449913 0 0.003085973500138586 -0.061178948107521093 0 0.0023353778387683417 -0.064488624876458067 0 0.0041994703130623324 -0.062852229628449913 0 0.0056445155492681198 -0.061796050849671685 0 0.0041994703130623324 -0.062852229628449913 0 0.00551909762368553 -0.066210376554056066 0 0.0056445155492681198 -0.061796050849671685 0 0.00551909762368553 -0.066210376554056066 0 0.0070041837926640054 -0.062915143058616563 0 0.0036124364860938667 -0.066508622263431627 0 0.0041994703130623324 -0.062852229628449913 0 0.00551909762368553 -0.066210376554056066 0 0.0036124364860938667 -0.066508622263431627 0 0.00551909762368553 -0.066210376554056066 0 0.003745689739496085 -0.070249383687826267 0 0.00551909762368553 -0.066210376554056066 0 0.0055086254069853461 -0.070997146413343273 0 0.003745689739496085 -0.070249383687826267 0 0.00551909762368553 -0.066210376554056066 0 0.0055086254069853461 -0.070997146413343273 0 0.0072881254730513476 -0.070095089463019539 0 0.0055086254069853461 -0.070997146413343273 0 0.003745689739496085 -0.070249383687826267 0 0.0052160809339669382 -0.07426577091050908 0 0.003745689739496085 -0.070249383687826267 0 0.0026132952096657503 -0.07321879473924385 0 0.0052160809339669382 -0.07426577091050908 0 0.003745689739496085 -0.070249383687826267 0 0.0022459235706571556 -0.068816547422503815 0 0.0026132952096657503 -0.07321879473924385 0 0.0036124364860938667 -0.066508622263431627 0 0.003745689739496085 -0.070249383687826267 0 0.0022459235706571556 -0.068816547422503815 0 0.00054856746439426276 -0.071398880727359407 0 0.0022459235706571556 -0.068816547422503815 0 0.0026132952096657503 -0.07321879473924385 0 0.00053816725154248301 -0.075211925987798273 0 0.00054856746439426276 -0.071398880727359407 0 0.0026132952096657503 -0.07321879473924385 0 0.00053816725154248301 -0.075211925987798273 0 0.002031542219569873 -0.076738527678410356 0 0.0026132952096657503 -0.07321879473924385 0 0.00035318753442753817 -0.079346145208358115 0 0.00053816725154248301 -0.075211925987798273 0 0.002031542219569873 -0.076738527678410356 0 0.002031542219569873 -0.076738527678410356 0 0.0035731432936953384 -0.076563843785566965 0 0.0029923166456249481 -0.079753730595028383 0 0.002031542219569873 -0.076738527678410356 0 0.0026132952096657503 -0.07321879473924385 0 0.0035731432936953384 -0.076563843785566965 0 0.0026132952096657503 -0.07321879473924385 0 0.0052160809339669382 -0.07426577091050908 0 0.0035731432936953384 -0.076563843785566965 0 0.0055086254069853461 -0.070997146413343273 0 0.0052160809339669382 -0.07426577091050908 0 0.0071592423833606077 -0.073800571997214501 0 0.0052160809339669382 -0.07426577091050908 0 0.0050333820187219809 -0.07889053256360927 0 0.0065488026187212525 -0.076690958345758273 0 0.0052160809339669382 -0.07426577091050908 0 0.0035731432936953384 -0.076563843785566965 0 0.0050333820187219809 -0.07889053256360927 0 0.0035731432936953384 -0.076563843785566965 0 0.0050333820187219809 -0.07889053256360927 0 0.0029923166456249481 -0.079753730595028383 0 0.0050333820187219809 -0.07889053256360927 0 0.0037642417128446026 -0.083104682338095842 0 0.0060365307771875548 -0.083005946285243118 0 0.0050333820187219809 -0.07889053256360927 0 0.0060365307771875548 -0.083005946285243118 0 0.0070574098729805088 -0.079613640267651983 0 0.0050333820187219809 -0.07889053256360927 0 0.0037642417128446026 -0.083104682338095842 0 0.0029923166456249481 -0.079753730595028383 0 0.0037642417128446026 -0.083104682338095842 0 0.0029923166456249481 -0.079753730595028383 0 0.0014698977002893813 -0.083252105561251191 0 0.00035318753442753817 -0.079346145208358115 0 0.002031542219569873 -0.076738527678410356 0 0.0029923166456249481 -0.079753730595028383 0 0.00035318753442753817 -0.079346145208358115 0 0.0029923166456249481 -0.079753730595028383 0 0.0014698977002893813 -0.083252105561251191 0 0.010528260673435458 -0.082894104824648623 0 0.010698484216092197 -0.077645589630595133 0 0.012760297258668818 -0.079108587057061211 0 0.010528260673435458 -0.082894104824648623 0 0.0090174824684632216 -0.079909524542661897 0 0.010698484216092197 -0.077645589630595133 0 0.0090174824684632216 -0.079909524542661897 0 0.0082909601580414549 -0.076919329461405339 0 0.010698484216092197 -0.077645589630595133 0 0.010528260673435458 -0.082894104824648623 0 0.0090174824684632216 -0.079909524542661897 0 0.0082938077048425318 -0.082939999964701 0 0.0090174824684632216 -0.079909524542661897 0 0.0082938077048425318 -0.082939999964701 0 0.0070574098729805088 -0.079613640267651983 0 0.0082938077048425318 -0.082939999964701 0 0.0060365307771875548 -0.083005946285243118 0 0.0070574098729805088 -0.079613640267651983 0 0.0050333820187219809 -0.07889053256360927 0 0.0070574098729805088 -0.079613640267651983 0 0.0065488026187212525 -0.076690958345758273 0 0.0090174824684632216 -0.079909524542661897 0 0.0070574098729805088 -0.079613640267651983 0 0.0082909601580414549 -0.076919329461405339 0 0.0082909601580414549 -0.076919329461405339 0 0.0065488026187212525 -0.076690958345758273 0 0.0071592423833606077 -0.073800571997214501 0 0.0070574098729805088 -0.079613640267651983 0 0.0082909601580414549 -0.076919329461405339 0 0.0065488026187212525 -0.076690958345758273 0 0.0052160809339669382 -0.07426577091050908 0 0.0065488026187212525 -0.076690958345758273 0 0.0071592423833606077 -0.073800571997214501 0 0.0082909601580414549 -0.076919329461405339 0 0.0071592423833606077 -0.073800571997214501 0 0.0090345406927171551 -0.073764740103731297 0 0.0090345406927171551 -0.073764740103731297 0 0.010698484216092197 -0.077645589630595133 0 0.010994540816861973 -0.07351065639965218 0 0.0082909601580414549 -0.076919329461405339 0 0.0090345406927171551 -0.073764740103731297 0 0.010698484216092197 -0.077645589630595133 0 0.010698484216092197 -0.077645589630595133 0 0.010994540816861973 -0.07351065639965218 0 0.013075397927179567 -0.075067170041691264 0 0.010994540816861973 -0.07351065639965218 0 0.0098050946029588273 -0.070634184005779296 0 0.012160997706548061 -0.070431950917794722 0 0.0098050946029588273 -0.070634184005779296 0 0.010766303437938029 -0.067293169930665947 0 0.012160997706548061 -0.070431950917794722 0 0.0098050946029588273 -0.070634184005779296 0 0.0087139512956897879 -0.067871233436041914 0 0.010766303437938029 -0.067293169930665947 0 0.0090345406927171551 -0.073764740103731297 0 0.010994540816861973 -0.07351065639965218 0 0.0098050946029588273 -0.070634184005779296 0 0.0071592423833606077 -0.073800571997214501 0 0.0090345406927171551 -0.073764740103731297 0 0.0072881254730513476 -0.070095089463019539 0 0.0090345406927171551 -0.073764740103731297 0 0.0098050946029588273 -0.070634184005779296 0 0.0072881254730513476 -0.070095089463019539 0 0.0055086254069853461 -0.070997146413343273 0 0.0071592423833606077 -0.073800571997214501 0 0.0072881254730513476 -0.070095089463019539 0 0.0072881254730513476 -0.070095089463019539 0 0.0087139512956897879 -0.067871233436041914 0 0.0074789880807618518 -0.066329394550306994 0 0.0098050946029588273 -0.070634184005779296 0 0.0072881254730513476 -0.070095089463019539 0 0.0087139512956897879 -0.067871233436041914 0 0.0087139512956897879 -0.067871233436041914 0 0.0074789880807618518 -0.066329394550306994 0 0.0088492884009055608 -0.064561352926897353 0 0.00551909762368553 -0.066210376554056066 0 0.0074789880807618518 -0.066329394550306994 0 0.0070041837926640054 -0.062915143058616563 0 0.00551909762368553 -0.066210376554056066 0 0.0072881254730513476 -0.070095089463019539 0 0.0074789880807618518 -0.066329394550306994 0 0.0074789880807618518 -0.066329394550306994 0 0.0070041837926640054 -0.062915143058616563 0 0.0088492884009055608 -0.064561352926897353 0 0.0070041837926640054 -0.062915143058616563 0 0.0088492884009055608 -0.064561352926897353 0 0.0081571528754623788 -0.06117558293362578 0 0.0088492884009055608 -0.064561352926897353 0 0.010766303437938029 -0.067293169930665947 0 0.011162725845275749 -0.063485140020031625 0 0.0088492884009055608 -0.064561352926897353 0 0.011162725845275749 -0.063485140020031625 0 0.0096146034516042724 -0.061465745738873145 0 0.0087139512956897879 -0.067871233436041914 0 0.0088492884009055608 -0.064561352926897353 0 0.010766303437938029 -0.067293169930665947 0 0.010766303437938029 -0.067293169930665947 0 0.011162725845275749 -0.063485140020031625 0 0.013215471336763651 -0.066326491795860212 0 0.011162725845275749 -0.063485140020031625 0 0.013215471336763651 -0.066326491795860212 0 0.013124102839379001 -0.062289186145775874 0 0.013215471336763651 -0.066326491795860212 0 0.015040080036128389 -0.063234232302391225 0 0.015424922309763545 -0.067029169525469626 0 0.013215471336763651 -0.066326491795860212 0 0.015040080036128389 -0.063234232302391225 0 0.013124102839379001 -0.062289186145775874 0 0.015040080036128389 -0.063234232302391225 0 0.016349208091940501 -0.064702586686805161 0 0.015424922309763545 -0.067029169525469626 0 0.015040080036128389 -0.063234232302391225 0 0.016349208091940501 -0.064702586686805161 0 0.016258624798979361 -0.061439167642204646 0 0.016349208091940501 -0.064702586686805161 0 0.016258624798979361 -0.061439167642204646 0 0.017499205721747114 -0.062679906762469206 0 0.016349208091940501 -0.064702586686805161 0 0.017454917883288602 -0.066654943092512103 0 0.017499205721747114 -0.062679906762469206 0 0.016349208091940501 -0.064702586686805161 0 0.017454917883288602 -0.066654943092512103 0 0.015424922309763545 -0.067029169525469626 0 0.017380387062802764 -0.070636759170654984 0 0.014608665711326718 -0.070693798073821604 0 0.015275569177502403 -0.074367830022475587 0 0.015424922309763545 -0.067029169525469626 0 0.017380387062802764 -0.070636759170654984 0 0.014608665711326718 -0.070693798073821604 0 0.017454917883288602 -0.066654943092512103 0 0.015424922309763545 -0.067029169525469626 0 0.017380387062802764 -0.070636759170654984 0 0.014608665711326718 -0.070693798073821604 0 0.012160997706548061 -0.070431950917794722 0 0.013075397927179567 -0.075067170041691264 0 0.013215471336763651 -0.066326491795860212 0 0.015424922309763545 -0.067029169525469626 0 0.014608665711326718 -0.070693798073821604 0 0.013215471336763651 -0.066326491795860212 0 0.014608665711326718 -0.070693798073821604 0 0.012160997706548061 -0.070431950917794722 0 0.010766303437938029 -0.067293169930665947 0 0.013215471336763651 -0.066326491795860212 0 0.012160997706548061 -0.070431950917794722 0 0.010994540816861973 -0.07351065639965218 0 0.012160997706548061 -0.070431950917794722 0 0.013075397927179567 -0.075067170041691264 0 0.010698484216092197 -0.077645589630595133 0 0.013075397927179567 -0.075067170041691264 0 0.012760297258668818 -0.079108587057061211 0 0.013075397927179567 -0.075067170041691264 0 0.015275569177502403 -0.074367830022475587 0 0.014758862302048698 -0.078267727437903278 0 0.013075397927179567 -0.075067170041691264 0 0.014758862302048698 -0.078267727437903278 0 0.012760297258668818 -0.079108587057061211 0 0.014608665711326718 -0.070693798073821604 0 0.013075397927179567 -0.075067170041691264 0 0.015275569177502403 -0.074367830022475587 0 0.017380387062802764 -0.070636759170654984 0 0.015275569177502403 -0.074367830022475587 0 0.017290145513907951 -0.074649733837462928 0 0.017290145513907951 -0.074649733837462928 0 0.016123636193789644 -0.076699746536360636 0 0.017210791053078177 -0.078689315481028754 0 0.015275569177502403 -0.074367830022475587 0 0.017290145513907951 -0.074649733837462928 0 0.016123636193789644 -0.076699746536360636 0 0.015275569177502403 -0.074367830022475587 0 0.016123636193789644 -0.076699746536360636 0 0.014758862302048698 -0.078267727437903278 0 0.016123636193789644 -0.076699746536360636 0 0.014758862302048698 -0.078267727437903278 0 0.01594347479000258 -0.080074681657669414 0 0.016123636193789644 -0.076699746536360636 0 0.01594347479000258 -0.080074681657669414 0 0.017210791053078177 -0.078689315481028754 0 0.01594347479000258 -0.080074681657669414 0 0.017210791053078177 -0.078689315481028754 0 0.01714088304852153 -0.08274484044735364 0 0.01594347479000258 -0.080074681657669414 0 0.01714088304852153 -0.08274484044735364 0 0.014946953519804629 -0.082808938263928308 0 0.014758862302048698 -0.078267727437903278 0 0.01594347479000258 -0.080074681657669414 0 0.014946953519804629 -0.082808938263928308 0 0.014946953519804629 -0.082808938263928308 0 0.012760297258668818 -0.079108587057061211 0 0.012743381505408161 -0.082857550334136082 0 0.014758862302048698 -0.078267727437903278 0 0.014946953519804629 -0.082808938263928308 0 0.012760297258668818 -0.079108587057061211 0 0.010528260673435458 -0.082894104824648623 0 0.012760297258668818 -0.079108587057061211 0 0.012743381505408161 -0.082857550334136082 0 0.01247839951982049 -0.048048776887708679 0 0.01480362347678744 -0.046383767326884401 0 0.012993328734703038 -0.044532643344114609 0 0.01247839951982049 -0.048048776887708679 0 0.014905784696298613 -0.049733353954637231 0 0.013387406656405986 -0.051194850534633227 0 0.01247839951982049 -0.048048776887708679 0 0.011640698950730336 -0.050795860180795391 0 0.013387406656405986 -0.051194850534633227 0 0.01247839951982049 -0.048048776887708679 0 0.014905784696298613 -0.049733353954637231 0 0.01480362347678744 -0.046383767326884401 0 0.01480362347678744 -0.046383767326884401 0 0.014757691425305164 -0.042266496903672894 0 0.012993328734703038 -0.044532643344114609 0 0.014757691425305164 -0.042266496903672894 0 0.012361768472183484 -0.041318438970298674 0 0.012993328734703038 -0.044532643344114609 0 0.014757691425305164 -0.042266496903672894 0 0.012361768472183484 -0.041318438970298674 0 0.01376773028246684 -0.039431450512757982 0 0.012361768472183484 -0.041318438970298674 0 0.012993328734703038 -0.044532643344114609 0 0.010477372059830875 -0.043832858948046317 0 0.012361768472183484 -0.041318438970298674 0 0.010477372059830875 -0.043832858948046317 0 0.010792515928871455 -0.040098221860596625 0 0.010477372059830875 -0.043832858948046317 0 0.010792515928871455 -0.040098221860596625 0 0.0091121423524809179 -0.039322880583743731 0 0.0080623520752943559 -0.046795350823093815 0 0.010477372059830875 -0.043832858948046317 0 0.01049749967226535 -0.04794619632009689 0 0.01247839951982049 -0.048048776887708679 0 0.010477372059830875 -0.043832858948046317 0 0.01049749967226535 -0.04794619632009689 0 0.01247839951982049 -0.048048776887708679 0 0.012993328734703038 -0.044532643344114609 0 0.010477372059830875 -0.043832858948046317 0 0.01247839951982049 -0.048048776887708679 0 0.01049749967226535 -0.04794619632009689 0 0.011640698950730336 -0.050795860180795391 0 0.0094196328548602163 -0.05063104532620373 0 0.01049749967226535 -0.04794619632009689 0 0.011640698950730336 -0.050795860180795391 0 0.0094196328548602163 -0.05063104532620373 0 0.010522753522489587 -0.053786978923325936 0 0.011640698950730336 -0.050795860180795391 0 0.0093915939806122894 -0.056396843786371699 0 0.0082678573652228329 -0.054079234660934637 0 0.010522753522489587 -0.053786978923325936 0 0.010522753522489587 -0.053786978923325936 0 0.011710582829055056 -0.05673583245355366 0 0.012850239150567752 -0.054066275529960177 0 0.010522753522489587 -0.053786978923325936 0 0.011640698950730336 -0.050795860180795391 0 0.012850239150567752 -0.054066275529960177 0 0.006665511909087451 -0.058702366910417365 0 0.0070041837926640054 -0.062915143058616563 0 0.0081571528754623788 -0.06117558293362578 0 0.006665511909087451 -0.058702366910417365 0 0.0087728947036299892 -0.058428309519632689 0 0.0081571528754623788 -0.06117558293362578 0 0.0093915939806122894 -0.056396843786371699 0 0.010522753522489587 -0.053786978923325936 0 0.011710582829055056 -0.05673583245355366 0 0.00793177500339492 -0.057549540198937273 0 0.0099570114250789408 -0.057581354047039741 0 0.0088492884009055608 -0.064561352926897353 0 0.0081571528754623788 -0.06117558293362578 0 0.0096146034516042724 -0.061465745738873145 0 0.0087728947036299892 -0.058428309519632689 0 0.0081571528754623788 -0.06117558293362578 0 0.0096146034516042724 -0.061465745738873145 0 0.011162725845275749 -0.063485140020031625 0 0.0096146034516042724 -0.061465745738873145 0 0.010909131919003888 -0.058818782598483201 0 0.0099570114250789408 -0.057581354047039741 0 0.012609466195496861 -0.057676402605724021 0 0.011710582829055056 -0.05673583245355366 0 0.013988586660607844 -0.056513259451706377 0 0.012850239150567752 -0.054066275529960177 0 0.0087728947036299892 -0.058428309519632689 0 0.0096146034516042724 -0.061465745738873145 0 0.010909131919003888 -0.058818782598483201 0 0.012609466195496861 -0.057676402605724021 0 0.013163582662833002 -0.057726308647249411 0 0.011162725845275749 -0.063485140020031625 0 0.010909131919003888 -0.058818782598483201 0 0.013124102839379001 -0.062289186145775874 0 0.011640698950730336 -0.050795860180795391 0 0.013387406656405986 -0.051194850534633227 0 0.012850239150567752 -0.054066275529960177 0 0.013988586660607844 -0.056513259451706377 0 0.012850239150567752 -0.054066275529960177 0 0.015148893748086208 -0.053289739931078085 0 0.014905784696298613 -0.049733353954637231 0 0.013387406656405986 -0.051194850534633227 0 0.015148893748086208 -0.053289739931078085 0 0.013387406656405986 -0.051194850534633227 0 0.012850239150567752 -0.054066275529960177 0 0.015148893748086208 -0.053289739931078085 0 0.015148893748086208 -0.053289739931078085 0 0.0171592188815455 -0.054238806260301343 0 0.016956327659923956 -0.051239969254739587 0 0.014905784696298613 -0.049733353954637231 0 0.015148893748086208 -0.053289739931078085 0 0.016956327659923956 -0.051239969254739587 0 0.013988586660607844 -0.056513259451706377 0 0.015148893748086208 -0.053289739931078085 0 0.016237397610620475 -0.056920095370023613 0 0.015148893748086208 -0.053289739931078085 0 0.0171592188815455 -0.054238806260301343 0 0.016237397610620475 -0.056920095370023613 0 0.0171592188815455 -0.054238806260301343 0 0.016956327659923956 -0.051239969254739587 0 0.018755157420208477 -0.053463473285751177 0 0.010909131919003888 -0.058818782598483201 0 0.013124102839379001 -0.062289186145775874 0 0.013114909282638251 -0.05861257245870833 0 0.013163582662833002 -0.057726308647249411 0 0.021601759929773794 -0.057901728954432685 0 0.0171592188815455 -0.054238806260301343 0 0.016237397610620475 -0.056920095370023613 0 0.018479434431979969 -0.056645518557946875 0 0.013124102839379001 -0.062289186145775874 0 0.013114909282638251 -0.05861257245870833 0 0.015367336456323228 -0.05895104172758333 0 0.015040080036128389 -0.063234232302391225 0 0.013124102839379001 -0.062289186145775874 0 0.015367336456323228 -0.05895104172758333 0 0.015040080036128389 -0.063234232302391225 0 0.015367336456323228 -0.05895104172758333 0 0.016258624798979361 -0.061439167642204646 0 0.021601759929773794 -0.057901728954432685 0 0.00055478498816584332 -0.057648552996125216 0 0.015367336456323228 -0.05895104172758333 0 0.017626638007370302 -0.058646136951477378 0 0.016258624798979361 -0.061439167642204646 0 0.017626638007370302 -0.058646136951477378 0 0.016258624798979361 -0.061439167642204646 0 0.017499205721747114 -0.062679906762469206 0 0.016956327659923956 -0.051239969254739587 0 0.018755157420208477 -0.053463473285751177 0 0.018731985473214717 -0.048950735519636787 0 0.0171592188815455 -0.054238806260301343 0 0.018479434431979969 -0.056645518557946875 0 0.018755157420208477 -0.053463473285751177 0 0.018479434431979969 -0.056645518557946875 0 0.020696125410173082 -0.056953659839494568 0 0.018755157420208477 -0.053463473285751177 0 0.020696125410173082 -0.056953659839494568 0 0.018755157420208477 -0.053463473285751177 0 0.020605716365312183 -0.052976389274439442 0 0.018755157420208477 -0.053463473285751177 0 0.020605716365312183 -0.052976389274439442 0 0.018731985473214717 -0.048950735519636787 0 0.018731985473214717 -0.048950735519636787 0 0.017761429568714439 -0.045671578292754436 0 0.020451396503208177 -0.045143580646210164 0 0.020605716365312183 -0.052976389274439442 0 0.020528443200496189 -0.049047701426178342 0 0.018731985473214717 -0.048950735519636787 0 0.020528443200496189 -0.049047701426178342 0 0.018731985473214717 -0.048950735519636787 0 0.020451396503208177 -0.045143580646210164 0 0.016956327659923956 -0.051239969254739587 0 0.018731985473214717 -0.048950735519636787 0 0.016654348566256603 -0.047803209164246789 0 0.018731985473214717 -0.048950735519636787 0 0.016654348566256603 -0.047803209164246789 0 0.017761429568714439 -0.045671578292754436 0 0.01480362347678744 -0.046383767326884401 0 0.016654348566256603 -0.047803209164246789 0 0.016508670099030811 -0.043736353729056932 0 0.014905784696298613 -0.049733353954637231 0 0.01480362347678744 -0.046383767326884401 0 0.016654348566256603 -0.047803209164246789 0 0.014905784696298613 -0.049733353954637231 0 0.016956327659923956 -0.051239969254739587 0 0.016654348566256603 -0.047803209164246789 0 0.014757691425305164 -0.042266496903672894 0 0.016508670099030811 -0.043736353729056932 0 0.016807127467848369 -0.040741028719990788 0 0.01480362347678744 -0.046383767326884401 0 0.014757691425305164 -0.042266496903672894 0 0.016508670099030811 -0.043736353729056932 0 0.016508670099030811 -0.043736353729056932 0 0.017761429568714439 -0.045671578292754436 0 0.018527916552569242 -0.042537435982877722 0 0.016654348566256603 -0.047803209164246789 0 0.016508670099030811 -0.043736353729056932 0 0.017761429568714439 -0.045671578292754436 0 0.016508670099030811 -0.043736353729056932 0 0.018527916552569242 -0.042537435982877722 0 0.016807127467848369 -0.040741028719990788 0 0.017761429568714439 -0.045671578292754436 0 0.018527916552569242 -0.042537435982877722 0 0.020451396503208177 -0.045143580646210164 0 0.018527916552569242 -0.042537435982877722 0 0.020451396503208177 -0.045143580646210164 0 0.020341817822381977 -0.041283268445895194 0 0.018527916552569242 -0.042537435982877722 0 0.020341817822381977 -0.041283268445895194 0 0.018704485255231169 -0.039746808715529956 0 0.020341817822381977 -0.041283268445895194 0 0.020187920271444778 -0.037489878463836272 0 0.018704485255231169 -0.039746808715529956 0 0.020187920271444778 -0.037489878463836272 0 0.017575043207140408 -0.036675016537223826 0 0.018704485255231169 -0.039746808715529956 0 0.017575043207140408 -0.036675016537223826 0 0.018704485255231169 -0.039746808715529956 0 0.016807127467848369 -0.040741028719990788 0 0.018527916552569242 -0.042537435982877722 0 0.018704485255231169 -0.039746808715529956 0 0.016807127467848369 -0.040741028719990788 0 0.019910171757156873 -0.033753450164557851 0 0.018232806318785339 -0.033428690270247856 0 0.019515017251368932 -0.030064711678094106 0 0.020187920271444778 -0.037489878463836272 0 0.019910171757156873 -0.033753450164557851 0 0.018232806318785339 -0.033428690270247856 0 0.020187920271444778 -0.037489878463836272 0 0.017575043207140408 -0.036675016537223826 0 0.018232806318785339 -0.033428690270247856 0 0.018232806318785339 -0.033428690270247856 0 0.016087848315343524 -0.034044113962649947 0 0.016313624507566425 -0.030659298457009765 0 0.017575043207140408 -0.036675016537223826 0 0.018232806318785339 -0.033428690270247856 0 0.016087848315343524 -0.034044113962649947 0 0.016087848315343524 -0.034044113962649947 0 0.015399428906585976 -0.037678552557852185 0 0.014342109243346635 -0.034483329494221032 0 0.016087848315343524 -0.034044113962649947 0 0.014342109243346635 -0.034483329494221032 0 0.014354603106271664 -0.031396132624174594 0 0.016087848315343524 -0.034044113962649947 0 0.014354603106271664 -0.031396132624174594 0 0.016313624507566425 -0.030659298457009765 0 0.017575043207140408 -0.036675016537223826 0 0.016807127467848369 -0.040741028719990788 0 0.015399428906585976 -0.037678552557852185 0 0.017575043207140408 -0.036675016537223826 0 0.016087848315343524 -0.034044113962649947 0 0.015399428906585976 -0.037678552557852185 0 0.014757691425305164 -0.042266496903672894 0 0.016807127467848369 -0.040741028719990788 0 0.015399428906585976 -0.037678552557852185 0 0.014757691425305164 -0.042266496903672894 0 0.015399428906585976 -0.037678552557852185 0 0.01376773028246684 -0.039431450512757982 0 0.012361768472183484 -0.041318438970298674 0 0.01376773028246684 -0.039431450512757982 0 0.012312564070011901 -0.038208976600263907 0 0.01376773028246684 -0.039431450512757982 0 0.012312564070011901 -0.038208976600263907 0 0.013795014462730539 -0.036787098161552297 0 0.012312564070011901 -0.038208976600263907 0 0.013795014462730539 -0.036787098161552297 0 0.012484103094421455 -0.035087392164524805 0 0.015399428906585976 -0.037678552557852185 0 0.01376773028246684 -0.039431450512757982 0 0.013795014462730539 -0.036787098161552297 0 0.013795014462730539 -0.036787098161552297 0 0.014342109243346635 -0.034483329494221032 0 0.012484103094421455 -0.035087392164524805 0 0.015399428906585976 -0.037678552557852185 0 0.013795014462730539 -0.036787098161552297 0 0.014342109243346635 -0.034483329494221032 0 0.014342109243346635 -0.034483329494221032 0 0.014354603106271664 -0.031396132624174594 0 0.012080085272727257 -0.031971816371824412 0 0.014354603106271664 -0.031396132624174594 0 0.012080085272727257 -0.031971816371824412 0 0.01286678851339256 -0.029541177435577558 0 0.014342109243346635 -0.034483329494221032 0 0.012080085272727257 -0.031971816371824412 0 0.012484103094421455 -0.035087392164524805 0 0.012484103094421455 -0.035087392164524805 0 0.010448257110648645 -0.032259007781837643 0 0.010816226546929918 -0.036545877708182364 0 0.012080085272727257 -0.031971816371824412 0 0.012484103094421455 -0.035087392164524805 0 0.010448257110648645 -0.032259007781837643 0 0.012080085272727257 -0.031971816371824412 0 0.010448257110648645 -0.032259007781837643 0 0.010534950218482324 -0.027745013113057496 0 0.010448257110648645 -0.032259007781837643 0 0.010816226546929918 -0.036545877708182364 0 0.0088996098588101855 -0.035773037040231499 0 0.010816226546929918 -0.036545877708182364 0 0.0088996098588101855 -0.035773037040231499 0 0.0091121423524809179 -0.039322880583743731 0 0.010816226546929918 -0.036545877708182364 0 0.010792515928871455 -0.040098221860596625 0 0.0091121423524809179 -0.039322880583743731 0 0.012312564070011901 -0.038208976600263907 0 0.010816226546929918 -0.036545877708182364 0 0.010792515928871455 -0.040098221860596625 0 0.012361768472183484 -0.041318438970298674 0 0.012312564070011901 -0.038208976600263907 0 0.010792515928871455 -0.040098221860596625 0 0.012312564070011901 -0.038208976600263907 0 0.012484103094421455 -0.035087392164524805 0 0.010816226546929918 -0.036545877708182364 0 0.0082208575129407158 -0.02304242935428634 0 0.0067263081571505047 -0.019315753322891926 0 0.0084170408774463974 -0.019996065745168174 0 0.0094665059386487248 -0.023360646933304252 0 0.0077074340547997871 -0.023068445073057001 0 0.0082208575129407158 -0.02304242935428634 0 0.0067263081571505047 -0.019315753322891926 0 0.0063796466808233396 -0.022385155332779062 0 0.010987135156334751 -0.023675478802026612 0 0.010534950218482324 -0.027745013113057496 0 0.0090584487157250038 -0.02375010659517772 0 0.010534950218482324 -0.027745013113057496 0 0.0085286977767696694 -0.026580809906052164 0 0.0090584487157250038 -0.02375010659517772 0 0.010448257110648645 -0.032259007781837643 0 0.010534950218482324 -0.027745013113057496 0 0.0092700864673538105 -0.029520114957645855 0 0.010534950218482324 -0.027745013113057496 0 0.0092700864673538105 -0.029520114957645855 0 0.0085286977767696694 -0.026580809906052164 0 0.012080085272727257 -0.031971816371824412 0 0.010534950218482324 -0.027745013113057496 0 0.01286678851339256 -0.029541177435577558 0 0.010987135156334751 -0.023675478802026612 0 0.010534950218482324 -0.027745013113057496 0 0.01223830361547954 -0.026526712208620039 0 0.010534950218482324 -0.027745013113057496 0 0.01223830361547954 -0.026526712208620039 0 0.01286678851339256 -0.029541177435577558 0 0.01223830361547954 -0.026526712208620039 0 0.01286678851339256 -0.029541177435577558 0 0.014252615057494226 -0.027848036110151065 0 0.014354603106271664 -0.031396132624174594 0 0.01286678851339256 -0.029541177435577558 0 0.014252615057494226 -0.027848036110151065 0 0.01223830361547954 -0.026526712208620039 0 0.014252615057494226 -0.027848036110151065 0 0.012894378941025532 -0.024491804990881275 0 0.014252615057494226 -0.027848036110151065 0 0.012894378941025532 -0.024491804990881275 0 0.014847964703546244 -0.024724768371993396 0 0.010263650344870081 -0.02312685363373803 0 0.0084170408774463974 -0.019996065745168174 0 0.0093191242510845488 -0.018050388540745442 0 0.010263650344870081 -0.02312685363373803 0 0.011528971480129485 -0.020267461155116726 0 0.0093191242510845488 -0.018050388540745442 0 0.011861493472713319 -0.023802462291490994 0 0.012315972666132243 -0.024430781124079655 0 0.010987135156334751 -0.023675478802026612 0 0.01223830361547954 -0.026526712208620039 0 0.012894378941025532 -0.024491804990881275 0 0.0082208575129407158 -0.02304242935428634 0 0.010263650344870081 -0.02312685363373803 0 0.0084170408774463974 -0.019996065745168174 0 0.0094665059386487248 -0.023360646933304252 0 0.011861493472713319 -0.023802462291490994 0 0.010263650344870081 -0.02312685363373803 0 0.011528971480129485 -0.020267461155116726 0 0.012349154854005536 -0.024091718830151029 0 0.012315972666132243 -0.024430781124079655 0 0.020252282195362098 -0.025176405333070105 0 0.014847964703546244 -0.024724768371993396 0 0.016103496071703687 -0.027646164641645675 0 0.016863276063303123 -0.025909211472811486 0 0.011528971480129485 -0.020267461155116726 0 0.012349154854005536 -0.024091718830151029 0 0.014541059080674108 -0.02454426002263331 0 0.011528971480129485 -0.020267461155116726 0 0.014541059080674108 -0.02454426002263331 0 0.013140135254051289 -0.020256593929111739 0 0.014354603106271664 -0.031396132624174594 0 0.014252615057494226 -0.027848036110151065 0 0.016313624507566425 -0.030659298457009765 0 0.014252615057494226 -0.027848036110151065 0 0.016103496071703687 -0.027646164641645675 0 0.016313624507566425 -0.030659298457009765 0 0.014252615057494226 -0.027848036110151065 0 0.014847964703546244 -0.024724768371993396 0 0.016103496071703687 -0.027646164641645675 0 0.016103496071703687 -0.027646164641645675 0 0.016313624507566425 -0.030659298457009765 0 0.017719083460904297 -0.029065054670570831 0 0.018232806318785339 -0.033428690270247856 0 0.016313624507566425 -0.030659298457009765 0 0.017719083460904297 -0.029065054670570831 0 0.016103496071703687 -0.027646164641645675 0 0.017719083460904297 -0.029065054670570831 0 0.016863276063303123 -0.025909211472811486 0 0.017719083460904297 -0.029065054670570831 0 0.016863276063303123 -0.025909211472811486 0 0.018903076139214062 -0.026379502299869215 0 0.017719083460904297 -0.029065054670570831 0 0.019515017251368932 -0.030064711678094106 0 0.018903076139214062 -0.026379502299869215 0 0.018232806318785339 -0.033428690270247856 0 0.017719083460904297 -0.029065054670570831 0 0.019515017251368932 -0.030064711678094106 0 0.014541059080674108 -0.02454426002263331 0 0.014732359741438383 -0.022585317839795883 0 0.013140135254051289 -0.020256593929111739 0 0.020252282195362098 -0.025176405333070105 0 0.00049703250023758064 -0.026135094008544545 0 0.014541059080674108 -0.02454426002263331 0 0.016614604317138713 -0.025746452666793377 0 0.014732359741438383 -0.022585317839795883 0 0.016614604317138713 -0.025746452666793377 0 0.014732359741438383 -0.022585317839795883 0 0.015513555571045395 -0.022049841020125097 0 0.014732359741438383 -0.022585317839795883 0 0.013882542475282476 -0.019562936393004951 0 0.015513555571045395 -0.022049841020125097 0 0.013882542475282476 -0.019562936393004951 0 0.015513555571045395 -0.022049841020125097 0 0.014196040362524826 -0.018485231673928869 0 0.013882542475282476 -0.019562936393004951 0 0.013140135254051289 -0.020256593929111739 0 0.012255555434361081 -0.016760346253719517 0 0.014732359741438383 -0.022585317839795883 0 0.013882542475282476 -0.019562936393004951 0 0.013140135254051289 -0.020256593929111739 0 0.013882542475282476 -0.019562936393004951 0 0.012255555434361081 -0.016760346253719517 0 0.014196040362524826 -0.018485231673928869 0 0.012255555434361081 -0.016760346253719517 0 0.012454865766989807 -0.014800081244505764 0 0.0098517709042657726 -0.012549730107280253 0 0.012454865766989807 -0.014800081244505764 0 0.0098517709042657726 -0.012549730107280253 0 0.0082410905736546199 -0.0092063191008078249 0 0.012255555434361081 -0.016760346253719517 0 0.014196040362524826 -0.018485231673928869 0 0.012454865766989807 -0.014800081244505764 0 0.012255555434361081 -0.016760346253719517 0 0.0098517709042657726 -0.012549730107280253 0 0.010538359302630541 -0.016305474867658525 0 0.0098517709042657726 -0.012549730107280253 0 0.0076698347580935501 -0.011157998890120239 0 0.010538359302630541 -0.016305474867658525 0 0.0098517709042657726 -0.012549730107280253 0 0.0076698347580935501 -0.011157998890120239 0 0.0059279364668150649 -0.0072255119519175938 0 0.0076698347580935501 -0.011157998890120239 0 0.010538359302630541 -0.016305474867658525 0 0.0081459435452342233 -0.013959922279100992 0 0.011528971480129485 -0.020267461155116726 0 0.010538359302630541 -0.016305474867658525 0 0.0093191242510845488 -0.018050388540745442 0 0.011528971480129485 -0.020267461155116726 0 0.013140135254051289 -0.020256593929111739 0 0.010538359302630541 -0.016305474867658525 0 0.013140135254051289 -0.020256593929111739 0 0.012255555434361081 -0.016760346253719517 0 0.010538359302630541 -0.016305474867658525 0 3.1223367860502768e-07 -3.3776412401393625e-06 0 0.0030939079303560304 -0.0030922603672391153 0 0.0044071055395055155 -0.0046017482013865334 0 3.1223367860502768e-07 -3.3776412401393625e-06 0 4.7407651095537147e-06 -9.7269175325391107e-06 0 0.0030939079303560304 -0.0030922603672391153 0 4.7407651095537147e-06 -9.7269175325391107e-06 0 0.0062085940557110222 -0.006672478924423457 0 0.0030939079303560304 -0.0030922603672391153 0 0.0062085940557110222 -0.006672478924423457 0 0.0030939079303560304 -0.0030922603672391153 0 0.0070714203865623456 -0.0074320335434994002 0 0.0030939079303560304 -0.0030922603672391153 0 0.0044071055395055155 -0.0046017482013865334 0 0.0070714203865623456 -0.0074320335434994002 0 0.0044071055395055155 -0.0046017482013865334 0 0.0070714203865623456 -0.0074320335434994002 0 0.0082410905736546199 -0.0092063191008078249 0 0.0070714203865623456 -0.0074320335434994002 0 0.0098974192676028853 -0.010924623178642952 0 0.0082410905736546199 -0.0092063191008078249 0 0.0062085940557110222 -0.006672478924423457 0 0.0070714203865623456 -0.0074320335434994002 0 0.0098974192676028853 -0.010924623178642952 0 0.012454865766989807 -0.014800081244505764 0 0.0098974192676028853 -0.010924623178642952 0 0.0082410905736546199 -0.0092063191008078249 0 0.0098517709042657726 -0.012549730107280253 0 0.0082410905736546199 -0.0092063191008078249 0 0.0059279364668150649 -0.0072255119519175938 0 0.0076698347580935501 -0.011157998890120239 0 0.0059279364668150649 -0.0072255119519175938 0 0.0050704690773036316 -0.0077289881518851277 0 0.0059279364668150649 -0.0072255119519175938 0 0.0027944174975198387 -0.0031914625923269236 0 0.0029984686724940008 -0.0041437279498122859 0 0.0044071055395055155 -0.0046017482013865334 0 0.0082410905736546199 -0.0092063191008078249 0 0.0059279364668150649 -0.0072255119519175938 0 0.0044071055395055155 -0.0046017482013865334 0 0.0059279364668150649 -0.0072255119519175938 0 0.0027944174975198387 -0.0031914625923269236 0 3.1223367860502768e-07 -3.3776412401393625e-06 0 0.0044071055395055155 -0.0046017482013865334 0 0.0027944174975198387 -0.0031914625923269236 0 0.0027944174975198387 -0.0031914625923269236 0 1.3172794670076259e-06 -4.6147747512480746e-06 0 5.6681884643530568e-07 -3.6167264857049346e-06 0 3.1223367860502768e-07 -3.3776412401393625e-06 0 0.0027944174975198387 -0.0031914625923269236 0 1.3172794670076259e-06 -4.6147747512480746e-06 0 5.6681884643530568e-07 -3.6167264857049346e-06 0 0.0015242880385857669 -0.002338410609739184 0 6.8491014797199674e-07 -3.9406657997547745e-06 0 0.0027944174975198387 -0.0031914625923269236 0 5.6681884643530568e-07 -3.6167264857049346e-06 0 0.0029984686724940008 -0.0041437279498122859 0 0.0029984686724940008 -0.0041437279498122859 0 0.0015242880385857669 -0.002338410609739184 0 0.002849238975289433 -0.0050328968067968162 0 5.6681884643530568e-07 -3.6167264857049346e-06 0 0.0029984686724940008 -0.0041437279498122859 0 0.0015242880385857669 -0.002338410609739184 0 0.0029984686724940008 -0.0041437279498122859 0 0.0050704690773036316 -0.0077289881518851277 0 0.002849238975289433 -0.0050328968067968162 0 0.0059279364668150649 -0.0072255119519175938 0 0.0029984686724940008 -0.0041437279498122859 0 0.0050704690773036316 -0.0077289881518851277 0 0.0050704690773036316 -0.0077289881518851277 0 0.0043178837034580711 -0.0081007289680833719 0 0.002849238975289433 -0.0050328968067968162 0 0.0050704690773036316 -0.0077289881518851277 0 0.0043178837034580711 -0.0081007289680833719 0 0.0061328416385960944 -0.010852625569644614 0 0.0043178837034580711 -0.0081007289680833719 0 0.0031145737635466116 -0.0066649421569586389 0 0.002849238975289433 -0.0050328968067968162 0 0.0031145737635466116 -0.0066649421569586389 0 0.0044957642022400842 -0.0100988066128796 0 0.0025994451710772836 -0.0070221215336247426 0 0.0043178837034580711 -0.0081007289680833719 0 0.0031145737635466116 -0.0066649421569586389 0 0.0044957642022400842 -0.0100988066128796 0 0.0031145737635466116 -0.0066649421569586389 0 0.002849238975289433 -0.0050328968067968162 0 0.0016037217869156874 -0.0034967298916640374 0 0.0015242880385857669 -0.002338410609739184 0 0.002849238975289433 -0.0050328968067968162 0 0.0011350089620127033 -0.0020778852645724549 0 0.002849238975289433 -0.0050328968067968162 0 0.0011350089620127033 -0.0020778852645724549 0 0.0016037217869156874 -0.0034967298916640374 0 0.0011350089620127033 -0.0020778852645724549 0 0.0016037217869156874 -0.0034967298916640374 0 4.4492277308768759e-07 -3.8070334888318783e-06 0 0.0011350089620127033 -0.0020778852645724549 0 6.8491014797199674e-07 -3.9406657997547745e-06 0 4.4492277308768759e-07 -3.8070334888318783e-06 0 0.0015242880385857669 -0.002338410609739184 0 0.0011350089620127033 -0.0020778852645724549 0 6.8491014797199674e-07 -3.9406657997547745e-06 0 0.0068137786945786484 -0.013836382953785311 0 0.0093191242510845488 -0.018050388540745442 0 0.0071507627161963416 -0.016828184288878292 0 0.0068137786945786484 -0.013836382953785311 0 0.0093191242510845488 -0.018050388540745442 0 0.0081459435452342233 -0.013959922279100992 0 0.0084170408774463974 -0.019996065745168174 0 0.0093191242510845488 -0.018050388540745442 0 0.0071507627161963416 -0.016828184288878292 0 0.010538359302630541 -0.016305474867658525 0 0.0093191242510845488 -0.018050388540745442 0 0.0081459435452342233 -0.013959922279100992 0 0.0076698347580935501 -0.011157998890120239 0 0.0081459435452342233 -0.013959922279100992 0 0.0061328416385960944 -0.010852625569644614 0 0.0076698347580935501 -0.011157998890120239 0 0.0050704690773036316 -0.0077289881518851277 0 0.0061328416385960944 -0.010852625569644614 0 0.0068137786945786484 -0.013836382953785311 0 0.0081459435452342233 -0.013959922279100992 0 0.0061328416385960944 -0.010852625569644614 0 0.0068137786945786484 -0.013836382953785311 0 0.0044957642022400842 -0.0100988066128796 0 0.0054677398646853035 -0.013661626908259296 0 0.0068137786945786484 -0.013836382953785311 0 0.0061328416385960944 -0.010852625569644614 0 0.0044957642022400842 -0.0100988066128796 0 0.0043178837034580711 -0.0081007289680833719 0 0.0061328416385960944 -0.010852625569644614 0 0.0044957642022400842 -0.0100988066128796 0 0.0044957642022400842 -0.0100988066128796 0 0.0054677398646853035 -0.013661626908259296 0 0.0038888214828836764 -0.01139819630996906 0 0.0054677398646853035 -0.013661626908259296 0 0.0071507627161963416 -0.016828184288878292 0 0.0058343290747394248 -0.01647471504172068 0 0.0068137786945786484 -0.013836382953785311 0 0.0054677398646853035 -0.013661626908259296 0 0.0071507627161963416 -0.016828184288878292 0 0.0067263081571505047 -0.019315753322891926 0 0.0084170408774463974 -0.019996065745168174 0 0.0071507627161963416 -0.016828184288878292 0 0.0067263081571505047 -0.019315753322891926 0 0.0071507627161963416 -0.016828184288878292 0 0.0058343290747394248 -0.01647471504172068 0 0.0067263081571505047 -0.019315753322891926 0 0.0058343290747394248 -0.01647471504172068 0 0.0052116864350466689 -0.018417167712697143 0 0.0058343290747394248 -0.01647471504172068 0 0.0052116864350466689 -0.018417167712697143 0 0.0045141010588927756 -0.014271045881694856 0 0.0052116864350466689 -0.018417167712697143 0 0.0040037808036315061 -0.016337064291029827 0 0.0045141010588927756 -0.014271045881694856 0 0.0052116864350466689 -0.018417167712697143 0 0.0040037808036315061 -0.016337064291029827 0 0.0038362049674201767 -0.019107776424169422 0 0.0040037808036315061 -0.016337064291029827 0 0.0045141010588927756 -0.014271045881694856 0 0.0034061718726902052 -0.013542492883630552 0 0.0054677398646853035 -0.013661626908259296 0 0.0058343290747394248 -0.01647471504172068 0 0.0045141010588927756 -0.014271045881694856 0 0.0054677398646853035 -0.013661626908259296 0 0.0045141010588927756 -0.014271045881694856 0 0.0038888214828836764 -0.01139819630996906 0 0.0044957642022400842 -0.0100988066128796 0 0.0038888214828836764 -0.01139819630996906 0 0.0025994451710772836 -0.0070221215336247426 0 0.0038888214828836764 -0.01139819630996906 0 0.0027005641104731718 -0.010087101435587 0 0.0025994451710772836 -0.0070221215336247426 0 0.0045141010588927756 -0.014271045881694856 0 0.0038888214828836764 -0.01139819630996906 0 0.0034061718726902052 -0.013542492883630552 0 0.0038888214828836764 -0.01139819630996906 0 0.0027005641104731718 -0.010087101435587 0 0.0034061718726902052 -0.013542492883630552 0 0.0027005641104731718 -0.010087101435587 0 0.0023200208108362318 -0.013462506272901176 0 0.0034061718726902052 -0.013542492883630552 0 0.0027005641104731718 -0.010087101435587 0 0.0017173980416318568 -0.0078748401803115358 0 0.001612266061474446 -0.010480436427040352 0 0.0027005641104731718 -0.010087101435587 0 0.0023200208108362318 -0.013462506272901176 0 0.001612266061474446 -0.010480436427040352 0 0.0023200208108362318 -0.013462506272901176 0 0.0029548129468789865 -0.016507508669933585 0 0.0016117307657006815 -0.017138686091244335 0 0.0029548129468789865 -0.016507508669933585 0 0.0016117307657006815 -0.017138686091244335 0 0.0024599189290310901 -0.019572946826266278 0 0.0040037808036315061 -0.016337064291029827 0 0.0029548129468789865 -0.016507508669933585 0 0.0038362049674201767 -0.019107776424169422 0 0.0023200208108362318 -0.013462506272901176 0 0.0029548129468789865 -0.016507508669933585 0 0.0034061718726902052 -0.013542492883630552 0 0.0040037808036315061 -0.016337064291029827 0 0.0029548129468789865 -0.016507508669933585 0 0.0034061718726902052 -0.013542492883630552 0 3.8590387138967851e-07 -3.819199548941153e-06 0 0.00072369143802839713 -0.0017793970879125237 0 0.001223809042031405 -0.003763410316194649 0 3.8590387138967851e-07 -3.819199548941153e-06 0 0.001223809042031405 -0.003763410316194649 0 0.00059472523652265286 -0.0023812687163738016 0 0.0016037217869156874 -0.0034967298916640374 0 4.4492277308768759e-07 -3.8070334888318783e-06 0 0.00072369143802839713 -0.0017793970879125237 0 3.8590387138967851e-07 -3.819199548941153e-06 0 4.4492277308768759e-07 -3.8070334888318783e-06 0 0.00072369143802839713 -0.0017793970879125237 0 0.0016037217869156874 -0.0034967298916640374 0 0.00072369143802839713 -0.0017793970879125237 0 0.001223809042031405 -0.003763410316194649 0 0.001223809042031405 -0.003763410316194649 0 0.0025994451710772836 -0.0070221215336247426 0 0.0019364559381470265 -0.0068516605304733457 0 0.0016037217869156874 -0.0034967298916640374 0 0.001223809042031405 -0.003763410316194649 0 0.0025994451710772836 -0.0070221215336247426 0 0.0031145737635466116 -0.0066649421569586389 0 0.0016037217869156874 -0.0034967298916640374 0 0.0025994451710772836 -0.0070221215336247426 0 0.0027005641104731718 -0.010087101435587 0 0.0025994451710772836 -0.0070221215336247426 0 0.0019364559381470265 -0.0068516605304733457 0 0.0019364559381470265 -0.0068516605304733457 0 0.0017173980416318568 -0.0078748401803115358 0 0.001131333939431806 -0.0049602659558593007 0 0.0027005641104731718 -0.010087101435587 0 0.0019364559381470265 -0.0068516605304733457 0 0.0017173980416318568 -0.0078748401803115358 0 0.0017173980416318568 -0.0078748401803115358 0 0.0011227282417005855 -0.0071865342558932377 0 0.001612266061474446 -0.010480436427040352 0 0.0017173980416318568 -0.0078748401803115358 0 0.001131333939431806 -0.0049602659558593007 0 0.0011227282417005855 -0.0071865342558932377 0 0.001131333939431806 -0.0049602659558593007 0 0.00051365268462337326 -0.0031349207297715859 0 0.0011227282417005855 -0.0071865342558932377 0 0.001223809042031405 -0.003763410316194649 0 0.0019364559381470265 -0.0068516605304733457 0 0.001131333939431806 -0.0049602659558593007 0 0.001223809042031405 -0.003763410316194649 0 0.001131333939431806 -0.0049602659558593007 0 0.00059472523652265286 -0.0023812687163738016 0 0.001131333939431806 -0.0049602659558593007 0 0.00059472523652265286 -0.0023812687163738016 0 0.00051365268462337326 -0.0031349207297715859 0 0.00059472523652265286 -0.0023812687163738016 0 2.9659706588522698e-07 -3.8453591019351763e-06 0 0.00051365268462337326 -0.0031349207297715859 0 3.8590387138967851e-07 -3.819199548941153e-06 0 0.00059472523652265286 -0.0023812687163738016 0 2.9659706588522698e-07 -3.8453591019351763e-06 0 4.6612314994366177e-08 -3.8482913612243438e-06 0 0.00018290925136083284 -0.0024791281459632954 0 1.6921976528218016e-07 -3.8677490921870147e-06 0 2.9659706588522698e-07 -3.8453591019351763e-06 0 4.6612314994366177e-08 -3.8482913612243438e-06 0 0.00051365268462337326 -0.0031349207297715859 0 4.6612314994366177e-08 -3.8482913612243438e-06 0 0.00051365268462337326 -0.0031349207297715859 0 0.00018290925136083284 -0.0024791281459632954 0 0.00051365268462337326 -0.0031349207297715859 0 0.00018290925136083284 -0.0024791281459632954 0 0.00043658139099449444 -0.0053639853985280603 0 0.00051365268462337326 -0.0031349207297715859 0 0.00043658139099449444 -0.0053639853985280603 0 0.0011227282417005855 -0.0071865342558932377 0 0.0011227282417005855 -0.0071865342558932377 0 0.00074878491537364012 -0.0081271731699265153 0 0.001612266061474446 -0.010480436427040352 0 0.00043658139099449444 -0.0053639853985280603 0 0.0011227282417005855 -0.0071865342558932377 0 0.00074878491537364012 -0.0081271731699265153 0 0.00074878491537364012 -0.0081271731699265153 0 0.00022711892888945565 -0.0074096968337099165 0 0.00054213246502899726 -0.010726168437938105 0 0.00043658139099449444 -0.0053639853985280603 0 0.00074878491537364012 -0.0081271731699265153 0 0.00022711892888945565 -0.0074096968337099165 0 0.00022711892888945565 -0.0074096968337099165 0 -0.00026004992133718823 -0.0085406463764991416 0 -4.1815922311183256e-05 -0.0040522469772653084 0 -0.0005517996658871364 -0.0065950770799590771 0 -0.00026004992133718823 -0.0085406463764991416 0 -4.1815922311183256e-05 -0.0040522469772653084 0 0.00043658139099449444 -0.0053639853985280603 0 0.00022711892888945565 -0.0074096968337099165 0 -4.1815922311183256e-05 -0.0040522469772653084 0 0.00018290925136083284 -0.0024791281459632954 0 -4.1815922311183256e-05 -0.0040522469772653084 0 1.6921976528218016e-07 -3.8677490921870147e-06 0 0.00018290925136083284 -0.0024791281459632954 0 0.00043658139099449444 -0.0053639853985280603 0 -4.1815922311183256e-05 -0.0040522469772653084 0 -1.6858695429712396e-07 -3.8376381360440251e-06 0 -4.1815922311183256e-05 -0.0040522469772653084 0 1.6921976528218016e-07 -3.8677490921870147e-06 0 0.0016117307657006815 -0.017138686091244335 0 0.0013053406606338871 -0.013280702538508504 0 0.00049336151679069649 -0.014744383931539299 0 0.0016117307657006815 -0.017138686091244335 0 0.00049336151679069649 -0.014744383931539299 0 0.00031130478991147107 -0.018744657588337245 0 0.0023200208108362318 -0.013462506272901176 0 0.0016117307657006815 -0.017138686091244335 0 0.0013053406606338871 -0.013280702538508504 0 0.0023200208108362318 -0.013462506272901176 0 0.0013053406606338871 -0.013280702538508504 0 0.001612266061474446 -0.010480436427040352 0 0.00074878491537364012 -0.0081271731699265153 0 0.001612266061474446 -0.010480436427040352 0 0.00054213246502899726 -0.010726168437938105 0 0.0013053406606338871 -0.013280702538508504 0 0.001612266061474446 -0.010480436427040352 0 0.00054213246502899726 -0.010726168437938105 0 0.0013053406606338871 -0.013280702538508504 0 0.00054213246502899726 -0.010726168437938105 0 0.00049336151679069649 -0.014744383931539299 0 0.00054213246502899726 -0.010726168437938105 0 -0.00025026996023663956 -0.012216336804217019 0 0.00049336151679069649 -0.014744383931539299 0 0.00022711892888945565 -0.0074096968337099165 0 -0.00026004992133718823 -0.0085406463764991416 0 0.00054213246502899726 -0.010726168437938105 0 -0.00073125507179175352 -0.01028416541916119 0 -0.00026004992133718823 -0.0085406463764991416 0 -0.00025026996023663956 -0.012216336804217019 0 -0.00026004992133718823 -0.0085406463764991416 0 0.00054213246502899726 -0.010726168437938105 0 -0.00025026996023663956 -0.012216336804217019 0 -0.00025026996023663956 -0.012216336804217019 0 -0.00049662303210181791 -0.015318068891707736 0 0.00049336151679069649 -0.014744383931539299 0 -0.00049662303210181791 -0.015318068891707736 0 0.00049336151679069649 -0.014744383931539299 0 0.00031130478991147107 -0.018744657588337245 0 -0.00083471106349819804 -0.018901270000233446 0 -0.00049662303210181791 -0.015318068891707736 0 0.00031130478991147107 -0.018744657588337245 0 -0.00083471106349819804 -0.018901270000233446 0 -0.00070311569404152253 -0.023090409143966539 0 0.00031130478991147107 -0.018744657588337245 0 -0.00070311569404152253 -0.023090409143966539 0 0.0013868930656268758 -0.02367631587331721 0 0.00063505966611302541 -0.026098704129451211 0 -0.00070311569404152253 -0.023090409143966539 0 0.00039032069037046012 -0.022311364831800639 0 0.00031130478991147107 -0.018744657588337245 0 -0.0078711610029609594 -0.022830491310939453 0 0.0027813773811687275 -0.023151067849744151 0 0.00039032069037046012 -0.022311364831800639 0 0.00031130478991147107 -0.018744657588337245 0 0.0011440349769303289 -0.020164977677097129 0 0.0016117307657006815 -0.017138686091244335 0 0.00031130478991147107 -0.018744657588337245 0 0.0011440349769303289 -0.020164977677097129 0 0.0027813773811687275 -0.023151067849744151 0 0.0019810138989134357 -0.022839155870837406 0 0.00039032069037046012 -0.022311364831800639 0 0.0011440349769303289 -0.020164977677097129 0 0.0017247109352820542 -0.022568812645450669 0 0.0019810138989134357 -0.022839155870837406 0 0.0043080446495767175 -0.022878700593364658 0 0.0011440349769303289 -0.020164977677097129 0 0.0017247109352820542 -0.022568812645450669 0 0.0024599189290310901 -0.019572946826266278 0 0.0016117307657006815 -0.017138686091244335 0 0.0011440349769303289 -0.020164977677097129 0 0.0024599189290310901 -0.019572946826266278 0 0.0041772607086823363 -0.026534298396268453 0 0.0021435895922151732 -0.027795976435375989 0 0.0037171609600813197 -0.030028099766964435 0 0.0033343251739667086 -0.023201861891371477 0 0.0041772607086823363 -0.026534298396268453 0 0.0052699619640544405 -0.023540322108492811 0 0.0033343251739667086 -0.023201861891371477 0 0.0041772607086823363 -0.026534298396268453 0 0.0021435895922151732 -0.027795976435375989 0 0.0013868930656268758 -0.02367631587331721 0 0.0033343251739667086 -0.023201861891371477 0 0.0021435895922151732 -0.027795976435375989 0 0.0021435895922151732 -0.027795976435375989 0 0.00063505966611302541 -0.026098704129451211 0 0.00045196950777973312 -0.031230325764628343 0 0.0013868930656268758 -0.02367631587331721 0 0.0021435895922151732 -0.027795976435375989 0 0.00063505966611302541 -0.026098704129451211 0 -0.00070249466776527679 -0.027701032708393046 0 -0.00070311569404152253 -0.023090409143966539 0 0.00063505966611302541 -0.026098704129451211 0 -0.00070249466776527679 -0.027701032708393046 0 0.00063505966611302541 -0.026098704129451211 0 0.00045196950777973312 -0.031230325764628343 0 0.0021435895922151732 -0.027795976435375989 0 0.00045196950777973312 -0.031230325764628343 0 0.0025126398695913079 -0.033028323281197494 0 0.00045196950777973312 -0.031230325764628343 0 0.00086981554150577828 -0.036776878489499926 0 0.0025126398695913079 -0.033028323281197494 0 -0.001016865380691273 -0.03531870193707376 0 0.00045196950777973312 -0.031230325764628343 0 0.00086981554150577828 -0.036776878489499926 0 -0.0011698107154643866 -0.039801229479714623 0 0.00046188926181936588 -0.041031611513980951 0 0.00086981554150577828 -0.036776878489499926 0 -0.0011698107154643866 -0.039801229479714623 0 -0.001016865380691273 -0.03531870193707376 0 0.00086981554150577828 -0.036776878489499926 0 0.00046188926181936588 -0.041031611513980951 0 0.0022392560661207974 -0.040288972794293047 0 0.00086981554150577828 -0.036776878489499926 0 0.0022392560661207974 -0.040288972794293047 0 0.002511414057069979 -0.036921981015561524 0 0.0039054469254419591 -0.038829558298038823 0 0.0022392560661207974 -0.040288972794293047 0 0.00086981554150577828 -0.036776878489499926 0 0.002511414057069979 -0.036921981015561524 0 0.002511414057069979 -0.036921981015561524 0 0.0038403027230193712 -0.035601673715182774 0 0.0025126398695913079 -0.033028323281197494 0 0.00086981554150577828 -0.036776878489499926 0 0.002511414057069979 -0.036921981015561524 0 0.0025126398695913079 -0.033028323281197494 0 0.002511414057069979 -0.036921981015561524 0 0.0038403027230193712 -0.035601673715182774 0 0.0039054469254419591 -0.038829558298038823 0 0.0021435895922151732 -0.027795976435375989 0 0.0025126398695913079 -0.033028323281197494 0 0.0037171609600813197 -0.030028099766964435 0 0.0038403027230193712 -0.035601673715182774 0 0.0025126398695913079 -0.033028323281197494 0 0.0049472784699080632 -0.032572053243331386 0 0.0025126398695913079 -0.033028323281197494 0 0.0037171609600813197 -0.030028099766964435 0 0.0049472784699080632 -0.032572053243331386 0 0.0037171609600813197 -0.030028099766964435 0 0.0049472784699080632 -0.032572053243331386 0 0.0055283112170788368 -0.028079319293938261 0 0.0049472784699080632 -0.032572053243331386 0 0.0054398565228325419 -0.036619416797491644 0 0.0069361751581172339 -0.034226790735107766 0 0.0049472784699080632 -0.032572053243331386 0 0.0066214682593579485 -0.030549192448449104 0 0.0069361751581172339 -0.034226790735107766 0 0.0049472784699080632 -0.032572053243331386 0 0.0066214682593579485 -0.030549192448449104 0 0.0055283112170788368 -0.028079319293938261 0 0.0039054469254419591 -0.038829558298038823 0 0.0054761720041872552 -0.040004912430120443 0 0.0054398565228325419 -0.036619416797491644 0 0.0038403027230193712 -0.035601673715182774 0 0.0039054469254419591 -0.038829558298038823 0 0.0054398565228325419 -0.036619416797491644 0 0.0038403027230193712 -0.035601673715182774 0 0.0049472784699080632 -0.032572053243331386 0 0.0054398565228325419 -0.036619416797491644 0 0.0054398565228325419 -0.036619416797491644 0 0.0071746319503637095 -0.038666871367771534 0 0.0069361751581172339 -0.034226790735107766 0 0.0054761720041872552 -0.040004912430120443 0 0.0054398565228325419 -0.036619416797491644 0 0.0071746319503637095 -0.038666871367771534 0 0.008040498564289171 -0.042011557166676677 0 0.0071746319503637095 -0.038666871367771534 0 0.0091121423524809179 -0.039322880583743731 0 0.0071746319503637095 -0.038666871367771534 0 0.0088996098588101855 -0.035773037040231499 0 0.0069361751581172339 -0.034226790735107766 0 0.0071746319503637095 -0.038666871367771534 0 0.0088996098588101855 -0.035773037040231499 0 0.0091121423524809179 -0.039322880583743731 0 0.0066214682593579485 -0.030549192448449104 0 0.0084760891024164373 -0.031998738474303949 0 0.0079510310202263092 -0.028952192141992766 0 0.0088996098588101855 -0.035773037040231499 0 0.0069361751581172339 -0.034226790735107766 0 0.0084760891024164373 -0.031998738474303949 0 0.0066214682593579485 -0.030549192448449104 0 0.0069361751581172339 -0.034226790735107766 0 0.0084760891024164373 -0.031998738474303949 0 0.010448257110648645 -0.032259007781837643 0 0.0088996098588101855 -0.035773037040231499 0 0.0084760891024164373 -0.031998738474303949 0 0.0084760891024164373 -0.031998738474303949 0 0.0092700864673538105 -0.029520114957645855 0 0.0079510310202263092 -0.028952192141992766 0 0.010448257110648645 -0.032259007781837643 0 0.0084760891024164373 -0.031998738474303949 0 0.0092700864673538105 -0.029520114957645855 0 0.0092700864673538105 -0.029520114957645855 0 0.0079510310202263092 -0.028952192141992766 0 0.0085286977767696694 -0.026580809906052164 0 0.0079510310202263092 -0.028952192141992766 0 0.006805865735272385 -0.026352533911338589 0 0.0085286977767696694 -0.026580809906052164 0 0.0066214682593579485 -0.030549192448449104 0 0.0079510310202263092 -0.028952192141992766 0 0.006805865735272385 -0.026352533911338589 0 0.006805865735272385 -0.026352533911338589 0 0.0085286977767696694 -0.026580809906052164 0 0.0071918656200909929 -0.023218818859920349 0 0.0052116864350466689 -0.018417167712697143 0 0.0063796466808233396 -0.022385155332779062 0 0.0047088082589010413 -0.022585769507818692 0 0.0077074340547997871 -0.023068445073057001 0 0.0058640695019593018 -0.022894643592523564 0 0.0085286977767696694 -0.026580809906052164 0 0.0090584487157250038 -0.02375010659517772 0 0.0071918656200909929 -0.023218818859920349 0 0.0067263081571505047 -0.019315753322891926 0 0.0052116864350466689 -0.018417167712697143 0 0.0063796466808233396 -0.022385155332779062 0 0.0052116864350466689 -0.018417167712697143 0 0.0047088082589010413 -0.022585769507818692 0 0.0038362049674201767 -0.019107776424169422 0 0.0047088082589010413 -0.022585769507818692 0 0.0038362049674201767 -0.019107776424169422 0 0.0031482169754422844 -0.02217537094460308 0 0.006805865735272385 -0.026352533911338589 0 0.0071918656200909929 -0.023218818859920349 0 0.0052699619640544405 -0.023540322108492811 0 0.0058640695019593018 -0.022894643592523564 0 0.0043080446495767175 -0.022878700593364658 0 0.0038362049674201767 -0.019107776424169422 0 0.0024599189290310901 -0.019572946826266278 0 0.0031482169754422844 -0.02217537094460308 0 0.0029548129468789865 -0.016507508669933585 0 0.0038362049674201767 -0.019107776424169422 0 0.0024599189290310901 -0.019572946826266278 0 0.0017247109352820542 -0.022568812645450669 0 0.0024599189290310901 -0.019572946826266278 0 0.0031482169754422844 -0.02217537094460308 0 0.0041772607086823363 -0.026534298396268453 0 0.0052699619640544405 -0.023540322108492811 0 0.0055283112170788368 -0.028079319293938261 0 0.0041772607086823363 -0.026534298396268453 0 0.0037171609600813197 -0.030028099766964435 0 0.0055283112170788368 -0.028079319293938261 0 0.0066214682593579485 -0.030549192448449104 0 0.006805865735272385 -0.026352533911338589 0 0.0055283112170788368 -0.028079319293938261 0 0.006805865735272385 -0.026352533911338589 0 0.0052699619640544405 -0.023540322108492811 0 0.0055283112170788368 -0.028079319293938261 0 
</DataArray>
</PointData>
<CellData Scalars="region_id,cross_section_updated,displacement_divergence," Vectors="" Tensors="stress,">
<DataArray type="Float64" Name="region_id" format="ascii">
1 1 1 1 1 1 1 1 1 1 1 1 1 1 1 1 1 1 1 1 1 1 1 1 1 1 1 1 1 1 1 1 1 1 1 1 1 1 1 1 1 1 1 1 1 1 1 1 1 1 1 1 1 1 1 1 1 1 1 1 1 1 1 1 1 1 1 1 1 1 1 1 1 1 1 1 1 1 1 1 1 1 1 1 1 1 1 1 1 1 1 1 1 1 1 1 1 1 1 1 1 1 1 1 1 1 1 1 1 1 1 1 1 1 1 1 1 1 1 1 1 1 1 1 1 1 1 1 1 1 1 1 1 1 1 1 1 1 1 1 1 1 1 1 1 1 1 1 1 1 1 1 1 1 1 1 1 1 1 1 1 1 1 1 1 1 1 1 1 1 1 1 1 1 1 1 1 1 1 1 1 1 1 1 1 1 1 1 1 1 1 1 1 1 1 1 1 1 1 1 1 1 1 1 1 1 1 1 1 1 1 1 1 1 1 1 1 1 1 1 1 1 1 1 1 1 1 1 1 1 1 1 1 1 1 1 1 1 1 1 1 1 1 1 1 1 1 1 1 1 1 1 1 1 1 1 1 1 1 1 1 1 1 1 1 1 1 1 1 1 1 1 1 1 1 1 1 1 1 1 1 1 1 1 1 1 1 1 1 1 1 1 1 1 1 1 1 1 1 1 1 1 1 1 1 1 1 1 1 1 1 1 1 1 1 1 1 1 1 1 1 1 1 1 1 1 1 1 1 1 1 1 1 1 1 1 1 1 1 1 1 1 1 1 1 1 1 1 1 1 1 1 1 1 1 1 1 1 1 1 1 1 1 1 1 1 1 1 1 1 1 1 1 1 1 1 1 1 1 1 1 1 1 1 1 1 1 1 1 1 1 1 1 1 1 1 1 1 1 1 1 1 1 1 1 1 1 1 1 1 1 1 1 1 1 1 1 1 1 1 1 1 1 1 1 1 1 1 1 1 1 1 1 1 1 1 1 1 1 1 1 1 1 1 1 1 1 1 1 1 1 1 1 1 1 1 1 1 1 1 1 1 1 1 1 1 1 1 1 1 1 1 1 1 1 1 1 1 1 1 1 1 1 1 1 1 1 1 1 1 1 1 1 1 1 1 1 1 1 1 1 1 1 1 1 1 1 1 1 1 1 1 1 1 1 1 1 1 1 1 1 1 1 1 1 1 1 1 1 1 1 1 1 1 1 1 1 1 3 1 1 3 1 1 3 1 1 1 1 1 1 1 1 1 1 1 1 1 3 1 1 1 1 1 3 1 1 1 1 1 1 1 1 1 1 1 1 1 1 1 1 1 1 1 1 1 1 1 1 1 1 1 1 1 1 1 1 1 1 1 1 1 1 1 1 1 1 1 1 1 1 1 1 1 1 1 1 1 1 1 1 1 1 1 1 1 1 1 1 1 1 1 1 1 1 1 1 1 1 1 1 1 1 1 1 1 1 1 1 1 1 1 1 1 1 1 1 1 1 1 1 1 1 1 1 1 1 1 1 1 1 1 1 1 1 1 1 1 1 1 1 1 1 1 1 1 1 1 1 1 1 1 1 1 1 1 1 1 1 1 1 1 1 1 1 1 1 1 1 1 1 1 1 1 1 1 1 1 1 1 1 1 1 1 1 1 1 1 1 1 1 1 1 3 1 1 1 3 1 1 3 1 1 1 1 1 1 1 1 1 1 1 3 1 1 1 1 3 1 1 1 1 1 1 1 1 1 1 1 1 1 1 1 1 1 1 1 1 1 1 1 1 1 1 1 1 1 1 1 1 1 1 1 1 1 1 1 1 1 1 1 1 1 1 1 1 1 1 1 1 1 1 1 1 1 1 2 1 1 1 1 1 1 1 1 1 1 1 1 1 1 2 1 1 2 1 2 1 1 1 1 1 1 1 1 1 1 1 1 1 2 1 1 1 1 1 1 1 1 1 1 1 1 1 1 1 1 1 1 1 1 1 1 1 1 1 1 1 1 1 1 1 1 1 1 1 1 1 1 1 1 1 1 1 1 1 1 1 1 1 1 1 1 1 1 1 1 1 1 1 1 1 1 1 1 1 1 1 1 1 1 1 1 1 1 1 1 1 1 1 1 1 1 1 1 1 1 1 1 1 1 1 1 1 1 1 1 1 1 1 1 1 1 1 1 1 1 1 1 1 1 1 1 1 1 1 1 1 1 1 1 1 1 1 1 1 1 1 1 1 1 1 1 1 1 1 1 2 1 1 2 1 2 1 1 1 1 1 1 1 1 1 1 1 1 1 1 1 1 1 1 1 1 1 1 1 1 1 1 1 1 1 1 1 1 1 1 1 1 1 1 1 1 1 1 1 1 1 1 1 2 1 1 1 1 1 2 1 1 1 1 1 1 1 
</DataArray>
<DataArray type="Float64" Name="stress" NumberOfComponents="9" format="ascii">
-4284.0910783167901 -3058.9465965467539 0 -3058.9465965467539 -12872.278133285216 0 0 0 -4289.0923029005025 -2236.0737865468172 -3053.6333961308692 0 -3053.6333961308692 -15388.960650769306 0 0 0 -4406.2586093290311 -2947.2663811712669 -2208.9011149018502 0 -2208.9011149018502 -10826.567919705734 0 0 0 -3443.4585752192511 -1115.9222074752433 -2317.0676397821908 0 -2317.0676397821908 -13546.175047667391 0 0 0 -3665.5243137856592 -405.44869206600049 -886.13371176077271 0 -886.13371176077271 -11060.889011110914 0 0 0 -2866.5844257942294 12.924326613197991 -337.88138480188684 0 -337.88138480188684 -9662.1147770255957 0 0 0 -2412.297612603099 -1153.5190255457503 -1768.0847050339617 0 -1768.0847050339617 -11601.296193717186 0 0 0 -3188.7038048157347 -122.10192921214912 -978.37917234927636 0 -978.37917234927636 -10933.31749570504 0 0 0 -2763.8548562292972 -81.683286775019951 -944.24272359772567 0 -944.24272359772567 -10034.458942915669 0 0 0 -2529.0355574226724 -689.04877337743073 -1278.0353572103122 0 -1278.0353572103122 -10478.756404760748 0 0 0 -2791.951294534545 -1429.9432192910481 -1467.3227920345551 0 -1467.3227920345551 -10177.428939433143 0 0 0 -2901.8430396810454 -727.6941947985988 -1272.2610426713563 0 -1272.2610426713563 -9836.3193605263332 0 0 0 -2641.0033888312346 -2194.5162140111706 -1875.6922179177036 0 -1875.6922179177036 -10008.453140994588 0 0 0 -3050.7423387514391 -1241.7331703098957 -1767.7814816909045 0 -1767.7814816909045 -9967.1960939160253 0 0 0 -2802.2323160564797 -3370.1095187939518 -2301.4323325189143 0 -2301.4323325189143 -10112.419089021034 0 0 0 -3370.6321519537464 -3653.6504439259406 -2804.5232458886071 0 -2804.5232458886071 -10958.202285701233 0 0 0 -3652.9631824067933 -1931.2773412265476 -2058.7472952330781 0 -2058.7472952330781 -9676.2486453086167 0 0 0 -2901.8814966337914 -2223.7377004140221 -2107.8496674049093 0 -2107.8496674049093 -10537.168280849641 0 0 0 -3190.2264953159161 -3.6729072347370675 -78.105542457016782 0 -78.105542457016782 -8918.7842463540219 0 0 0 -2230.6142883971879 44.540893368008255 -89.138327220591236 0 -89.138327220591236 -9455.8872691113211 0 0 0 -2352.8365939358264 -15.609267274729064 -247.99145901280644 0 -247.99145901280644 -9419.4448724917966 0 0 0 -2358.7635349416305 144.98482780982886 -198.79691829407147 0 -198.79691829407147 -9538.6744454968139 0 0 0 -2348.4224044217499 -256.37164580369245 -637.18601554573979 0 -637.18601554573979 -10483.515414325775 0 0 0 -2684.9717650323655 40.058659917682235 -447.6507994776548 0 -447.6507994776548 -10055.832747118304 0 0 0 -2503.9435218001536 -44.619583710231382 -211.29898592293648 0 -211.29898592293648 -9175.5402821680327 0 0 0 -2305.0399664695669 -133.12706056204661 -870.24547570849154 0 -870.24547570849154 -9967.8010583207943 0 0 0 -2525.2320297207098 -932.78817611312002 -1152.4510062735153 0 -1152.4510062735153 -10200.089848703676 0 0 0 -2783.2195062042001 -353.48193506519419 -704.5523963221458 0 -704.5523963221458 -9921.6700074580658 0 0 0 -2568.7879856308155 -104.37041112062661 -431.17180754190667 0 -431.17180754190667 -9664.7027849443239 0 0 0 -2442.2682990162343 -166.58352581725558 -723.13401372951739 0 -723.13401372951739 -9985.9214335388169 0 0 0 -2538.1262398390209 52.665605244415929 -243.94621611275215 0 -243.94621611275215 -9760.1956231451186 0 0 0 -2426.8825044751757 26.446275147874985 -126.32899596148764 0 -126.32899596148764 -9329.6669982295425 0 0 0 -2325.8051807704214 -2.123745091514138 -421.15021891989215 0 -421.15021891989215 -9724.0834309946586 0 0 0 -2431.5517940215468 -226.13027636005791 -570.7822153736488 0 -570.7822153736488 -9731.1105318540867 0 0 0 -2489.3102020535371 -224.71990444303265 -585.91972305423769 0 -585.91972305423769 -9609.79995250926 0 0 0 -2458.6299642380727 -839.40178756641762 -918.66523246656106 0 -918.66523246656106 -9618.869149891525 0 0 0 -2614.5677343644875 -354.94147070374493 -791.85780686033286 0 -791.85780686033286 -9734.5629195406946 0 0 0 -2522.3760975611094 -581.33741622773414 -903.09427469814364 0 -903.09427469814364 -9838.7525534914203 0 0 0 -2605.0224924297891 -923.61503100517439 -1225.7599733080856 0 -1225.7599733080856 -9634.5427269338688 0 0 0 -2639.5394394847608 -1077.7790687753641 -908.61239638477127 0 -908.61239638477127 -9464.1039214250413 0 0 0 -2635.4707475501 -1015.5620586245036 -889.71042177458548 0 -889.71042177458548 -9434.7113897900836 0 0 0 -2612.5683621036474 -680.05010720025894 -696.80935430161844 0 -696.80935430161844 -9291.3522564178784 0 0 0 -2492.8505909045343 -737.66897027268283 -920.86107498878846 0 -920.86107498878846 -9586.8119563579658 0 0 0 -2581.120231657661 -418.54506366408941 -662.4817266160826 0 -662.4817266160826 -9682.3905993965891 0 0 0 -2525.23391576517 -550.54250025073634 -639.14229374006709 0 -639.14229374006709 -9485.9233831818274 0 0 0 -2509.1164708581437 -741.68206981446542 -694.38702522685526 0 -694.38702522685526 -9524.3304959898742 0 0 0 -2566.503141451085 -195.03632462991118 -441.54208253335673 0 -441.54208253335673 -9554.0427175994082 0 0 0 -2437.2697605573321 -179.2954044159851 -409.28772050789485 0 -409.28772050789485 -9523.0330949665513 0 0 0 -2425.5821248456305 -2422.6369418273616 -1737.3012359898075 0 -1737.3012359898075 -9451.1483288394011 0 0 0 -2968.4463176666904 -1912.8359910417939 -1457.9356160512502 0 -1457.9356160512502 -9261.2838587068582 0 0 0 -2793.5299624371637 -3075.1856677748942 -1682.2967378118772 0 -1682.2967378118772 -9225.3725206387044 0 0 0 -3075.1395471033998 -2165.4284077285356 -1801.0554112617785 0 -1801.0554112617785 -9376.7471917887178 0 0 0 -2885.5438998793134 -1208.8896657356058 -1557.0892651131944 0 -1557.0892651131944 -9471.8065549095118 0 0 0 -2670.1740551612788 -1444.7793534199823 -1357.5704241581461 0 -1357.5704241581461 -9877.9451090294424 0 0 0 -2830.6811156123581 -1421.0131869785032 -1257.6734391809023 0 -1257.6734391809023 -9501.773964754133 0 0 0 -2730.6967879331601 -1840.7394082193541 -1552.1649631329519 0 -1552.1649631329519 -9609.9791175409118 0 0 0 -2862.6796314400663 -1265.5019639775046 -1180.4976302007785 0 -1180.4976302007785 -9409.4955903488863 0 0 0 -2668.7493885815984 -1841.3068395489563 -1163.4689655151724 0 -1163.4689655151724 -9342.0718095021493 0 0 0 -2795.8446622627753 -1451.1665303118748 -1089.8938322456634 0 -1089.8938322456634 -9183.5359660064678 0 0 0 -2658.6756240795844 -1708.0094233868667 -1278.4955677589471 0 -1278.4955677589471 -9004.0989420703881 0 0 0 -2678.0270913643144 -2344.5494901235584 -1261.4431573106867 0 -1261.4431573106867 -9157.0182202799988 0 0 0 -2875.3919276008896 -2403.3498575070421 -1490.8623017721409 0 -1490.8623017721409 -9351.7856465356072 0 0 0 -2938.783876010662 -2250.7131736314304 -1498.6532602882351 0 -1498.6532602882351 -8867.6402132755993 0 0 0 -2779.5883467267577 -2998.9327962044099 -1422.1596283229858 0 -1422.1596283229858 -8997.208770670386 0 0 0 -2999.035391718699 -2947.3535079055614 -1196.5745845861834 0 -1196.5745845861834 -8843.7102923515868 0 0 0 -2947.7659500642867 -2237.1556112834487 -1242.4766340106835 0 -1242.4766340106835 -8668.2174738740814 0 0 0 -2726.3432712893828 -2247.2819036055025 -1017.6362389413914 0 -1017.6362389413914 -8513.9615459036158 0 0 0 -2690.3108623772796 -2863.8231783042856 -983.07743245043321 0 -983.07743245043321 -8591.5264934813549 0 0 0 -2863.8374179464104 -2278.3471986348513 -771.97736543422252 0 -771.97736543422252 -8650.8958018057165 0 0 0 -2732.3107501101422 -2141.8619103632018 -713.90084823809957 0 -713.90084823809957 -8582.1017433194575 0 0 0 -2680.990913420665 -2243.6667801237636 -834.75962345531207 0 -834.75962345531207 -8324.7405736412438 0 0 0 -2642.1018384412519 -2827.4328418977407 -812.63491204180161 0 -812.63491204180161 -8482.8680034411609 0 0 0 -2827.5752113347253 -1651.2229137763247 -614.98935829265156 0 -614.98935829265156 -8848.7365280756949 0 0 0 -2624.9898604630048 -1409.928018940207 -644.28080493548805 0 -644.28080493548805 -8761.1571675282157 0 0 0 -2542.7712966171048 -1846.5772995904472 -814.05105502700098 0 -814.05105502700098 -8647.1154330764584 0 0 0 -2623.4231831667271 -1955.5029617064411 -807.72595601533521 0 -807.72595601533521 -8974.6308987831726 0 0 0 -2732.533465122402 -1385.4612014877616 -811.95254979996389 0 -811.95254979996389 -8842.7093994406932 0 0 0 -2557.0426502321138 -2223.3737932243048 -888.5285459294023 0 -888.5285459294023 -8799.9563656150749 0 0 0 -2755.8325397098452 -1912.3136763519396 -999.24128425335311 0 -999.24128425335311 -9018.3084521831242 0 0 0 -2732.6555321337651 -1757.2300735966637 -1038.7959444079679 0 -1038.7959444079679 -8967.0803058332258 0 0 0 -2681.0775948574724 -1326.5774405018437 -884.35522734361575 0 -884.35522734361575 -9258.6378872907226 0 0 0 -2646.3038319481402 -1019.4756657441048 -795.31156658224427 0 -795.31156658224427 -9100.9013270177893 0 0 0 -2530.0942481904731 -1113.8492564357075 -739.26094479260087 0 -739.26094479260087 -9382.0022928422331 0 0 0 -2623.962887319487 -1126.7346579187333 -620.13275028409771 0 -620.13275028409771 -9205.2923809070962 0 0 0 -2583.0067597064563 -712.06216472651249 -604.44580166438391 0 -604.44580166438391 -9183.0500229625941 0 0 0 -2473.7780469222753 -1484.5043566866389 -810.17941769822926 0 -810.17941769822926 -9143.4589055295146 0 0 0 -2656.9908155540397 -461.58682581882022 -450.28140778281204 0 -450.28140778281204 -9462.3546582949348 0 0 0 -2480.9853710284369 -394.16918986563542 -528.14328191281538 0 -528.14328191281538 -9348.590501754763 0 0 0 -2435.6899229051014 -792.55148182406901 -549.21468379641374 0 -549.21468379641374 -9384.0580487487823 0 0 0 -2544.1523826432158 -442.63334915820451 -377.45622702094715 0 -377.45622702094715 -9356.7512436876859 0 0 0 -2449.8461482114726 -386.63692894713313 -403.98353549126614 0 -403.98353549126614 -9210.6406266605845 0 0 0 -2399.3193889019276 -750.77412056837329 -414.57772331967863 0 -414.57772331967863 -9164.6046052029342 0 0 0 -2478.8446814428262 -572.71757850934682 -367.07549874927645 0 -367.07549874927645 -9078.6208302781597 0 0 0 -2412.8346021968782 -399.44145854870658 -204.58577291978145 0 -204.58577291978145 -9082.6836298224152 0 0 0 -2370.5312720927832 -1027.2941791341509 -673.29711327170298 0 -673.29711327170298 -8943.0816443160875 0 0 0 -2492.5939558625605 -1409.371391692101 -676.82923987882532 0 -676.82923987882532 -9052.8391846516206 0 0 0 -2615.5526440859289 -814.42475138640748 -547.41338413807171 0 -547.41338413807171 -9072.0647338232811 0 0 0 -2471.6223713024201 -1083.751222467477 -486.2037044153185 0 -486.2037044153185 -8961.8482765438785 0 0 0 -2511.3998747528399 -1041.3691986330878 -508.94030643837959 0 -508.94030643837959 -8954.9126912681277 0 0 0 -2499.0704724753041 -1233.5124931766522 -446.99398972920517 0 -446.99398972920517 -8767.8593262473478 0 0 0 -2500.3429548560007 -1037.2825832301096 -250.44402606958829 0 -250.44402606958829 -8866.5609829379828 0 0 0 -2475.9608915420231 -1290.9729478468007 -401.66853593569931 0 -401.66853593569931 -8786.5244474155588 0 0 0 -2519.3743488155915 -348.38400492007349 -201.38843026347786 0 -201.38843026347786 -9065.6564549990144 0 0 0 -2353.5101149797738 -846.85735702165402 -328.01860827423934 0 -328.01860827423934 -8970.722310854886 0 0 0 -2454.394916969135 -735.79930434730522 -299.27918664069875 0 -299.27918664069875 -8922.7874762663814 0 0 0 -2414.6466951534239 -553.31240778920983 -161.723719165906 0 -161.723719165906 -8953.9269666840628 0 0 0 -2376.8098436183172 -529.23660508187277 -150.11362922918124 0 -150.11362922918124 -8942.9270884180587 0 0 0 -2368.0409233749815 -743.60968770919681 -80.792106828581382 0 -80.792106828581382 -8898.9363778905899 0 0 0 -2410.6365163999471 -753.53819399325585 61.323830951642776 0 61.323830951642776 -8728.7478516909759 0 0 0 -2370.5715114210579 -568.15812616131143 -45.736993952150442 0 -45.736993952150442 -8827.1079884616047 0 0 0 -2348.8165286557301 -449.08311951474025 42.133774151370744 0 42.133774151370744 -8928.4389189271387 0 0 0 -2344.3805096104679 -1252.4683884983851 -151.83639179004058 0 -151.83639179004058 -8790.1930869892349 0 0 0 -2510.6653688719052 -794.11671983017777 -193.64144626000962 0 -193.64144626000962 -8761.3584903595147 0 0 0 -2388.8688025474225 -884.89725300785631 -57.56174283418477 0 -57.56174283418477 -8624.7928951844242 0 0 0 -2377.4225370480699 -1160.4308075176696 -153.7400670773155 0 -153.7400670773155 -8514.0313968699065 0 0 0 -2418.6155510968947 -1422.8955305041823 -98.484878817811477 0 -98.484878817811477 -8615.9648497554954 0 0 0 -2509.7150950649188 -1752.9241452243905 -279.9387514448772 0 -279.9387514448772 -8654.4325613207839 0 0 0 -2601.8391766362929 -1718.4722353146326 -213.29787169778683 0 -213.29787169778683 -8273.3160100422774 0 0 0 -2497.9470613392277 -2091.7925318852772 -186.54819416230248 0 -186.54819416230248 -8400.3140487574237 0 0 0 -2623.0266451606753 -2048.1769999397034 -102.90117133409831 0 -102.90117133409831 -7980.8363232336742 0 0 0 -2507.2533307933445 -2748.2591225619522 -273.89414552674992 0 -273.89414552674992 -8244.7322893285291 0 0 0 -2748.2478529726195 -2141.0634162066544 -341.0212013843593 0 -341.0212013843593 -8077.39135948687 0 0 0 -2554.6136939233811 -2240.2123061257862 -375.95960372183094 0 -375.95960372183094 -8455.7512292144856 0 0 0 -2673.990883835068 -2293.3062462190264 -555.32221884156979 0 -555.32221884156979 -8318.6299937743916 0 0 0 -2652.9840599983545 -2043.7002052535181 -397.85769725371938 0 -397.85769725371938 -8385.8096455336927 0 0 0 -2607.3774626968025 -2774.8451962520794 -468.95070887038844 0 -468.95070887038844 -8325.2365671752705 0 0 0 -2775.020440856837 -2307.2566678477688 -632.88423907967535 0 -632.88423907967535 -8338.0571642301293 0 0 0 -2661.3284580194745 -1791.0058795418572 -540.04069749745895 0 -540.04069749745895 -8559.8779885384611 0 0 0 -2587.7209670200791 -1484.5583011442063 -321.23578447446926 0 -321.23578447446926 -8556.50561459454 0 0 0 -2510.2659789346867 -1903.6544803960339 -480.95558364240969 0 -480.95558364240969 -8603.9208906880031 0 0 0 -2626.8938427710095 943.51566628308137 85.494791682987852 0 85.494791682987852 -9191.5997009620187 0 0 0 -2062.0210086697298 773.49589754401677 17.330319965560193 0 17.330319965560193 -9237.7059815375833 0 0 0 -2116.0525209983898 744.11977042583021 69.086172408628954 0 69.086172408628954 -9224.2874904931232 0 0 0 -2120.0419300168251 1017.4360775456307 6.5436647390270082 0 6.5436647390270082 -9217.2564522383873 0 0 0 -2049.9550936731894 1179.5969848795867 21.405798276096903 0 21.405798276096903 -9202.499736840793 0 0 0 -2005.7256879903034 1113.1385277981717 55.672775022894712 0 55.672775022894712 -9130.3441715680092 0 0 0 -2004.3014109424585 1215.6025167138851 -12.417734680107969 0 -12.417734680107969 -9088.2557501533138 0 0 0 -1968.1633083598554 1158.664653206808 -21.786548522206431 0 -21.786548522206431 -8981.1308419382985 0 0 0 -1955.6165471828645 1302.1480860779266 31.021177103415539 0 31.021177103415539 -9002.5913838039123 0 0 0 -1925.1108244315001 1255.6878906188394 28.599828098926082 0 28.599828098926082 -8876.4984944024181 0 0 0 -1905.2026509458919 1104.3697711680179 -66.101036212498002 0 -66.101036212498002 -8884.0530334038849 0 0 0 -1944.9208155589622 1138.5636649811859 39.642378069359125 0 39.642378069359125 -9039.0919403919397 0 0 0 -1975.1320688526939 964.73880784165067 -14.557058444279392 0 -14.557058444279392 -9118.9606331622235 0 0 0 -2038.5554563301457 941.54537699942739 55.112645798394169 0 55.112645798394169 -9169.2777422066574 0 0 0 -2056.9330913018057 1081.0096905253286 -0.42039718568048556 0 -0.42039718568048556 -8985.6423514679191 0 0 0 -1976.158165235649 360.77829676482179 298.76774690080856 0 298.76774690080856 -9250.0341113364993 0 0 0 -2222.3139536429171 916.35995223136706 152.44541191628377 0 152.44541191628377 -9102.0914909815619 0 0 0 -2046.4328846875505 227.32034240898975 114.45178436026617 0 114.45178436026617 -9184.0717773277356 0 0 0 -2239.1878587296869 896.95017464158809 -16.411499128233118 0 -16.411499128233118 -9018.3627158481831 0 0 0 -2030.3531353016515 1.4073137991654221 137.02461607650912 0 137.02461607650912 -8979.3361276297364 0 0 0 -2244.4822034576446 -358.24470714656127 -0.17127536687257816 0 -0.17127536687257816 -8966.6629826238568 0 0 0 -2331.2269224426036 71.659474390327659 91.190257254413154 0 91.190257254413154 -9068.8067145311506 0 0 0 -2249.286810035208 256.22509498785507 134.99151364725913 0 134.99151364725913 -9012.7779418578739 0 0 0 -2189.1382117175081 -270.30557795644995 8.49656899056572 0 8.49656899056572 -8936.0328528667196 0 0 0 -2301.5846077057913 -118.53655669366344 -40.12825807381887 0 -40.12825807381887 -9051.8782234721875 0 0 0 -2292.6036950414637 -133.19348652580493 -30.77810819678416 0 -30.77810819678416 -9054.6040458101852 0 0 0 -2296.9493830839951 102.43895606074511 -81.395061088938746 0 -81.395061088938746 -9170.7006716596734 0 0 0 -2267.0654288997321 598.81039123379014 41.729520720309665 0 41.729520720309665 -9214.9066630054658 0 0 0 -2154.0240679429189 582.66634128895203 97.449920791699697 0 97.449920791699697 -9107.4038661614395 0 0 0 -2131.1843812181232 171.10307215443572 70.100894388309825 0 70.100894388309825 -9193.961630871836 0 0 0 -2255.7146396793487 449.60249440840198 -12.47315106361566 0 -12.47315106361566 -9281.0394435514027 0 0 0 -2207.8592372857474 509.98436154016053 60.381394636311597 0 60.381394636311597 -9257.0101620062887 0 0 0 -2186.7564501165343 223.25600675139503 -53.823166988881894 0 -53.823166988881894 -9332.2765639497084 0 0 0 -2277.2551392995774 398.81199957737954 -5.8025020802087965 0 -5.8025020802087965 -9294.4173293932945 0 0 0 -2223.9013324539792 -217.52548894915526 -248.78802713651567 0 -248.78802713651567 -9256.6179078490968 0 0 0 -2368.535849199563 -11.345570149204832 -79.492557006731658 0 -79.492557006731658 -9199.0258999163634 0 0 0 -2302.5928675163877 184.72267866463517 -122.63648316132458 0 -122.63648316132458 -9306.8373551573459 0 0 0 -2280.528669123185 157.07598406979832 -107.67382031364468 0 -107.67382031364468 -9308.2036809423935 0 0 0 -2287.7819242181458 -101.00475412215837 -217.91428352295043 0 -217.91428352295043 -9212.5003718077096 0 0 0 -2328.3762814824704 -103.21055390725451 -252.65788951823197 0 -252.65788951823197 -9438.1646612383338 0 0 0 -2385.3438037863925 103.49474476179353 -182.19831444481679 0 -182.19831444481679 -9379.5319833980102 0 0 0 -2319.0093096590526 -159.56411256855063 -327.28158829542008 0 -327.28158829542008 -9507.2262822886696 0 0 0 -2416.6975987143014 -116.16183142197406 -324.44902644686226 0 -324.44902644686226 -9306.626583971487 0 0 0 -2355.6971038483643 434.07508944388974 -54.11578515013025 0 -54.11578515013025 -9424.3973607135849 0 0 0 -2247.5805678174256 148.00990226955037 -125.63524789684743 0 -125.63524789684743 -9442.5341626925219 0 0 0 -2323.6310651057429 324.07537300153854 -75.78424805459872 0 -75.78424805459872 -9396.0042516544891 0 0 0 -2267.9822196632376 68.547861845807347 -171.72885083768051 0 -171.72885083768051 -9480.8989790950436 0 0 0 -2353.0877793123072 302.55601273677894 -60.726327757808576 0 -60.726327757808576 -9445.0690565703844 0 0 0 -2285.6282609583977 418.54189664138721 -11.925513230358774 0 -11.925513230358774 -9496.3424726259182 0 0 0 -2269.4501439961296 580.31496712246462 56.17146702269747 0 56.17146702269747 -9466.1509979794973 0 0 0 -2221.4590077142557 602.81446299571689 41.265217480045976 0 41.265217480045976 -9435.8176281189517 0 0 0 -2208.2507912808069 572.91279645057512 2.5843993071030127 0 2.5843993071030127 -9430.8270670149868 0 0 0 -2214.4785676411047 529.04823294789821 30.144005599908269 0 30.144005599908269 -9382.5034086285305 0 0 0 -2213.3637939201581 663.64158169595612 19.960692261753138 0 19.960692261753138 -9364.2072300623622 0 0 0 -2175.1414120916015 673.00275295861502 39.85730994310984 0 39.85730994310984 -9341.8105763010826 0 0 0 -2167.2019558356187 746.53552284660327 56.209241560929513 0 56.209241560929513 -9381.0907232198588 0 0 0 -2158.6388000933039 826.35228568097227 18.315960024596279 0 18.315960024596279 -9312.976523901918 0 0 0 -2121.6560595552364 754.93277544163266 66.124236807729176 0 66.124236807729176 -9265.2081312581504 0 0 0 -2127.5688389541292 592.94629502514726 -14.456377133887145 0 -14.456377133887145 -9323.8282247624011 0 0 0 -2182.7204824343135 1020.1152002198214 53.30031248360865 0 53.30031248360865 -9235.3297480954207 0 0 0 -2053.8036369689071 977.20627737889663 24.87170125697412 0 24.87170125697412 -9293.6017265064293 0 0 0 -2079.0988622818841 905.40032096388541 71.594340589723288 0 71.594340589723288 -9267.9519617375408 0 0 0 -2090.6379101934158 759.49848927392304 40.406873418070973 0 40.406873418070973 -9368.2436756428942 0 0 0 -2152.1862965922483 923.59618581913674 43.993741145866807 0 43.993741145866807 -9318.2922587751091 0 0 0 -2098.6740182389913 888.67735717234427 79.482585095152899 0 79.482585095152899 -9347.2580962685679 0 0 0 -2114.6451847740518 765.04011921824713 61.735608083943589 0 61.735608083943589 -9382.6460194384708 0 0 0 -2154.4014750550559 735.2564022829938 84.328734867820458 0 84.328734867820458 -9429.6568754099571 0 0 0 -2173.6001182817381 735.55589412419067 93.131647900496318 0 93.131647900496318 -9430.6489900783199 0 0 0 -2173.7732739885323 606.53341411703877 105.31142534582068 0 105.31142534582068 -9459.8521936119505 0 0 0 -2213.3296948737334 510.45465744280227 84.424070004268287 0 84.424070004268287 -9465.4404481551901 0 0 0 -2238.7464476780915 611.86792130745016 75.542914767122056 0 75.542914767122056 -9472.8465224755637 0 0 0 -2215.2446502920211 608.92948537065604 86.325206161542155 0 86.325206161542155 -9440.0208692109081 0 0 0 -2207.7728459600658 424.90736170568925 -6.5727790825148986 0 -6.5727790825148986 -9460.2643123443777 0 0 0 -2258.8392376596712 397.94388471032289 47.680180508603371 0 47.680180508603371 -9478.3062674165994 0 0 0 -2270.0905956765673 463.00397571826761 28.018514463920837 0 28.018514463920837 -9502.1342129957629 0 0 0 -2259.7825593193775 512.10458079074306 84.184565250085143 0 84.184565250085143 -9469.568945917963 0 0 0 -2239.3660912818086 410.36478441465442 100.14918924441849 0 100.14918924441849 -9446.7228494450828 0 0 0 -2259.0895162576126 389.32709537248593 63.309725091319706 0 63.309725091319706 -9512.4938918108601 0 0 0 -2280.7916991095954 318.36839975608746 84.431275433871633 0 84.431275433871633 -9443.7636233143276 0 0 0 -2281.34880588956 367.39668286858796 105.15812937742885 0 105.15812937742885 -9455.3903018872879 0 0 0 -2271.998404754675 386.74490910009627 134.8738612681891 0 134.8738612681891 -9407.7921413028234 0 0 0 -2255.2618080506873 430.61349316954147 124.34055297655141 0 124.34055297655141 -9451.3848276970966 0 0 0 -2255.1928336318888 485.78972145156877 121.64440678324172 0 121.64440678324172 -9433.2493818865623 0 0 0 -2236.864915108752 493.13064399521545 112.17457282023679 0 112.17457282023679 -9476.9125613363358 0 0 0 -2245.9454793352756 -49.22801163787517 -262.83282728976337 0 -262.83282728976337 -9442.0090066912671 0 0 0 -2372.8092545822874 40.395214530057274 -260.51285242897211 0 -260.51285242897211 -9563.6014368031465 0 0 0 -2380.8015555682723 67.813715295502334 -215.52240795264515 0 -215.52240795264515 -9519.7416815110919 0 0 0 -2362.9819915539028 200.64609920909788 -129.04189692996079 0 -129.04189692996079 -9599.6116814855486 0 0 0 -2349.7413955691118 170.36859496324178 -121.75260930027434 0 -121.75260930027434 -9495.9818728569808 0 0 0 -2331.4033194734366 270.3682482687891 -120.44884472222475 0 -120.44884472222475 -9488.6986612363398 0 0 0 -2304.5826032418863 243.88381549210317 -97.834377514154767 0 -97.834377514154767 -9526.0399341195589 0 0 0 -2320.5390296568658 332.5386850806226 -35.995305743959761 0 -35.995305743959761 -9471.0288749329811 0 0 0 -2284.6225474630937 318.11973921060417 -29.296036318395636 0 -29.296036318395636 -9518.7808198014245 0 0 0 -2300.1652701476996 240.82712646868276 -11.452301687171712 0 -11.452301687171712 -9494.0108776051711 0 0 0 -2313.2959377841198 294.86514266357153 8.9480612472179928 0 8.9480612472179928 -9509.7513340872247 0 0 0 -2303.7215478559174 294.65650806571011 -58.722482619348739 0 -58.722482619348739 -9513.4034735710156 0 0 0 -2304.6867413763202 136.54604116320115 -199.21306840888974 0 -199.21306840888974 -9598.1896290767618 0 0 0 -2365.4108969783883 47.239437194464699 -164.10209711277275 0 -164.10209711277275 -9558.0706311096146 0 0 0 -2377.7077984787866 75.054131817272719 -298.89415028672374 0 -298.89415028672374 -9704.6162871884299 0 0 0 -2407.3905388427938 -101.41926353661256 -388.39508048220887 0 -388.39508048220887 -9653.3069948156699 0 0 0 -2438.6815645880706 -28.243287891658838 -340.38172519785803 0 -340.38172519785803 -9601.2682664702443 0 0 0 -2407.3778885904721 170.45057786711072 -64.366106591096468 0 -64.366106591096468 -9509.2894912913689 0 0 0 -2334.7097283560643 66.855761528167932 -232.00164379811065 0 -232.00164379811065 -9558.7355835001072 0 0 0 -2372.9699554929757 -40.069727329100715 -193.60069279244271 0 -193.60069279244271 -9587.7806564184793 0 0 0 -2406.962595936895 263.055360488308 -116.51857032677799 0 -116.51857032677799 -9538.2277197632611 0 0 0 -2318.7930898187369 91.957306891341432 -48.146664218040314 0 -48.146664218040314 -9264.6236447289775 0 0 0 -2293.1665844594099 168.86364952385657 30.124682017114537 0 30.124682017114537 -9406.1168306318414 0 0 0 -2309.3132952769924 145.48594686455544 -50.607767695339135 0 -50.607767695339135 -9443.6024480021151 0 0 0 -2324.5291252843817 238.7737270533944 55.113504315469982 0 55.113504315469982 -9433.0060199107538 0 0 0 -2298.5580732143389 199.04046501503035 38.003380237074452 0 38.003380237074452 -9394.1637312215389 0 0 0 -2298.780816551618 123.79574971028342 52.561847630873672 0 52.561847630873672 -9222.7780469905701 0 0 0 -2274.7455743200699 72.434543124323682 52.336138139062314 0 52.336138139062314 -9239.6222360476531 0 0 0 -2291.7969232308278 57.301388745607255 21.511523189748914 0 21.511523189748914 -8899.8752712876303 0 0 0 -2210.6434706355103 56.866948972616228 21.203057081600491 0 21.203057081600491 -9264.2509121288531 0 0 0 -2301.845990789061 51.066706024235806 -6.348436974829383 0 -6.348436974829383 -8895.8641320692095 0 0 0 -2211.1993565112443 43.582521556214488 -27.008966778175818 0 -27.008966778175818 -9355.2669290297126 0 0 0 -2327.9211018683745 266.06125446261285 116.01974577359942 0 116.01974577359942 -9342.8126298164134 0 0 0 -2269.1878438384556 281.31347952392389 123.69026717509405 0 123.69026717509405 -9434.2951445994695 0 0 0 -2288.2454162688882 296.2870772582246 117.05512797939446 0 117.05512797939446 -9423.7024815255427 0 0 0 -2281.8538510668259 281.74215293342422 77.603247465267486 0 77.603247465267486 -9420.724414106553 0 0 0 -2284.7455652932804 207.28590419099783 101.23577139397457 0 101.23577139397457 -9345.2960110859203 0 0 0 -2284.5025267237324 159.73070803516748 49.040762506157989 0 49.040762506157989 -9255.229896164572 0 0 0 -2273.8747970323529 60.445113286157721 38.41903306482709 0 38.41903306482709 -9010.7391236175172 0 0 0 -2237.5735025828399 33.942528190655139 82.12723822301632 0 82.12723822301632 -9247.6547811176788 0 0 0 -2303.4280632317568 51.454299514538434 55.423465837429831 0 55.423465837429831 -9079.5994911984453 0 0 0 -2257.0362979209822 46.686959921753441 42.132535914250184 0 42.132535914250184 -9277.0576936498401 0 0 0 -2307.5926834320126 136.32289650272287 72.444288285529183 0 72.444288285529183 -9259.6253922677861 0 0 0 -2280.8256239412658 152.84743458695539 80.271887202194193 0 80.271887202194193 -9394.3030527552146 0 0 0 -2310.3639045420632 149.42833981759759 85.946496475673484 0 85.946496475673484 -9236.8137819699477 0 0 0 -2271.8463605380966 35.487524552401737 62.707355615584675 0 62.707355615584675 -9227.1884225546673 0 0 0 -2297.92522450057 90.43473791742872 67.096074827579287 0 67.096074827579287 -9400.6389039384085 0 0 0 -2327.5510415052413 82.355581344829091 57.404445385167492 0 57.404445385167492 -9307.2056895495807 0 0 0 -2306.212527051186 43.719929485494504 53.99138853363911 0 53.99138853363911 -9461.4125148424937 0 0 0 -2354.4231463392498 185.67760493874812 90.171778548734437 0 90.171778548734437 -9397.025234308705 0 0 0 -2302.8369073424838 216.48135695576639 87.051316821678483 0 87.051316821678483 -9361.4484873964611 0 0 0 -2286.2417826101664 288.46494380601325 127.05324271977588 0 127.05324271977588 -9389.185670102619 0 0 0 -2275.1801815741546 190.95183734619786 101.28647814714441 0 101.28647814714441 -9443.3180965771899 0 0 0 -2313.0915648077425 309.19344054168323 122.37981601564388 0 122.37981601564388 -9396.4935401314142 0 0 0 -2271.8250248974291 322.3279537337221 134.6869002147796 0 134.6869002147796 -9443.0395465053298 0 0 0 -2280.1778981929019 285.32994733792657 126.25032381070923 0 126.25032381070923 -9470.2547666919709 0 0 0 -2296.2312048385102 225.62216672824434 96.969745479002086 0 96.969745479002086 -9504.3885401376465 0 0 0 -2319.6915933523487 250.76565360412133 112.81358454093424 0 112.81358454093424 -9440.1794446769054 0 0 0 -2297.3534477681969 155.20250339119593 85.101454037503572 0 85.101454037503572 -9486.795361966826 0 0 0 -2332.8982146439084 50.484141593376989 47.419536110224726 0 47.419536110224726 -9416.6017947408545 0 0 0 -2341.5294132868657 65.374147054411878 39.408577468617295 0 39.408577468617295 -9522.389544956648 0 0 0 -2364.2538494755645 73.343213535888935 50.713254778580449 0 50.713254778580449 -9463.2804101692964 0 0 0 -2347.4842991583573 75.036167472484522 40.639939740165573 0 40.639939740165573 -9608.65615509692 0 0 0 -2383.4049969061161 210.37102717785456 100.72696921093302 0 100.72696921093302 -9501.2409028957773 0 0 0 -2322.7174689294843 80.179044715187047 42.255367982204916 0 42.255367982204916 -9553.4285622694297 0 0 0 -2368.3123793885607 73.026840185761102 39.851516583825287 0 39.851516583825287 -9691.4115648820298 0 0 0 -2404.5961811740708 77.410559541480325 41.771187195521634 0 41.771187195521634 -9614.0519468804705 0 0 0 -2384.160346834753 72.856109209904389 39.521462401356985 0 39.521462401356985 -9687.5754078644968 0 0 0 -2403.6798246636536 225.31628446668037 92.278181323108583 0 92.278181323108583 -9572.0097572445229 0 0 0 -2336.6733681944606 350.96135381979548 134.02906279513263 0 134.02906279513263 -9513.7883424491447 0 0 0 -2290.7067471573391 225.65644699296263 92.454125754557026 0 92.454125754557026 -9572.865150521533 0 0 0 -2336.8021758821369 376.81434152816655 146.43528941108525 0 146.43528941108525 -9491.1825260978949 0 0 0 -2278.5920461424248 221.44066396194103 105.97211175189295 0 105.97211175189295 -9513.2787670272228 0 0 0 -2322.9595257663168 317.59317749270849 117.69931960683607 0 117.69931960683607 -9502.3164239443649 0 0 0 -2296.1808116129178 338.08114161367121 129.7254156631534 0 129.7254156631534 -9446.6638086857274 0 0 0 -2277.1456667680177 427.57913628624738 145.34933796052064 0 145.34933796052064 -9451.2499972388759 0 0 0 -2255.9177152381562 439.87825916722795 138.07449571200414 0 138.07449571200414 -9436.8007731733378 0 0 0 -2249.2306285015293 555.35088926068784 134.36085592845484 0 134.36085592845484 -9398.7802042154508 0 0 0 -2210.8573287386935 411.36165621773398 132.0807226655852 0 132.0807226655852 -9449.7918858847697 0 0 0 -2259.6075574167553 428.96681919581897 129.83510265861696 0 129.83510265861696 -9467.5885877321416 0 0 0 -2259.6554421340843 413.85326734619593 121.03785138014791 0 121.03785138014791 -9490.2468958893296 0 0 0 -2269.0984071357816 535.62184602479465 151.47391976130893 0 151.47391976130893 -9402.2318257025108 0 0 0 -2216.6524949194318 507.5722255126293 153.6766440019419 0 153.6766440019419 -9430.3173410611053 0 0 0 -2230.686278887124 537.1705802104334 131.74787925156579 0 131.74787925156579 -9390.2863491649332 0 0 0 -2213.2789422386268 638.56905919249402 143.2286278574793 0 143.2286278574793 -9353.8668262152059 0 0 0 -2178.824441755678 639.91177938383044 145.22912843608356 0 145.22912843608356 -9324.8575538922451 0 0 0 -2171.2364436271018 738.76842102374394 123.48049522312795 0 123.48049522312795 -9290.5986040314201 0 0 0 -2137.9575457519149 742.206889508416 130.43283990425698 0 130.43283990425698 -9272.9432879360174 0 0 0 -2132.6840996068931 748.20195274625439 127.40379309059063 0 127.40379309059063 -9230.8320229252276 0 0 0 -2120.6575175447433 597.76795958877483 146.88011133539021 0 146.88011133539021 -9381.0293812795717 0 0 0 -2195.8153554227029 610.44021041043743 128.1456767797863 0 128.1456767797863 -9361.8670641174685 0 0 0 -2187.8567134267651 699.54830562696225 113.87525359490974 0 113.87525359490974 -9323.9040045838774 0 0 0 -2156.0889247392297 773.71150721084268 115.75612502853619 0 115.75612502853619 -9317.3841135754628 0 0 0 -2135.918151591155 677.42873722795048 126.50054451208234 0 126.50054451208234 -9375.0544996196404 0 0 0 -2174.4064405979152 776.38372764730957 97.613478069877601 0 97.613478069877601 -9324.1271968008659 0 0 0 -2136.9358672883864 635.3005438205364 121.2587307198628 0 121.2587307198628 -9379.5053422248166 0 0 0 -2186.0511996010755 620.79705021147674 128.56116897786706 0 128.56116897786706 -9416.0240584098647 0 0 0 -2198.8067520495933 746.67643522273283 115.21436314533639 0 115.21436314533639 -9381.8938030512509 0 0 0 -2158.8043419571331 691.2813141358165 110.46626639965689 0 110.46626639965689 -9383.0796363243207 0 0 0 -2172.949580547127 669.72287550926558 122.08431440589266 0 122.08431440589266 -9431.0941166207631 0 0 0 -2190.3428102778707 537.13764504006031 130.6542473171794 0 130.6542473171794 -9454.587086214131 0 0 0 -2229.3623602935149 610.839123021462 107.49730079678739 0 107.49730079678739 -9425.4102365623257 0 0 0 -2203.6427783852123 527.31837052013725 136.29649610181878 0 136.29649610181878 -9427.3947286801122 0 0 0 -2225.0190895399865 523.5243466140746 133.43980771317729 0 133.43980771317729 -9431.9888732966792 0 0 0 -2227.1161316706457 434.1298083368747 141.95765588064205 0 141.95765588064205 -9440.3358600920183 0 0 0 -2251.5515129387932 402.83948790307022 131.47795476542524 0 131.47795476542524 -9417.7882062885437 0 0 0 -2253.7371795963636 416.76754999286641 142.83584242378856 0 142.83584242378856 -9445.8329305184743 0 0 0 -2257.2663451314002 404.79081017549652 142.18437482863374 0 142.18437482863374 -9427.6990271190953 0 0 0 -2255.7270542359092 398.38837271305238 127.65514502929727 0 127.65514502929727 -9444.6587583028449 0 0 0 -2261.56759639745 543.81459421943873 141.3564372232795 0 141.3564372232795 -9419.1752457646362 0 0 0 -2218.8401628862994 517.4274127925346 137.87699399220583 0 137.87699399220583 -9412.1773721355894 0 0 0 -2223.6874898357637 430.32421605513264 46.903102591881179 0 46.903102591881179 -9655.9403684331573 0 0 0 -2306.4040380945062 265.43219691480044 61.818726727093235 0 61.818726727093235 -9716.0761267835333 0 0 0 -2362.6609824671905 226.94784623204032 31.826873374127899 0 31.826873374127899 -9792.354484036885 0 0 0 -2391.3516594512039 278.42497048276164 -1.0424288656504359 0 -1.0424288656504359 -9713.7609039151303 0 0 0 -2358.8339833581031 106.71489526999358 -8.1118633372097975 0 -8.1118633372097975 -9838.7892381658021 0 0 0 -2433.0185857239558 68.896812451886944 18.410882929115399 0 18.410882929115399 -9906.3250879516709 0 0 0 -2459.3570688749023 49.708656145128771 -2.0796983611799078 0 -2.0796983611799078 -9973.7267069323862 0 0 0 -2481.004512696818 86.339262387147755 -27.314532145886915 0 -27.314532145886915 -9908.7632277526718 0 0 0 -2455.6059913413919 100.82227175715525 30.140333632429247 0 30.140333632429247 -9848.9253830582311 0 0 0 -2437.0257778252635 223.02923492159061 19.329417310480494 0 19.329417310480494 -9806.3691237850289 0 0 0 -2395.8349722158437 58.332713414405589 -6.4483634936768794 0 -6.4483634936768794 -9937.5667228797683 0 0 0 -2469.8085023663443 75.034381544748612 41.446689225469754 0 41.446689225469754 -9899.5771405791165 0 0 0 -2456.1356897585865 202.31138795652805 68.374888946687861 0 68.374888946687861 -9728.0448317842383 0 0 0 -2381.4333609569367 298.50833503475587 60.30026075472415 0 60.30026075472415 -9698.1520288473403 0 0 0 -2349.9109234531497 343.09139608998885 35.407466321921675 0 35.407466321921675 -9671.5846988710982 0 0 0 -2332.1233256952728 485.02077896735864 82.922079772892175 0 82.922079772892175 -9591.3400439356337 0 0 0 -2276.579816242076 402.64966270914738 79.619263931934256 0 79.619263931934256 -9577.8392437288858 0 0 0 -2293.7973952549291 385.5300744005217 105.19122285182857 0 105.19122285182857 -9620.721682221978 0 0 0 -2308.7979019553604 435.37394799889853 107.59967013601272 0 107.59967013601272 -9577.9215634411466 0 0 0 -2285.6369038605658 305.04861155519757 109.39466268445904 0 109.39466268445904 -9630.8664327569131 0 0 0 -2331.4544553004234 277.5174118613304 88.861390770223807 0 88.861390770223807 -9632.7008573026269 0 0 0 -2338.7958613603314 119.73466809029924 67.278237146369975 0 67.278237146369975 -9752.2451481031894 0 0 0 -2408.1276200032153 109.66578698945523 10.446564616264368 0 10.446564616264368 -9819.1485133901879 0 0 0 -2427.3706816001795 55.252849165452062 25.277938933315454 0 25.277938933315454 -9865.6730424474226 0 0 0 -2452.6050483204963 168.47178511542006 47.846453008409298 0 47.846453008409298 -9718.0251079520094 0 0 0 -2387.3883307091382 208.10265327628258 80.938452295857132 0 80.938452295857132 -9684.6540529736812 0 0 0 -2369.1378499243528 66.849662490101764 33.915859676013497 0 33.915859676013497 -9746.0409733944107 0 0 0 -2419.79782772607 72.098678210454196 35.803095390059752 0 35.803095390059752 -9779.3863782785047 0 0 0 -2426.8219250170055 225.98528720378999 98.032439877744764 0 98.032439877744764 -9620.0777297813147 0 0 0 -2348.523110644388 204.52846795869118 78.209251352476713 0 78.209251352476713 -9629.7116857398069 0 0 0 -2356.2958044452826 335.98293612122507 85.987169409483613 0 85.987169409483613 -9585.3662570442975 0 0 0 -2312.3458302307627 351.04531599617985 128.16228727034468 0 128.16228727034468 -9560.8537463133325 0 0 0 -2302.4521075792982 371.08754812793632 111.78107547566992 0 111.78107547566992 -9504.1772842573992 0 0 0 -2283.2724340323621 504.40084337996086 133.4036664738087 0 133.4036664738087 -9454.3728100920271 0 0 0 -2237.4929916780093 508.03706804825924 141.69542246437777 0 141.69542246437777 -9412.3395017927978 0 0 0 -2226.0756084361274 640.96626257341995 150.472901819463 0 150.472901819463 -9307.3482025038102 0 0 0 -2166.5954849825866 773.83094889107451 157.45164706282958 0 157.45164706282958 -9279.1080295763968 0 0 0 -2126.3192701713415 664.8309905200058 160.81895656522829 0 160.81895656522829 -9311.1451363112137 0 0 0 -2161.5785364478015 641.53112837427034 143.43436125906373 0 143.43436125906373 -9368.2754146936932 0 0 0 -2181.6860715798539 649.38580157356409 122.56657997214643 0 122.56657997214643 -9368.7789198554383 0 0 0 -2179.8482795704731 773.26401986346173 132.03195013957884 0 132.03195013957884 -9251.5653635429189 0 0 0 -2119.575335919857 767.13075193603436 161.06029925379698 0 161.06029925379698 -9302.8448678317945 0 0 0 -2133.9285289739419 571.56995415244455 151.43892529976438 0 151.43892529976438 -9415.5287696683954 0 0 0 -2210.9897038789859 590.00060267907975 98.909680734152062 0 98.909680734152062 -9468.0814614129777 0 0 0 -2219.5202146834781 532.39274429354555 125.65014684231573 0 125.65014684231573 -9474.4760688976676 0 0 0 -2235.5208311510287 413.87368533875269 124.22864143570041 0 124.22864143570041 -9512.2788910750969 0 0 0 -2274.6013014340861 517.61780191578873 122.30588056522538 0 122.30588056522538 -9507.9394187500584 0 0 0 -2247.5804042085583 472.8460419234907 63.267978191404836 0 63.267978191404836 -9549.6009737127461 0 0 0 -2269.1887329473102 639.65152094478253 105.55228255709517 0 105.55228255709517 -9471.4484491950425 0 0 0 -2207.9492320625577 618.09850086210645 119.38936365176778 0 119.38936365176778 -9401.334060300811 0 0 0 -2195.8088898596689 799.11452178480977 124.11926682232297 0 124.11926682232297 -9341.5643587496597 0 0 0 -2135.6124592412089 752.12174098617834 130.97928804940784 0 130.97928804940784 -9279.8233279062842 0 0 0 -2131.9253967300247 781.64905063238984 81.486962469407445 0 81.486962469407445 -9311.0121676944545 0 0 0 -2132.3407792655053 800.44741710630478 99.762365104194032 0 99.762365104194032 -9363.6326490498323 0 0 0 -2140.7963079858891 984.97609053041379 116.69250865756476 0 116.69250865756476 -9231.898237948204 0 0 0 -2061.730536854433 897.89975432582287 65.28559060995758 0 65.28559060995758 -9300.4109258644603 0 0 0 -2100.6277928846757 764.50086631179875 19.755347935584723 0 19.755347935584723 -9378.4814820178144 0 0 0 -2153.4951539265094 647.12634673206776 61.63815800716111 0 61.63815800716111 -9447.3508364387089 0 0 0 -2200.0561224266567 597.57493086167597 62.35127271078818 0 62.35127271078818 -9445.2041356409318 0 0 0 -2211.9073011948021 641.44604867640737 42.017501588758023 0 42.017501588758023 -9510.5559577389795 0 0 0 -2217.2774772656412 428.28757358037547 30.561769746353093 0 30.561769746353093 -9578.9939497004671 0 0 0 -2287.6765940300102 1385.6767488399601 21.202099305082811 0 21.202099305082811 -8965.7138142767944 0 0 0 -1895.0092663592113 1618.7939363225632 36.499134496800252 0 36.499134496800252 -8897.7648490266147 0 0 0 -1819.7427281759992 1330.6818450142746 100.53994781666552 0 100.53994781666552 -8958.1358021179913 0 0 0 -1906.8634892759292 1480.8552153985129 45.237846636300674 0 45.237846636300674 -8895.3443299508181 0 0 0 -1853.6222786380768 1372.7714585919821 57.809766296457383 0 57.809766296457383 -9025.1466041841486 0 0 0 -1913.0937863980434 1133.5608188113256 64.326750748633529 0 64.326750748633529 -9162.1730533932569 0 0 0 -2007.1530586454901 952.04364128503948 23.880537810044189 0 23.880537810044189 -9236.3021879331936 0 0 0 -2071.0646366620349 1182.4740424522315 18.851663216097222 0 18.851663216097222 -9093.9622858492367 0 0 0 -1977.8720608492586 1157.3104387027779 123.31036664355906 0 123.31036664355906 -9085.2949448302097 0 0 0 -1981.9961265318634 1010.3435386822603 151.44008990404109 0 151.44008990404109 -9178.7076412721945 0 0 0 -2042.0910256474672 994.88349673795528 81.672690022103779 0 81.672690022103779 -9153.2453940656269 0 0 0 -2039.5904743319152 915.96882772750541 118.50967121282883 0 118.50967121282883 -9223.3195092526366 0 0 0 -2076.8376703812828 1190.0304015563452 126.06978417309074 0 126.06978417309074 -8966.347714631178 0 0 0 -1944.0793282687082 1247.5786135209783 66.661538980668411 0 66.661538980668411 -9015.7906700750464 0 0 0 -1942.0530141385098 1355.8940805761954 74.629209445600281 0 74.629209445600281 -8915.1480980859778 0 0 0 -1889.8135043774532 1198.4691245797148 89.989917533705011 0 89.989917533705011 -8928.1260423844942 0 0 0 -1932.4142294511839 1187.4713253592745 129.75575839442172 0 129.75575839442172 -8978.8296254894667 0 0 0 -1947.8395750325471 1058.8845032585523 114.26128661716211 0 114.26128661716211 -8995.7660774178512 0 0 0 -1984.2203935398138 1187.8570733690867 134.01614985096967 0 134.01614985096967 -9022.8272937792062 0 0 0 -1958.7425551025226 1043.7289555620846 116.27689202356851 0 116.27689202356851 -9065.0101533214183 0 0 0 -2005.320299439838 998.14933042239863 157.05842176292936 0 157.05842176292936 -9111.8327880104189 0 0 0 -2028.4208643970196 890.45572357089259 128.17103921333182 0 128.17103921333182 -9159.4749301793054 0 0 0 -2067.2548016521032 891.45194632528001 157.72673975289945 0 157.72673975289945 -9203.1812771848927 0 0 0 -2077.9323327149177 916.0830263668322 130.33975360285694 0 130.33975360285694 -9125.4140232096543 0 0 0 -2052.3327492107055 1044.6692198534001 149.88872509964858 0 149.88872509964858 -9082.5490829987684 0 0 0 -2009.4699657863384 907.29452848924848 155.12631247556874 0 155.12631247556874 -9164.7298387897317 0 0 0 -2064.3588275751245 944.88366450352623 118.24094489188428 0 118.24094489188428 -9073.6300798243319 0 0 0 -2032.1866038302032 796.78427267679217 133.50151571459719 0 133.50151571459719 -9206.7082772045687 0 0 0 -2102.4810011319569 848.84211761644838 114.1613515677891 0 114.1613515677891 -9154.9265932995331 0 0 0 -2076.5211189207694 790.75187841760635 153.16786462719983 0 153.16786462719983 -9229.8953359074367 0 0 0 -2109.7858643724467 926.63657184736803 128.6791533148259 0 128.6791533148259 -9128.9599880125897 0 0 0 -2050.5808540412982 978.31934777321294 88.771353641386668 0 88.771353641386668 -9029.4650752032612 0 0 0 -2012.7864318575157 1042.2139272218919 135.2500274117192 0 135.2500274117192 -9049.6252832819737 0 0 0 -2001.8528390150313 1086.5600055328032 92.800904498246382 0 92.800904498246382 -8957.7653184188384 0 0 0 -1967.8013282214888 1067.1304745547823 99.224330330423982 0 99.224330330423982 -9012.1824510807928 0 0 0 -1986.2629941315026 1169.6501326187063 48.245422956162656 0 48.245422956162656 -8906.4690314889885 0 0 0 -1934.2047247175724 1100.6733116176256 53.670571199661936 0 53.670571199661936 -8915.9114235406741 0 0 0 -1953.8095279807603 1257.2753018961739 62.016444719120045 0 62.016444719120045 -8862.4350258662889 0 0 0 -1901.2899309925197 1173.6842249176334 126.33048086406779 0 126.33048086406779 -8916.4063682491833 0 0 0 -1935.6805358328857 1215.2656817854877 88.260894446655584 0 88.260894446655584 -8877.8524691551866 0 0 0 -1915.6466968424211 1288.2470453900532 42.258777941500739 0 42.258777941500739 -8896.2941468245408 0 0 0 -1902.011775358631 1383.2605858181123 -90.506543815237819 0 -90.506543815237819 -8791.3939963053381 0 0 0 -1852.0333526218092 1431.2072832375998 -66.478968006783361 0 -66.478968006783361 -8764.4858113981027 0 0 0 -1833.3196320401184 1457.4922190970974 -47.76317847201426 0 -47.76317847201426 -8665.2479735885572 0 0 0 -1801.9389386228722 1375.9778137408648 43.523319961626839 0 43.523319961626839 -8771.011247885006 0 0 0 -1848.7583585360335 1329.5211093326141 15.71216868571355 0 15.71216868571355 -8843.4198743903762 0 0 0 -1878.4746912644407 1516.3816638910503 -36.972819031878316 0 -36.972819031878316 -8760.6986762759989 0 0 0 -1811.0792530962426 1567.5217554389747 -23.094771846488584 0 -23.094771846488584 -8596.5752644473396 0 0 0 -1757.2633772520858 1561.7664323553327 3.6421319970031618 0 3.6421319970031618 -8765.0931293166068 0 0 0 -1800.8316742403113 1417.3507244150969 41.890797984322035 0 41.890797984322035 -8739.7196773764153 0 0 0 -1830.5922382403223 1433.3952316141699 58.125180960501893 0 58.125180960501893 -8845.7944559210464 0 0 0 -1853.0998060767265 1372.6138927896391 79.502356103228522 0 79.502356103228522 -8865.2014077930944 0 0 0 -1873.1468787508638 1303.3337699781259 122.12675344148738 0 122.12675344148738 -8896.101158541569 0 0 0 -1898.1918471408571 1385.3773983970168 91.611380831323913 0 91.611380831323913 -8861.17112361404 0 0 0 -1868.9484313042631 1529.7157864120381 41.214418850329821 0 41.214418850329821 -8816.7035703791771 0 0 0 -1821.7469459917702 1464.455079907304 72.543431184203655 0 72.543431184203655 -8768.2405453299289 0 0 0 -1825.9463663556526 1619.8106226311202 12.32462942165148 0 12.32462942165148 -8730.8173451048679 0 0 0 -1777.751680618444 1608.5609004762155 -13.289311154054303 0 -13.289311154054303 -8619.9191708367143 0 0 0 -1752.8395675901265 1800.2520089750942 -33.071148725452076 0 -33.071148725452076 -8605.8971086253168 0 0 0 -1701.4112749125597 1732.1207832554283 9.5465209116482583 0 9.5465209116482583 -8601.4900064364483 0 0 0 -1717.3423057952532 1647.7005321465986 16.539466947404435 0 16.539466947404435 -8647.4024222323496 0 0 0 -1749.9254725214414 1730.6703056217957 12.167622904104064 0 12.167622904104064 -8710.4250726593018 0 0 0 -1744.9386917593802 1833.8369607569257 -8.8854223885646206 0 -8.8854223885646206 -8550.6103265808488 0 0 0 -1679.1933414559826 1961.239376043377 20.220192848995794 0 20.220192848995794 -8620.8970823973068 0 0 0 -1664.9144265884679 1737.2163557955428 2.671607386568212 0 2.671607386568212 -8670.1156067708362 0 0 0 -1733.2248127438143 1817.3930161333119 48.052256637442042 0 48.052256637442042 -8736.2316768355086 0 0 0 -1729.7096651755492 1661.0519569787721 5.2187677335168701 0 5.2187677335168701 -8782.7674322384992 0 0 0 -1780.4288688149318 1562.5092065596418 60.041093774241745 0 60.041093774241745 -8746.4510643239191 0 0 0 -1795.9854644410643 1502.6443150603009 58.124267415798386 0 58.124267415798386 -8843.9832601886301 0 0 0 -1835.3347362820787 1061.6954412747 32.893978572930791 0 32.893978572930791 -9251.7133182194084 0 0 0 -2047.5044692361698 1057.9788651055569 12.725222706067143 0 12.725222706067143 -9194.6746939830773 0 0 0 -2034.1739572193837 1212.6108641179007 -26.804903502328671 0 -26.804903502328671 -9140.5420236743994 0 0 0 -1981.9827898891244 1094.2573132472535 15.52989696986333 0 15.52989696986333 -9214.2163257181383 0 0 0 -2029.9897531177194 1077.7981605094246 36.500198318852199 0 36.500198318852199 -9235.9392905168934 0 0 0 -2039.5352825018781 1100.1487222296491 33.445473687441336 0 33.445473687441336 -9261.4433447025367 0 0 0 -2040.3236556182237 1070.1255148813179 50.615394829845172 0 50.615394829845172 -9289.4226875238819 0 0 0 -2054.8242931606401 950.78125484124996 71.703018432141107 0 71.703018432141107 -9309.7863684271215 0 0 0 -2089.7512783964607 917.26913085283741 57.202651762196183 0 57.202651762196183 -9333.1421696076577 0 0 0 -2103.9682596886996 879.39607477960817 84.597636276870617 0 84.597636276870617 -9373.0605156783495 0 0 0 -2123.4161102246871 753.03529239928321 85.675557801074319 0 85.675557801074319 -9385.4320571644348 0 0 0 -2158.0991911912934 811.08443285493559 95.972455878923938 0 95.972455878923938 -9381.1266335953114 0 0 0 -2142.5105501850994 846.63483764515695 74.762277905407245 0 74.762277905407245 -9324.3694664234354 0 0 0 -2119.4336571945751 987.36900051608973 40.555704659411276 0 40.555704659411276 -9254.055186648271 0 0 0 -2066.6715465330381 876.33036619655832 79.877800616282912 0 79.877800616282912 -9321.3878546456544 0 0 0 -2111.2643721122804 909.45406189305504 59.658618477233176 0 59.658618477233176 -9256.5757247888105 0 0 0 -2086.7804157239443 800.89822183928482 103.44959126379399 0 103.44959126379399 -9314.0294770412584 0 0 0 -2128.2828138004879 778.04629189457773 101.7618967425442 0 101.7618967425442 -9240.2332737630641 0 0 0 -2115.5467454671234 940.79998079079087 53.441709396975057 0 53.441709396975057 -9147.2682102683902 0 0 0 -2051.6170573693962 858.91943001141044 94.121303116866329 0 94.121303116866329 -9224.8517331816111 0 0 0 -2091.4830757925447 907.88480660256755 64.915909508970799 0 64.915909508970799 -9238.9812106949103 0 0 0 -2082.774101023082 831.94373305081899 121.12400747834181 0 121.12400747834181 -9209.1613085121426 0 0 0 -2094.3043938653245 888.63657970083295 86.725328709871974 0 86.725328709871974 -9130.7416229476075 0 0 0 -2060.52626081169 946.67006752503949 83.20314128229802 0 83.20314128229802 -9122.479421794982 0 0 0 -2043.9523385674838 1022.3727269726514 39.924781912817707 0 39.924781912817707 -9019.795999069931 0 0 0 -1999.3558180243272 1055.9618330215344 15.552843062272586 0 15.552843062272586 -9027.9669544993594 0 0 0 -1993.0012803694663 1053.1472201555043 15.331970919949526 0 15.331970919949526 -9172.2446826263076 0 0 0 -2029.7743656176863 984.79370838477917 38.082664194558674 0 38.082664194558674 -9143.2628029427433 0 0 0 -2039.6172736394874 1042.2864385630382 9.4258144188279402 0 9.4258144188279402 -9106.0666755918937 0 0 0 -2015.9450592572102 1169.5337007785765 -55.842352437655791 0 -55.842352437655791 -9040.487737026604 0 0 0 -1967.7385090620101 1174.9328573549647 -64.495978506569372 0 -64.495978506569372 -9122.3852574349439 0 0 0 -1986.8631000199894 1112.6166122641662 -69.28330083394394 0 -69.28330083394394 -9039.8278952294932 0 0 0 -1981.8028207413226 1315.5795825425084 -135.12286947987741 0 -135.12286947987741 -9008.36426549303 0 0 0 -1923.1961707376249 1366.4608294057098 -78.109461271887994 0 -78.109461271887994 -9069.9816034536598 0 0 0 -1925.8801935119927 1346.4528396313108 -67.111574236207161 0 -67.111574236207161 -9065.1582425355446 0 0 0 -1929.6763507260548 1156.333243834837 -41.66376361582661 0 -41.66376361582661 -8907.2453349649732 0 0 0 -1937.7280227825286 1162.608243697141 -43.162949091551127 0 -43.162949091551127 -8911.978081225534 0 0 0 -1937.3424593820964 1164.5878789313429 22.224833358617616 0 22.224833358617616 -8849.2019742659904 0 0 0 -1921.153523833651 1169.7798461838902 -86.027152545386343 0 -86.027152545386343 -8852.5130051663873 0 0 0 -1920.6832897456261 1306.5926825443385 -85.378589555031795 0 -85.378589555031795 -9076.9461112114077 0 0 0 -1942.5883571667582 1197.2142015232093 -363.15601895970394 0 -363.15601895970394 -9068.6259995726869 0 0 0 -1967.8529495123803 1510.2465913142005 -137.04985567898984 0 -137.04985567898984 -9111.0248880177969 0 0 0 -1900.1945741758973 1606.8162426633207 -83.585358018674015 0 -83.585358018674015 -8990.0631217230693 0 0 0 -1845.8117197649408 1584.2350662802282 -173.30635623575654 0 -173.30635623575654 -8934.8470951494746 0 0 0 -1837.6530072173109 1809.7286864834168 40.075054302084027 0 40.075054302084027 -9116.9222139648409 0 0 0 -1826.7983818703578 1817.7170425714867 136.37744081062192 0 136.37744081062192 -8531.7497832695954 0 0 0 -1678.5081851745199 1643.3316709283981 45.327090712846257 0 45.327090712846257 -8940.6803869208197 0 0 0 -1824.3371789980947 1551.457841073212 19.523626067835721 0 19.523626067835721 -8963.511035188465 0 0 0 -1853.0132985288237 1422.7062516707883 -15.32004795143439 0 -15.32004795143439 -9085.174542685636 0 0 0 -1915.6170727537174 1433.1235777948968 -27.295022084574157 0 -27.295022084574157 -9040.0424925096013 0 0 0 -1901.7297286786779 1456.1092098498702 30.554954601968348 0 30.554954601968348 -9062.0155194286199 0 0 0 -1901.4765773946783 1259.8138036356358 2.1119844821696461 0 2.1119844821696461 -9128.2422861967207 0 0 0 -1967.1071206402703 1246.4781275371897 13.15308001851372 0 13.15308001851372 -9188.4067241510566 0 0 0 -1985.4821491534713 1225.5404422684151 -33.764478249597232 0 -33.764478249597232 -9149.0225438768975 0 0 0 -1980.8705254021188 1259.3218017720392 21.293331007669622 0 21.293331007669622 -9191.7490560854058 0 0 0 -1983.1068135783353 1216.4640967033847 35.216602906230037 0 35.216602906230037 -9092.5341911703581 0 0 0 -1969.0175236167415 1525.8199979435149 28.873964874535886 0 28.873964874535886 -8882.447683743947 0 0 0 -1839.1569214501151 1333.1690311885104 16.672488065572907 0 16.672488065572907 -8894.6083400736097 0 0 0 -1890.3598272212766 1372.1407228747048 19.675011535546219 0 19.675011535546219 -9052.338875756981 0 0 0 -1920.0495382205627 1414.3981780892864 29.988965063457727 0 29.988965063457727 -8913.0307109953865 0 0 0 -1874.6581332265232 1415.2434631907417 8.1504652302101022 0 8.1504652302101022 -8884.2832921332883 0 0 0 -1867.2599572356448 1532.8998933979019 68.439881101638093 0 68.439881101638093 -8614.7521881198481 0 0 0 -1770.4630736804902 1592.9591957074915 10.232143034772889 0 10.232143034772889 -8597.8542861675996 0 0 0 -1751.2237726150308 1680.6910487097412 31.331980806580759 0 31.331980806580759 -8341.8475884065847 0 0 0 -1665.2891349242127 1540.6320684335442 4.452272468769479 0 4.452272468769479 -8454.0730118766805 0 0 0 -1728.3602358607823 1694.248784926252 -30.378745492183953 0 -30.378745492183953 -8407.1049383172794 0 0 0 -1678.2140383477549 1720.6095572044578 -72.909473061969663 0 -72.909473061969663 -8330.1350094075606 0 0 0 -1652.3813630507793 1597.6903635924609 -14.5500965551837 0 -14.5500965551837 -8352.4275123328407 0 0 0 -1688.6842871850968 2125.9140753613974 -113.21915594819711 0 -113.21915594819711 -8150.34784001144 0 0 0 -1506.1084411625052 1945.5941491962076 -130.2491285215292 0 -130.2491285215292 -8056.6763379341501 0 0 0 -1527.770547184482 1820.5881021120331 -27.378643033509434 0 -27.378643033509434 -8258.668288269444 0 0 0 -1609.5200465393609 1921.1323797181904 15.774448783879052 0 15.774448783879052 -8289.2098776023049 0 0 0 -1592.0193744710195 1649.9470789287734 86.070779337031126 0 86.070779337031126 -8561.0202928516082 0 0 0 -1727.7683034807051 1804.4564122394295 43.532130613291883 0 43.532130613291883 -8253.8209441357758 0 0 0 -1612.3411329740848 1718.9161310322816 46.188725356536452 0 46.188725356536452 -8581.7096120649367 0 0 0 -1715.6983702581565 1819.1935717047236 103.77807514856977 0 103.77807514856977 -8555.8542232097825 0 0 0 -1684.1651628762629 2172.7304754615252 276.83899197847495 0 276.83899197847495 -8518.3998082436301 0 0 0 -1586.4173331955244 1931.883435468073 69.974420938990079 0 69.974420938990079 -8184.2184801463882 0 0 0 -1563.0837611695752 2044.5717515541764 -116.35795326274456 0 -116.35795326274456 -9391.6721904892183 0 0 0 -1836.7751097337459 2367.1777823114644 -59.962717336122296 0 -59.962717336122296 -6914.7163823857845 0 0 0 -1136.8846500185864 1946.1447216761044 63.946717404462106 0 63.946717404462106 -8197.2704993198422 0 0 0 -1562.7814444109426 1167.6751894538393 -536.49073670864163 0 -536.49073670864163 -8909.687712525134 0 0 0 -1935.5031307678219 2874.277425388449 446.01208032704017 0 446.01208032704017 -8216.0020327973034 0 0 0 -1335.4311518522081 8.4501814866341078 -0.71390852607593835 0 -0.71390852607593835 -3.3313343560014914 0 0 0 1.2797117826581683 1029.2322031241129 -682.23056547947795 0 -682.23056547947795 -7603.5036080769496 0 0 0 -1643.5678512382001 1352.6533795903015 77.324436138966121 0 77.324436138966121 -8311.3529401772685 0 0 0 -1739.6748901467436 -6.2003588883253116 -2.6727222560458173 0 -2.6727222560458173 -12.728119858782406 0 0 0 -4.7321196867769402 2864.5143150592921 -419.87447533091472 0 -419.87447533091472 -7875.0402918957116 0 0 0 -1252.6314942090976 1588.4611984342237 291.02421964005771 0 291.02421964005771 -7638.1939850165072 0 0 0 -1512.4331966455675 -2.7374455084075038 -3.5883445513819576 0 -3.5883445513819576 -11.57381548093764 0 0 0 -3.5778152473362752 2561.577862200822 112.01068646425119 0 112.01068646425119 -8045.3297643873375 0 0 0 -1370.9379755466216 1607.0730970648656 -117.46678917804093 0 -117.46678917804093 -8259.2057761311007 0 0 0 -1663.0331697665533 2064.331617044998 -99.580310712131904 0 -99.580310712131904 -7864.060070819236 0 0 0 -1449.9321134435595 2362.7348495915903 -96.35238008077431 0 -96.35238008077431 -8521.2887211963534 0 0 0 -1539.6384679011971 2535.5140811787205 -146.2686403275211 0 -146.2686403275211 -8021.0865591999318 0 0 0 -1371.393119505301 2144.5633722325874 -96.462640229488898 0 -96.462640229488898 -8081.1212487348821 0 0 0 -1484.1394691255628 2195.3590492474759 -108.14478541135759 0 -108.14478541135759 -8088.8272445715993 0 0 0 -1473.3670488310381 2385.4769349597336 -28.196245158058446 0 -28.196245158058446 -7589.1067935417814 0 0 0 -1300.9074646455119 2438.8056104784955 -257.14291278908058 0 -257.14291278908058 -8037.3391727669805 0 0 0 -1399.6333905721222 2162.8488246672787 -96.297975890505768 0 -96.297975890505768 -8084.1096899109543 0 0 0 -1480.3152163109262 1487.6224019583751 -50.625826221146781 0 -50.625826221146781 -8068.841891556076 0 0 0 -1645.3048723994143 1642.9394076712633 -17.968042257823981 0 -17.968042257823981 -7614.8307288083015 0 0 0 -1492.9728302842705 1643.9308031077817 -221.17834384646267 0 -221.17834384646267 -7921.9142269586446 0 0 0 -1569.4958559627121 -3.6686325235287143 -4.4753464279754906 0 -4.4753464279754906 -11.884211222607462 0 0 0 -3.8882109365340511 1677.8294502982062 202.47698637680151 0 202.47698637680151 -7887.4065571268802 0 0 0 -1552.3942767071749 1667.5032281702224 121.26982831543137 0 121.26982831543137 -8275.429774897726 0 0 0 -1651.9816366818777 1813.8195334341435 -89.981106426399492 0 -89.981106426399492 -8317.8244797597872 0 0 0 -1626.0012365814036 1741.9900135613861 -265.54112842974718 0 -265.54112842974718 -7984.7077136596199 0 0 0 -1560.6794250245584 2382.084400639229 135.5773805469469 0 135.5773805469469 -7989.4922510284523 0 0 0 -1401.8519625973131 -3.4102885319914407 -5.1530590974836876 0 -5.1530590974836876 -11.798096622542801 0 0 0 -3.8020962886335781 1793.9726442842511 -87.79064149165788 0 -87.79064149165788 -7654.2184644292574 0 0 0 -1465.0614550362516 2430.3127073197029 -42.716355781361926 0 -42.716355781361926 -8004.4131716804695 0 0 0 -1393.5251160901898 2205.8579625400816 -149.26974084303583 0 -149.26974084303583 -8069.8924355834606 0 0 0 -1466.0086182608502 2295.4107681630157 -35.451615444369963 0 -35.451615444369963 -8447.9938001588889 0 0 0 -1538.1457579989692 2200.6650694549808 -78.851001810813614 0 -78.851001810813614 -8033.8003507300091 0 0 0 -1458.2838203187657 2124.1749261650803 -74.800445683780708 0 -74.800445683780708 -8025.6342289574241 0 0 0 -1475.3648256980923 2164.3141094090097 -149.21429703989907 0 -149.21429703989907 -8062.8753156539315 0 0 0 -1474.6403015612304 2083.984922368727 -141.80911968266446 0 -141.80911968266446 -8065.0233462463948 0 0 0 -1495.259605969426 2136.5890482044038 -91.77754715813353 0 -91.77754715813353 -8059.851938309901 0 0 0 -1480.8157225263726 2010.2701720394907 -131.13708043337101 0 -131.13708043337101 -8153.3663149462955 0 0 0 -1535.7740357267103 2022.6532529976103 -143.70082591784012 0 -143.70082591784012 -8129.1162546390551 0 0 0 -1526.6157504103539 1984.1968512472365 -162.20241964677189 0 -162.20241964677189 -8116.7604415709939 0 0 0 -1533.1408975809402 1916.9372806249667 -108.09948805482054 0 -108.09948805482054 -8174.4071762140666 0 0 0 -1564.3674738972768 1866.9170146823744 -101.42074699487239 0 -101.42074699487239 -8230.9798153958836 0 0 0 -1591.0157001783737 1883.6977327091395 -104.39006882781541 0 -104.39006882781541 -8157.577235291451 0 0 0 -1568.4698756455778 1810.6796153177274 -76.473813668267212 0 -76.473813668267212 -8210.3839654444891 0 0 0 -1599.9260875316977 1729.2739214833964 -79.888502058893209 0 -79.888502058893209 -8239.5607713879217 0 0 0 -1627.5717124761322 1794.8941769074081 -59.544762453484509 0 -59.544762453484509 -8281.3025838579488 0 0 0 -1621.6021017376333 1690.7552296688395 -83.064100212228368 0 -83.064100212228368 -8306.2600894336974 0 0 0 -1653.8762149412191 1935.5859791953881 -144.03794740940793 0 -144.03794740940793 -8164.0851365711023 0 0 0 -1557.1247893439249 2093.0584409716794 -142.14774524476525 0 -142.14774524476525 -8137.5131666176749 0 0 0 -1511.1136814115052 2022.4062752454483 -85.363127607630304 0 -85.363127607630304 -8137.1250935865974 0 0 0 -1528.6797045852873 2013.7743528625433 -30.925151114191976 0 -30.925151114191976 -8326.7231142684468 0 0 0 -1578.2371903514722 2141.3657097483883 -21.860735628011753 0 -21.860735628011753 -8295.6737074533594 0 0 0 -1538.5769994262446 1971.5085083557933 -74.207944312944164 0 -74.207944312944164 -8380.7028243512323 0 0 0 -1602.2985789988452 2139.9742545087938 -14.874074797247886 0 -14.874074797247886 -8388.0428495570668 0 0 0 -1562.0171487620755 2032.3926596462406 -5.2235740462783724 0 -5.2235740462783724 -8504.5396227428864 0 0 0 -1618.0367407741724 1906.4128233377705 -22.128906436275429 0 -22.128906436275429 -8390.4886853589269 0 0 0 -1621.0189655052964 1934.6024203838024 -53.763712531566853 0 -53.763712531566853 -8446.316934088507 0 0 0 -1627.9286284261689 1853.6895218196441 -61.170295719290152 0 -61.170295719290152 -8459.0669326713542 0 0 0 -1651.3443527129202 1725.914049467483 -93.123843382883933 0 -93.123843382883933 -8515.4062120005692 0 0 0 -1697.3730406332652 1770.4000705025974 -86.465518424767652 0 -86.465518424767652 -8433.3817370308097 0 0 0 -1665.7454166320531 1800.8349782863952 -70.375021504274628 0 -70.375021504274628 -8361.8017943536397 0 0 0 -1640.2417040168075 1855.4977768462977 -105.78298224626633 0 -105.78298224626633 -8360.5325063952914 0 0 0 -1626.2586823872425 1923.0753923442462 -60.192363724701863 0 -60.192363724701863 -8297.097731755639 0 0 0 -1593.5055848528427 1827.6916394509899 -82.280140737231704 0 -82.280140737231704 -8279.6440345682495 0 0 0 -1612.9880987793149 1724.2201511171279 -140.63691447555902 0 -140.63691447555902 -8253.7606223709226 0 0 0 -1632.3851178134591 1732.5096288764544 -94.907851543746801 0 -94.907851543746801 -8278.2512471088558 0 0 0 -1636.4354045581058 1595.1858880904474 -149.81342088234669 0 -149.81342088234669 -8353.0978512362854 0 0 0 -1689.4779907864649 1723.2468053159027 -125.0590033940025 0 -125.0590033940025 -8339.0300530032255 0 0 0 -1653.9458119218252 1722.0907531976627 -63.259028647487867 0 -63.259028647487867 -8430.0131509088387 0 0 0 -1676.9805994277922 1618.7859911272753 -123.44123341735394 0 -123.44123341735394 -8601.4929451636272 0 0 0 -1745.6767385090934 1649.3253028517938 -119.72583735297667 0 -119.72583735297667 -8352.6422124408709 0 0 0 -1675.8292273972693 1533.7126034204703 -206.87625173637934 0 -206.87625173637934 -8651.8396716515126 0 0 0 -1779.5317670577497 1498.9134939325886 -225.85865136021857 0 -225.85865136021857 -8768.3126118340879 0 0 0 -1817.3497794753639 1487.0478981408378 -364.15045975383691 0 -364.15045975383691 -8182.032990566011 0 0 0 -1673.7462731062988 1561.6421469908673 -75.558792643161723 0 -75.558792643161723 -8066.3462988551546 0 0 0 -1626.17603796607 1573.4701669208298 -81.439995759190424 0 -81.439995759190424 -8224.1398883917136 0 0 0 -1662.6674303677355 1614.300842697302 -133.48803083628445 0 -133.48803083628445 -8192.5089390474204 0 0 0 -1644.5520240875348 1629.6300532798487 -86.419736884541635 0 -86.419736884541635 -8002.5113628254621 0 0 0 -1593.2203273863852 1698.1721789366929 -93.459723077939998 0 -93.459723077939998 -8131.113222682412 0 0 0 -1608.2352609364316 1764.9368029839461 -88.745785115577746 0 -88.745785115577746 -8109.5900676062447 0 0 0 -1586.1633161555801 1679.1055512676903 -55.383003201124666 0 -55.383003201124666 -8110.7992626583145 0 0 0 -1607.9234278476579 1803.9246938653341 22.402890742247109 0 22.402890742247109 -7928.8503604940634 0 0 0 -1531.2314166571778 1854.2029858601818 -105.64995246435865 0 -105.64995246435865 -8007.5033979129803 0 0 0 -1538.3251030131942 1761.6798754194469 -119.50069057286601 0 -119.50069057286601 -8038.3528945663029 0 0 0 -1569.1682547867158 1830.9067356930427 -74.832418542311643 0 -74.832418542311643 -8082.6349357639701 0 0 0 -1562.9320500177382 1813.4547164833202 -115.95984310778204 0 -115.95984310778204 -8110.2075503684464 0 0 0 -1574.1882084712706 1888.4256293525114 -94.777550813581911 0 -94.777550813581911 -8080.3731996452589 0 0 0 -1547.9868925731853 1929.4333770508229 -108.05955962963344 0 -108.05955962963344 -8064.6447354624488 0 0 0 -1533.8028396029049 1890.5970397460915 -114.46491504288861 0 -114.46491504288861 -8114.7494698078372 0 0 0 -1556.0381075154437 1932.4960588549075 -103.23933532412775 0 -103.23933532412775 -8157.3502071351686 0 0 0 -1556.213537070078 1836.2183298185992 -115.63755045937432 0 -115.63755045937432 -8173.2547673533845 0 0 0 -1584.2591093837036 1795.5808494764333 -83.734524203580804 0 -83.734524203580804 -8128.5376326295227 0 0 0 -1583.2391957882737 1828.4087965602084 -94.256754893758625 0 -94.256754893758625 -8190.6595528598555 0 0 0 -1590.5626890749118 1852.1940122227979 -119.23242461512564 0 -119.23242461512564 -8260.1132280088605 0 0 0 -1601.9798039465231 1914.1821528837245 -79.502009845658904 0 -79.502009845658904 -8214.8814845976885 0 0 0 -1575.1748329284892 1942.4341563595904 -99.558148093608906 0 -99.558148093608906 -8286.8451785005527 0 0 0 -1586.1027555352534 1979.6673390711658 -76.411878887439343 0 -76.411878887439343 -8193.1114523357828 0 0 0 -1553.3610283161543 1974.7933100017472 -90.669486639337265 0 -90.669486639337265 -8203.6977334938201 0 0 0 -1557.2261058730292 1935.3711828144442 -110.46372675380189 0 -110.46372675380189 -8162.5593769856787 0 0 0 -1556.7970485428086 1981.4915754295525 -112.77927074374747 0 -112.77927074374747 -8084.7149631543507 0 0 0 -1525.8058469312073 2013.0464661984479 -90.921896940883016 0 -90.921896940883016 -8127.6567361346424 0 0 0 -1528.6525674840486 2008.7157770624544 -77.82751897261187 0 -77.82751897261187 -8129.1002991799323 0 0 0 -1530.0961305293749 2041.8421903372655 -81.78367864259053 0 -81.78367864259053 -8179.7705515508715 0 0 0 -1534.4820903033979 2133.8728446384339 -27.018045477423584 0 -27.018045477423584 -8141.0314779804903 0 0 0 -1501.7896583355105 2061.2520760090702 -46.392827470190241 0 -46.392827470190241 -8119.7140959836979 0 0 0 -1514.6155049936642 2063.8992636600742 -45.692710214105318 0 -45.692710214105318 -8174.5736157347274 0 0 0 -1527.6685880186778 2160.2579854814576 -18.382019119089819 0 -18.382019119089819 -8203.0277240108553 0 0 0 -1510.692434632354 2041.0130870413777 -59.119662889002939 0 -59.119662889002939 -8239.2986468719319 0 0 0 -1549.5713899576513 2036.6793872463604 -47.813646277581938 0 -47.813646277581938 -8241.7073100019479 0 0 0 -1551.2569806888932 2037.420167115012 -38.446928681951249 0 -38.446928681951249 -8025.5907309894483 0 0 0 -1497.0426409686145 2078.9757450216421 -38.690681649815815 0 -38.690681649815815 -8011.7822778769769 0 0 0 -1483.2016332138373 2029.7559324065369 -62.711247136452585 0 -62.711247136452585 -8046.3950894717418 0 0 0 -1504.1597892663121 2082.276549858092 -27.998137799761025 0 -27.998137799761025 -8053.6693495196232 0 0 0 -1492.8481999153955 2068.6299884835717 -35.367816720900009 0 -35.367816720900009 -8064.5209270916384 0 0 0 -1498.9727346520194 2119.0040951369156 -29.255562264161 0 -29.255562264161 -8089.5600516812992 0 0 0 -1492.6389891361032 2077.8424669960514 -62.525140946039755 0 -62.525140946039755 -8093.8266581361531 0 0 0 -1503.99604778504 2078.105211097587 -56.156223153842802 0 -56.156223153842802 -8050.996015203069 0 0 0 -1493.2227010263741 2036.5380532817508 -88.591039108450786 0 -88.591039108450786 -8066.4612655500532 0 0 0 -1507.4808030670683 2027.0235442971607 -77.287461137020728 0 -77.287461137020728 -8088.3987955642515 0 0 0 -1515.3438128167763 1988.7240424823685 -93.435825412401755 0 -93.435825412401755 -8082.0180045210291 0 0 0 -1523.3234905096615 2002.8742344170314 -94.408704073197441 0 -94.408704073197441 -8044.5173062569811 0 0 0 -1510.4107679599983 2025.625071755072 -84.180665366038738 0 -84.180665366038738 -7996.509144827316 0 0 0 -1492.7210182680647 2045.3497098493463 -79.419417525597964 0 -79.419417525597964 -8020.0872614010805 0 0 0 -1493.6843878879372 2035.2427301395483 -71.727226271490508 0 -71.727226271490508 -7990.5510223958117 0 0 0 -1488.8270730640606 2004.8871370605848 -91.060340611547872 0 -91.060340611547872 -7967.0415317598963 0 0 0 -1490.5385986748224 2026.3045445667522 -83.838876000052551 0 -83.838876000052551 -7905.2180039366212 0 0 0 -1469.7283648424709 1988.4293086948965 -114.19141465847497 0 -114.19141465847497 -7951.840266236497 0 0 0 -1490.8527393853947 2030.9269249890349 -91.812945391157882 0 -91.812945391157882 -7976.028685127123 0 0 0 -1486.2754400345293 2006.2449339541563 -106.0053007934066 0 -106.0053007934066 -8033.5446368471312 0 0 0 -1506.8249257232528 1983.755118310477 -109.16115510991222 0 -109.16115510991222 -8004.2420568837697 0 0 0 -1505.1217346433295 1935.6468385243643 -102.41266713193909 0 -102.41266713193909 -8057.0546276434616 0 0 0 -1530.351947279778 1963.4684243499796 -99.439842181651329 0 -99.439842181651329 -7991.7298421152227 0 0 0 -1507.0653544413144 1981.1911483794538 -95.20753262661492 0 -95.20753262661492 -7999.3517629943672 0 0 0 -1504.5401536537247 1929.3135153189796 -82.468472512111475 0 -82.468472512111475 -7987.4976216897194 0 0 0 -1514.546026592674 1896.8904485701059 -75.376846231217542 0 -75.376846231217542 -7972.5802964710747 0 0 0 -1518.9224619752422 1883.8294649054587 -111.56976779406978 0 -111.56976779406978 -8019.4951464390906 0 0 0 -1533.9164203834007 1954.0957694708086 -69.370657831634162 0 -69.370657831634162 -7963.0103733156429 0 0 0 -1502.2286509612131 1822.0828607405565 17.858159657611395 0 17.858159657611395 -8082.3771870588535 0 0 0 -1565.0735815795779 1988.2599195646835 -116.25959335970401 0 -116.25959335970401 -7870.1829224831599 0 0 0 -1470.4807507296064 1964.6035535922565 -110.42300142359818 0 -110.42300142359818 -7975.6868695692974 0 0 0 -1502.770828994253 1986.6203781566526 -105.09089961369318 0 -105.09089961369318 -7970.5826875474759 0 0 0 -1495.990577347706 2047.7189265029847 -54.531527478226053 0 -54.531527478226053 -7825.1083012136842 0 0 0 -1444.3473436776731 1982.3904364792761 -19.90238839021913 0 -19.90238839021913 -7894.7963910706749 0 0 0 -1478.1014886478515 2083.5176656615731 -63.45036044556764 0 -63.45036044556764 -7699.4481453635672 0 0 0 -1403.982619925504 2045.3055139679782 -110.97897864202969 0 -110.97897864202969 -7859.5018049616774 0 0 0 -1453.5490727484284 2085.1944282702243 4.8785495559859555 0 4.8785495559859555 -7736.8407311194751 0 0 0 -1412.9115757123145 2084.4996104372403 2.9834399997344008 0 2.9834399997344008 -7672.014588965947 0 0 0 -1396.8787446321876 2160.1530812612991 65.022672780134599 0 65.022672780134599 -7657.7872260539662 0 0 0 -1374.4085361981552 2097.7446186574234 19.416028951753106 0 19.416028951753106 -7780.8292978920217 0 0 0 -1420.7711698086496 2106.5864774652218 6.6728761739941547 0 6.6728761739941547 -7736.932657241734 0 0 0 -1407.5865449441262 2041.4407888174901 -37.681671146773631 0 -37.681671146773631 -7904.2409437120077 0 0 0 -1465.700038723633 2077.1909030669631 -22.391048648190917 0 -22.391048648190917 -7796.9906009639963 0 0 0 -1429.9499244742619 2078.6785727867391 -21.617487457357129 0 -21.617487457357129 -7801.648109108035 0 0 0 -1430.7423840803167 2039.440187799315 -74.404394147413768 0 -74.404394147413768 -7931.3992630977882 0 0 0 -1472.9897688246201 2039.6796405972054 -77.127749377548753 0 -77.127749377548753 -7861.6846830169088 0 0 0 -1455.5012606049277 2053.9397126401491 -66.066069378590328 0 -66.066069378590328 -7883.5797378290008 0 0 0 -1457.4100062972066 2008.7547759903537 -79.902786564165581 0 -79.902786564165581 -7907.6488352705783 0 0 0 -1474.7235148200562 2046.0897722514492 -72.044447915999626 0 -72.044447915999626 -7932.909741053867 0 0 0 -1471.7049922006081 2065.5044966814457 -54.798572345265711 0 -54.798572345265711 -7972.0845757129428 0 0 0 -1476.6450197578815 2038.0175766664033 -46.097012820426244 0 -46.097012820426244 -7948.1422905139334 0 0 0 -1477.5311784618825 2036.1090481514839 -38.398672524650465 0 -38.398672524650465 -7977.0271231821098 0 0 0 -1485.2295187576528 2054.5186902130081 -50.475749755525612 0 -50.475749755525612 -7888.2059199720097 0 0 0 -1458.4218074397504 2055.0316009599555 -27.262521472614026 0 -27.262521472614026 -7876.0020888690779 0 0 0 -1455.2426219772751 2041.3277090566044 -16.34263593977812 0 -16.34263593977812 -7937.3316032311996 0 0 0 -1474.0009735436543 2031.9583998892049 -19.718495939428976 0 -19.718495939428976 -7941.1806937641813 0 0 0 -1477.3055734687659 2037.1584219152501 -22.750926514185267 0 -22.750926514185267 -7935.3845532935229 0 0 0 -1474.5565328445737 2042.5176571664488 -20.822317763973842 0 -20.822317763973842 -7960.21299242854 0 0 0 -1479.4238338155265 2022.667423944843 -5.0987217505753506 0 -5.0987217505753506 -7964.0417334877857 0 0 0 -1485.3435773857245 2024.294059190288 -4.2705851739447098 0 -4.2705851739447098 -7977.0219084246492 0 0 0 -1488.1819623085903 2021.3314792672463 -3.7189265731576597 0 -3.7189265731576597 -7977.1545459280023 0 0 0 -1488.9557666651817 2021.7332492945061 -9.1278131751387264 0 -9.1278131751387264 -7988.0905679375574 0 0 0 -1491.589329660761 2033.431905747886 -14.633872682185029 0 -14.633872682185029 -8002.5651748350356 0 0 0 -1492.2833172717801 2045.2313700682753 -23.444209344670526 0 -23.444209344670526 -7976.3897823250918 0 0 0 -1482.7896030641969 2061.3615930245433 -24.48349413901451 0 -24.48349413901451 -7992.68854557132 0 0 0 -1482.8317381367087 2071.4116769244793 -158.75688883410112 0 -158.75688883410112 -7970.9531771501061 0 0 0 -1474.8853750564085 2115.8696806556109 -126.2915617986946 0 -126.2915617986946 -7939.1796574885375 0 0 0 -1455.8274942082353 2169.1469570785885 -130.74988979355112 0 -130.74988979355112 -7929.3779338947497 0 0 0 -1440.0577442040267 2130.1384614728449 -124.27850265805864 0 -124.27850265805864 -7867.0322813976964 0 0 0 -1434.2234549812201 2061.4534449698081 -147.54956153670355 0 -147.54956153670355 -7885.8435782588367 0 0 0 -1456.0975333222555 2008.1723039378776 -181.23065948015392 0 -181.23065948015392 -7991.1013238591258 0 0 0 -1495.7322549803066 1999.462929309826 -148.78946577809984 0 -148.78946577809984 -7975.7309988702473 0 0 0 -1494.067017390109 2020.7273914973921 -140.8348485190545 0 -140.8348485190545 -8029.8200448907737 0 0 0 -1502.2731633483418 1966.474624352144 -170.4469903835743 0 -170.4469903835743 -8096.2397370034887 0 0 0 -1532.4412781628416 1901.6611234630955 -145.61145045081503 0 -145.61145045081503 -8106.3854486235359 0 0 0 -1551.1810812901122 2071.2389571311796 -118.3475487093674 0 -118.3475487093674 -8058.2801769000216 0 0 0 -1496.7603049422105 2085.4486081029099 -148.62875459416682 0 -148.62875459416682 -8051.2567030026694 0 0 0 -1491.452023724938 2042.3491069457405 -160.5729115704853 0 -160.5729115704853 -7980.1438250594401 0 0 0 -1484.448679528422 2125.1724802106328 -131.48179816790503 0 -131.48179816790503 -7932.9587433069246 0 0 0 -1451.9465657740802 2177.731135196882 -107.98421041374968 0 -107.98421041374968 -8006.9693953667884 0 0 0 -1457.3095650424802 2191.5131921557149 -107.92311364070338 0 -107.92311364070338 -7965.5675702806911 0 0 0 -1443.5135945312359 2317.8934343936271 -34.218128369444457 0 -34.218128369444457 -7461.2881808464736 0 0 0 -1285.8486866132152 2219.1236411195787 -42.87213051749859 0 -42.87213051749859 -8375.3492253622971 0 0 0 -1539.0563960606814 2378.5825849219655 -68.357142271801422 0 -68.357142271801422 -7903.8724356416933 0 0 0 -1381.3224626799347 1905.7432314046218 100.45524472236866 0 100.45524472236866 -7697.8939058442556 0 0 0 -1448.0376686099062 1814.9471469270065 199.08977636065973 0 199.08977636065973 -8042.4084442912426 0 0 0 -1556.8653243410517 2301.1746673323141 -235.24665868591546 0 -235.24665868591546 -7938.0046280368115 0 0 0 -1409.2074901761298 -3.5119434489205474 -5.6663153047980739 0 -5.6663153047980739 -11.831981656639414 0 0 0 -3.8359812763899725 2094.9696042662763 -82.344992980273673 0 -82.344992980273673 -7920.8633991516253 0 0 0 -1456.4734487213354 1957.8193906436391 -33.095288246826385 0 -33.095288246826385 -8305.0416484411835 0 0 0 -1586.8055644493834 1966.5093670098358 -134.85655075630348 0 -134.85655075630348 -7597.51639832207 0 0 0 -1407.7517578280604 -3.3614110679555296 -6.0247467517237858 0 -6.0247467517237858 -11.781804256934095 0 0 0 -3.7858038312224096 2234.7101611961843 152.53068935334886 0 152.53068935334886 -7875.0940383492853 0 0 0 -1410.0959692882752 1904.0631706745626 -262.32642371738621 0 -262.32642371738621 -7959.7286663692503 0 0 0 -1513.9163739236756 -3.8650122833008567 -6.205935552908219 0 -6.205935552908219 -11.949671388997729 0 0 0 -3.9536709180746499 2134.4730850492115 68.327723001668346 0 68.327723001668346 -7586.9377499862494 0 0 0 -1363.1161662342574 2170.977892408293 -69.93102557806742 0 -69.93102557806742 -7879.1067470923008 0 0 0 -1427.0322136709947 2224.7317406930233 -30.941239332314581 0 -30.941239332314581 -7371.0118973624776 0 0 0 -1286.5700391673672 2148.616005610209 -107.74892663720311 0 -107.74892663720311 -7824.3955937948776 0 0 0 -1418.9448970461744 2057.147046617798 -57.92294540120929 0 -57.92294540120929 -7891.2523797988688 0 0 0 -1458.5263332952691 2314.500622538304 -28.477426840829139 0 -28.477426840829139 -7731.4798710865434 0 0 0 -1354.2448121370544 2160.8161436067658 -107.70394565050083 0 -107.70394565050083 -7820.5140005182257 0 0 0 -1414.9244642278591 2186.4970672732525 -269.98550262981735 0 -269.98550262981735 -7832.8988782610832 0 0 0 -1411.6004527469595 2172.7369340896985 -21.839418234843833 0 -21.839418234843833 -8223.3911156991962 0 0 0 -1512.6635454023635 2008.0258663771419 63.576599930776865 0 63.576599930776865 -7851.9253464751564 0 0 0 -1460.9748700245073 2046.674558633742 173.41272609050793 0 173.41272609050793 -7976.9514513586764 0 0 0 -1482.5692231812354 -1.9728377142553626 -6.2486199282136887 0 -6.2486199282136887 -11.318946593608246 0 0 0 -3.3229460769659056 2199.8984590782929 220.60900846418372 0 220.60900846418372 -7749.3402794658614 0 0 0 -1387.3604550968885 2158.5539052433419 -262.32393220422091 0 -262.32393220422091 -7939.8721958538108 0 0 0 -1445.3295726526226 2187.3627014750309 -157.00403456258027 0 -157.00403456258027 -7460.4202363413933 0 0 0 -1318.2643837165961 2115.6588424799465 52.336065528535983 0 52.336065528535983 -7423.5006269231344 0 0 0 -1326.9604461107974 -9.0492742676051705 -6.1613313017949025 0 -6.1613313017949025 -13.677758840186414 0 0 0 -5.6817582769478889 2281.5955732951115 138.83193877510348 0 138.83193877510348 -7614.7432068159687 0 0 0 -1333.286908380207 2206.4236111421633 40.353170699701877 0 40.353170699701877 -7869.9010597463639 0 0 0 -1415.8693621510538 2143.1387663720961 -16.010748282518762 0 -16.010748282518762 -7621.5860955269018 0 0 0 -1369.611832288705 2176.4704661286451 95.545508083225286 0 95.545508083225286 -7313.1351283858676 0 0 0 -1284.1661655643038 2253.0876428621996 -179.91197948042446 0 -179.91197948042446 -7427.5593318493338 0 0 0 -1293.6179222467836 2121.0921053587808 -59.532448975267471 0 -59.532448975267471 -7777.8131703092513 0 0 0 -1414.1802662376213 2159.402223989433 -78.895646142696933 0 -78.895646142696933 -7618.7075000209152 0 0 0 -1364.8263190078651 2034.3846262351399 -70.107370112513308 0 -70.107370112513308 -7688.0381954966142 0 0 0 -1413.4133923153604 2074.2467448052921 -40.47612918579398 0 -40.47612918579398 -7689.7851613334205 0 0 0 -1403.8846041320285 2093.8989406535838 -40.604553832704354 0 -40.604553832704354 -7630.8246836961625 0 0 0 -1384.2314357606374 2071.6799021153347 -62.779627910258569 0 -62.779627910258569 -7783.2152910855948 0 0 0 -1427.8838472425705 2102.9325956700413 -69.548283453299518 0 -69.548283453299518 -7684.2125714382855 0 0 0 -1395.3199939420592 2089.4861983207666 -123.94189116020425 0 -123.94189116020425 -7786.1773412863113 0 0 0 -1424.1727857413789 2075.0948186015698 -128.96710281800188 0 -128.96710281800188 -7884.6531417231799 0 0 0 -1452.3895807804042 2150.6070177527145 -84.659611395225511 0 -84.659611395225511 -7750.0268656779663 0 0 0 -1399.854961981313 2032.8111871630608 -153.20556834232411 0 -153.20556834232411 -7777.2456232002151 0 0 0 -1436.1086090092867 2024.8154885879899 -165.5895606323611 0 -165.5895606323611 -7897.5877127020904 0 0 0 -1468.1930560285205 2030.5164333909051 -119.11095086848218 0 -119.11095086848218 -7721.9102784353163 0 0 0 -1422.8484612610991 2050.2984275342042 -114.34681309602456 0 -114.34681309602456 -7800.3802481742641 0 0 0 -1437.5204551600164 2008.6234789392256 -130.41595097311438 0 -130.41595097311438 -7771.5384846646339 0 0 0 -1440.728751431343 2048.2274649868541 -66.165287593023095 0 -66.165287593023095 -7648.9058754539728 0 0 0 -1400.1696026167792 2004.8783438972132 -55.92461226748128 0 -55.92461226748128 -7567.0399126847624 0 0 0 -1390.54039219689 1981.5028998331254 -67.211486936885194 0 -67.211486936885194 -7626.5440362769586 0 0 0 -1411.2602841109619 1999.3218117806064 -63.265411304681038 0 -63.265411304681038 -7426.1246911532653 0 0 0 -1356.7007198431638 1936.933221622472 -116.52199912653032 0 -116.52199912653032 -7614.5373284623056 0 0 0 -1419.4010267099584 2010.8746438166745 -101.74315623427174 0 -101.74315623427174 -7650.0646438734984 0 0 0 -1409.7975000142069 1997.2806192456219 -117.28043843466003 0 -117.28043843466003 -7643.8713877409537 0 0 0 -1411.6476921238182 1926.3961215846684 -3.2078629350261494 0 -3.2078629350261494 -7227.1767306183319 0 0 0 -1325.1951522584131 1887.8000135314226 -97.192808009815053 0 -97.192808009815053 -7341.7803673076996 0 0 0 -1363.4950884440684 1966.4115901709592 -60.719636831539447 0 -60.719636831539447 -7481.5514945512987 0 0 0 -1378.7849760950885 1912.932587150015 -136.82495271574589 0 -136.82495271574589 -7772.0661028665636 0 0 0 -1464.7833789291326 1918.738373409371 -176.63469901808276 0 -176.63469901808276 -7642.6426955688075 0 0 0 -1430.9760805398582 1909.2399368551287 -188.94345570020232 0 -188.94345570020232 -7881.2778636687581 0 0 0 -1493.0094817034023 1894.7488795955214 -156.42063323222101 0 -156.42063323222101 -8004.8640687341394 0 0 0 -1527.528797284649 1851.9753846052481 -164.34865329056993 0 -164.34865329056993 -7808.2110671598493 0 0 0 -1489.0589206386503 1949.3857398815471 -183.26033292889042 0 -183.26033292889042 -7752.2811636522238 0 0 0 -1450.7238559426714 1963.6038578422631 -149.61951819718161 0 -149.61951819718161 -7825.3700061780255 0 0 0 -1465.4415370839415 2018.0557997470096 -155.06462957838448 0 -155.06462957838448 -7874.9070161829586 0 0 0 -1464.2128041089891 1959.6201606206705 -179.76200546860491 0 -179.76200546860491 -7909.4950321565339 0 0 0 -1487.4687178839631 1949.4856174967645 -179.20656167789639 0 -179.20656167789639 -8061.9727307161666 0 0 0 -1528.121778304856 1930.3651900309924 -149.71402006320932 0 -149.71402006320932 -7996.2470106236578 0 0 0 -1516.4704551481627 1901.8739976588404 -165.64899246555069 0 -165.64899246555069 -8107.7193443757133 0 0 0 -1551.4613366792109 1957.5143636419889 -184.4672048409775 0 -184.4672048409775 -7993.0017003284011 0 0 0 -1508.8718341715939 1874.1049968417647 -154.92163390700443 0 -154.92163390700443 -8006.8058312859648 0 0 0 -1533.17520861105 1934.085687534076 -135.75774640681266 0 -135.75774640681266 -7973.4782987173385 0 0 0 -1509.8481527958211 1812.1435637170093 -123.08703595160114 0 -123.08703595160114 -8021.4365083678867 0 0 0 -1552.3232361627101 1776.5823221421888 -96.734431274622693 0 -96.734431274622693 -8199.031720338302 0 0 0 -1605.6123495490319 1847.6515417385235 -151.01769953120674 0 -151.01769953120674 -8112.4173700751271 0 0 0 -1566.1914570841473 1821.9146568319011 -132.07505934210349 0 -132.07505934210349 -8202.5094138345448 0 0 0 -1595.1486892506618 1734.2573402971502 -92.862810409442318 0 -92.862810409442318 -8174.7979738797258 0 0 0 -1610.1351583956384 1719.4487449351509 -54.38565363204043 0 -54.38565363204043 -8274.8926967212683 0 0 0 -1638.8609879465257 1770.668413350355 -60.524352477677894 0 -60.524352477677894 -8241.9384626016436 0 0 0 -1617.8175123128203 1808.9596418887668 -129.83999472418691 0 -129.83999472418691 -8217.469719243134 0 0 0 -1602.1275193385954 1862.5317623933665 -101.56497715336445 0 -101.56497715336445 -8157.1455974927294 0 0 0 -1573.6534587748388 1899.2799923693019 -155.84592808638627 0 -155.84592808638627 -8149.1473591381073 0 0 0 -1562.4668416921995 1934.4846437254514 -133.24882017636992 0 -133.24882017636992 -8068.298795156592 0 0 0 -1533.4535378577943 1846.5550908565365 -120.8408241088182 0 -120.8408241088182 -8107.1683665738747 0 0 0 -1565.1533189293314 1057.993212143776 87.879755608184496 0 87.879755608184496 -8808.1339151304564 0 0 0 -1937.5351757466724 -3.5738241681540757 10.866783207771583 0 10.866783207771583 -11.847278510125648 0 0 0 -3.8552756695699344 1142.6238827712641 -116.26860130806381 0 -116.26860130806381 -8355.8776772374185 0 0 0 -1803.3134486165382 1316.7777241942777 275.3249913984655 0 275.3249913984655 -8393.2600473195671 0 0 0 -1769.1205807813249 1452.6035499297832 36.741981641306666 0 36.741981641306666 -7930.3232335169741 0 0 0 -1619.4299208967968 1528.1523994097597 3.6561829912316171 0 3.6561829912316171 -8312.6885137230383 0 0 0 -1696.1340285783181 1403.8610751268061 -53.050380750291879 0 -53.050380750291879 -8302.9859949445381 0 0 0 -1724.7812299544348 1692.8244121734915 -98.123799835811951 0 -98.123799835811951 -8184.1275460484831 0 0 0 -1622.8257834687538 1561.8322660696304 -107.51036560031207 0 -107.51036560031207 -8752.0369095905262 0 0 0 -1797.5511608802244 1679.7185079186893 -84.13780119864532 0 -84.13780119864532 -8188.0871238217223 0 0 0 -1627.0921539757619 1505.6625279998261 -155.40228683942405 0 -155.40228683942405 -8173.0333197977416 0 0 0 -1666.8426979494798 1695.8233603055705 -53.779211160570412 0 -53.779211160570412 -8017.6266907350218 0 0 0 -1580.4508326073665 1584.2827793315191 -10.979765311681149 0 -10.979765311681149 -7621.0848959946597 0 0 0 -1509.2005291657915 1490.4407045453463 216.74688479584802 0 216.74688479584802 -8031.626766496498 0 0 0 -1635.2965154877875 1175.7732500647762 374.90757099366965 0 374.90757099366965 -8046.6650480883836 0 0 0 -1717.7229495059 1704.7439916372423 -21.156479252229474 0 -21.156479252229474 -7898.7624682989335 0 0 0 -1548.5046191654219 -3.8869267915506924 10.208811384785228 0 10.208811384785228 -11.951647058440187 0 0 0 -3.9596434624977235 1331.0062529264069 -257.67778479292974 0 -257.67778479292974 -8213.3414632417698 0 0 0 -1720.5838025788435 1562.8959775828625 379.37839306187965 0 379.37839306187965 -8385.1861915993504 0 0 0 -1705.5725535041202 -3.4212046015915121 10.758667250444027 0 10.758667250444027 -11.796405826575892 0 0 0 -3.8044026070418653 1702.574056794474 -96.691524258425488 0 -96.691524258425488 -8239.5066880834711 0 0 0 -1634.2331578222474 -2.0912876970259475 9.5824037276202318 0 9.5824037276202318 -11.353101189784866 0 0 0 -3.3610972217027069 1706.1305554077571 -378.44768998014843 0 -378.44768998014843 -7779.6010362207526 0 0 0 -1518.3676202032493 1948.9032339607986 311.29229365986248 0 311.29229365986248 -8181.4773487964403 0 0 0 -1558.1435287089114 1850.1843384305466 177.28477316437784 0 177.28477316437784 -7363.6321505626256 0 0 0 -1378.3619530330216 1861.8968927119881 -104.52913126377462 0 -104.52913126377462 -7982.6165737572101 0 0 0 -1530.1799202613088 1894.6845630008684 -133.8520459796182 0 -133.8520459796182 -7781.7399778968829 0 0 0 -1471.7638537240127 1745.1565811700384 -16.081510038999113 0 -16.081510038999113 -8505.8195350516762 0 0 0 -1690.1657384704085 1696.299172004874 -261.61719668081423 0 -261.61719668081423 -7870.1977399054604 0 0 0 -1543.4746419751464 1856.5493010588398 -152.31281294283508 0 -152.31281294283508 -7398.8075789103241 0 0 0 -1385.5645694628693 1820.9096230667783 -152.05017140476957 0 -152.05017140476957 -7044.8365524112451 0 0 0 -1305.9817323361167 1970.8506293281057 133.52689194224513 0 133.52689194224513 -7142.168597845668 0 0 0 -1292.8294921293968 1886.7819271809349 89.841364787991552 0 89.841364787991552 -7232.8526978296868 0 0 0 -1336.5176926621862 1916.3650805678001 -59.514768551100133 0 -59.514768551100133 -7382.7713509184487 0 0 0 -1366.6015675876595 1916.5014001315449 -118.02425627496632 0 -118.02425627496632 -7257.4464007642018 0 0 0 -1335.2362501581683 -8.7372620933379324 9.1446825153707749 0 9.1446825153707749 -13.568426475134061 0 0 0 -5.5764221421179911 2004.0519808082427 -114.10606188489007 0 -114.10606188489007 -7258.5335709487263 0 0 0 -1313.62039753512 1901.9479453309741 -98.778279180638492 0 -98.778279180638492 -7252.1221977619643 0 0 0 -1337.5435631077453 1965.3784527544894 -62.950095283656992 0 -62.950095283656992 -7259.1299147295085 0 0 0 -1323.43786549376 1697.9667891823701 -45.042630596293748 0 -45.042630596293748 -7038.5110088054789 0 0 0 -1335.136054905779 1833.8815037302375 38.071547496549101 0 38.071547496549101 -7703.2150245516386 0 0 0 -1467.333380205353 1690.2541737061961 -24.246297552748729 0 -24.246297552748729 -7343.1337411462737 0 0 0 -1413.2198918600211 1765.2784932956874 -105.739075213256 0 -105.739075213256 -7368.7431686521231 0 0 0 -1400.8661688391057 1799.0253258318489 57.920004487877122 0 57.920004487877122 -7778.0150412433286 0 0 0 -1494.7474288528711 1493.2474277610927 595.26595967472463 0 595.26595967472463 -8695.3487354808967 0 0 0 -1800.5253269299519 1727.8361172574532 161.72306334300106 0 161.72306334300106 -7285.7088769965048 0 0 0 -1389.4681899347615 1560.0008835060507 565.35677401391877 0 565.35677401391877 -8357.2249063057643 0 0 0 -1699.3060056999302 1181.8635000087434 591.79136573914673 0 591.79136573914673 -8296.4505681207593 0 0 0 -1778.6467670280053 915.33287883930825 1191.8566730979553 0 1191.8566730979553 -8820.9762654376391 0 0 0 -1976.4108466495845 906.40401714588006 816.86013720244227 0 816.86013720244227 -8603.1189376631482 0 0 0 -1924.1787301293152 1257.1461117880719 329.90803023787885 0 329.90803023787885 -8248.1850706258592 0 0 0 -1747.7597397094466 1676.4517488242818 258.80497078806457 0 258.80497078806457 -8132.2942918451736 0 0 0 -1613.9606357552257 1585.8569303007785 173.59652027562333 0 173.59652027562333 -7700.8656712726024 0 0 0 -1528.7521852429586 -1119.9363062558623 2674.0584814418553 0 2674.0584814418553 -9289.4182748535586 0 0 0 -2602.3386452773557 -3688.5332629923587 3700.7290620606668 0 3700.7290620606668 -11093.942390135075 0 0 0 -3695.6189132818586 -877.33181880098323 3037.0557709295854 0 3037.0557709295854 -14506.314887663604 0 0 0 -3845.911676616146 2722.091329947496 967.41882144593092 0 967.41882144593092 -9745.4503724760216 0 0 0 -1755.8397606321305 -595.87014839378207 2579.354398213176 0 2579.354398213176 -11117.34533619065 0 0 0 -2928.3038711461068 1709.8368784703762 1296.7786348577793 0 1296.7786348577793 -8794.3757806844587 0 0 0 -1771.1347255535202 1344.178862214907 966.97260441500475 0 966.97260441500475 -9464.1360360923609 0 0 0 -2029.9892934693626 1191.6021176843115 819.5277809925883 0 819.5277809925883 -8674.0403697994225 0 0 0 -1870.6095630287755 1759.8690961468051 277.32376811677204 0 277.32376811677204 -7681.0208418140537 0 0 0 -1480.2879364168134 1180.3835542219495 954.17489857744295 0 954.17489857744295 -8385.0621274495097 0 0 0 -1801.1696433068901 -202.25845900219019 1456.6579509225739 0 1456.6579509225739 -8669.4306266408785 0 0 0 -2217.9222714107664 -1327.6878425176237 2252.0868641972361 0 2252.0868641972361 -8957.612642752405 0 0 0 -2571.3251213175072 363.52659034546878 1962.5764029749416 0 1962.5764029749416 -9561.3090236223998 0 0 0 -2299.4456083192331 -557.55408977255183 1928.6430885143939 0 1928.6430885143939 -8651.7714312450626 0 0 0 -2302.3313802544035 -1289.5061593143053 2750.5919014039569 0 2750.5919014039569 -9322.2352433265078 0 0 0 -2652.9353506602033 -2812.8544703220691 2466.0953367578049 0 2466.0953367578049 -8443.3663589378521 0 0 0 -2814.0552073149811 -2817.0673565998841 2467.8832237018551 0 2467.8832237018551 -8444.7697767538939 0 0 0 -2815.4592833384449 -2602.1871595769485 1698.3654469859996 0 1698.3654469859996 -7805.8056944010114 0 0 0 -2601.9982134944898 -1372.1190605792465 1902.9656069991984 0 1902.9656069991984 -7799.4441134158869 0 0 0 -2292.8907934987833 -1177.9155689605623 1509.039026504352 0 1509.039026504352 -7952.0525985554495 0 0 0 -2282.4920418790025 -1806.0963612074095 1808.3864590039909 0 1808.3864590039909 -7920.8461238051741 0 0 0 -2431.7356212531454 -1189.7794282594157 1678.2452870267248 0 1678.2452870267248 -8472.1933413650677 0 0 0 -2415.4931924061211 37.827724987445436 1596.2136452041505 0 1596.2136452041505 -8126.6804560456931 0 0 0 -2022.2131827645617 -338.31078862236518 1283.7963902880183 0 1283.7963902880183 -8118.6455444204166 0 0 0 -2114.2390832606952 -437.15337477124922 1261.5355906635591 0 1261.5355906635591 -8406.602562666747 0 0 0 -2210.9389843595 -980.29128751948974 1374.619367408508 0 1374.619367408508 -8325.7586106837771 0 0 0 -2326.5124745508165 -1075.7065227811952 1077.7719304041711 0 1077.7719304041711 -8312.7916891588611 0 0 0 -2347.1245529850144 -448.17403097568967 1064.9825376106783 0 1064.9825376106783 -8103.5062001842925 0 0 0 -2137.9200577899956 -1393.7257652495459 1197.4838074427928 0 1197.4838074427928 -8134.248823119764 0 0 0 -2381.9936470923271 -1937.9601916743468 1503.7440228010769 0 1503.7440228010769 -8075.7459773361788 0 0 0 -2503.4265422526314 -1626.9351092714251 1411.3711533492333 0 1411.3711533492333 -7913.9066338338944 0 0 0 -2385.2104357763292 -2017.0777879406648 1241.8439885857695 0 1241.8439885857695 -7701.4613405882574 0 0 0 -2429.6347821322306 -2588.7462614504152 1416.1649194764871 0 1416.1649194764871 -7767.7747035505008 0 0 0 -2589.1302412502287 -1767.1011811357289 1542.3437522215604 0 1542.3437522215604 -7510.1183355897856 0 0 0 -2319.3048791813785 1012.6430859654793 594.09209653375547 0 594.09209653375547 -8346.2127265635681 0 0 0 -1833.3924101495213 689.61176302275453 673.43173958991247 0 673.43173958991247 -8429.7491966857015 0 0 0 -1935.0343584157363 1122.9149500619187 314.05609795051168 0 314.05609795051168 -8394.977827755356 0 0 0 -1818.0157194233561 1420.4720787587194 419.53772236798522 0 419.53772236798522 -8248.1398498142153 0 0 0 -1706.9169427638753 424.43740452784368 904.69721182956346 0 904.69721182956346 -8372.3035568977648 0 0 0 -1986.9665380924816 473.98536082600458 1231.7509752411706 0 1231.7509752411706 -8351.3169085340705 0 0 0 -1969.3328869270154 759.36572794655331 833.38436875071386 0 833.38436875071386 -8315.7369723311931 0 0 0 -1889.0928110961595 340.84123765108779 796.84985260850044 0 796.84985260850044 -8269.1103835970134 0 0 0 -1982.067286486481 11.231883138071225 903.63111883043075 0 903.63111883043075 -8398.4133649610376 0 0 0 -2096.7953704557399 -18.504068734091561 1150.5135647613661 0 1150.5135647613661 -8260.0988894534894 0 0 0 -2069.6507395468943 -365.41247037031849 869.60194265855716 0 869.60194265855716 -8471.4169170414571 0 0 0 -2209.2073468529452 614.01496527926793 558.38691977439157 0 558.38691977439157 -8342.3164320032374 0 0 0 -1932.0753666809978 284.38678325782894 636.74839067757694 0 636.74839067757694 -8419.4760713637297 0 0 0 -2033.7723220264761 1118.8802499422345 340.14496452015396 0 340.14496452015396 -8432.6650992104987 0 0 0 -1828.446212317067 661.46646401124599 323.97132127157965 0 323.97132127157965 -8299.7548668530653 0 0 0 -1909.5721007104585 425.4100885032658 408.7145606200429 0 408.7145606200429 -8438.8283482996922 0 0 0 -2003.3545649491007 460.23385656066785 435.43392600109837 0 435.43392600109837 -8342.5305240022863 0 0 0 -1970.574166860406 174.68940399124949 452.63854991657172 0 452.63854991657172 -8437.7120081920802 0 0 0 -2065.7556510502091 608.68736709182849 288.66171770943947 0 288.66171770943947 -8380.763873426331 0 0 0 -1943.0191265836256 6.5242185624010745 405.9000886838985 0 405.9000886838985 -8391.3696878530754 0 0 0 -2096.211367322665 69.682500105450345 589.51170443365663 0 589.51170443365663 -8468.9695291553962 0 0 0 -2099.8217572624881 139.13924495811443 630.78914359694772 0 630.78914359694772 -8313.9845983127088 0 0 0 -2043.7113383386477 -364.64868415048022 823.39217704375869 0 823.39217704375869 -8186.7623282294335 0 0 0 -2137.8527530949787 -697.17737423667586 828.66373684741529 0 828.66373684741529 -8297.7651603820104 0 0 0 -2248.7356336546718 -156.54249095848854 664.69911575520382 0 664.69911575520382 -8408.8663053496657 0 0 0 -2141.35219907704 -410.0829060438482 555.15422744252555 0 555.15422744252555 -8376.4436040532964 0 0 0 -2196.631627524288 -333.22768297927905 588.38780537871753 0 588.38780537871753 -8356.3993199946999 0 0 0 -2172.406750743492 -716.73642123119407 575.01191982051296 0 575.01191982051296 -8226.7118551339299 0 0 0 -2235.8620690912803 -804.49693355330237 452.39859190746029 0 452.39859190746029 -8423.432120831294 0 0 0 -2306.9822635961482 -150.30326770512147 336.27181767772163 0 336.27181767772163 -8464.1422214513877 0 0 0 -2153.6113722891278 -189.25580047519907 226.67136901228741 0 226.67136901228741 -8465.4357830353911 0 0 0 -2163.6728958776475 -9.8092330607869371 253.22042741980545 0 253.22042741980545 -8525.2251721048233 0 0 0 -2133.7586012913998 -367.79757995189539 338.28236244881555 0 338.28236244881555 -8512.9457487247018 0 0 0 -2220.1858321691507 59.59479123751953 452.0498276356858 0 452.0498276356858 -8401.7882765231334 0 0 0 -2085.5483713214016 -2083.6425921404216 957.17663441865716 0 957.17663441865716 -7762.1859200736017 0 0 0 -2461.4571280535056 -2036.3113810264745 827.93702976103214 0 827.93702976103214 -7740.1736267093247 0 0 0 -2444.1212519339492 -2059.7922160417056 1110.2140457794715 0 1110.2140457794715 -7697.0727243795745 0 0 0 -2439.2162351053203 -2554.925082107055 1040.8011184213876 0 1040.8011184213876 -7665.1529672920306 0 0 0 -2555.0195123497715 -1629.4935468156123 1026.3423792703559 0 1026.3423792703559 -7822.6399974501219 0 0 0 -2363.0333860664332 -1104.3479519763891 913.80814091366847 0 913.80814091366847 -7892.3539180967709 0 0 0 -2249.1754675182901 -1713.7602629230541 998.30596567588509 0 998.30596567588509 -8062.5855418129668 0 0 0 -2444.0864511840045 -951.85004852742031 1072.5817428103182 0 1072.5817428103182 -7914.6617448458182 0 0 0 -2216.6279483433104 -1182.9571103471471 721.66646762949858 0 721.66646762949858 -8235.9766135741083 0 0 0 -2354.7334309803136 -1198.5443552088072 618.52083847427411 0 618.52083847427411 -8093.0126828290377 0 0 0 -2322.8892595094621 -1130.4706721816344 682.63387985769259 0 682.63387985769259 -8217.0429437943276 0 0 0 -2336.8784039939897 -1187.6745164845379 455.2914997731059 0 455.2914997731059 -8341.546762011978 0 0 0 -2382.305319624129 -1281.1377572647848 636.10755751232864 0 636.10755751232864 -8119.117577114007 0 0 0 -2350.0638335946983 -1685.1750396118887 505.70174621619117 0 505.70174621619117 -8133.7490066626378 0 0 0 -2454.7310115686319 -1720.6537478455907 786.80525095623852 0 786.80525095623852 -8147.6839153426536 0 0 0 -2467.0844157970605 -1786.656466979387 670.59679070196648 0 670.59679070196648 -7896.1885024660314 0 0 0 -2420.7112423613553 -2056.4004594607345 633.47888466055929 0 633.47888466055929 -7995.9509761750669 0 0 0 -2513.0878589089502 -1985.8207152464502 605.55637508758832 0 605.55637508758832 -7674.8147437574025 0 0 0 -2415.1588647509634 -2617.5630774408096 654.51652820284255 0 654.51652820284255 -7853.2607958776571 0 0 0 -2617.7059683296166 -2675.439665566144 197.57520090247613 0 197.57520090247613 -8025.5343090165925 0 0 0 -2675.2434936456843 -2649.9344542412982 434.7009957376232 0 434.7009957376232 -7951.4032651295911 0 0 0 -2650.3344298427223 -2020.9390458073749 369.46944063043884 0 369.46944063043884 -7765.9384775526842 0 0 0 -2446.7193808400148 -2066.8686044272245 279.49132516014015 0 279.49132516014015 -8117.1674273978442 0 0 0 -2546.0090079562665 -1689.041436659289 436.97647304225393 0 436.97647304225393 -8134.5310980977783 0 0 0 -2455.8931336892679 -1258.2262856008219 426.20086152458953 0 426.20086152458953 -8357.3007538055972 0 0 0 -2403.8817598516061 -1384.9478601358551 272.68697809072364 0 272.68697809072364 -8242.1389294783294 0 0 0 -2406.7716974035466 -1351.0535937359418 210.52769206129187 0 210.52769206129187 -8460.5472816431393 0 0 0 -2452.9002188447694 -1333.683089541074 263.38414305688457 0 263.38414305688457 -8221.7295542920037 0 0 0 -2388.8531609582697 -1470.8465220623639 52.906951924139321 0 52.906951924139321 -8290.6292611292884 0 0 0 -2440.3689457979135 -1705.8568032979206 -34.701116197931924 0 -34.701116197931924 -8409.8819002397686 0 0 0 -2528.9346758844217 -1862.0974566409018 97.6854759167868 0 97.6854759167868 -8374.8576419539258 0 0 0 -2559.238774648707 -2086.1682750642476 113.59360043022681 0 113.59360043022681 -7915.8735757821833 0 0 0 -2500.5104627116079 -1944.5381312101042 243.01004058666558 0 243.01004058666558 -8070.4885700732793 0 0 0 -2503.7566753208462 -2729.1143158515174 -28.216077531561488 0 -28.216077531561488 -8189.5049105598564 0 0 0 -2729.6548066028431 -542.75693643956947 280.39712171224528 0 280.39712171224528 -8525.9192478132263 0 0 0 -2267.1690460631999 -312.09937140105467 181.93818455017208 0 181.93818455017208 -8558.2665924186149 0 0 0 -2217.5914909549174 -502.01206256549995 251.71152472495851 0 251.71152472495851 -8506.7936712947812 0 0 0 -2252.2014334650721 -479.89509124297911 424.9933150925865 0 424.9933150925865 -8336.5080639372536 0 0 0 -2204.1007887950582 -907.18733818095461 301.14017878523919 0 301.14017878523919 -8334.1869783024886 0 0 0 -2310.3435791208594 -961.7271709632887 294.42252025161815 0 294.42252025161815 -8496.5631519539456 0 0 0 -2364.5725807293084 -615.91254325760019 213.78551794816849 0 213.78551794816849 -8487.5736996917149 0 0 0 -2275.8715607373288 -872.14240983985474 189.06561904130467 0 189.06561904130467 -8577.6004576713203 0 0 0 -2362.4357168777933 -1357.1655912269662 198.11512900467369 0 198.11512900467369 -8452.8265638548546 0 0 0 -2452.4980387704554 -1110.4115746624675 16.81414727770607 0 16.81414727770607 -8566.8474367983617 0 0 0 -2419.3147528652071 -1049.4222488869073 26.251272544466701 0 26.251272544466701 -8550.96552398528 0 0 0 -2400.0969432180464 -567.66396088836564 117.13712051527182 0 117.13712051527182 -8639.2978883222659 0 0 0 -2301.7404623026582 -537.57848980569361 194.62436614653348 0 194.62436614653348 -8617.0959564347504 0 0 0 -2288.6686115601115 -226.4999197763218 207.91399178247775 0 207.91399178247775 -8755.1765384380251 0 0 0 -2245.4191145535851 -363.34431209907245 321.57673896662527 0 321.57673896662527 -9129.7861351321935 0 0 0 -2373.2826118078156 1627.6609829609661 -231.7612236267305 0 -231.7612236267305 -8493.0731129948836 0 0 0 -1716.3530325084757 -447.60749991609373 552.14215031670983 0 552.14215031670983 -8340.8153599849829 0 0 0 -2197.1057149752687 -0.17329287084200473 1.9674986274084478 0 1.9674986274084478 -7.3375031783690474 0 0 0 -1.8776990123027559 -142.95279380834472 -71.977812910292414 0 -71.977812910292414 -7983.181772115604 0 0 0 -2031.5336414809899 -422.15358095516058 81.323286812174047 0 81.323286812174047 -8642.3674160321389 0 0 0 -2266.130249246824 -4.1880878106160253 5.2373261861946734 0 5.2373261861946734 -12.052030803204616 0 0 0 -4.0600296534551745 5.6491246898549434 -161.81016198402358 0 -161.81016198402358 -8523.150193364665 0 0 0 -2129.3752671687034 -3.4375134394618669 7.4595548767914277 0 7.4595548767914277 -11.801839998810124 0 0 0 -3.8098383595679906 -41.582775187749576 78.256407712546206 0 78.256407712546206 -9065.1662463863977 0 0 0 -2276.6872553935355 172.23894394314266 157.06337757749861 0 157.06337757749861 -8478.946414003989 0 0 0 -2076.6768675152089 1406.9464412631642 54.266069203697043 0 54.266069203697043 -8442.9668131018989 0 0 0 -1759.00509295968 1305.6460395299218 -182.58423947864867 0 -182.58423947864867 -8471.1373379717224 0 0 0 -1791.3728246104474 1318.7122501408721 90.94607621589239 0 90.94607621589239 -8878.595413155188 0 0 0 -1889.9707907535758 1390.1343272875238 411.14592792987042 0 411.14592792987042 -8293.1625115124043 0 0 0 -1725.7570460562201 1108.3429180220919 12.123047161414434 0 12.123047161414434 -8523.7569040941089 0 0 0 -1853.8534965180079 1202.3466091613245 -16.204083003623964 0 -16.204083003623964 -7916.9601125758454 0 0 0 -1678.6533758536334 1276.765779927593 27.948558388972742 0 27.948558388972742 -9098.9549060928039 0 0 0 -1955.5472815413032 1005.4367580518119 -141.12822882198998 0 -141.12822882198998 -8588.3264223351798 0 0 0 -1895.7224160708392 1187.8330893274033 47.361720628461626 0 47.361720628461626 -8468.0755387749959 0 0 0 -1820.0606123618963 1265.3338949549116 -48.348019049750292 0 -48.348019049750292 -8647.3241352524856 0 0 0 -1845.4975600743919 1268.1798934066137 29.590117233579804 0 29.590117233579804 -8696.1043849056077 0 0 0 -1856.9811228747512 1421.0317905056909 43.331334058018911 0 43.331334058018911 -8630.9315608400502 0 0 0 -1802.474942583598 1300.5588811478412 -29.034056632153806 0 -29.034056632153806 -8854.3671307732147 0 0 0 -1888.4520624063368 1485.917463664915 -1.334488082055941 0 -1.334488082055941 -8621.7814387249964 0 0 0 -1783.9659937650213 1563.6390471805735 -29.512848553058575 0 -29.512848553058575 -8448.5253832989347 0 0 0 -1721.2215840295885 1409.4190490853689 -25.835495939216344 0 -25.835495939216344 -8497.8924707059778 0 0 0 -1772.1183554051531 1455.3251050995677 -10.861585979044321 0 -10.861585979044321 -8481.2120181491046 0 0 0 -1756.4717282623824 1398.1971599799581 21.454751839143228 0 21.454751839143228 -8504.4340927771409 0 0 0 -1776.5592331992957 1486.0023923771587 6.1972194530135312 0 6.1972194530135312 -8418.7694779088779 0 0 0 -1733.1917713829316 1362.7778181134117 72.997268525599793 0 72.997268525599793 -8422.9101881557308 0 0 0 -1765.0330925105782 1395.4532633598865 -6.094894601519627 0 -6.094894601519627 -8415.0407214448715 0 0 0 -1754.8968645212444 1391.6221346701568 63.315597638353211 0 63.315597638353211 -8469.9481788135672 0 0 0 -1769.581511035849 1411.0258345782458 35.987295052169429 0 35.987295052169429 -8380.3451435271272 0 0 0 -1742.3298272372194 1584.4096529101062 -31.675420984582161 0 -31.675420984582161 -8336.9583920668447 0 0 0 -1688.1371847891842 1499.7816184878393 33.620291944087512 0 33.620291944087512 -8393.7140975648799 0 0 0 -1723.483119769262 1509.193353377821 39.055462713771703 0 39.055462713771703 -8352.7294352981553 0 0 0 -1710.8840204800799 1614.8116852346939 -17.452183383011288 0 -17.452183383011288 -8338.8730255774717 0 0 0 -1681.0153350856926 1568.9512576294078 -41.247330133213836 0 -41.247330133213836 -8380.6041940049108 0 0 0 -1702.9132340938736 1515.0772768877068 17.479504611277662 0 17.479504611277662 -8390.7017464096716 0 0 0 -1718.9061173804912 1627.4234995657316 -14.05235719686425 0 -14.05235719686425 -8324.9844446834468 0 0 0 -1674.3902362794252 1728.8271778148692 -72.127137412448064 0 -72.127137412448064 -8292.8237314393591 0 0 0 -1640.9991384061295 1818.1335552577984 -126.50773020385532 0 -126.50773020385532 -8194.0093280359506 0 0 0 -1593.9689431945408 1718.827831159877 -85.74027444524836 0 -85.74027444524836 -8274.4263415099558 0 0 0 -1638.8996275875215 1775.5604972156652 -62.701964896950813 0 -62.701964896950813 -8247.7581866429246 0 0 0 -1618.0494223568166 1543.1845704494335 0.0019324828608660027 0 0.0019324828608660027 -8339.7460410023195 0 0 0 -1699.1403676382251 1641.1043473805694 -18.810894738848219 0 -18.810894738848219 -8312.5290336965991 0 0 0 -1667.8561715789983 1588.4444145688631 -43.448491129882314 0 -43.448491129882314 -8334.4586687472711 0 0 0 -1686.5035635445984 1686.6953614462109 -83.677886056295392 0 -83.677886056295392 -8265.4892959037534 0 0 0 -1644.6984836143893 1506.1791747403076 -28.813777376592043 0 -28.813777376592043 -8324.6611021288991 0 0 0 -1704.6204818471488 1663.8744458463771 -14.026071683601344 0 -14.026071683601344 -8320.7503826612519 0 0 0 -1664.218984203726 1513.0333614833071 -36.291904881934897 0 -36.291904881934897 -8313.8444851651584 0 0 0 -1700.2027809204592 1580.6656926658361 -68.159918144257972 0 -68.159918144257972 -8361.7413086315792 0 0 0 -1695.2689039914367 1521.4621637451783 -13.991393596037597 0 -13.991393596037597 -8497.339827361473 0 0 0 -1743.9694159040737 1414.2295623889913 -84.350286571433173 0 -84.350286571433173 -8863.4641959384753 0 0 0 -1862.3086583873737 767.29818926426196 425.54968866130366 0 425.54968866130366 -8391.471332509911 0 0 0 -1906.0432858114127 -3.5535937363189305 10.309814673740572 0 10.309814673740572 -11.840534522774647 0 0 0 -3.8485320647733943 1199.5947758886523 -227.00812193547972 0 -227.00812193547972 -8347.3474843916883 0 0 0 -1786.9381771257631 699.5286815961008 149.30877919067871 0 149.30877919067871 -7997.6959805972656 0 0 0 -1824.541824750293 385.77644828007396 135.37067144476168 0 135.37067144476168 -8847.1455838413713 0 0 0 -2115.3422838903243 501.84027860954666 -105.10184442550963 0 -105.10184442550963 -8482.2633783074052 0 0 0 -1995.1057749244628 1240.2070799930561 303.21918945636571 0 303.21918945636571 -8579.5621586547422 0 0 0 -1834.8387696654236 -3.622555067410957 9.2083292596715083 0 9.2083292596715083 -11.86352110775772 0 0 0 -3.8715190437921621 157.499081562848 91.57731509571795 0 91.57731509571795 -7950.1658425183996 0 0 0 -1948.1666902388897 27.632975742795679 235.05761368913591 0 235.05761368913591 -8490.7514627296841 0 0 0 -2115.7796217467221 209.37553303791901 339.35204227999566 0 339.35204227999566 -8482.3120579117094 0 0 0 -2068.2341312184471 1315.0422513689737 -44.262956302351085 0 -44.262956302351085 -8104.2377172793495 0 0 0 -1697.2988664775912 1280.7107480429031 -42.869184090781346 0 -42.869184090781346 -8547.8854003404813 0 0 0 -1816.793663074398 1304.7975679021847 126.61087167872756 0 126.61087167872756 -8507.7010579263369 0 0 0 -1800.7258725060374 1372.7865508862524 168.95337389832275 0 168.95337389832275 -8133.8842183131492 0 0 0 -1690.2744168567224 
</DataArray>
<DataArray type="Float64" Name="cross_section_updated" format="ascii">
1 1 1 1 1 1 1 1 1 1 1 1 1 1 1 1 1 1 1 1 1 1 1 1 1 1 1 1 1 1 1 1 1 1 1 1 1 1 1 1 1 1 1 1 1 1 1 1 1 1 1 1 1 1 1 1 1 1 1 1 1 1 1 1 1 1 1 1 1 1 1 1 1 1 1 1 1 1 1 1 1 1 1 1 1 1 1 1 1 1 1 1 1 1 1 1 1 1 1 1 1 1 1 1 1 1 1 1 1 1 1 1 1 1 1 1 1 1 1 1 1 1 1 1 1 1 1 1 1 1 1 1 1 1 1 1 1 1 1 1 1 1 1 1 1 1 1 1 1 1 1 1 1 1 1 1 1 1 1 1 1 1 1 1 1 1 1 1 1 1 1 1 1 1 1 1 1 1 1 1 1 1 1 1 1 1 1 1 1 1 1 1 1 1 1 1 1 1 1 1 1 1 1 1 1 1 1 1 1 1 1 1 1 1 1 1 1 1 1 1 1 1 1 1 1 1 1 1 1 1 1 1 1 1 1 1 1 1 1 1 1 1 1 1 1 1 1 1 1 1 1 1 1 1 1 1 1 1 1 1 1 1 1 1 1 1 1 1 1 1 1 1 1 1 1 1 1 1 1 1 1 1 1 1 1 1 1 1 1 1 1 1 1 1 1 1 1 1 1 1 1 1 1 1 1 1 1 1 1 1 1 1 1 1 1 1 1 1 1 1 1 1 1 1 1 1 1 1 1 1 1 1 1 1 1 1 1 1 1 1 1 1 1 1 1 1 1 1 1 1 1 1 1 1 1 1 1 1 1 1 1 1 1 1 1 1 1 1 1 1 1 1 1 1 1 1 1 1 1 1 1 1 1 1 1 1 1 1 1 1 1 1 1 1 1 1 1 1 1 1 1 1 1 1 1 1 1 1 1 1 1 1 1 1 1 1 1 1 1 1 1 1 1 1 1 1 1 1 1 1 1 1 1 1 1 1 1 1 1 1 1 1 1 1 1 1 1 1 1 1 1 1 1 1 1 1 1 1 1 1 1 1 1 1 1 1 1 1 1 1 1 1 1 1 1 1 1 1 1 1 1 1 1 1 1 1 1 1 1 1 1 1 1 1 1 1 1 1 1 1 1 1 1 1 1 1 1 1 1 1 1 1 1 1 1 1 1 1 1 1 1 1 1 1 1 1 1 1 1 1 1 1 1 1 1 1 1 1 0.000847238465335097 1 1 9.9995699863464349e-07 1 1 9.9994159966781959e-07 1 1 1 1 1 1 1 1 1 1 1 1 1 9.99928481640322e-07 1 1 1 1 1 9.9991652267872322e-07 1 1 1 1 1 1 1 1 1 1 1 1 1 1 1 1 1 1 1 1 1 1 1 1 1 1 1 1 1 1 1 1 1 1 1 1 1 1 1 1 1 1 1 1 1 1 1 1 1 1 1 1 1 1 1 1 1 1 1 1 1 1 1 1 1 1 1 1 1 1 1 1 1 1 1 1 1 1 1 1 1 1 1 1 1 1 1 1 1 1 1 1 1 1 1 1 1 1 1 1 1 1 1 1 1 1 1 1 1 1 1 1 1 1 1 1 1 1 1 1 1 1 1 1 1 1 1 1 1 1 1 1 1 1 1 1 1 1 1 1 1 1 1 1 1 1 1 1 1 1 1 1 1 1 1 1 1 1 1 1 1 1 1 1 1 1 1 1 9.9990493764717803e-07 1 1 1 9.9989357207896923e-07 1 1 9.9988226923142243e-07 1 1 1 1 1 1 1 1 1 1 1 9.9987083942293387e-07 1 1 1 1 9.9985919036621462e-07 1 1 1 1 1 1 1 1 1 1 1 1 1 1 1 1 1 1 1 1 1 1 1 1 1 1 1 1 1 1 1 1 1 1 1 1 1 1 1 1 1 1 1 1 1 1 1 1 1 1 1 1 1 1 1 1 1 1 9.9964493053758541e-07 1 1 1 1 1 1 1 1 1 1 1 1 1 1 9.9955050719344185e-07 1 1 9.9959755824399754e-07 1 9.9950398972994958e-07 1 1 1 1 1 1 1 1 1 1 1 1 1 9.9945837299386664e-07 1 1 1 1 1 1 1 1 1 1 1 1 1 1 1 1 1 1 1 1 1 1 1 1 1 1 1 1 1 1 1 1 1 1 1 1 1 1 1 1 1 1 1 1 1 1 1 1 1 1 1 1 1 1 1 1 1 1 1 1 1 1 1 1 1 1 1 1 1 1 1 1 1 1 1 1 1 1 1 1 1 1 1 1 1 1 1 1 1 1 1 1 1 1 1 1 1 1 1 1 1 1 1 1 1 1 1 1 1 1 1 1 1 1 1 1 1 1 1 1 1 1 1 1 1 1 1 1 1 1 1 1 1 1 1 1 0.00031752447924171534 1 1 9.9985628131127324e-07 1 9.9979509473116512e-07 1 1 1 1 1 1 1 1 1 1 1 1 1 1 1 1 1 1 1 1 1 1 1 1 1 1 1 1 1 1 1 1 1 1 1 1 1 1 1 1 1 1 1 1 1 1 1 9.996927498451269e-07 1 1 1 1 1 9.9974200430674731e-07 1 1 1 1 1 1 1 
</DataArray>
<DataArray type="Float64" Name="displacement_divergence" format="ascii">
-0.10722730757251256 -0.11015646523322577 -0.086086464380481273 -0.091638107844641492 -0.071664610644855728 -0.060307440315077454 -0.079717595120393378 -0.069096371405732437 -0.063225888935566826 -0.069798782363363648 -0.072546075992026116 -0.066025084720780836 -0.076268558468785969 -0.070055807901411957 -0.084265803798843644 -0.091324079560169844 -0.07254703741584477 -0.079755662382897899 -0.055765357209929756 -0.058820914848395744 -0.058969088373540805 -0.058710560110543708 -0.067124294125809114 -0.062598588045003817 -0.05762599916173905 -0.063130800743017801 -0.069580487655105092 -0.064219699640770345 -0.061056707475405911 -0.063453155995975424 -0.060672062611879407 -0.058145129519260541 -0.060788794850538674 -0.062232755051338462 -0.061465749105951706 -0.065364193359112199 -0.063059402439027745 -0.065125562310744761 -0.065988485987119094 -0.065886768688752484 -0.065314209052591221 -0.062321264772613294 -0.064528005791441523 -0.063130847894129302 -0.062727911771453593 -0.064162578536277104 -0.060931744013933309 -0.060639553121140888 -0.074211157941667272 -0.069838249060929086 -0.076878488677584983 -0.072138597496982843 -0.06675435137903199 -0.070767027890308934 -0.068267419698328974 -0.071566990786001636 -0.066718734714539929 -0.069896116556569424 -0.066466890601989667 -0.066950677284107862 -0.071884798190022248 -0.073469596900266554 -0.069489708668168934 -0.074975884792967476 -0.073694148751607166 -0.068158581782234565 -0.067257771559431995 -0.071595935448660247 -0.068307768752753545 -0.067024772835516611 -0.0660525459610313 -0.070689380283368117 -0.065624746511575155 -0.063569282415427641 -0.065585579579168163 -0.068313336628060106 -0.063926066255802827 -0.068895813492746122 -0.068316388303344161 -0.067026939871436791 -0.06615759579870345 -0.063252356204761828 -0.065599072182987161 -0.064575168992661414 -0.061844451173056869 -0.066424770388850973 -0.06202463427571081 -0.060892248072627497 -0.063603809566080277 -0.061246153705286854 -0.059982984722548149 -0.061971117036070694 -0.060320865054921874 -0.059263281802319601 -0.062314848896563996 -0.065388816102148278 -0.061790559282560498 -0.062784996868821094 -0.062476761811882608 -0.062508573871400047 -0.06189902228855057 -0.062984358720389738 -0.058837752874494331 -0.061359872924228398 -0.060366167378835558 -0.059420246090457984 -0.059201023084374582 -0.060265912909998665 -0.059264287785526504 -0.058720413216393264 -0.058609512740261827 -0.062766634221797624 -0.059721720063685563 -0.059435563426201737 -0.060465388777422358 -0.062742877376623013 -0.06504597941590734 -0.062448676533480678 -0.065575666129016885 -0.062681333269833606 -0.068706196324315502 -0.063865342348084525 -0.066849772095876669 -0.066324601499958863 -0.065184436567420082 -0.069375511021420935 -0.066533211450486865 -0.064693024175501976 -0.062756649473367204 -0.065672346069275259 -0.051550525216743304 -0.052901313024959595 -0.053001048250420735 -0.051248877341829813 -0.050143142199757573 -0.050107535273561599 -0.04920408270899649 -0.048890413679571698 -0.048127770610787546 -0.047630066273647298 -0.048623020388974036 -0.049378301721317186 -0.050963886408253667 -0.051423327282545284 -0.04940395413089127 -0.055557848841072954 -0.051160822117188753 -0.055979696468242301 -0.050758828382541255 -0.056112055086441071 -0.058280673061065102 -0.056232170250880134 -0.054728455292937572 -0.057539615192644798 -0.057315092376036547 -0.057423734577099921 -0.056676635722493318 -0.053850601698572975 -0.053279609530453131 -0.056392865991983759 -0.055196480932143688 -0.054668911252913122 -0.056931378482489525 -0.055597533311349381 -0.059213396229989057 -0.057564821687909745 -0.057013216728079574 -0.05719454810545363 -0.058209407037061671 -0.059633595094660041 -0.057975232741476278 -0.060417439967857645 -0.058892427596208968 -0.056189514195435719 -0.058090776627643503 -0.056699555491581011 -0.05882719448280771 -0.057140706523959972 -0.056736253599903197 -0.055536475192856316 -0.055206269782020145 -0.055361964191027568 -0.055334094848004001 -0.054378535302290143 -0.054180048895890454 -0.053965970002332719 -0.053041401488880702 -0.053189220973853202 -0.054568012060857818 -0.051345090924222569 -0.051977471557047128 -0.052265947754835493 -0.053804657414806001 -0.052466850455974767 -0.05286612961935136 -0.053860036876376416 -0.054340002957043276 -0.054344331849713434 -0.055333242371843117 -0.055968661191952207 -0.055381116257300689 -0.055194321149001691 -0.056470980941491722 -0.056752264891914095 -0.056494563982984358 -0.055984152282045063 -0.056477237906440436 -0.05701979247773975 -0.057033720147239009 -0.056799960118866788 -0.056381545201267036 -0.05637982084079729 -0.055921622877718846 -0.056148636983381989 -0.059320231364557108 -0.059520038889206706 -0.059074549788847686 -0.058743534889227789 -0.058285082986835879 -0.057614565081047175 -0.058013475741421572 -0.057115563686577137 -0.057504131753692622 -0.057832398444603028 -0.057593038696397814 -0.057617168534408042 -0.059135272424459817 -0.059442694961969744 -0.060184763471069935 -0.060967039114701749 -0.060184447214761794 -0.058367743208901778 -0.059324248887324571 -0.060174064898422364 -0.057969827245468564 -0.057329164611485184 -0.057732832381924726 -0.058113228132109507 -0.057463951830358462 -0.057469520413790609 -0.056868639358001905 -0.057294923080770777 -0.055266086765887623 -0.057546149769726496 -0.055279983912781154 -0.058198027546709441 -0.056729696095961346 -0.057206135406722147 -0.057046346276670712 -0.057118639132332227 -0.057112563168093378 -0.056846869925808785 -0.055939337564570923 -0.057585701580793847 -0.056425907448024337 -0.057689817085800454 -0.057020640598531735 -0.057759097613551441 -0.056796159013452474 -0.057448130612514303 -0.058188776037631174 -0.057655313176279505 -0.058860578658480822 -0.05757092268356212 -0.057156044565254138 -0.056879504539353809 -0.057827289120193859 -0.056795625622435786 -0.057004447454822582 -0.057405780120962702 -0.057992289833808996 -0.057433836194204724 -0.058322455366097814 -0.058538235332171507 -0.05910634623688904 -0.058687107478958833 -0.059585124922652888 -0.05806793672323711 -0.059207809484713936 -0.060114904529351643 -0.05960400867086868 -0.060091995616591287 -0.058416834204861656 -0.057267668678933403 -0.05842005439705325 -0.056964801153560396 -0.058073988144157873 -0.057404520290322725 -0.056928641669200308 -0.056397942880953789 -0.056230765712538155 -0.05527143321846717 -0.056490188935418795 -0.056491386053352244 -0.056727460178395028 -0.055416312372985665 -0.055767156972178322 -0.055331973555965419 -0.054470611043891948 -0.054280911090677231 -0.053448938643797968 -0.053317102490172533 -0.053016437938618655 -0.054895383885567473 -0.05469641783566892 -0.053902223118480697 -0.053397953789778962 -0.054360161014948005 -0.053423396682209745 -0.054651279990026946 -0.054970168801239838 -0.053970108548928364 -0.054323739513677971 -0.054758570256946748 -0.055734059007337994 -0.055091069459630382 -0.055625477238500087 -0.05567790329176614 -0.056288787823469688 -0.056343429489909197 -0.056431658628285142 -0.056393176355897578 -0.056539189909936449 -0.055471004072157548 -0.055592187245894181 -0.057660100952362653 -0.059066524561679712 -0.059783791486280435 -0.058970849583952586 -0.060825464643098792 -0.061483926721873861 -0.062025112817420514 -0.061390149783534742 -0.060925644445631866 -0.05989587430539639 -0.061745212559158213 -0.06140339224396496 -0.059535834023923373 -0.058747773086328614 -0.058303083142382195 -0.056914495406051757 -0.057344934881373488 -0.057719947548883876 -0.057140922596514487 -0.058286361382510643 -0.058469896534007651 -0.060203190500080384 -0.060684267040004625 -0.061315126208012272 -0.059684708267728648 -0.059228446248108746 -0.060494945693152058 -0.060670548125424953 -0.058713077766109761 -0.058907395111132077 -0.05780864575576905 -0.05756130268948223 -0.057081810850808656 -0.055937324791950238 -0.055651890210903332 -0.054164887124564798 -0.053157981754283712 -0.054039463411194644 -0.054542151789496396 -0.05449620698926172 -0.052989383397996748 -0.053348213224348795 -0.055274742596974735 -0.055488005367086757 -0.055888020778775749 -0.0568650325358524 -0.056189510105214224 -0.056729718323682565 -0.055198730801564233 -0.054895222246492015 -0.053390311481030128 -0.053298134918250417 -0.053308519481637839 -0.053519907699646652 -0.051543263421361174 -0.052515694822116599 -0.053837378848162976 -0.055001403060666587 -0.055297682529870218 -0.055431936931640946 -0.057191914850750258 -0.047375231658980277 -0.045493568204400203 -0.047671587231898238 -0.046340556965952129 -0.047827344659951421 -0.050178826466137361 -0.051776615916550917 -0.049446801521231154 -0.04954990316329666 -0.051052275641187084 -0.050989761858298399 -0.051920941759531825 -0.048601983206717492 -0.048551325353462849 -0.047245337609436111 -0.048310355736279842 -0.048695989375813542 -0.049605509838495543 -0.048968563877563209 -0.050133007485996028 -0.050710521609925729 -0.051681370041302577 -0.051948308317872671 -0.051308318730267644 -0.050236749144658255 -0.051608970689378086 -0.050804665095755208 -0.052562025028298764 -0.051913027973019221 -0.052744646609311552 -0.051264521351032544 -0.050319660796437682 -0.050046320975375869 -0.04919503320553742 -0.049656574853287339 -0.048355118117939133 -0.048845238199519136 -0.04753224827481306 -0.04839201339582222 -0.047891167421060477 -0.04755029438396563 -0.046300833815545006 -0.045832990801003337 -0.045048473465572059 -0.04621895896340078 -0.046961867281611384 -0.045276981327405957 -0.043931584431302184 -0.045020791856007714 -0.045764805956008292 -0.046327495151917947 -0.046828671968771496 -0.047454796178521663 -0.046723710782606398 -0.045543673649794503 -0.045648659158890936 -0.044443792015460698 -0.04382098918975319 -0.042535281872813871 -0.042933557644881271 -0.043748136813035909 -0.043623467293984586 -0.041979833536399447 -0.041622860664712102 -0.043330620318595026 -0.043242741629388792 -0.044510721720373292 -0.044899636611026528 -0.045883368407051872 -0.051187611730904137 -0.050854348930484239 -0.049549569747228017 -0.050749743827943283 -0.050988382062546744 -0.05100809139045559 -0.051370607329015938 -0.052243781959911584 -0.052599206492217498 -0.053085402755616962 -0.053952479779782125 -0.053562763754627429 -0.052985841429864289 -0.051666788663325969 -0.052781609302806953 -0.052169510393098584 -0.053207070345012042 -0.052888668636678071 -0.05129042643423487 -0.052287076894813656 -0.052069352525576873 -0.052357609846632958 -0.051513156520292425 -0.051098808464187351 -0.049983895450607996 -0.049825032009236769 -0.050744359140442397 -0.05099043184098706 -0.050398626481430453 -0.049193462726549897 -0.049671577500499664 -0.049545070518533518 -0.048079904268440554 -0.048147004837799837 -0.048241908768151376 -0.048443200569563305 -0.048433561484552579 -0.048028838095841464 -0.048017082243640596 -0.048564708929168754 -0.049196323737809466 -0.047504864354397602 -0.04614529299412351 -0.045941325180432924 -0.045669959546759009 -0.041962704629363357 -0.045608429474952542 -0.046325332463220265 -0.047890426818842924 -0.047543243216966902 -0.047536914434866739 -0.049177678016006809 -0.049637053728836755 -0.049521763135053298 -0.049577670339458563 -0.049225438090418572 -0.045978923036252811 -0.047258995680531823 -0.048001238455514211 -0.046866453330662972 -0.046681498930890852 -0.044261576842012151 -0.043780594315375745 -0.041632228373105207 -0.043209005896519548 -0.041955350958693786 -0.041309534076269472 -0.042217107179627456 -0.037652711029062758 -0.038194263679612095 -0.040238001163483861 -0.039800484361775523 -0.043194207587017752 -0.040308528324352055 -0.042892459256453797 -0.042104129071906637 -0.039660433329888223 -0.039077094029239534 -0.045919377743343981 -0.028422116250464535 -0.039069536110273639 -0.048387578269195375 -0.033385778796305221 0.31992794566454208 -0.041089196280955198 -0.043491872253668573 -1.1830299216942315 -0.031315787355227442 -0.037810829916139113 -0.8944538118340688 -0.034273449388666055 -0.041575829244163698 -0.03624830283608893 -0.03849096169753019 -0.034284827987632882 -0.037103486728139234 -0.036834176220776227 -0.032522686616137886 -0.034990834764303091 -0.037007880407773364 -0.04113262180998567 -0.037324320757106566 -0.039237396399067759 -0.97205273413351279 -0.038809856917679353 -0.041299540917046684 -0.04065003091453534 -0.039016985625614176 -0.035046299064932729 -0.95052407215839807 -0.036626536375906515 -0.03483812790225449 -0.03665021545652114 -0.038453643949974414 -0.036457095507969051 -0.036884120642452389 -0.036866007539030687 -0.037381490149235863 -0.037020393063159324 -0.038394350893167895 -0.038165393760258848 -0.038328522439523463 -0.03910918684743192 -0.039775392504459273 -0.03921174689113946 -0.039998152188292391 -0.040689292811903477 -0.04054005254344073 -0.041346905373530349 -0.038928119733598165 -0.037777842035287779 -0.038216992614632073 -0.039455929758786867 -0.038464424985656387 -0.040057464474970939 -0.039050428719051844 -0.040450918519354007 -0.040525474137632411 -0.040698215710654351 -0.041283608817823114 -0.042434326015831747 -0.041643635415801405 -0.041006042600419956 -0.040656467059681567 -0.039837639621321141 -0.040324702469482832 -0.040809627945336657 -0.040910885113952578 -0.042236949769661636 -0.041348645298045383 -0.041924514985694605 -0.043641918462727247 -0.041895730684931909 -0.04448829417644351 -0.045433744486883976 -0.041843656827657366 -0.040654400949151764 -0.041566685759193422 -0.041113800602188139 -0.039830508184659941 -0.040205881523410758 -0.039654082903889387 -0.040198085696191654 -0.038280785416429652 -0.038458127575330181 -0.039229206369667896 -0.039073301250443337 -0.039354705211781749 -0.038699672314329747 -0.038345070990072561 -0.03890095268788607 -0.03890533842675159 -0.039606477734592582 -0.039580979894706936 -0.039764067226872868 -0.040049495098662929 -0.039379370823212412 -0.039652568888381451 -0.038834025707904285 -0.038930652646825381 -0.038919926213570655 -0.038145146173280298 -0.038216314187101079 -0.038252403263234758 -0.038362052257584711 -0.03754474145838782 -0.037865387624841484 -0.038191714700466561 -0.037767310865808756 -0.038739284748941172 -0.038781424517222662 -0.037426066024215186 -0.037080040830345773 -0.037603994731657542 -0.037321204997884605 -0.037474318366300441 -0.037315974728402646 -0.037599901194626195 -0.03733056752565922 -0.037687020076676792 -0.037883595320419072 -0.038083087262741788 -0.037760269198999996 -0.037318025456701598 -0.037342109697198644 -0.037220676826601518 -0.037263464966871052 -0.036743209121061549 -0.037271318484634719 -0.037156886000862865 -0.03767062314308145 -0.037628043366083386 -0.038258798681994444 -0.037676633861033038 -0.03761350384134321 -0.037863650664816895 -0.03797306154938096 -0.03834791050958497 -0.037555716274030204 -0.039126839539489477 -0.036762018768240257 -0.037569270724856274 -0.037399764433692771 -0.03610868359194172 -0.036952537216196513 -0.035099565498137419 -0.036338726818710754 -0.035322789392807641 -0.034921968615804433 -0.034360213404954015 -0.035519279245215918 -0.035189663623603096 -0.03664250096809063 -0.035748748111856354 -0.035768559602008088 -0.036824744220615546 -0.036387531515122973 -0.036435250157430099 -0.03686808787050122 -0.036792624805015439 -0.036916125493946517 -0.036938279461546708 -0.037130737968941174 -0.036460545185993953 -0.036381065549432323 -0.036850024338591192 -0.036932639336719308 -0.036863913321114605 -0.036985595845387964 -0.03713358943464326 -0.037204549057714864 -0.037223894166629634 -0.037289733241518963 -0.037307082931794522 -0.037069740076605351 -0.037070793453417128 -0.036872134376410015 -0.036395687355206041 -0.036001443605100714 -0.035855586374530235 -0.036402438333056619 -0.037393306374507773 -0.037351675434752707 -0.037556829083708665 -0.038311031954070929 -0.038779527032252875 -0.037419007623555323 -0.037286300593123434 -0.037111216988210599 -0.036298664144352122 -0.036432739126062041 -0.036087839863280902 -0.03214621716533006 -0.038476409901517128 -0.034533061566998424 -0.036200941715247903 -0.038921633108526477 -0.0352301872544033 -0.95899531909749314 -0.036411836218033344 -0.039670139111234848 -0.035193793945701435 -0.9464509578056024 -0.03525239923220691 -0.037847909348092013 -0.98841772951865892 -0.034077904155856639 -0.035675805341774947 -0.032164250979183961 -0.035473622426154261 -0.036463158332381562 -0.033856120303426218 -0.0353731116056967 -0.035290011318674042 -0.03781658863505899 -0.036524371750612614 -0.03706423057953101 -0.83073651924147285 -0.034684011377422386 -0.036133239316315541 -0.032956609592914798 -0.033174011152769856 -1.4204395692369758 -0.033332172709505281 -0.035396734053776635 -0.034240295807217769 -0.03210415413910761 -0.032340448056169313 -0.035354506655940643 -0.0341206579751967 -0.035335334807884033 -0.035097115103300713 -0.034605785894016083 -0.035697096181064092 -0.034882999848551588 -0.035604319643534499 -0.036309739519510172 -0.03499637404953293 -0.035902715225232251 -0.036704826400713098 -0.035571211531527647 -0.035938011379000351 -0.036018218785783596 -0.035004240065419412 -0.034763509804922266 -0.03528150710277389 -0.033917517996079005 -0.035485025667748804 -0.035244937500355122 -0.03529119230309602 -0.033129878806460344 -0.034087377211101659 -0.034469624402376997 -0.036619584473228328 -0.035774402013496465 -0.037325237042585224 -0.038188219932116518 -0.037226473015966266 -0.036268096398566707 -0.036636038427098616 -0.03660532010272477 -0.037186717947099268 -0.038203044457621571 -0.03791176137870389 -0.038786533416980462 -0.037721795854289919 -0.038329380215276265 -0.037746203819895685 -0.038808080904067774 -0.040140308738725761 -0.039154786427103572 -0.039878717231266458 -0.040253378959890868 -0.040971524698663164 -0.04044543780782045 -0.040053187983464689 -0.039341336469371012 -0.039061671042305068 -0.038336338446444913 -0.039128832973233385 -0.048438379393666908 -0.9638189173924836 -0.045082836215413369 -0.044228014519533149 -0.040485748022419887 -0.042403350714457971 -0.043119530748860879 -0.040570644586718829 -0.044938779022005548 -0.040677303849393942 -0.041671067448736998 -0.03951127081518413 -0.03773001322914471 -0.040882412887194519 -0.042943073737647608 -0.03871261547913557 -0.98991086562443087 -0.043014595064471139 -0.042639313837602999 -0.95110065176046277 -0.040855828945556283 -0.84027430542567316 -0.037959190505081064 -0.038953588217722775 -0.034459048825825511 -0.03825449800653262 -0.036794096343100269 -0.042254143461760263 -0.038586866049378686 -0.034639114236571733 -0.032649543308402973 -0.032320737303234814 -0.033412942316554672 -0.034165039189691673 -0.033380906253954179 -1.3941055355294942 -0.03284050993837806 -0.033438589077693814 -0.033085946637343926 -0.033378401372644473 -0.036683334505133669 -0.0353304972965005 -0.035021654220977694 -0.037368685721321709 -0.045013133173248815 -0.034736704748369096 -0.042482650142498246 -0.044466169175700176 -0.049410271166239667 -0.04810446825323289 -0.043693993492736193 -0.040349015893880513 -0.03821880463107398 -0.065058466131933904 -0.092390472832046475 -0.09614779191540368 -0.043895994015803241 -0.073207596778652712 -0.044278368138837981 -0.050749732336734021 -0.046765239075719445 -0.037007198410420349 -0.045029241082672283 -0.055448056785269137 -0.064283128032937675 -0.05748614020798079 -0.057558284506360087 -0.066323383766505109 -0.070351380182874526 -0.070386482083461113 -0.065049955337362256 -0.057322269837469582 -0.057062301046975045 -0.060793390531328637 -0.060387329810153045 -0.050555329569114071 -0.052855977081517388 -0.055273474608987461 -0.058162811863770397 -0.058678113824625386 -0.053448001444749843 -0.059549841177308188 -0.062585663556315799 -0.059630260894408246 -0.060740869553305772 -0.064728256031255704 -0.057982621979534459 -0.04583481025373809 -0.048375858960393425 -0.045450392985583898 -0.04267292356909691 -0.04967416345231207 -0.049233322173175387 -0.047227320277404006 -0.04955168216216202 -0.052419884261393504 -0.051741268488672415 -0.055230183671323589 -0.048301884167024911 -0.050844308050661868 -0.045711155307926632 -0.047739302517761484 -0.050083864123727617 -0.04926435417151015 -0.051643891276255183 -0.04857547816459068 -0.052405284183066669 -0.05249554393156225 -0.051092783458466129 -0.053446318827374426 -0.056218390841366803 -0.053533804976925947 -0.054915790688107202 -0.054310168768587325 -0.055896551727282001 -0.057674556589903725 -0.053840284307228162 -0.054091822396941214 -0.053343965032285001 -0.055504645804228772 -0.052138709283035156 -0.061536428201337659 -0.061103031298348758 -0.060980405877632995 -0.063875487808744275 -0.059075834651660837 -0.056229386687957225 -0.061102161279600109 -0.055415698708582747 -0.058868335774507841 -0.058072231487736534 -0.05842196009984979 -0.059557632990603182 -0.058751595839867429 -0.061368275289215804 -0.061677110394926522 -0.060517781059033854 -0.062827196472723779 -0.06037897161877407 -0.06544264920824043 -0.066881087341142106 -0.066258360746068071 -0.061167984521000369 -0.063650225198906674 -0.061397328342231675 -0.06009704399629015 -0.060169292435088645 -0.061322505471119226 -0.059721329023956722 -0.061009223644947833 -0.063223366897110583 -0.063980969366217694 -0.062512761567790204 -0.062593916883021142 -0.068241370165071077 -0.056679226151579921 -0.055439787273872942 -0.056305035836626743 -0.055102519719876453 -0.057758589478021455 -0.05911431451823268 -0.056896789018433258 -0.05906089292194483 -0.061312450969261439 -0.060482868821630176 -0.060002423580451131 -0.057543511557566443 -0.057216715289002795 -0.056135477863839697 -0.059332065295195462 -0.042908825812711826 -0.054927642874381732 -0.46942475307569254 -0.050788341037024662 -0.056653256231170679 -1.0150074133637936 -0.053234381679217513 -0.95245958989200119 -0.056917181384838367 -0.051916921687880369 -0.043975127323992225 -0.044784320615261164 -0.047249269768839308 -0.043143926151405498 -0.046346337412950078 -0.041966334396340843 -0.048888682038532583 -0.047393060401770992 -0.045501515309047447 -0.046137439001859792 -0.046424528071868865 -0.045061873564589905 -0.047211301560158299 -0.044599149844125496 -0.043030539600739701 -0.044302958885128807 -0.043911793206559246 -0.04441398082998238 -0.043329794284573397 -0.044125827312764501 -0.043872421613031065 -0.044239537775896398 -0.043558245680930585 -0.042203429619729643 -0.043087077994231393 -0.042772100512002087 -0.042025383377142345 -0.042572830852346713 -0.042972652934512356 -0.041859755906985652 -0.041024978460153197 -0.039849223579863424 -0.040972490689688001 -0.040451235558920384 -0.042478509190955638 -0.041696404289475075 -0.042162589088615074 -0.041117462090359602 -0.042615512046178639 -0.041605474605093007 -0.042505069523011474 -0.042381722599785898 -0.043599235397601799 -0.046557716459684095 -0.047651082145285295 -0.96213301619334857 -0.044673454428143966 -0.045613545618757245 -0.052883557097258088 -0.04987764437311154 -0.045870969241635667 -0.96787976094804051 -0.048704167255972375 -0.052894490543668016 -0.051705853280461123 -0.042432471661939808 -0.04541984157685991 -0.045018146812650983 -0.042256860421418019 
</DataArray>
</CellData>
</Piece>
</UnstructuredGrid>
</VTKFile>
