<?xml version="1.0"?>
<VTKFile type="UnstructuredGrid" version="0.1" byte_order="LittleEndian">
<UnstructuredGrid>
<Piece NumberOfPoints="3142" NumberOfCells="1054">
<Points>
<DataArray type="Float64" NumberOfComponents="3" format="ascii">
0.02576622439977887 0.024532886826226379 0 0 0 0 0.049999999999899652 0 0 0.02576622439977887 0.024532886826226379 0 0 0 0 0 0.050000000000207989 0 0.02576622439977887 0.024532886826226379 0 0.049999999999899652 0 0 0.053064897599215843 0.048131547304697528 0 0.02576622439977887 0.024532886826226379 0 0.053064897599215843 0.048131547304697528 0 0 0.050000000000207989 0 0 0.050000000000207989 0 0 0.10000000000041601 0 0.044310582753132287 0.101412518374475 0 0 0.10000000000041601 0 0.044310582753132287 0.101412518374475 0 0 0.15000000000062411 0 0.053064897599215843 0.048131547304697528 0 0.044310582753132287 0.101412518374475 0 0.083411279318303222 0.089699755330707398 0 0.053064897599215843 0.048131547304697528 0 0 0.050000000000207989 0 0.044310582753132287 0.101412518374475 0 0.044310582753132287 0.101412518374475 0 0.083411279318303222 0.089699755330707398 0 0.065374659239632718 0.1448908038746782 0 0.083411279318303222 0.089699755330707398 0 0.065374659239632718 0.1448908038746782 0 0.1053400320299198 0.12877248826361379 0 0.083411279318303222 0.089699755330707398 0 0.12372429750337779 0.095814237875728972 0 0.1053400320299198 0.12877248826361379 0 0.12372429750337779 0.095814237875728972 0 0.1053400320299198 0.12877248826361379 0 0.14332333627550789 0.14578431753966009 0 0.12372429750337779 0.095814237875728972 0 0.10266856499169109 0.044518360900210059 0 0.14618258501891079 0.062070108745602003 0 0.083411279318303222 0.089699755330707398 0 0.12372429750337779 0.095814237875728972 0 0.10266856499169109 0.044518360900210059 0 0.10266856499169109 0.044518360900210059 0 0.099999999999814668 0 0 0.14999999999970359 0 0 0.049999999999899652 0 0 0.053064897599215843 0.048131547304697528 0 0.099999999999814668 0 0 0.053064897599215843 0.048131547304697528 0 0.10266856499169109 0.044518360900210059 0 0.099999999999814668 0 0 0.053064897599215843 0.048131547304697528 0 0.083411279318303222 0.089699755330707398 0 0.10266856499169109 0.044518360900210059 0 0.044081577119474857 0.2271058242433576 0 0 0.20000000000083221 0 0 0.25000000000104028 0 0.044081577119474857 0.2271058242433576 0 0 0.20000000000083221 0 0.038512288486115001 0.1844147282893184 0 0.044081577119474857 0.2271058242433576 0 0.038512288486115001 0.1844147282893184 0 0.083105206071467416 0.20007701332709979 0 0.038512288486115001 0.1844147282893184 0 0 0.15000000000062411 0 0.065374659239632718 0.1448908038746782 0 0.044310582753132287 0.101412518374475 0 0 0.15000000000062411 0 0.065374659239632718 0.1448908038746782 0 0.038512288486115001 0.1844147282893184 0 0.065374659239632718 0.1448908038746782 0 0.083105206071467416 0.20007701332709979 0 0 0.20000000000083221 0 0.038512288486115001 0.1844147282893184 0 0 0.15000000000062411 0 0.065374659239632718 0.1448908038746782 0 0.1053400320299198 0.12877248826361379 0 0.106902708054812 0.16453234188234539 0 0.1053400320299198 0.12877248826361379 0 0.106902708054812 0.16453234188234539 0 0.14332333627550789 0.14578431753966009 0 0.065374659239632718 0.1448908038746782 0 0.106902708054812 0.16453234188234539 0 0.083105206071467416 0.20007701332709979 0 0.083105206071467416 0.20007701332709979 0 0.095326043202144745 0.24554465089224409 0 0.13737030665753211 0.20313708640667491 0 0.106902708054812 0.16453234188234539 0 0.083105206071467416 0.20007701332709979 0 0.13737030665753211 0.20313708640667491 0 0.044081577119474857 0.2271058242433576 0 0.083105206071467416 0.20007701332709979 0 0.095326043202144745 0.24554465089224409 0 0.044081577119474857 0.2271058242433576 0 0.095326043202144745 0.24554465089224409 0 0.049706944316556423 0.27522722923869108 0 0.095326043202144745 0.24554465089224409 0 0.14377654328998779 0.2442024734791064 0 0.13737030665753211 0.20313708640667491 0 0.17933913398461551 0.2350063570234002 0 0.14377654328998779 0.2442024734791064 0 0.13737030665753211 0.20313708640667491 0 0.17933913398461551 0.2350063570234002 0 0.13737030665753211 0.20313708640667491 0 0.18124454140915969 0.18790916706335251 0 0.18124454140915969 0.18790916706335251 0 0.14332333627550789 0.14578431753966009 0 0.18652628422869419 0.14162325200928061 0 0.106902708054812 0.16453234188234539 0 0.13737030665753211 0.20313708640667491 0 0.14332333627550789 0.14578431753966009 0 0.13737030665753211 0.20313708640667491 0 0.18124454140915969 0.18790916706335251 0 0.14332333627550789 0.14578431753966009 0 0.14332333627550789 0.14578431753966009 0 0.18652628422869419 0.14162325200928061 0 0.16141998738593399 0.10404039647458049 0 0.18652628422869419 0.14162325200928061 0 0.22985637510995899 0.1298347970200906 0 0.2185883431182947 0.18019736283949719 0 0.22985637510995899 0.1298347970200906 0 0.2185883431182947 0.18019736283949719 0 0.25557216766470708 0.15874861286892261 0 0.2185883431182947 0.18019736283949719 0 0.25557216766470708 0.15874861286892261 0 0.26429849586623999 0.19346700179430079 0 0.18124454140915969 0.18790916706335251 0 0.18652628422869419 0.14162325200928061 0 0.2185883431182947 0.18019736283949719 0 0.17933913398461551 0.2350063570234002 0 0.18124454140915969 0.18790916706335251 0 0.224700362040408 0.22206622194729711 0 0.18124454140915969 0.18790916706335251 0 0.2185883431182947 0.18019736283949719 0 0.224700362040408 0.22206622194729711 0 0.2185883431182947 0.18019736283949719 0 0.224700362040408 0.22206622194729711 0 0.26429849586623999 0.19346700179430079 0 0.224700362040408 0.22206622194729711 0 0.25195515620380449 0.25883339815888678 0 0.21049769590865089 0.26857363548218488 0 0.17933913398461551 0.2350063570234002 0 0.224700362040408 0.22206622194729711 0 0.21049769590865089 0.26857363548218488 0 0.184418230509967 0.038773194583122873 0 0.14999999999970359 0 0 0.14618258501891079 0.062070108745602003 0 0.184418230509967 0.038773194583122873 0 0.14618258501891079 0.062070108745602003 0 0.19922788606653311 0.085920220746880993 0 0.184418230509967 0.038773194583122873 0 0.14999999999970359 0 0 0.19999999999955789 0 0 0.10266856499169109 0.044518360900210059 0 0.14999999999970359 0 0 0.14618258501891079 0.062070108745602003 0 0.12372429750337779 0.095814237875728972 0 0.14618258501891079 0.062070108745602003 0 0.16141998738593399 0.10404039647458049 0 0.12372429750337779 0.095814237875728972 0 0.14332333627550789 0.14578431753966009 0 0.16141998738593399 0.10404039647458049 0 0.18652628422869419 0.14162325200928061 0 0.16141998738593399 0.10404039647458049 0 0.19922788606653311 0.085920220746880993 0 0.14618258501891079 0.062070108745602003 0 0.16141998738593399 0.10404039647458049 0 0.19922788606653311 0.085920220746880993 0 0.18652628422869419 0.14162325200928061 0 0.22985637510995899 0.1298347970200906 0 0.19922788606653311 0.085920220746880993 0 0.22985637510995899 0.1298347970200906 0 0.19922788606653311 0.085920220746880993 0 0.24218496799700481 0.089025544070598317 0 0.22985637510995899 0.1298347970200906 0 0.24218496799700481 0.089025544070598317 0 0.27474541102162192 0.11822029332053539 0 0.19922788606653311 0.085920220746880993 0 0.24218496799700481 0.089025544070598317 0 0.22668068146512929 0.045875643423131329 0 0.24218496799700481 0.089025544070598317 0 0.22668068146512929 0.045875643423131329 0 0.27499999999933927 0.060310814194988557 0 0.184418230509967 0.038773194583122873 0 0.19922788606653311 0.085920220746880993 0 0.22668068146512929 0.045875643423131329 0 0.184418230509967 0.038773194583122873 0 0.22668068146512929 0.045875643423131329 0 0.19999999999955789 0 0 0.22668068146512929 0.045875643423131329 0 0.19999999999955789 0 0 0.24999999999941211 0 0 0.24999999999941211 0 0 0.27499999999933927 0.060310814194988557 0 0.29999999999926641 0 0 0.22668068146512929 0.045875643423131329 0 0.24999999999941211 0 0 0.27499999999933927 0.060310814194988557 0 0.27499999999933927 0.060310814194988557 0 0.29999999999926641 0 0 0.32541448401678508 0.046215317981507749 0 0.29999999999926641 0 0 0.32541448401678508 0.046215317981507749 0 0.34999999999912063 0 0 0.32541448401678508 0.046215317981507749 0 0.3615861437013822 0.03582617922508851 0 0.35312867752657662 0.084946736076730367 0 0.3615861437013822 0.03582617922508851 0 0.35312867752657662 0.084946736076730367 0 0.39591832466117061 0.056982757562006353 0 0.32541448401678508 0.046215317981507749 0 0.3615861437013822 0.03582617922508851 0 0.34999999999912063 0 0 0.3615861437013822 0.03582617922508851 0 0.34999999999912063 0 0 0.3999999999989749 0 0 0.35312867752657662 0.084946736076730367 0 0.36246644853392812 0.1399454205365751 0 0.39823268594401579 0.1116623613130045 0 0.35312867752657662 0.084946736076730367 0 0.32215584939770009 0.1218492143506909 0 0.36246644853392812 0.1399454205365751 0 0.32541448401678508 0.046215317981507749 0 0.35312867752657662 0.084946736076730367 0 0.3096713403101819 0.085471541595262421 0 0.35312867752657662 0.084946736076730367 0 0.32215584939770009 0.1218492143506909 0 0.3096713403101819 0.085471541595262421 0 0.32215584939770009 0.1218492143506909 0 0.3096713403101819 0.085471541595262421 0 0.27474541102162192 0.11822029332053539 0 0.27499999999933927 0.060310814194988557 0 0.32541448401678508 0.046215317981507749 0 0.3096713403101819 0.085471541595262421 0 0.27499999999933927 0.060310814194988557 0 0.3096713403101819 0.085471541595262421 0 0.27474541102162192 0.11822029332053539 0 0.24218496799700481 0.089025544070598317 0 0.27499999999933927 0.060310814194988557 0 0.27474541102162192 0.11822029332053539 0 0.22985637510995899 0.1298347970200906 0 0.27474541102162192 0.11822029332053539 0 0.25557216766470708 0.15874861286892261 0 0.27474541102162192 0.11822029332053539 0 0.25557216766470708 0.15874861286892261 0 0.29336099386129338 0.15892013001050981 0 0.25557216766470708 0.15874861286892261 0 0.29336099386129338 0.15892013001050981 0 0.26429849586623999 0.19346700179430079 0 0.29336099386129338 0.15892013001050981 0 0.31255190597181792 0.19850845631528771 0 0.33084213324567391 0.16272720141332131 0 0.29336099386129338 0.15892013001050981 0 0.26429849586623999 0.19346700179430079 0 0.31255190597181792 0.19850845631528771 0 0.32215584939770009 0.1218492143506909 0 0.27474541102162192 0.11822029332053539 0 0.29336099386129338 0.15892013001050981 0 0.224700362040408 0.22206622194729711 0 0.28040350263641872 0.23054717217092141 0 0.25195515620380449 0.25883339815888678 0 0.224700362040408 0.22206622194729711 0 0.28040350263641872 0.23054717217092141 0 0.26429849586623999 0.19346700179430079 0 0.28040350263641872 0.23054717217092141 0 0.26429849586623999 0.19346700179430079 0 0.31255190597181792 0.19850845631528771 0 0.28040350263641872 0.23054717217092141 0 0.33758650185219202 0.23837101504325639 0 0.29132859388405002 0.27203693976649962 0 0.28040350263641872 0.23054717217092141 0 0.33758650185219202 0.23837101504325639 0 0.31255190597181792 0.19850845631528771 0 0.33758650185219202 0.23837101504325639 0 0.31255190597181792 0.19850845631528771 0 0.3572130504031617 0.1874703368446563 0 0.33758650185219202 0.23837101504325639 0 0.3572130504031617 0.1874703368446563 0 0.38831533174504851 0.2189834941785925 0 0.33758650185219202 0.23837101504325639 0 0.38831533174504851 0.2189834941785925 0 0.3786248352540974 0.27082301512024259 0 0.32215584939770009 0.1218492143506909 0 0.29336099386129338 0.15892013001050981 0 0.33084213324567391 0.16272720141332131 0 0.32215584939770009 0.1218492143506909 0 0.33084213324567391 0.16272720141332131 0 0.36246644853392812 0.1399454205365751 0 0.31255190597181792 0.19850845631528771 0 0.33084213324567391 0.16272720141332131 0 0.3572130504031617 0.1874703368446563 0 0.3572130504031617 0.1874703368446563 0 0.36246644853392812 0.1399454205365751 0 0.39801143831225599 0.16651381068160659 0 0.33084213324567391 0.16272720141332131 0 0.3572130504031617 0.1874703368446563 0 0.36246644853392812 0.1399454205365751 0 0.36246644853392812 0.1399454205365751 0 0.39801143831225599 0.16651381068160659 0 0.39823268594401579 0.1116623613130045 0 0.39801143831225599 0.16651381068160659 0 0.42905200079338551 0.19982395548231649 0 0.44288491854585582 0.14116182884956319 0 0.39801143831225599 0.16651381068160659 0 0.44288491854585582 0.14116182884956319 0 0.39823268594401579 0.1116623613130045 0 0.38831533174504851 0.2189834941785925 0 0.42377727103934271 0.25099357235810238 0 0.3786248352540974 0.27082301512024259 0 0.3572130504031617 0.1874703368446563 0 0.39801143831225599 0.16651381068160659 0 0.38831533174504851 0.2189834941785925 0 0.39801143831225599 0.16651381068160659 0 0.38831533174504851 0.2189834941785925 0 0.42905200079338551 0.19982395548231649 0 0.38831533174504851 0.2189834941785925 0 0.42905200079338551 0.19982395548231649 0 0.42377727103934271 0.25099357235810238 0 0.42905200079338551 0.19982395548231649 0 0.46429753744194407 0.22870891180733599 0 0.42377727103934271 0.25099357235810238 0 0.42905200079338551 0.19982395548231649 0 0.46429753744194407 0.22870891180733599 0 0.47357141910802508 0.1873585799078378 0 0.47357141910802508 0.1873585799078378 0 0.51729576145820033 0.1683240575987815 0 0.50760557329222289 0.20700468884612061 0 0.46429753744194407 0.22870891180733599 0 0.47357141910802508 0.1873585799078378 0 0.50760557329222289 0.20700468884612061 0 0.46429753744194407 0.22870891180733599 0 0.49695729691142171 0.25014895411178018 0 0.50760557329222289 0.20700468884612061 0 0.44288491854585582 0.14116182884956319 0 0.47357141910802508 0.1873585799078378 0 0.48466639505193998 0.1421439844745814 0 0.42905200079338551 0.19982395548231649 0 0.44288491854585582 0.14116182884956319 0 0.47357141910802508 0.1873585799078378 0 0.47357141910802508 0.1873585799078378 0 0.48466639505193998 0.1421439844745814 0 0.51729576145820033 0.1683240575987815 0 0.44288491854585582 0.14116182884956319 0 0.48466639505193998 0.1421439844745814 0 0.47881186583059909 0.093591717165689425 0 0.48466639505193998 0.1421439844745814 0 0.47881186583059909 0.093591717165689425 0 0.51076801031701946 0.1202837388510348 0 0.44288491854585582 0.14116182884956319 0 0.47881186583059909 0.093591717165689425 0 0.43698630808430822 0.080423614171545449 0 0.47881186583059909 0.093591717165689425 0 0.47040171442036788 0.044141676406503738 0 0.43698630808430822 0.080423614171545449 0 0.47881186583059909 0.093591717165689425 0 0.47040171442036788 0.044141676406503738 0 0.52375890611712683 0.059318771819432882 0 0.47040171442036788 0.044141676406503738 0 0.49999999999869432 0 0 0.52375890611712683 0.059318771819432882 0 0.47040171442036788 0.044141676406503738 0 0.49999999999869432 0 0 0.44999999999882923 0 0 0.47040171442036788 0.044141676406503738 0 0.44999999999882923 0 0 0.4320097814748517 0.037406712692169303 0 0.47040171442036788 0.044141676406503738 0 0.4320097814748517 0.037406712692169303 0 0.43698630808430822 0.080423614171545449 0 0.4320097814748517 0.037406712692169303 0 0.3999999999989749 0 0 0.39591832466117061 0.056982757562006353 0 0.4320097814748517 0.037406712692169303 0 0.39591832466117061 0.056982757562006353 0 0.43698630808430822 0.080423614171545449 0 0.44999999999882923 0 0 0.4320097814748517 0.037406712692169303 0 0.3999999999989749 0 0 0.3615861437013822 0.03582617922508851 0 0.3999999999989749 0 0 0.39591832466117061 0.056982757562006353 0 0.35312867752657662 0.084946736076730367 0 0.39591832466117061 0.056982757562006353 0 0.39823268594401579 0.1116623613130045 0 0.44288491854585582 0.14116182884956319 0 0.39823268594401579 0.1116623613130045 0 0.43698630808430822 0.080423614171545449 0 0.39591832466117061 0.056982757562006353 0 0.39823268594401579 0.1116623613130045 0 0.43698630808430822 0.080423614171545449 0 0.42161023666869668 0.39493916313643851 0 0.38707855792647411 0.42299362914874578 0 0.43249999999999988 0.43937499999999979 0 0.42161023666869668 0.39493916313643851 0 0.38083244760691543 0.38531983672244652 0 0.38707855792647411 0.42299362914874578 0 0.42161023666869668 0.39493916313643851 0 0.38083244760691543 0.38531983672244652 0 0.40076539126862748 0.34589349467022118 0 0.38707855792647411 0.42299362914874578 0 0.3908716102680424 0.47010282357248828 0 0.43249999999999988 0.43937499999999979 0 0.3908716102680424 0.47010282357248828 0 0.43507373378304309 0.49699695397193322 0 0.38244435121258652 0.51653317813019495 0 0.3908716102680424 0.47010282357248828 0 0.43507373378304309 0.49699695397193322 0 0.43249999999999988 0.43937499999999979 0 0.43507373378304309 0.49699695397193322 0 0.43249999999999988 0.43937499999999979 0 0.46111841286828259 0.46690301029591341 0 0.43249999999999988 0.43937499999999979 0 0.46111841286828259 0.46690301029591341 0 0.48858720058566618 0.43964267759203868 0 0.43507373378304309 0.49699695397193322 0 0.46111841286828259 0.46690301029591341 0 0.49102375406324739 0.49123754822244059 0 0.46111841286828259 0.46690301029591341 0 0.49102375406324739 0.49123754822244059 0 0.48858720058566618 0.43964267759203868 0 0.48858720058566618 0.43964267759203868 0 0.46655310992796922 0.39650496622958609 0 0.52289427570932567 0.3932284363388488 0 0.43249999999999988 0.43937499999999979 0 0.48858720058566618 0.43964267759203868 0 0.46655310992796922 0.39650496622958609 0 0.42161023666869668 0.39493916313643851 0 0.43249999999999988 0.43937499999999979 0 0.46655310992796922 0.39650496622958609 0 0.42161023666869668 0.39493916313643851 0 0.46655310992796922 0.39650496622958609 0 0.4409427642593301 0.35743108089689513 0 0.46655310992796922 0.39650496622958609 0 0.49077833859261139 0.35229981449445641 0 0.52289427570932567 0.3932284363388488 0 0.49077833859261139 0.35229981449445641 0 0.46226845272279993 0.31901800744800313 0 0.5 0.29999999999999999 0 0.49077833859261139 0.35229981449445641 0 0.46226845272279993 0.31901800744800313 0 0.4409427642593301 0.35743108089689513 0 0.46226845272279993 0.31901800744800313 0 0.4409427642593301 0.35743108089689513 0 0.41914690343363781 0.30688979866601612 0 0.46655310992796922 0.39650496622958609 0 0.49077833859261139 0.35229981449445641 0 0.4409427642593301 0.35743108089689513 0 0.49695729691142171 0.25014895411178018 0 0.4604742573284204 0.27846934318264788 0 0.5 0.29999999999999999 0 0.46429753744194407 0.22870891180733599 0 0.49695729691142171 0.25014895411178018 0 0.4604742573284204 0.27846934318264788 0 0.46226845272279993 0.31901800744800313 0 0.4604742573284204 0.27846934318264788 0 0.5 0.29999999999999999 0 0.46226845272279993 0.31901800744800313 0 0.4604742573284204 0.27846934318264788 0 0.41914690343363781 0.30688979866601612 0 0.46429753744194407 0.22870891180733599 0 0.4604742573284204 0.27846934318264788 0 0.42377727103934271 0.25099357235810238 0 0.4604742573284204 0.27846934318264788 0 0.42377727103934271 0.25099357235810238 0 0.41914690343363781 0.30688979866601612 0 0.42377727103934271 0.25099357235810238 0 0.41914690343363781 0.30688979866601612 0 0.3786248352540974 0.27082301512024259 0 0.41914690343363781 0.30688979866601612 0 0.3786248352540974 0.27082301512024259 0 0.36575549820117997 0.31677992835137742 0 0.42161023666869668 0.39493916313643851 0 0.4409427642593301 0.35743108089689513 0 0.40076539126862748 0.34589349467022118 0 0.4409427642593301 0.35743108089689513 0 0.41914690343363781 0.30688979866601612 0 0.40076539126862748 0.34589349467022118 0 0.41914690343363781 0.30688979866601612 0 0.40076539126862748 0.34589349467022118 0 0.36575549820117997 0.31677992835137742 0 0.40076539126862748 0.34589349467022118 0 0.36575549820117997 0.31677992835137742 0 0.33277555741076909 0.36432196682010132 0 0.38083244760691543 0.38531983672244652 0 0.40076539126862748 0.34589349467022118 0 0.33277555741076909 0.36432196682010132 0 0.36575549820117997 0.31677992835137742 0 0.32752639306529541 0.32610012995269699 0 0.33277555741076909 0.36432196682010132 0 0.32752639306529541 0.32610012995269699 0 0.33277555741076909 0.36432196682010132 0 0.29644548887253103 0.34914008784168082 0 0.33758650185219202 0.23837101504325639 0 0.3786248352540974 0.27082301512024259 0 0.33402499257867951 0.28911035184473982 0 0.3786248352540974 0.27082301512024259 0 0.36575549820117997 0.31677992835137742 0 0.33402499257867951 0.28911035184473982 0 0.36575549820117997 0.31677992835137742 0 0.32752639306529541 0.32610012995269699 0 0.33402499257867951 0.28911035184473982 0 0.32752639306529541 0.32610012995269699 0 0.33402499257867951 0.28911035184473982 0 0.29348325746214782 0.31350119524708198 0 0.33758650185219202 0.23837101504325639 0 0.33402499257867951 0.28911035184473982 0 0.29132859388405002 0.27203693976649962 0 0.33402499257867951 0.28911035184473982 0 0.29132859388405002 0.27203693976649962 0 0.29348325746214782 0.31350119524708198 0 0.29132859388405002 0.27203693976649962 0 0.29348325746214782 0.31350119524708198 0 0.24432083401701241 0.3006253385567515 0 0.29132859388405002 0.27203693976649962 0 0.25195515620380449 0.25883339815888678 0 0.24432083401701241 0.3006253385567515 0 0.28040350263641872 0.23054717217092141 0 0.29132859388405002 0.27203693976649962 0 0.25195515620380449 0.25883339815888678 0 0.33277555741076909 0.36432196682010132 0 0.29644548887253103 0.34914008784168082 0 0.27866744612395528 0.38416094670951489 0 0.32752639306529541 0.32610012995269699 0 0.29644548887253103 0.34914008784168082 0 0.29348325746214782 0.31350119524708198 0 0.29644548887253103 0.34914008784168082 0 0.29348325746214782 0.31350119524708198 0 0.25966125648670141 0.34351016742083729 0 0.29348325746214782 0.31350119524708198 0 0.25966125648670141 0.34351016742083729 0 0.24432083401701241 0.3006253385567515 0 0.29644548887253103 0.34914008784168082 0 0.25966125648670141 0.34351016742083729 0 0.27866744612395528 0.38416094670951489 0 0.25966125648670141 0.34351016742083729 0 0.27866744612395528 0.38416094670951489 0 0.22033343844674469 0.36963382230740238 0 0.27866744612395528 0.38416094670951489 0 0.29124338931648802 0.43334555462578611 0 0.24049127783545701 0.41270748208749802 0 0.29124338931648802 0.43334555462578611 0 0.25982634974572738 0.46097799597715272 0 0.24049127783545701 0.41270748208749802 0 0.27866744612395528 0.38416094670951489 0 0.29124338931648802 0.43334555462578611 0 0.31778888742534622 0.40581751814196781 0 0.33277555741076909 0.36432196682010132 0 0.27866744612395528 0.38416094670951489 0 0.31778888742534622 0.40581751814196781 0 0.33277555741076909 0.36432196682010132 0 0.31778888742534622 0.40581751814196781 0 0.35221190152536241 0.40457127605439203 0 0.31778888742534622 0.40581751814196781 0 0.35221190152536241 0.40457127605439203 0 0.34258405725730701 0.4444034294386992 0 0.29124338931648802 0.43334555462578611 0 0.31778888742534622 0.40581751814196781 0 0.34258405725730701 0.4444034294386992 0 0.38707855792647411 0.42299362914874578 0 0.35221190152536241 0.40457127605439203 0 0.34258405725730701 0.4444034294386992 0 0.38083244760691543 0.38531983672244652 0 0.38707855792647411 0.42299362914874578 0 0.35221190152536241 0.40457127605439203 0 0.38083244760691543 0.38531983672244652 0 0.33277555741076909 0.36432196682010132 0 0.35221190152536241 0.40457127605439203 0 0.3908716102680424 0.47010282357248828 0 0.35024835142131061 0.48654922671676981 0 0.38244435121258652 0.51653317813019495 0 0.3908716102680424 0.47010282357248828 0 0.35024835142131061 0.48654922671676981 0 0.34258405725730701 0.4444034294386992 0 0.38707855792647411 0.42299362914874578 0 0.3908716102680424 0.47010282357248828 0 0.34258405725730701 0.4444034294386992 0 0.29124338931648802 0.43334555462578611 0 0.34258405725730701 0.4444034294386992 0 0.31068898841644388 0.47541502461811092 0 0.35024835142131061 0.48654922671676981 0 0.31068898841644388 0.47541502461811092 0 0.33190227185843768 0.52715113583864037 0 0.35024835142131061 0.48654922671676981 0 0.34258405725730701 0.4444034294386992 0 0.31068898841644388 0.47541502461811092 0 0.31068898841644388 0.47541502461811092 0 0.25982634974572738 0.46097799597715272 0 0.28307294598219601 0.50789252727458634 0 0.29124338931648802 0.43334555462578611 0 0.31068898841644388 0.47541502461811092 0 0.25982634974572738 0.46097799597715272 0 0.25982634974572738 0.46097799597715272 0 0.23975172658309729 0.49475499200540818 0 0.28307294598219601 0.50789252727458634 0 0.23975172658309729 0.49475499200540818 0 0.19604738184454831 0.47787523520405789 0 0.22278230690790279 0.44824268025881547 0 0.19604738184454831 0.47787523520405789 0 0.22278230690790279 0.44824268025881547 0 0.191953871957803 0.42546416763755879 0 0.25982634974572738 0.46097799597715272 0 0.22278230690790279 0.44824268025881547 0 0.24049127783545701 0.41270748208749802 0 0.25982634974572738 0.46097799597715272 0 0.23975172658309729 0.49475499200540818 0 0.22278230690790279 0.44824268025881547 0 0.27866744612395528 0.38416094670951489 0 0.24049127783545701 0.41270748208749802 0 0.22033343844674469 0.36963382230740238 0 0.191953871957803 0.42546416763755879 0 0.1650278706801647 0.38791388161335733 0 0.22033343844674469 0.36963382230740238 0 0.24049127783545701 0.41270748208749802 0 0.191953871957803 0.42546416763755879 0 0.22033343844674469 0.36963382230740238 0 0.22278230690790279 0.44824268025881547 0 0.24049127783545701 0.41270748208749802 0 0.191953871957803 0.42546416763755879 0 0.191953871957803 0.42546416763755879 0 0.13773355295499351 0.42497777642586831 0 0.15801167086041079 0.46008690540259539 0 0.191953871957803 0.42546416763755879 0 0.1650278706801647 0.38791388161335733 0 0.13773355295499351 0.42497777642586831 0 0.1650278706801647 0.38791388161335733 0 0.13773355295499351 0.42497777642586831 0 0.1117088112799664 0.38831403004970022 0 0.13773355295499351 0.42497777642586831 0 0.15801167086041079 0.46008690540259539 0 0.113541300460994 0.46208784312094731 0 0.15801167086041079 0.46008690540259539 0 0.113541300460994 0.46208784312094731 0 0.1216098864341134 0.50637075089503902 0 0.15801167086041079 0.46008690540259539 0 0.1216098864341134 0.50637075089503902 0 0.16618607197337229 0.50652878253548905 0 0.19604738184454831 0.47787523520405789 0 0.15801167086041079 0.46008690540259539 0 0.16618607197337229 0.50652878253548905 0 0.19604738184454831 0.47787523520405789 0 0.191953871957803 0.42546416763755879 0 0.15801167086041079 0.46008690540259539 0 0.25195515620380449 0.25883339815888678 0 0.21049769590865089 0.26857363548218488 0 0.24432083401701241 0.3006253385567515 0 0.21049769590865089 0.26857363548218488 0 0.24432083401701241 0.3006253385567515 0 0.19670163708476801 0.31472518408333222 0 0.21049769590865089 0.26857363548218488 0 0.19670163708476801 0.31472518408333222 0 0.168349569971391 0.28054490850913671 0 0.19670163708476801 0.31472518408333222 0 0.22615676742807109 0.33458786033114157 0 0.18434624290945251 0.35208838264196463 0 0.24432083401701241 0.3006253385567515 0 0.19670163708476801 0.31472518408333222 0 0.22615676742807109 0.33458786033114157 0 0.25966125648670141 0.34351016742083729 0 0.24432083401701241 0.3006253385567515 0 0.22615676742807109 0.33458786033114157 0 0.25966125648670141 0.34351016742083729 0 0.22615676742807109 0.33458786033114157 0 0.22033343844674469 0.36963382230740238 0 0.22615676742807109 0.33458786033114157 0 0.22033343844674469 0.36963382230740238 0 0.18434624290945251 0.35208838264196463 0 0.1650278706801647 0.38791388161335733 0 0.22033343844674469 0.36963382230740238 0 0.18434624290945251 0.35208838264196463 0 0.1650278706801647 0.38791388161335733 0 0.18434624290945251 0.35208838264196463 0 0.14223753364722069 0.3341983344262433 0 0.1650278706801647 0.38791388161335733 0 0.14223753364722069 0.3341983344262433 0 0.1117088112799664 0.38831403004970022 0 0.19670163708476801 0.31472518408333222 0 0.18434624290945251 0.35208838264196463 0 0.14223753364722069 0.3341983344262433 0 0.19670163708476801 0.31472518408333222 0 0.14223753364722069 0.3341983344262433 0 0.168349569971391 0.28054490850913671 0 0.14223753364722069 0.3341983344262433 0 0.168349569971391 0.28054490850913671 0 0.1247745017231483 0.27198077544791172 0 0.14377654328998779 0.2442024734791064 0 0.168349569971391 0.28054490850913671 0 0.1247745017231483 0.27198077544791172 0 0.17933913398461551 0.2350063570234002 0 0.21049769590865089 0.26857363548218488 0 0.168349569971391 0.28054490850913671 0 0.17933913398461551 0.2350063570234002 0 0.14377654328998779 0.2442024734791064 0 0.168349569971391 0.28054490850913671 0 0.095326043202144745 0.24554465089224409 0 0.093851963071650835 0.30582068233324772 0 0.049706944316556423 0.27522722923869108 0 0.095326043202144745 0.24554465089224409 0 0.14377654328998779 0.2442024734791064 0 0.1247745017231483 0.27198077544791172 0 0.095326043202144745 0.24554465089224409 0 0.1247745017231483 0.27198077544791172 0 0.093851963071650835 0.30582068233324772 0 0.14223753364722069 0.3341983344262433 0 0.1247745017231483 0.27198077544791172 0 0.093851963071650835 0.30582068233324772 0 0.093851963071650835 0.30582068233324772 0 0.046389130980076937 0.32668781832131749 0 0.049706944316556423 0.27522722923869108 0 0.093851963071650835 0.30582068233324772 0 0.087545339447545459 0.35122518864182262 0 0.046389130980076937 0.32668781832131749 0 0.14223753364722069 0.3341983344262433 0 0.093851963071650835 0.30582068233324772 0 0.087545339447545459 0.35122518864182262 0 0.14223753364722069 0.3341983344262433 0 0.087545339447545459 0.35122518864182262 0 0.1117088112799664 0.38831403004970022 0 0.087545339447545459 0.35122518864182262 0 0.1117088112799664 0.38831403004970022 0 0.050583896093752537 0.38543522283434112 0 0.087545339447545459 0.35122518864182262 0 0.046389130980076937 0.32668781832131749 0 0.050583896093752537 0.38543522283434112 0 0 0.35000000000145642 0 0.046389130980076937 0.32668781832131749 0 0.050583896093752537 0.38543522283434112 0 0 0.35000000000145642 0 0.046389130980076937 0.32668781832131749 0 0 0.30000000000124832 0 0.046389130980076937 0.32668781832131749 0 0 0.30000000000124832 0 0.049706944316556423 0.27522722923869108 0 0 0.30000000000124832 0 0 0.25000000000104028 0 0.049706944316556423 0.27522722923869108 0 0.044081577119474857 0.2271058242433576 0 0 0.25000000000104028 0 0.049706944316556423 0.27522722923869108 0 0.068743045408989428 0.48853989837882689 0 0.113541300460994 0.46208784312094731 0 0.078358742472063481 0.43365249433908948 0 0.068743045408989428 0.48853989837882689 0 0.113541300460994 0.46208784312094731 0 0.1216098864341134 0.50637075089503902 0 0.13773355295499351 0.42497777642586831 0 0.113541300460994 0.46208784312094731 0 0.078358742472063481 0.43365249433908948 0 0.13773355295499351 0.42497777642586831 0 0.1117088112799664 0.38831403004970022 0 0.078358742472063481 0.43365249433908948 0 0.1117088112799664 0.38831403004970022 0 0.078358742472063481 0.43365249433908948 0 0.050583896093752537 0.38543522283434112 0 0.078358742472063481 0.43365249433908948 0 0.035463093262830522 0.42673416072819947 0 0.050583896093752537 0.38543522283434112 0 0 0.35000000000145642 0 0.050583896093752537 0.38543522283434112 0 0 0.40000000000166441 0 0.035463093262830522 0.42673416072819947 0 0.050583896093752537 0.38543522283434112 0 0 0.40000000000166441 0 0.035463093262830522 0.42673416072819947 0 0 0.40000000000166441 0 0 0.45000000000187229 0 0.035463093262830522 0.42673416072819947 0 0 0.45000000000187229 0 0.033550201249889847 0.46247875832467239 0 0.068743045408989428 0.48853989837882689 0 0.033550201249889847 0.46247875832467239 0 0 0.50000000000205869 0 0.068743045408989428 0.48853989837882689 0 0.078358742472063481 0.43365249433908948 0 0.033550201249889847 0.46247875832467239 0 0.078358742472063481 0.43365249433908948 0 0.035463093262830522 0.42673416072819947 0 0.033550201249889847 0.46247875832467239 0 0 0.45000000000187229 0 0.033550201249889847 0.46247875832467239 0 0 0.50000000000205869 0 0.068743045408989428 0.48853989837882689 0 0 0.50000000000205869 0 0.044576108720083309 0.53509043209532614 0 0 0.50000000000205869 0 0 0.55000000000173355 0 0.044576108720083309 0.53509043209532614 0 0 0.55000000000173355 0 0.044576108720083309 0.53509043209532614 0 0.034381862692950467 0.57372682250960894 0 0.044576108720083309 0.53509043209532614 0 0.077693244765132896 0.56932317963405099 0 0.034381862692950467 0.57372682250960894 0 0.068743045408989428 0.48853989837882689 0 0.044576108720083309 0.53509043209532614 0 0.085622222639554768 0.53333248912060549 0 0.068743045408989428 0.48853989837882689 0 0.085622222639554768 0.53333248912060549 0 0.1216098864341134 0.50637075089503902 0 0.044576108720083309 0.53509043209532614 0 0.085622222639554768 0.53333248912060549 0 0.077693244765132896 0.56932317963405099 0 0.085622222639554768 0.53333248912060549 0 0.1154888278694548 0.56733818459978413 0 0.077693244765132896 0.56932317963405099 0 0.085622222639554768 0.53333248912060549 0 0.1216098864341134 0.50637075089503902 0 0.1154888278694548 0.56733818459978413 0 0.1024350934457823 0.60772393977513839 0 0.1154888278694548 0.56733818459978413 0 0.077693244765132896 0.56932317963405099 0 0.1024350934457823 0.60772393977513839 0 0.050069554451969707 0.61308520079857043 0 0.086179601630648681 0.64647209519980475 0 0.1024350934457823 0.60772393977513839 0 0.077693244765132896 0.56932317963405099 0 0.050069554451969707 0.61308520079857043 0 0.077693244765132896 0.56932317963405099 0 0.050069554451969707 0.61308520079857043 0 0.034381862692950467 0.57372682250960894 0 0 0.55000000000173355 0 0.034381862692950467 0.57372682250960894 0 0 0.60000000000138687 0 0.050069554451969707 0.61308520079857043 0 0 0.60000000000138687 0 0 0.65000000000104008 0 0.050069554451969707 0.61308520079857043 0 0.034381862692950467 0.57372682250960894 0 0 0.60000000000138687 0 0 0.65000000000104008 0 0.046634677244967337 0.671418230738282 0 0 0.7000000000006934 0 0.050069554451969707 0.61308520079857043 0 0.046634677244967337 0.671418230738282 0 0.086179601630648681 0.64647209519980475 0 0.050069554451969707 0.61308520079857043 0 0 0.65000000000104008 0 0.046634677244967337 0.671418230738282 0 0 0.7000000000006934 0 0.049706944316475897 0.72477277076253799 0 0 0.75000000000034661 0 0.046634677244967337 0.671418230738282 0 0 0.7000000000006934 0 0.049706944316475897 0.72477277076253799 0 0.049706944316475897 0.72477277076253799 0 0 0.75000000000034661 0 0.04408157711937423 0.7728941757575627 0 0.049706944316475897 0.72477277076253799 0 0.1020579365089687 0.69352219419301997 0 0.090953281884486245 0.7564451946902494 0 0.1020579365089687 0.69352219419301997 0 0.1215415378367805 0.72939333680004137 0 0.090953281884486245 0.7564451946902494 0 0.046634677244967337 0.671418230738282 0 0.049706944316475897 0.72477277076253799 0 0.1020579365089687 0.69352219419301997 0 0.1215415378367805 0.72939333680004137 0 0.090953281884486245 0.7564451946902494 0 0.14335651144331049 0.75565258250209677 0 0.046634677244967337 0.671418230738282 0 0.1020579365089687 0.69352219419301997 0 0.086179601630648681 0.64647209519980475 0 0.1020579365089687 0.69352219419301997 0 0.086179601630648681 0.64647209519980475 0 0.1241190223511371 0.64391885572885044 0 0.1024350934457823 0.60772393977513839 0 0.086179601630648681 0.64647209519980475 0 0.1241190223511371 0.64391885572885044 0 0.1020579365089687 0.69352219419301997 0 0.1241190223511371 0.64391885572885044 0 0.16500388252850301 0.66612077714085194 0 0.1241190223511371 0.64391885572885044 0 0.16500388252850301 0.66612077714085194 0 0.15720202157091859 0.60665697304410315 0 0.16500388252850301 0.66612077714085194 0 0.19914261668318661 0.62286739485272158 0 0.15720202157091859 0.60665697304410315 0 0.1020579365089687 0.69352219419301997 0 0.16500388252850301 0.66612077714085194 0 0.15332765547575641 0.71200081858233666 0 0.1215415378367805 0.72939333680004137 0 0.15332765547575641 0.71200081858233666 0 0.14335651144331049 0.75565258250209677 0 0.1020579365089687 0.69352219419301997 0 0.1215415378367805 0.72939333680004137 0 0.15332765547575641 0.71200081858233666 0 0.16500388252850301 0.66612077714085194 0 0.15332765547575641 0.71200081858233666 0 0.19068556247388771 0.71028988922845504 0 0.15332765547575641 0.71200081858233666 0 0.14335651144331049 0.75565258250209677 0 0.18269480424590959 0.75905448272264375 0 0.15332765547575641 0.71200081858233666 0 0.19068556247388771 0.71028988922845504 0 0.18269480424590959 0.75905448272264375 0 0.19068556247388771 0.71028988922845504 0 0.2248999640082178 0.72584299459689172 0 0.18269480424590959 0.75905448272264375 0 0.19068556247388771 0.71028988922845504 0 0.2248999640082178 0.72584299459689172 0 0.2236846579037573 0.67380363126050236 0 0.2248999640082178 0.72584299459689172 0 0.2236846579037573 0.67380363126050236 0 0.26439878998046262 0.7048065392091396 0 0.2248999640082178 0.72584299459689172 0 0.22556077506376701 0.77837424984191617 0 0.25676291524611189 0.7436741304886243 0 0.2248999640082178 0.72584299459689172 0 0.25676291524611189 0.7436741304886243 0 0.26439878998046262 0.7048065392091396 0 0.16500388252850301 0.66612077714085194 0 0.2236846579037573 0.67380363126050236 0 0.19914261668318661 0.62286739485272158 0 0.16500388252850301 0.66612077714085194 0 0.19068556247388771 0.71028988922845504 0 0.2236846579037573 0.67380363126050236 0 0.2236846579037573 0.67380363126050236 0 0.2459498854893499 0.63248470766216769 0 0.19914261668318661 0.62286739485272158 0 0.2236846579037573 0.67380363126050236 0 0.2459498854893499 0.63248470766216769 0 0.27820712747429932 0.65530134213254643 0 0.2459498854893499 0.63248470766216769 0 0.19914261668318661 0.62286739485272158 0 0.22549374774072969 0.58452645269293457 0 0.2459498854893499 0.63248470766216769 0 0.22549374774072969 0.58452645269293457 0 0.26573297623774761 0.59828298563722948 0 0.19914261668318661 0.62286739485272158 0 0.22549374774072969 0.58452645269293457 0 0.18381867841758909 0.57774125163628387 0 0.22549374774072969 0.58452645269293457 0 0.20050006573841939 0.53248514016039872 0 0.18381867841758909 0.57774125163628387 0 0.22549374774072969 0.58452645269293457 0 0.25115337790845271 0.54719303014923271 0 0.26573297623774761 0.59828298563722948 0 0.22549374774072969 0.58452645269293457 0 0.20050006573841939 0.53248514016039872 0 0.25115337790845271 0.54719303014923271 0 0.23975172658309729 0.49475499200540818 0 0.20050006573841939 0.53248514016039872 0 0.25115337790845271 0.54719303014923271 0 0.19604738184454831 0.47787523520405789 0 0.20050006573841939 0.53248514016039872 0 0.16618607197337229 0.50652878253548905 0 0.23975172658309729 0.49475499200540818 0 0.19604738184454831 0.47787523520405789 0 0.20050006573841939 0.53248514016039872 0 0.20050006573841939 0.53248514016039872 0 0.14934928745814749 0.55042914607228977 0 0.18381867841758909 0.57774125163628387 0 0.20050006573841939 0.53248514016039872 0 0.16618607197337229 0.50652878253548905 0 0.14934928745814749 0.55042914607228977 0 0.1216098864341134 0.50637075089503902 0 0.16618607197337229 0.50652878253548905 0 0.14934928745814749 0.55042914607228977 0 0.1216098864341134 0.50637075089503902 0 0.1154888278694548 0.56733818459978413 0 0.14934928745814749 0.55042914607228977 0 0.1154888278694548 0.56733818459978413 0 0.14934928745814749 0.55042914607228977 0 0.15720202157091859 0.60665697304410315 0 0.1024350934457823 0.60772393977513839 0 0.1154888278694548 0.56733818459978413 0 0.15720202157091859 0.60665697304410315 0 0.1024350934457823 0.60772393977513839 0 0.1241190223511371 0.64391885572885044 0 0.15720202157091859 0.60665697304410315 0 0.19914261668318661 0.62286739485272158 0 0.15720202157091859 0.60665697304410315 0 0.18381867841758909 0.57774125163628387 0 0.14934928745814749 0.55042914607228977 0 0.15720202157091859 0.60665697304410315 0 0.18381867841758909 0.57774125163628387 0 0.10000000000041601 1 0 0.10266856499240549 0.95548163909968886 0 0.15000000000062411 1 0 0.10266856499240549 0.95548163909968886 0 0.053064897599294662 0.95186845269532028 0 0.083411279318375747 0.91030024466934134 0 0.10000000000041601 1 0 0.050000000000207989 1 0 0.053064897599294662 0.95186845269532028 0 0.10000000000041601 1 0 0.10266856499240549 0.95548163909968886 0 0.053064897599294662 0.95186845269532028 0 0.050000000000207989 1 0 0.025766224399875661 0.97546711317377799 0 0.053064897599294662 0.95186845269532028 0 0.050000000000207989 1 0 0 1 0 0.025766224399875661 0.97546711317377799 0 0 1 0 0.025766224399875661 0.97546711317377799 0 0 0.94999999999979179 0 0.025766224399875661 0.97546711317377799 0 0 0.94999999999979179 0 0.053064897599294662 0.95186845269532028 0 0 0.94999999999979179 0 0.053064897599294662 0.95186845269532028 0 0.0443105827531413 0.89858748162559932 0 0.053064897599294662 0.95186845269532028 0 0.0443105827531413 0.89858748162559932 0 0.083411279318375747 0.91030024466934134 0 0 0.94999999999979179 0 0 0.89999999999958358 0 0.0443105827531413 0.89858748162559932 0 0 0.89999999999958358 0 0.0443105827531413 0.89858748162559932 0 0 0.84999999999965292 0 0.0443105827531413 0.89858748162559932 0 0.083411279318375747 0.91030024466934134 0 0.065374659239661639 0.8551091961254178 0 0.083411279318375747 0.91030024466934134 0 0.10562472963403439 0.87143394428979881 0 0.065374659239661639 0.8551091961254178 0 0.10266856499240549 0.95548163909968886 0 0.083411279318375747 0.91030024466934134 0 0.1241151115713819 0.9045666525468371 0 0.10266856499240549 0.95548163909968886 0 0.1241151115713819 0.9045666525468371 0 0.14617343800780541 0.93808063414349496 0 0.1241151115713819 0.9045666525468371 0 0.10562472963403439 0.87143394428979881 0 0.14474682429600511 0.85524784522713515 0 0.083411279318375747 0.91030024466934134 0 0.1241151115713819 0.9045666525468371 0 0.10562472963403439 0.87143394428979881 0 0.10562472963403439 0.87143394428979881 0 0.1074251789111534 0.83564394292147814 0 0.14474682429600511 0.85524784522713515 0 0.1074251789111534 0.83564394292147814 0 0.065374659239661639 0.8551091961254178 0 0.083105206071452636 0.79992298667296435 0 0.10562472963403439 0.87143394428979881 0 0.1074251789111534 0.83564394292147814 0 0.065374659239661639 0.8551091961254178 0 0.065374659239661639 0.8551091961254178 0 0 0.84999999999965292 0 0.038512288486097702 0.8155852717111195 0 0.0443105827531413 0.89858748162559932 0 0.065374659239661639 0.8551091961254178 0 0 0.84999999999965292 0 0 0.84999999999965292 0 0.038512288486097702 0.8155852717111195 0 0 0.79999999999999982 0 0.065374659239661639 0.8551091961254178 0 0.038512288486097702 0.8155852717111195 0 0.083105206071452636 0.79992298667296435 0 0.038512288486097702 0.8155852717111195 0 0.04408157711937423 0.7728941757575627 0 0.083105206071452636 0.79992298667296435 0 0.038512288486097702 0.8155852717111195 0 0 0.79999999999999982 0 0.04408157711937423 0.7728941757575627 0 0 0.79999999999999982 0 0 0.75000000000034661 0 0.04408157711937423 0.7728941757575627 0 0.049706944316475897 0.72477277076253799 0 0.04408157711937423 0.7728941757575627 0 0.090953281884486245 0.7564451946902494 0 0.04408157711937423 0.7728941757575627 0 0.090953281884486245 0.7564451946902494 0 0.083105206071452636 0.79992298667296435 0 0.1074251789111534 0.83564394292147814 0 0.083105206071452636 0.79992298667296435 0 0.1382744753146134 0.79650574229207483 0 0.090953281884486245 0.7564451946902494 0 0.083105206071452636 0.79992298667296435 0 0.1382744753146134 0.79650574229207483 0 0.090953281884486245 0.7564451946902494 0 0.14335651144331049 0.75565258250209677 0 0.1382744753146134 0.79650574229207483 0 0.14335651144331049 0.75565258250209677 0 0.1382744753146134 0.79650574229207483 0 0.18269480424590959 0.75905448272264375 0 0.1382744753146134 0.79650574229207483 0 0.18269480424590959 0.75905448272264375 0 0.17777405986036951 0.81832336108265358 0 0.2248999640082178 0.72584299459689172 0 0.18269480424590959 0.75905448272264375 0 0.22556077506376701 0.77837424984191617 0 0.22556077506376701 0.77837424984191617 0 0.21858834311891909 0.81980263716112767 0 0.26104540868854792 0.81401944968719064 0 0.22556077506376701 0.77837424984191617 0 0.21858834311891909 0.81980263716112767 0 0.17777405986036951 0.81832336108265358 0 0.18269480424590959 0.75905448272264375 0 0.22556077506376701 0.77837424984191617 0 0.17777405986036951 0.81832336108265358 0 0.21858834311891909 0.81980263716112767 0 0.19741632902693801 0.86755867406447229 0 0.17777405986036951 0.81832336108265358 0 0.21858834311891909 0.81980263716112767 0 0.2401283238295133 0.85648409884788523 0 0.26104540868854792 0.81401944968719064 0 0.21858834311891909 0.81980263716112767 0 0.2401283238295133 0.85648409884788523 0 0.19741632902693801 0.86755867406447229 0 0.19741632902693801 0.86755867406447229 0 0.17777405986036951 0.81832336108265358 0 0.14474682429600511 0.85524784522713515 0 0.19741632902693801 0.86755867406447229 0 0.14474682429600511 0.85524784522713515 0 0.16206583317966519 0.89685560785156404 0 0.1382744753146134 0.79650574229207483 0 0.17777405986036951 0.81832336108265358 0 0.14474682429600511 0.85524784522713515 0 0.1074251789111534 0.83564394292147814 0 0.1382744753146134 0.79650574229207483 0 0.14474682429600511 0.85524784522713515 0 0.1241151115713819 0.9045666525468371 0 0.14474682429600511 0.85524784522713515 0 0.16206583317966519 0.89685560785156404 0 0.1241151115713819 0.9045666525468371 0 0.16206583317966519 0.89685560785156404 0 0.14617343800780541 0.93808063414349496 0 0.16206583317966519 0.89685560785156404 0 0.19901705110390991 0.9175543425573498 0 0.14617343800780541 0.93808063414349496 0 0.19741632902693801 0.86755867406447229 0 0.16206583317966519 0.89685560785156404 0 0.19901705110390991 0.9175543425573498 0 0.19741632902693801 0.86755867406447229 0 0.24536017905392571 0.90704567837671446 0 0.19901705110390991 0.9175543425573498 0 0.2401283238295133 0.85648409884788523 0 0.19741632902693801 0.86755867406447229 0 0.24536017905392571 0.90704567837671446 0 0.24536017905392571 0.90704567837671446 0 0.19901705110390991 0.9175543425573498 0 0.22850979588452081 0.95594428570238643 0 0.19901705110390991 0.9175543425573498 0 0.22850979588452081 0.95594428570238643 0 0.18474005699953849 0.96231585248064622 0 0.24536017905392571 0.90704567837671446 0 0.22850979588452081 0.95594428570238643 0 0.27609987656793722 0.94991445621608572 0 0.22850979588452081 0.95594428570238643 0 0.20000000000083221 1 0 0.25000000000104028 1 0 0.22850979588452081 0.95594428570238643 0 0.20000000000083221 1 0 0.18474005699953849 0.96231585248064622 0 0.20000000000083221 1 0 0.18474005699953849 0.96231585248064622 0 0.15000000000062411 1 0 0.19901705110390991 0.9175543425573498 0 0.18474005699953849 0.96231585248064622 0 0.14617343800780541 0.93808063414349496 0 0.18474005699953849 0.96231585248064622 0 0.14617343800780541 0.93808063414349496 0 0.15000000000062411 1 0 0.10266856499240549 0.95548163909968886 0 0.14617343800780541 0.93808063414349496 0 0.15000000000062411 1 0 0.35000000000145642 1 0 0.36184234618600131 0.96443954459096326 0 0.32544832635163229 0.95485394099568932 0 0.35000000000145642 1 0 0.36184234618600131 0.96443954459096326 0 0.40000000000166441 1 0 0.36184234618600131 0.96443954459096326 0 0.32544832635163229 0.95485394099568932 0 0.35752321586431363 0.9185439911803448 0 0.36184234618600131 0.96443954459096326 0 0.35752321586431363 0.9185439911803448 0 0.39641108128798319 0.94356127926187128 0 0.35000000000145642 1 0 0.32544832635163229 0.95485394099568932 0 0.30000000000124832 1 0 0.30000000000124832 1 0 0.25000000000104028 1 0 0.27609987656793722 0.94991445621608572 0 0.22850979588452081 0.95594428570238643 0 0.25000000000104028 1 0 0.27609987656793722 0.94991445621608572 0 0.32544832635163229 0.95485394099568932 0 0.30000000000124832 1 0 0.27609987656793722 0.94991445621608572 0 0.32544832635163229 0.95485394099568932 0 0.27609987656793722 0.94991445621608572 0 0.30864387279288652 0.89906554525974958 0 0.24536017905392571 0.90704567837671446 0 0.27270076654418179 0.87751467830216623 0 0.30864387279288652 0.89906554525974958 0 0.24536017905392571 0.90704567837671446 0 0.27609987656793722 0.94991445621608572 0 0.30864387279288652 0.89906554525974958 0 0.2401283238295133 0.85648409884788523 0 0.24536017905392571 0.90704567837671446 0 0.27270076654418179 0.87751467830216623 0 0.30864387279288652 0.89906554525974958 0 0.35752321586431363 0.9185439911803448 0 0.35864759629805099 0.87963482415279515 0 0.32544832635163229 0.95485394099568932 0 0.30864387279288652 0.89906554525974958 0 0.35752321586431363 0.9185439911803448 0 0.35752321586431363 0.9185439911803448 0 0.35864759629805099 0.87963482415279515 0 0.39767323751400468 0.89584229130535065 0 0.35864759629805099 0.87963482415279515 0 0.33403534827021109 0.84402799729020661 0 0.39536230704883951 0.84069429572832477 0 0.33403534827021109 0.84402799729020661 0 0.35642984951668422 0.80994399665655703 0 0.39536230704883951 0.84069429572832477 0 0.33403534827021109 0.84402799729020661 0 0.30857225866488791 0.81101973481716805 0 0.35642984951668422 0.80994399665655703 0 0.30864387279288652 0.89906554525974958 0 0.35864759629805099 0.87963482415279515 0 0.33403534827021109 0.84402799729020661 0 0.30864387279288652 0.89906554525974958 0 0.33403534827021109 0.84402799729020661 0 0.29209212897034281 0.84715728365233667 0 0.27270076654418179 0.87751467830216623 0 0.30864387279288652 0.89906554525974958 0 0.29209212897034281 0.84715728365233667 0 0.2401283238295133 0.85648409884788523 0 0.27270076654418179 0.87751467830216623 0 0.29209212897034281 0.84715728365233667 0 0.2401283238295133 0.85648409884788523 0 0.29209212897034281 0.84715728365233667 0 0.26104540868854792 0.81401944968719064 0 0.29209212897034281 0.84715728365233667 0 0.26104540868854792 0.81401944968719064 0 0.30857225866488791 0.81101973481716805 0 0.33403534827021109 0.84402799729020661 0 0.29209212897034281 0.84715728365233667 0 0.30857225866488791 0.81101973481716805 0 0.26104540868854792 0.81401944968719064 0 0.30857225866488791 0.81101973481716805 0 0.2792923945214143 0.77665808831789485 0 0.30857225866488791 0.81101973481716805 0 0.2792923945214143 0.77665808831789485 0 0.33123028043633618 0.77629643437932982 0 0.22556077506376701 0.77837424984191617 0 0.26104540868854792 0.81401944968719064 0 0.2792923945214143 0.77665808831789485 0 0.2792923945214143 0.77665808831789485 0 0.25676291524611189 0.7436741304886243 0 0.29904318922293632 0.74132814928635593 0 0.22556077506376701 0.77837424984191617 0 0.2792923945214143 0.77665808831789485 0 0.25676291524611189 0.7436741304886243 0 0.2792923945214143 0.77665808831789485 0 0.33123028043633618 0.77629643437932982 0 0.29904318922293632 0.74132814928635593 0 0.33123028043633618 0.77629643437932982 0 0.29904318922293632 0.74132814928635593 0 0.35415581127540569 0.73730480045900215 0 0.30857225866488791 0.81101973481716805 0 0.33123028043633618 0.77629643437932982 0 0.35642984951668422 0.80994399665655703 0 0.33123028043633618 0.77629643437932982 0 0.35642984951668422 0.80994399665655703 0 0.38586766253264881 0.78219501014812498 0 0.33123028043633618 0.77629643437932982 0 0.38586766253264881 0.78219501014812498 0 0.35415581127540569 0.73730480045900215 0 0.38586766253264881 0.78219501014812498 0 0.42676259796334498 0.76772545931379299 0 0.40326160981139969 0.73346192995102844 0 0.38586766253264881 0.78219501014812498 0 0.35415581127540569 0.73730480045900215 0 0.40326160981139969 0.73346192995102844 0 0.38586766253264881 0.78219501014812498 0 0.42609163930740518 0.80361684430568059 0 0.39536230704883951 0.84069429572832477 0 0.35642984951668422 0.80994399665655703 0 0.38586766253264881 0.78219501014812498 0 0.39536230704883951 0.84069429572832477 0 0.38586766253264881 0.78219501014812498 0 0.42609163930740518 0.80361684430568059 0 0.42676259796334498 0.76772545931379299 0 0.42676259796334498 0.76772545931379299 0 0.4656888918609538 0.78493261229743638 0 0.45582236402875981 0.73896743678908217 0 0.4656888918609538 0.78493261229743638 0 0.45582236402875981 0.73896743678908217 0 0.50945740445113552 0.75476055527778108 0 0.4656888918609538 0.78493261229743638 0 0.50731287292894423 0.78963574450233831 0 0.50945740445113552 0.75476055527778108 0 0.4656888918609538 0.78493261229743638 0 0.50627822638148745 0.8263979829520941 0 0.50731287292894423 0.78963574450233831 0 0.42609163930740518 0.80361684430568059 0 0.4656888918609538 0.78493261229743638 0 0.45677673713123867 0.84253684404072415 0 0.42609163930740518 0.80361684430568059 0 0.42676259796334498 0.76772545931379299 0 0.4656888918609538 0.78493261229743638 0 0.4656888918609538 0.78493261229743638 0 0.45677673713123867 0.84253684404072415 0 0.50627822638148745 0.8263979829520941 0 0.45677673713123867 0.84253684404072415 0 0.50202631463681879 0.87892870825713787 0 0.50627822638148745 0.8263979829520941 0 0.45677673713123867 0.84253684404072415 0 0.44003836461056539 0.88093474584252718 0 0.50202631463681879 0.87892870825713787 0 0.45677673713123867 0.84253684404072415 0 0.39536230704883951 0.84069429572832477 0 0.44003836461056539 0.88093474584252718 0 0.39536230704883951 0.84069429572832477 0 0.39767323751400468 0.89584229130535065 0 0.44003836461056539 0.88093474584252718 0 0.42609163930740518 0.80361684430568059 0 0.45677673713123867 0.84253684404072415 0 0.39536230704883951 0.84069429572832477 0 0.35864759629805099 0.87963482415279515 0 0.39536230704883951 0.84069429572832477 0 0.39767323751400468 0.89584229130535065 0 0.35752321586431363 0.9185439911803448 0 0.39767323751400468 0.89584229130535065 0 0.39641108128798319 0.94356127926187128 0 0.39767323751400468 0.89584229130535065 0 0.4367309254023824 0.92065556789053882 0 0.39641108128798319 0.94356127926187128 0 0.39767323751400468 0.89584229130535065 0 0.4367309254023824 0.92065556789053882 0 0.44003836461056539 0.88093474584252718 0 0.4367309254023824 0.92065556789053882 0 0.44003836461056539 0.88093474584252718 0 0.47401147028110507 0.91529957330468115 0 0.44003836461056539 0.88093474584252718 0 0.47401147028110507 0.91529957330468115 0 0.50202631463681879 0.87892870825713787 0 0.47401147028110507 0.91529957330468115 0 0.47135117303824892 0.95556877749289892 0 0.52122150208832174 0.94089974453840242 0 0.47401147028110507 0.91529957330468115 0 0.52122150208832174 0.94089974453840242 0 0.50202631463681879 0.87892870825713787 0 0.4367309254023824 0.92065556789053882 0 0.47401147028110507 0.91529957330468115 0 0.47135117303824892 0.95556877749289892 0 0.4367309254023824 0.92065556789053882 0 0.47135117303824892 0.95556877749289892 0 0.4308986359464303 0.96395712492906194 0 0.47135117303824892 0.95556877749289892 0 0.50000000000205869 1 0 0.52122150208832174 0.94089974453840242 0 0.47135117303824892 0.95556877749289892 0 0.45000000000187229 1 0 0.50000000000205869 1 0 0.47135117303824892 0.95556877749289892 0 0.45000000000187229 1 0 0.4308986359464303 0.96395712492906194 0 0.45000000000187229 1 0 0.4308986359464303 0.96395712492906194 0 0.40000000000166441 1 0 0.4308986359464303 0.96395712492906194 0 0.39641108128798319 0.94356127926187128 0 0.40000000000166441 1 0 0.4367309254023824 0.92065556789053882 0 0.4308986359464303 0.96395712492906194 0 0.39641108128798319 0.94356127926187128 0 0.36184234618600131 0.96443954459096326 0 0.39641108128798319 0.94356127926187128 0 0.40000000000166441 1 0 0.33122374654748771 0.57588941099433744 0 0.31502927232353312 0.6134992213375432 0 0.35765792684946668 0.6000687869219653 0 0.31502927232353312 0.6134992213375432 0 0.35765792684946668 0.6000687869219653 0 0.35864735590330371 0.63903383440414463 0 0.35765792684946668 0.6000687869219653 0 0.35864735590330371 0.63903383440414463 0 0.39743091024207589 0.6239520004230239 0 0.33122374654748771 0.57588941099433744 0 0.35765792684946668 0.6000687869219653 0 0.37272913873093971 0.56192925302619479 0 0.37272913873093971 0.56192925302619479 0 0.33190227185843768 0.52715113583864037 0 0.38244435121258652 0.51653317813019495 0 0.33122374654748771 0.57588941099433744 0 0.37272913873093971 0.56192925302619479 0 0.33190227185843768 0.52715113583864037 0 0.35024835142131061 0.48654922671676981 0 0.33190227185843768 0.52715113583864037 0 0.38244435121258652 0.51653317813019495 0 0.33122374654748771 0.57588941099433744 0 0.33190227185843768 0.52715113583864037 0 0.29110487519241501 0.56588143995431495 0 0.33190227185843768 0.52715113583864037 0 0.28307294598219601 0.50789252727458634 0 0.29110487519241501 0.56588143995431495 0 0.31068898841644388 0.47541502461811092 0 0.33190227185843768 0.52715113583864037 0 0.28307294598219601 0.50789252727458634 0 0.23975172658309729 0.49475499200540818 0 0.28307294598219601 0.50789252727458634 0 0.25115337790845271 0.54719303014923271 0 0.28307294598219601 0.50789252727458634 0 0.25115337790845271 0.54719303014923271 0 0.29110487519241501 0.56588143995431495 0 0.25115337790845271 0.54719303014923271 0 0.29110487519241501 0.56588143995431495 0 0.26573297623774761 0.59828298563722948 0 0.33122374654748771 0.57588941099433744 0 0.31502927232353312 0.6134992213375432 0 0.29110487519241501 0.56588143995431495 0 0.31502927232353312 0.6134992213375432 0 0.29110487519241501 0.56588143995431495 0 0.26573297623774761 0.59828298563722948 0 0.31502927232353312 0.6134992213375432 0 0.26573297623774761 0.59828298563722948 0 0.27820712747429932 0.65530134213254643 0 0.2459498854893499 0.63248470766216769 0 0.26573297623774761 0.59828298563722948 0 0.27820712747429932 0.65530134213254643 0 0.2236846579037573 0.67380363126050236 0 0.27820712747429932 0.65530134213254643 0 0.26439878998046262 0.7048065392091396 0 0.27820712747429932 0.65530134213254643 0 0.31378396441836959 0.70157213313026345 0 0.32263089806001177 0.66003674931826484 0 0.27820712747429932 0.65530134213254643 0 0.26439878998046262 0.7048065392091396 0 0.31378396441836959 0.70157213313026345 0 0.31502927232353312 0.6134992213375432 0 0.27820712747429932 0.65530134213254643 0 0.32263089806001177 0.66003674931826484 0 0.25676291524611189 0.7436741304886243 0 0.26439878998046262 0.7048065392091396 0 0.29904318922293632 0.74132814928635593 0 0.26439878998046262 0.7048065392091396 0 0.29904318922293632 0.74132814928635593 0 0.31378396441836959 0.70157213313026345 0 0.29904318922293632 0.74132814928635593 0 0.31378396441836959 0.70157213313026345 0 0.35415581127540569 0.73730480045900215 0 0.31378396441836959 0.70157213313026345 0 0.36622285152418499 0.69092437780804039 0 0.35415581127540569 0.73730480045900215 0 0.36622285152418499 0.69092437780804039 0 0.35415581127540569 0.73730480045900215 0 0.40326160981139969 0.73346192995102844 0 0.31502927232353312 0.6134992213375432 0 0.32263089806001177 0.66003674931826484 0 0.35864735590330371 0.63903383440414463 0 0.31378396441836959 0.70157213313026345 0 0.36622285152418499 0.69092437780804039 0 0.32263089806001177 0.66003674931826484 0 0.36622285152418499 0.69092437780804039 0 0.32263089806001177 0.66003674931826484 0 0.35864735590330371 0.63903383440414463 0 0.36622285152418499 0.69092437780804039 0 0.35864735590330371 0.63903383440414463 0 0.3977710372045391 0.65868194622830212 0 0.35864735590330371 0.63903383440414463 0 0.3977710372045391 0.65868194622830212 0 0.39743091024207589 0.6239520004230239 0 0.36622285152418499 0.69092437780804039 0 0.3977710372045391 0.65868194622830212 0 0.43323420005758778 0.6913544522562407 0 0.3977710372045391 0.65868194622830212 0 0.43323420005758778 0.6913544522562407 0 0.43846182030517877 0.64845797726506715 0 0.43846182030517877 0.64845797726506715 0 0.43545892161006339 0.61093128915313821 0 0.39743091024207589 0.6239520004230239 0 0.3977710372045391 0.65868194622830212 0 0.43846182030517877 0.64845797726506715 0 0.39743091024207589 0.6239520004230239 0 0.36622285152418499 0.69092437780804039 0 0.40326160981139969 0.73346192995102844 0 0.43323420005758778 0.6913544522562407 0 0.40326160981139969 0.73346192995102844 0 0.43323420005758778 0.6913544522562407 0 0.45582236402875981 0.73896743678908217 0 0.42676259796334498 0.76772545931379299 0 0.40326160981139969 0.73346192995102844 0 0.45582236402875981 0.73896743678908217 0 0.43323420005758778 0.6913544522562407 0 0.45582236402875981 0.73896743678908217 0 0.5 0.69999999999999996 0 0.45582236402875981 0.73896743678908217 0 0.5 0.69999999999999996 0 0.50945740445113552 0.75476055527778108 0 0.43323420005758778 0.6913544522562407 0 0.47913475093885149 0.66010775372412711 0 0.5 0.69999999999999996 0 0.43846182030517877 0.64845797726506715 0 0.47913475093885149 0.66010775372412711 0 0.47095389620662098 0.61892551373708504 0 0.43846182030517877 0.64845797726506715 0 0.47095389620662098 0.61892551373708504 0 0.43545892161006339 0.61093128915313821 0 0.43323420005758778 0.6913544522562407 0 0.43846182030517877 0.64845797726506715 0 0.47913475093885149 0.66010775372412711 0 0.47913475093885149 0.66010775372412711 0 0.47095389620662098 0.61892551373708504 0 0.50715858906372158 0.63295939104129484 0 0.47095389620662098 0.61892551373708504 0 0.5166924242153631 0.59825134841919447 0 0.50715858906372158 0.63295939104129484 0 0.47095389620662098 0.61892551373708504 0 0.46666084890304671 0.57634471035397938 0 0.5166924242153631 0.59825134841919447 0 0.47095389620662098 0.61892551373708504 0 0.46666084890304671 0.57634471035397938 0 0.43545892161006339 0.61093128915313821 0 0.43545892161006339 0.61093128915313821 0 0.4089290844030305 0.58728915500154233 0 0.39743091024207589 0.6239520004230239 0 0.46666084890304671 0.57634471035397938 0 0.43545892161006339 0.61093128915313821 0 0.4089290844030305 0.58728915500154233 0 0.46666084890304671 0.57634471035397938 0 0.4089290844030305 0.58728915500154233 0 0.42644501560315817 0.54603747078095544 0 0.37272913873093971 0.56192925302619479 0 0.4089290844030305 0.58728915500154233 0 0.42644501560315817 0.54603747078095544 0 0.35765792684946668 0.6000687869219653 0 0.37272913873093971 0.56192925302619479 0 0.4089290844030305 0.58728915500154233 0 0.35765792684946668 0.6000687869219653 0 0.4089290844030305 0.58728915500154233 0 0.39743091024207589 0.6239520004230239 0 0.37272913873093971 0.56192925302619479 0 0.38244435121258652 0.51653317813019495 0 0.42644501560315817 0.54603747078095544 0 0.43507373378304309 0.49699695397193322 0 0.38244435121258652 0.51653317813019495 0 0.42644501560315817 0.54603747078095544 0 0.46666084890304671 0.57634471035397938 0 0.47793794143994173 0.52940715638744962 0 0.53245488764484505 0.55078124999999989 0 0.43507373378304309 0.49699695397193322 0 0.49102375406324739 0.49123754822244059 0 0.47793794143994173 0.52940715638744962 0 0.43507373378304309 0.49699695397193322 0 0.42644501560315817 0.54603747078095544 0 0.47793794143994173 0.52940715638744962 0 0.46666084890304671 0.57634471035397938 0 0.42644501560315817 0.54603747078095544 0 0.47793794143994173 0.52940715638744962 0 0.49102375406324739 0.49123754822244059 0 0.47793794143994173 0.52940715638744962 0 0.53330375813596242 0.50827942741749099 0 0.47793794143994173 0.52940715638744962 0 0.53245488764484505 0.55078124999999989 0 0.53330375813596242 0.50827942741749099 0 0.53245488764484505 0.55078124999999989 0 0.53330375813596242 0.50827942741749099 0 0.57435499076887508 0.54267261987897775 0 0.53245488764484505 0.55078124999999989 0 0.57435499076887508 0.54267261987897775 0 0.57412547362576272 0.58273804879550706 0 0.53330375813596242 0.50827942741749099 0 0.57611405284611883 0.50165903596042916 0 0.57435499076887508 0.54267261987897775 0 0.57611405284611883 0.50165903596042916 0 0.57435499076887508 0.54267261987897775 0 0.62042975506801734 0.54295974692364424 0 0.57435499076887508 0.54267261987897775 0 0.62042975506801734 0.54295974692364424 0 0.57412547362576272 0.58273804879550706 0 0.57611405284611883 0.50165903596042916 0 0.62042975506801734 0.54295974692364424 0 0.61547661924074692 0.48539576058873962 0 0.5991018319127801 0.62925360607495295 0 0.6405463747586706 0.63290524857395714 0 0.63065402604362242 0.59661356661633302 0 0.57412547362576272 0.58273804879550706 0 0.5991018319127801 0.62925360607495295 0 0.63065402604362242 0.59661356661633302 0 0.62042975506801734 0.54295974692364424 0 0.57412547362576272 0.58273804879550706 0 0.63065402604362242 0.59661356661633302 0 0.57412547362576272 0.58273804879550706 0 0.5498280205245758 0.6290146943450976 0 0.5991018319127801 0.62925360607495295 0 0.46666084890304671 0.57634471035397938 0 0.53245488764484505 0.55078124999999989 0 0.5166924242153631 0.59825134841919447 0 0.57412547362576272 0.58273804879550706 0 0.5166924242153631 0.59825134841919447 0 0.5498280205245758 0.6290146943450976 0 0.53245488764484505 0.55078124999999989 0 0.57412547362576272 0.58273804879550706 0 0.5166924242153631 0.59825134841919447 0 0.5166924242153631 0.59825134841919447 0 0.50715858906372158 0.63295939104129484 0 0.5498280205245758 0.6290146943450976 0 0.47913475093885149 0.66010775372412711 0 0.50715858906372158 0.63295939104129484 0 0.52584555706968406 0.66664215091846768 0 0.50715858906372158 0.63295939104129484 0 0.52584555706968406 0.66664215091846768 0 0.5498280205245758 0.6290146943450976 0 0.47913475093885149 0.66010775372412711 0 0.52584555706968406 0.66664215091846768 0 0.5 0.69999999999999996 0 0.52584555706968406 0.66664215091846768 0 0.54999999999999993 0.69999999999999996 0 0.57484956128872922 0.66573805030881994 0 0.52584555706968406 0.66664215091846768 0 0.5498280205245758 0.6290146943450976 0 0.57484956128872922 0.66573805030881994 0 0.5 0.69999999999999996 0 0.55363780716230748 0.74348740161571747 0 0.50945740445113552 0.75476055527778108 0 0.52584555706968406 0.66664215091846768 0 0.5 0.69999999999999996 0 0.54999999999999993 0.69999999999999996 0 0.5 0.69999999999999996 0 0.54999999999999993 0.69999999999999996 0 0.5 0.69999999999999996 0 0.54999999999999993 0.69999999999999996 0 0.55363780716230748 0.74348740161571747 0 0.55363780716230748 0.74348740161571747 0 0.59999999999999976 0.69999999999999996 0 0.59636844454254345 0.75937156204589151 0 0.54999999999999993 0.69999999999999996 0 0.59999999999999976 0.69999999999999996 0 0.54999999999999993 0.69999999999999996 0 0.59999999999999976 0.69999999999999996 0 0.57484956128872922 0.66573805030881994 0 0.54999999999999993 0.69999999999999996 0 0.55363780716230748 0.74348740161571747 0 0.59999999999999976 0.69999999999999996 0 0.59999999999999976 0.69999999999999996 0 0.6499999999999998 0.69999999999999996 0 0.59999999999999976 0.69999999999999996 0 0.62460753523532009 0.66851202781000296 0 0.6499999999999998 0.69999999999999996 0 0.59999999999999976 0.69999999999999996 0 0.63221990677827677 0.73442891067859706 0 0.59636844454254345 0.75937156204589151 0 0.5498280205245758 0.6290146943450976 0 0.57484956128872922 0.66573805030881994 0 0.5991018319127801 0.62925360607495295 0 0.59999999999999976 0.69999999999999996 0 0.57484956128872922 0.66573805030881994 0 0.62460753523532009 0.66851202781000296 0 0.57484956128872922 0.66573805030881994 0 0.62460753523532009 0.66851202781000296 0 0.5991018319127801 0.62925360607495295 0 0.62460753523532009 0.66851202781000296 0 0.5991018319127801 0.62925360607495295 0 0.6405463747586706 0.63290524857395714 0 0.62460753523532009 0.66851202781000296 0 0.6405463747586706 0.63290524857395714 0 0.675261390228442 0.65996937624687813 0 0.62460753523532009 0.66851202781000296 0 0.675261390228442 0.65996937624687813 0 0.6499999999999998 0.69999999999999996 0 0.675261390228442 0.65996937624687813 0 0.6499999999999998 0.69999999999999996 0 0.69999999999999984 0.69999999999999996 0 0.6405463747586706 0.63290524857395714 0 0.675261390228442 0.65996937624687813 0 0.67529834988829951 0.61613270668143583 0 0.63221990677827677 0.73442891067859706 0 0.66427993341343905 0.73232764502436276 0 0.64753070846764316 0.77332939069435502 0 0.63221990677827677 0.73442891067859706 0 0.6499999999999998 0.69999999999999996 0 0.66427993341343905 0.73232764502436276 0 0.59999999999999976 0.69999999999999996 0 0.63221990677827677 0.73442891067859706 0 0.6499999999999998 0.69999999999999996 0 0.6499999999999998 0.69999999999999996 0 0.69999999999999984 0.69999999999999996 0 0.6499999999999998 0.69999999999999996 0 0.66427993341343905 0.73232764502436276 0 0.69999999999999984 0.69999999999999996 0 0.66427993341343905 0.73232764502436276 0 0.69999999999999984 0.69999999999999996 0 0.6916490518212759 0.75387992374886192 0 0.69999999999999984 0.69999999999999996 0 0.72501250972655151 0.74067302935308721 0 0.6916490518212759 0.75387992374886192 0 0.69999999999999984 0.69999999999999996 0 0.74999999999999989 0.69999999999999996 0 0.72501250972655151 0.74067302935308721 0 0.69999999999999984 0.69999999999999996 0 0.74999999999999989 0.69999999999999996 0 0.72500000000000064 0.67022701834392062 0 0.69999999999999984 0.69999999999999996 0 0.74999999999999989 0.69999999999999996 0 0.74999999999999989 0.69999999999999996 0 0.72501250972655151 0.74067302935308721 0 0.75841349681148107 0.75422312624214749 0 0.675261390228442 0.65996937624687813 0 0.71406021706547751 0.63292083137662503 0 0.72500000000000064 0.67022701834392062 0 0.675261390228442 0.65996937624687813 0 0.71406021706547751 0.63292083137662503 0 0.67529834988829951 0.61613270668143583 0 0.675261390228442 0.65996937624687813 0 0.69999999999999984 0.69999999999999996 0 0.72500000000000064 0.67022701834392062 0 0.71406021706547751 0.63292083137662503 0 0.72500000000000064 0.67022701834392062 0 0.74994237037456724 0.62775548192980357 0 0.72500000000000064 0.67022701834392062 0 0.74994237037456724 0.62775548192980357 0 0.7750489929959945 0.66593931409600093 0 0.71406021706547751 0.63292083137662503 0 0.74994237037456724 0.62775548192980357 0 0.71809016091162536 0.58185040402320831 0 0.74994237037456724 0.62775548192980357 0 0.71809016091162536 0.58185040402320831 0 0.77293540622714185 0.59448302402785813 0 0.71406021706547751 0.63292083137662503 0 0.71809016091162536 0.58185040402320831 0 0.67529834988829951 0.61613270668143583 0 0.71809016091162536 0.58185040402320831 0 0.67569444444444449 0.53500863336860327 0 0.67323294229744413 0.57556450033612505 0 0.71809016091162536 0.58185040402320831 0 0.67529834988829951 0.61613270668143583 0 0.67323294229744413 0.57556450033612505 0 0.71809016091162536 0.58185040402320831 0 0.7152569930854884 0.5237994455134295 0 0.77151014687832564 0.54436834383023036 0 0.7152569930854884 0.5237994455134295 0 0.77151014687832564 0.54436834383023036 0 0.73947346780852752 0.49062440112282169 0 0.7152569930854884 0.5237994455134295 0 0.67569444444444449 0.53500863336860327 0 0.69385896817107129 0.48377516041410151 0 0.71809016091162536 0.58185040402320831 0 0.7152569930854884 0.5237994455134295 0 0.67569444444444449 0.53500863336860327 0 0.62042975506801734 0.54295974692364424 0 0.67569444444444449 0.53500863336860327 0 0.67323294229744413 0.57556450033612505 0 0.67569444444444449 0.53500863336860327 0 0.6541250972820879 0.49999999999999989 0 0.69385896817107129 0.48377516041410151 0 0.62042975506801734 0.54295974692364424 0 0.67569444444444449 0.53500863336860327 0 0.6541250972820879 0.49999999999999989 0 0.62042975506801734 0.54295974692364424 0 0.61547661924074692 0.48539576058873962 0 0.6541250972820879 0.49999999999999989 0 0.62042975506801734 0.54295974692364424 0 0.63065402604362242 0.59661356661633302 0 0.67323294229744413 0.57556450033612505 0 0.6405463747586706 0.63290524857395714 0 0.63065402604362242 0.59661356661633302 0 0.67529834988829951 0.61613270668143583 0 0.63065402604362242 0.59661356661633302 0 0.67529834988829951 0.61613270668143583 0 0.67323294229744413 0.57556450033612505 0 0.60000000000138687 1 0 0.62065498684670595 0.95224934003983619 0 0.57382506491224949 0.9629411906298494 0 0.60000000000138687 1 0 0.62065498684670595 0.95224934003983619 0 0.65000000000104008 1 0 0.62065498684670595 0.95224934003983619 0 0.57382506491224949 0.9629411906298494 0 0.57724883562309992 0.92155686857100794 0 0.60000000000138687 1 0 0.57382506491224949 0.9629411906298494 0 0.55000000000173355 1 0 0.55000000000173355 1 0 0.50000000000205869 1 0 0.52122150208832174 0.94089974453840242 0 0.57382506491224949 0.9629411906298494 0 0.52122150208832174 0.94089974453840242 0 0.57724883562309992 0.92155686857100794 0 0.57382506491224949 0.9629411906298494 0 0.55000000000173355 1 0 0.52122150208832174 0.94089974453840242 0 0.52122150208832174 0.94089974453840242 0 0.54783390826260769 0.89287767010860219 0 0.57724883562309992 0.92155686857100794 0 0.52122150208832174 0.94089974453840242 0 0.50202631463681879 0.87892870825713787 0 0.54783390826260769 0.89287767010860219 0 0.54783390826260769 0.89287767010860219 0 0.5832743223239254 0.88483152652961872 0 0.55899371797446828 0.85003102233514438 0 0.54783390826260769 0.89287767010860219 0 0.5832743223239254 0.88483152652961872 0 0.57724883562309992 0.92155686857100794 0 0.5832743223239254 0.88483152652961872 0 0.57724883562309992 0.92155686857100794 0 0.61885627562261258 0.90282959257498208 0 0.62065498684670595 0.95224934003983619 0 0.57724883562309992 0.92155686857100794 0 0.61885627562261258 0.90282959257498208 0 0.5832743223239254 0.88483152652961872 0 0.61885627562261258 0.90282959257498208 0 0.61343887413683884 0.856862479058357 0 0.61343887413683884 0.856862479058357 0 0.60294066490120068 0.80851322453934582 0 0.65005442820240822 0.82644988530054031 0 0.61343887413683884 0.856862479058357 0 0.55899371797446828 0.85003102233514438 0 0.60294066490120068 0.80851322453934582 0 0.55899371797446828 0.85003102233514438 0 0.54782696902220018 0.79245182748204157 0 0.60294066490120068 0.80851322453934582 0 0.5832743223239254 0.88483152652961872 0 0.61343887413683884 0.856862479058357 0 0.55899371797446828 0.85003102233514438 0 0.50202631463681879 0.87892870825713787 0 0.54783390826260769 0.89287767010860219 0 0.55899371797446828 0.85003102233514438 0 0.50202631463681879 0.87892870825713787 0 0.55899371797446828 0.85003102233514438 0 0.50627822638148745 0.8263979829520941 0 0.55899371797446828 0.85003102233514438 0 0.50627822638148745 0.8263979829520941 0 0.54782696902220018 0.79245182748204157 0 0.50627822638148745 0.8263979829520941 0 0.54782696902220018 0.79245182748204157 0 0.50731287292894423 0.78963574450233831 0 0.54782696902220018 0.79245182748204157 0 0.50731287292894423 0.78963574450233831 0 0.50945740445113552 0.75476055527778108 0 0.55363780716230748 0.74348740161571747 0 0.54782696902220018 0.79245182748204157 0 0.50945740445113552 0.75476055527778108 0 0.55363780716230748 0.74348740161571747 0 0.54782696902220018 0.79245182748204157 0 0.59636844454254345 0.75937156204589151 0 0.54782696902220018 0.79245182748204157 0 0.60294066490120068 0.80851322453934582 0 0.59636844454254345 0.75937156204589151 0 0.60294066490120068 0.80851322453934582 0 0.59636844454254345 0.75937156204589151 0 0.64753070846764316 0.77332939069435502 0 0.63221990677827677 0.73442891067859706 0 0.59636844454254345 0.75937156204589151 0 0.64753070846764316 0.77332939069435502 0 0.60294066490120068 0.80851322453934582 0 0.64753070846764316 0.77332939069435502 0 0.65005442820240822 0.82644988530054031 0 0.64753070846764316 0.77332939069435502 0 0.68024162096458085 0.79868546898116533 0 0.65005442820240822 0.82644988530054031 0 0.64753070846764316 0.77332939069435502 0 0.68024162096458085 0.79868546898116533 0 0.6916490518212759 0.75387992374886192 0 0.66427993341343905 0.73232764502436276 0 0.64753070846764316 0.77332939069435502 0 0.6916490518212759 0.75387992374886192 0 0.72501250972655151 0.74067302935308721 0 0.6916490518212759 0.75387992374886192 0 0.72500000000000064 0.7952620967744265 0 0.72501250972655151 0.74067302935308721 0 0.72500000000000064 0.7952620967744265 0 0.75841349681148107 0.75422312624214749 0 0.68024162096458085 0.79868546898116533 0 0.6916490518212759 0.75387992374886192 0 0.72500000000000064 0.7952620967744265 0 0.68024162096458085 0.79868546898116533 0 0.72500000000000064 0.7952620967744265 0 0.68697391633157634 0.84450604838764298 0 0.72500000000000064 0.7952620967744265 0 0.72863726579783861 0.85390518901155588 0 0.68697391633157634 0.84450604838764298 0 0.72500000000000064 0.7952620967744265 0 0.72863726579783861 0.85390518901155588 0 0.76901770135486491 0.84293557325473656 0 0.72863726579783861 0.85390518901155588 0 0.68697391633157634 0.84450604838764298 0 0.7250000000005199 0.89375000000045834 0 0.68697391633157634 0.84450604838764298 0 0.66412543161245952 0.88015090885499059 0 0.7250000000005199 0.89375000000045834 0 0.68697391633157634 0.84450604838764298 0 0.65005442820240822 0.82644988530054031 0 0.66412543161245952 0.88015090885499059 0 0.68024162096458085 0.79868546898116533 0 0.68697391633157634 0.84450604838764298 0 0.65005442820240822 0.82644988530054031 0 0.61343887413683884 0.856862479058357 0 0.65005442820240822 0.82644988530054031 0 0.66412543161245952 0.88015090885499059 0 0.61885627562261258 0.90282959257498208 0 0.61343887413683884 0.856862479058357 0 0.66412543161245952 0.88015090885499059 0 0.61885627562261258 0.90282959257498208 0 0.65507451745379841 0.92229208810758578 0 0.66412543161245952 0.88015090885499059 0 0.62065498684670595 0.95224934003983619 0 0.61885627562261258 0.90282959257498208 0 0.65507451745379841 0.92229208810758578 0 0.65507451745379841 0.92229208810758578 0 0.68987011941058407 0.92105047536677087 0 0.68015064798562208 0.95924320340003011 0 0.65507451745379841 0.92229208810758578 0 0.66412543161245952 0.88015090885499059 0 0.68987011941058407 0.92105047536677087 0 0.66412543161245952 0.88015090885499059 0 0.7250000000005199 0.89375000000045834 0 0.68987011941058407 0.92105047536677087 0 0.72863726579783861 0.85390518901155588 0 0.7250000000005199 0.89375000000045834 0 0.76891166905518427 0.88835469571185499 0 0.7250000000005199 0.89375000000045834 0 0.7250000000005199 0.94981617647078953 0 0.75729602384198635 0.92353652857884294 0 0.7250000000005199 0.89375000000045834 0 0.68987011941058407 0.92105047536677087 0 0.7250000000005199 0.94981617647078953 0 0.68987011941058407 0.92105047536677087 0 0.7250000000005199 0.94981617647078953 0 0.68015064798562208 0.95924320340003011 0 0.7250000000005199 0.94981617647078953 0 0.7000000000006934 1 0 0.75000000000034661 1 0 0.7250000000005199 0.94981617647078953 0 0.75000000000034661 1 0 0.770759834363826 0.95919399014344442 0 0.7250000000005199 0.94981617647078953 0 0.7000000000006934 1 0 0.68015064798562208 0.95924320340003011 0 0.7000000000006934 1 0 0.68015064798562208 0.95924320340003011 0 0.65000000000104008 1 0 0.62065498684670595 0.95224934003983619 0 0.65507451745379841 0.92229208810758578 0 0.68015064798562208 0.95924320340003011 0 0.62065498684670595 0.95224934003983619 0 0.68015064798562208 0.95924320340003011 0 0.65000000000104008 1 0 0.84999999999965292 1 0 0.85170973911348691 0.93569607295217616 0 0.89898474358632463 0.95391965591118966 0 0.84999999999965292 1 0 0.81486180804382891 0.96321394949790495 0 0.85170973911348691 0.93569607295217616 0 0.81486180804382891 0.96321394949790495 0 0.79680861578988083 0.92656778056766709 0 0.85170973911348691 0.93569607295217616 0 0.84999999999965292 1 0 0.81486180804382891 0.96321394949790495 0 0.79999999999999982 1 0 0.81486180804382891 0.96321394949790495 0 0.79999999999999982 1 0 0.770759834363826 0.95919399014344442 0 0.79999999999999982 1 0 0.75000000000034661 1 0 0.770759834363826 0.95919399014344442 0 0.7250000000005199 0.94981617647078953 0 0.770759834363826 0.95919399014344442 0 0.75729602384198635 0.92353652857884294 0 0.81486180804382891 0.96321394949790495 0 0.770759834363826 0.95919399014344442 0 0.79680861578988083 0.92656778056766709 0 0.79680861578988083 0.92656778056766709 0 0.75729602384198635 0.92353652857884294 0 0.76891166905518427 0.88835469571185499 0 0.770759834363826 0.95919399014344442 0 0.79680861578988083 0.92656778056766709 0 0.75729602384198635 0.92353652857884294 0 0.7250000000005199 0.89375000000045834 0 0.75729602384198635 0.92353652857884294 0 0.76891166905518427 0.88835469571185499 0 0.79680861578988083 0.92656778056766709 0 0.76891166905518427 0.88835469571185499 0 0.81159157511211755 0.88795995483179491 0 0.81159157511211755 0.88795995483179491 0 0.85170973911348691 0.93569607295217616 0 0.85600844944837662 0.88483418979512773 0 0.79680861578988083 0.92656778056766709 0 0.81159157511211755 0.88795995483179491 0 0.85170973911348691 0.93569607295217616 0 0.85170973911348691 0.93569607295217616 0 0.85600844944837662 0.88483418979512773 0 0.90416666666660628 0.9041666666666166 0 0.85600844944837662 0.88483418979512773 0 0.82709327591091286 0.84937141670920724 0 0.88088768115933802 0.84674609810493673 0 0.82709327591091286 0.84937141670920724 0 0.84725310900444062 0.80779732082917555 0 0.88088768115933802 0.84674609810493673 0 0.82709327591091286 0.84937141670920724 0 0.80041942726660109 0.81543261647703358 0 0.84725310900444062 0.80779732082917555 0 0.81159157511211755 0.88795995483179491 0 0.85600844944837662 0.88483418979512773 0 0.82709327591091286 0.84937141670920724 0 0.76891166905518427 0.88835469571185499 0 0.81159157511211755 0.88795995483179491 0 0.76901770135486491 0.84293557325473656 0 0.81159157511211755 0.88795995483179491 0 0.82709327591091286 0.84937141670920724 0 0.76901770135486491 0.84293557325473656 0 0.72863726579783861 0.85390518901155588 0 0.76891166905518427 0.88835469571185499 0 0.76901770135486491 0.84293557325473656 0 0.76901770135486491 0.84293557325473656 0 0.80041942726660109 0.81543261647703358 0 0.77094201086366854 0.79647480515688507 0 0.82709327591091286 0.84937141670920724 0 0.76901770135486491 0.84293557325473656 0 0.80041942726660109 0.81543261647703358 0 0.80041942726660109 0.81543261647703358 0 0.77094201086366854 0.79647480515688507 0 0.80185942888539485 0.77452061303608133 0 0.72500000000000064 0.7952620967744265 0 0.77094201086366854 0.79647480515688507 0 0.75841349681148107 0.75422312624214749 0 0.72500000000000064 0.7952620967744265 0 0.76901770135486491 0.84293557325473656 0 0.77094201086366854 0.79647480515688507 0 0.77094201086366854 0.79647480515688507 0 0.75841349681148107 0.75422312624214749 0 0.80185942888539485 0.77452061303608133 0 0.75841349681148107 0.75422312624214749 0 0.80185942888539485 0.77452061303608133 0 0.78578450296893509 0.73292684821144505 0 0.80185942888539485 0.77452061303608133 0 0.84725310900444062 0.80779732082917555 0 0.85491058998424563 0.76004753345552634 0 0.80185942888539485 0.77452061303608133 0 0.85491058998424563 0.76004753345552634 0 0.81864958914779962 0.73589050177899629 0 0.80041942726660109 0.81543261647703358 0 0.80185942888539485 0.77452061303608133 0 0.84725310900444062 0.80779732082917555 0 0.84725310900444062 0.80779732082917555 0 0.85491058998424563 0.76004753345552634 0 0.90299850604011456 0.79563452813489832 0 0.85491058998424563 0.76004753345552634 0 0.90299850604011456 0.79563452813489832 0 0.89999166460796554 0.74528934923809909 0 0.90299850604011456 0.79563452813489832 0 0.94399509803918602 0.75600490196082126 0 0.95386563387742829 0.80414874155775029 0 0.90299850604011456 0.79563452813489832 0 0.94399509803918602 0.75600490196082126 0 0.89999166460796554 0.74528934923809909 0 0.94399509803918602 0.75600490196082126 0 0.97435614836745565 0.77499999999987745 0 0.95386563387742829 0.80414874155775029 0 0.94399509803918602 0.75600490196082126 0 0.97435614836745565 0.77499999999987745 0 0.97166519676947294 0.73337114490064459 0 0.97435614836745565 0.77499999999987745 0 0.97166519676947294 0.73337114490064459 0 1 0.74999999999993494 0 0.97435614836745565 0.77499999999987745 0 1 0.7999999999998193 0 1 0.74999999999993494 0 0.97435614836745565 0.77499999999987745 0 1 0.7999999999998193 0 0.95386563387742829 0.80414874155775029 0 1 0.84999999999982645 0 0.93677536231884972 0.85000000000000286 0 0.95391631417670719 0.89584263333814784 0 0.95386563387742829 0.80414874155775029 0 1 0.84999999999982645 0 0.93677536231884972 0.85000000000000286 0 1 0.7999999999998193 0 0.95386563387742829 0.80414874155775029 0 1 0.84999999999982645 0 0.93677536231884972 0.85000000000000286 0 0.88088768115933802 0.84674609810493673 0 0.90416666666660628 0.9041666666666166 0 0.90299850604011456 0.79563452813489832 0 0.95386563387742829 0.80414874155775029 0 0.93677536231884972 0.85000000000000286 0 0.90299850604011456 0.79563452813489832 0 0.93677536231884972 0.85000000000000286 0 0.88088768115933802 0.84674609810493673 0 0.84725310900444062 0.80779732082917555 0 0.90299850604011456 0.79563452813489832 0 0.88088768115933802 0.84674609810493673 0 0.85600844944837662 0.88483418979512773 0 0.88088768115933802 0.84674609810493673 0 0.90416666666660628 0.9041666666666166 0 0.85170973911348691 0.93569607295217616 0 0.90416666666660628 0.9041666666666166 0 0.89898474358632463 0.95391965591118966 0 0.90416666666660628 0.9041666666666166 0 0.95391631417670719 0.89584263333814784 0 0.94399509803919068 0.9439950980391687 0 0.90416666666660628 0.9041666666666166 0 0.94399509803919068 0.9439950980391687 0 0.89898474358632463 0.95391965591118966 0 0.93677536231884972 0.85000000000000286 0 0.90416666666660628 0.9041666666666166 0 0.95391631417670719 0.89584263333814784 0 1 0.84999999999982645 0 0.95391631417670719 0.89584263333814784 0 1 0.8999999999998336 0 1 0.8999999999998336 0 0.97435614836744289 0.92499999999990257 0 1 0.94999999999997109 0 0.95391631417670719 0.89584263333814784 0 1 0.8999999999998336 0 0.97435614836744289 0.92499999999990257 0 0.95391631417670719 0.89584263333814784 0 0.97435614836744289 0.92499999999990257 0 0.94399509803919068 0.9439950980391687 0 0.97435614836744289 0.92499999999990257 0 0.94399509803919068 0.9439950980391687 0 0.97166519676946206 0.96662885509935492 0 0.97435614836744289 0.92499999999990257 0 0.97166519676946206 0.96662885509935492 0 1 0.94999999999997109 0 0.97166519676946206 0.96662885509935492 0 1 0.94999999999997109 0 1 1 0 0.97166519676946206 0.96662885509935492 0 1 1 0 0.94999999999979179 1 0 0.94399509803919068 0.9439950980391687 0 0.97166519676946206 0.96662885509935492 0 0.94999999999979179 1 0 0.94999999999979179 1 0 0.89898474358632463 0.95391965591118966 0 0.89999999999958358 1 0 0.94399509803919068 0.9439950980391687 0 0.94999999999979179 1 0 0.89898474358632463 0.95391965591118966 0 0.84999999999965292 1 0 0.89898474358632463 0.95391965591118966 0 0.89999999999958358 1 0 0.81723410853263523 0.59419663659258926 0 0.86956835336234861 0.571283299838105 0 0.82862096804812391 0.55037090955459045 0 0.81723410853263523 0.59419663659258926 0 0.87159648282691515 0.61285406320581504 0 0.83758014339878906 0.63222013025741819 0 0.81723410853263523 0.59419663659258926 0 0.79884539758237771 0.62875045078114233 0 0.83758014339878906 0.63222013025741819 0 0.81723410853263523 0.59419663659258926 0 0.87159648282691515 0.61285406320581504 0 0.86956835336234861 0.571283299838105 0 0.86956835336234861 0.571283299838105 0 0.86907294890112186 0.52008116128001669 0 0.82862096804812391 0.55037090955459045 0 0.86907294890112186 0.52008116128001669 0 0.81441713509985358 0.51161854125224959 0 0.82862096804812391 0.55037090955459045 0 0.86907294890112186 0.52008116128001669 0 0.81441713509985358 0.51161854125224959 0 0.84723782639812573 0.48638347960178252 0 0.81441713509985358 0.51161854125224959 0 0.82862096804812391 0.55037090955459045 0 0.77151014687832564 0.54436834383023036 0 0.81441713509985358 0.51161854125224959 0 0.77151014687832564 0.54436834383023036 0 0.77846603114747959 0.49850927265137401 0 0.77151014687832564 0.54436834383023036 0 0.77846603114747959 0.49850927265137401 0 0.73947346780852752 0.49062440112282169 0 0.71809016091162536 0.58185040402320831 0 0.77151014687832564 0.54436834383023036 0 0.77293540622714185 0.59448302402785813 0 0.81723410853263523 0.59419663659258926 0 0.77151014687832564 0.54436834383023036 0 0.77293540622714185 0.59448302402785813 0 0.81723410853263523 0.59419663659258926 0 0.82862096804812391 0.55037090955459045 0 0.77151014687832564 0.54436834383023036 0 0.81723410853263523 0.59419663659258926 0 0.77293540622714185 0.59448302402785813 0 0.79884539758237771 0.62875045078114233 0 0.74994237037456724 0.62775548192980357 0 0.77293540622714185 0.59448302402785813 0 0.79884539758237771 0.62875045078114233 0 0.74994237037456724 0.62775548192980357 0 0.7750489929959945 0.66593931409600093 0 0.79884539758237771 0.62875045078114233 0 0.74999999999999989 0.69999999999999996 0 0.72500000000000064 0.67022701834392062 0 0.7750489929959945 0.66593931409600093 0 0.7750489929959945 0.66593931409600093 0 0.79999999999999982 0.69999999999999996 0 0.82457059160610424 0.66831947184359608 0 0.7750489929959945 0.66593931409600093 0 0.79884539758237771 0.62875045078114233 0 0.82457059160610424 0.66831947184359608 0 0.74999999999999989 0.69999999999999996 0 0.75841349681148107 0.75422312624214749 0 0.78578450296893509 0.73292684821144505 0 0.74999999999999989 0.69999999999999996 0 0.79999999999999982 0.69999999999999996 0 0.78578450296893509 0.73292684821144505 0 0.74999999999999989 0.69999999999999996 0 0.7750489929959945 0.66593931409600093 0 0.79999999999999982 0.69999999999999996 0 0.74999999999999989 0.69999999999999996 0 0.79999999999999982 0.69999999999999996 0 0.80185942888539485 0.77452061303608133 0 0.78578450296893509 0.73292684821144505 0 0.81864958914779962 0.73589050177899629 0 0.79999999999999982 0.69999999999999996 0 0.78578450296893509 0.73292684821144505 0 0.81864958914779962 0.73589050177899629 0 0.85491058998424563 0.76004753345552634 0 0.81864958914779962 0.73589050177899629 0 0.84999999999999987 0.69999999999999996 0 0.79999999999999982 0.69999999999999996 0 0.84999999999999987 0.69999999999999996 0 0.79999999999999982 0.69999999999999996 0 0.84999999999999987 0.69999999999999996 0 0.82457059160610424 0.66831947184359608 0 0.79999999999999982 0.69999999999999996 0 0.81864958914779962 0.73589050177899629 0 0.84999999999999987 0.69999999999999996 0 0.84999999999999987 0.69999999999999996 0 0.89999999999999991 0.69999999999999996 0 0.85491058998424563 0.76004753345552634 0 0.84999999999999987 0.69999999999999996 0 0.89999166460796554 0.74528934923809909 0 0.79884539758237771 0.62875045078114233 0 0.83758014339878906 0.63222013025741819 0 0.82457059160610424 0.66831947184359608 0 0.84999999999999987 0.69999999999999996 0 0.82457059160610424 0.66831947184359608 0 0.87712158428786946 0.65709029563313581 0 0.87159648282691515 0.61285406320581504 0 0.83758014339878906 0.63222013025741819 0 0.87712158428786946 0.65709029563313581 0 0.83758014339878906 0.63222013025741819 0 0.82457059160610424 0.66831947184359608 0 0.87712158428786946 0.65709029563313581 0 0.87712158428786946 0.65709029563313581 0 0.92057473616084773 0.66770436535372446 0 0.91750694127105259 0.63017627779935648 0 0.87159648282691515 0.61285406320581504 0 0.87712158428786946 0.65709029563313581 0 0.91750694127105259 0.63017627779935648 0 0.84999999999999987 0.69999999999999996 0 0.87712158428786946 0.65709029563313581 0 0.89999999999999991 0.69999999999999996 0 0.87712158428786946 0.65709029563313581 0 0.92057473616084773 0.66770436535372446 0 0.89999999999999991 0.69999999999999996 0 0.92057473616084773 0.66770436535372446 0 0.91750694127105259 0.63017627779935648 0 0.9578014258160763 0.65787212321113708 0 0.84999999999999987 0.69999999999999996 0 0.89999166460796554 0.74528934923809909 0 0.89999999999999991 0.69999999999999996 0 0.89999999999999991 0.69999999999999996 0 0.94999999999999996 0.69999999999999996 0 0.92057473616084773 0.66770436535372446 0 0.89999999999999991 0.69999999999999996 0 0.94999999999999996 0.69999999999999996 0 0.89999166460796554 0.74528934923809909 0 0.89999999999999991 0.69999999999999996 0 0.94999999999999996 0.69999999999999996 0 0.94399509803918602 0.75600490196082126 0 0.89999166460796554 0.74528934923809909 0 0.94999999999999996 0.69999999999999996 0 0.94399509803918602 0.75600490196082126 0 0.94999999999999996 0.69999999999999996 0 0.97166519676947294 0.73337114490064459 0 0.94999999999999996 0.69999999999999996 0 1 0.69999999999999996 0 0.94999999999999996 0.69999999999999996 0 1 0.69999999999999996 0 0.97166519676947294 0.73337114490064459 0 1 0.69999999999999996 0 0.97166519676947294 0.73337114490064459 0 1 0.74999999999993494 0 0.91750694127105259 0.63017627779935648 0 0.9578014258160763 0.65787212321113708 0 0.95867599106212187 0.60011091146651041 0 0.92057473616084773 0.66770436535372446 0 0.94999999999999996 0.69999999999999996 0 0.9578014258160763 0.65787212321113708 0 0.94999999999999996 0.69999999999999996 0 1 0.69999999999999996 0 0.9578014258160763 0.65787212321113708 0 1 0.69999999999999996 0 0.9578014258160763 0.65787212321113708 0 1 0.64999999999986979 0 0.9578014258160763 0.65787212321113708 0 1 0.64999999999986979 0 0.95867599106212187 0.60011091146651041 0 0.95867599106212187 0.60011091146651041 0 0.93732437411268477 0.55911392101136159 0 1 0.54999999999963112 0 1 0.64999999999986979 0 1 0.59999999999973963 0 0.95867599106212187 0.60011091146651041 0 1 0.59999999999973963 0 0.95867599106212187 0.60011091146651041 0 1 0.54999999999963112 0 0.91750694127105259 0.63017627779935648 0 0.95867599106212187 0.60011091146651041 0 0.91143117093204207 0.58709913730335972 0 0.95867599106212187 0.60011091146651041 0 0.91143117093204207 0.58709913730335972 0 0.93732437411268477 0.55911392101136159 0 0.86956835336234861 0.571283299838105 0 0.91143117093204207 0.58709913730335972 0 0.90900154012161016 0.53607784105648792 0 0.87159648282691515 0.61285406320581504 0 0.86956835336234861 0.571283299838105 0 0.91143117093204207 0.58709913730335972 0 0.87159648282691515 0.61285406320581504 0 0.91750694127105259 0.63017627779935648 0 0.91143117093204207 0.58709913730335972 0 0.86907294890112186 0.52008116128001669 0 0.90900154012161016 0.53607784105648792 0 0.91696753777131557 0.497780560203536 0 0.86956835336234861 0.571283299838105 0 0.86907294890112186 0.52008116128001669 0 0.90900154012161016 0.53607784105648792 0 0.90900154012161016 0.53607784105648792 0 0.93732437411268477 0.55911392101136159 0 0.95631871884947484 0.51827533208233789 0 0.91143117093204207 0.58709913730335972 0 0.90900154012161016 0.53607784105648792 0 0.93732437411268477 0.55911392101136159 0 0.90900154012161016 0.53607784105648792 0 0.95631871884947484 0.51827533208233789 0 0.91696753777131557 0.497780560203536 0 0.93732437411268477 0.55911392101136159 0 0.95631871884947484 0.51827533208233789 0 1 0.54999999999963112 0 0.95631871884947484 0.51827533208233789 0 1 0.54999999999963112 0 1 0.49999999999950101 0 0.95631871884947484 0.51827533208233789 0 1 0.49999999999950101 0 0.96228564064454991 0.48206450662049471 0 1 0.49999999999950101 0 1 0.44999999999963131 0 0.96228564064454991 0.48206450662049471 0 1 0.44999999999963131 0 0.93814194660195893 0.44426664081746747 0 0.96228564064454991 0.48206450662049471 0 0.93814194660195893 0.44426664081746747 0 0.96228564064454991 0.48206450662049471 0 0.91696753777131557 0.497780560203536 0 0.95631871884947484 0.51827533208233789 0 0.96228564064454991 0.48206450662049471 0 0.91696753777131557 0.497780560203536 0 1 0.39999999999978308 0 0.95871855522754235 0.40006508612975411 0 1 0.34999999999993492 0 1 0.44999999999963131 0 1 0.39999999999978308 0 0.95871855522754235 0.40006508612975411 0 1 0.44999999999963131 0 0.93814194660195893 0.44426664081746747 0 0.95871855522754235 0.40006508612975411 0 0.95871855522754235 0.40006508612975411 0 0.90594285160987287 0.4141265964174129 0 0.91750694127107502 0.36982372220068471 0 0.93814194660195893 0.44426664081746747 0 0.95871855522754235 0.40006508612975411 0 0.90594285160987287 0.4141265964174129 0 0.90594285160987287 0.4141265964174129 0 0.88594198078881503 0.46167788676578442 0 0.86411095495256451 0.42388805655111889 0 0.90594285160987287 0.4141265964174129 0 0.86411095495256451 0.42388805655111889 0 0.86844634540301924 0.38530937474099819 0 0.90594285160987287 0.4141265964174129 0 0.86844634540301924 0.38530937474099819 0 0.91750694127107502 0.36982372220068471 0 0.93814194660195893 0.44426664081746747 0 0.91696753777131557 0.497780560203536 0 0.88594198078881503 0.46167788676578442 0 0.93814194660195893 0.44426664081746747 0 0.90594285160987287 0.4141265964174129 0 0.88594198078881503 0.46167788676578442 0 0.86907294890112186 0.52008116128001669 0 0.91696753777131557 0.497780560203536 0 0.88594198078881503 0.46167788676578442 0 0.86907294890112186 0.52008116128001669 0 0.88594198078881503 0.46167788676578442 0 0.84723782639812573 0.48638347960178252 0 0.81441713509985358 0.51161854125224959 0 0.84723782639812573 0.48638347960178252 0 0.81400510706333218 0.47357325943904899 0 0.84723782639812573 0.48638347960178252 0 0.81400510706333218 0.47357325943904899 0 0.84925632466077294 0.45359738909549091 0 0.81400510706333218 0.47357325943904899 0 0.84925632466077294 0.45359738909549091 0 0.81973119833356312 0.43505687159469048 0 0.88594198078881503 0.46167788676578442 0 0.84723782639812573 0.48638347960178252 0 0.84925632466077294 0.45359738909549091 0 0.84925632466077294 0.45359738909549091 0 0.86411095495256451 0.42388805655111889 0 0.81973119833356312 0.43505687159469048 0 0.88594198078881503 0.46167788676578442 0 0.84925632466077294 0.45359738909549091 0 0.86411095495256451 0.42388805655111889 0 0.86411095495256451 0.42388805655111889 0 0.86844634540301924 0.38530937474099819 0 0.81308179852519835 0.39754945808726527 0 0.86844634540301924 0.38530937474099819 0 0.81308179852519835 0.39754945808726527 0 0.83573492347052902 0.36590755630746369 0 0.86411095495256451 0.42388805655111889 0 0.81308179852519835 0.39754945808726527 0 0.81973119833356312 0.43505687159469048 0 0.81973119833356312 0.43505687159469048 0 0.77354604466818633 0.40378688774472771 0 0.77972660463949339 0.45529290596363098 0 0.81308179852519835 0.39754945808726527 0 0.81973119833356312 0.43505687159469048 0 0.77354604466818633 0.40378688774472771 0 0.81308179852519835 0.39754945808726527 0 0.77354604466818633 0.40378688774472771 0 0.78145581580700685 0.34881365920033602 0 0.77354604466818633 0.40378688774472771 0 0.77972660463949339 0.45529290596363098 0 0.73483647259922602 0.44789725365921768 0 0.77972660463949339 0.45529290596363098 0 0.73483647259922602 0.44789725365921768 0 0.73947346780852752 0.49062440112282169 0 0.77972660463949339 0.45529290596363098 0 0.77846603114747959 0.49850927265137401 0 0.73947346780852752 0.49062440112282169 0 0.81400510706333218 0.47357325943904899 0 0.77972660463949339 0.45529290596363098 0 0.77846603114747959 0.49850927265137401 0 0.81441713509985358 0.51161854125224959 0 0.81400510706333218 0.47357325943904899 0 0.77846603114747959 0.49850927265137401 0 0.81400510706333218 0.47357325943904899 0 0.81973119833356312 0.43505687159469048 0 0.77972660463949339 0.45529290596363098 0 0.79999999999999982 0.29999999999999999 0 0.77075983436335049 0.25919399014334171 0 0.81486180804364938 0.26321394949780091 0 0.79999999999999982 0.29999999999999999 0 0.74999999999999989 0.29999999999999999 0 0.79999999999999982 0.29999999999999999 0 0.77075983436335049 0.25919399014334171 0 0.74999999999999989 0.29999999999999999 0 0.79999999999999982 0.29999999999999999 0 0.78145581580700685 0.34881365920033602 0 0.74999999999999989 0.29999999999999999 0 0.78145581580700685 0.34881365920033602 0 0.73090396928863699 0.33699297293167962 0 0.74999999999999989 0.29999999999999999 0 0.77354604466818633 0.40378688774472771 0 0.78145581580700685 0.34881365920033602 0 0.74764719760526988 0.3719647154012321 0 0.78145581580700685 0.34881365920033602 0 0.74764719760526988 0.3719647154012321 0 0.73090396928863699 0.33699297293167962 0 0.81308179852519835 0.39754945808726527 0 0.78145581580700685 0.34881365920033602 0 0.83573492347052902 0.36590755630746369 0 0.79999999999999982 0.29999999999999999 0 0.78145581580700685 0.34881365920033602 0 0.82500000000000062 0.33010209762754811 0 0.78145581580700685 0.34881365920033602 0 0.82500000000000062 0.33010209762754811 0 0.83573492347052902 0.36590755630746369 0 0.82500000000000062 0.33010209762754811 0 0.83573492347052902 0.36590755630746369 0 0.87430060258887643 0.34056085888204451 0 0.86844634540301924 0.38530937474099819 0 0.83573492347052902 0.36590755630746369 0 0.87430060258887643 0.34056085888204451 0 0.82500000000000062 0.33010209762754811 0 0.87430060258887643 0.34056085888204451 0 0.84999999999999987 0.29999999999999999 0 0.87430060258887643 0.34056085888204451 0 0.84999999999999987 0.29999999999999999 0 0.89999999999999991 0.29999999999999999 0 0.84999999999999987 0.29999999999999999 0 0.81486180804364938 0.26321394949780091 0 0.8517097391133297 0.2356960729520409 0 0.84999999999999987 0.29999999999999999 0 0.89898474358614167 0.25391965591104898 0 0.8517097391133297 0.2356960729520409 0 0.84999999999999987 0.29999999999999999 0 0.89999999999999991 0.29999999999999999 0 0.79999999999999982 0.29999999999999999 0 0.82500000000000062 0.33010209762754811 0 0.84999999999999987 0.29999999999999999 0 0.79999999999999982 0.29999999999999999 0 0.84999999999999987 0.29999999999999999 0 0.81486180804364938 0.26321394949780091 0 0.79999999999999982 0.29999999999999999 0 0.84999999999999987 0.29999999999999999 0 0.84999999999999987 0.29999999999999999 0 0.89898474358614167 0.25391965591104898 0 0.89999999999999991 0.29999999999999999 0 0.89999999999999991 0.29999999999999999 0 0.94999999999999996 0.29999999999999999 0 0.89999999999999991 0.29999999999999999 0 0.92012390126144183 0.33123581297173937 0 0.94999999999999996 0.29999999999999999 0 0.89898474358614167 0.25391965591104898 0 0.89999999999999991 0.29999999999999999 0 0.94999999999999996 0.29999999999999999 0 0.89898474358614167 0.25391965591104898 0 0.94999999999999996 0.29999999999999999 0 0.94399509803921056 0.24399509803922639 0 0.86844634540301924 0.38530937474099819 0 0.87430060258887643 0.34056085888204451 0 0.91750694127107502 0.36982372220068471 0 0.87430060258887643 0.34056085888204451 0 0.92012390126144183 0.33123581297173937 0 0.91750694127107502 0.36982372220068471 0 0.87430060258887643 0.34056085888204451 0 0.89999999999999991 0.29999999999999999 0 0.92012390126144183 0.33123581297173937 0 0.92012390126144183 0.33123581297173937 0 0.91750694127107502 0.36982372220068471 0 0.95780851984364423 0.34215720972155339 0 0.95871855522754235 0.40006508612975411 0 0.91750694127107502 0.36982372220068471 0 0.95780851984364423 0.34215720972155339 0 0.92012390126144183 0.33123581297173937 0 0.95780851984364423 0.34215720972155339 0 0.94999999999999996 0.29999999999999999 0 0.95780851984364423 0.34215720972155339 0 0.94999999999999996 0.29999999999999999 0 1 0.29999999999999999 0 0.95780851984364423 0.34215720972155339 0 1 0.34999999999993492 0 1 0.29999999999999999 0 0.95871855522754235 0.40006508612975411 0 0.95780851984364423 0.34215720972155339 0 1 0.34999999999993492 0 0.94999999999999996 0.29999999999999999 0 0.97166519676951801 0.26662885509932011 0 0.94399509803921056 0.24399509803922639 0 0.94999999999999996 0.29999999999999999 0 1 0.29999999999999999 0 0.94999999999999996 0.29999999999999999 0 1 0.29999999999999999 0 0.97166519676951801 0.26662885509932011 0 1 0.29999999999999999 0 0.97166519676951801 0.26662885509932011 0 1 0.24999999999987299 0 0.97166519676951801 0.26662885509932011 0 0.97435614836740092 0.22499999999981049 0 1 0.24999999999987299 0 0.97435614836740092 0.22499999999981049 0 1 0.24999999999987299 0 1 0.19999999999974799 0 0.97435614836740092 0.22499999999981049 0 0.94399509803921056 0.24399509803922639 0 0.95391631417672862 0.19584263333809451 0 0.97166519676951801 0.26662885509932011 0 0.97435614836740092 0.22499999999981049 0 0.94399509803921056 0.24399509803922639 0 0.97435614836740092 0.22499999999981049 0 0.95391631417672862 0.19584263333809451 0 1 0.19999999999974799 0 0.95391631417672862 0.19584263333809451 0 1 0.14999999999961891 0 0.93677536231883773 0.14999999999999089 0 1 0.14999999999961891 0 0.93677536231883773 0.14999999999999089 0 0.95386563387744361 0.1041487415577465 0 0.95391631417672862 0.19584263333809451 0 1 0.19999999999974799 0 1 0.14999999999961891 0 0.95391631417672862 0.19584263333809451 0 0.93677536231883773 0.14999999999999089 0 0.90416666666668166 0.20416666666667119 0 0.93677536231883773 0.14999999999999089 0 0.88088768115941807 0.14674609810479519 0 0.90416666666668166 0.20416666666667119 0 0.93677536231883773 0.14999999999999089 0 0.88088768115941807 0.14674609810479519 0 0.90299850604006393 0.09563452813493091 0 0.88088768115941807 0.14674609810479519 0 0.90416666666668166 0.20416666666667119 0 0.85600844944842547 0.1848341897950983 0 0.89898474358614167 0.25391965591104898 0 0.90416666666668166 0.20416666666667119 0 0.8517097391133297 0.2356960729520409 0 0.89898474358614167 0.25391965591104898 0 0.94399509803921056 0.24399509803922639 0 0.90416666666668166 0.20416666666667119 0 0.94399509803921056 0.24399509803922639 0 0.95391631417672862 0.19584263333809451 0 0.90416666666668166 0.20416666666667119 0 0.94999999999986839 0 0 0.97166519676946894 0.033371144900598393 0 0.94399509803922566 0.056004901960802607 0 0.94999999999986839 0 0 1 0 0 0.97166519676946894 0.033371144900598393 0 1 0 0 1 0.049999999999896842 0 0.97166519676946894 0.033371144900598393 0 1 0.049999999999896842 0 0.97166519676946894 0.033371144900598393 0 0.97435614836748241 0.074999999999825387 0 0.97166519676946894 0.033371144900598393 0 0.94399509803922566 0.056004901960802607 0 0.97435614836748241 0.074999999999825387 0 0.94399509803922566 0.056004901960802607 0 0.97435614836748241 0.074999999999825387 0 0.95386563387744361 0.1041487415577465 0 0.97435614836748241 0.074999999999825387 0 1 0.099999999999753911 0 0.95386563387744361 0.1041487415577465 0 1 0.049999999999896842 0 0.97435614836748241 0.074999999999825387 0 1 0.099999999999753911 0 1 0.14999999999961891 0 1 0.099999999999753911 0 0.95386563387744361 0.1041487415577465 0 0.93677536231883773 0.14999999999999089 0 0.95386563387744361 0.1041487415577465 0 0.90299850604006393 0.09563452813493091 0 0.88088768115941807 0.14674609810479519 0 0.90299850604006393 0.09563452813493091 0 0.84725310900442086 0.10779732082922661 0 0.90299850604006393 0.09563452813493091 0 0.899991664607802 0.045289349238254978 0 0.85491058998398861 0.060047533455626502 0 0.94399509803922566 0.056004901960802607 0 0.95386563387744361 0.1041487415577465 0 0.90299850604006393 0.09563452813493091 0 0.94399509803922566 0.056004901960802607 0 0.90299850604006393 0.09563452813493091 0 0.899991664607802 0.045289349238254978 0 0.94999999999986839 0 0 0.94399509803922566 0.056004901960802607 0 0.899991664607802 0.045289349238254978 0 0.899991664607802 0.045289349238254978 0 0.89999999999973679 0 0 0.84999999999960507 0 0 0.94999999999986839 0 0 0.899991664607802 0.045289349238254978 0 0.89999999999973679 0 0 0.84999999999960507 0 0 0.81864958914740749 0.035890501779055867 0 0.79999999999947335 0 0 0.899991664607802 0.045289349238254978 0 0.84999999999960507 0 0 0.85491058998398861 0.060047533455626502 0 0.85491058998398861 0.060047533455626502 0 0.81864958914740749 0.035890501779055867 0 0.80185942888501827 0.074520613036224564 0 0.84999999999960507 0 0 0.85491058998398861 0.060047533455626502 0 0.81864958914740749 0.035890501779055867 0 0.85491058998398861 0.060047533455626502 0 0.84725310900442086 0.10779732082922661 0 0.80185942888501827 0.074520613036224564 0 0.90299850604006393 0.09563452813493091 0 0.85491058998398861 0.060047533455626502 0 0.84725310900442086 0.10779732082922661 0 0.84725310900442086 0.10779732082922661 0 0.80076557130237269 0.1154587552654202 0 0.80185942888501827 0.074520613036224564 0 0.84725310900442086 0.10779732082922661 0 0.80076557130237269 0.1154587552654202 0 0.82709327591102189 0.14937141670914489 0 0.80076557130237269 0.1154587552654202 0 0.76878382444651716 0.097147941686331368 0 0.80185942888501827 0.074520613036224564 0 0.76878382444651716 0.097147941686331368 0 0.77144070960558853 0.14311854477243749 0 0.72525833953073282 0.1032114801687094 0 0.80076557130237269 0.1154587552654202 0 0.76878382444651716 0.097147941686331368 0 0.77144070960558853 0.14311854477243749 0 0.76878382444651716 0.097147941686331368 0 0.80185942888501827 0.074520613036224564 0 0.7527966693318906 0.053051678021508272 0 0.81864958914740749 0.035890501779055867 0 0.80185942888501827 0.074520613036224564 0 0.78393852574753176 0.032039079577822822 0 0.80185942888501827 0.074520613036224564 0 0.78393852574753176 0.032039079577822822 0 0.7527966693318906 0.053051678021508272 0 0.78393852574753176 0.032039079577822822 0 0.7527966693318906 0.053051678021508272 0 0.74999999999934175 0 0 0.78393852574753176 0.032039079577822822 0 0.79999999999947335 0 0 0.74999999999934175 0 0 0.81864958914740749 0.035890501779055867 0 0.78393852574753176 0.032039079577822822 0 0.79999999999947335 0 0 0.81283102246527783 0.1881007222486438 0 0.8517097391133297 0.2356960729520409 0 0.79680861578956375 0.22656778056752541 0 0.81283102246527783 0.1881007222486438 0 0.8517097391133297 0.2356960729520409 0 0.85600844944842547 0.1848341897950983 0 0.81486180804364938 0.26321394949780091 0 0.8517097391133297 0.2356960729520409 0 0.79680861578956375 0.22656778056752541 0 0.90416666666668166 0.20416666666667119 0 0.8517097391133297 0.2356960729520409 0 0.85600844944842547 0.1848341897950983 0 0.88088768115941807 0.14674609810479519 0 0.85600844944842547 0.1848341897950983 0 0.82709327591102189 0.14937141670914489 0 0.88088768115941807 0.14674609810479519 0 0.84725310900442086 0.10779732082922661 0 0.82709327591102189 0.14937141670914489 0 0.81283102246527783 0.1881007222486438 0 0.85600844944842547 0.1848341897950983 0 0.82709327591102189 0.14937141670914489 0 0.81283102246527783 0.1881007222486438 0 0.77144070960558853 0.14311854477243749 0 0.76587607630038135 0.18880039518954719 0 0.81283102246527783 0.1881007222486438 0 0.82709327591102189 0.14937141670914489 0 0.77144070960558853 0.14311854477243749 0 0.80076557130237269 0.1154587552654202 0 0.82709327591102189 0.14937141670914489 0 0.77144070960558853 0.14311854477243749 0 0.77144070960558853 0.14311854477243749 0 0.76587607630038135 0.18880039518954719 0 0.72634814642510737 0.16106886917518889 0 0.76587607630038135 0.18880039518954719 0 0.79680861578956375 0.22656778056752541 0 0.75668890529066124 0.2244279804069782 0 0.81283102246527783 0.1881007222486438 0 0.76587607630038135 0.18880039518954719 0 0.79680861578956375 0.22656778056752541 0 0.77075983436335049 0.25919399014334171 0 0.81486180804364938 0.26321394949780091 0 0.79680861578956375 0.22656778056752541 0 0.77075983436335049 0.25919399014334171 0 0.79680861578956375 0.22656778056752541 0 0.75668890529066124 0.2244279804069782 0 0.77075983436335049 0.25919399014334171 0 0.75668890529066124 0.2244279804069782 0 0.72500000000000064 0.2498161764706 0 0.75668890529066124 0.2244279804069782 0 0.72500000000000064 0.2498161764706 0 0.72500000000001008 0.19776155966387679 0 0.72500000000000064 0.2498161764706 0 0.69397719155551807 0.2245125647000914 0 0.72500000000001008 0.19776155966387679 0 0.72500000000000064 0.2498161764706 0 0.69397719155551807 0.2245125647000914 0 0.67933712972090698 0.25920070958121938 0 0.69397719155551807 0.2245125647000914 0 0.72500000000001008 0.19776155966387679 0 0.6865991819015953 0.189116534044597 0 0.76587607630038135 0.18880039518954719 0 0.75668890529066124 0.2244279804069782 0 0.72500000000001008 0.19776155966387679 0 0.76587607630038135 0.18880039518954719 0 0.72500000000001008 0.19776155966387679 0 0.72634814642510737 0.16106886917518889 0 0.77144070960558853 0.14311854477243749 0 0.72634814642510737 0.16106886917518889 0 0.72525833953073282 0.1032114801687094 0 0.72634814642510737 0.16106886917518889 0 0.68391457121233579 0.14440470121196541 0 0.72525833953073282 0.1032114801687094 0 0.72500000000001008 0.19776155966387679 0 0.72634814642510737 0.16106886917518889 0 0.6865991819015953 0.189116534044597 0 0.72634814642510737 0.16106886917518889 0 0.68391457121233579 0.14440470121196541 0 0.6865991819015953 0.189116534044597 0 0.68391457121233579 0.14440470121196541 0 0.64011864159029941 0.18789607982138171 0 0.6865991819015953 0.189116534044597 0 0.68391457121233579 0.14440470121196541 0 0.65290632656860115 0.11434202593454081 0 0.6236733212988993 0.14864538214901801 0 0.68391457121233579 0.14440470121196541 0 0.64011864159029941 0.18789607982138171 0 0.6236733212988993 0.14864538214901801 0 0.64011864159029941 0.18789607982138171 0 0.65394964615507722 0.22666784374016369 0 0.59814117807200873 0.23398510860739519 0 0.65394964615507722 0.22666784374016369 0 0.59814117807200873 0.23398510860739519 0 0.62657463266645097 0.26524202571255862 0 0.69397719155551807 0.2245125647000914 0 0.65394964615507722 0.22666784374016369 0 0.67933712972090698 0.25920070958121938 0 0.64011864159029941 0.18789607982138171 0 0.65394964615507722 0.22666784374016369 0 0.6865991819015953 0.189116534044597 0 0.69397719155551807 0.2245125647000914 0 0.65394964615507722 0.22666784374016369 0 0.6865991819015953 0.189116534044597 0 0.69999999999921003 0 0 0.72683645290270404 0.027797073151180601 0 0.7010294155333181 0.056779085686491267 0 0.69999999999921003 0 0 0.7010294155333181 0.056779085686491267 0 0.66369801598854572 0.036327466368102787 0 0.7527966693318906 0.053051678021508272 0 0.74999999999934175 0 0 0.72683645290270404 0.027797073151180601 0 0.69999999999921003 0 0 0.74999999999934175 0 0 0.72683645290270404 0.027797073151180601 0 0.7527966693318906 0.053051678021508272 0 0.72683645290270404 0.027797073151180601 0 0.7010294155333181 0.056779085686491267 0 0.7010294155333181 0.056779085686491267 0 0.72525833953073282 0.1032114801687094 0 0.68330259535470161 0.10038702501083881 0 0.7527966693318906 0.053051678021508272 0 0.7010294155333181 0.056779085686491267 0 0.72525833953073282 0.1032114801687094 0 0.76878382444651716 0.097147941686331368 0 0.7527966693318906 0.053051678021508272 0 0.72525833953073282 0.1032114801687094 0 0.68391457121233579 0.14440470121196541 0 0.72525833953073282 0.1032114801687094 0 0.68330259535470161 0.10038702501083881 0 0.68330259535470161 0.10038702501083881 0 0.65290632656860115 0.11434202593454081 0 0.65408113592120842 0.073941773121567966 0 0.68391457121233579 0.14440470121196541 0 0.68330259535470161 0.10038702501083881 0 0.65290632656860115 0.11434202593454081 0 0.65290632656860115 0.11434202593454081 0 0.61956000905586006 0.1043312481793135 0 0.6236733212988993 0.14864538214901801 0 0.65290632656860115 0.11434202593454081 0 0.65408113592120842 0.073941773121567966 0 0.61956000905586006 0.1043312481793135 0 0.65408113592120842 0.073941773121567966 0 0.61940220174112337 0.047251958781050582 0 0.61956000905586006 0.1043312481793135 0 0.7010294155333181 0.056779085686491267 0 0.68330259535470161 0.10038702501083881 0 0.65408113592120842 0.073941773121567966 0 0.7010294155333181 0.056779085686491267 0 0.65408113592120842 0.073941773121567966 0 0.66369801598854572 0.036327466368102787 0 0.65408113592120842 0.073941773121567966 0 0.66369801598854572 0.036327466368102787 0 0.61940220174112337 0.047251958781050582 0 0.66369801598854572 0.036327466368102787 0 0.64999999999907843 0 0 0.61940220174112337 0.047251958781050582 0 0.69999999999921003 0 0 0.66369801598854572 0.036327466368102787 0 0.64999999999907843 0 0 0.59999999999894682 0 0 0.57396793757665954 0.037011367187645222 0 0.5499999999988151 0 0 0.64999999999907843 0 0 0.59999999999894682 0 0 0.61940220174112337 0.047251958781050582 0 0.59999999999894682 0 0 0.61940220174112337 0.047251958781050582 0 0.57396793757665954 0.037011367187645222 0 0.61940220174112337 0.047251958781050582 0 0.57396793757665954 0.037011367187645222 0 0.57667858002728545 0.078486105337742612 0 0.61940220174112337 0.047251958781050582 0 0.57667858002728545 0.078486105337742612 0 0.61956000905586006 0.1043312481793135 0 0.61956000905586006 0.1043312481793135 0 0.58516465772821369 0.11653801664834119 0 0.6236733212988993 0.14864538214901801 0 0.57667858002728545 0.078486105337742612 0 0.61956000905586006 0.1043312481793135 0 0.58516465772821369 0.11653801664834119 0 0.58516465772821369 0.11653801664834119 0 0.54979595918804436 0.1060565713905809 0 0.56202748619534593 0.15054058349222879 0 0.57667858002728545 0.078486105337742612 0 0.58516465772821369 0.11653801664834119 0 0.54979595918804436 0.1060565713905809 0 0.54979595918804436 0.1060565713905809 0 0.51076801031701946 0.1202837388510348 0 0.52375890611712683 0.059318771819432882 0 0.47881186583059909 0.093591717165689425 0 0.51076801031701946 0.1202837388510348 0 0.52375890611712683 0.059318771819432882 0 0.57667858002728545 0.078486105337742612 0 0.54979595918804436 0.1060565713905809 0 0.52375890611712683 0.059318771819432882 0 0.57396793757665954 0.037011367187645222 0 0.52375890611712683 0.059318771819432882 0 0.5499999999988151 0 0 0.57396793757665954 0.037011367187645222 0 0.57667858002728545 0.078486105337742612 0 0.52375890611712683 0.059318771819432882 0 0.49999999999869432 0 0 0.52375890611712683 0.059318771819432882 0 0.5499999999988151 0 0 0.59814117807200873 0.23398510860739519 0 0.59443395090188023 0.18455690917515069 0 0.55306006949600994 0.20198184231352201 0 0.59814117807200873 0.23398510860739519 0 0.55306006949600994 0.20198184231352201 0 0.54248833945060504 0.2520322959927106 0 0.64011864159029941 0.18789607982138171 0 0.59814117807200873 0.23398510860739519 0 0.59443395090188023 0.18455690917515069 0 0.64011864159029941 0.18789607982138171 0 0.59443395090188023 0.18455690917515069 0 0.6236733212988993 0.14864538214901801 0 0.58516465772821369 0.11653801664834119 0 0.6236733212988993 0.14864538214901801 0 0.56202748619534593 0.15054058349222879 0 0.59443395090188023 0.18455690917515069 0 0.6236733212988993 0.14864538214901801 0 0.56202748619534593 0.15054058349222879 0 0.59443395090188023 0.18455690917515069 0 0.56202748619534593 0.15054058349222879 0 0.55306006949600994 0.20198184231352201 0 0.56202748619534593 0.15054058349222879 0 0.51729576145820033 0.1683240575987815 0 0.55306006949600994 0.20198184231352201 0 0.54979595918804436 0.1060565713905809 0 0.51076801031701946 0.1202837388510348 0 0.56202748619534593 0.15054058349222879 0 0.48466639505193998 0.1421439844745814 0 0.51076801031701946 0.1202837388510348 0 0.51729576145820033 0.1683240575987815 0 0.51076801031701946 0.1202837388510348 0 0.56202748619534593 0.15054058349222879 0 0.51729576145820033 0.1683240575987815 0 0.51729576145820033 0.1683240575987815 0 0.50760557329222289 0.20700468884612061 0 0.55306006949600994 0.20198184231352201 0 0.50760557329222289 0.20700468884612061 0 0.55306006949600994 0.20198184231352201 0 0.54248833945060504 0.2520322959927106 0 0.49695729691142171 0.25014895411178018 0 0.50760557329222289 0.20700468884612061 0 0.54248833945060504 0.2520322959927106 0 0.49695729691142171 0.25014895411178018 0 0.5 0.29999999999999999 0 0.54248833945060504 0.2520322959927106 0 0.5 0.29999999999999999 0 0.54999999999999993 0.29999999999999999 0 0.52752007115234678 0.33170632466418198 0 0.5 0.29999999999999999 0 0.54999999999999993 0.29999999999999999 0 0.54248833945060504 0.2520322959927106 0 0.5 0.29999999999999999 0 0.54999999999999993 0.29999999999999999 0 0.54999999999999993 0.29999999999999999 0 0.54248833945060504 0.2520322959927106 0 0.5794309697024993 0.27124795968204829 0 0.59814117807200873 0.23398510860739519 0 0.54248833945060504 0.2520322959927106 0 0.5794309697024993 0.27124795968204829 0 0.54999999999999993 0.29999999999999999 0 0.59999999999999976 0.29999999999999999 0 0.54999999999999993 0.29999999999999999 0 0.5794309697024993 0.27124795968204829 0 0.59999999999999976 0.29999999999999999 0 0.59999999999999976 0.29999999999999999 0 0.6499999999999998 0.29999999999999999 0 0.5794309697024993 0.27124795968204829 0 0.59999999999999976 0.29999999999999999 0 0.62657463266645097 0.26524202571255862 0 0.59814117807200873 0.23398510860739519 0 0.5794309697024993 0.27124795968204829 0 0.62657463266645097 0.26524202571255862 0 0.61959173890754571 0.33832250091341232 0 0.56836770495988642 0.3523062350852913 0 0.6084546825910605 0.37989672713932537 0 0.59999999999999976 0.29999999999999999 0 0.61959173890754571 0.33832250091341232 0 0.6499999999999998 0.29999999999999999 0 0.59999999999999976 0.29999999999999999 0 0.61959173890754571 0.33832250091341232 0 0.56836770495988642 0.3523062350852913 0 0.54999999999999993 0.29999999999999999 0 0.59999999999999976 0.29999999999999999 0 0.56836770495988642 0.3523062350852913 0 0.56836770495988642 0.3523062350852913 0 0.52752007115234678 0.33170632466418198 0 0.52289427570932567 0.3932284363388488 0 0.54999999999999993 0.29999999999999999 0 0.56836770495988642 0.3523062350852913 0 0.52752007115234678 0.33170632466418198 0 0.49077833859261139 0.35229981449445641 0 0.5 0.29999999999999999 0 0.52752007115234678 0.33170632466418198 0 0.49077833859261139 0.35229981449445641 0 0.52752007115234678 0.33170632466418198 0 0.52289427570932567 0.3932284363388488 0 0.56836770495988642 0.3523062350852913 0 0.52289427570932567 0.3932284363388488 0 0.57744073070774993 0.41535148636609359 0 0.52289427570932567 0.3932284363388488 0 0.53823865529665704 0.45873898050322898 0 0.57744073070774993 0.41535148636609359 0 0.48858720058566618 0.43964267759203868 0 0.52289427570932567 0.3932284363388488 0 0.53823865529665704 0.45873898050322898 0 0.49102375406324739 0.49123754822244059 0 0.53330375813596242 0.50827942741749099 0 0.53823865529665704 0.45873898050322898 0 0.49102375406324739 0.49123754822244059 0 0.48858720058566618 0.43964267759203868 0 0.53823865529665704 0.45873898050322898 0 0.53330375813596242 0.50827942741749099 0 0.57611405284611883 0.50165903596042916 0 0.53823865529665704 0.45873898050322898 0 0.57611405284611883 0.50165903596042916 0 0.57975577671020095 0.46172033326338591 0 0.61547661924074692 0.48539576058873962 0 0.57611405284611883 0.50165903596042916 0 0.53823865529665704 0.45873898050322898 0 0.57975577671020095 0.46172033326338591 0 0.57975577671020095 0.46172033326338591 0 0.61209567303293111 0.44669033081290321 0 0.57744073070774993 0.41535148636609359 0 0.53823865529665704 0.45873898050322898 0 0.57975577671020095 0.46172033326338591 0 0.57744073070774993 0.41535148636609359 0 0.57975577671020095 0.46172033326338591 0 0.61209567303293111 0.44669033081290321 0 0.61547661924074692 0.48539576058873962 0 0.56836770495988642 0.3523062350852913 0 0.57744073070774993 0.41535148636609359 0 0.6084546825910605 0.37989672713932537 0 0.61209567303293111 0.44669033081290321 0 0.57744073070774993 0.41535148636609359 0 0.63912439215427275 0.41063340167983359 0 0.57744073070774993 0.41535148636609359 0 0.6084546825910605 0.37989672713932537 0 0.63912439215427275 0.41063340167983359 0 0.6084546825910605 0.37989672713932537 0 0.63912439215427275 0.41063340167983359 0 0.65481233915350323 0.35652751921065562 0 0.63912439215427275 0.41063340167983359 0 0.65178832218679827 0.45929119821019959 0 0.6879972333610942 0.43038561374960838 0 0.63912439215427275 0.41063340167983359 0 0.68128176404677243 0.38629093627004979 0 0.6879972333610942 0.43038561374960838 0 0.63912439215427275 0.41063340167983359 0 0.68128176404677243 0.38629093627004979 0 0.65481233915350323 0.35652751921065562 0 0.61547661924074692 0.48539576058873962 0 0.6541250972820879 0.49999999999999989 0 0.65178832218679827 0.45929119821019959 0 0.61209567303293111 0.44669033081290321 0 0.61547661924074692 0.48539576058873962 0 0.65178832218679827 0.45929119821019959 0 0.61209567303293111 0.44669033081290321 0 0.63912439215427275 0.41063340167983359 0 0.65178832218679827 0.45929119821019959 0 0.65178832218679827 0.45929119821019959 0 0.69385896817107129 0.48377516041410151 0 0.6879972333610942 0.43038561374960838 0 0.6541250972820879 0.49999999999999989 0 0.65178832218679827 0.45929119821019959 0 0.69385896817107129 0.48377516041410151 0 0.7152569930854884 0.5237994455134295 0 0.69385896817107129 0.48377516041410151 0 0.73947346780852752 0.49062440112282169 0 0.69385896817107129 0.48377516041410151 0 0.73483647259922602 0.44789725365921768 0 0.6879972333610942 0.43038561374960838 0 0.69385896817107129 0.48377516041410151 0 0.73483647259922602 0.44789725365921768 0 0.73947346780852752 0.49062440112282169 0 0.68128176404677243 0.38629093627004979 0 0.72622533758026719 0.40265885511101601 0 0.71508799138962864 0.36622814920737751 0 0.73483647259922602 0.44789725365921768 0 0.6879972333610942 0.43038561374960838 0 0.72622533758026719 0.40265885511101601 0 0.68128176404677243 0.38629093627004979 0 0.6879972333610942 0.43038561374960838 0 0.72622533758026719 0.40265885511101601 0 0.77354604466818633 0.40378688774472771 0 0.73483647259922602 0.44789725365921768 0 0.72622533758026719 0.40265885511101601 0 0.72622533758026719 0.40265885511101601 0 0.74764719760526988 0.3719647154012321 0 0.71508799138962864 0.36622814920737751 0 0.77354604466818633 0.40378688774472771 0 0.72622533758026719 0.40265885511101601 0 0.74764719760526988 0.3719647154012321 0 0.74764719760526988 0.3719647154012321 0 0.71508799138962864 0.36622814920737751 0 0.73090396928863699 0.33699297293167962 0 0.71508799138962864 0.36622814920737751 0 0.68887083591306764 0.33632058575757479 0 0.73090396928863699 0.33699297293167962 0 0.68128176404677243 0.38629093627004979 0 0.71508799138962864 0.36622814920737751 0 0.68887083591306764 0.33632058575757479 0 0.68887083591306764 0.33632058575757479 0 0.73090396928863699 0.33699297293167962 0 0.69999999999999984 0.29999999999999999 0 0.72500000000000064 0.2498161764706 0 0.74999999999999989 0.29999999999999999 0 0.69999999999999984 0.29999999999999999 0 0.74999999999999989 0.29999999999999999 0 0.69999999999999984 0.29999999999999999 0 0.73090396928863699 0.33699297293167962 0 0.74999999999999989 0.29999999999999999 0 0.69999999999999984 0.29999999999999999 0 0.77075983436335049 0.25919399014334171 0 0.72500000000000064 0.2498161764706 0 0.74999999999999989 0.29999999999999999 0 0.72500000000000064 0.2498161764706 0 0.69999999999999984 0.29999999999999999 0 0.67933712972090698 0.25920070958121938 0 0.69999999999999984 0.29999999999999999 0 0.67933712972090698 0.25920070958121938 0 0.6499999999999998 0.29999999999999999 0 0.68887083591306764 0.33632058575757479 0 0.69999999999999984 0.29999999999999999 0 0.6499999999999998 0.29999999999999999 0 0.69999999999999984 0.29999999999999999 0 0.6499999999999998 0.29999999999999999 0 0.67933712972090698 0.25920070958121938 0 0.62657463266645097 0.26524202571255862 0 0.6499999999999998 0.29999999999999999 0 0.65394964615507722 0.22666784374016369 0 0.67933712972090698 0.25920070958121938 0 0.62657463266645097 0.26524202571255862 0 0.59999999999999976 0.29999999999999999 0 0.62657463266645097 0.26524202571255862 0 0.6499999999999998 0.29999999999999999 0 0.61959173890754571 0.33832250091341232 0 0.6499999999999998 0.29999999999999999 0 0.65481233915350323 0.35652751921065562 0 0.61959173890754571 0.33832250091341232 0 0.6084546825910605 0.37989672713932537 0 0.65481233915350323 0.35652751921065562 0 0.68128176404677243 0.38629093627004979 0 0.68887083591306764 0.33632058575757479 0 0.65481233915350323 0.35652751921065562 0 0.68887083591306764 0.33632058575757479 0 0.6499999999999998 0.29999999999999999 0 0.65481233915350323 0.35652751921065562 0 
</DataArray>
</Points>
<Cells>
<DataArray type="UInt32" Name="connectivity" format="ascii">
0 1 2 3 4 5 6 7 8 9 10 11 12 13 14 15 16 17 18 19 20 21 22 23 24 25 26 27 28 29 30 31 32 33 34 35 36 37 38 39 40 41 42 43 44 45 46 47 48 49 50 51 52 53 54 55 56 57 58 59 60 61 62 63 64 65 66 67 68 69 70 71 72 73 74 75 76 77 78 79 80 81 82 83 84 85 86 87 88 89 90 91 92 93 94 95 96 97 98 99 100 101 102 103 104 105 106 107 108 109 110 111 112 113 114 115 116 117 118 119 120 121 122 123 124 125 126 127 128 129 130 131 132 133 134 135 136 137 138 139 140 141 142 143 144 145 146 147 148 149 150 151 152 153 154 155 156 157 158 159 160 161 162 163 164 165 166 167 168 169 170 171 172 173 174 175 176 177 178 179 180 181 182 183 184 185 186 187 188 189 190 191 192 193 194 195 196 197 198 199 200 201 202 203 204 205 206 207 208 209 210 211 212 213 214 215 216 217 218 219 220 221 222 223 224 225 226 227 228 229 230 231 232 233 234 235 236 237 238 239 240 241 242 243 244 245 246 247 248 249 250 251 252 253 254 255 256 257 258 259 260 261 262 263 264 265 266 267 268 269 270 271 272 273 274 275 276 277 278 279 280 281 282 283 284 285 286 287 288 289 290 291 292 293 294 295 296 297 298 299 300 301 302 303 304 305 306 307 308 309 310 311 312 313 314 315 316 317 318 319 320 321 322 323 324 325 326 327 328 329 330 331 332 333 334 335 336 337 338 339 340 341 342 343 344 345 346 347 348 349 350 351 352 353 354 355 356 357 358 359 360 361 362 363 364 365 366 367 368 369 370 371 372 373 374 375 376 377 378 379 380 381 382 383 384 385 386 387 388 389 390 391 392 393 394 395 396 397 398 399 400 401 402 403 404 405 406 407 408 409 410 411 412 413 414 415 416 417 418 419 420 421 422 423 424 425 426 427 428 429 430 431 432 433 434 435 436 437 438 439 440 441 442 443 444 445 446 447 448 449 450 451 452 453 454 455 456 457 458 459 460 461 462 463 464 465 466 467 468 469 470 471 472 473 474 475 476 477 478 479 480 481 482 483 484 485 486 487 488 489 490 491 492 493 494 495 496 497 498 499 500 501 502 503 504 505 506 507 508 509 510 511 512 513 514 515 516 517 518 519 520 521 522 523 524 525 526 527 528 529 530 531 532 533 534 535 536 537 538 539 540 541 542 543 544 545 546 547 548 549 550 551 552 553 554 555 556 557 558 559 560 561 562 563 564 565 566 567 568 569 570 571 572 573 574 575 576 577 578 579 580 581 582 583 584 585 586 587 588 589 590 591 592 593 594 595 596 597 598 599 600 601 602 603 604 605 606 607 608 609 610 611 612 613 614 615 616 617 618 619 620 621 622 623 624 625 626 627 628 629 630 631 632 633 634 635 636 637 638 639 640 641 642 643 644 645 646 647 648 649 650 651 652 653 654 655 656 657 658 659 660 661 662 663 664 665 666 667 668 669 670 671 672 673 674 675 676 677 678 679 680 681 682 683 684 685 686 687 688 689 690 691 692 693 694 695 696 697 698 699 700 701 702 703 704 705 706 707 708 709 710 711 712 713 714 715 716 717 718 719 720 721 722 723 724 725 726 727 728 729 730 731 732 733 734 735 736 737 738 739 740 741 742 743 744 745 746 747 748 749 750 751 752 753 754 755 756 757 758 759 760 761 762 763 764 765 766 767 768 769 770 771 772 773 774 775 776 777 778 779 780 781 782 783 784 785 786 787 788 789 790 791 792 793 794 795 796 797 798 799 800 801 802 803 804 805 806 807 808 809 810 811 812 813 814 815 816 817 818 819 820 821 822 823 824 825 826 827 828 829 830 831 832 833 834 835 836 837 838 839 840 841 842 843 844 845 846 847 848 849 850 851 852 853 854 855 856 857 858 859 860 861 862 863 864 865 866 867 868 869 870 871 872 873 874 875 876 877 878 879 880 881 882 883 884 885 886 887 888 889 890 891 892 893 894 895 896 897 898 899 900 901 902 903 904 905 906 907 908 909 910 911 912 913 914 915 916 917 918 919 920 921 922 923 924 925 926 927 928 929 930 931 932 933 934 935 936 937 938 939 940 941 942 943 944 945 946 947 948 949 950 951 952 953 954 955 956 957 958 959 960 961 962 963 964 965 966 967 968 969 970 971 972 973 974 975 976 977 978 979 980 981 982 983 984 985 986 987 988 989 990 991 992 993 994 995 996 997 998 999 1000 1001 1002 1003 1004 1005 1006 1007 1008 1009 1010 1011 1012 1013 1014 1015 1016 1017 1018 1019 1020 1021 1022 1023 1024 1025 1026 1027 1028 1029 1030 1031 1032 1033 1034 1035 1036 1037 1038 1039 1040 1041 1042 1043 1044 1045 1046 1047 1048 1049 1050 1051 1052 1053 1054 1055 1056 1057 1058 1059 1060 1061 1062 1063 1064 1065 1066 1067 1068 1069 1070 1071 1072 1073 1074 1075 1076 1077 1078 1079 1080 1081 1082 1083 1084 1085 1086 1087 1088 1089 1090 1091 1092 1093 1094 1095 1096 1097 1098 1099 1100 1101 1102 1103 1104 1105 1106 1107 1108 1109 1110 1111 1112 1113 1114 1115 1116 1117 1118 1119 1120 1121 1122 1123 1124 1125 1126 1127 1128 1129 1130 1131 1132 1133 1134 1135 1136 1137 1138 1139 1140 1141 1142 1143 1144 1145 1146 1147 1148 1149 1150 1151 1152 1153 1154 1155 1156 1157 1158 1159 1160 1161 1162 1163 1164 1165 1166 1167 1168 1169 1170 1171 1172 1173 1174 1175 1176 1177 1178 1179 1180 1181 1182 1183 1184 1185 1186 1187 1188 1189 1190 1191 1192 1193 1194 1195 1196 1197 1198 1199 1200 1201 1202 1203 1204 1205 1206 1207 1208 1209 1210 1211 1212 1213 1214 1215 1216 1217 1218 1219 1220 1221 1222 1223 1224 1225 1226 1227 1228 1229 1230 1231 1232 1233 1234 1235 1236 1237 1238 1239 1240 1241 1242 1243 1244 1245 1246 1247 1248 1249 1250 1251 1252 1253 1254 1255 1256 1257 1258 1259 1260 1261 1262 1263 1264 1265 1266 1267 1268 1269 1270 1271 1272 1273 1274 1275 1276 1277 1278 1279 1280 1281 1282 1283 1284 1285 1286 1287 1288 1289 1290 1291 1292 1293 1294 1295 1296 1297 1298 1299 1300 1301 1302 1303 1304 1305 1306 1307 1308 1309 1310 1311 1312 1313 1314 1315 1316 1317 1318 1319 1320 1321 1322 1323 1324 1325 1326 1327 1328 1329 1330 1331 1332 1333 1334 1335 1336 1337 1338 1339 1340 1341 1342 1343 1344 1345 1346 1347 1348 1349 1350 1351 1352 1353 1354 1355 1356 1357 1358 1359 1360 1361 1362 1363 1364 1365 1366 1367 1368 1369 1370 1371 1372 1373 1374 1375 1376 1377 1378 1379 1380 1381 1382 1383 1384 1385 1386 1387 1388 1389 1390 1391 1392 1393 1394 1395 1396 1397 1398 1399 1400 1401 1402 1403 1404 1405 1406 1407 1408 1409 1410 1411 1412 1413 1414 1415 1416 1417 1418 1419 1420 1421 1422 1423 1424 1425 1426 1427 1428 1429 1430 1431 1432 1433 1434 1435 1436 1437 1438 1439 1440 1441 1442 1443 1444 1445 1446 1447 1448 1449 1450 1451 1452 1453 1454 1455 1456 1457 1458 1459 1460 1461 1462 1463 1464 1465 1466 1467 1468 1469 1470 1471 1472 1473 1474 1475 1476 1477 1478 1479 1480 1481 1482 1483 1484 1485 1486 1487 1488 1489 1490 1491 1492 1493 1494 1495 1496 1497 1498 1499 1500 1501 1502 1503 1504 1505 1506 1507 1508 1509 1510 1511 1512 1513 1514 1515 1516 1517 1518 1519 1520 1521 1522 1523 1524 1525 1526 1527 1528 1529 1530 1531 1532 1533 1534 1535 1536 1537 1538 1539 1540 1541 1542 1543 1544 1545 1546 1547 1548 1549 1550 1551 1552 1553 1554 1555 1556 1557 1558 1559 1560 1561 1562 1563 1564 1565 1566 1567 1568 1569 1570 1571 1572 1573 1574 1575 1576 1577 1578 1579 1580 1581 1582 1583 1584 1585 1586 1587 1588 1589 1590 1591 1592 1593 1594 1595 1596 1597 1598 1599 1600 1601 1602 1603 1604 1605 1606 1607 1608 1609 1610 1611 1612 1613 1614 1615 1616 1617 1618 1619 1620 1621 1622 1623 1624 1625 1626 1627 1628 1629 1630 1631 1632 1633 1634 1635 1636 1637 1638 1639 1640 1641 1642 1643 1644 1645 1646 1647 1648 1649 1650 1651 1652 1653 1654 1655 1656 1657 1658 1659 1660 1661 1662 1663 1664 1665 1666 1667 1668 1669 1670 1671 1672 1673 1674 1675 1676 1677 1678 1679 1680 1681 1682 1683 1684 1685 1686 1687 1688 1689 1690 1691 1692 1693 1694 1695 1696 1697 1698 1699 1700 1701 1702 1703 1704 1705 1706 1707 1708 1709 1710 1711 1712 1713 1714 1715 1716 1717 1718 1719 1720 1721 1722 1723 1724 1725 1726 1727 1728 1729 1730 1731 1732 1733 1734 1735 1736 1737 1738 1739 1740 1741 1742 1743 1744 1745 1746 1747 1748 1749 1750 1751 1752 1753 1754 1755 1756 1757 1758 1759 1760 1761 1762 1763 1764 1765 1766 1767 1768 1769 1770 1771 1772 1773 1774 1775 1776 1777 1778 1779 1780 1781 1782 1783 1784 1785 1786 1787 1788 1789 1790 1791 1792 1793 1794 1795 1796 1797 1798 1799 1800 1801 1802 1803 1804 1805 1806 1807 1808 1809 1810 1811 1812 1813 1814 1815 1816 1817 1818 1819 1820 1821 1822 1823 1824 1825 1826 1827 1828 1829 1830 1831 1832 1833 1834 1835 1836 1837 1838 1839 1840 1841 1842 1843 1844 1845 1846 1847 1848 1849 1850 1851 1852 1853 1854 1855 1856 1857 1858 1859 1860 1861 1862 1863 1864 1865 1866 1867 1868 1869 1870 1871 1872 1873 1874 1875 1876 1877 1878 1879 1880 1881 1882 1883 1884 1885 1886 1887 1888 1889 1890 1891 1892 1893 1894 1895 1896 1897 1898 1899 1900 1901 1902 1903 1904 1905 1906 1907 1908 1909 1910 1911 1912 1913 1914 1915 1916 1917 1918 1919 1920 1921 1922 1923 1924 1925 1926 1927 1928 1929 1930 1931 1932 1933 1934 1935 1936 1937 1938 1939 1940 1941 1942 1943 1944 1945 1946 1947 1948 1949 1950 1951 1952 1953 1954 1955 1956 1957 1958 1959 1960 1961 1962 1963 1964 1965 1966 1967 1968 1969 1970 1971 1972 1973 1974 1975 1976 1977 1978 1979 1980 1981 1982 1983 1984 1985 1986 1987 1988 1989 1990 1991 1992 1993 1994 1995 1996 1997 1998 1999 2000 2001 2002 2003 2004 2005 2006 2007 2008 2009 2010 2011 2012 2013 2014 2015 2016 2017 2018 2019 2020 2021 2022 2023 2024 2025 2026 2027 2028 2029 2030 2031 2032 2033 2034 2035 2036 2037 2038 2039 2040 2041 2042 2043 2044 2045 2046 2047 2048 2049 2050 2051 2052 2053 2054 2055 2056 2057 2058 2059 2060 2061 2062 2063 2064 2065 2066 2067 2068 2069 2070 2071 2072 2073 2074 2075 2076 2077 2078 2079 2080 2081 2082 2083 2084 2085 2086 2087 2088 2089 2090 2091 2092 2093 2094 2095 2096 2097 2098 2099 2100 2101 2102 2103 2104 2105 2106 2107 2108 2109 2110 2111 2112 2113 2114 2115 2116 2117 2118 2119 2120 2121 2122 2123 2124 2125 2126 2127 2128 2129 2130 2131 2132 2133 2134 2135 2136 2137 2138 2139 2140 2141 2142 2143 2144 2145 2146 2147 2148 2149 2150 2151 2152 2153 2154 2155 2156 2157 2158 2159 2160 2161 2162 2163 2164 2165 2166 2167 2168 2169 2170 2171 2172 2173 2174 2175 2176 2177 2178 2179 2180 2181 2182 2183 2184 2185 2186 2187 2188 2189 2190 2191 2192 2193 2194 2195 2196 2197 2198 2199 2200 2201 2202 2203 2204 2205 2206 2207 2208 2209 2210 2211 2212 2213 2214 2215 2216 2217 2218 2219 2220 2221 2222 2223 2224 2225 2226 2227 2228 2229 2230 2231 2232 2233 2234 2235 2236 2237 2238 2239 2240 2241 2242 2243 2244 2245 2246 2247 2248 2249 2250 2251 2252 2253 2254 2255 2256 2257 2258 2259 2260 2261 2262 2263 2264 2265 2266 2267 2268 2269 2270 2271 2272 2273 2274 2275 2276 2277 2278 2279 2280 2281 2282 2283 2284 2285 2286 2287 2288 2289 2290 2291 2292 2293 2294 2295 2296 2297 2298 2299 2300 2301 2302 2303 2304 2305 2306 2307 2308 2309 2310 2311 2312 2313 2314 2315 2316 2317 2318 2319 2320 2321 2322 2323 2324 2325 2326 2327 2328 2329 2330 2331 2332 2333 2334 2335 2336 2337 2338 2339 2340 2341 2342 2343 2344 2345 2346 2347 2348 2349 2350 2351 2352 2353 2354 2355 2356 2357 2358 2359 2360 2361 2362 2363 2364 2365 2366 2367 2368 2369 2370 2371 2372 2373 2374 2375 2376 2377 2378 2379 2380 2381 2382 2383 2384 2385 2386 2387 2388 2389 2390 2391 2392 2393 2394 2395 2396 2397 2398 2399 2400 2401 2402 2403 2404 2405 2406 2407 2408 2409 2410 2411 2412 2413 2414 2415 2416 2417 2418 2419 2420 2421 2422 2423 2424 2425 2426 2427 2428 2429 2430 2431 2432 2433 2434 2435 2436 2437 2438 2439 2440 2441 2442 2443 2444 2445 2446 2447 2448 2449 2450 2451 2452 2453 2454 2455 2456 2457 2458 2459 2460 2461 2462 2463 2464 2465 2466 2467 2468 2469 2470 2471 2472 2473 2474 2475 2476 2477 2478 2479 2480 2481 2482 2483 2484 2485 2486 2487 2488 2489 2490 2491 2492 2493 2494 2495 2496 2497 2498 2499 2500 2501 2502 2503 2504 2505 2506 2507 2508 2509 2510 2511 2512 2513 2514 2515 2516 2517 2518 2519 2520 2521 2522 2523 2524 2525 2526 2527 2528 2529 2530 2531 2532 2533 2534 2535 2536 2537 2538 2539 2540 2541 2542 2543 2544 2545 2546 2547 2548 2549 2550 2551 2552 2553 2554 2555 2556 2557 2558 2559 2560 2561 2562 2563 2564 2565 2566 2567 2568 2569 2570 2571 2572 2573 2574 2575 2576 2577 2578 2579 2580 2581 2582 2583 2584 2585 2586 2587 2588 2589 2590 2591 2592 2593 2594 2595 2596 2597 2598 2599 2600 2601 2602 2603 2604 2605 2606 2607 2608 2609 2610 2611 2612 2613 2614 2615 2616 2617 2618 2619 2620 2621 2622 2623 2624 2625 2626 2627 2628 2629 2630 2631 2632 2633 2634 2635 2636 2637 2638 2639 2640 2641 2642 2643 2644 2645 2646 2647 2648 2649 2650 2651 2652 2653 2654 2655 2656 2657 2658 2659 2660 2661 2662 2663 2664 2665 2666 2667 2668 2669 2670 2671 2672 2673 2674 2675 2676 2677 2678 2679 2680 2681 2682 2683 2684 2685 2686 2687 2688 2689 2690 2691 2692 2693 2694 2695 2696 2697 2698 2699 2700 2701 2702 2703 2704 2705 2706 2707 2708 2709 2710 2711 2712 2713 2714 2715 2716 2717 2718 2719 2720 2721 2722 2723 2724 2725 2726 2727 2728 2729 2730 2731 2732 2733 2734 2735 2736 2737 2738 2739 2740 2741 2742 2743 2744 2745 2746 2747 2748 2749 2750 2751 2752 2753 2754 2755 2756 2757 2758 2759 2760 2761 2762 2763 2764 2765 2766 2767 2768 2769 2770 2771 2772 2773 2774 2775 2776 2777 2778 2779 2780 2781 2782 2783 2784 2785 2786 2787 2788 2789 2790 2791 2792 2793 2794 2795 2796 2797 2798 2799 2800 2801 2802 2803 2804 2805 2806 2807 2808 2809 2810 2811 2812 2813 2814 2815 2816 2817 2818 2819 2820 2821 2822 2823 2824 2825 2826 2827 2828 2829 2830 2831 2832 2833 2834 2835 2836 2837 2838 2839 2840 2841 2842 2843 2844 2845 2846 2847 2848 2849 2850 2851 2852 2853 2854 2855 2856 2857 2858 2859 2860 2861 2862 2863 2864 2865 2866 2867 2868 2869 2870 2871 2872 2873 2874 2875 2876 2877 2878 2879 2880 2881 2882 2883 2884 2885 2886 2887 2888 2889 2890 2891 2892 2893 2894 2895 2896 2897 2898 2899 2900 2901 2902 2903 2904 2905 2906 2907 2908 2909 2910 2911 2912 2913 2914 2915 2916 2917 2918 2919 2920 2921 2922 2923 2924 2925 2926 2927 2928 2929 2930 2931 2932 2933 2934 2935 2936 2937 2938 2939 2940 2941 2942 2943 2944 2945 2946 2947 2948 2949 2950 2951 2952 2953 2954 2955 2956 2957 2958 2959 2960 2961 2962 2963 2964 2965 2966 2967 2968 2969 2970 2971 2972 2973 2974 2975 2976 2977 2978 2979 2980 2981 2982 2983 2984 2985 2986 2987 2988 2989 2990 2991 2992 2993 2994 2995 2996 2997 2998 2999 3000 3001 3002 3003 3004 3005 3006 3007 3008 3009 3010 3011 3012 3013 3014 3015 3016 3017 3018 3019 3020 3021 3022 3023 3024 3025 3026 3027 3028 3029 3030 3031 3032 3033 3034 3035 3036 3037 3038 3039 3040 3041 3042 3043 3044 3045 3046 3047 3048 3049 3050 3051 3052 3053 3054 3055 3056 3057 3058 3059 3060 3061 3062 3063 3064 3065 3066 3067 3068 3069 3070 3071 3072 3073 3074 3075 3076 3077 3078 3079 3080 3081 3082 3083 3084 3085 3086 3087 3088 3089 3090 3091 3092 3093 3094 3095 3096 3097 3098 3099 3100 3101 3102 3103 3104 3105 3106 3107 3108 3109 3110 3111 3112 3113 3114 3115 3116 3117 3118 3119 3120 3121 3122 3123 3124 3125 3126 3127 3128 3129 3130 3131 3132 3133 3134 3135 3136 3137 3138 3139 3140 3141 
</DataArray>
<DataArray type="UInt32" Name="offsets" format="ascii">
3 6 9 12 15 18 21 24 27 30 33 36 39 42 45 48 51 54 57 60 63 66 69 72 75 78 81 84 87 90 93 96 99 102 105 108 111 114 117 120 123 126 129 132 135 138 141 144 147 150 153 156 159 162 165 168 171 174 177 180 183 186 189 192 195 198 201 204 207 210 213 216 219 222 225 228 231 234 237 240 243 246 249 252 255 258 261 264 267 270 273 276 279 282 285 288 291 294 297 300 303 306 309 312 315 318 321 324 327 330 333 336 339 342 345 348 351 354 357 360 363 366 369 372 375 378 381 384 387 390 393 396 399 402 405 408 411 414 417 420 423 426 429 432 435 438 441 444 447 450 453 456 459 462 465 468 471 474 477 480 483 486 489 492 495 498 501 504 507 510 513 516 519 522 525 528 531 534 537 540 543 546 549 552 555 558 561 564 567 570 573 576 579 582 585 588 591 594 597 600 603 606 609 612 615 618 621 624 627 630 633 636 639 642 645 648 651 654 657 660 663 666 669 672 675 678 681 684 687 690 693 696 699 702 705 708 711 714 717 720 723 726 729 732 735 738 741 744 747 750 753 756 759 762 765 768 771 774 777 780 783 786 789 792 795 798 801 804 807 810 813 816 819 822 825 828 831 834 837 840 843 846 849 852 855 858 861 864 867 870 873 876 879 882 885 888 891 894 897 900 903 906 909 912 915 918 921 924 927 930 933 936 939 942 945 948 951 954 957 960 963 966 969 972 975 978 981 984 987 990 993 996 999 1002 1005 1008 1011 1014 1017 1020 1023 1026 1029 1032 1035 1038 1041 1044 1047 1050 1053 1056 1059 1062 1065 1068 1071 1074 1077 1080 1083 1086 1089 1092 1095 1098 1101 1104 1107 1110 1113 1116 1119 1122 1125 1128 1131 1134 1137 1140 1143 1146 1149 1152 1155 1158 1161 1164 1167 1170 1173 1176 1179 1182 1185 1188 1191 1194 1197 1200 1203 1206 1209 1212 1215 1218 1221 1224 1227 1230 1233 1236 1239 1242 1245 1248 1251 1254 1257 1260 1263 1266 1269 1272 1275 1278 1281 1284 1287 1290 1293 1296 1299 1302 1305 1308 1311 1314 1317 1320 1323 1326 1329 1332 1335 1338 1341 1344 1347 1350 1353 1356 1359 1362 1365 1368 1371 1374 1377 1380 1383 1386 1389 1392 1395 1398 1401 1404 1407 1410 1413 1416 1419 1422 1425 1428 1431 1434 1437 1440 1443 1446 1449 1452 1455 1458 1461 1464 1467 1470 1473 1476 1479 1482 1485 1488 1491 1494 1497 1500 1503 1506 1509 1512 1515 1518 1521 1524 1527 1530 1533 1536 1539 1542 1545 1548 1551 1554 1557 1560 1563 1566 1569 1572 1575 1578 1581 1584 1587 1590 1593 1596 1599 1602 1605 1608 1611 1614 1616 1619 1622 1624 1627 1630 1632 1635 1638 1641 1644 1647 1650 1653 1656 1659 1662 1665 1668 1671 1673 1676 1679 1682 1685 1688 1690 1693 1696 1699 1702 1705 1708 1711 1714 1717 1720 1723 1726 1729 1732 1735 1738 1741 1744 1747 1750 1753 1756 1759 1762 1765 1768 1771 1774 1777 1780 1783 1786 1789 1792 1795 1798 1801 1804 1807 1810 1813 1816 1819 1822 1825 1828 1831 1834 1837 1840 1843 1846 1849 1852 1855 1858 1861 1864 1867 1870 1873 1876 1879 1882 1885 1888 1891 1894 1897 1900 1903 1906 1909 1912 1915 1918 1921 1924 1927 1930 1933 1936 1939 1942 1945 1948 1951 1954 1957 1960 1963 1966 1969 1972 1975 1978 1981 1984 1987 1990 1993 1996 1999 2002 2005 2008 2011 2014 2017 2020 2023 2026 2029 2032 2035 2038 2041 2044 2047 2050 2053 2056 2059 2062 2065 2068 2071 2074 2077 2080 2083 2086 2089 2092 2095 2098 2101 2104 2107 2110 2113 2116 2119 2122 2125 2128 2131 2134 2137 2140 2143 2146 2149 2152 2155 2158 2161 2164 2167 2170 2173 2176 2179 2182 2185 2188 2191 2194 2196 2199 2202 2205 2207 2210 2213 2215 2218 2221 2224 2227 2230 2233 2236 2239 2242 2245 2248 2250 2253 2256 2259 2262 2264 2267 2270 2273 2276 2279 2282 2285 2288 2291 2294 2297 2300 2303 2306 2309 2312 2315 2318 2321 2324 2327 2330 2333 2336 2339 2342 2345 2348 2351 2354 2357 2360 2363 2366 2369 2372 2375 2378 2381 2384 2387 2390 2393 2396 2399 2402 2405 2408 2411 2414 2417 2420 2423 2426 2429 2432 2435 2438 2440 2443 2446 2449 2452 2455 2458 2461 2464 2467 2470 2473 2476 2479 2482 2484 2487 2490 2492 2495 2497 2500 2503 2506 2509 2512 2515 2518 2521 2524 2527 2530 2533 2536 2538 2541 2544 2547 2550 2553 2556 2559 2562 2565 2568 2571 2574 2577 2580 2583 2586 2589 2592 2595 2598 2601 2604 2607 2610 2613 2616 2619 2622 2625 2628 2631 2634 2637 2640 2643 2646 2649 2652 2655 2658 2661 2664 2667 2670 2673 2676 2679 2682 2685 2688 2691 2694 2697 2700 2703 2706 2709 2712 2715 2718 2721 2724 2727 2730 2733 2736 2739 2742 2745 2748 2751 2754 2757 2760 2763 2766 2769 2772 2775 2778 2781 2784 2787 2790 2793 2796 2799 2802 2805 2808 2811 2814 2817 2820 2823 2826 2829 2832 2835 2838 2841 2844 2847 2850 2853 2856 2859 2862 2865 2868 2871 2874 2877 2880 2883 2886 2889 2892 2895 2898 2901 2904 2907 2910 2913 2916 2919 2922 2925 2928 2931 2934 2937 2940 2943 2946 2948 2951 2954 2956 2959 2961 2964 2967 2970 2973 2976 2979 2982 2985 2988 2991 2994 2997 3000 3003 3006 3009 3012 3015 3018 3021 3024 3027 3030 3033 3036 3039 3042 3045 3048 3051 3054 3057 3060 3063 3066 3069 3072 3075 3078 3081 3084 3087 3090 3093 3096 3099 3102 3104 3107 3110 3113 3116 3119 3121 3124 3127 3130 3133 3136 3139 3142 
</DataArray>
<DataArray type="UInt32" Name="types" format="ascii">
5 5 5 5 5 5 5 5 5 5 5 5 5 5 5 5 5 5 5 5 5 5 5 5 5 5 5 5 5 5 5 5 5 5 5 5 5 5 5 5 5 5 5 5 5 5 5 5 5 5 5 5 5 5 5 5 5 5 5 5 5 5 5 5 5 5 5 5 5 5 5 5 5 5 5 5 5 5 5 5 5 5 5 5 5 5 5 5 5 5 5 5 5 5 5 5 5 5 5 5 5 5 5 5 5 5 5 5 5 5 5 5 5 5 5 5 5 5 5 5 5 5 5 5 5 5 5 5 5 5 5 5 5 5 5 5 5 5 5 5 5 5 5 5 5 5 5 5 5 5 5 5 5 5 5 5 5 5 5 5 5 5 5 5 5 5 5 5 5 5 5 5 5 5 5 5 5 5 5 5 5 5 5 5 5 5 5 5 5 5 5 5 5 5 5 5 5 5 5 5 5 5 5 5 5 5 5 5 5 5 5 5 5 5 5 5 5 5 5 5 5 5 5 5 5 5 5 5 5 5 5 5 5 5 5 5 5 5 5 5 5 5 5 5 5 5 5 5 5 5 5 5 5 5 5 5 5 5 5 5 5 5 5 5 5 5 5 5 5 5 5 5 5 5 5 5 5 5 5 5 5 5 5 5 5 5 5 5 5 5 5 5 5 5 5 5 5 5 5 5 5 5 5 5 5 5 5 5 5 5 5 5 5 5 5 5 5 5 5 5 5 5 5 5 5 5 5 5 5 5 5 5 5 5 5 5 5 5 5 5 5 5 5 5 5 5 5 5 5 5 5 5 5 5 5 5 5 5 5 5 5 5 5 5 5 5 5 5 5 5 5 5 5 5 5 5 5 5 5 5 5 5 5 5 5 5 5 5 5 5 5 5 5 5 5 5 5 5 5 5 5 5 5 5 5 5 5 5 5 5 5 5 5 5 5 5 5 5 5 5 5 5 5 5 5 5 5 5 5 5 5 5 5 5 5 5 5 5 5 5 5 5 5 5 5 5 5 5 5 5 5 5 5 5 5 5 5 5 5 5 5 5 5 5 5 5 5 5 5 5 5 5 5 5 5 5 5 5 5 5 5 5 5 5 5 5 5 5 5 5 5 5 5 5 5 5 5 5 5 5 5 5 5 5 5 5 5 5 5 5 5 5 5 5 5 5 5 5 5 5 5 5 5 5 5 5 5 5 5 5 5 5 5 5 5 5 5 5 3 5 5 3 5 5 3 5 5 5 5 5 5 5 5 5 5 5 5 5 3 5 5 5 5 5 3 5 5 5 5 5 5 5 5 5 5 5 5 5 5 5 5 5 5 5 5 5 5 5 5 5 5 5 5 5 5 5 5 5 5 5 5 5 5 5 5 5 5 5 5 5 5 5 5 5 5 5 5 5 5 5 5 5 5 5 5 5 5 5 5 5 5 5 5 5 5 5 5 5 5 5 5 5 5 5 5 5 5 5 5 5 5 5 5 5 5 5 5 5 5 5 5 5 5 5 5 5 5 5 5 5 5 5 5 5 5 5 5 5 5 5 5 5 5 5 5 5 5 5 5 5 5 5 5 5 5 5 5 5 5 5 5 5 5 5 5 5 5 5 5 5 5 5 5 5 5 5 5 5 5 5 5 5 5 5 5 5 5 5 5 5 5 5 5 3 5 5 5 3 5 5 3 5 5 5 5 5 5 5 5 5 5 5 3 5 5 5 5 3 5 5 5 5 5 5 5 5 5 5 5 5 5 5 5 5 5 5 5 5 5 5 5 5 5 5 5 5 5 5 5 5 5 5 5 5 5 5 5 5 5 5 5 5 5 5 5 5 5 5 5 5 5 5 5 5 5 5 3 5 5 5 5 5 5 5 5 5 5 5 5 5 5 3 5 5 3 5 3 5 5 5 5 5 5 5 5 5 5 5 5 5 3 5 5 5 5 5 5 5 5 5 5 5 5 5 5 5 5 5 5 5 5 5 5 5 5 5 5 5 5 5 5 5 5 5 5 5 5 5 5 5 5 5 5 5 5 5 5 5 5 5 5 5 5 5 5 5 5 5 5 5 5 5 5 5 5 5 5 5 5 5 5 5 5 5 5 5 5 5 5 5 5 5 5 5 5 5 5 5 5 5 5 5 5 5 5 5 5 5 5 5 5 5 5 5 5 5 5 5 5 5 5 5 5 5 5 5 5 5 5 5 5 5 5 5 5 5 5 5 5 5 5 5 5 5 5 5 5 3 5 5 3 5 3 5 5 5 5 5 5 5 5 5 5 5 5 5 5 5 5 5 5 5 5 5 5 5 5 5 5 5 5 5 5 5 5 5 5 5 5 5 5 5 5 5 5 5 5 5 5 5 3 5 5 5 5 5 3 5 5 5 5 5 5 5 
</DataArray>
</Cells>
<PointData Scalars="" Vectors="displacement," Tensors="">
<DataArray type="Float64" Name="displacement" NumberOfComponents="3" format="ascii">
-0.0018805365761317833 -0.0026384564568559415 0 -3.6848977815209138e-06 -8.7878413107861949e-06 0 -5.591324143681576e-07 -4.0132397123170182e-06 0 -0.0018805365761317833 -0.0026384564568559415 0 -3.6848977815209138e-06 -8.7878413107861949e-06 0 -0.0052534136832283326 -0.0068729766233375312 0 -0.0018805365761317833 -0.0026384564568559415 0 -5.591324143681576e-07 -4.0132397123170182e-06 0 -0.0033750222189794779 -0.0043991826599955857 0 -0.0018805365761317833 -0.0026384564568559415 0 -0.0033750222189794779 -0.0043991826599955857 0 -0.0052534136832283326 -0.0068729766233375312 0 -0.0052534136832283326 -0.0068729766233375312 0 -0.0085302263886390638 -0.011994416995663058 0 -0.0072596180672001055 -0.01021677748535952 0 -0.0085302263886390638 -0.011994416995663058 0 -0.0072596180672001055 -0.01021677748535952 0 -0.011102906146409668 -0.016525552730539059 0 -0.0033750222189794779 -0.0043991826599955857 0 -0.0072596180672001055 -0.01021677748535952 0 -0.0054599105085808008 -0.0080261196492758397 0 -0.0033750222189794779 -0.0043991826599955857 0 -0.0052534136832283326 -0.0068729766233375312 0 -0.0072596180672001055 -0.01021677748535952 0 -0.0072596180672001055 -0.01021677748535952 0 -0.0054599105085808008 -0.0080261196492758397 0 -0.0088556050754302514 -0.013707650922950124 0 -0.0054599105085808008 -0.0080261196492758397 0 -0.0088556050754302514 -0.013707650922950124 0 -0.0069518290995514015 -0.011320254013382916 0 -0.0054599105085808008 -0.0080261196492758397 0 -0.0050148090417111834 -0.0081054602367831886 0 -0.0069518290995514015 -0.011320254013382916 0 -0.0050148090417111834 -0.0081054602367831886 0 -0.0069518290995514015 -0.011320254013382916 0 -0.0068162755852317789 -0.012332809708925738 0 -0.0050148090417111834 -0.0081054602367831886 0 -0.0025626653485862449 -0.0037558845499001915 0 -0.0030130938825699283 -0.0050515484415782795 0 -0.0054599105085808008 -0.0080261196492758397 0 -0.0050148090417111834 -0.0081054602367831886 0 -0.0025626653485862449 -0.0037558845499001915 0 -0.0025626653485862449 -0.0037558845499001915 0 -9.8867086346244699e-07 -4.235884442418943e-06 0 -6.6202513767971302e-07 -3.9054214966597624e-06 0 -5.591324143681576e-07 -4.0132397123170182e-06 0 -0.0033750222189794779 -0.0043991826599955857 0 -9.8867086346244699e-07 -4.235884442418943e-06 0 -0.0033750222189794779 -0.0043991826599955857 0 -0.0025626653485862449 -0.0037558845499001915 0 -9.8867086346244699e-07 -4.235884442418943e-06 0 -0.0033750222189794779 -0.0043991826599955857 0 -0.0054599105085808008 -0.0080261196492758397 0 -0.0025626653485862449 -0.0037558845499001915 0 -0.012581104443948622 -0.021845141470387627 0 -0.012992431717518758 -0.02081961543562225 0 -0.014497203025142619 -0.024999721667373957 0 -0.012581104443948622 -0.021845141470387627 0 -0.012992431717518758 -0.02081961543562225 0 -0.011315281803382704 -0.018229173864576537 0 -0.012581104443948622 -0.021845141470387627 0 -0.011315281803382704 -0.018229173864576537 0 -0.010533424176943329 -0.01839536933890976 0 -0.011315281803382704 -0.018229173864576537 0 -0.011102906146409668 -0.016525552730539059 0 -0.0088556050754302514 -0.013707650922950124 0 -0.0072596180672001055 -0.01021677748535952 0 -0.011102906146409668 -0.016525552730539059 0 -0.0088556050754302514 -0.013707650922950124 0 -0.011315281803382704 -0.018229173864576537 0 -0.0088556050754302514 -0.013707650922950124 0 -0.010533424176943329 -0.01839536933890976 0 -0.012992431717518758 -0.02081961543562225 0 -0.011315281803382704 -0.018229173864576537 0 -0.011102906146409668 -0.016525552730539059 0 -0.0088556050754302514 -0.013707650922950124 0 -0.0069518290995514015 -0.011320254013382916 0 -0.0084775448926207395 -0.014612352138924718 0 -0.0069518290995514015 -0.011320254013382916 0 -0.0084775448926207395 -0.014612352138924718 0 -0.0068162755852317789 -0.012332809708925738 0 -0.0088556050754302514 -0.013707650922950124 0 -0.0084775448926207395 -0.014612352138924718 0 -0.010533424176943329 -0.01839536933890976 0 -0.010533424176943329 -0.01839536933890976 0 -0.01156460672397296 -0.0222587849885072 0 -0.0090410329580223638 -0.017599628608628827 0 -0.0084775448926207395 -0.014612352138924718 0 -0.010533424176943329 -0.01839536933890976 0 -0.0090410329580223638 -0.017599628608628827 0 -0.012581104443948622 -0.021845141470387627 0 -0.010533424176943329 -0.01839536933890976 0 -0.01156460672397296 -0.0222587849885072 0 -0.012581104443948622 -0.021845141470387627 0 -0.01156460672397296 -0.0222587849885072 0 -0.01369515062209244 -0.025926286540421704 0 -0.01156460672397296 -0.0222587849885072 0 -0.010053809238277896 -0.021222118267588064 0 -0.0090410329580223638 -0.017599628608628827 0 -0.0087803684467445253 -0.01986311598270615 0 -0.010053809238277896 -0.021222118267588064 0 -0.0090410329580223638 -0.017599628608628827 0 -0.0087803684467445253 -0.01986311598270615 0 -0.0090410329580223638 -0.017599628608628827 0 -0.0073804681620973436 -0.015626543139869883 0 -0.0073804681620973436 -0.015626543139869883 0 -0.0068162755852317789 -0.012332809708925738 0 -0.0057187715564918917 -0.01151909626698319 0 -0.0084775448926207395 -0.014612352138924718 0 -0.0090410329580223638 -0.017599628608628827 0 -0.0068162755852317789 -0.012332809708925738 0 -0.0090410329580223638 -0.017599628608628827 0 -0.0073804681620973436 -0.015626543139869883 0 -0.0068162755852317789 -0.012332809708925738 0 -0.0068162755852317789 -0.012332809708925738 0 -0.0057187715564918917 -0.01151909626698319 0 -0.0047142318380639326 -0.0084943801955442242 0 -0.0057187715564918917 -0.01151909626698319 0 -0.0045178684114195056 -0.010184115860135928 0 -0.0062633685800202602 -0.014568449254044824 0 -0.0045178684114195056 -0.010184115860135928 0 -0.0062633685800202602 -0.014568449254044824 0 -0.0048774891885791372 -0.012445364748875616 0 -0.0062633685800202602 -0.014568449254044824 0 -0.0048774891885791372 -0.012445364748875616 0 -0.0055664980576010659 -0.015324911795414627 0 -0.0073804681620973436 -0.015626543139869883 0 -0.0057187715564918917 -0.01151909626698319 0 -0.0062633685800202602 -0.014568449254044824 0 -0.0087803684467445253 -0.01986311598270615 0 -0.0073804681620973436 -0.015626543139869883 0 -0.0072150016307516362 -0.018156734059150088 0 -0.0073804681620973436 -0.015626543139869883 0 -0.0062633685800202602 -0.014568449254044824 0 -0.0072150016307516362 -0.018156734059150088 0 -0.0062633685800202602 -0.014568449254044824 0 -0.0072150016307516362 -0.018156734059150088 0 -0.0055664980576010659 -0.015324911795414627 0 -0.0072150016307516362 -0.018156734059150088 0 -0.0072804561697081636 -0.021113602272824557 0 -0.0086621310080391527 -0.022457607612990423 0 -0.0087803684467445253 -0.01986311598270615 0 -0.0072150016307516362 -0.018156734059150088 0 -0.0086621310080391527 -0.022457607612990423 0 -0.0016313392928989803 -0.0029847458773353515 0 -6.6202513767971302e-07 -3.9054214966597624e-06 0 -0.0030130938825699283 -0.0050515484415782795 0 -0.0016313392928989803 -0.0029847458773353515 0 -0.0030130938825699283 -0.0050515484415782795 0 -0.003412781677796968 -0.00672543381777855 0 -0.0016313392928989803 -0.0029847458773353515 0 -6.6202513767971302e-07 -3.9054214966597624e-06 0 -6.9085055798360815e-07 -3.9609259575705458e-06 0 -0.0025626653485862449 -0.0037558845499001915 0 -6.6202513767971302e-07 -3.9054214966597624e-06 0 -0.0030130938825699283 -0.0050515484415782795 0 -0.0050148090417111834 -0.0081054602367831886 0 -0.0030130938825699283 -0.0050515484415782795 0 -0.0047142318380639326 -0.0084943801955442242 0 -0.0050148090417111834 -0.0081054602367831886 0 -0.0068162755852317789 -0.012332809708925738 0 -0.0047142318380639326 -0.0084943801955442242 0 -0.0057187715564918917 -0.01151909626698319 0 -0.0047142318380639326 -0.0084943801955442242 0 -0.003412781677796968 -0.00672543381777855 0 -0.0030130938825699283 -0.0050515484415782795 0 -0.0047142318380639326 -0.0084943801955442242 0 -0.003412781677796968 -0.00672543381777855 0 -0.0057187715564918917 -0.01151909626698319 0 -0.0045178684114195056 -0.010184115860135928 0 -0.003412781677796968 -0.00672543381777855 0 -0.0045178684114195056 -0.010184115860135928 0 -0.003412781677796968 -0.00672543381777855 0 -0.0030042155221429896 -0.0067905420897067074 0 -0.0045178684114195056 -0.010184115860135928 0 -0.0030042155221429896 -0.0067905420897067074 0 -0.0034624877234257518 -0.0089996489531022211 0 -0.003412781677796968 -0.00672543381777855 0 -0.0030042155221429896 -0.0067905420897067074 0 -0.0016317765812452918 -0.0034435531284213901 0 -0.0030042155221429896 -0.0067905420897067074 0 -0.0016317765812452918 -0.0034435531284213901 0 -0.0018046984547641395 -0.0044487460623934688 0 -0.0016313392928989803 -0.0029847458773353515 0 -0.003412781677796968 -0.00672543381777855 0 -0.0016317765812452918 -0.0034435531284213901 0 -0.0016313392928989803 -0.0029847458773353515 0 -0.0016317765812452918 -0.0034435531284213901 0 -6.9085055798360815e-07 -3.9609259575705458e-06 0 -0.0016317765812452918 -0.0034435531284213901 0 -6.9085055798360815e-07 -3.9609259575705458e-06 0 -6.2672836111462117e-07 -3.8979843968320044e-06 0 -6.2672836111462117e-07 -3.8979843968320044e-06 0 -0.0018046984547641395 -0.0044487460623934688 0 -3.6895201210582435e-07 -3.8640504795292597e-06 0 -0.0016317765812452918 -0.0034435531284213901 0 -6.2672836111462117e-07 -3.8979843968320044e-06 0 -0.0018046984547641395 -0.0044487460623934688 0 -0.0018046984547641395 -0.0044487460623934688 0 -3.6895201210582435e-07 -3.8640504795292597e-06 0 -0.0011361694290456901 -0.0033127154402519485 0 -3.6895201210582435e-07 -3.8640504795292597e-06 0 -0.0011361694290456901 -0.0033127154402519485 0 -3.6005223625285163e-07 -3.8920721565098577e-06 0 -0.0011361694290456901 -0.0033127154402519485 0 -0.00072821618951270735 -0.0025364743790124988 0 -0.0017345668531066412 -0.006172310460361723 0 -0.00072821618951270735 -0.0025364743790124988 0 -0.0017345668531066412 -0.006172310460361723 0 -0.00090574174318333697 -0.0040462707719626217 0 -0.0011361694290456901 -0.0033127154402519485 0 -0.00072821618951270735 -0.0025364743790124988 0 -3.6005223625285163e-07 -3.8920721565098577e-06 0 -0.00072821618951270735 -0.0025364743790124988 0 -3.6005223625285163e-07 -3.8920721565098577e-06 0 -2.7107133825770076e-07 -3.8409119583288202e-06 0 -0.0017345668531066412 -0.006172310460361723 0 -0.0026183966777729843 -0.010425244128640404 0 -0.0016700879655329717 -0.0081261295794147724 0 -0.0017345668531066412 -0.006172310460361723 0 -0.0028549033007749499 -0.0091140524064465944 0 -0.0026183966777729843 -0.010425244128640404 0 -0.0011361694290456901 -0.0033127154402519485 0 -0.0017345668531066412 -0.006172310460361723 0 -0.0021683172760042593 -0.0063007847381108513 0 -0.0017345668531066412 -0.006172310460361723 0 -0.0028549033007749499 -0.0091140524064465944 0 -0.0021683172760042593 -0.0063007847381108513 0 -0.0028549033007749499 -0.0091140524064465944 0 -0.0021683172760042593 -0.0063007847381108513 0 -0.0034624877234257518 -0.0089996489531022211 0 -0.0018046984547641395 -0.0044487460623934688 0 -0.0011361694290456901 -0.0033127154402519485 0 -0.0021683172760042593 -0.0063007847381108513 0 -0.0018046984547641395 -0.0044487460623934688 0 -0.0021683172760042593 -0.0063007847381108513 0 -0.0034624877234257518 -0.0089996489531022211 0 -0.0030042155221429896 -0.0067905420897067074 0 -0.0018046984547641395 -0.0044487460623934688 0 -0.0034624877234257518 -0.0089996489531022211 0 -0.0045178684114195056 -0.010184115860135928 0 -0.0034624877234257518 -0.0089996489531022211 0 -0.0048774891885791372 -0.012445364748875616 0 -0.0034624877234257518 -0.0089996489531022211 0 -0.0048774891885791372 -0.012445364748875616 0 -0.0041683890527293276 -0.012229015576512344 0 -0.0048774891885791372 -0.012445364748875616 0 -0.0041683890527293276 -0.012229015576512344 0 -0.0055664980576010659 -0.015324911795414627 0 -0.0041683890527293276 -0.012229015576512344 0 -0.0046145198123303819 -0.015417989599974731 0 -0.0035626024713902335 -0.012372111818646664 0 -0.0041683890527293276 -0.012229015576512344 0 -0.0055664980576010659 -0.015324911795414627 0 -0.0046145198123303819 -0.015417989599974731 0 -0.0028549033007749499 -0.0091140524064465944 0 -0.0034624877234257518 -0.0089996489531022211 0 -0.0041683890527293276 -0.012229015576512344 0 -0.0072150016307516362 -0.018156734059150088 0 -0.0059827077962239152 -0.018382425264155879 0 -0.0072804561697081636 -0.021113602272824557 0 -0.0072150016307516362 -0.018156734059150088 0 -0.0059827077962239152 -0.018382425264155879 0 -0.0055664980576010659 -0.015324911795414627 0 -0.0059827077962239152 -0.018382425264155879 0 -0.0055664980576010659 -0.015324911795414627 0 -0.0046145198123303819 -0.015417989599974731 0 -0.0059827077962239152 -0.018382425264155879 0 -0.0046806682842103278 -0.018627694727634782 0 -0.0064122551464809198 -0.021882304695027222 0 -0.0059827077962239152 -0.018382425264155879 0 -0.0046806682842103278 -0.018627694727634782 0 -0.0046145198123303819 -0.015417989599974731 0 -0.0046806682842103278 -0.018627694727634782 0 -0.0046145198123303819 -0.015417989599974731 0 -0.0034817414609221017 -0.014278422238775587 0 -0.0046806682842103278 -0.018627694727634782 0 -0.0034817414609221017 -0.014278422238775587 0 -0.0032291210414598626 -0.016732850251759357 0 -0.0046806682842103278 -0.018627694727634782 0 -0.0032291210414598626 -0.016732850251759357 0 -0.0040070888219478108 -0.021133516761716976 0 -0.0028549033007749499 -0.0091140524064465944 0 -0.0041683890527293276 -0.012229015576512344 0 -0.0035626024713902335 -0.012372111818646664 0 -0.0028549033007749499 -0.0091140524064465944 0 -0.0035626024713902335 -0.012372111818646664 0 -0.0026183966777729843 -0.010425244128640404 0 -0.0046145198123303819 -0.015417989599974731 0 -0.0035626024713902335 -0.012372111818646664 0 -0.0034817414609221017 -0.014278422238775587 0 -0.0034817414609221017 -0.014278422238775587 0 -0.0026183966777729843 -0.010425244128640404 0 -0.002414309925835351 -0.012423924371744034 0 -0.0035626024713902335 -0.012372111818646664 0 -0.0034817414609221017 -0.014278422238775587 0 -0.0026183966777729843 -0.010425244128640404 0 -0.0026183966777729843 -0.010425244128640404 0 -0.002414309925835351 -0.012423924371744034 0 -0.0016700879655329717 -0.0081261295794147724 0 -0.002414309925835351 -0.012423924371744034 0 -0.002151007096457646 -0.01500434962133608 0 -0.0013828725128132951 -0.010282410496039202 0 -0.002414309925835351 -0.012423924371744034 0 -0.0013828725128132951 -0.010282410496039202 0 -0.0016700879655329717 -0.0081261295794147724 0 -0.0032291210414598626 -0.016732850251759357 0 -0.0026707063975688408 -0.019231058950321889 0 -0.0040070888219478108 -0.021133516761716976 0 -0.0034817414609221017 -0.014278422238775587 0 -0.002414309925835351 -0.012423924371744034 0 -0.0032291210414598626 -0.016732850251759357 0 -0.002414309925835351 -0.012423924371744034 0 -0.0032291210414598626 -0.016732850251759357 0 -0.002151007096457646 -0.01500434962133608 0 -0.0032291210414598626 -0.016732850251759357 0 -0.002151007096457646 -0.01500434962133608 0 -0.0026707063975688408 -0.019231058950321889 0 -0.002151007096457646 -0.01500434962133608 0 -0.0015658145622224763 -0.017236103687980991 0 -0.0026707063975688408 -0.019231058950321889 0 -0.002151007096457646 -0.01500434962133608 0 -0.0015658145622224763 -0.017236103687980991 0 -0.001158910372497608 -0.013853250183365516 0 -0.001158910372497608 -0.013853250183365516 0 -0.00025026996363713711 -0.012216336787647095 0 -0.00049662303503520831 -0.015318068868666773 0 -0.0015658145622224763 -0.017236103687980991 0 -0.001158910372497608 -0.013853250183365516 0 -0.00049662303503520831 -0.015318068868666773 0 -0.0015658145622224763 -0.017236103687980991 0 -0.00083471106364226661 -0.018901269967018797 0 -0.00049662303503520831 -0.015318068868666773 0 -0.0013828725128132951 -0.010282410496039202 0 -0.001158910372497608 -0.013853250183365516 0 -0.00073125507381930483 -0.010284165404219926 0 -0.002151007096457646 -0.01500434962133608 0 -0.0013828725128132951 -0.010282410496039202 0 -0.001158910372497608 -0.013853250183365516 0 -0.001158910372497608 -0.013853250183365516 0 -0.00073125507381930483 -0.010284165404219926 0 -0.00025026996363713711 -0.012216336787647095 0 -0.0013828725128132951 -0.010282410496039202 0 -0.00073125507381930483 -0.010284165404219926 0 -0.00055179966724790391 -0.006595077070907885 0 -0.00073125507381930483 -0.010284165404219926 0 -0.00055179966724790391 -0.006595077070907885 0 -0.0002600499242706697 -0.0085406463651047891 0 -0.0013828725128132951 -0.010282410496039202 0 -0.00055179966724790391 -0.006595077070907885 0 -0.00087110771019411368 -0.0057016117174182391 0 -0.00055179966724790391 -0.006595077070907885 0 -0.00030246465271357986 -0.0030366693251788644 0 -0.00087110771019411368 -0.0057016117174182391 0 -0.00055179966724790391 -0.006595077070907885 0 -0.00030246465271357986 -0.0030366693251788644 0 -4.1815924555712045e-05 -0.0040522469725276363 0 -0.00030246465271357986 -0.0030366693251788644 0 -1.685869545908005e-07 -3.8376381322243665e-06 0 -4.1815924555712045e-05 -0.0040522469725276363 0 -0.00030246465271357986 -0.0030366693251788644 0 -1.685869545908005e-07 -3.8376381322243665e-06 0 -1.6154346100383281e-07 -3.8903843046320389e-06 0 -0.00030246465271357986 -0.0030366693251788644 0 -1.6154346100383281e-07 -3.8903843046320389e-06 0 -0.0004387115507075651 -0.0025990643309019242 0 -0.00030246465271357986 -0.0030366693251788644 0 -0.0004387115507075651 -0.0025990643309019242 0 -0.00087110771019411368 -0.0057016117174182391 0 -0.0004387115507075651 -0.0025990643309019242 0 -2.7107133825770076e-07 -3.8409119583288202e-06 0 -0.00090574174318333697 -0.0040462707719626217 0 -0.0004387115507075651 -0.0025990643309019242 0 -0.00090574174318333697 -0.0040462707719626217 0 -0.00087110771019411368 -0.0057016117174182391 0 -1.6154346100383281e-07 -3.8903843046320389e-06 0 -0.0004387115507075651 -0.0025990643309019242 0 -2.7107133825770076e-07 -3.8409119583288202e-06 0 -0.00072821618951270735 -0.0025364743790124988 0 -2.7107133825770076e-07 -3.8409119583288202e-06 0 -0.00090574174318333697 -0.0040462707719626217 0 -0.0017345668531066412 -0.006172310460361723 0 -0.00090574174318333697 -0.0040462707719626217 0 -0.0016700879655329717 -0.0081261295794147724 0 -0.0013828725128132951 -0.010282410496039202 0 -0.0016700879655329717 -0.0081261295794147724 0 -0.00087110771019411368 -0.0057016117174182391 0 -0.00090574174318333697 -0.0040462707719626217 0 -0.0016700879655329717 -0.0081261295794147724 0 -0.00087110771019411368 -0.0057016117174182391 0 -0.0033863267793506862 -0.031685961032754659 0 -0.0048235611369795098 -0.034432182659345334 0 -0.0031988067670998847 -0.035568488700607144 0 -0.0033863267793506862 -0.031685961032754659 0 -0.0047940564217502403 -0.031123438546765254 0 -0.0048235611369795098 -0.034432182659345334 0 -0.0033863267793506862 -0.031685961032754659 0 -0.0047940564217502403 -0.031123438546765254 0 -0.0038664764501825425 -0.02747966838071211 0 -0.0048235611369795098 -0.034432182659345334 0 -0.005014052631897652 -0.038625087065983943 0 -0.0031988067670998847 -0.035568488700607144 0 -0.005014052631897652 -0.038625087065983943 0 -0.0034605670467818448 -0.040681441440815633 0 -0.0057060832785620404 -0.04287115993282798 0 -0.005014052631897652 -0.038625087065983943 0 -0.0034605670467818448 -0.040681441440815633 0 -0.0031988067670998847 -0.035568488700607144 0 -0.0034605670467818448 -0.040681441440815633 0 -0.0031988067670998847 -0.035568488700607144 0 -0.002233862663714118 -0.037846521205733653 0 -0.0031988067670998847 -0.035568488700607144 0 -0.002233862663714118 -0.037846521205733653 0 -0.0010168654366961244 -0.035318701865547593 0 -0.0034605670467818448 -0.040681441440815633 0 -0.002233862663714118 -0.037846521205733653 0 -0.001169810793217984 -0.039801229401306107 0 -0.002233862663714118 -0.037846521205733653 0 -0.001169810793217984 -0.039801229401306107 0 -0.0010168654366961244 -0.035318701865547593 0 -0.0010168654366961244 -0.035318701865547593 0 -0.0017069162042925834 -0.03161707881851656 0 0.0004519694705379796 -0.031230325682562763 0 -0.0031988067670998847 -0.035568488700607144 0 -0.0010168654366961244 -0.035318701865547593 0 -0.0017069162042925834 -0.03161707881851656 0 -0.0033863267793506862 -0.031685961032754659 0 -0.0031988067670998847 -0.035568488700607144 0 -0.0017069162042925834 -0.03161707881851656 0 -0.0033863267793506862 -0.031685961032754659 0 -0.0017069162042925834 -0.03161707881851656 0 -0.002539738704172601 -0.02826181989279225 0 -0.0017069162042925834 -0.03161707881851656 0 -0.00070249468641682422 -0.027701032650135397 0 0.0004519694705379796 -0.031230325682562763 0 -0.00070249468641682422 -0.027701032650135397 0 -0.0018129167688821623 -0.024827636239121171 0 -0.00070311568852770786 -0.023090409096661588 0 -0.00070249468641682422 -0.027701032650135397 0 -0.0018129167688821623 -0.024827636239121171 0 -0.002539738704172601 -0.02826181989279225 0 -0.0018129167688821623 -0.024827636239121171 0 -0.002539738704172601 -0.02826181989279225 0 -0.0031205253012437598 -0.023975976424982334 0 -0.0017069162042925834 -0.03161707881851656 0 -0.00070249468641682422 -0.027701032650135397 0 -0.002539738704172601 -0.02826181989279225 0 -0.00083471106364226661 -0.018901269967018797 0 -0.0018326895999700458 -0.021376624610623677 0 -0.00070311568852770786 -0.023090409096661588 0 -0.0015658145622224763 -0.017236103687980991 0 -0.00083471106364226661 -0.018901269967018797 0 -0.0018326895999700458 -0.021376624610623677 0 -0.0018129167688821623 -0.024827636239121171 0 -0.0018326895999700458 -0.021376624610623677 0 -0.00070311568852770786 -0.023090409096661588 0 -0.0018129167688821623 -0.024827636239121171 0 -0.0018326895999700458 -0.021376624610623677 0 -0.0031205253012437598 -0.023975976424982334 0 -0.0015658145622224763 -0.017236103687980991 0 -0.0018326895999700458 -0.021376624610623677 0 -0.0026707063975688408 -0.019231058950321889 0 -0.0018326895999700458 -0.021376624610623677 0 -0.0026707063975688408 -0.019231058950321889 0 -0.0031205253012437598 -0.023975976424982334 0 -0.0026707063975688408 -0.019231058950321889 0 -0.0031205253012437598 -0.023975976424982334 0 -0.0040070888219478108 -0.021133516761716976 0 -0.0031205253012437598 -0.023975976424982334 0 -0.0040070888219478108 -0.021133516761716976 0 -0.0047879235863648477 -0.025185118414164098 0 -0.0033863267793506862 -0.031685961032754659 0 -0.002539738704172601 -0.02826181989279225 0 -0.0038664764501825425 -0.02747966838071211 0 -0.002539738704172601 -0.02826181989279225 0 -0.0031205253012437598 -0.023975976424982334 0 -0.0038664764501825425 -0.02747966838071211 0 -0.0031205253012437598 -0.023975976424982334 0 -0.0038664764501825425 -0.02747966838071211 0 -0.0047879235863648477 -0.025185118414164098 0 -0.0038664764501825425 -0.02747966838071211 0 -0.0047879235863648477 -0.025185118414164098 0 -0.0062778605735120657 -0.029651847647148073 0 -0.0047940564217502403 -0.031123438546765254 0 -0.0038664764501825425 -0.02747966838071211 0 -0.0062778605735120657 -0.029651847647148073 0 -0.0047879235863648477 -0.025185118414164098 0 -0.0060728305399018285 -0.026324776044313939 0 -0.0062778605735120657 -0.029651847647148073 0 -0.0060728305399018285 -0.026324776044313939 0 -0.0062778605735120657 -0.029651847647148073 0 -0.007319109532687303 -0.028663233982409077 0 -0.0046806682842103278 -0.018627694727634782 0 -0.0040070888219478108 -0.021133516761716976 0 -0.0054484983959738947 -0.023021426237323561 0 -0.0040070888219478108 -0.021133516761716976 0 -0.0047879235863648477 -0.025185118414164098 0 -0.0054484983959738947 -0.023021426237323561 0 -0.0047879235863648477 -0.025185118414164098 0 -0.0060728305399018285 -0.026324776044313939 0 -0.0054484983959738947 -0.023021426237323561 0 -0.0060728305399018285 -0.026324776044313939 0 -0.0054484983959738947 -0.023021426237323561 0 -0.006968207198981881 -0.025519330384955276 0 -0.0046806682842103278 -0.018627694727634782 0 -0.0054484983959738947 -0.023021426237323561 0 -0.0064122551464809198 -0.021882304695027222 0 -0.0054484983959738947 -0.023021426237323561 0 -0.0064122551464809198 -0.021882304695027222 0 -0.006968207198981881 -0.025519330384955276 0 -0.0064122551464809198 -0.021882304695027222 0 -0.006968207198981881 -0.025519330384955276 0 -0.0082640092687123155 -0.024895547558623703 0 -0.0064122551464809198 -0.021882304695027222 0 -0.0072804561697081636 -0.021113602272824557 0 -0.0082640092687123155 -0.024895547558623703 0 -0.0059827077962239152 -0.018382425264155879 0 -0.0064122551464809198 -0.021882304695027222 0 -0.0072804561697081636 -0.021113602272824557 0 -0.0062778605735120657 -0.029651847647148073 0 -0.007319109532687303 -0.028663233982409077 0 -0.0083223228627010079 -0.03198766350054353 0 -0.0060728305399018285 -0.026324776044313939 0 -0.007319109532687303 -0.028663233982409077 0 -0.006968207198981881 -0.025519330384955276 0 -0.007319109532687303 -0.028663233982409077 0 -0.006968207198981881 -0.025519330384955276 0 -0.0084403508313334111 -0.02855315721645043 0 -0.006968207198981881 -0.025519330384955276 0 -0.0084403508313334111 -0.02855315721645043 0 -0.0082640092687123155 -0.024895547558623703 0 -0.007319109532687303 -0.028663233982409077 0 -0.0084403508313334111 -0.02855315721645043 0 -0.0083223228627010079 -0.03198766350054353 0 -0.0084403508313334111 -0.02855315721645043 0 -0.0083223228627010079 -0.03198766350054353 0 -0.010096303850434132 -0.031404978750551836 0 -0.0083223228627010079 -0.03198766350054353 0 -0.0084042258991638176 -0.036290538600902235 0 -0.0099624991435228079 -0.035031839909599932 0 -0.0084042258991638176 -0.036290538600902235 0 -0.0098095159819317924 -0.039162012356557946 0 -0.0099624991435228079 -0.035031839909599932 0 -0.0083223228627010079 -0.03198766350054353 0 -0.0084042258991638176 -0.036290538600902235 0 -0.0071882352647318791 -0.03352498208815622 0 -0.0062778605735120657 -0.029651847647148073 0 -0.0083223228627010079 -0.03198766350054353 0 -0.0071882352647318791 -0.03352498208815622 0 -0.0062778605735120657 -0.029651847647148073 0 -0.0071882352647318791 -0.03352498208815622 0 -0.0059553721001957497 -0.033081761862461215 0 -0.0071882352647318791 -0.03352498208815622 0 -0.0059553721001957497 -0.033081761862461215 0 -0.0066410329184000191 -0.036746718301664129 0 -0.0084042258991638176 -0.036290538600902235 0 -0.0071882352647318791 -0.03352498208815622 0 -0.0066410329184000191 -0.036746718301664129 0 -0.0048235611369795098 -0.034432182659345334 0 -0.0059553721001957497 -0.033081761862461215 0 -0.0066410329184000191 -0.036746718301664129 0 -0.0047940564217502403 -0.031123438546765254 0 -0.0048235611369795098 -0.034432182659345334 0 -0.0059553721001957497 -0.033081761862461215 0 -0.0047940564217502403 -0.031123438546765254 0 -0.0062778605735120657 -0.029651847647148073 0 -0.0059553721001957497 -0.033081761862461215 0 -0.005014052631897652 -0.038625087065983943 0 -0.0067053904072054632 -0.040477764154918563 0 -0.0057060832785620404 -0.04287115993282798 0 -0.005014052631897652 -0.038625087065983943 0 -0.0067053904072054632 -0.040477764154918563 0 -0.0066410329184000191 -0.036746718301664129 0 -0.0048235611369795098 -0.034432182659345334 0 -0.005014052631897652 -0.038625087065983943 0 -0.0066410329184000191 -0.036746718301664129 0 -0.0084042258991638176 -0.036290538600902235 0 -0.0066410329184000191 -0.036746718301664129 0 -0.0080974941431827853 -0.039880233697364355 0 -0.0067053904072054632 -0.040477764154918563 0 -0.0080974941431827853 -0.039880233697364355 0 -0.0077718313277413478 -0.044330772315740355 0 -0.0067053904072054632 -0.040477764154918563 0 -0.0066410329184000191 -0.036746718301664129 0 -0.0080974941431827853 -0.039880233697364355 0 -0.0080974941431827853 -0.039880233697364355 0 -0.0098095159819317924 -0.039162012356557946 0 -0.0094294751750048714 -0.043132959141741076 0 -0.0084042258991638176 -0.036290538600902235 0 -0.0080974941431827853 -0.039880233697364355 0 -0.0098095159819317924 -0.039162012356557946 0 -0.0098095159819317924 -0.039162012356557946 0 -0.01087460614228195 -0.042471821362565804 0 -0.0094294751750048714 -0.043132959141741076 0 -0.01087460614228195 -0.042471821362565804 0 -0.012235815323660389 -0.041522112155664613 0 -0.01097870251043177 -0.038483588358023485 0 -0.012235815323660389 -0.041522112155664613 0 -0.01097870251043177 -0.038483588358023485 0 -0.011778019957765871 -0.036843010345888202 0 -0.0098095159819317924 -0.039162012356557946 0 -0.01097870251043177 -0.038483588358023485 0 -0.0099624991435228079 -0.035031839909599932 0 -0.0098095159819317924 -0.039162012356557946 0 -0.01087460614228195 -0.042471821362565804 0 -0.01097870251043177 -0.038483588358023485 0 -0.0083223228627010079 -0.03198766350054353 0 -0.0099624991435228079 -0.035031839909599932 0 -0.010096303850434132 -0.031404978750551836 0 -0.011778019957765871 -0.036843010345888202 0 -0.012181503554529212 -0.033846320248774986 0 -0.010096303850434132 -0.031404978750551836 0 -0.0099624991435228079 -0.035031839909599932 0 -0.011778019957765871 -0.036843010345888202 0 -0.010096303850434132 -0.031404978750551836 0 -0.01097870251043177 -0.038483588358023485 0 -0.0099624991435228079 -0.035031839909599932 0 -0.011778019957765871 -0.036843010345888202 0 -0.011778019957765871 -0.036843010345888202 0 -0.013581289111238874 -0.037599914637451409 0 -0.013335154514291186 -0.040454887102746855 0 -0.011778019957765871 -0.036843010345888202 0 -0.012181503554529212 -0.033846320248774986 0 -0.013581289111238874 -0.037599914637451409 0 -0.012181503554529212 -0.033846320248774986 0 -0.013581289111238874 -0.037599914637451409 0 -0.013919720968402539 -0.034732413975693037 0 -0.013581289111238874 -0.037599914637451409 0 -0.013335154514291186 -0.040454887102746855 0 -0.014826441803612195 -0.041287112872727204 0 -0.013335154514291186 -0.040454887102746855 0 -0.014826441803612195 -0.041287112872727204 0 -0.015061235507624556 -0.045127760168445351 0 -0.013335154514291186 -0.040454887102746855 0 -0.015061235507624556 -0.045127760168445351 0 -0.013566418780136072 -0.044518025104447245 0 -0.012235815323660389 -0.041522112155664613 0 -0.013335154514291186 -0.040454887102746855 0 -0.013566418780136072 -0.044518025104447245 0 -0.012235815323660389 -0.041522112155664613 0 -0.011778019957765871 -0.036843010345888202 0 -0.013335154514291186 -0.040454887102746855 0 -0.0072804561697081636 -0.021113602272824557 0 -0.0086621310080391527 -0.022457607612990423 0 -0.0082640092687123155 -0.024895547558623703 0 -0.0086621310080391527 -0.022457607612990423 0 -0.0082640092687123155 -0.024895547558623703 0 -0.0099803807062971966 -0.026780722608331281 0 -0.0086621310080391527 -0.022457607612990423 0 -0.0099803807062971966 -0.026780722608331281 0 -0.010176006443564711 -0.024122523372058193 0 -0.0099803807062971966 -0.026780722608331281 0 -0.0093793394211165015 -0.028174560043084756 0 -0.011010041620465615 -0.030337082425621428 0 -0.0082640092687123155 -0.024895547558623703 0 -0.0099803807062971966 -0.026780722608331281 0 -0.0093793394211165015 -0.028174560043084756 0 -0.0084403508313334111 -0.02855315721645043 0 -0.0082640092687123155 -0.024895547558623703 0 -0.0093793394211165015 -0.028174560043084756 0 -0.0084403508313334111 -0.02855315721645043 0 -0.0093793394211165015 -0.028174560043084756 0 -0.010096303850434132 -0.031404978750551836 0 -0.0093793394211165015 -0.028174560043084756 0 -0.010096303850434132 -0.031404978750551836 0 -0.011010041620465615 -0.030337082425621428 0 -0.012181503554529212 -0.033846320248774986 0 -0.010096303850434132 -0.031404978750551836 0 -0.011010041620465615 -0.030337082425621428 0 -0.012181503554529212 -0.033846320248774986 0 -0.011010041620465615 -0.030337082425621428 0 -0.012077431838015448 -0.029371212026735354 0 -0.012181503554529212 -0.033846320248774986 0 -0.012077431838015448 -0.029371212026735354 0 -0.013919720968402539 -0.034732413975693037 0 -0.0099803807062971966 -0.026780722608331281 0 -0.011010041620465615 -0.030337082425621428 0 -0.012077431838015448 -0.029371212026735354 0 -0.0099803807062971966 -0.026780722608331281 0 -0.012077431838015448 -0.029371212026735354 0 -0.010176006443564711 -0.024122523372058193 0 -0.012077431838015448 -0.029371212026735354 0 -0.010176006443564711 -0.024122523372058193 0 -0.011319681843281842 -0.024076516411087292 0 -0.010053809238277896 -0.021222118267588064 0 -0.010176006443564711 -0.024122523372058193 0 -0.011319681843281842 -0.024076516411087292 0 -0.0087803684467445253 -0.01986311598270615 0 -0.0086621310080391527 -0.022457607612990423 0 -0.010176006443564711 -0.024122523372058193 0 -0.0087803684467445253 -0.01986311598270615 0 -0.010053809238277896 -0.021222118267588064 0 -0.010176006443564711 -0.024122523372058193 0 -0.01156460672397296 -0.0222587849885072 0 -0.013036318251711913 -0.027696965481070625 0 -0.01369515062209244 -0.025926286540421704 0 -0.01156460672397296 -0.0222587849885072 0 -0.010053809238277896 -0.021222118267588064 0 -0.011319681843281842 -0.024076516411087292 0 -0.01156460672397296 -0.0222587849885072 0 -0.011319681843281842 -0.024076516411087292 0 -0.013036318251711913 -0.027696965481070625 0 -0.012077431838015448 -0.029371212026735354 0 -0.011319681843281842 -0.024076516411087292 0 -0.013036318251711913 -0.027696965481070625 0 -0.013036318251711913 -0.027696965481070625 0 -0.014899714013280229 -0.030478018292757755 0 -0.01369515062209244 -0.025926286540421704 0 -0.013036318251711913 -0.027696965481070625 0 -0.014087084915632875 -0.03184836545943609 0 -0.014899714013280229 -0.030478018292757755 0 -0.012077431838015448 -0.029371212026735354 0 -0.013036318251711913 -0.027696965481070625 0 -0.014087084915632875 -0.03184836545943609 0 -0.012077431838015448 -0.029371212026735354 0 -0.014087084915632875 -0.03184836545943609 0 -0.013919720968402539 -0.034732413975693037 0 -0.014087084915632875 -0.03184836545943609 0 -0.013919720968402539 -0.034732413975693037 0 -0.015782640696186349 -0.03550271798023568 0 -0.014087084915632875 -0.03184836545943609 0 -0.014899714013280229 -0.030478018292757755 0 -0.015782640696186349 -0.03550271798023568 0 -0.016670203410552992 -0.033358407043326668 0 -0.014899714013280229 -0.030478018292757755 0 -0.015782640696186349 -0.03550271798023568 0 -0.016670203410552992 -0.033358407043326668 0 -0.014899714013280229 -0.030478018292757755 0 -0.015693483359581411 -0.02917763716002076 0 -0.014899714013280229 -0.030478018292757755 0 -0.015693483359581411 -0.02917763716002076 0 -0.01369515062209244 -0.025926286540421704 0 -0.015693483359581411 -0.02917763716002076 0 -0.014497203025142619 -0.024999721667373957 0 -0.01369515062209244 -0.025926286540421704 0 -0.012581104443948622 -0.021845141470387627 0 -0.014497203025142619 -0.024999721667373957 0 -0.01369515062209244 -0.025926286540421704 0 -0.016560397499961861 -0.044288187821632935 0 -0.014826441803612195 -0.041287112872727204 0 -0.015603564053827953 -0.039292894133918198 0 -0.016560397499961861 -0.044288187821632935 0 -0.014826441803612195 -0.041287112872727204 0 -0.015061235507624556 -0.045127760168445351 0 -0.013581289111238874 -0.037599914637451409 0 -0.014826441803612195 -0.041287112872727204 0 -0.015603564053827953 -0.039292894133918198 0 -0.013581289111238874 -0.037599914637451409 0 -0.013919720968402539 -0.034732413975693037 0 -0.015603564053827953 -0.039292894133918198 0 -0.013919720968402539 -0.034732413975693037 0 -0.015603564053827953 -0.039292894133918198 0 -0.015782640696186349 -0.03550271798023568 0 -0.015603564053827953 -0.039292894133918198 0 -0.016812916842858142 -0.039334092616482907 0 -0.015782640696186349 -0.03550271798023568 0 -0.016670203410552992 -0.033358407043326668 0 -0.015782640696186349 -0.03550271798023568 0 -0.017468098032128763 -0.0375916355638257 0 -0.016812916842858142 -0.039334092616482907 0 -0.015782640696186349 -0.03550271798023568 0 -0.017468098032128763 -0.0375916355638257 0 -0.016812916842858142 -0.039334092616482907 0 -0.017468098032128763 -0.0375916355638257 0 -0.018156630081216922 -0.041855737566667786 0 -0.016812916842858142 -0.039334092616482907 0 -0.018156630081216922 -0.041855737566667786 0 -0.017330251817295202 -0.042474789412363219 0 -0.016560397499961861 -0.044288187821632935 0 -0.017330251817295202 -0.042474789412363219 0 -0.018766476731114826 -0.046186527071612152 0 -0.016560397499961861 -0.044288187821632935 0 -0.015603564053827953 -0.039292894133918198 0 -0.017330251817295202 -0.042474789412363219 0 -0.015603564053827953 -0.039292894133918198 0 -0.016812916842858142 -0.039334092616482907 0 -0.017330251817295202 -0.042474789412363219 0 -0.018156630081216922 -0.041855737566667786 0 -0.017330251817295202 -0.042474789412363219 0 -0.018766476731114826 -0.046186527071612152 0 -0.016560397499961861 -0.044288187821632935 0 -0.018766476731114826 -0.046186527071612152 0 -0.01781212264163453 -0.048715052692570329 0 -0.018766476731114826 -0.046186527071612152 0 -0.019303032261593047 -0.050562147803660917 0 -0.01781212264163453 -0.048715052692570329 0 -0.019303032261593047 -0.050562147803660917 0 -0.01781212264163453 -0.048715052692570329 0 -0.018518499274614832 -0.052266915642133087 0 -0.01781212264163453 -0.048715052692570329 0 -0.017126869080512423 -0.051342404062413576 0 -0.018518499274614832 -0.052266915642133087 0 -0.016560397499961861 -0.044288187821632935 0 -0.01781212264163453 -0.048715052692570329 0 -0.016509315233653083 -0.04803317928172593 0 -0.016560397499961861 -0.044288187821632935 0 -0.016509315233653083 -0.04803317928172593 0 -0.015061235507624556 -0.045127760168445351 0 -0.01781212264163453 -0.048715052692570329 0 -0.016509315233653083 -0.04803317928172593 0 -0.017126869080512423 -0.051342404062413576 0 -0.016509315233653083 -0.04803317928172593 0 -0.015887529119190086 -0.050670103865973662 0 -0.017126869080512423 -0.051342404062413576 0 -0.016509315233653083 -0.04803317928172593 0 -0.015061235507624556 -0.045127760168445351 0 -0.015887529119190086 -0.050670103865973662 0 -0.016709468690437546 -0.054462426666646808 0 -0.015887529119190086 -0.050670103865973662 0 -0.017126869080512423 -0.051342404062413576 0 -0.016709468690437546 -0.054462426666646808 0 -0.018429138778455326 -0.055594256914290888 0 -0.017613949510088277 -0.058144230100588369 0 -0.016709468690437546 -0.054462426666646808 0 -0.017126869080512423 -0.051342404062413576 0 -0.018429138778455326 -0.055594256914290888 0 -0.017126869080512423 -0.051342404062413576 0 -0.018429138778455326 -0.055594256914290888 0 -0.018518499274614832 -0.052266915642133087 0 -0.019303032261593047 -0.050562147803660917 0 -0.018518499274614832 -0.052266915642133087 0 -0.019816144656067573 -0.054984068046883341 0 -0.018429138778455326 -0.055594256914290888 0 -0.019816144656067573 -0.054984068046883341 0 -0.020326736800067999 -0.059457902860355474 0 -0.018429138778455326 -0.055594256914290888 0 -0.018518499274614832 -0.052266915642133087 0 -0.019816144656067573 -0.054984068046883341 0 -0.020326736800067999 -0.059457902860355474 0 -0.019111298864760672 -0.060870983323769591 0 -0.020834877962957889 -0.063973684837298136 0 -0.018429138778455326 -0.055594256914290888 0 -0.019111298864760672 -0.060870983323769591 0 -0.017613949510088277 -0.058144230100588369 0 -0.018429138778455326 -0.055594256914290888 0 -0.020326736800067999 -0.059457902860355474 0 -0.019111298864760672 -0.060870983323769591 0 -0.020834877962957889 -0.063973684837298136 0 -0.019555593358233418 -0.065658592481167719 0 -0.021359958035819266 -0.06852794445442284 0 -0.019111298864760672 -0.060870983323769591 0 -0.020834877962957889 -0.063973684837298136 0 -0.019555593358233418 -0.065658592481167719 0 -0.019555593358233418 -0.065658592481167719 0 -0.021359958035819266 -0.06852794445442284 0 -0.02023637640404664 -0.07010476764838984 0 -0.019555593358233418 -0.065658592481167719 0 -0.01756088410493702 -0.062178457837128866 0 -0.018557155239637323 -0.06800800045471446 0 -0.01756088410493702 -0.062178457837128866 0 -0.017276433366914538 -0.065156979753513283 0 -0.018557155239637323 -0.06800800045471446 0 -0.019111298864760672 -0.060870983323769591 0 -0.019555593358233418 -0.065658592481167719 0 -0.01756088410493702 -0.062178457837128866 0 -0.017276433366914538 -0.065156979753513283 0 -0.018557155239637323 -0.06800800045471446 0 -0.016809980159975878 -0.067230545363070854 0 -0.019111298864760672 -0.060870983323769591 0 -0.01756088410493702 -0.062178457837128866 0 -0.017613949510088277 -0.058144230100588369 0 -0.01756088410493702 -0.062178457837128866 0 -0.017613949510088277 -0.058144230100588369 0 -0.01634911348176989 -0.057427072204874433 0 -0.016709468690437546 -0.054462426666646808 0 -0.017613949510088277 -0.058144230100588369 0 -0.01634911348176989 -0.057427072204874433 0 -0.01756088410493702 -0.062178457837128866 0 -0.01634911348176989 -0.057427072204874433 0 -0.015188838244241519 -0.058886543491825899 0 -0.01634911348176989 -0.057427072204874433 0 -0.015188838244241519 -0.058886543491825899 0 -0.014877867883691881 -0.053646179774982435 0 -0.015188838244241519 -0.058886543491825899 0 -0.013585978124610007 -0.054552187705701319 0 -0.014877867883691881 -0.053646179774982435 0 -0.01756088410493702 -0.062178457837128866 0 -0.015188838244241519 -0.058886543491825899 0 -0.016031527078053352 -0.063163921802194892 0 -0.017276433366914538 -0.065156979753513283 0 -0.016031527078053352 -0.063163921802194892 0 -0.016809980159975878 -0.067230545363070854 0 -0.01756088410493702 -0.062178457837128866 0 -0.017276433366914538 -0.065156979753513283 0 -0.016031527078053352 -0.063163921802194892 0 -0.015188838244241519 -0.058886543491825899 0 -0.016031527078053352 -0.063163921802194892 0 -0.014729841975685614 -0.062509703732218522 0 -0.016031527078053352 -0.063163921802194892 0 -0.016809980159975878 -0.067230545363070854 0 -0.0154975689175728 -0.066991605853047073 0 -0.016031527078053352 -0.063163921802194892 0 -0.014729841975685614 -0.062509703732218522 0 -0.0154975689175728 -0.066991605853047073 0 -0.014729841975685614 -0.062509703732218522 0 -0.01368000501321244 -0.063440910227588854 0 -0.0154975689175728 -0.066991605853047073 0 -0.014729841975685614 -0.062509703732218522 0 -0.01368000501321244 -0.063440910227588854 0 -0.013212675703609797 -0.058803860207151587 0 -0.01368000501321244 -0.063440910227588854 0 -0.013212675703609797 -0.058803860207151587 0 -0.012053084157218725 -0.061050267643105123 0 -0.01368000501321244 -0.063440910227588854 0 -0.01418889508786628 -0.068120639917035 0 -0.01271577120415465 -0.064605425282349208 0 -0.01368000501321244 -0.063440910227588854 0 -0.01271577120415465 -0.064605425282349208 0 -0.012053084157218725 -0.061050267643105123 0 -0.015188838244241519 -0.058886543491825899 0 -0.013212675703609797 -0.058803860207151587 0 -0.013585978124610007 -0.054552187705701319 0 -0.015188838244241519 -0.058886543491825899 0 -0.014729841975685614 -0.062509703732218522 0 -0.013212675703609797 -0.058803860207151587 0 -0.013212675703609797 -0.058803860207151587 0 -0.012010093099657707 -0.054818637432316186 0 -0.013585978124610007 -0.054552187705701319 0 -0.013212675703609797 -0.058803860207151587 0 -0.012010093099657707 -0.054818637432316186 0 -0.011053785883978684 -0.05646685373832968 0 -0.012010093099657707 -0.054818637432316186 0 -0.013585978124610007 -0.054552187705701319 0 -0.012277060628723215 -0.050763867841662869 0 -0.012010093099657707 -0.054818637432316186 0 -0.012277060628723215 -0.050763867841662869 0 -0.010948792696308978 -0.051500513942304212 0 -0.013585978124610007 -0.054552187705701319 0 -0.012277060628723215 -0.050763867841662869 0 -0.013679634047452958 -0.050692696015355011 0 -0.012277060628723215 -0.050763867841662869 0 -0.012649712521515583 -0.046393376054542648 0 -0.013679634047452958 -0.050692696015355011 0 -0.012277060628723215 -0.050763867841662869 0 -0.010983759977607447 -0.047070794942168537 0 -0.010948792696308978 -0.051500513942304212 0 -0.012277060628723215 -0.050763867841662869 0 -0.012649712521515583 -0.046393376054542648 0 -0.010983759977607447 -0.047070794942168537 0 -0.01087460614228195 -0.042471821362565804 0 -0.012649712521515583 -0.046393376054542648 0 -0.010983759977607447 -0.047070794942168537 0 -0.012235815323660389 -0.041522112155664613 0 -0.012649712521515583 -0.046393376054542648 0 -0.013566418780136072 -0.044518025104447245 0 -0.01087460614228195 -0.042471821362565804 0 -0.012235815323660389 -0.041522112155664613 0 -0.012649712521515583 -0.046393376054542648 0 -0.012649712521515583 -0.046393376054542648 0 -0.014590323169627384 -0.048698568747222309 0 -0.013679634047452958 -0.050692696015355011 0 -0.012649712521515583 -0.046393376054542648 0 -0.013566418780136072 -0.044518025104447245 0 -0.014590323169627384 -0.048698568747222309 0 -0.015061235507624556 -0.045127760168445351 0 -0.013566418780136072 -0.044518025104447245 0 -0.014590323169627384 -0.048698568747222309 0 -0.015061235507624556 -0.045127760168445351 0 -0.015887529119190086 -0.050670103865973662 0 -0.014590323169627384 -0.048698568747222309 0 -0.015887529119190086 -0.050670103865973662 0 -0.014590323169627384 -0.048698568747222309 0 -0.014877867883691881 -0.053646179774982435 0 -0.016709468690437546 -0.054462426666646808 0 -0.015887529119190086 -0.050670103865973662 0 -0.014877867883691881 -0.053646179774982435 0 -0.016709468690437546 -0.054462426666646808 0 -0.01634911348176989 -0.057427072204874433 0 -0.014877867883691881 -0.053646179774982435 0 -0.013585978124610007 -0.054552187705701319 0 -0.014877867883691881 -0.053646179774982435 0 -0.013679634047452958 -0.050692696015355011 0 -0.014590323169627384 -0.048698568747222309 0 -0.014877867883691881 -0.053646179774982435 0 -0.013679634047452958 -0.050692696015355011 0 -0.021438336365988093 -0.090140127309154577 0 -0.020645611871909157 -0.086005085675895071 0 -0.019727881207619234 -0.089293693956297188 0 -0.020645611871909157 -0.086005085675895071 0 -0.022223634338142631 -0.086456865784254017 0 -0.020634052679089836 -0.082156442717669864 0 -0.021438336365988093 -0.090140127309154577 0 -0.023074773556956023 -0.090959886833696893 0 -0.022223634338142631 -0.086456865784254017 0 -0.021438336365988093 -0.090140127309154577 0 -0.020645611871909157 -0.086005085675895071 0 -0.022223634338142631 -0.086456865784254017 0 -0.023074773556956023 -0.090959886833696893 0 -0.023459879780271389 -0.089063461361891347 0 -0.022223634338142631 -0.086456865784254017 0 -0.023074773556956023 -0.090959886833696893 0 -0.024654932232803076 -0.091758915903131552 0 -0.023459879780271389 -0.089063461361891347 0 -0.024654932232803076 -0.091758915903131552 0 -0.023459879780271389 -0.089063461361891347 0 -0.023880531093768059 -0.087075964531725877 0 -0.023459879780271389 -0.089063461361891347 0 -0.023880531093768059 -0.087075964531725877 0 -0.022223634338142631 -0.086456865784254017 0 -0.023880531093768059 -0.087075964531725877 0 -0.022223634338142631 -0.086456865784254017 0 -0.021746061687820426 -0.081651144288458016 0 -0.022223634338142631 -0.086456865784254017 0 -0.021746061687820426 -0.081651144288458016 0 -0.020634052679089836 -0.082156442717669864 0 -0.023880531093768059 -0.087075964531725877 0 -0.023166525247330805 -0.082408615643746158 0 -0.021746061687820426 -0.081651144288458016 0 -0.023166525247330805 -0.082408615643746158 0 -0.021746061687820426 -0.081651144288458016 0 -0.022511903740149004 -0.077756464736521674 0 -0.021746061687820426 -0.081651144288458016 0 -0.020634052679089836 -0.082156442717669864 0 -0.020505913528733297 -0.077351181658376886 0 -0.020634052679089836 -0.082156442717669864 0 -0.019387942927203243 -0.07826106997726949 0 -0.020505913528733297 -0.077351181658376886 0 -0.020645611871909157 -0.086005085675895071 0 -0.020634052679089836 -0.082156442717669864 0 -0.019189721680467165 -0.081003831296951073 0 -0.020645611871909157 -0.086005085675895071 0 -0.019189721680467165 -0.081003831296951073 0 -0.018899270967779047 -0.08371243148889132 0 -0.019189721680467165 -0.081003831296951073 0 -0.019387942927203243 -0.07826106997726949 0 -0.017861683438196847 -0.076207608912383373 0 -0.020634052679089836 -0.082156442717669864 0 -0.019189721680467165 -0.081003831296951073 0 -0.019387942927203243 -0.07826106997726949 0 -0.019387942927203243 -0.07826106997726949 0 -0.018894171833377334 -0.074972081831015128 0 -0.017861683438196847 -0.076207608912383373 0 -0.018894171833377334 -0.074972081831015128 0 -0.020505913528733297 -0.077351181658376886 0 -0.019281092442341864 -0.072061575261271452 0 -0.019387942927203243 -0.07826106997726949 0 -0.018894171833377334 -0.074972081831015128 0 -0.020505913528733297 -0.077351181658376886 0 -0.020505913528733297 -0.077351181658376886 0 -0.022511903740149004 -0.077756464736521674 0 -0.020892606306364792 -0.074082082252129713 0 -0.021746061687820426 -0.081651144288458016 0 -0.020505913528733297 -0.077351181658376886 0 -0.022511903740149004 -0.077756464736521674 0 -0.022511903740149004 -0.077756464736521674 0 -0.020892606306364792 -0.074082082252129713 0 -0.021913314678656072 -0.073123297239306995 0 -0.020505913528733297 -0.077351181658376886 0 -0.020892606306364792 -0.074082082252129713 0 -0.019281092442341864 -0.072061575261271452 0 -0.020892606306364792 -0.074082082252129713 0 -0.02023637640404664 -0.07010476764838984 0 -0.019281092442341864 -0.072061575261271452 0 -0.020892606306364792 -0.074082082252129713 0 -0.021913314678656072 -0.073123297239306995 0 -0.02023637640404664 -0.07010476764838984 0 -0.021913314678656072 -0.073123297239306995 0 -0.021359958035819266 -0.06852794445442284 0 -0.02023637640404664 -0.07010476764838984 0 -0.019555593358233418 -0.065658592481167719 0 -0.02023637640404664 -0.07010476764838984 0 -0.018557155239637323 -0.06800800045471446 0 -0.02023637640404664 -0.07010476764838984 0 -0.018557155239637323 -0.06800800045471446 0 -0.019281092442341864 -0.072061575261271452 0 -0.018894171833377334 -0.074972081831015128 0 -0.019281092442341864 -0.072061575261271452 0 -0.017414758643332126 -0.070986464148824799 0 -0.018557155239637323 -0.06800800045471446 0 -0.019281092442341864 -0.072061575261271452 0 -0.017414758643332126 -0.070986464148824799 0 -0.018557155239637323 -0.06800800045471446 0 -0.016809980159975878 -0.067230545363070854 0 -0.017414758643332126 -0.070986464148824799 0 -0.016809980159975878 -0.067230545363070854 0 -0.017414758643332126 -0.070986464148824799 0 -0.0154975689175728 -0.066991605853047073 0 -0.017414758643332126 -0.070986464148824799 0 -0.0154975689175728 -0.066991605853047073 0 -0.016297282650457975 -0.072385492594779124 0 -0.01368000501321244 -0.063440910227588854 0 -0.0154975689175728 -0.066991605853047073 0 -0.01418889508786628 -0.068120639917035 0 -0.01418889508786628 -0.068120639917035 0 -0.014870864206872916 -0.07192442734769787 0 -0.013271801019095187 -0.070800367342764098 0 -0.01418889508786628 -0.068120639917035 0 -0.014870864206872916 -0.07192442734769787 0 -0.016297282650457975 -0.072385492594779124 0 -0.0154975689175728 -0.066991605853047073 0 -0.01418889508786628 -0.068120639917035 0 -0.016297282650457975 -0.072385492594779124 0 -0.014870864206872916 -0.07192442734769787 0 -0.016168312184149589 -0.076523992175562605 0 -0.016297282650457975 -0.072385492594779124 0 -0.014870864206872916 -0.07192442734769787 0 -0.014496604089404294 -0.074885866669010981 0 -0.013271801019095187 -0.070800367342764098 0 -0.014870864206872916 -0.07192442734769787 0 -0.014496604089404294 -0.074885866669010981 0 -0.016168312184149589 -0.076523992175562605 0 -0.016168312184149589 -0.076523992175562605 0 -0.016297282650457975 -0.072385492594779124 0 -0.017861683438196847 -0.076207608912383373 0 -0.016168312184149589 -0.076523992175562605 0 -0.017861683438196847 -0.076207608912383373 0 -0.017781815055577663 -0.079714812446552638 0 -0.017414758643332126 -0.070986464148824799 0 -0.016297282650457975 -0.072385492594779124 0 -0.017861683438196847 -0.076207608912383373 0 -0.018894171833377334 -0.074972081831015128 0 -0.017414758643332126 -0.070986464148824799 0 -0.017861683438196847 -0.076207608912383373 0 -0.019189721680467165 -0.081003831296951073 0 -0.017861683438196847 -0.076207608912383373 0 -0.017781815055577663 -0.079714812446552638 0 -0.019189721680467165 -0.081003831296951073 0 -0.017781815055577663 -0.079714812446552638 0 -0.018899270967779047 -0.08371243148889132 0 -0.017781815055577663 -0.079714812446552638 0 -0.016743573095476201 -0.081002056607353587 0 -0.018899270967779047 -0.08371243148889132 0 -0.016168312184149589 -0.076523992175562605 0 -0.017781815055577663 -0.079714812446552638 0 -0.016743573095476201 -0.081002056607353587 0 -0.016168312184149589 -0.076523992175562605 0 -0.014910260136606309 -0.079324028093327767 0 -0.016743573095476201 -0.081002056607353587 0 -0.014496604089404294 -0.074885866669010981 0 -0.016168312184149589 -0.076523992175562605 0 -0.014910260136606309 -0.079324028093327767 0 -0.014910260136606309 -0.079324028093327767 0 -0.016743573095476201 -0.081002056607353587 0 -0.016200001229846089 -0.083979130691893833 0 -0.016743573095476201 -0.081002056607353587 0 -0.016200001229846089 -0.083979130691893833 0 -0.017898966881601568 -0.085280077422236381 0 -0.014910260136606309 -0.079324028093327767 0 -0.016200001229846089 -0.083979130691893833 0 -0.014307680073018483 -0.082669186372138284 0 -0.016200001229846089 -0.083979130691893833 0 -0.017948392165371647 -0.088430475747789158 0 -0.016074312450159702 -0.087577347581791934 0 -0.016200001229846089 -0.083979130691893833 0 -0.017948392165371647 -0.088430475747789158 0 -0.017898966881601568 -0.085280077422236381 0 -0.017948392165371647 -0.088430475747789158 0 -0.017898966881601568 -0.085280077422236381 0 -0.019727881207619234 -0.089293693956297188 0 -0.016743573095476201 -0.081002056607353587 0 -0.017898966881601568 -0.085280077422236381 0 -0.018899270967779047 -0.08371243148889132 0 -0.017898966881601568 -0.085280077422236381 0 -0.018899270967779047 -0.08371243148889132 0 -0.019727881207619234 -0.089293693956297188 0 -0.020645611871909157 -0.086005085675895071 0 -0.018899270967779047 -0.08371243148889132 0 -0.019727881207619234 -0.089293693956297188 0 -0.012057700504758845 -0.085981618766660731 0 -0.011073799805508166 -0.08266644170421214 0 -0.012431955959205876 -0.082348462930497218 0 -0.012057700504758845 -0.085981618766660731 0 -0.011073799805508166 -0.08266644170421214 0 -0.0099086150939588381 -0.085268263762019625 0 -0.011073799805508166 -0.08266644170421214 0 -0.012431955959205876 -0.082348462930497218 0 -0.010699484266305539 -0.078683697605705372 0 -0.011073799805508166 -0.08266644170421214 0 -0.010699484266305539 -0.078683697605705372 0 -0.0093807671213078196 -0.080372077395479524 0 -0.012057700504758845 -0.085981618766660731 0 -0.012431955959205876 -0.082348462930497218 0 -0.014111366279358223 -0.0867562270888282 0 -0.014111366279358223 -0.0867562270888282 0 -0.016074312450159702 -0.087577347581791934 0 -0.014307680073018483 -0.082669186372138284 0 -0.016200001229846089 -0.083979130691893833 0 -0.016074312450159702 -0.087577347581791934 0 -0.014307680073018483 -0.082669186372138284 0 -0.012431955959205876 -0.082348462930497218 0 -0.014111366279358223 -0.0867562270888282 0 -0.014307680073018483 -0.082669186372138284 0 -0.012431955959205876 -0.082348462930497218 0 -0.014307680073018483 -0.082669186372138284 0 -0.012404971816419219 -0.077653506291832153 0 -0.014910260136606309 -0.079324028093327767 0 -0.013531531905370826 -0.076275475288001729 0 -0.012404971816419219 -0.077653506291832153 0 -0.014910260136606309 -0.079324028093327767 0 -0.014307680073018483 -0.082669186372138284 0 -0.012404971816419219 -0.077653506291832153 0 -0.014496604089404294 -0.074885866669010981 0 -0.014910260136606309 -0.079324028093327767 0 -0.013531531905370826 -0.076275475288001729 0 -0.012404971816419219 -0.077653506291832153 0 -0.010699484266305539 -0.078683697605705372 0 -0.010237092732609991 -0.07525268209788008 0 -0.012431955959205876 -0.082348462930497218 0 -0.012404971816419219 -0.077653506291832153 0 -0.010699484266305539 -0.078683697605705372 0 -0.010699484266305539 -0.078683697605705372 0 -0.010237092732609991 -0.07525268209788008 0 -0.008827375591189764 -0.076185135260449954 0 -0.010237092732609991 -0.07525268209788008 0 -0.010836623389502789 -0.07244575917661919 0 -0.0084024778603850898 -0.071389862859085329 0 -0.010836623389502789 -0.07244575917661919 0 -0.0096455124952478967 -0.069171618701073037 0 -0.0084024778603850898 -0.071389862859085329 0 -0.010836623389502789 -0.07244575917661919 0 -0.011476665578709005 -0.069878952123253568 0 -0.0096455124952478967 -0.069171618701073037 0 -0.012404971816419219 -0.077653506291832153 0 -0.010237092732609991 -0.07525268209788008 0 -0.010836623389502789 -0.07244575917661919 0 -0.012404971816419219 -0.077653506291832153 0 -0.010836623389502789 -0.07244575917661919 0 -0.012469358662954807 -0.073301539866270013 0 -0.013531531905370826 -0.076275475288001729 0 -0.012404971816419219 -0.077653506291832153 0 -0.012469358662954807 -0.073301539866270013 0 -0.014496604089404294 -0.074885866669010981 0 -0.013531531905370826 -0.076275475288001729 0 -0.012469358662954807 -0.073301539866270013 0 -0.014496604089404294 -0.074885866669010981 0 -0.012469358662954807 -0.073301539866270013 0 -0.013271801019095187 -0.070800367342764098 0 -0.012469358662954807 -0.073301539866270013 0 -0.013271801019095187 -0.070800367342764098 0 -0.011476665578709005 -0.069878952123253568 0 -0.010836623389502789 -0.07244575917661919 0 -0.012469358662954807 -0.073301539866270013 0 -0.011476665578709005 -0.069878952123253568 0 -0.013271801019095187 -0.070800367342764098 0 -0.011476665578709005 -0.069878952123253568 0 -0.012223856521670382 -0.067232831263780282 0 -0.011476665578709005 -0.069878952123253568 0 -0.012223856521670382 -0.067232831263780282 0 -0.01028746846288635 -0.066529911700602615 0 -0.01418889508786628 -0.068120639917035 0 -0.013271801019095187 -0.070800367342764098 0 -0.012223856521670382 -0.067232831263780282 0 -0.012223856521670382 -0.067232831263780282 0 -0.01271577120415465 -0.064605425282349208 0 -0.011146098812645616 -0.063851711686652421 0 -0.01418889508786628 -0.068120639917035 0 -0.012223856521670382 -0.067232831263780282 0 -0.01271577120415465 -0.064605425282349208 0 -0.012223856521670382 -0.067232831263780282 0 -0.01028746846288635 -0.066529911700602615 0 -0.011146098812645616 -0.063851711686652421 0 -0.01028746846288635 -0.066529911700602615 0 -0.011146098812645616 -0.063851711686652421 0 -0.0090458302868144345 -0.062833077670439386 0 -0.011476665578709005 -0.069878952123253568 0 -0.01028746846288635 -0.066529911700602615 0 -0.0096455124952478967 -0.069171618701073037 0 -0.01028746846288635 -0.066529911700602615 0 -0.0096455124952478967 -0.069171618701073037 0 -0.0082575636670700111 -0.066398670824661152 0 -0.01028746846288635 -0.066529911700602615 0 -0.0082575636670700111 -0.066398670824661152 0 -0.0090458302868144345 -0.062833077670439386 0 -0.0082575636670700111 -0.066398670824661152 0 -0.0065379084182404885 -0.064712365389000909 0 -0.0071347494078564076 -0.061970555049956057 0 -0.0082575636670700111 -0.066398670824661152 0 -0.0090458302868144345 -0.062833077670439386 0 -0.0071347494078564076 -0.061970555049956057 0 -0.0082575636670700111 -0.066398670824661152 0 -0.006859776920025434 -0.067842912138116149 0 -0.0084024778603850898 -0.071389862859085329 0 -0.0096455124952478967 -0.069171618701073037 0 -0.0082575636670700111 -0.066398670824661152 0 -0.0084024778603850898 -0.071389862859085329 0 -0.0082575636670700111 -0.066398670824661152 0 -0.006859776920025434 -0.067842912138116149 0 -0.0065379084182404885 -0.064712365389000909 0 -0.0065379084182404885 -0.064712365389000909 0 -0.0051183781476288855 -0.065875256316026795 0 -0.0051571405389094433 -0.061943148869061639 0 -0.0051183781476288855 -0.065875256316026795 0 -0.0051571405389094433 -0.061943148869061639 0 -0.0031118549235532259 -0.063014069665879385 0 -0.0051183781476288855 -0.065875256316026795 0 -0.0034542132879360763 -0.066047748132405965 0 -0.0031118549235532259 -0.063014069665879385 0 -0.0051183781476288855 -0.065875256316026795 0 -0.0037442804068707858 -0.069207372543236764 0 -0.0034542132879360763 -0.066047748132405965 0 -0.006859776920025434 -0.067842912138116149 0 -0.0051183781476288855 -0.065875256316026795 0 -0.0059254781314031007 -0.07093863144199225 0 -0.006859776920025434 -0.067842912138116149 0 -0.0065379084182404885 -0.064712365389000909 0 -0.0051183781476288855 -0.065875256316026795 0 -0.0051183781476288855 -0.065875256316026795 0 -0.0059254781314031007 -0.07093863144199225 0 -0.0037442804068707858 -0.069207372543236764 0 -0.0059254781314031007 -0.07093863144199225 0 -0.0043243553147837713 -0.073728491832201995 0 -0.0037442804068707858 -0.069207372543236764 0 -0.0059254781314031007 -0.07093863144199225 0 -0.0069464450236256881 -0.074421184115153388 0 -0.0043243553147837713 -0.073728491832201995 0 -0.0059254781314031007 -0.07093863144199225 0 -0.0084024778603850898 -0.071389862859085329 0 -0.0069464450236256881 -0.074421184115153388 0 -0.0084024778603850898 -0.071389862859085329 0 -0.008827375591189764 -0.076185135260449954 0 -0.0069464450236256881 -0.074421184115153388 0 -0.006859776920025434 -0.067842912138116149 0 -0.0059254781314031007 -0.07093863144199225 0 -0.0084024778603850898 -0.071389862859085329 0 -0.010237092732609991 -0.07525268209788008 0 -0.0084024778603850898 -0.071389862859085329 0 -0.008827375591189764 -0.076185135260449954 0 -0.010699484266305539 -0.078683697605705372 0 -0.008827375591189764 -0.076185135260449954 0 -0.0093807671213078196 -0.080372077395479524 0 -0.008827375591189764 -0.076185135260449954 0 -0.0074513826563424425 -0.077904820298737701 0 -0.0093807671213078196 -0.080372077395479524 0 -0.008827375591189764 -0.076185135260449954 0 -0.0074513826563424425 -0.077904820298737701 0 -0.0069464450236256881 -0.074421184115153388 0 -0.0074513826563424425 -0.077904820298737701 0 -0.0069464450236256881 -0.074421184115153388 0 -0.0058189496890625183 -0.077085745666631802 0 -0.0069464450236256881 -0.074421184115153388 0 -0.0058189496890625183 -0.077085745666631802 0 -0.0043243553147837713 -0.073728491832201995 0 -0.0058189496890625183 -0.077085745666631802 0 -0.006301214308032526 -0.080583190249050141 0 -0.0039850912887309667 -0.078905353645197365 0 -0.0058189496890625183 -0.077085745666631802 0 -0.0039850912887309667 -0.078905353645197365 0 -0.0043243553147837713 -0.073728491832201995 0 -0.0074513826563424425 -0.077904820298737701 0 -0.0058189496890625183 -0.077085745666631802 0 -0.006301214308032526 -0.080583190249050141 0 -0.0074513826563424425 -0.077904820298737701 0 -0.006301214308032526 -0.080583190249050141 0 -0.0081437112845628417 -0.081735920913995661 0 -0.006301214308032526 -0.080583190249050141 0 -0.0054253298021780996 -0.08415945414304947 0 -0.0039850912887309667 -0.078905353645197365 0 -0.006301214308032526 -0.080583190249050141 0 -0.0076916759233351404 -0.084660384371046157 0 -0.0054253298021780996 -0.08415945414304947 0 -0.006301214308032526 -0.080583190249050141 0 -0.0076916759233351404 -0.084660384371046157 0 -0.0081437112845628417 -0.081735920913995661 0 -0.0076916759233351404 -0.084660384371046157 0 -0.0081437112845628417 -0.081735920913995661 0 -0.0099086150939588381 -0.085268263762019625 0 -0.0081437112845628417 -0.081735920913995661 0 -0.0093807671213078196 -0.080372077395479524 0 -0.0099086150939588381 -0.085268263762019625 0 -0.0074513826563424425 -0.077904820298737701 0 -0.0081437112845628417 -0.081735920913995661 0 -0.0093807671213078196 -0.080372077395479524 0 -0.011073799805508166 -0.08266644170421214 0 -0.0093807671213078196 -0.080372077395479524 0 -0.0099086150939588381 -0.085268263762019625 0 -0.0082570114582990635 -0.048737034897634132 0 -0.0092551988507322182 -0.05229601159414074 0 -0.0074667419117492055 -0.050633507993861439 0 -0.0092551988507322182 -0.05229601159414074 0 -0.0074667419117492055 -0.050633507993861439 0 -0.0078369307867297896 -0.054110437654343826 0 -0.0074667419117492055 -0.050633507993861439 0 -0.0078369307867297896 -0.054110437654343826 0 -0.0061296311806964222 -0.052379084010801408 0 -0.0082570114582990635 -0.048737034897634132 0 -0.0074667419117492055 -0.050633507993861439 0 -0.0064963384728243213 -0.047051736150289736 0 -0.0064963384728243213 -0.047051736150289736 0 -0.0077718313277413478 -0.044330772315740355 0 -0.0057060832785620404 -0.04287115993282798 0 -0.0082570114582990635 -0.048737034897634132 0 -0.0064963384728243213 -0.047051736150289736 0 -0.0077718313277413478 -0.044330772315740355 0 -0.0067053904072054632 -0.040477764154918563 0 -0.0077718313277413478 -0.044330772315740355 0 -0.0057060832785620404 -0.04287115993282798 0 -0.0082570114582990635 -0.048737034897634132 0 -0.0077718313277413478 -0.044330772315740355 0 -0.0096874636394803735 -0.048283875086229937 0 -0.0077718313277413478 -0.044330772315740355 0 -0.0094294751750048714 -0.043132959141741076 0 -0.0096874636394803735 -0.048283875086229937 0 -0.0080974941431827853 -0.039880233697364355 0 -0.0077718313277413478 -0.044330772315740355 0 -0.0094294751750048714 -0.043132959141741076 0 -0.01087460614228195 -0.042471821362565804 0 -0.0094294751750048714 -0.043132959141741076 0 -0.010983759977607447 -0.047070794942168537 0 -0.0094294751750048714 -0.043132959141741076 0 -0.010983759977607447 -0.047070794942168537 0 -0.0096874636394803735 -0.048283875086229937 0 -0.010983759977607447 -0.047070794942168537 0 -0.0096874636394803735 -0.048283875086229937 0 -0.010948792696308978 -0.051500513942304212 0 -0.0082570114582990635 -0.048737034897634132 0 -0.0092551988507322182 -0.05229601159414074 0 -0.0096874636394803735 -0.048283875086229937 0 -0.0092551988507322182 -0.05229601159414074 0 -0.0096874636394803735 -0.048283875086229937 0 -0.010948792696308978 -0.051500513942304212 0 -0.0092551988507322182 -0.05229601159414074 0 -0.010948792696308978 -0.051500513942304212 0 -0.011053785883978684 -0.05646685373832968 0 -0.012010093099657707 -0.054818637432316186 0 -0.010948792696308978 -0.051500513942304212 0 -0.011053785883978684 -0.05646685373832968 0 -0.013212675703609797 -0.058803860207151587 0 -0.011053785883978684 -0.05646685373832968 0 -0.012053084157218725 -0.061050267643105123 0 -0.011053785883978684 -0.05646685373832968 0 -0.010199740356867139 -0.0601568018212289 0 -0.0094408927188070462 -0.056369827297264578 0 -0.011053785883978684 -0.05646685373832968 0 -0.012053084157218725 -0.061050267643105123 0 -0.010199740356867139 -0.0601568018212289 0 -0.0092551988507322182 -0.05229601159414074 0 -0.011053785883978684 -0.05646685373832968 0 -0.0094408927188070462 -0.056369827297264578 0 -0.01271577120415465 -0.064605425282349208 0 -0.012053084157218725 -0.061050267643105123 0 -0.011146098812645616 -0.063851711686652421 0 -0.012053084157218725 -0.061050267643105123 0 -0.011146098812645616 -0.063851711686652421 0 -0.010199740356867139 -0.0601568018212289 0 -0.011146098812645616 -0.063851711686652421 0 -0.010199740356867139 -0.0601568018212289 0 -0.0090458302868144345 -0.062833077670439386 0 -0.010199740356867139 -0.0601568018212289 0 -0.008108487511300274 -0.05862560829192049 0 -0.0090458302868144345 -0.062833077670439386 0 -0.008108487511300274 -0.05862560829192049 0 -0.0090458302868144345 -0.062833077670439386 0 -0.0071347494078564076 -0.061970555049956057 0 -0.0092551988507322182 -0.05229601159414074 0 -0.0094408927188070462 -0.056369827297264578 0 -0.0078369307867297896 -0.054110437654343826 0 -0.010199740356867139 -0.0601568018212289 0 -0.008108487511300274 -0.05862560829192049 0 -0.0094408927188070462 -0.056369827297264578 0 -0.008108487511300274 -0.05862560829192049 0 -0.0094408927188070462 -0.056369827297264578 0 -0.0078369307867297896 -0.054110437654343826 0 -0.008108487511300274 -0.05862560829192049 0 -0.0078369307867297896 -0.054110437654343826 0 -0.0065179719119427626 -0.055473401294924111 0 -0.0078369307867297896 -0.054110437654343826 0 -0.0065179719119427626 -0.055473401294924111 0 -0.0061296311806964222 -0.052379084010801408 0 -0.008108487511300274 -0.05862560829192049 0 -0.0065179719119427626 -0.055473401294924111 0 -0.005521410607578818 -0.058010162301669443 0 -0.0065179719119427626 -0.055473401294924111 0 -0.005521410607578818 -0.058010162301669443 0 -0.0047331966051878133 -0.054158447466623121 0 -0.0047331966051878133 -0.054158447466623121 0 -0.0044093824155348816 -0.050837203587792361 0 -0.0061296311806964222 -0.052379084010801408 0 -0.0065179719119427626 -0.055473401294924111 0 -0.0047331966051878133 -0.054158447466623121 0 -0.0061296311806964222 -0.052379084010801408 0 -0.008108487511300274 -0.05862560829192049 0 -0.0071347494078564076 -0.061970555049956057 0 -0.005521410607578818 -0.058010162301669443 0 -0.0071347494078564076 -0.061970555049956057 0 -0.005521410607578818 -0.058010162301669443 0 -0.0051571405389094433 -0.061943148869061639 0 -0.0065379084182404885 -0.064712365389000909 0 -0.0071347494078564076 -0.061970555049956057 0 -0.0051571405389094433 -0.061943148869061639 0 -0.005521410607578818 -0.058010162301669443 0 -0.0051571405389094433 -0.061943148869061639 0 -0.0030344971656439028 -0.058190063458515164 0 -0.0051571405389094433 -0.061943148869061639 0 -0.0030344971656439028 -0.058190063458515164 0 -0.0031118549235532259 -0.063014069665879385 0 -0.005521410607578818 -0.058010162301669443 0 -0.0031468050154743752 -0.054832835220883898 0 -0.0030344971656439028 -0.058190063458515164 0 -0.0047331966051878133 -0.054158447466623121 0 -0.0031468050154743752 -0.054832835220883898 0 -0.0029740851459998069 -0.05119641962418376 0 -0.0047331966051878133 -0.054158447466623121 0 -0.0029740851459998069 -0.05119641962418376 0 -0.0044093824155348816 -0.050837203587792361 0 -0.005521410607578818 -0.058010162301669443 0 -0.0047331966051878133 -0.054158447466623121 0 -0.0031468050154743752 -0.054832835220883898 0 -0.0031468050154743752 -0.054832835220883898 0 -0.0029740851459998069 -0.05119641962418376 0 -0.001513927211640381 -0.051960235217689638 0 -0.0029740851459998069 -0.05119641962418376 0 -0.00079532580962480084 -0.048871507182146258 0 -0.001513927211640381 -0.051960235217689638 0 -0.0029740851459998069 -0.05119641962418376 0 -0.002756108705982229 -0.047454277314535318 0 -0.00079532580962480084 -0.048871507182146258 0 -0.0029740851459998069 -0.05119641962418376 0 -0.002756108705982229 -0.047454277314535318 0 -0.0044093824155348816 -0.050837203587792361 0 -0.0044093824155348816 -0.050837203587792361 0 -0.005274271352881027 -0.04898000276239671 0 -0.0061296311806964222 -0.052379084010801408 0 -0.002756108705982229 -0.047454277314535318 0 -0.0044093824155348816 -0.050837203587792361 0 -0.005274271352881027 -0.04898000276239671 0 -0.002756108705982229 -0.047454277314535318 0 -0.005274271352881027 -0.04898000276239671 0 -0.0041804142518233611 -0.045122004050177848 0 -0.0064963384728243213 -0.047051736150289736 0 -0.005274271352881027 -0.04898000276239671 0 -0.0041804142518233611 -0.045122004050177848 0 -0.0074667419117492055 -0.050633507993861439 0 -0.0064963384728243213 -0.047051736150289736 0 -0.005274271352881027 -0.04898000276239671 0 -0.0074667419117492055 -0.050633507993861439 0 -0.005274271352881027 -0.04898000276239671 0 -0.0061296311806964222 -0.052379084010801408 0 -0.0064963384728243213 -0.047051736150289736 0 -0.0057060832785620404 -0.04287115993282798 0 -0.0041804142518233611 -0.045122004050177848 0 -0.0034605670467818448 -0.040681441440815633 0 -0.0057060832785620404 -0.04287115993282798 0 -0.0041804142518233611 -0.045122004050177848 0 -0.002756108705982229 -0.047454277314535318 0 -0.0019376644740582115 -0.043231027752130363 0 0.00019874282595017695 -0.044673803985533396 0 -0.0034605670467818448 -0.040681441440815633 0 -0.001169810793217984 -0.039801229401306107 0 -0.0019376644740582115 -0.043231027752130363 0 -0.0034605670467818448 -0.040681441440815633 0 -0.0041804142518233611 -0.045122004050177848 0 -0.0019376644740582115 -0.043231027752130363 0 -0.002756108705982229 -0.047454277314535318 0 -0.0041804142518233611 -0.045122004050177848 0 -0.0019376644740582115 -0.043231027752130363 0 -0.001169810793217984 -0.039801229401306107 0 -0.0019376644740582115 -0.043231027752130363 0 0.00046188917509590191 -0.041031611415357626 0 -0.0019376644740582115 -0.043231027752130363 0 0.00019874282595017695 -0.044673803985533396 0 0.00046188917509590191 -0.041031611415357626 0 0.00019874282595017695 -0.044673803985533396 0 0.00046188917509590191 -0.041031611415357626 0 0.001993696958254223 -0.043744687355712623 0 0.00019874282595017695 -0.044673803985533396 0 0.001993696958254223 -0.043744687355712623 0 0.0017741374292184467 -0.047089809629850779 0 0.00046188917509590191 -0.041031611415357626 0 0.0022392559810136062 -0.040288972675009013 0 0.001993696958254223 -0.043744687355712623 0 0.0022392559810136062 -0.040288972675009013 0 0.001993696958254223 -0.043744687355712623 0 0.0039348148640013193 -0.043611274157558708 0 0.001993696958254223 -0.043744687355712623 0 0.0039348148640013193 -0.043611274157558708 0 0.0017741374292184467 -0.047089809629850779 0 0.0022392559810136062 -0.040288972675009013 0 0.0039348148640013193 -0.043611274157558708 0 0.0039054468474545513 -0.038829558158144699 0 0.0025510591513891621 -0.050802235147840269 0 0.0044155155357248873 -0.051028319501261792 0 0.0041367206138997453 -0.048032612411250654 0 0.0017741374292184467 -0.047089809629850779 0 0.0025510591513891621 -0.050802235147840269 0 0.0041367206138997453 -0.048032612411250654 0 0.0039348148640013193 -0.043611274157558708 0 0.0017741374292184467 -0.047089809629850779 0 0.0041367206138997453 -0.048032612411250654 0 0.0017741374292184467 -0.047089809629850779 0 0.00038887250297249223 -0.051140535604922488 0 0.0025510591513891621 -0.050802235147840269 0 -0.002756108705982229 -0.047454277314535318 0 0.00019874282595017695 -0.044673803985533396 0 -0.00079532580962480084 -0.048871507182146258 0 0.0017741374292184467 -0.047089809629850779 0 -0.00079532580962480084 -0.048871507182146258 0 0.00038887250297249223 -0.051140535604922488 0 0.00019874282595017695 -0.044673803985533396 0 0.0017741374292184467 -0.047089809629850779 0 -0.00079532580962480084 -0.048871507182146258 0 -0.00079532580962480084 -0.048871507182146258 0 -0.001513927211640381 -0.051960235217689638 0 0.00038887250297249223 -0.051140535604922488 0 -0.0031468050154743752 -0.054832835220883898 0 -0.001513927211640381 -0.051960235217689638 0 -0.0010279668894989191 -0.054531956913981189 0 -0.001513927211640381 -0.051960235217689638 0 -0.0010279668894989191 -0.054531956913981189 0 0.00038887250297249223 -0.051140535604922488 0 -0.0031468050154743752 -0.054832835220883898 0 -0.0010279668894989191 -0.054531956913981189 0 -0.0030344971656439028 -0.058190063458515164 0 -0.0010279668894989191 -0.054531956913981189 0 -0.00040342931450070165 -0.056663508076250375 0 0.0011301944540673603 -0.0539033712880626 0 -0.0010279668894989191 -0.054531956913981189 0 0.00038887250297249223 -0.051140535604922488 0 0.0011301944540673603 -0.0539033712880626 0 -0.0030344971656439028 -0.058190063458515164 0 -0.0013066632486706123 -0.062265482303836474 0 -0.0031118549235532259 -0.063014069665879385 0 -0.0010279668894989191 -0.054531956913981189 0 -0.0030344971656439028 -0.058190063458515164 0 -0.00040342931450070165 -0.056663508076250375 0 -0.036780640219068711 -0.059751773463290754 0 0.008034795431508061 -0.056668532179543485 0 -0.0030344971656439028 -0.058190063458515164 0 -0.0013639971217865295 -0.058969031120681706 0 -0.0013066632486706123 -0.062265482303836474 0 -0.0013066632486706123 -0.062265482303836474 0 0.00057406188084635425 -0.058509048468951122 0 0.00031267609355795599 -0.06340060540422586 0 0.008034795431508061 -0.056668532179543485 0 -0.0011416995794466937 -0.058123900509737245 0 -0.00040342931450070165 -0.056663508076250375 0 0.0021697868085696127 -0.056816571489351646 0 0.0011301944540673603 -0.0539033712880626 0 -0.0013639971217865295 -0.058969031120681706 0 -0.0013066632486706123 -0.062265482303836474 0 0.00057406188084635425 -0.058509048468951122 0 -0.0011416995794466937 -0.058123900509737245 0 0.0041106112880431736 -0.057467199147505525 0 0.0021697868085696127 -0.056816571489351646 0 0.0035422123516371702 -0.053993393862036755 0 0.004627609201098149 -0.056418036368403264 0 0.00057406188084635425 -0.058509048468951122 0 0.0018256000598408364 -0.06138111448673933 0 0.00031267609355795599 -0.06340060540422586 0 0.00038887250297249223 -0.051140535604922488 0 0.0011301944540673603 -0.0539033712880626 0 0.0025510591513891621 -0.050802235147840269 0 0.0021697868085696127 -0.056816571489351646 0 0.0011301944540673603 -0.0539033712880626 0 0.0035422123516371702 -0.053993393862036755 0 0.0011301944540673603 -0.0539033712880626 0 0.0035422123516371702 -0.053993393862036755 0 0.0025510591513891621 -0.050802235147840269 0 0.0035422123516371702 -0.053993393862036755 0 0.0025510591513891621 -0.050802235147840269 0 0.0044155155357248873 -0.051028319501261792 0 0.0035422123516371702 -0.053993393862036755 0 0.0044155155357248873 -0.051028319501261792 0 0.0058993065038202676 -0.053221399151557797 0 0.0035422123516371702 -0.053993393862036755 0 0.0058993065038202676 -0.053221399151557797 0 0.004627609201098149 -0.056418036368403264 0 0.0058993065038202676 -0.053221399151557797 0 0.004627609201098149 -0.056418036368403264 0 0.0070266335725015115 -0.056664967684409595 0 0.0044155155357248873 -0.051028319501261792 0 0.0058993065038202676 -0.053221399151557797 0 0.0060582904058240506 -0.049602751053869361 0 0.0018256000598408364 -0.06138111448673933 0 0.0030859733459850515 -0.061178947890813039 0 0.0023353776572456442 -0.06448862467223701 0 0.0018256000598408364 -0.06138111448673933 0 0.0025824535471484023 -0.058723559421845845 0 0.0030859733459850515 -0.061178947890813039 0 0.00057406188084635425 -0.058509048468951122 0 0.0018256000598408364 -0.06138111448673933 0 0.0025824535471484023 -0.058723559421845845 0 0.0041106112880431736 -0.057467199147505525 0 0.0054829763688313011 -0.057528455204606622 0 0.0025824535471484023 -0.058723559421845845 0 0.0030859733459850515 -0.061178947890813039 0 0.0046013433797065066 -0.058357444672606652 0 0.0030859733459850515 -0.061178947890813039 0 0.0046013433797065066 -0.058357444672606652 0 0.0041994701459818302 -0.062852229393159945 0 0.0046013433797065066 -0.058357444672606652 0 0.0056445153924122608 -0.06179605059058399 0 0.0041994701459818302 -0.062852229393159945 0 0.0046013433797065066 -0.058357444672606652 0 0.0066655117813158903 -0.058702366632704152 0 0.0056445153924122608 -0.06179605059058399 0 0.0070266335725015115 -0.056664967684409595 0 0.0093915937965970923 -0.056396843570928397 0 0.0082678571983301283 -0.054079234459673005 0 0.0054829763688313011 -0.057528455204606622 0 0.0079317748473718887 -0.057549539952343437 0 0.0066655117813158903 -0.058702366632704152 0 0.0056445153924122608 -0.06179605059058399 0 0.0070041836277808583 -0.062915142776062083 0 0.0058993065038202676 -0.053221399151557797 0 0.0077771590800499984 -0.050994156764415578 0 0.0082678571983301283 -0.054079234459673005 0 0.0058993065038202676 -0.053221399151557797 0 0.0077771590800499984 -0.050994156764415578 0 0.0060582904058240506 -0.049602751053869361 0 0.0058993065038202676 -0.053221399151557797 0 0.0070266335725015115 -0.056664967684409595 0 0.0082678571983301283 -0.054079234459673005 0 0.0077771590800499984 -0.050994156764415578 0 0.0082678571983301283 -0.054079234459673005 0 0.0094196327086907613 -0.050631045110959026 0 0.0082678571983301283 -0.054079234459673005 0 0.0094196327086907613 -0.050631045110959026 0 0.010522753355954647 -0.05378697869388091 0 0.0077771590800499984 -0.050994156764415578 0 0.0094196327086907613 -0.050631045110959026 0 0.0080623519521824654 -0.046795350625841017 0 0.0094196327086907613 -0.050631045110959026 0 0.0080623519521824654 -0.046795350625841017 0 0.010497499542278127 -0.047946196091335054 0 0.0077771590800499984 -0.050994156764415578 0 0.0080623519521824654 -0.046795350625841017 0 0.0060582904058240506 -0.049602751053869361 0 0.0080623519521824654 -0.046795350625841017 0 0.006313904445860369 -0.042899966824612799 0 0.0060915790230163525 -0.046253546035526415 0 0.0080623519521824654 -0.046795350625841017 0 0.0060582904058240506 -0.049602751053869361 0 0.0060915790230163525 -0.046253546035526415 0 0.0080623519521824654 -0.046795350625841017 0 0.0080404984690222014 -0.042011556970219105 0 0.010477371954748736 -0.04383285871936575 0 0.0080404984690222014 -0.042011556970219105 0 0.010477371954748736 -0.04383285871936575 0 0.009112142273728056 -0.039322880372483965 0 0.0080404984690222014 -0.042011556970219105 0 0.006313904445860369 -0.042899966824612799 0 0.0071746318740600508 -0.038666871183103073 0 0.0080623519521824654 -0.046795350625841017 0 0.0080404984690222014 -0.042011556970219105 0 0.006313904445860369 -0.042899966824612799 0 0.0039348148640013193 -0.043611274157558708 0 0.006313904445860369 -0.042899966824612799 0 0.0060915790230163525 -0.046253546035526415 0 0.006313904445860369 -0.042899966824612799 0 0.0054761719196758226 -0.040004912268449849 0 0.0071746318740600508 -0.038666871183103073 0 0.0039348148640013193 -0.043611274157558708 0 0.006313904445860369 -0.042899966824612799 0 0.0054761719196758226 -0.040004912268449849 0 0.0039348148640013193 -0.043611274157558708 0 0.0039054468474545513 -0.038829558158144699 0 0.0054761719196758226 -0.040004912268449849 0 0.0039348148640013193 -0.043611274157558708 0 0.0041367206138997453 -0.048032612411250654 0 0.0060915790230163525 -0.046253546035526415 0 0.0044155155357248873 -0.051028319501261792 0 0.0041367206138997453 -0.048032612411250654 0 0.0060582904058240506 -0.049602751053869361 0 0.0041367206138997453 -0.048032612411250654 0 0.0060582904058240506 -0.049602751053869361 0 0.0060915790230163525 -0.046253546035526415 0 -0.00083006681041934954 -0.083468901143703644 0 0.00035318724497308124 -0.079346145020973563 0 -0.0018067686250262504 -0.080462770967033526 0 -0.00083006681041934954 -0.083468901143703644 0 0.00035318724497308124 -0.079346145020973563 0 0.0014698973784810329 -0.083252105353475478 0 0.00035318724497308124 -0.079346145020973563 0 -0.0018067686250262504 -0.080462770967033526 0 -0.001390840649226544 -0.076940870372315395 0 -0.00083006681041934954 -0.083468901143703644 0 -0.0018067686250262504 -0.080462770967033526 0 -0.0031438114321412098 -0.083766752191698518 0 -0.0031438114321412098 -0.083766752191698518 0 -0.0054253298021780996 -0.08415945414304947 0 -0.0039850912887309667 -0.078905353645197365 0 -0.0018067686250262504 -0.080462770967033526 0 -0.0039850912887309667 -0.078905353645197365 0 -0.001390840649226544 -0.076940870372315395 0 -0.0018067686250262504 -0.080462770967033526 0 -0.0031438114321412098 -0.083766752191698518 0 -0.0039850912887309667 -0.078905353645197365 0 -0.0039850912887309667 -0.078905353645197365 0 -0.0024727179024611858 -0.07466757091017788 0 -0.001390840649226544 -0.076940870372315395 0 -0.0039850912887309667 -0.078905353645197365 0 -0.0043243553147837713 -0.073728491832201995 0 -0.0024727179024611858 -0.07466757091017788 0 -0.0024727179024611858 -0.07466757091017788 0 -0.00089686009083642429 -0.073827302590144334 0 -0.0017078107111910545 -0.070992682584422942 0 -0.0024727179024611858 -0.07466757091017788 0 -0.00089686009083642429 -0.073827302590144334 0 -0.001390840649226544 -0.076940870372315395 0 -0.00089686009083642429 -0.073827302590144334 0 -0.001390840649226544 -0.076940870372315395 0 0.00053816699198696747 -0.075211925802458224 0 0.00035318724497308124 -0.079346145020973563 0 -0.001390840649226544 -0.076940870372315395 0 0.00053816699198696747 -0.075211925802458224 0 -0.00089686009083642429 -0.073827302590144334 0 0.00053816699198696747 -0.075211925802458224 0 0.00054856723219597601 -0.071398880546158741 0 0.00054856723219597601 -0.071398880546158741 0 0.00036413207531754401 -0.06741583311845499 0 0.0022459233565691079 -0.06881654721691044 0 0.00054856723219597601 -0.071398880546158741 0 -0.0017078107111910545 -0.070992682584422942 0 0.00036413207531754401 -0.06741583311845499 0 -0.0017078107111910545 -0.070992682584422942 0 -0.0017952369661345302 -0.066226748662552459 0 0.00036413207531754401 -0.06741583311845499 0 -0.00089686009083642429 -0.073827302590144334 0 0.00054856723219597601 -0.071398880546158741 0 -0.0017078107111910545 -0.070992682584422942 0 -0.0043243553147837713 -0.073728491832201995 0 -0.0024727179024611858 -0.07466757091017788 0 -0.0017078107111910545 -0.070992682584422942 0 -0.0043243553147837713 -0.073728491832201995 0 -0.0017078107111910545 -0.070992682584422942 0 -0.0037442804068707858 -0.069207372543236764 0 -0.0017078107111910545 -0.070992682584422942 0 -0.0037442804068707858 -0.069207372543236764 0 -0.0017952369661345302 -0.066226748662552459 0 -0.0037442804068707858 -0.069207372543236764 0 -0.0017952369661345302 -0.066226748662552459 0 -0.0034542132879360763 -0.066047748132405965 0 -0.0017952369661345302 -0.066226748662552459 0 -0.0034542132879360763 -0.066047748132405965 0 -0.0031118549235532259 -0.063014069665879385 0 -0.0013066632486706123 -0.062265482303836474 0 -0.0017952369661345302 -0.066226748662552459 0 -0.0031118549235532259 -0.063014069665879385 0 -0.0013066632486706123 -0.062265482303836474 0 -0.0017952369661345302 -0.066226748662552459 0 0.00031267609355795599 -0.06340060540422586 0 -0.0017952369661345302 -0.066226748662552459 0 0.00036413207531754401 -0.06741583311845499 0 0.00031267609355795599 -0.06340060540422586 0 0.00036413207531754401 -0.06741583311845499 0 0.00031267609355795599 -0.06340060540422586 0 0.0023353776572456442 -0.06448862467223701 0 0.0018256000598408364 -0.06138111448673933 0 0.00031267609355795599 -0.06340060540422586 0 0.0023353776572456442 -0.06448862467223701 0 0.00036413207531754401 -0.06741583311845499 0 0.0023353776572456442 -0.06448862467223701 0 0.0022459233565691079 -0.06881654721691044 0 0.0023353776572456442 -0.06448862467223701 0 0.0036124362897746757 -0.06650862203681901 0 0.0022459233565691079 -0.06881654721691044 0 0.0023353776572456442 -0.06448862467223701 0 0.0036124362897746757 -0.06650862203681901 0 0.0041994701459818302 -0.062852229393159945 0 0.0030859733459850515 -0.061178947890813039 0 0.0023353776572456442 -0.06448862467223701 0 0.0041994701459818302 -0.062852229393159945 0 0.0056445153924122608 -0.06179605059058399 0 0.0041994701459818302 -0.062852229393159945 0 0.0055190974305893547 -0.066210376296025455 0 0.0056445153924122608 -0.06179605059058399 0 0.0055190974305893547 -0.066210376296025455 0 0.0070041836277808583 -0.062915142776062083 0 0.0036124362897746757 -0.06650862203681901 0 0.0041994701459818302 -0.062852229393159945 0 0.0055190974305893547 -0.066210376296025455 0 0.0036124362897746757 -0.06650862203681901 0 0.0055190974305893547 -0.066210376296025455 0 0.0037456895144781293 -0.070249383456896006 0 0.0055190974305893547 -0.066210376296025455 0 0.0055086251760814147 -0.070997146153075008 0 0.0037456895144781293 -0.070249383456896006 0 0.0055190974305893547 -0.066210376296025455 0 0.0055086251760814147 -0.070997146153075008 0 0.0072881252494278641 -0.070095089174032038 0 0.0055086251760814147 -0.070997146153075008 0 0.0037456895144781293 -0.070249383456896006 0 0.0052160806775760167 -0.074265770652871516 0 0.0037456895144781293 -0.070249383456896006 0 0.0026132949627656055 -0.073218794523941255 0 0.0052160806775760167 -0.074265770652871516 0 0.0037456895144781293 -0.070249383456896006 0 0.0022459233565691079 -0.06881654721691044 0 0.0026132949627656055 -0.073218794523941255 0 0.0036124362897746757 -0.06650862203681901 0 0.0037456895144781293 -0.070249383456896006 0 0.0022459233565691079 -0.06881654721691044 0 0.00054856723219597601 -0.071398880546158741 0 0.0022459233565691079 -0.06881654721691044 0 0.0026132949627656055 -0.073218794523941255 0 0.00053816699198696747 -0.075211925802458224 0 0.00054856723219597601 -0.071398880546158741 0 0.0026132949627656055 -0.073218794523941255 0 0.00053816699198696747 -0.075211925802458224 0 0.0020315419468599754 -0.076738527468718343 0 0.0026132949627656055 -0.073218794523941255 0 0.00035318724497308124 -0.079346145020973563 0 0.00053816699198696747 -0.075211925802458224 0 0.0020315419468599754 -0.076738527468718343 0 0.0020315419468599754 -0.076738527468718343 0 0.0035731430205865533 -0.07656384355220526 0 0.0029923163484470603 -0.079753730367860542 0 0.0020315419468599754 -0.076738527468718343 0 0.0026132949627656055 -0.073218794523941255 0 0.0035731430205865533 -0.07656384355220526 0 0.0026132949627656055 -0.073218794523941255 0 0.0052160806775760167 -0.074265770652871516 0 0.0035731430205865533 -0.07656384355220526 0 0.0055086251760814147 -0.070997146153075008 0 0.0052160806775760167 -0.074265770652871516 0 0.0071592421299380522 -0.073800571708457885 0 0.0052160806775760167 -0.074265770652871516 0 0.0050333817258502488 -0.078890532305536026 0 0.0065488023422399068 -0.076690958065164405 0 0.0052160806775760167 -0.074265770652871516 0 0.0035731430205865533 -0.07656384355220526 0 0.0050333817258502488 -0.078890532305536026 0 0.0035731430205865533 -0.07656384355220526 0 0.0050333817258502488 -0.078890532305536026 0 0.0029923163484470603 -0.079753730367860542 0 0.0050333817258502488 -0.078890532305536026 0 0.0037642413874544238 -0.0831046820965292 0 0.0060365304492500695 -0.083005946008982659 0 0.0050333817258502488 -0.078890532305536026 0 0.0060365304492500695 -0.083005946008982659 0 0.0070574095722678205 -0.079613639977224371 0 0.0050333817258502488 -0.078890532305536026 0 0.0037642413874544238 -0.0831046820965292 0 0.0029923163484470603 -0.079753730367860542 0 0.0037642413874544238 -0.0831046820965292 0 0.0029923163484470603 -0.079753730367860542 0 0.0014698973784810329 -0.083252105353475478 0 0.00035318724497308124 -0.079346145020973563 0 0.0020315419468599754 -0.076738527468718343 0 0.0029923163484470603 -0.079753730367860542 0 0.00035318724497308124 -0.079346145020973563 0 0.0029923163484470603 -0.079753730367860542 0 0.0014698973784810329 -0.083252105353475478 0 0.01052826034263182 -0.082894104477592448 0 0.010698483930007642 -0.077645589282539951 0 0.01276029695955035 -0.07910858667524423 0 0.01052826034263182 -0.082894104477592448 0 0.0090174821639216161 -0.079909524220856301 0 0.010698483930007642 -0.077645589282539951 0 0.0090174821639216161 -0.079909524220856301 0 0.0082909598788095517 -0.076919329152647695 0 0.010698483930007642 -0.077645589282539951 0 0.01052826034263182 -0.082894104477592448 0 0.0090174821639216161 -0.079909524220856301 0 0.0082938073750855393 -0.082939999653182911 0 0.0090174821639216161 -0.079909524220856301 0 0.0082938073750855393 -0.082939999653182911 0 0.0070574095722678205 -0.079613639977224371 0 0.0082938073750855393 -0.082939999653182911 0 0.0060365304492500695 -0.083005946008982659 0 0.0070574095722678205 -0.079613639977224371 0 0.0050333817258502488 -0.078890532305536026 0 0.0070574095722678205 -0.079613639977224371 0 0.0065488023422399068 -0.076690958065164405 0 0.0090174821639216161 -0.079909524220856301 0 0.0070574095722678205 -0.079613639977224371 0 0.0082909598788095517 -0.076919329152647695 0 0.0082909598788095517 -0.076919329152647695 0 0.0065488023422399068 -0.076690958065164405 0 0.0071592421299380522 -0.073800571708457885 0 0.0070574095722678205 -0.079613639977224371 0 0.0082909598788095517 -0.076919329152647695 0 0.0065488023422399068 -0.076690958065164405 0 0.0052160806775760167 -0.074265770652871516 0 0.0065488023422399068 -0.076690958065164405 0 0.0071592421299380522 -0.073800571708457885 0 0.0082909598788095517 -0.076919329152647695 0 0.0071592421299380522 -0.073800571708457885 0 0.0090345404392443256 -0.073764739784425118 0 0.0090345404392443256 -0.073764739784425118 0 0.010698483930007642 -0.077645589282539951 0 0.010994540565260587 -0.073510656048417208 0 0.0082909598788095517 -0.076919329152647695 0 0.0090345404392443256 -0.073764739784425118 0 0.010698483930007642 -0.077645589282539951 0 0.010698483930007642 -0.077645589282539951 0 0.010994540565260587 -0.073510656048417208 0 0.013075397662319311 -0.075067169656147986 0 0.010994540565260587 -0.073510656048417208 0 0.009805094375224848 -0.070634183675114218 0 0.012160997480787973 -0.070431950548446615 0 0.009805094375224848 -0.070634183675114218 0 0.010766303238389067 -0.067293169585046234 0 0.012160997480787973 -0.070431950548446615 0 0.009805094375224848 -0.070634183675114218 0 0.0087139510905107631 -0.067871233124252583 0 0.010766303238389067 -0.067293169585046234 0 0.0090345404392443256 -0.073764739784425118 0 0.010994540565260587 -0.073510656048417208 0 0.009805094375224848 -0.070634183675114218 0 0.0071592421299380522 -0.073800571708457885 0 0.0090345404392443256 -0.073764739784425118 0 0.0072881252494278641 -0.070095089174032038 0 0.0090345404392443256 -0.073764739784425118 0 0.009805094375224848 -0.070634183675114218 0 0.0072881252494278641 -0.070095089174032038 0 0.0055086251760814147 -0.070997146153075008 0 0.0071592421299380522 -0.073800571708457885 0 0.0072881252494278641 -0.070095089174032038 0 0.0072881252494278641 -0.070095089174032038 0 0.0087139510905107631 -0.067871233124252583 0 0.0074789878877768775 -0.066329394259394991 0 0.009805094375224848 -0.070634183675114218 0 0.0072881252494278641 -0.070095089174032038 0 0.0087139510905107631 -0.067871233124252583 0 0.0087139510905107631 -0.067871233124252583 0 0.0074789878877768775 -0.066329394259394991 0 0.0088492882232885615 -0.06456135261351266 0 0.0055190974305893547 -0.066210376296025455 0 0.0074789878877768775 -0.066329394259394991 0 0.0070041836277808583 -0.062915142776062083 0 0.0055190974305893547 -0.066210376296025455 0 0.0072881252494278641 -0.070095089174032038 0 0.0074789878877768775 -0.066329394259394991 0 0.0074789878877768775 -0.066329394259394991 0 0.0070041836277808583 -0.062915142776062083 0 0.0088492882232885615 -0.06456135261351266 0 0.0070041836277808583 -0.062915142776062083 0 0.0088492882232885615 -0.06456135261351266 0 0.0081571527260725068 -0.061175582631042863 0 0.0088492882232885615 -0.06456135261351266 0 0.010766303238389067 -0.067293169585046234 0 0.011162725678492757 -0.063485139668119098 0 0.0088492882232885615 -0.06456135261351266 0 0.011162725678492757 -0.063485139668119098 0 0.0096146033009941786 -0.061465745412707232 0 0.0087139510905107631 -0.067871233124252583 0 0.0088492882232885615 -0.06456135261351266 0 0.010766303238389067 -0.067293169585046234 0 0.010766303238389067 -0.067293169585046234 0 0.011162725678492757 -0.063485139668119098 0 0.013215471146064809 -0.066326491409985977 0 0.011162725678492757 -0.063485139668119098 0 0.013215471146064809 -0.066326491409985977 0 0.013124102683584224 -0.062289185761065693 0 0.013215471146064809 -0.066326491409985977 0 0.015040079873344712 -0.063234231886467054 0 0.015424922113591061 -0.067029169103488412 0 0.013215471146064809 -0.066326491409985977 0 0.015040079873344712 -0.063234231886467054 0 0.013124102683584224 -0.062289185761065693 0 0.015040079873344712 -0.063234231886467054 0 0.016349207916174731 -0.064702586249805044 0 0.015424922113591061 -0.067029169103488412 0 0.015040079873344712 -0.063234231886467054 0 0.016349207916174731 -0.064702586249805044 0 0.016258624652435195 -0.061439167206075736 0 0.016349207916174731 -0.064702586249805044 0 0.016258624652435195 -0.061439167206075736 0 0.017499205563737255 -0.062679906306753269 0 0.016349207916174731 -0.064702586249805044 0 0.017454917690327632 -0.066654942638100484 0 0.017499205563737255 -0.062679906306753269 0 0.016349207916174731 -0.064702586249805044 0 0.017454917690327632 -0.066654942638100484 0 0.015424922113591061 -0.067029169103488412 0 0.017380386835327787 -0.07063675871714703 0 0.014608665483562561 -0.070693797664594743 0 0.015275568918384762 -0.074367829601617974 0 0.015424922113591061 -0.067029169103488412 0 0.017380386835327787 -0.07063675871714703 0 0.014608665483562561 -0.070693797664594743 0 0.017454917690327632 -0.066654942638100484 0 0.015424922113591061 -0.067029169103488412 0 0.017380386835327787 -0.07063675871714703 0 0.014608665483562561 -0.070693797664594743 0 0.012160997480787973 -0.070431950548446615 0 0.013075397662319311 -0.075067169656147986 0 0.013215471146064809 -0.066326491409985977 0 0.015424922113591061 -0.067029169103488412 0 0.014608665483562561 -0.070693797664594743 0 0.013215471146064809 -0.066326491409985977 0 0.014608665483562561 -0.070693797664594743 0 0.012160997480787973 -0.070431950548446615 0 0.010766303238389067 -0.067293169585046234 0 0.013215471146064809 -0.066326491409985977 0 0.012160997480787973 -0.070431950548446615 0 0.010994540565260587 -0.073510656048417208 0 0.012160997480787973 -0.070431950548446615 0 0.013075397662319311 -0.075067169656147986 0 0.010698483930007642 -0.077645589282539951 0 0.013075397662319311 -0.075067169656147986 0 0.01276029695955035 -0.07910858667524423 0 0.013075397662319311 -0.075067169656147986 0 0.015275568918384762 -0.074367829601617974 0 0.014758862009662504 -0.078267727024267028 0 0.013075397662319311 -0.075067169656147986 0 0.014758862009662504 -0.078267727024267028 0 0.01276029695955035 -0.07910858667524423 0 0.014608665483562561 -0.070693797664594743 0 0.013075397662319311 -0.075067169656147986 0 0.015275568918384762 -0.074367829601617974 0 0.017380386835327787 -0.07063675871714703 0 0.015275568918384762 -0.074367829601617974 0 0.017290145252029581 -0.074649733384441391 0 0.017290145252029581 -0.074649733384441391 0 0.016123635914558444 -0.076699746101347194 0 0.01721079075648321 -0.078689315028155474 0 0.015275568918384762 -0.074367829601617974 0 0.017290145252029581 -0.074649733384441391 0 0.016123635914558444 -0.076699746101347194 0 0.015275568918384762 -0.074367829601617974 0 0.016123635914558444 -0.076699746101347194 0 0.014758862009662504 -0.078267727024267028 0 0.016123635914558444 -0.076699746101347194 0 0.014758862009662504 -0.078267727024267028 0 0.015943474481802826 -0.080074681224602443 0 0.016123635914558444 -0.076699746101347194 0 0.015943474481802826 -0.080074681224602443 0 0.01721079075648321 -0.078689315028155474 0 0.015943474481802826 -0.080074681224602443 0 0.01721079075648321 -0.078689315028155474 0 0.017140882717020803 -0.082744839994472991 0 0.015943474481802826 -0.080074681224602443 0 0.017140882717020803 -0.082744839994472991 0 0.014946953188301313 -0.082808937846041417 0 0.014758862009662504 -0.078267727024267028 0 0.015943474481802826 -0.080074681224602443 0 0.014946953188301313 -0.082808937846041417 0 0.014946953188301313 -0.082808937846041417 0 0.01276029695955035 -0.07910858667524423 0 0.012743381174083943 -0.082857549951521337 0 0.014758862009662504 -0.078267727024267028 0 0.014946953188301313 -0.082808937846041417 0 0.01276029695955035 -0.07910858667524423 0 0.01052826034263182 -0.082894104477592448 0 0.01276029695955035 -0.07910858667524423 0 0.012743381174083943 -0.082857549951521337 0 0.012478399389626573 -0.048048776633468314 0 0.014803623358383321 -0.046383767042140138 0 0.012993328626808458 -0.044532643082284447 0 0.012478399389626573 -0.048048776633468314 0 0.01490578455631505 -0.04973335366974304 0 0.013387406506454 -0.051194850269390017 0 0.012478399389626573 -0.048048776633468314 0 0.011640698803040188 -0.050795859937575051 0 0.013387406506454 -0.051194850269390017 0 0.012478399389626573 -0.048048776633468314 0 0.01490578455631505 -0.04973335366974304 0 0.014803623358383321 -0.046383767042140138 0 0.014803623358383321 -0.046383767042140138 0 0.014757691333368421 -0.042266496617533213 0 0.012993328626808458 -0.044532643082284447 0 0.014757691333368421 -0.042266496617533213 0 0.012361768383983469 -0.041318438715629374 0 0.012993328626808458 -0.044532643082284447 0 0.014757691333368421 -0.042266496617533213 0 0.012361768383983469 -0.041318438715629374 0 0.013767730207851233 -0.039431450238037249 0 0.012361768383983469 -0.041318438715629374 0 0.012993328626808458 -0.044532643082284447 0 0.010477371954748736 -0.04383285871936575 0 0.012361768383983469 -0.041318438715629374 0 0.010477371954748736 -0.04383285871936575 0 0.010792515846812078 -0.04009822162656048 0 0.010477371954748736 -0.04383285871936575 0 0.010792515846812078 -0.04009822162656048 0 0.009112142273728056 -0.039322880372483965 0 0.0080623519521824654 -0.046795350625841017 0 0.010477371954748736 -0.04383285871936575 0 0.010497499542278127 -0.047946196091335054 0 0.012478399389626573 -0.048048776633468314 0 0.010477371954748736 -0.04383285871936575 0 0.010497499542278127 -0.047946196091335054 0 0.012478399389626573 -0.048048776633468314 0 0.012993328626808458 -0.044532643082284447 0 0.010477371954748736 -0.04383285871936575 0 0.012478399389626573 -0.048048776633468314 0 0.010497499542278127 -0.047946196091335054 0 0.011640698803040188 -0.050795859937575051 0 0.0094196327086907613 -0.050631045110959026 0 0.010497499542278127 -0.047946196091335054 0 0.011640698803040188 -0.050795859937575051 0 0.0094196327086907613 -0.050631045110959026 0 0.010522753355954647 -0.05378697869388091 0 0.011640698803040188 -0.050795859937575051 0 0.0093915937965970923 -0.056396843570928397 0 0.0082678571983301283 -0.054079234459673005 0 0.010522753355954647 -0.05378697869388091 0 0.010522753355954647 -0.05378697869388091 0 0.011710582643389596 -0.05673583221013772 0 0.012850238981724379 -0.054066275272503489 0 0.010522753355954647 -0.05378697869388091 0 0.011640698803040188 -0.050795859937575051 0 0.012850238981724379 -0.054066275272503489 0 0.0066655117813158903 -0.058702366632704152 0 0.0070041836277808583 -0.062915142776062083 0 0.0081571527260725068 -0.061175582631042863 0 0.0066655117813158903 -0.058702366632704152 0 0.0087728945777988364 -0.058428309206144426 0 0.0081571527260725068 -0.061175582631042863 0 0.0093915937965970923 -0.056396843570928397 0 0.010522753355954647 -0.05378697869388091 0 0.011710582643389596 -0.05673583221013772 0 0.0079317748473718887 -0.057549539952343437 0 0.0099570112701805966 -0.057581353768580722 0 0.0088492882232885615 -0.06456135261351266 0 0.0081571527260725068 -0.061175582631042863 0 0.0096146033009941786 -0.061465745412707232 0 0.0087728945777988364 -0.058428309206144426 0 0.0081571527260725068 -0.061175582631042863 0 0.0096146033009941786 -0.061465745412707232 0 0.011162725678492757 -0.063485139668119098 0 0.0096146033009941786 -0.061465745412707232 0 0.010909131794419394 -0.058818782248930508 0 0.0099570112701805966 -0.057581353768580722 0 0.012609466037231711 -0.057676402295240591 0 0.011710582643389596 -0.05673583221013772 0 0.013988586474281502 -0.056513259180315321 0 0.012850238981724379 -0.054066275272503489 0 0.0087728945777988364 -0.058428309206144426 0 0.0096146033009941786 -0.061465745412707232 0 0.010909131794419394 -0.058818782248930508 0 0.012609466037231711 -0.057676402295240591 0 0.013163582518771772 -0.057726308304977235 0 0.011162725678492757 -0.063485139668119098 0 0.010909131794419394 -0.058818782248930508 0 0.013124102683584224 -0.062289185761065693 0 0.011640698803040188 -0.050795859937575051 0 0.013387406506454 -0.051194850269390017 0 0.012850238981724379 -0.054066275272503489 0 0.013988586474281502 -0.056513259180315321 0 0.012850238981724379 -0.054066275272503489 0 0.015148893584826075 -0.053289739643989233 0 0.01490578455631505 -0.04973335366974304 0 0.013387406506454 -0.051194850269390017 0 0.015148893584826075 -0.053289739643989233 0 0.013387406506454 -0.051194850269390017 0 0.012850238981724379 -0.054066275272503489 0 0.015148893584826075 -0.053289739643989233 0 0.015148893584826075 -0.053289739643989233 0 0.017159218712719533 -0.054238805949498127 0 0.016956327510936994 -0.051239968944700585 0 0.01490578455631505 -0.04973335366974304 0 0.015148893584826075 -0.053289739643989233 0 0.016956327510936994 -0.051239968944700585 0 0.013988586474281502 -0.056513259180315321 0 0.015148893584826075 -0.053289739643989233 0 0.016237397424348297 -0.056920095071161372 0 0.015148893584826075 -0.053289739643989233 0 0.017159218712719533 -0.054238805949498127 0 0.016237397424348297 -0.056920095071161372 0 0.017159218712719533 -0.054238805949498127 0 0.016956327510936994 -0.051239968944700585 0 0.018755157256869728 -0.053463472954561109 0 0.010909131794419394 -0.058818782248930508 0 0.013124102683584224 -0.062289185761065693 0 0.013114909158927445 -0.05861257207297519 0 0.013163582518771772 -0.057726308304977235 0 0.021601759734771311 -0.057901728580598805 0 0.017159218712719533 -0.054238805949498127 0 0.016237397424348297 -0.056920095071161372 0 0.018479434246232503 -0.056645518232092074 0 0.013124102683584224 -0.062289185761065693 0 0.013114909158927445 -0.05861257207297519 0 0.015367336333153585 -0.058951041305966928 0 0.015040079873344712 -0.063234231886467054 0 0.013124102683584224 -0.062289185761065693 0 0.015367336333153585 -0.058951041305966928 0 0.015040079873344712 -0.063234231886467054 0 0.015367336333153585 -0.058951041305966928 0 0.016258624652435195 -0.061439167206075736 0 0.021601759734771311 -0.057901728580598805 0 0.00055478498668521466 -0.057648552591694206 0 0.015367336333153585 -0.058951041305966928 0 0.01762663788479811 -0.058646136494297653 0 0.016258624652435195 -0.061439167206075736 0 0.01762663788479811 -0.058646136494297653 0 0.016258624652435195 -0.061439167206075736 0 0.017499205563737255 -0.062679906306753269 0 0.016956327510936994 -0.051239968944700585 0 0.018755157256869728 -0.053463472954561109 0 0.018731985340372789 -0.048950735186242468 0 0.017159218712719533 -0.054238805949498127 0 0.018479434246232503 -0.056645518232092074 0 0.018755157256869728 -0.053463472954561109 0 0.018479434246232503 -0.056645518232092074 0 0.020696125225051067 -0.056953659487076036 0 0.018755157256869728 -0.053463472954561109 0 0.020696125225051067 -0.056953659487076036 0 0.018755157256869728 -0.053463472954561109 0 0.020605716206546273 -0.052976388920543988 0 0.018755157256869728 -0.053463472954561109 0 0.020605716206546273 -0.052976388920543988 0 0.018731985340372789 -0.048950735186242468 0 0.018731985340372789 -0.048950735186242468 0 0.017761429457214598 -0.045671577969542049 0 0.020451396397340844 -0.045143580288528835 0 0.020605716206546273 -0.052976388920543988 0 0.020528443068234335 -0.049047701070563804 0 0.018731985340372789 -0.048950735186242468 0 0.020528443068234335 -0.049047701070563804 0 0.018731985340372789 -0.048950735186242468 0 0.020451396397340844 -0.045143580288528835 0 0.016956327510936994 -0.051239968944700585 0 0.018731985340372789 -0.048950735186242468 0 0.016654348439854368 -0.047803208856345474 0 0.018731985340372789 -0.048950735186242468 0 0.016654348439854368 -0.047803208856345474 0 0.017761429457214598 -0.045671577969542049 0 0.014803623358383321 -0.046383767042140138 0 0.016654348439854368 -0.047803208856345474 0 0.016508669999278709 -0.043736353420793739 0 0.01490578455631505 -0.04973335366974304 0 0.014803623358383321 -0.046383767042140138 0 0.016654348439854368 -0.047803208856345474 0 0.01490578455631505 -0.04973335366974304 0 0.016956327510936994 -0.051239968944700585 0 0.016654348439854368 -0.047803208856345474 0 0.014757691333368421 -0.042266496617533213 0 0.016508669999278709 -0.043736353420793739 0 0.01680712738833564 -0.04074102840562617 0 0.014803623358383321 -0.046383767042140138 0 0.014757691333368421 -0.042266496617533213 0 0.016508669999278709 -0.043736353420793739 0 0.016508669999278709 -0.043736353420793739 0 0.017761429457214598 -0.045671577969542049 0 0.018527916462845385 -0.042537435647474468 0 0.016654348439854368 -0.047803208856345474 0 0.016508669999278709 -0.043736353420793739 0 0.017761429457214598 -0.045671577969542049 0 0.016508669999278709 -0.043736353420793739 0 0.018527916462845385 -0.042537435647474468 0 0.01680712738833564 -0.04074102840562617 0 0.017761429457214598 -0.045671577969542049 0 0.018527916462845385 -0.042537435647474468 0 0.020451396397340844 -0.045143580288528835 0 0.018527916462845385 -0.042537435647474468 0 0.020451396397340844 -0.045143580288528835 0 0.020341817743191333 -0.041283268085685873 0 0.018527916462845385 -0.042537435647474468 0 0.020341817743191333 -0.041283268085685873 0 0.018704485184937364 -0.039746808374989964 0 0.020341817743191333 -0.041283268085685873 0 0.020187920219210776 -0.037489878100509785 0 0.018704485184937364 -0.039746808374989964 0 0.020187920219210776 -0.037489878100509785 0 0.017575043156695981 -0.036675016208092936 0 0.018704485184937364 -0.039746808374989964 0 0.017575043156695981 -0.036675016208092936 0 0.018704485184937364 -0.039746808374989964 0 0.01680712738833564 -0.04074102840562617 0 0.018527916462845385 -0.042537435647474468 0 0.018704485184937364 -0.039746808374989964 0 0.01680712738833564 -0.04074102840562617 0 0.019910171732588799 -0.033753449797771111 0 0.018232806293121136 -0.033428689926765676 0 0.019515017255039107 -0.030064711307630804 0 0.020187920219210776 -0.037489878100509785 0 0.019910171732588799 -0.033753449797771111 0 0.018232806293121136 -0.033428689926765676 0 0.020187920219210776 -0.037489878100509785 0 0.017575043156695981 -0.036675016208092936 0 0.018232806293121136 -0.033428689926765676 0 0.018232806293121136 -0.033428689926765676 0 0.016087848280665562 -0.034044113650317606 0 0.016313624497918896 -0.030659298135335359 0 0.017575043156695981 -0.036675016208092936 0 0.018232806293121136 -0.033428689926765676 0 0.016087848280665562 -0.034044113650317606 0 0.016087848280665562 -0.034044113650317606 0 0.015399428845684605 -0.037678552259554403 0 0.014342109202372888 -0.034483329206779982 0 0.016087848280665562 -0.034044113650317606 0 0.014342109202372888 -0.034483329206779982 0 0.014354603086664178 -0.031396132332180499 0 0.016087848280665562 -0.034044113650317606 0 0.014354603086664178 -0.031396132332180499 0 0.016313624497918896 -0.030659298135335359 0 0.017575043156695981 -0.036675016208092936 0 0.01680712738833564 -0.04074102840562617 0 0.015399428845684605 -0.037678552259554403 0 0.017575043156695981 -0.036675016208092936 0 0.016087848280665562 -0.034044113650317606 0 0.015399428845684605 -0.037678552259554403 0 0.014757691333368421 -0.042266496617533213 0 0.01680712738833564 -0.04074102840562617 0 0.015399428845684605 -0.037678552259554403 0 0.014757691333368421 -0.042266496617533213 0 0.015399428845684605 -0.037678552259554403 0 0.013767730207851233 -0.039431450238037249 0 0.012361768383983469 -0.041318438715629374 0 0.013767730207851233 -0.039431450238037249 0 0.012312564001410634 -0.038208976344495264 0 0.013767730207851233 -0.039431450238037249 0 0.012312564001410634 -0.038208976344495264 0 0.01379501440540425 -0.036787097884252072 0 0.012312564001410634 -0.038208976344495264 0 0.01379501440540425 -0.036787097884252072 0 0.012484103046290254 -0.035087391903790108 0 0.015399428845684605 -0.037678552259554403 0 0.013767730207851233 -0.039431450238037249 0 0.01379501440540425 -0.036787097884252072 0 0.01379501440540425 -0.036787097884252072 0 0.014342109202372888 -0.034483329206779982 0 0.012484103046290254 -0.035087391903790108 0 0.015399428845684605 -0.037678552259554403 0 0.01379501440540425 -0.036787097884252072 0 0.014342109202372888 -0.034483329206779982 0 0.014342109202372888 -0.034483329206779982 0 0.014354603086664178 -0.031396132332180499 0 0.012080085244768042 -0.031971816113306635 0 0.014354603086664178 -0.031396132332180499 0 0.012080085244768042 -0.031971816113306635 0 0.012866788503816113 -0.02954117716201465 0 0.014342109202372888 -0.034483329206779982 0 0.012080085244768042 -0.031971816113306635 0 0.012484103046290254 -0.035087391903790108 0 0.012484103046290254 -0.035087391903790108 0 0.010448257077959428 -0.03225900754728693 0 0.010816226487046969 -0.03654587747197998 0 0.012080085244768042 -0.031971816113306635 0 0.012484103046290254 -0.035087391903790108 0 0.010448257077959428 -0.03225900754728693 0 0.012080085244768042 -0.031971816113306635 0 0.010448257077959428 -0.03225900754728693 0 0.01053495021686901 -0.027745012871278025 0 0.010448257077959428 -0.03225900754728693 0 0.010816226487046969 -0.03654587747197998 0 0.0088996098015120609 -0.035773036830470707 0 0.010816226487046969 -0.03654587747197998 0 0.0088996098015120609 -0.035773036830470707 0 0.009112142273728056 -0.039322880372483965 0 0.010816226487046969 -0.03654587747197998 0 0.010792515846812078 -0.04009822162656048 0 0.009112142273728056 -0.039322880372483965 0 0.012312564001410634 -0.038208976344495264 0 0.010816226487046969 -0.03654587747197998 0 0.010792515846812078 -0.04009822162656048 0 0.012361768383983469 -0.041318438715629374 0 0.012312564001410634 -0.038208976344495264 0 0.010792515846812078 -0.04009822162656048 0 0.012312564001410634 -0.038208976344495264 0 0.012484103046290254 -0.035087391903790108 0 0.010816226487046969 -0.03654587747197998 0 0.0082208575200662538 -0.023042429366241086 0 0.0067263081612397415 -0.019315753331505876 0 0.0084170408823504538 -0.019996065756426481 0 0.0094665059562179018 -0.023360646811646783 0 0.0077074340715527672 -0.023068444964929283 0 0.0082208575200662538 -0.023042429366241086 0 0.0067263081612397415 -0.019315753331505876 0 0.0063796466877747366 -0.022385155341421381 0 0.010987135184235261 -0.023675478546761376 0 0.01053495021686901 -0.027745012871278025 0 0.0090584487418839087 -0.023750106370285434 0 0.01053495021686901 -0.027745012871278025 0 0.0085286977801355725 -0.026580809694352191 0 0.0090584487418839087 -0.023750106370285434 0 0.010448257077959428 -0.03225900754728693 0 0.01053495021686901 -0.027745012871278025 0 0.0092700864514305096 -0.029520114737280331 0 0.01053495021686901 -0.027745012871278025 0 0.0092700864514305096 -0.029520114737280331 0 0.0085286977801355725 -0.026580809694352191 0 0.012080085244768042 -0.031971816113306635 0 0.01053495021686901 -0.027745012871278025 0 0.012866788503816113 -0.02954117716201465 0 0.010987135184235261 -0.023675478546761376 0 0.01053495021686901 -0.027745012871278025 0 0.01223830362622858 -0.026526711939653582 0 0.01053495021686901 -0.027745012871278025 0 0.01223830362622858 -0.026526711939653582 0 0.012866788503816113 -0.02954117716201465 0 0.01223830362622858 -0.026526711939653582 0 0.012866788503816113 -0.02954117716201465 0 0.014252615063457418 -0.027848035812174848 0 0.014354603086664178 -0.031396132332180499 0 0.012866788503816113 -0.02954117716201465 0 0.014252615063457418 -0.027848035812174848 0 0.01223830362622858 -0.026526711939653582 0 0.014252615063457418 -0.027848035812174848 0 0.012894378970307539 -0.024491804705225079 0 0.014252615063457418 -0.027848035812174848 0 0.012894378970307539 -0.024491804705225079 0 0.01484796473393629 -0.024724768056306544 0 0.010263650352478455 -0.023126853648761391 0 0.0084170408823504538 -0.019996065756426481 0 0.0093191242550250547 -0.01805038855249478 0 0.010263650352478455 -0.023126853648761391 0 0.011528971485943026 -0.020267461170163339 0 0.0093191242550250547 -0.01805038855249478 0 0.011861493491730947 -0.023802462156175718 0 0.012315972684229929 -0.024430780975176689 0 0.010987135184235261 -0.023675478546761376 0 0.01223830362622858 -0.026526711939653582 0 0.012894378970307539 -0.024491804705225079 0 0.0082208575200662538 -0.023042429366241086 0 0.010263650352478455 -0.023126853648761391 0 0.0084170408823504538 -0.019996065756426481 0 0.0094665059562179018 -0.023360646811646783 0 0.011861493491730947 -0.023802462156175718 0 0.010263650352478455 -0.023126853648761391 0 0.011528971485943026 -0.020267461170163339 0 0.012349154862539439 -0.024091718848027213 0 0.012315972684229929 -0.024430780975176689 0 0.020252282221610844 -0.025176405170758257 0 0.01484796473393629 -0.024724768056306544 0 0.016103496084225604 -0.027646164315990273 0 0.016863276094638321 -0.025909211127505442 0 0.011528971485943026 -0.020267461170163339 0 0.012349154862539439 -0.024091718848027213 0 0.01454105909011421 -0.024544260043350481 0 0.011528971485943026 -0.020267461170163339 0 0.01454105909011421 -0.024544260043350481 0 0.013140135260358739 -0.020256593945677012 0 0.014354603086664178 -0.031396132332180499 0 0.014252615063457418 -0.027848035812174848 0 0.016313624497918896 -0.030659298135335359 0 0.014252615063457418 -0.027848035812174848 0 0.016103496084225604 -0.027646164315990273 0 0.016313624497918896 -0.030659298135335359 0 0.014252615063457418 -0.027848035812174848 0 0.01484796473393629 -0.024724768056306544 0 0.016103496084225604 -0.027646164315990273 0 0.016103496084225604 -0.027646164315990273 0 0.016313624497918896 -0.030659298135335359 0 0.017719083468027072 -0.029065054323682817 0 0.018232806293121136 -0.033428689926765676 0 0.016313624497918896 -0.030659298135335359 0 0.017719083468027072 -0.029065054323682817 0 0.016103496084225604 -0.027646164315990273 0 0.017719083468027072 -0.029065054323682817 0 0.016863276094638321 -0.025909211127505442 0 0.017719083468027072 -0.029065054323682817 0 0.016863276094638321 -0.025909211127505442 0 0.018903076171599531 -0.026379501925664531 0 0.017719083468027072 -0.029065054323682817 0 0.019515017255039107 -0.030064711307630804 0 0.018903076171599531 -0.026379501925664531 0 0.018232806293121136 -0.033428689926765676 0 0.017719083468027072 -0.029065054323682817 0 0.019515017255039107 -0.030064711307630804 0 0.01454105909011421 -0.024544260043350481 0 0.014732359749571867 -0.022585317859269989 0 0.013140135260358739 -0.020256593945677012 0 0.020252282221610844 -0.025176405170758257 0 0.00049703250058467832 -0.026135093833207834 0 0.01454105909011421 -0.024544260043350481 0 0.016614604327733411 -0.025746452690197624 0 0.014732359749571867 -0.022585317859269989 0 0.016614604327733411 -0.025746452690197624 0 0.014732359749571867 -0.022585317859269989 0 0.01551355557905389 -0.022049841039724384 0 0.014732359749571867 -0.022585317859269989 0 0.013882542481460255 -0.019562936409537709 0 0.01551355557905389 -0.022049841039724384 0 0.013882542481460255 -0.019562936409537709 0 0.01551355557905389 -0.022049841039724384 0 0.014196040368306052 -0.018485231689563199 0 0.013882542481460255 -0.019562936409537709 0 0.013140135260358739 -0.020256593945677012 0 0.01225555543876667 -0.016760346267313448 0 0.014732359749571867 -0.022585317859269989 0 0.013882542481460255 -0.019562936409537709 0 0.013140135260358739 -0.020256593945677012 0 0.013882542481460255 -0.019562936409537709 0 0.01225555543876667 -0.016760346267313448 0 0.014196040368306052 -0.018485231689563199 0 0.01225555543876667 -0.016760346267313448 0 0.012454865770943362 -0.014800081256229383 0 0.009851770906642009 -0.012549730117051449 0 0.012454865770943362 -0.014800081256229383 0 0.009851770906642009 -0.012549730117051449 0 0.0082410905753087689 -0.0092063191078208245 0 0.01225555543876667 -0.016760346267313448 0 0.014196040368306052 -0.018485231689563199 0 0.012454865770943362 -0.014800081256229383 0 0.01225555543876667 -0.016760346267313448 0 0.009851770906642009 -0.012549730117051449 0 0.010538359306145096 -0.016305474879869369 0 0.009851770906642009 -0.012549730117051449 0 0.0076698347590658088 -0.011157998897970771 0 0.010538359306145096 -0.016305474879869369 0 0.009851770906642009 -0.012549730117051449 0 0.0076698347590658088 -0.011157998897970771 0 0.0059279364670918652 -0.0072255119572028261 0 0.0076698347590658088 -0.011157998897970771 0 0.010538359306145096 -0.016305474879869369 0 0.008145943546945188 -0.013959922288290662 0 0.011528971485943026 -0.020267461170163339 0 0.010538359306145096 -0.016305474879869369 0 0.0093191242550250547 -0.01805038855249478 0 0.011528971485943026 -0.020267461170163339 0 0.013140135260358739 -0.020256593945677012 0 0.010538359306145096 -0.016305474879869369 0 0.013140135260358739 -0.020256593945677012 0 0.01225555543876667 -0.016760346267313448 0 0.010538359306145096 -0.016305474879869369 0 3.1223367816212241e-07 -3.3776412426165904e-06 0 0.0030939079309694052 -0.0030922603694194229 0 0.0044071055400299181 -0.0046017482048334446 0 3.1223367816212241e-07 -3.3776412426165904e-06 0 4.740765111507292e-06 -9.7269175370315939e-06 0 0.0030939079309694052 -0.0030922603694194229 0 4.740765111507292e-06 -9.7269175370315939e-06 0 0.0062085940574538589 -0.0066724789284471125 0 0.0030939079309694052 -0.0030922603694194229 0 0.0062085940574538589 -0.0066724789284471125 0 0.0030939079309694052 -0.0030922603694194229 0 0.0070714203881557273 -0.0074320335488483966 0 0.0030939079309694052 -0.0030922603694194229 0 0.0044071055400299181 -0.0046017482048334446 0 0.0070714203881557273 -0.0074320335488483966 0 0.0044071055400299181 -0.0046017482048334446 0 0.0070714203881557273 -0.0074320335488483966 0 0.0082410905753087689 -0.0092063191078208245 0 0.0070714203881557273 -0.0074320335488483966 0 0.0098974192703710027 -0.010924623186489986 0 0.0082410905753087689 -0.0092063191078208245 0 0.0062085940574538589 -0.0066724789284471125 0 0.0070714203881557273 -0.0074320335488483966 0 0.0098974192703710027 -0.010924623186489986 0 0.012454865770943362 -0.014800081256229383 0 0.0098974192703710027 -0.010924623186489986 0 0.0082410905753087689 -0.0092063191078208245 0 0.009851770906642009 -0.012549730117051449 0 0.0082410905753087689 -0.0092063191078208245 0 0.0059279364670918652 -0.0072255119572028261 0 0.0076698347590658088 -0.011157998897970771 0 0.0059279364670918652 -0.0072255119572028261 0 0.0050704690767036644 -0.0077289881567301696 0 0.0059279364670918652 -0.0072255119572028261 0 0.0027944174973002943 -0.0031914625945956713 0 0.0029984686717020011 -0.0041437279524510406 0 0.0044071055400299181 -0.0046017482048334446 0 0.0082410905753087689 -0.0092063191078208245 0 0.0059279364670918652 -0.0072255119572028261 0 0.0044071055400299181 -0.0046017482048334446 0 0.0059279364670918652 -0.0072255119572028261 0 0.0027944174973002943 -0.0031914625945956713 0 3.1223367816212241e-07 -3.3776412426165904e-06 0 0.0044071055400299181 -0.0046017482048334446 0 0.0027944174973002943 -0.0031914625945956713 0 0.0027944174973002943 -0.0031914625945956713 0 1.3172794671909704e-06 -4.6147747539927587e-06 0 5.6681884565430212e-07 -3.6167264873523878e-06 0 3.1223367816212241e-07 -3.3776412426165904e-06 0 0.0027944174973002943 -0.0031914625945956713 0 1.3172794671909704e-06 -4.6147747539927587e-06 0 5.6681884565430212e-07 -3.6167264873523878e-06 0 0.0015242880377088384 -0.0023384106109371437 0 6.8491014748814801e-07 -3.9406658011659017e-06 0 0.0027944174973002943 -0.0031914625945956713 0 5.6681884565430212e-07 -3.6167264873523878e-06 0 0.0029984686717020011 -0.0041437279524510406 0 0.0029984686717020011 -0.0041437279524510406 0 0.0015242880377088384 -0.0023384106109371437 0 0.0028492389736964074 -0.0050328968092003745 0 5.6681884565430212e-07 -3.6167264873523878e-06 0 0.0029984686717020011 -0.0041437279524510406 0 0.0015242880377088384 -0.0023384106109371437 0 0.0029984686717020011 -0.0041437279524510406 0 0.0050704690767036644 -0.0077289881567301696 0 0.0028492389736964074 -0.0050328968092003745 0 0.0059279364670918652 -0.0072255119572028261 0 0.0029984686717020011 -0.0041437279524510406 0 0.0050704690767036644 -0.0077289881567301696 0 0.0050704690767036644 -0.0077289881567301696 0 0.0043178837020726776 -0.0081007289721236747 0 0.0028492389736964074 -0.0050328968092003745 0 0.0050704690767036644 -0.0077289881567301696 0 0.0043178837020726776 -0.0081007289721236747 0 0.0061328416384938559 -0.010852625576023229 0 0.0043178837020726776 -0.0081007289721236747 0 0.0031145737613732798 -0.0066649421594758944 0 0.0028492389736964074 -0.0050328968092003745 0 0.0031145737613732798 -0.0066649421594758944 0 0.0044957642007449321 -0.010098806617036162 0 0.0025994451680725838 -0.0070221215349430335 0 0.0043178837020726776 -0.0081007289721236747 0 0.0031145737613732798 -0.0066649421594758944 0 0.0044957642007449321 -0.010098806617036162 0 0.0031145737613732798 -0.0066649421594758944 0 0.0028492389736964074 -0.0050328968092003745 0 0.0016037217849456051 -0.0034967298926396159 0 0.0015242880377088384 -0.0023384106109371437 0 0.0028492389736964074 -0.0050328968092003745 0 0.001135008960918639 -0.002077885265342444 0 0.0028492389736964074 -0.0050328968092003745 0 0.001135008960918639 -0.002077885265342444 0 0.0016037217849456051 -0.0034967298926396159 0 0.001135008960918639 -0.002077885265342444 0 0.0016037217849456051 -0.0034967298926396159 0 4.4492277211302552e-07 -3.8070334894909928e-06 0 0.001135008960918639 -0.002077885265342444 0 6.8491014748814801e-07 -3.9406658011659017e-06 0 4.4492277211302552e-07 -3.8070334894909928e-06 0 0.0015242880377088384 -0.0023384106109371437 0 0.001135008960918639 -0.002077885265342444 0 6.8491014748814801e-07 -3.9406658011659017e-06 0 0.0068137786955022941 -0.013836382961452572 0 0.0093191242550250547 -0.01805038855249478 0 0.0071507627187009882 -0.016828184297577559 0 0.0068137786955022941 -0.013836382961452572 0 0.0093191242550250547 -0.01805038855249478 0 0.008145943546945188 -0.013959922288290662 0 0.0084170408823504538 -0.019996065756426481 0 0.0093191242550250547 -0.01805038855249478 0 0.0071507627187009882 -0.016828184297577559 0 0.010538359306145096 -0.016305474879869369 0 0.0093191242550250547 -0.01805038855249478 0 0.008145943546945188 -0.013959922288290662 0 0.0076698347590658088 -0.011157998897970771 0 0.008145943546945188 -0.013959922288290662 0 0.0061328416384938559 -0.010852625576023229 0 0.0076698347590658088 -0.011157998897970771 0 0.0050704690767036644 -0.0077289881567301696 0 0.0061328416384938559 -0.010852625576023229 0 0.0068137786955022941 -0.013836382961452572 0 0.008145943546945188 -0.013959922288290662 0 0.0061328416384938559 -0.010852625576023229 0 0.0068137786955022941 -0.013836382961452572 0 0.0044957642007449321 -0.010098806617036162 0 0.0054677398646866071 -0.013661626913930889 0 0.0068137786955022941 -0.013836382961452572 0 0.0061328416384938559 -0.010852625576023229 0 0.0044957642007449321 -0.010098806617036162 0 0.0043178837020726776 -0.0081007289721236747 0 0.0061328416384938559 -0.010852625576023229 0 0.0044957642007449321 -0.010098806617036162 0 0.0044957642007449321 -0.010098806617036162 0 0.0054677398646866071 -0.013661626913930889 0 0.0038888214809140657 -0.011398196312761299 0 0.0054677398646866071 -0.013661626913930889 0 0.0071507627187009882 -0.016828184297577559 0 0.0058343290764747355 -0.016474715048243056 0 0.0068137786955022941 -0.013836382961452572 0 0.0054677398646866071 -0.013661626913930889 0 0.0071507627187009882 -0.016828184297577559 0 0.0067263081612397415 -0.019315753331505876 0 0.0084170408823504538 -0.019996065756426481 0 0.0071507627187009882 -0.016828184297577559 0 0.0067263081612397415 -0.019315753331505876 0 0.0071507627187009882 -0.016828184297577559 0 0.0058343290764747355 -0.016474715048243056 0 0.0067263081612397415 -0.019315753331505876 0 0.0058343290764747355 -0.016474715048243056 0 0.0052116864379419536 -0.018417167718122986 0 0.0058343290764747355 -0.016474715048243056 0 0.0052116864379419536 -0.018417167718122986 0 0.0045141010584716142 -0.014271045885486699 0 0.0052116864379419536 -0.018417167718122986 0 0.0040037808042374806 -0.01633706429347017 0 0.0045141010584716142 -0.014271045885486699 0 0.0052116864379419536 -0.018417167718122986 0 0.0040037808042374806 -0.01633706429347017 0 0.0038362049706563883 -0.019107776426298816 0 0.0040037808042374806 -0.01633706429347017 0 0.0045141010584716142 -0.014271045885486699 0 0.0034061718709566492 -0.013542492884650941 0 0.0054677398646866071 -0.013661626913930889 0 0.0058343290764747355 -0.016474715048243056 0 0.0045141010584716142 -0.014271045885486699 0 0.0054677398646866071 -0.013661626913930889 0 0.0045141010584716142 -0.014271045885486699 0 0.0038888214809140657 -0.011398196312761299 0 0.0044957642007449321 -0.010098806617036162 0 0.0038888214809140657 -0.011398196312761299 0 0.0025994451680725838 -0.0070221215349430335 0 0.0038888214809140657 -0.011398196312761299 0 0.0027005641071526495 -0.010087101435706998 0 0.0025994451680725838 -0.0070221215349430335 0 0.0045141010584716142 -0.014271045885486699 0 0.0038888214809140657 -0.011398196312761299 0 0.0034061718709566492 -0.013542492884650941 0 0.0038888214809140657 -0.011398196312761299 0 0.0027005641071526495 -0.010087101435706998 0 0.0034061718709566492 -0.013542492884650941 0 0.0027005641071526495 -0.010087101435706998 0 0.0023200208078528583 -0.01346250626985576 0 0.0034061718709566492 -0.013542492884650941 0 0.0027005641071526495 -0.010087101435706998 0 0.0017173980375664736 -0.0078748401784084522 0 0.0016122660571727496 -0.010480436422752063 0 0.0027005641071526495 -0.010087101435706998 0 0.0023200208078528583 -0.01346250626985576 0 0.0016122660571727496 -0.010480436422752063 0 0.0023200208078528583 -0.01346250626985576 0 0.0029548129466990449 -0.016507508668850972 0 0.0016117307643704279 -0.017138686082802078 0 0.0029548129466990449 -0.016507508668850972 0 0.0016117307643704279 -0.017138686082802078 0 0.0024599189323076605 -0.019572946822603469 0 0.0040037808042374806 -0.01633706429347017 0 0.0029548129466990449 -0.016507508668850972 0 0.0038362049706563883 -0.019107776426298816 0 0.0023200208078528583 -0.01346250626985576 0 0.0029548129466990449 -0.016507508668850972 0 0.0034061718709566492 -0.013542492884650941 0 0.0040037808042374806 -0.01633706429347017 0 0.0029548129466990449 -0.016507508668850972 0 0.0034061718709566492 -0.013542492884650941 0 3.8590387024983432e-07 -3.8191995488347216e-06 0 0.00072369143674827496 -0.0017793970881017261 0 0.0012238090393552083 -0.0037634103162402805 0 3.8590387024983432e-07 -3.8191995488347216e-06 0 0.0012238090393552083 -0.0037634103162402805 0 0.0005947252344707327 -0.0023812687158184841 0 0.0016037217849456051 -0.0034967298926396159 0 4.4492277211302552e-07 -3.8070334894909928e-06 0 0.00072369143674827496 -0.0017793970881017261 0 3.8590387024983432e-07 -3.8191995488347216e-06 0 4.4492277211302552e-07 -3.8070334894909928e-06 0 0.00072369143674827496 -0.0017793970881017261 0 0.0016037217849456051 -0.0034967298926396159 0 0.00072369143674827496 -0.0017793970881017261 0 0.0012238090393552083 -0.0037634103162402805 0 0.0012238090393552083 -0.0037634103162402805 0 0.0025994451680725838 -0.0070221215349430335 0 0.0019364559345577661 -0.0068516605301489003 0 0.0016037217849456051 -0.0034967298926396159 0 0.0012238090393552083 -0.0037634103162402805 0 0.0025994451680725838 -0.0070221215349430335 0 0.0031145737613732798 -0.0066649421594758944 0 0.0016037217849456051 -0.0034967298926396159 0 0.0025994451680725838 -0.0070221215349430335 0 0.0027005641071526495 -0.010087101435706998 0 0.0025994451680725838 -0.0070221215349430335 0 0.0019364559345577661 -0.0068516605301489003 0 0.0019364559345577661 -0.0068516605301489003 0 0.0017173980375664736 -0.0078748401784084522 0 0.0011313339359098 -0.0049602659545535267 0 0.0027005641071526495 -0.010087101435706998 0 0.0019364559345577661 -0.0068516605301489003 0 0.0017173980375664736 -0.0078748401784084522 0 0.0017173980375664736 -0.0078748401784084522 0 0.0011227282374099827 -0.0071865342523343926 0 0.0016122660571727496 -0.010480436422752063 0 0.0017173980375664736 -0.0078748401784084522 0 0.0011313339359098 -0.0049602659545535267 0 0.0011227282374099827 -0.0071865342523343926 0 0.0011313339359098 -0.0049602659545535267 0 0.00051365268185653214 -0.0031349207281481883 0 0.0011227282374099827 -0.0071865342523343926 0 0.0012238090393552083 -0.0037634103162402805 0 0.0019364559345577661 -0.0068516605301489003 0 0.0011313339359098 -0.0049602659545535267 0 0.0012238090393552083 -0.0037634103162402805 0 0.0011313339359098 -0.0049602659545535267 0 0.0005947252344707327 -0.0023812687158184841 0 0.0011313339359098 -0.0049602659545535267 0 0.0005947252344707327 -0.0023812687158184841 0 0.00051365268185653214 -0.0031349207281481883 0 0.0005947252344707327 -0.0023812687158184841 0 2.9659706462816454e-07 -3.8453591008615595e-06 0 0.00051365268185653214 -0.0031349207281481883 0 3.8590387024983432e-07 -3.8191995488347216e-06 0 0.0005947252344707327 -0.0023812687158184841 0 2.9659706462816454e-07 -3.8453591008615595e-06 0 4.6612313859452136e-08 -3.8482913591138198e-06 0 0.00018290924939418085 -0.0024791281438564503 0 1.692197637535813e-07 -3.867749088972169e-06 0 2.9659706462816454e-07 -3.8453591008615595e-06 0 4.6612313859452136e-08 -3.8482913591138198e-06 0 0.00051365268185653214 -0.0031349207281481883 0 4.6612313859452136e-08 -3.8482913591138198e-06 0 0.00051365268185653214 -0.0031349207281481883 0 0.00018290924939418085 -0.0024791281438564503 0 0.00051365268185653214 -0.0031349207281481883 0 0.00018290924939418085 -0.0024791281438564503 0 0.00043658138740392639 -0.0053639853939438081 0 0.00051365268185653214 -0.0031349207281481883 0 0.00043658138740392639 -0.0053639853939438081 0 0.0011227282374099827 -0.0071865342523343926 0 0.0011227282374099827 -0.0071865342523343926 0 0.00074878491094412867 -0.0081271731635773146 0 0.0016122660571727496 -0.010480436422752063 0 0.00043658138740392639 -0.0053639853939438081 0 0.0011227282374099827 -0.0071865342523343926 0 0.00074878491094412867 -0.0081271731635773146 0 0.00074878491094412867 -0.0081271731635773146 0 0.00022711892514603495 -0.0074096968260468216 0 0.0005421324605252004 -0.010726168427578068 0 0.00043658138740392639 -0.0053639853939438081 0 0.00074878491094412867 -0.0081271731635773146 0 0.00022711892514603495 -0.0074096968260468216 0 0.00022711892514603495 -0.0074096968260468216 0 -0.0002600499242706697 -0.0085406463651047891 0 -4.1815924555712045e-05 -0.0040522469725276363 0 -0.00055179966724790391 -0.006595077070907885 0 -0.0002600499242706697 -0.0085406463651047891 0 -4.1815924555712045e-05 -0.0040522469725276363 0 0.00043658138740392639 -0.0053639853939438081 0 0.00022711892514603495 -0.0074096968260468216 0 -4.1815924555712045e-05 -0.0040522469725276363 0 0.00018290924939418085 -0.0024791281438564503 0 -4.1815924555712045e-05 -0.0040522469725276363 0 1.692197637535813e-07 -3.867749088972169e-06 0 0.00018290924939418085 -0.0024791281438564503 0 0.00043658138740392639 -0.0053639853939438081 0 -4.1815924555712045e-05 -0.0040522469725276363 0 -1.685869545908005e-07 -3.8376381322243665e-06 0 -4.1815924555712045e-05 -0.0040522469725276363 0 1.692197637535813e-07 -3.867749088972169e-06 0 0.0016117307643704279 -0.017138686082802078 0 0.0013053406566572714 -0.013280702530241944 0 0.00049336151304584918 -0.014744383916065647 0 0.0016117307643704279 -0.017138686082802078 0 0.00049336151304584918 -0.014744383916065647 0 0.00031130478791393493 -0.018744657567153631 0 0.0023200208078528583 -0.01346250626985576 0 0.0016117307643704279 -0.017138686082802078 0 0.0013053406566572714 -0.013280702530241944 0 0.0023200208078528583 -0.01346250626985576 0 0.0013053406566572714 -0.013280702530241944 0 0.0016122660571727496 -0.010480436422752063 0 0.00074878491094412867 -0.0081271731635773146 0 0.0016122660571727496 -0.010480436422752063 0 0.0005421324605252004 -0.010726168427578068 0 0.0013053406566572714 -0.013280702530241944 0 0.0016122660571727496 -0.010480436422752063 0 0.0005421324605252004 -0.010726168427578068 0 0.0013053406566572714 -0.013280702530241944 0 0.0005421324605252004 -0.010726168427578068 0 0.00049336151304584918 -0.014744383916065647 0 0.0005421324605252004 -0.010726168427578068 0 -0.00025026996363713711 -0.012216336787647095 0 0.00049336151304584918 -0.014744383916065647 0 0.00022711892514603495 -0.0074096968260468216 0 -0.0002600499242706697 -0.0085406463651047891 0 0.0005421324605252004 -0.010726168427578068 0 -0.00073125507381930483 -0.010284165404219926 0 -0.0002600499242706697 -0.0085406463651047891 0 -0.00025026996363713711 -0.012216336787647095 0 -0.0002600499242706697 -0.0085406463651047891 0 0.0005421324605252004 -0.010726168427578068 0 -0.00025026996363713711 -0.012216336787647095 0 -0.00025026996363713711 -0.012216336787647095 0 -0.00049662303503520831 -0.015318068868666773 0 0.00049336151304584918 -0.014744383916065647 0 -0.00049662303503520831 -0.015318068868666773 0 0.00049336151304584918 -0.014744383916065647 0 0.00031130478791393493 -0.018744657567153631 0 -0.00083471106364226661 -0.018901269967018797 0 -0.00049662303503520831 -0.015318068868666773 0 0.00031130478791393493 -0.018744657567153631 0 -0.00083471106364226661 -0.018901269967018797 0 -0.00070311568852770786 -0.023090409096661588 0 0.00031130478791393493 -0.018744657567153631 0 -0.00070311568852770786 -0.023090409096661588 0 0.0013868930806972678 -0.023676315776159699 0 0.00063505965703127454 -0.026098704052091897 0 -0.00070311568852770786 -0.023090409096661588 0 0.00039032070016500702 -0.022311364812082766 0 0.00031130478791393493 -0.018744657567153631 0 -0.0078711609971564983 -0.02283049126362946 0 0.0027813773939455513 -0.023151067791294253 0 0.00039032070016500702 -0.022311364812082766 0 0.00031130478791393493 -0.018744657567153631 0 0.0011440349802996179 -0.020164977665085702 0 0.0016117307643704279 -0.017138686082802078 0 0.00031130478791393493 -0.018744657567153631 0 0.0011440349802996179 -0.020164977665085702 0 0.0027813773939455513 -0.023151067791294253 0 0.0019810139130505646 -0.022839155801330589 0 0.00039032070016500702 -0.022311364812082766 0 0.0011440349802996179 -0.020164977665085702 0 0.0017247109441492813 -0.02256881263797331 0 0.0019810139130505646 -0.022839155801330589 0 0.0043080446644402429 -0.022878700511451102 0 0.0011440349802996179 -0.020164977665085702 0 0.0017247109441492813 -0.02256881263797331 0 0.0024599189323076605 -0.019572946822603469 0 0.0016117307643704279 -0.017138686082802078 0 0.0011440349802996179 -0.020164977665085702 0 0.0024599189323076605 -0.019572946822603469 0 0.0041772607050808023 -0.026534298253154599 0 0.0021435895757041228 -0.027795976326842199 0 0.0037171609322357588 -0.030028099632202394 0 0.0033343251929975606 -0.02320186175984558 0 0.0041772607050808023 -0.026534298253154599 0 0.0052699619856707387 -0.023540321944849507 0 0.0033343251929975606 -0.02320186175984558 0 0.0041772607050808023 -0.026534298253154599 0 0.0021435895757041228 -0.027795976326842199 0 0.0013868930806972678 -0.023676315776159699 0 0.0033343251929975606 -0.02320186175984558 0 0.0021435895757041228 -0.027795976326842199 0 0.0021435895757041228 -0.027795976326842199 0 0.00063505965703127454 -0.026098704052091897 0 0.0004519694705379796 -0.031230325682562763 0 0.0013868930806972678 -0.023676315776159699 0 0.0021435895757041228 -0.027795976326842199 0 0.00063505965703127454 -0.026098704052091897 0 -0.00070249468641682422 -0.027701032650135397 0 -0.00070311568852770786 -0.023090409096661588 0 0.00063505965703127454 -0.026098704052091897 0 -0.00070249468641682422 -0.027701032650135397 0 0.00063505965703127454 -0.026098704052091897 0 0.0004519694705379796 -0.031230325682562763 0 0.0021435895757041228 -0.027795976326842199 0 0.0004519694705379796 -0.031230325682562763 0 0.002512639823086282 -0.033028323164877943 0 0.0004519694705379796 -0.031230325682562763 0 0.00086981547565305516 -0.036776878392542622 0 0.002512639823086282 -0.033028323164877943 0 -0.0010168654366961244 -0.035318701865547593 0 0.0004519694705379796 -0.031230325682562763 0 0.00086981547565305516 -0.036776878392542622 0 -0.001169810793217984 -0.039801229401306107 0 0.00046188917509590191 -0.041031611415357626 0 0.00086981547565305516 -0.036776878392542622 0 -0.001169810793217984 -0.039801229401306107 0 -0.0010168654366961244 -0.035318701865547593 0 0.00086981547565305516 -0.036776878392542622 0 0.00046188917509590191 -0.041031611415357626 0 0.0022392559810136062 -0.040288972675009013 0 0.00086981547565305516 -0.036776878392542622 0 0.0022392559810136062 -0.040288972675009013 0 0.0025114139897861399 -0.036921980895941044 0 0.0039054468474545513 -0.038829558158144699 0 0.0022392559810136062 -0.040288972675009013 0 0.00086981547565305516 -0.036776878392542622 0 0.0025114139897861399 -0.036921980895941044 0 0.0025114139897861399 -0.036921980895941044 0 0.0038403026627875179 -0.035601673577818779 0 0.002512639823086282 -0.033028323164877943 0 0.00086981547565305516 -0.036776878392542622 0 0.0025114139897861399 -0.036921980895941044 0 0.002512639823086282 -0.033028323164877943 0 0.0025114139897861399 -0.036921980895941044 0 0.0038403026627875179 -0.035601673577818779 0 0.0039054468474545513 -0.038829558158144699 0 0.0021435895757041228 -0.027795976326842199 0 0.002512639823086282 -0.033028323164877943 0 0.0037171609322357588 -0.030028099632202394 0 0.0038403026627875179 -0.035601673577818779 0 0.002512639823086282 -0.033028323164877943 0 0.0049472784279561786 -0.032572053090007262 0 0.002512639823086282 -0.033028323164877943 0 0.0037171609322357588 -0.030028099632202394 0 0.0049472784279561786 -0.032572053090007262 0 0.0037171609322357588 -0.030028099632202394 0 0.0049472784279561786 -0.032572053090007262 0 0.0055283112051388783 -0.028079319129403809 0 0.0049472784279561786 -0.032572053090007262 0 0.0054398564575108294 -0.036619416637087537 0 0.0069361751082295305 -0.034226790552739327 0 0.0049472784279561786 -0.032572053090007262 0 0.0066214682324879526 -0.030549192268791998 0 0.0069361751082295305 -0.034226790552739327 0 0.0049472784279561786 -0.032572053090007262 0 0.0066214682324879526 -0.030549192268791998 0 0.0055283112051388783 -0.028079319129403809 0 0.0039054468474545513 -0.038829558158144699 0 0.0054761719196758226 -0.040004912268449849 0 0.0054398564575108294 -0.036619416637087537 0 0.0038403026627875179 -0.035601673577818779 0 0.0039054468474545513 -0.038829558158144699 0 0.0054398564575108294 -0.036619416637087537 0 0.0038403026627875179 -0.035601673577818779 0 0.0049472784279561786 -0.032572053090007262 0 0.0054398564575108294 -0.036619416637087537 0 0.0054398564575108294 -0.036619416637087537 0 0.0071746318740600508 -0.038666871183103073 0 0.0069361751082295305 -0.034226790552739327 0 0.0054761719196758226 -0.040004912268449849 0 0.0054398564575108294 -0.036619416637087537 0 0.0071746318740600508 -0.038666871183103073 0 0.0080404984690222014 -0.042011556970219105 0 0.0071746318740600508 -0.038666871183103073 0 0.009112142273728056 -0.039322880372483965 0 0.0071746318740600508 -0.038666871183103073 0 0.0088996098015120609 -0.035773036830470707 0 0.0069361751082295305 -0.034226790552739327 0 0.0071746318740600508 -0.038666871183103073 0 0.0088996098015120609 -0.035773036830470707 0 0.009112142273728056 -0.039322880372483965 0 0.0066214682324879526 -0.030549192268791998 0 0.0084760890686844045 -0.031998738268055271 0 0.0079510310061964417 -0.028952191941051697 0 0.0088996098015120609 -0.035773036830470707 0 0.0069361751082295305 -0.034226790552739327 0 0.0084760890686844045 -0.031998738268055271 0 0.0066214682324879526 -0.030549192268791998 0 0.0069361751082295305 -0.034226790552739327 0 0.0084760890686844045 -0.031998738268055271 0 0.010448257077959428 -0.03225900754728693 0 0.0088996098015120609 -0.035773036830470707 0 0.0084760890686844045 -0.031998738268055271 0 0.0084760890686844045 -0.031998738268055271 0 0.0092700864514305096 -0.029520114737280331 0 0.0079510310061964417 -0.028952191941051697 0 0.010448257077959428 -0.03225900754728693 0 0.0084760890686844045 -0.031998738268055271 0 0.0092700864514305096 -0.029520114737280331 0 0.0092700864514305096 -0.029520114737280331 0 0.0079510310061964417 -0.028952191941051697 0 0.0085286977801355725 -0.026580809694352191 0 0.0079510310061964417 -0.028952191941051697 0 0.0068058657370393258 -0.026352533725149254 0 0.0085286977801355725 -0.026580809694352191 0 0.0066214682324879526 -0.030549192268791998 0 0.0079510310061964417 -0.028952191941051697 0 0.0068058657370393258 -0.026352533725149254 0 0.0068058657370393258 -0.026352533725149254 0 0.0085286977801355725 -0.026580809694352191 0 0.00719186564417767 -0.023218818665542488 0 0.0052116864379419536 -0.018417167718122986 0 0.0063796466877747366 -0.022385155341421381 0 0.00470880826597379 -0.022585769512622204 0 0.0077074340715527672 -0.023068444964929283 0 0.0058640695177034881 -0.02289464349773216 0 0.0085286977801355725 -0.026580809694352191 0 0.0090584487418839087 -0.023750106370285434 0 0.00719186564417767 -0.023218818665542488 0 0.0067263081612397415 -0.019315753331505876 0 0.0052116864379419536 -0.018417167718122986 0 0.0063796466877747366 -0.022385155341421381 0 0.0052116864379419536 -0.018417167718122986 0 0.00470880826597379 -0.022585769512622204 0 0.0038362049706563883 -0.019107776426298816 0 0.00470880826597379 -0.022585769512622204 0 0.0038362049706563883 -0.019107776426298816 0 0.0031482169831658978 -0.022175370944432921 0 0.0068058657370393258 -0.026352533725149254 0 0.00719186564417767 -0.023218818665542488 0 0.0052699619856707387 -0.023540321944849507 0 0.0058640695177034881 -0.02289464349773216 0 0.0043080446644402429 -0.022878700511451102 0 0.0038362049706563883 -0.019107776426298816 0 0.0024599189323076605 -0.019572946822603469 0 0.0031482169831658978 -0.022175370944432921 0 0.0029548129466990449 -0.016507508668850972 0 0.0038362049706563883 -0.019107776426298816 0 0.0024599189323076605 -0.019572946822603469 0 0.0017247109441492813 -0.02256881263797331 0 0.0024599189323076605 -0.019572946822603469 0 0.0031482169831658978 -0.022175370944432921 0 0.0041772607050808023 -0.026534298253154599 0 0.0052699619856707387 -0.023540321944849507 0 0.0055283112051388783 -0.028079319129403809 0 0.0041772607050808023 -0.026534298253154599 0 0.0037171609322357588 -0.030028099632202394 0 0.0055283112051388783 -0.028079319129403809 0 0.0066214682324879526 -0.030549192268791998 0 0.0068058657370393258 -0.026352533725149254 0 0.0055283112051388783 -0.028079319129403809 0 0.0068058657370393258 -0.026352533725149254 0 0.0052699619856707387 -0.023540321944849507 0 0.0055283112051388783 -0.028079319129403809 0 
</DataArray>
</PointData>
<CellData Scalars="region_id,cross_section_updated,displacement_divergence," Vectors="" Tensors="stress,">
<DataArray type="Float64" Name="region_id" format="ascii">
1 1 1 1 1 1 1 1 1 1 1 1 1 1 1 1 1 1 1 1 1 1 1 1 1 1 1 1 1 1 1 1 1 1 1 1 1 1 1 1 1 1 1 1 1 1 1 1 1 1 1 1 1 1 1 1 1 1 1 1 1 1 1 1 1 1 1 1 1 1 1 1 1 1 1 1 1 1 1 1 1 1 1 1 1 1 1 1 1 1 1 1 1 1 1 1 1 1 1 1 1 1 1 1 1 1 1 1 1 1 1 1 1 1 1 1 1 1 1 1 1 1 1 1 1 1 1 1 1 1 1 1 1 1 1 1 1 1 1 1 1 1 1 1 1 1 1 1 1 1 1 1 1 1 1 1 1 1 1 1 1 1 1 1 1 1 1 1 1 1 1 1 1 1 1 1 1 1 1 1 1 1 1 1 1 1 1 1 1 1 1 1 1 1 1 1 1 1 1 1 1 1 1 1 1 1 1 1 1 1 1 1 1 1 1 1 1 1 1 1 1 1 1 1 1 1 1 1 1 1 1 1 1 1 1 1 1 1 1 1 1 1 1 1 1 1 1 1 1 1 1 1 1 1 1 1 1 1 1 1 1 1 1 1 1 1 1 1 1 1 1 1 1 1 1 1 1 1 1 1 1 1 1 1 1 1 1 1 1 1 1 1 1 1 1 1 1 1 1 1 1 1 1 1 1 1 1 1 1 1 1 1 1 1 1 1 1 1 1 1 1 1 1 1 1 1 1 1 1 1 1 1 1 1 1 1 1 1 1 1 1 1 1 1 1 1 1 1 1 1 1 1 1 1 1 1 1 1 1 1 1 1 1 1 1 1 1 1 1 1 1 1 1 1 1 1 1 1 1 1 1 1 1 1 1 1 1 1 1 1 1 1 1 1 1 1 1 1 1 1 1 1 1 1 1 1 1 1 1 1 1 1 1 1 1 1 1 1 1 1 1 1 1 1 1 1 1 1 1 1 1 1 1 1 1 1 1 1 1 1 1 1 1 1 1 1 1 1 1 1 1 1 1 1 1 1 1 1 1 1 1 1 1 1 1 1 1 1 1 1 1 1 1 1 1 1 1 1 1 1 1 1 1 1 1 1 1 1 1 1 1 1 1 1 1 1 1 1 1 1 1 1 1 1 1 1 1 1 1 1 1 1 1 1 1 1 1 1 1 1 1 1 1 1 1 1 1 1 1 1 1 1 1 1 1 1 1 1 3 1 1 3 1 1 3 1 1 1 1 1 1 1 1 1 1 1 1 1 3 1 1 1 1 1 3 1 1 1 1 1 1 1 1 1 1 1 1 1 1 1 1 1 1 1 1 1 1 1 1 1 1 1 1 1 1 1 1 1 1 1 1 1 1 1 1 1 1 1 1 1 1 1 1 1 1 1 1 1 1 1 1 1 1 1 1 1 1 1 1 1 1 1 1 1 1 1 1 1 1 1 1 1 1 1 1 1 1 1 1 1 1 1 1 1 1 1 1 1 1 1 1 1 1 1 1 1 1 1 1 1 1 1 1 1 1 1 1 1 1 1 1 1 1 1 1 1 1 1 1 1 1 1 1 1 1 1 1 1 1 1 1 1 1 1 1 1 1 1 1 1 1 1 1 1 1 1 1 1 1 1 1 1 1 1 1 1 1 1 1 1 1 1 1 3 1 1 1 3 1 1 3 1 1 1 1 1 1 1 1 1 1 1 3 1 1 1 1 3 1 1 1 1 1 1 1 1 1 1 1 1 1 1 1 1 1 1 1 1 1 1 1 1 1 1 1 1 1 1 1 1 1 1 1 1 1 1 1 1 1 1 1 1 1 1 1 1 1 1 1 1 1 1 1 1 1 1 2 1 1 1 1 1 1 1 1 1 1 1 1 1 1 2 1 1 2 1 2 1 1 1 1 1 1 1 1 1 1 1 1 1 2 1 1 1 1 1 1 1 1 1 1 1 1 1 1 1 1 1 1 1 1 1 1 1 1 1 1 1 1 1 1 1 1 1 1 1 1 1 1 1 1 1 1 1 1 1 1 1 1 1 1 1 1 1 1 1 1 1 1 1 1 1 1 1 1 1 1 1 1 1 1 1 1 1 1 1 1 1 1 1 1 1 1 1 1 1 1 1 1 1 1 1 1 1 1 1 1 1 1 1 1 1 1 1 1 1 1 1 1 1 1 1 1 1 1 1 1 1 1 1 1 1 1 1 1 1 1 1 1 1 1 1 1 1 1 1 1 2 1 1 2 1 2 1 1 1 1 1 1 1 1 1 1 1 1 1 1 1 1 1 1 1 1 1 1 1 1 1 1 1 1 1 1 1 1 1 1 1 1 1 1 1 1 1 1 1 1 1 1 1 2 1 1 1 1 1 2 1 1 1 1 1 1 1 
</DataArray>
<DataArray type="Float64" Name="stress" NumberOfComponents="9" format="ascii">
-4284.0910821477364 -3058.9465966458447 0 -3058.9465966458447 -12872.278144793027 0 0 0 -4289.0923067351914 -2236.0737880999395 -3053.6333964001642 0 -3053.6333964001642 -15388.960664296124 0 0 0 -4406.2586130990157 -2947.2663832897742 -2208.9011142219151 0 -2208.9011142219151 -10826.567929802715 0 0 0 -3443.4585782731228 -1115.9222075396365 -2317.0676393737485 0 -2317.0676393737485 -13546.175059978552 0 0 0 -3665.5243168795473 -405.44869161066924 -886.13371085199287 0 -886.13371085199287 -11060.889024785887 0 0 0 -2866.5844290991413 12.92432663296313 -337.8813844408308 0 -337.8813844408308 -9662.1147921509146 0 0 0 -2412.2976163794883 -1153.519025270738 -1768.0847037743861 0 -1768.0847037743861 -11601.296205420591 0 0 0 -3188.7038076728313 -122.10192920945974 -978.37917186544803 0 -978.37917186544803 -10933.317507835602 0 0 0 -2763.854859261266 -81.683287075353292 -944.24272311578443 0 -944.24272311578443 -10034.458954360278 0 0 0 -2529.0355603589087 -689.0487728187918 -1278.0353556253012 0 -1278.0353556253012 -10478.75641500681 0 0 0 -2791.9512969563993 -1429.9432192876975 -1467.3227913961884 0 -1467.3227913961884 -10177.42894810763 0 0 0 -2901.8430418488297 -727.69419438642308 -1272.2610409149383 0 -1272.2610409149383 -9836.3193673351707 0 0 0 -2641.0033904303991 -2194.516214111783 -1875.6922167638818 0 -1875.6922167638818 -10008.453148147542 0 0 0 -3050.742340564831 -1241.733170622038 -1767.7814797975198 0 -1767.7814797975198 -9967.1961019636219 0 0 0 -2802.232318146413 -3370.1095214748789 -2301.4323313453342 0 -2301.4323313453342 -10112.419097069644 0 0 0 -3370.6321546361305 -3653.6504474262942 -2804.5232454978263 0 -2804.5232454978263 -10958.202296204676 0 0 0 -3652.9631859077422 -1931.2773416873858 -2058.7472933144372 0 -2058.7472933144372 -9676.2486527435321 0 0 0 -2901.8814986077296 -2223.7377018948682 -2107.8496667810505 0 -2107.8496667810505 -10537.168290621863 0 0 0 -3190.2264981291828 -3.6729070249239157 -78.10554215058437 0 -78.10554215058437 -8918.7842633748514 0 0 0 -2230.6142925999411 44.540893514480558 -89.138326978050827 0 -89.138326978050827 -9455.8872825556464 0 0 0 -2352.8365972602915 -15.60926695430453 -247.99145870997381 0 -247.99145870997381 -9419.4448859018848 0 0 0 -2358.7635382140447 144.98482769584371 -198.79691822360473 0 -198.79691822360473 -9538.6744590089766 0 0 0 -2348.4224078282859 -256.37164531978942 -637.18601429215596 0 -637.18601429215596 -10483.515426768003 0 0 0 -2684.9717680219483 40.058659891248681 -447.65079832664378 0 -447.65079832664378 -10055.832758328979 0 0 0 -2503.9435246094308 -44.619583688614512 -211.29898530427545 0 -211.29898530427545 -9175.5402987022244 0 0 0 -2305.0399705977106 -133.12706030632762 -870.24547463024737 0 -870.24547463024737 -9967.8010670521689 0 0 0 -2525.2320318396251 -932.78817513627098 -1152.4510051460056 0 -1152.4510051460056 -10200.089857201643 0 0 0 -2783.2195080844813 -353.48193422495933 -704.55239582027843 0 -704.55239582027843 -9921.6700178862302 0 0 0 -2568.7879880277978 -104.37041037918834 -431.17180752110289 0 -431.17180752110289 -9664.7027944434521 0 0 0 -2442.2683012056591 -166.58352495288091 -723.13401230073941 0 -723.13401230073941 -9985.9214420246935 0 0 0 -2538.1262417443922 52.665605767069792 -243.94621544996335 0 -243.94621544996335 -9760.195633174284 0 0 0 -2426.8825068517981 26.446275875026913 -126.32899612145775 0 -126.32899612145775 -9329.6670111713975 0 0 0 -2325.8051838240972 -2.1237440879558562 -421.15021818074507 0 -421.15021818074507 -9724.0834379223961 0 0 0 -2431.5517955025898 -226.13027464666811 -570.78221482296885 0 -570.78221482296885 -9731.1105384816474 0 0 0 -2489.3102032820789 -224.7199033524721 -585.91972256717054 0 -585.91972256717054 -9609.7999565393475 0 0 0 -2458.6299649729535 -839.40178667727014 -918.66523154441893 0 -918.66523154441893 -9618.8691536646511 0 0 0 -2614.5677350854785 -354.94147015044382 -791.85780611012342 0 -791.85780611012342 -9734.562926110586 0 0 0 -2522.3760990652581 -581.33741463423394 -903.09427322875808 0 -903.09427322875808 -9838.7525595247898 0 0 0 -2605.0224935397564 -923.61503008617547 -1225.7599711606931 0 -1225.7599711606931 -9634.5427315862398 0 0 0 -2639.5394404181043 -1077.7790679045447 -908.61239512873362 0 -908.61239512873362 -9464.1039225076347 0 0 0 -2635.4707476030453 -1015.5620563522521 -889.71041969484395 0 -889.71041969484395 -9434.7113899691631 0 0 0 -2612.5683615803541 -680.05010502006371 -696.80935227122791 0 -696.80935227122791 -9291.3522547964312 0 0 0 -2492.8505899541233 -737.66896854119045 -920.8610731306926 0 -920.8610731306926 -9586.8119595740445 0 0 0 -2581.1202320288057 -418.54506122455882 -662.48172556989266 0 -662.48172556989266 -9682.3906029186401 0 0 0 -2525.2339160358006 -550.54249839514887 -639.14229280990503 0 -639.14229280990503 -9485.9233842191607 0 0 0 -2509.1164706535783 -741.68206752466608 -694.38702416250635 0 -694.38702416250635 -9524.3304969433484 0 0 0 -2566.5031411170048 -195.03632111145816 -441.54208175582971 0 -441.54208175582971 -9554.0427185896879 0 0 0 -2437.2697599252879 -179.2954024724786 -409.28772057126935 0 -409.28772057126935 -9523.0330970538125 0 0 0 -2425.5821248815737 -2422.6369417419655 -1737.3012334686819 0 -1737.3012334686819 -9451.1483336210458 0 0 0 -2968.4463188407526 -1912.835991127421 -1457.935613569713 0 -1457.935613569713 -9261.2838612322739 0 0 0 -2793.5299630899244 -3075.1856686551414 -1682.2967357733896 0 -1682.2967357733896 -9225.3725232754805 0 0 0 -3075.1395479826551 -2165.4284087446449 -1801.0554089909826 0 -1801.0554089909826 -9376.7471969749295 0 0 0 -2885.5439014298936 -1208.8896657417345 -1557.0892629679938 0 -1557.0892629679938 -9471.8065600103309 0 0 0 -2670.1740564380152 -1444.7793530721492 -1357.5704230858155 0 -1357.5704230858155 -9877.9451150962905 0 0 0 -2830.6811170421106 -1421.0131867954551 -1257.6734378528963 0 -1257.6734378528963 -9501.7739675941411 0 0 0 -2730.6967885974009 -1840.7394076502601 -1552.1649613851578 0 -1552.1649613851578 -9609.9791221180567 0 0 0 -2862.6796324420789 -1265.5019625307377 -1180.4976278891752 0 -1180.4976278891752 -9409.4955922184581 0 0 0 -2668.7493886872981 -1841.3068388328611 -1163.4689639748631 0 -1163.4689639748631 -9342.0718095260545 0 0 0 -2795.8446620897303 -1451.1665288545755 -1089.8938297961549 0 -1089.8938297961549 -9183.5359650898827 0 0 0 -2658.675623486115 -1708.0094229052534 -1278.4955649365802 0 -1278.4955649365802 -9004.0989420544611 0 0 0 -2678.0270912399287 -2344.5494890887958 -1261.4431553375889 0 -1261.4431553375889 -9157.0182192956891 0 0 0 -2875.3919270961214 -2403.3498571760501 -1490.8622998594524 0 -1490.8622998594524 -9351.785648467232 0 0 0 -2938.7838764108201 -2250.7131736336673 -1498.6532572045865 0 -1498.6532572045865 -8867.6402145691409 0 0 0 -2779.5883470507019 -2998.9327961180402 -1422.1596261262678 0 -1422.1596261262678 -8997.2087704140813 0 0 0 -2999.0353916330305 -2947.3535067846669 -1196.5745825290592 0 -1196.5745825290592 -8843.7102889876605 0 0 0 -2947.7659489430825 -2237.1556110814417 -1242.476630768318 0 -1242.476630768318 -8668.2174720573275 0 0 0 -2726.3432707846919 -2247.281902497245 -1017.6362359349157 0 -1017.6362359349157 -8513.9615414287 0 0 0 -2690.3108609814863 -2863.8231762108717 -983.0774305320424 0 -983.0774305320424 -8591.5264871980744 0 0 0 -2863.8374158522365 -2278.3471976293713 -771.97736369023823 0 -771.97736369023823 -8650.8957935143171 0 0 0 -2732.3107477859212 -2141.8619095148192 -713.9008464901176 0 -713.9008464901176 -8582.1017350743896 0 0 0 -2680.9909111473016 -2243.6667789549651 -834.75962106933241 0 -834.75962106933241 -8324.7405666769337 0 0 0 -2642.101836407975 -2827.4328392069156 -812.63491049315473 0 -812.63491049315473 -8482.8679953679184 0 0 0 -2827.5752086437083 -1651.2229133348521 -614.98935648275256 0 -614.98935648275256 -8848.7365190640267 0 0 0 -2624.9898580997196 -1409.9280178325635 -644.28080226778093 0 -644.28080226778093 -8761.1571587038634 0 0 0 -2542.7712941341065 -1846.5772987971704 -814.0510525269583 0 -814.0510525269583 -8647.1154264788838 0 0 0 -2623.4231813190136 -1955.5029609242365 -807.72595415315573 0 -807.72595415315573 -8974.630892157169 0 0 0 -2732.5334632703516 -1385.4612000050874 -811.95254700762234 0 -811.95254700762234 -8842.7093935435878 0 0 0 -2557.0426483871688 -2223.3737924683674 -888.52854391821961 0 -888.52854391821961 -8799.9563595767177 0 0 0 -2755.832538011271 -1912.3136752774108 -999.24128211662628 0 -999.24128211662628 -9018.3084487605447 0 0 0 -2732.6555310094882 -1757.2300730066117 -1038.7959421546802 0 -1038.7959421546802 -8967.0803025707628 0 0 0 -2681.077593894343 -1326.5774393456795 -884.35522566714872 0 -884.35522566714872 -9258.6378854771065 0 0 0 -2646.303831205696 -1019.4756632889903 -795.31156386167822 0 -795.31156386167822 -9100.9013236270548 0 0 0 -2530.0942467290106 -1113.8492544718647 -739.26094321993116 0 -739.26094321993116 -9382.0022909670952 0 0 0 -2623.9628863597427 -1126.7346557607461 -620.13274847165849 0 -620.13274847165849 -9205.2923757130666 0 0 0 -2583.006757868453 -712.06216165567639 -604.44579910174434 0 -604.44579910174434 -9183.0500187233665 0 0 0 -2473.7780450947594 -1484.5043555172088 -810.17941584536788 0 -810.17941584536788 -9143.4589011726566 0 0 0 -2656.9908141724663 -461.58682262295406 -450.28140752225409 0 -450.28140752225409 -9462.3546579487593 0 0 0 -2480.9853701429311 -394.1691867795962 -528.14328023251937 0 -528.14328023251937 -9348.5904999014456 0 0 0 -2435.6899216702623 -792.55147900014435 -549.21468254510728 0 -549.21468254510728 -9384.0580464057275 0 0 0 -2544.1523813514696 -442.63334426020083 -377.45622642738363 0 -377.45622642738363 -9356.7512404279696 0 0 0 -2449.8461461720435 -386.6369240779386 -403.98353296306914 0 -403.98353296306914 -9210.6406212482616 0 0 0 -2399.31938633155 -750.77411740539446 -414.57772139214467 0 -414.57772139214467 -9164.6045985123965 0 0 0 -2478.8446789794507 -572.71757254728163 -367.07549564737565 0 -367.07549564737565 -9078.6208217733292 0 0 0 -2412.8345985801525 -399.44145331998516 -204.58577062405493 0 -204.58577062405493 -9082.6836206556109 0 0 0 -2370.5312684938981 -1027.2941767581506 -673.29711030640647 0 -673.29711030640647 -8943.08163748273 0 0 0 -2492.5939535602211 -1409.3713902570098 -676.82923766800741 0 -676.82923766800741 -9052.8391776594981 0 0 0 -2615.5526419791267 -814.42474754084469 -547.41338127860035 0 -547.41338127860035 -9072.0647269326728 0 0 0 -2471.6223686183785 -1083.7512205695919 -486.20370183761406 0 -486.20370183761406 -8961.8482671883412 0 0 0 -2511.3998719394831 -1041.3691964717118 -508.9403036729409 0 -508.9403036729409 -8954.912681772068 0 0 0 -2499.0704695609447 -1233.5124919359532 -446.99398719266901 0 -446.99398719266901 -8767.8593141545971 0 0 0 -2500.342951522638 -1037.2825818221318 -250.4440238856705 0 -250.4440238856705 -8866.5609675920969 0 0 0 -2475.9608873535562 -1290.9729478774934 -401.66853457046454 0 -401.66853457046454 -8786.5244357591873 0 0 0 -2519.3743459091684 -348.38399486136586 -201.3884270370072 0 -201.3884270370072 -9065.6564439045687 0 0 0 -2353.5101096914859 -846.8573542824779 -328.01860526706059 0 -328.01860526706059 -8970.7222989228394 0 0 0 -2454.3949133013302 -735.79930144050422 -299.27918379486437 0 -299.27918379486437 -8922.7874643640334 0 0 0 -2414.6466914511352 -553.31240298465127 -161.72371524780647 0 -161.72371524780647 -8953.9269510984886 0 0 0 -2376.8098385207868 -529.23660092110367 -150.11362629431278 0 -150.11362629431278 -8942.9270733122139 0 0 0 -2368.0409185583303 -743.60968479536314 -80.792104271960852 0 -80.792104271960852 -8898.9363574806412 0 0 0 -2410.636510569002 -753.53819332750572 61.323828994049109 0 61.323828994049109 -8728.7478349463127 0 0 0 -2370.5715070684528 -568.15812670694231 -45.73699521017079 0 -45.73699521017079 -8827.1079713678246 0 0 0 -2348.816524518691 -449.08311536366818 42.133775563456766 0 42.133775563456766 -8928.4388928875633 0 0 0 -2344.380502062806 -1252.4683882088584 -151.83639172557014 0 -151.83639172557014 -8790.1930710241686 0 0 0 -2510.6653648082574 -794.11671978600998 -193.64144531455895 0 -193.64144531455895 -8761.3584761930288 0 0 0 -2388.8687989947589 -884.89725299560314 -57.561745026305289 0 -57.561745026305289 -8624.7928808035085 0 0 0 -2377.4225334497773 -1160.4308082926109 -153.74006742406462 0 -153.74006742406462 -8514.0313841804273 0 0 0 -2418.6155481182604 -1422.8955305379295 -98.484880410402184 0 -98.484880410402184 -8615.9648364260247 0 0 0 -2509.715091740989 -1752.9241449522042 -279.9387516200959 0 -279.9387516200959 -8654.4325485112495 0 0 0 -2601.8391733658627 -1718.472235381681 -213.29787198228405 0 -213.29787198228405 -8273.315999025006 0 0 0 -2497.9470586016719 -2091.7925309043999 -186.54819515745612 0 -186.54819515745612 -8400.314037092603 0 0 0 -2623.0266419992518 -2048.1769992316631 -102.90117283131667 0 -102.90117283131667 -7980.836314129223 0 0 0 -2507.2533283402217 -2748.259119013605 -273.89414610602944 0 -273.89414610602944 -8244.7322786818604 0 0 0 -2748.2478494238658 -2141.0634153650512 -341.02120146769448 0 -341.02120146769448 -8077.3913498471993 0 0 0 -2554.6136913030623 -2240.2123048564636 -375.95960364962446 0 -375.95960364962446 -8455.7512179351506 0 0 0 -2673.9908806979033 -2293.3062448778792 -555.32221785222873 0 -555.32221785222873 -8318.6299844472142 0 0 0 -2652.9840573312736 -2043.7002044157416 -397.85769662264556 0 -397.85769662264556 -8385.8096345662343 0 0 0 -2607.377459745494 -2774.8451927846204 -468.95070861046742 0 -468.95070861046742 -8325.2365567682882 0 0 0 -2775.0204373882266 -2307.2566665065306 -632.88423762671619 0 -632.88423762671619 -8338.0571548142161 0 0 0 -2661.3284553301864 -1791.0058789780828 -540.04069577170731 0 -540.04069577170731 -8559.8779781031735 0 0 0 -2587.7209642703137 -1484.5583008829835 -321.23578329755674 0 -321.23578329755674 -8556.5056021398359 0 0 0 -2510.2659757557049 -1903.6544800468616 -480.95558272772269 0 -480.95558272772269 -8603.9208802323101 0 0 0 -2626.8938400697921 943.51566895674114 85.494787454550533 0 85.494787454550533 -9191.5996872132964 0 0 0 -2062.021004564147 773.49590241073747 17.330315947245253 0 17.330315947245253 -9237.7059716313233 0 0 0 -2116.0525173051428 744.11977513048987 69.08616901878122 0 69.08616901878122 -9224.28747973594 0 0 0 -2120.0419261513634 1017.436078313799 6.5436614944774192 0 6.5436614944774192 -9217.2564428024416 0 0 0 -2049.9550911221604 1179.5969830890463 21.405795851351286 0 21.405795851351286 -9202.499727575967 0 0 0 -2005.7256861217247 1113.1385276199762 55.672771664107131 0 55.672771664107131 -9130.3441595337208 0 0 0 -2004.3014079784334 1215.6025157581016 -12.417735541668662 0 -12.417735541668662 -9088.2557386744593 0 0 0 -1968.1633057290901 1158.6646525884426 -21.786549499793182 0 -21.786549499793182 -8981.1308303508849 0 0 0 -1955.6165444406033 1302.1480846731283 31.021176246573305 0 31.021176246573305 -9002.5913720617827 0 0 0 -1925.1108218471672 1255.6878895750269 28.599827089205064 0 28.599827089205064 -8876.4984825069114 0 0 0 -1905.2026482329675 1104.3697720471446 -66.101034631847142 0 -66.101034631847142 -8884.0530204686074 0 0 0 -1944.9208121053653 1138.5636662776997 39.642376733896583 0 39.642376733896583 -9039.0919230732106 0 0 0 -1975.1320641988787 964.73881052619436 -14.557061264575168 0 -14.557061264575168 -9118.9606203495423 0 0 0 -2038.5554524558338 941.54538102985316 55.112643202388654 0 55.112643202388654 -9169.2777252804372 0 0 0 -2056.9330860626469 1081.009695081857 -0.42039542598286062 0 -0.42039542598286062 -8985.6423274840854 0 0 0 -1976.1581581005594 360.77831509046155 298.76773912427961 0 298.76773912427961 -9250.0340780810438 0 0 0 -2222.313940747641 916.35996013033218 152.44540982796389 0 152.44540982796389 -9102.0914693996456 0 0 0 -2046.4328773173311 227.32036034341763 114.45177916891407 0 114.45177916891407 -9184.0717605847167 0 0 0 -2239.187850060327 896.95018084408912 -16.41150180299519 0 -16.41150180299519 -9018.3626990053381 0 0 0 -2030.3531295403136 1.4073307585022121 137.02462444070807 0 137.02462444070807 -8979.3360924694789 0 0 0 -2244.4821904277469 -358.24470265858326 -0.17127378472287091 0 -0.17127378472287091 -8966.6629625897112 0 0 0 -2331.2269163120727 71.659503714119637 91.190257621263299 0 91.190257621263299 -9068.8066923584447 0 0 0 -2249.2867971610831 256.22510789480873 134.99151494047328 0 134.99151494047328 -9012.7779252382352 0 0 0 -2189.1382043358585 -270.30556969992222 8.4965742907734239 0 8.4965742907734239 -8936.0328308329226 0 0 0 -2301.584600133207 -118.53654017355075 -40.128255281995735 0 -40.128255281995735 -9051.8782089686429 0 0 0 -2292.6036872855475 -133.1934781901648 -30.778106408070016 0 -30.778106408070016 -9054.6040342068572 0 0 0 -2296.9493780992552 102.43896834290354 -81.395060094235305 0 -81.395060094235305 -9170.7006622788322 0 0 0 -2267.0654234839822 598.81040127316555 41.729515653485578 0 41.729515653485578 -9214.9066493590872 0 0 0 -2154.0240620214809 582.66634899238306 97.44991815380854 0 97.44991815380854 -9107.4038541562186 0 0 0 -2131.1843762909593 171.10308252269533 70.100890663419705 0 70.100890663419705 -9193.9616200217897 0 0 0 -2255.7146343747736 449.60250198991525 -12.473153291117342 0 -12.473153291117342 -9281.0394359849088 0 0 0 -2207.8592334987479 509.98436781496275 60.381390072259819 0 60.381390072259819 -9257.0101528461782 0 0 0 -2186.7564462578048 223.25601385686605 -53.823170041699086 0 -53.823170041699086 -9332.276558117781 0 0 0 -2277.2551360652324 398.81200444414571 -5.8025046520269825 0 -5.8025046520269825 -9294.4173244471149 0 0 0 -2223.9013300007427 -217.52548033736093 -248.78802573724715 0 -248.78802573724715 -9256.6179013794026 0 0 0 -2368.5358454291909 -11.34556324967798 -79.492557177611161 0 -79.492557177611161 -9199.0258928382173 0 0 0 -2302.5928640219727 184.72268741962034 -122.63648367718997 0 -122.63648367718997 -9306.837349444133 0 0 0 -2280.5286655061318 157.07598968889579 -107.67382139963956 0 -107.67382139963956 -9308.2036764574204 0 0 0 -2287.7819216921307 -101.00474890612031 -217.91428259159147 0 -217.91428259159147 -9212.5003665427794 0 0 0 -2328.376278862223 -103.21054737575832 -252.65789013153699 0 -252.65789013153699 -9438.1646582901594 0 0 0 -2385.3438014164822 103.49474895140656 -182.19831486228577 0 -182.19831486228577 -9379.5319812520174 0 0 0 -2319.0093080751526 -159.56410795767442 -327.28158852310116 0 -327.28158852310116 -9507.2262818270028 0 0 0 -2416.6975974461711 -116.16182746931281 -324.44902541573902 0 -324.44902541573902 -9306.626581281751 0 0 0 -2355.6971021877644 434.07509410407147 -54.115787815497242 0 -54.115787815497242 -9424.3973576501594 0 0 0 -2247.5805658865247 148.00990869504676 -125.63525001213929 0 -125.63525001213929 -9442.5341594614438 0 0 0 -2323.631062691602 324.07537690397066 -75.784249825672305 0 -75.784249825672305 -9396.004249325375 0 0 0 -2267.9822181053555 68.547866651359072 -171.72885261383999 0 -171.72885261383999 -9480.8989782599892 0 0 0 -2353.0877779021612 302.5560172011028 -60.726331014569041 0 -60.726331014569041 -9445.0690543989767 0 0 0 -2285.6282592994685 418.54189949280226 -11.925515676703071 0 -11.925515676703071 -9496.3424717439484 0 0 0 -2269.4501430627879 580.31496910891656 56.171463539438264 0 56.171463539438264 -9466.1509955169422 0 0 0 -2221.4590066020064 602.81446523019622 41.265213612678053 0 41.265213612678053 -9435.8176267408489 0 0 0 -2208.2507903776677 572.91279995916557 2.5843953994117328 0 2.5843953994117328 -9430.8270638396498 0 0 0 -2214.4785659701229 529.04823663359275 30.144001615324669 0 30.144001615324669 -9382.5034037599689 0 0 0 -2213.363791781594 663.64158498864526 19.960689018829726 0 19.960689018829726 -9364.207224530408 0 0 0 -2175.1414098854384 673.0027564962511 39.857305364221929 0 39.857305364221929 -9341.8105696432758 0 0 0 -2167.2019532867562 746.53552463416054 56.209237797167589 0 56.209237797167589 -9381.0907180202485 0 0 0 -2158.6387983465138 826.35228808827014 18.315956312002527 0 18.315956312002527 -9312.9765169915481 0 0 0 -2121.656057225824 754.93277899693567 66.124232461399515 0 66.124232461399515 -9265.2081216103434 0 0 0 -2127.5688356533537 592.94630003398197 -14.456380995648942 0 -14.456380995648942 -9323.828218180046 0 0 0 -2182.7204795365178 1020.1152002567396 53.30030850955518 0 53.30030850955518 -9235.3297390337684 0 0 0 -2053.8036346942608 977.20627745505044 24.871697665985266 0 24.871697665985266 -9293.6017196667672 0 0 0 -2079.0988605529274 905.40032262744717 71.594336097285122 0 71.594336097285122 -9267.9519517397675 0 0 0 -2090.6379072780837 759.49849118023849 40.40686914732396 0 40.40686914732396 -9368.2436710506154 0 0 0 -2152.1862949675924 923.59618588270678 43.993737161112222 0 43.993737161112222 -9318.2922530659562 0 0 0 -2098.6740167958123 888.6773576586902 79.482581060561643 0 79.482581060561643 -9347.2580890868558 0 0 0 -2114.6451828570416 765.04012022518145 61.735603967361385 0 61.735603967361385 -9382.6460165608878 0 0 0 -2154.4014740839193 735.25640328922964 84.328731074441748 0 84.328731074441748 -9429.656871567182 0 0 0 -2173.6001170694908 735.55589420656179 93.131644410139415 0 93.131644410139415 -9430.6489881903544 0 0 0 -2173.77327349595 606.53341445028491 105.31142203693526 0 105.31142203693526 -9459.8521939587517 0 0 0 -2213.3296948771167 510.45465892647917 84.424066421721363 0 84.424066421721363 -9465.4404501644312 0 0 0 -2238.7464478094844 611.86792213865556 75.542911567412375 0 75.542911567412375 -9472.8465221072402 0 0 0 -2215.2446499921498 608.92948714636441 86.325202063737379 0 86.325202063737379 -9440.0208684523168 0 0 0 -2207.7728453264936 424.90736485610978 -6.5727823848847038 0 -6.5727823848847038 -9460.2643124784299 0 0 0 -2258.8392369055764 397.94388622040606 47.680177428752359 0 47.680177428752359 -9478.3062697652422 0 0 0 -2270.0905958862113 463.00397775330566 28.018511997050155 0 28.018511997050155 -9502.1342143921502 0 0 0 -2259.7825591597066 512.10458220188957 84.184561518472037 0 84.184561518472037 -9469.5689462665832 0 0 0 -2239.3660910161743 410.36478562694538 100.14918598810237 0 100.14918598810237 -9446.7228534980241 0 0 0 -2259.0895169677751 389.32709647564116 63.309722897356551 0 63.309722897356551 -9512.4938961150619 0 0 0 -2280.7916999098488 318.36840099342226 84.431272748930496 0 84.431272748930496 -9443.763628829649 0 0 0 -2281.3488069590603 367.39668339087075 105.15812711560284 0 105.15812711560284 -9455.3903076633651 0 0 0 -2271.9984060681236 386.74490954663634 134.87385810131741 0 134.87385810131741 -9407.7921469795983 0 0 0 -2255.2618093582423 430.61349328443612 124.3405503614631 0 124.3405503614631 -9451.3848317968514 0 0 0 -2255.1928346280984 485.78972229823557 121.6444032625368 0 121.6444032625368 -9433.2493853332417 0 0 0 -2236.8649157587497 493.13064433898808 112.17456976110407 0 112.17456976110407 -9476.9125638286005 0 0 0 -2245.9454798724032 -49.228008795293135 -262.83282789502209 0 -262.83282789502209 -9442.0090069519865 0 0 0 -2372.809253936819 40.395218064211804 -260.51285281682067 0 -260.51285281682067 -9563.6014388949916 0 0 0 -2380.801555207694 67.813717301122779 -215.52240903403435 0 -215.52240903403435 -9519.7416845571352 0 0 0 -2362.9819918140083 200.64610204200289 -129.04189838207094 0 -129.04189838207094 -9599.6116846059303 0 0 0 -2349.7413956409873 170.36859779035876 -121.75261089162086 0 -121.75261089162086 -9495.9818738745817 0 0 0 -2331.4033190210539 270.36825148248499 -120.44884580567305 0 -120.44884580567305 -9488.698661433009 0 0 0 -2304.5826024876314 243.88381922129338 -97.834379662206629 0 -97.834379662206629 -9526.039935279201 0 0 0 -2320.5390290144715 332.53868752237486 -35.995307756158581 0 -35.995307756158581 -9471.0288764291399 0 0 0 -2284.6225472266879 318.11974137761717 -29.296038306743867 0 -29.296038306743867 -9518.7808236184646 0 0 0 -2300.16527056021 240.82712856769649 -11.452304195408942 0 -11.452304195408942 -9494.0108822532347 0 0 0 -2313.2959384213827 294.86514368980534 8.9480599075068312 0 8.9480599075068312 -9509.7513403167395 0 0 0 -2303.7215491567367 294.65650933742654 -58.72248431414846 0 -58.72248431414846 -9513.4034772763989 0 0 0 -2304.6867419847476 136.546043412578 -199.2130688338093 0 -199.2130688338093 -9598.189634119226 0 0 0 -2365.4108976766656 47.239439180137197 -164.10209836094873 0 -164.10209836094873 -9558.0706373397297 0 0 0 -2377.7077995398995 75.054132990397193 -298.89414995122934 0 -298.89414995122934 -9704.6162933238011 0 0 0 -2407.3905400833519 -101.41926070140471 -388.39508022039445 0 -388.39508022039445 -9653.3069986931368 0 0 0 -2438.6815648486408 -28.243286303386412 -340.38172558700171 0 -340.38172558700171 -9601.2682711247471 0 0 0 -2407.3778893570343 170.45057796664321 -64.366106907749781 0 -64.366106907749781 -9509.2895012652807 0 0 0 -2334.7097308246575 66.855762165345368 -232.00164425542107 0 -232.00164425542107 -9558.7355912634666 0 0 0 -2372.969957274523 -40.069725497272884 -193.60069328986174 0 -193.60069328986174 -9587.7806658276677 0 0 0 -2406.9625978312361 263.05536078605837 -116.5185705602089 0 -116.5185705602089 -9538.2277272146239 0 0 0 -2318.7930916071418 91.957307484197372 -48.146664535623131 0 -48.146664535623131 -9264.623657510987 0 0 0 -2293.166587506701 168.86364982841678 30.124681103043258 0 30.124681103043258 -9406.1168403461397 0 0 0 -2309.3132976294373 145.4859482615866 -50.607768538193341 0 -50.607768538193341 -9443.6024573445757 0 0 0 -2324.5291272707436 238.77372793511313 55.113502306781811 0 55.113502306781811 -9433.0060272685514 0 0 0 -2298.5580748333596 199.04046529167135 38.003379432710062 0 38.003379432710062 -9394.1637409522446 0 0 0 -2298.7808189151383 123.79575053965527 52.561846460554079 0 52.561846460554079 -9222.7780592018389 0 0 0 -2274.7455771655477 72.434543131483224 52.336137604952455 0 52.336137604952455 -9239.6222486506013 0 0 0 -2291.7969263797822 57.301388854069955 21.51152297648332 0 21.51152297648332 -8899.8752880641259 0 0 0 -2210.6434748025167 56.86694909459402 21.203056866428597 0 21.203056866428597 -9264.2509250484582 0 0 0 -2301.8459939884669 51.066706071125715 -6.3484369905854692 0 -6.3484369905854692 -8895.8641489190468 0 0 0 -2211.1993607119821 43.582521726366394 -27.008966673096438 0 -27.008966673096438 -9355.2669422334366 0 0 0 -2327.9211051267703 266.06125481031268 116.01974363971385 0 116.01974363971385 -9342.8126387533703 0 0 0 -2269.1878459857653 281.31347974671371 123.69026499744359 0 123.69026499744359 -9434.2951508301776 0 0 0 -2288.2454177708642 296.28707778842727 117.05512540438212 0 117.05512540438212 -9423.7024879367309 0 0 0 -2281.853852537075 281.74215338207796 77.603245930029516 0 77.603245930029516 -9420.724422075742 0 0 0 -2284.7455671734169 207.28590480903586 101.23576937929829 0 101.23576937929829 -9345.2960202454269 0 0 0 -2284.5025288591023 159.73070807498152 49.040761935612863 0 49.040761935612863 -9255.2299078192445 0 0 0 -2273.8747999360676 60.445113433113875 38.4190327205215 0 38.4190327205215 -9010.7391392159916 0 0 0 -2237.5735064457222 33.942528602481616 82.12723709004058 0 82.12723709004058 -9247.6547932695685 0 0 0 -2303.4280661667763 51.45429953684652 55.423465192227013 0 55.423465192227013 -9079.5995061796857 0 0 0 -2257.0363016607007 46.686959920974914 42.132535433640442 0 42.132535433640442 -9277.057705461164 0 0 0 -2307.5926863850473 136.32289618184222 72.444287509079004 0 72.444287509079004 -9259.6254041162465 0 0 0 -2280.8256269836093 152.84743471862112 80.271885886540986 0 80.271885886540986 -9394.3030613720075 0 0 0 -2310.3639066633468 149.42834014882828 85.946495109560601 0 85.946495109560601 -9236.8137937979773 0 0 0 -2271.8463634122818 35.487524857948301 62.707354605465298 0 62.707354605465298 -9227.1884355608636 0 0 0 -2297.9252276757325 90.434738208263298 67.096073482416614 0 67.096073482416614 -9400.6389129759045 0 0 0 -2327.5510436919139 82.355581100044049 57.404444625906763 0 57.404444625906763 -9307.2057013980411 0 0 0 -2306.2125300744992 43.719929772887554 53.991387476420641 0 53.991387476420641 -9461.4125231774815 0 0 0 -2354.4231483511467 185.67760467303015 90.171777197901974 0 90.171777197901974 -9397.0252430045221 0 0 0 -2302.8369095828748 216.4813566340963 87.051315583667019 0 87.051315583667019 -9361.4484963138966 0 0 0 -2286.2417849199483 288.46494416617861 127.05324012267374 0 127.05324012267374 -9389.1856774495391 0 0 0 -2275.180183320841 190.95183765528782 101.28647614365309 0 101.28647614365309 -9443.3181033293076 0 0 0 -2313.0915664185086 309.19344025188184 122.3798139244318 0 122.3798139244318 -9396.4935471092904 0 0 0 -2271.8250267143594 322.327953473854 134.68689759545305 0 134.68689759545305 -9443.0395518359292 0 0 0 -2280.1778995905115 285.32994769112338 126.25032103286503 0 126.25032103286503 -9470.2547714356988 0 0 0 -2296.2312059361466 225.62216690780042 96.969743296254819 0 96.969743296254819 -9504.3885450237431 0 0 0 -2319.6915945289729 250.76565333452163 112.8135827074293 0 112.8135827074293 -9440.1794512446213 0 0 0 -2297.3534494775158 155.20250361945 85.101452145936491 0 85.101452145936491 -9486.7953686846449 0 0 0 -2332.8982162662905 50.484141700413602 47.41953528794329 0 47.41953528794329 -9416.6018050397688 0 0 0 -2341.5294158348406 65.374147177077248 39.408576613614059 0 39.408576613614059 -9522.3895530810696 0 0 0 -2364.2538514759945 73.343213478889083 50.713254150963621 0 50.713254150963621 -9463.280418358212 0 0 0 -2347.4843012198326 75.036167444675812 40.639938942265871 0 40.639938942265871 -9608.6561617295374 0 0 0 -2383.4049985712336 210.37102723097541 100.72696736677608 0 100.72696736677608 -9501.2409092091275 0 0 0 -2322.7174704945364 80.179044650860305 42.255367257650505 0 42.255367257650505 -9553.4285684455681 0 0 0 -2368.3123809486715 73.026840147111216 39.851515842972731 0 39.851515842972731 -9691.4115698843671 0 0 0 -2404.5961824343176 77.41055952377792 41.771186448604567 0 41.771186448604567 -9614.0519517518405 0 0 0 -2384.1603480570193 72.856109243009996 39.521461626802193 0 39.521461626802193 -9687.5754113989533 0 0 0 -2403.6798255389876 225.31628443799127 92.278179439454107 0 92.278179439454107 -9572.0097604340699 0 0 0 -2336.6733689990215 350.96135376060556 134.02906033509498 0 134.02906033509498 -9513.7883459220902 0 0 0 -2290.7067480403748 225.65644699760242 92.454123867682938 0 92.454123867682938 -9572.865155210231 0 0 0 -2336.8021770531609 376.81434107959649 146.43528694669658 0 146.43528694669658 -9491.1825289522531 0 0 0 -2278.592046968166 221.44066392667446 105.97210993192493 0 105.97210993192493 -9513.2787715245795 0 0 0 -2322.9595268994672 317.59317760020349 117.69931687157077 0 117.69931687157077 -9502.3164275529562 0 0 0 -2296.1808124881863 338.08114130600734 129.72541336312133 0 129.72541336312133 -9446.6638137925911 0 0 0 -2277.1456681216514 427.57913612065022 145.34933518902835 0 145.34933518902835 -9451.2500009330906 0 0 0 -2255.9177162031046 439.87825899104791 138.07449297875792 0 138.07449297875792 -9436.8007756748557 0 0 0 -2249.2306291709538 555.35088922355135 134.36085254309 0 134.36085254309 -9398.7802064432763 0 0 0 -2210.857329304934 411.36165620622342 132.08071983350601 0 132.08071983350601 -9449.7918880864454 0 0 0 -2259.6075579700482 428.96681892940251 129.83509982621035 0 129.83509982621035 -9467.5885896120162 0 0 0 -2259.6554426706571 413.85326712164533 121.03784859878942 0 121.03784859878942 -9490.2468988531473 0 0 0 -2269.0984079328773 535.62184572133992 151.47391695594706 0 151.47391695594706 -9402.2318279657702 0 0 0 -2216.6524955611094 507.57222524047393 153.67664118898392 0 153.67664118898392 -9430.317342930568 0 0 0 -2230.6862794225308 537.17058017809177 131.74787615208925 0 131.74787615208925 -9390.2863505018759 0 0 0 -2213.2789425809315 638.56905891179485 143.22862476851151 0 143.22862476851151 -9353.8668276242679 0 0 0 -2178.8244421781274 639.91177913387219 145.22912542916674 0 145.22912542916674 -9324.8575542901526 0 0 0 -2171.2364437890792 738.76842087731234 123.48049233269558 0 123.48049233269558 -9290.5986044021738 0 0 0 -2137.9575458812042 742.20688926606795 130.43283686580253 0 130.43283686580253 -9272.943288553186 0 0 0 -2132.684099821774 748.20195245744981 127.40379009060416 0 127.40379009060416 -9230.8320227590448 0 0 0 -2120.6575175754042 597.7679593554858 146.88010838594528 0 146.88010838594528 -9381.0293822777458 0 0 0 -2195.8153557305559 610.44021017610794 128.14567347601405 0 128.14567347601405 -9361.8670655101741 0 0 0 -2187.8567138335202 699.54830534632856 113.87525022671616 0 113.87525022671616 -9323.9040050040639 0 0 0 -2156.0889249144348 773.71150699448481 115.75612227897363 0 115.75612227897363 -9317.3841130083456 0 0 0 -2135.9181515034725 677.42873691551358 126.50054152369376 0 126.50054152369376 -9375.0544994326774 0 0 0 -2174.4064406292964 776.38372719359904 97.613474671175936 0 97.613474671175936 -9324.1271961398452 0 0 0 -2136.9358672365634 635.30054382777962 121.25872720059124 0 121.25872720059124 -9379.5053432454297 0 0 0 -2186.0511998544134 620.79704996676446 128.56116593770275 0 128.56116593770275 -9416.0240595664945 0 0 0 -2198.8067523999307 746.67643470556141 115.21436000417452 0 115.21436000417452 -9381.8938015873428 0 0 0 -2158.8043417204462 691.28131415293683 110.46626259520417 0 110.46626259520417 -9383.0796363915142 0 0 0 -2172.9495805596343 669.72287547236556 122.0843109765483 0 122.0843109765483 -9431.0941157323541 0 0 0 -2190.3428100649944 537.13764520426321 130.65424405446538 0 130.65424405446538 -9454.5870877317975 0 0 0 -2229.362360631877 610.83912365012657 107.49729705196296 0 107.49729705196296 -9425.4102378228417 0 0 0 -2203.6427785431806 527.31837061554688 136.29649255613913 0 136.29649255613913 -9427.3947302868473 0 0 0 -2225.0190899178269 523.524346815022 133.43980463620028 0 133.43980463620028 -9431.9888765072974 0 0 0 -2227.1161324230779 434.12980863406847 141.957652446385 0 141.957652446385 -9440.3358636680932 0 0 0 -2251.5515137585026 402.83948818621502 131.47795214740472 0 131.47795214740472 -9417.7882114426284 0 0 0 -2253.7371808141033 416.76754984891159 142.8358393903909 0 142.8358393903909 -9445.8329337485629 0 0 0 -2257.2663459749165 404.79080996616722 142.18437215645099 0 142.18437215645099 -9427.6990319018296 0 0 0 -2255.7270554839179 398.38837283157773 127.65514196782169 0 127.65514196782169 -9444.6587620403152 0 0 0 -2261.5675973021862 543.8145938814996 141.35643422854264 0 141.35643422854264 -9419.1752473574597 0 0 0 -2218.8401633690009 517.42741286256751 137.87699065709603 0 137.87699065709603 -9412.1773751849832 0 0 0 -2223.6874905805944 430.32421495242124 46.903102084630518 0 46.903102084630518 -9655.9403686578862 0 0 0 -2306.404038426359 265.43219633710396 61.818725981670468 0 61.818725981670468 -9716.0761273716926 0 0 0 -2362.6609827586508 226.94784597150283 31.826873109210283 0 31.826873109210283 -9792.3544842366246 0 0 0 -2391.351659566295 278.4249700137234 -1.0424291392700979 0 -1.0424291392700979 -9713.7609038932769 0 0 0 -2358.8339834698918 106.71489525389916 -8.111863331621862 0 -8.111863331621862 -9838.7892382389691 0 0 0 -2433.0185857462639 68.896812463994138 18.410882918143255 0 18.410882918143255 -9906.3250879871193 0 0 0 -2459.3570688807813 49.708656112648896 -2.0796983735344838 0 -2.0796983735344838 -9973.7267069196387 0 0 0 -2481.0045127017365 86.339262330962811 -27.31453214395151 0 -27.31453214395151 -9908.7632277735102 0 0 0 -2455.605991360615 100.82227157225861 30.14033331132714 0 30.14033331132714 -9848.9253835577692 0 0 0 -2437.0257779963795 223.02923457666111 19.329416665859753 0 19.329416665859753 -9806.369124190991 0 0 0 -2395.8349724035979 58.332713431445882 -6.4483637107623508 0 -6.4483637107623508 -9937.5667231714469 0 0 0 -2469.8085024349857 75.034381272751489 41.446688727686023 0 41.446688727686023 -9899.5771416684147 0 0 0 -2456.1356900989194 202.31138760030444 68.374888023539825 0 68.374888023539825 -9728.0448331485968 0 0 0 -2381.4333613870767 298.50833456355758 60.300259332398127 0 60.300259332398127 -9698.1520297876123 0 0 0 -2349.9109238060046 343.09139546251026 35.407465285650687 0 35.407465285650687 -9671.5846991153812 0 0 0 -2332.1233259132168 485.02077733526676 82.922078533636522 0 82.922078533636522 -9591.3400445887382 0 0 0 -2276.5798168133697 402.64966216945322 79.619262124746456 0 79.619262124746456 -9577.8392443770281 0 0 0 -2293.7973955518974 385.5300733090844 105.19122132394114 0 105.19122132394114 -9620.7216833474231 0 0 0 -2308.7979025095701 435.37394706856821 107.59966811156482 0 107.59966811156482 -9577.921564882723 0 0 0 -2285.636904453539 305.04861102055293 109.39466085789172 0 109.39466085789172 -9630.8664348984894 0 0 0 -2331.4544559694768 277.51741164672512 88.861389089579461 0 88.861389089579461 -9632.7008584611158 0 0 0 -2338.7958617035902 119.73466773371911 67.27823632334821 0 67.27823632334821 -9752.2451504298951 0 0 0 -2408.127620674044 109.66578705923894 10.446563992110896 0 10.446563992110896 -9819.1485142898891 0 0 0 -2427.370681807668 55.252849208976841 25.277938308434386 0 25.277938308434386 -9865.6730443902779 0 0 0 -2452.605048795318 168.47178517460998 47.846451762809011 0 47.846451762809011 -9718.0251094366104 0 0 0 -2387.3883310654928 208.10265284667548 80.938450889269006 0 80.938450889269006 -9684.6540559723289 0 0 0 -2369.1378507814297 66.849662439301028 33.915859028562409 0 33.915859028562409 -9746.040976006916 0 0 0 -2419.7978283919074 72.09867812086533 35.80309469763597 0 35.80309469763597 -9779.3863817805977 0 0 0 -2426.8219259149168 225.98528692983746 98.032438181959151 0 98.032438181959151 -9620.0777337028667 0 0 0 -2348.5231116932664 204.52846804611909 78.209249651245045 0 78.209249651245045 -9629.7116879883106 0 0 0 -2356.295804985537 335.98293607028609 85.987167253384541 0 85.987167253384541 -9585.36625855272 0 0 0 -2312.3458306206157 351.04531555442736 128.16228505117033 0 128.16228505117033 -9560.853748974776 0 0 0 -2302.4521083550899 371.08754801897157 111.78107300380498 0 111.78107300380498 -9504.1772860915517 0 0 0 -2283.2724345181341 504.4008430681024 133.40366360300686 0 133.40366360300686 -9454.3728121239983 0 0 0 -2237.4929922639676 508.03706756099564 141.6954196774459 0 141.6954196774459 -9412.3395029708045 0 0 0 -2226.0756088524504 640.96626216047298 150.47289878062293 0 150.47289878062293 -9307.3482031777676 0 0 0 -2166.5954852543218 773.83094792747761 157.45164412011218 0 157.45164412011218 -9279.1080301755865 0 0 0 -2126.3192705620295 664.83098964201963 160.81895353971049 0 160.81895353971049 -9311.145136921521 0 0 0 -2161.5785368198758 641.53112784407131 143.4343582497022 0 143.4343582497022 -9368.2754159351462 0 0 0 -2181.6860720227633 649.38580066089344 122.56657712318702 0 122.56657712318702 -9368.7789205187291 0 0 0 -2179.8482799644626 773.26401898397307 132.0319471023322 0 132.0319471023322 -9251.5653637673968 0 0 0 -2119.5753361958559 767.13075019101962 161.0602964835125 0 161.0602964835125 -9302.8448685173935 0 0 0 -2133.9285295815935 571.5699530653801 151.43892269633216 0 151.43892269633216 -9415.5287706395611 0 0 0 -2210.9897043935489 590.00060144221061 98.909678496249398 0 98.909678496249398 -9468.0814620943565 0 0 0 -2219.5202151630365 532.39274358257535 125.65014418804276 0 125.65014418804276 -9474.4760702736094 0 0 0 -2235.5208316727512 413.87368471214722 124.22863921296084 0 124.22863921296084 -9512.2788925511122 0 0 0 -2274.6013019597376 517.61780056427961 122.30587857874343 0 122.30587857874343 -9507.9394197470829 0 0 0 -2247.5804047956917 472.84604107626365 63.267976624087169 0 63.267976624087169 -9549.6009737845161 0 0 0 -2269.1887331770558 639.65151889149274 105.55228074137267 0 105.55228074137267 -9471.448449769814 0 0 0 -2207.9492327195912 618.09849947476323 119.38936144206673 0 119.38936144206673 -9401.3340604776167 0 0 0 -2195.8088902507079 799.11451927114103 124.11926453604974 0 124.11926453604974 -9341.5643592943379 0 0 0 -2135.6124600058029 752.12173944527603 130.97928535613937 0 130.97928535613937 -9279.8233280420827 0 0 0 -2131.9253971491926 781.64904851898609 81.486960529458884 0 81.486960529458884 -9311.0121675864211 0 0 0 -2132.3407797668624 800.44741396215977 99.762363540634396 0 99.762363540634396 -9363.6326495721878 0 0 0 -2140.7963089025143 984.97608646066146 116.69250679030665 0 116.69250679030665 -9231.8982382077666 0 0 0 -2061.7305379367644 897.89975045264873 65.285589786246419 0 65.285589786246419 -9300.4109259486431 0 0 0 -2100.627793873995 764.50086363608716 19.75534718905692 0 19.75534718905692 -9378.4814820661559 0 0 0 -2153.4951546075099 647.12634463193172 61.638157310924726 0 61.638157310924726 -9447.3508364413865 0 0 0 -2200.0561229523482 597.57492939898293 62.351271328268922 0 62.351271328268922 -9445.2041356008122 0 0 0 -2211.9073015504509 641.4460462693969 42.01750071180868 0 42.01750071180868 -9510.5559581403213 0 0 0 -2217.277477967742 428.28757274659438 30.561769096450007 0 30.561769096450007 -9578.9939496202278 0 0 0 -2287.6765942184065 1385.6767422841476 21.202098445704905 0 21.202098445704905 -8965.7138139739545 0 0 0 -1895.0092679224654 1618.7939266633548 36.499134036275791 0 36.499134036275791 -8897.7648490727588 0 0 0 -1819.7427306023528 1330.6818392048444 100.53994596003031 0 100.53994596003031 -8958.1358017064631 0 0 0 -1906.8634906254156 1480.8552087028784 45.237845562762232 0 45.237845562762232 -8895.3443300247927 0 0 0 -1853.6222803304863 1372.7714511097656 57.809765519152279 0 57.809765519152279 -9025.1466040519881 0 0 0 -1913.0937882355574 1133.5608132281923 64.326749890419777 0 64.326749890419777 -9162.1730533926166 0 0 0 -2007.1530600411061 952.04363764262598 23.880536902863241 0 23.880536902863241 -9236.3021878755098 0 0 0 -2071.0646375582182 1182.4740373348759 18.851662363304058 0 18.851662363304058 -9093.9622858028015 0 0 0 -1977.8720621169778 1157.3104339519487 123.31036460112591 0 123.31036460112591 -9085.2949446359708 0 0 0 -1981.9961276710092 1010.3435355367037 151.44008735466196 0 151.44008735466196 -9178.7076411779562 0 0 0 -2042.0910264103004 994.88349371841832 81.672687950303953 0 81.672687950303953 -9153.2453940824198 0 0 0 -2039.5904750910086 915.96882534550969 118.50966866817907 0 118.50966866817907 -9223.3195097019307 0 0 0 -2076.8376710891025 1190.0303981436591 126.06978151688963 0 126.06978151688963 -8966.3477141954936 0 0 0 -1944.0793290129659 1247.578609000986 66.661537240070174 0 66.661537240070174 -9015.790670073111 0 0 0 -1942.0530152680294 1355.894076365395 74.629207734891679 0 74.629207734891679 -8915.1480978428153 0 0 0 -1889.81350536937 1198.4691227684416 89.989915043726796 0 89.989915043726796 -8928.1260418937454 0 0 0 -1932.4142297813341 1187.4713238699042 129.75575607198698 0 129.75575607198698 -8978.8296240989439 0 0 0 -1947.8395750572527 1058.8845023023605 114.26128382136085 0 114.26128382136085 -8995.7660770573711 0 0 0 -1984.2203936887527 1187.8570702457146 134.01614744165272 0 134.01614744165272 -9022.8272932398249 0 0 0 -1958.7425557485331 1043.7289536504941 116.27688924540416 0 116.27688924540416 -9065.0101531133405 0 0 0 -2005.3202998657143 998.14932781005336 157.05841891997989 0 157.05841891997989 -9111.8327879133576 0 0 0 -2028.420865025837 890.45572196117428 128.17103626978496 0 128.17103626978496 -9159.4749303672288 0 0 0 -2067.2548021015245 891.4519447763887 157.72673686516282 0 157.72673686516282 -9203.181277261785 0 0 0 -2077.9323331213382 916.08302538286807 130.33975053914764 0 130.33975053914764 -9125.4140230999037 0 0 0 -2052.3327494292389 1044.6692180319515 149.88872238027034 0 149.88872238027034 -9082.5490825518791 0 0 0 -2009.4699661299819 907.29452760409913 155.12630964264372 0 155.12630964264372 -9164.7298384982278 0 0 0 -2064.358827723554 944.88366417559882 118.24094196383521 0 118.24094196383521 -9073.6300795363641 0 0 0 -2032.1866038402004 796.78427214302792 133.50151254994853 0 133.50151254994853 -9206.7082773462171 0 0 0 -2102.4810013008027 848.84211740625324 114.16134859805607 0 114.16134859805607 -9154.9265931466507 0 0 0 -2076.5211189350957 790.75187795981765 153.16786173898072 0 153.16786173898072 -9229.895335891284 0 0 0 -2109.7858644828666 926.63657176309789 128.67915084838995 0 128.67915084838995 -9128.9599870192178 0 0 0 -2050.5808538140263 978.31934787552746 88.771351144416258 0 88.771351144416258 -9029.465074239095 0 0 0 -2012.7864315908955 1042.2139265784062 135.25002493736247 0 135.25002493736247 -9049.6252820399968 0 0 0 -2001.8528388654086 1086.5600057038246 92.800902034396131 0 92.800902034396131 -8957.7653174306179 0 0 0 -1967.8013279316947 1067.1304749382325 99.224328581515692 0 99.224328581515692 -9012.1824487949489 0 0 0 -1986.2629934641736 1169.6501342445554 48.245422237087041 0 48.245422237087041 -8906.4690283391392 0 0 0 -1934.2047235236387 1100.6733124040838 53.67056953068095 0 53.67056953068095 -8915.9114215155569 0 0 0 -1953.8095272778737 1257.2753019563897 62.016443031159724 0 62.016443031159724 -8862.4350242521905 0 0 0 -1901.2899305739338 1173.6842240370534 126.33047826730763 0 126.33047826730763 -8916.4063665296562 0 0 0 -1935.6805356231416 1215.2656822402932 88.260892557751504 0 88.260892557751504 -8877.8524660938128 0 0 0 -1915.646695963369 1288.2470471464039 42.258777306666161 0 42.258777306666161 -8896.2941412400687 0 0 0 -1902.0117735234235 1383.2605894628341 -90.506542813898704 0 -90.506542813898704 -8791.3939911211019 0 0 0 -1852.0333504145765 1431.2072852055862 -66.478967636337075 0 -66.478967636337075 -8764.4858044419962 0 0 0 -1833.3196298090916 1457.4922204566101 -47.763178711771616 0 -47.763178711771616 -8665.2479690960608 0 0 0 -1801.9389371598663 1375.9778137243993 43.523318319974351 0 43.523318319974351 -8771.0112446364947 0 0 0 -1848.7583577280311 1329.5211107416133 15.712168075740919 0 15.712168075740919 -8843.4198709474658 0 0 0 -1878.4746900514558 1516.3816632520447 -36.972818638882018 0 -36.972818638882018 -8760.6986723755035 0 0 0 -1811.0792522808715 1567.5217535594275 -23.094772478783852 0 -23.094772478783852 -8596.5752618910919 0 0 0 -1757.2633770829125 1561.7664291494621 3.6421317929925863 0 3.6421317929925863 -8765.0931263716557 0 0 0 -1800.8316743055439 1417.3507223867637 41.890796211237102 0 41.890796211237102 -8739.7196761986124 0 0 0 -1830.5922384529695 1433.3952281774923 58.125179606475285 0 58.125179606475285 -8845.7944546994804 0 0 0 -1853.0998066305024 1372.6138913758186 79.502354703305173 0 79.502354703305173 -8865.2014046775439 0 0 0 -1873.146878325424 1303.3337668996683 122.12675094504084 0 122.12675094504084 -8896.1011570734263 0 0 0 -1898.1918475434359 1385.3773935986101 91.611378768349823 0 91.611378768349823 -8861.1711229195644 0 0 0 -1868.9484323302313 1529.715780776125 41.214417753602902 0 41.214417753602902 -8816.7035698950931 0 0 0 -1821.7469472797384 1464.455075896054 72.543429223231215 0 72.543429223231215 -8768.2405440191214 0 0 0 -1825.9463670307741 1619.8106171810214 12.324629021706642 0 12.324629021706642 -8730.8173439174134 0 0 0 -1777.7516816840944 1608.5608964908388 -13.289311790234933 0 -13.289311790234933 -8619.9191701246309 0 0 0 -1752.8395684084462 1800.2520017098441 -33.071148239447211 0 -33.071148239447211 -8605.8971081055461 0 0 0 -1701.4112765989257 1732.120777449265 9.5465205262153177 0 9.5465205262153177 -8601.4900044922833 0 0 0 -1717.3423067607582 1647.7005263470346 16.539465998961532 0 16.539465998961532 -8647.4024214827514 0 0 0 -1749.9254737839365 1730.6702976042579 12.167622577908332 0 12.167622577908332 -8710.425072212849 0 0 0 -1744.9386936521478 1833.8369527387476 -8.8854227807823918 0 -8.8854227807823918 -8550.6103262326942 0 0 0 -1679.1933433734812 1961.2393644210097 20.220192648994271 0 20.220192648994271 -8620.8970820879476 0 0 0 -1664.9144294167345 1737.2163475681518 2.6716068244422786 0 2.6716068244422786 -8670.1156065875548 0 0 0 -1733.2248147548526 1817.3930051155257 48.052255929302191 0 48.052255929302191 -8736.2316765861178 0 0 0 -1729.7096678676462 1661.051948563836 5.2187673416628968 0 5.2187673416628968 -8782.767432415887 0 0 0 -1780.4288709630127 1562.5092001763842 60.041092236948316 0 60.041092236948316 -8746.4510637968488 0 0 0 -1795.9854659051052 1502.6443079543606 58.124266127837473 0 58.124266127837473 -8843.9832597822242 0 0 0 -1835.3347379569605 1061.6954398197631 32.893976696308528 0 32.893976696308528 -9251.7133133902098 0 0 0 -2047.5044683926099 1057.9788640256011 12.725221058408351 0 12.725221058408351 -9194.6746884267195 0 0 0 -2034.1739561002832 1212.6108620479538 -26.804904212185647 0 -26.804904212185647 -9140.5420185109942 0 0 0 -1981.9827891157581 1094.2573118571163 15.529894754727138 0 15.529894754727138 -9214.2163193413871 0 0 0 -2029.9897518710713 1077.7981592801443 36.500195228854864 0 36.500195228854864 -9235.9392828640121 0 0 0 -2039.535280895976 1100.1487203556535 33.445471222323249 0 33.445471222323249 -9261.4433394220687 0 0 0 -2040.323654766602 1070.1255134076819 50.615391791674483 0 50.615391791674483 -9289.4226808039239 0 0 0 -2054.8242918490541 950.78125409953566 71.703015425133344 0 71.703015425133344 -9309.7863627894931 0 0 0 -2089.7512771724951 917.26913020060601 57.202648268252233 0 57.202648268252233 -9333.1421662509965 0 0 0 -2103.9682590125958 879.39607454401994 84.597632713594066 0 84.597632713594066 -9373.0605105097711 0 0 0 -2123.4161089914342 753.03529271312436 85.675553856019178 0 85.675553856019178 -9385.4320558702602 0 0 0 -2158.0991907892894 811.0844325082362 95.972452585221617 0 95.972452585221617 -9381.1266302165022 0 0 0 -2142.5105494270611 846.634837087091 74.762274603563128 0 74.762274603563128 -9324.3694648444216 0 0 0 -2119.4336569393345 987.3689991098654 40.555701828110614 0 40.555701828110614 -9254.0551829798205 0 0 0 -2066.6715459674961 876.33036565226575 79.87779801384022 0 79.87779801384022 -9321.3878512358788 0 0 0 -2111.2643713959151 909.45406104396534 59.658615763210037 0 59.658615763210037 -9256.5757230045419 0 0 0 -2086.780415490146 800.89822126843501 103.44958855627192 0 103.44958855627192 -9314.0294751801266 0 0 0 -2128.2828134779156 778.04629153202404 101.76189381039512 0 101.76189381039512 -9240.2332730828784 0 0 0 -2115.5467453877136 940.79998010479176 53.441707019286696 0 53.441707019286696 -9147.2682083202817 0 0 0 -2051.617057053867 858.91942997156184 94.12130090570281 0 94.12130090570281 -9224.8517318662271 0 0 0 -2091.4830754736595 907.88480633524159 64.915907455433626 0 64.915907455433626 -9238.9812071651832 0 0 0 -2082.7741002074836 831.94373301000815 121.1240049264743 0 121.1240049264743 -9209.1613080340612 0 0 0 -2094.3043937560105 888.63657943795261 86.725326105603017 0 86.725326105603017 -9130.7416221004387 0 0 0 -2060.5262606656179 946.67006806529389 83.203139505552826 0 83.203139505552826 -9122.4794199254757 0 0 0 -2043.9523379650418 1022.3727268841467 39.924780258195824 0 39.924780258195824 -9019.7959968085925 0 0 0 -1999.3558174811114 1055.961834627833 15.552842739205516 0 15.552842739205516 -9027.9669508323059 0 0 0 -1993.0012790511064 1053.1472190486602 15.331969302424113 0 15.331969302424113 -9172.2446795479846 0 0 0 -2029.7743651248238 984.79370864773955 38.082662871342109 0 38.082662871342109 -9143.2628001090197 0 0 0 -2039.6172728653255 1042.286438207957 9.4258132353061228 0 9.4258132353061228 -9106.0666712725942 0 0 0 -2015.945058266152 1169.5336999066258 -55.842352569867217 0 -55.842352569867217 -9040.4877332819378 0 0 0 -1967.7385083438148 1174.9328565017495 -64.49597844679738 0 -64.49597844679738 -9122.3852503094531 0 0 0 -1986.8630984519259 1112.6166136947795 -69.283299835049547 0 -69.283299835049547 -9039.8278892605304 0 0 0 -1981.8028188914323 1315.5795812510987 -135.12286791898077 0 -135.12286791898077 -9008.3642584160843 0 0 0 -1923.1961692912519 1366.4608270180761 -78.109460580250015 0 -78.109460580250015 -9069.981594977944 0 0 0 -1925.8801919899779 1346.4528375451046 -67.111573685286203 0 -67.111573685286203 -9065.1582358337764 0 0 0 -1929.676349572168 1156.333244426256 -41.663763666329032 0 -41.663763666329032 -8907.2453315677849 0 0 0 -1937.7280217853731 1162.6082465744876 -43.162947900855215 0 -43.162947900855215 -8911.9780754703534 0 0 0 -1937.3424572239637 1164.5878816435143 22.224832436389988 0 22.224832436389988 -8849.2019708521111 0 0 0 -1921.1535223021492 1169.7798506565232 -86.027151348804182 0 -86.027151348804182 -8852.5129992325092 0 0 0 -1920.6832871439983 1306.5926868311653 -85.378587365470594 0 -85.378587365470594 -9076.9460997158749 0 0 0 -1942.588353221181 1197.2142056870434 -363.15601245254584 0 -363.15601245254584 -9068.6259888160566 0 0 0 -1967.8529457822588 1510.2465890771346 -137.04985309840231 0 -137.04985309840231 -9111.0248768682359 0 0 0 -1900.1945719477735 1606.8162377460831 -83.585356967145344 0 -83.585356967145344 -8990.063114153163 0 0 0 -1845.8117191017664 1584.2350628326058 -173.30635356085986 0 -173.30635356085986 -8934.8470883988739 0 0 0 -1837.653006391567 1809.728680571423 40.075054751017888 0 40.075054751017888 -9116.9222027653886 0 0 0 -1826.7983805485001 1817.7170368821826 136.37744015649878 0 136.37744015649878 -8531.7497771425406 0 0 0 -1678.5081850650895 1643.3316664306121 45.327090635895729 0 45.327090635895729 -8940.6803775798817 0 0 0 -1824.3371777873099 1551.4578373555532 19.523626094960491 0 19.523626094960491 -8963.5110256226617 0 0 0 -1853.0132970667792 1422.7062482700567 -15.320048156369012 0 -15.320048156369012 -9085.1745349266857 0 0 0 -1915.61707166415 1433.1235741901401 -27.295022365251498 0 -27.295022365251498 -9040.0424840344058 0 0 0 -1901.7297274610683 1456.1092060995361 30.554953680884864 0 30.554953680884864 -9062.0155103484576 0 0 0 -1901.4765760622249 1259.8138011881711 2.1119828342307301 0 2.1119828342307301 -9128.2422777800966 0 0 0 -1967.1071191479859 1246.4781249630032 13.153078548108169 0 13.153078548108169 -9188.4067171677525 0 0 0 -1985.4821480511891 1225.5404403081047 -33.764479060908343 0 -33.764479060908343 -9149.0225362923229 0 0 0 -1980.8705239960618 1259.3217990146459 21.293329135427484 0 21.293329135427484 -9191.7490481729656 0 0 0 -1983.1068122895722 1216.4640949452805 35.216600450416081 0 35.216600450416081 -9092.5341815899592 0 0 0 -1969.0175216611678 1525.8199951080032 28.873965058639442 0 28.873965058639442 -8882.44767428665 0 0 0 -1839.1569197946692 1333.1690289436592 16.672487213502791 0 16.672487213502791 -8894.6083309292153 0 0 0 -1890.3598254963945 1372.140720236549 19.675010729166388 0 19.675010729166388 -9052.3388656634561 0 0 0 -1920.049536356727 1414.3981748507795 29.988964000211126 0 29.988964000211126 -8913.0307024661743 0 0 0 -1874.6581319038378 1415.2434619634787 8.1504661372237024 0 8.1504661372237024 -8884.2832810866312 0 0 0 -1867.2599547807786 1532.8998902813037 68.439881055937803 0 68.439881055937803 -8614.7521814848878 0 0 0 -1770.4630728008924 1592.9591942793468 10.232144737361523 0 10.232144737361523 -8597.8542788772666 0 0 0 -1751.2237711494836 1680.6910455023099 31.331981809895296 0 31.331981809895296 -8341.8475858350575 0 0 0 -1665.2891350831851 1540.6320667061445 4.4522748071167371 0 4.4522748071167371 -8454.0730078180204 0 0 0 -1728.3602352779635 1694.2487836575458 -30.37874253004702 0 -30.37874253004702 -8407.1049340350728 0 0 0 -1678.2140375943779 1720.6095555485226 -72.909470152284939 0 -72.909470152284939 -8330.1350062898127 0 0 0 -1652.3813626853153 1597.6903635661838 -14.550093404668587 0 -14.550093404668587 -8352.4275105745764 0 0 0 -1688.6842867520973 2125.9140696798422 -113.21915364768483 0 -113.21915364768483 -8150.347840112081 0 0 0 -1506.1084426080633 1945.59414551804 -130.24912574429618 0 -130.24912574429618 -8056.6763379990225 0 0 0 -1527.7705481202502 1820.5880991726408 -27.378640922095656 0 -27.378640922095656 -8258.6682872793172 0 0 0 -1609.5200470266755 1921.1323745428017 15.774449640724924 0 15.774449640724924 -8289.2098746996635 0 0 0 -1592.0193750392136 1649.9470744783321 86.070778748591692 0 86.070778748591692 -8561.0202874148672 0 0 0 -1727.7683032341447 1804.4564072659196 43.532130902631252 0 43.532130902631252 -8253.8209420953353 0 0 0 -1612.3411337073485 1718.9161275403239 46.1887259515388 0 46.1887259515388 -8581.7096053183632 0 0 0 -1715.6983694445116 1819.1935660158651 103.77807473298162 0 103.77807473298162 -8555.8542169033826 0 0 0 -1684.1651627218798 2172.7304672053142 276.83899069559266 0 276.83899069559266 -8518.3998017752456 0 0 0 -1586.4173336424719 1931.8834291289022 69.97442140396015 0 69.97442140396015 -8184.218476504946 0 0 0 -1563.0837618440128 2044.5717435796905 -116.35794920223452 0 -116.35794920223452 -9391.6721767759009 0 0 0 -1836.7751082990362 2367.1777721971739 -59.962716057925718 0 -59.962716057925718 -6914.7163841100701 0 0 0 -1136.884652978224 1946.1447129182343 63.946717218146659 0 63.946717218146659 -8197.2704967547616 0 0 0 -1562.7814459591391 1167.6752000442357 -536.49072828325006 0 -536.49072828325006 -8909.6877019979584 0 0 0 -1935.5031254884379 2874.2774065041303 446.0120796018382 0 446.0120796018382 -8216.0020278041047 0 0 0 -1335.4311553250009 8.4501815117071004 -0.71390850458603472 0 -0.71390850458603472 -3.3313342812478481 0 0 0 1.2797118076148024 1029.232224931533 -682.2305598552573 0 -682.2305598552573 -7603.5036058925907 0 0 0 -1643.5678452402644 1352.6533883695447 77.324438049494347 0 77.324438049494347 -8311.3529399982799 0 0 0 -1739.674887907182 -6.200358826659965 -2.6727222014246013 0 -2.6727222014246013 -12.728119672968774 0 0 0 -4.7321196249071988 2864.5142985958228 -419.87447393598995 0 -419.87447393598995 -7875.0402918625914 0 0 0 -1252.6314983166885 1588.4612104929502 291.0242223604655 0 291.0242223604655 -7638.1939853716376 0 0 0 -1512.4331937196812 -2.7374454248444948 -3.588344472694474 0 -3.588344472694474 -11.573815229726961 0 0 0 -3.5778151636428674 2561.57784918791 112.01068780130299 0 112.01068780130299 -8045.3297646188585 0 0 0 -1370.9379788577426 1607.0731038446684 -117.4667872809805 0 -117.4667872809805 -8259.2057766141079 0 0 0 -1663.0331681923562 2064.3316104913974 -99.580309300719819 0 -99.580309300719819 -7864.060072029999 0 0 0 -1449.9321153846504 2362.7348396750203 -96.352378775489342 0 -96.352378775489342 -8521.2887225894665 0 0 0 -1539.6384707285979 2535.5140716798414 -146.26863845302751 0 -146.26863845302751 -8021.0865590732137 0 0 0 -1371.3931218483413 2144.5633662229993 -96.462637924218143 0 -96.462637924218143 -8081.1212498370878 0 0 0 -1484.139470903523 2195.3590416874285 -108.14478251187393 0 -108.14478251187393 -8088.8272451346493 0 0 0 -1473.3670508618088 2385.4769263508351 -28.196244094908252 0 -28.196244094908252 -7589.1067948036653 0 0 0 -1300.9074671132039 2438.8056011463705 -257.14291150312783 0 -257.14291150312783 -8037.3391735423938 0 0 0 -1399.6333930990077 2162.8488188598858 -96.297973565990105 0 -96.297973565990105 -8084.1096912108187 0 0 0 -1480.3152180877369 1487.6224083768393 -50.625824292625111 0 -50.625824292625111 -8068.8418917997624 0 0 0 -1645.3048708557253 1642.939413654618 -17.9680413131573 0 -17.9680413131573 -7614.8307298499276 0 0 0 -1492.9728290488274 1643.9308123684241 -221.1783425493486 0 -221.1783425493486 -7921.9142272277968 0 0 0 -1569.4958537148559 -3.6686324222504823 -4.475346331312835 0 -4.475346331312835 -11.884210918455835 0 0 0 -3.8882108351765794 1677.8294567496559 202.47698734022561 0 202.47698734022561 -7887.4065581229006 0 0 0 -1552.3942753433075 1667.5032342441118 121.26982925889024 0 121.26982925889024 -8275.429775427765 0 0 0 -1651.9816352959169 1813.819537115829 -89.981105352497252 0 -89.981105352497252 -8317.8244809814059 0 0 0 -1626.0012359663888 1741.9900185796505 -265.54112756299872 0 -265.54112756299872 -7984.707714561082 0 0 0 -1560.6794239953524 2382.0843940274644 135.57738170731662 0 135.57738170731662 -7989.4922521293047 0 0 0 -1401.851964525471 -3.4102884151230626 -5.153058987895152 0 -5.153058987895152 -11.798096271635188 0 0 0 -3.8020961716895556 1793.9726482219776 -87.790640671046276 0 -87.790640671046276 -7654.2184653626609 0 0 0 -1465.0614542851763 2430.3127008513038 -42.716353651689133 0 -42.716353651689133 -8004.413173103967 0 0 0 -1393.5251180631603 2205.8579582874663 -149.26973766169976 0 -149.26973766169976 -8069.8924363631231 0 0 0 -1466.0086195189069 2295.4107622728661 -35.451614134137344 0 -35.451614134137344 -8447.9938011717895 0 0 0 -1538.1457597247245 2200.6650656353431 -78.850999456983118 0 -78.850999456983118 -8033.8003516595127 0 0 0 -1458.2838215060492 2124.1749218482873 -74.800443528300093 0 -74.800443528300093 -8025.634230231386 0 0 0 -1475.3648270957783 2164.3141058773399 -149.21429369644557 0 -149.21429369644557 -8062.8753168838302 0 0 0 -1474.6403027516208 2083.9849206693289 -141.80911640110571 0 -141.80911640110571 -8065.0233476631402 0 0 0 -1495.2596067484592 2136.5890441209585 -91.777544204116566 0 -91.777544204116566 -8059.851939802762 0 0 0 -1480.8157239204565 2010.2701699037934 -131.13707662364322 0 -131.13707662364322 -8153.3663157798146 0 0 0 -1535.7740364690108 2022.6532509087192 -143.70082211441331 0 -143.70082211441331 -8129.1162553318427 0 0 0 -1526.6157511057827 1984.1968507772951 -162.2024157099404 0 -162.2024157099404 -8116.7604432761018 0 0 0 -1533.1408981246998 1916.9372804529485 -108.09948455604172 0 -108.09948455604172 -8174.4071786329005 0 0 0 -1564.3674745449753 1866.9170146142897 -101.42074311503893 0 -101.42074311503893 -8230.9798166504479 0 0 0 -1591.0157005090441 1883.6977323913952 -104.39006514674111 0 -104.39006514674111 -8157.5772369128053 0 0 0 -1568.4698761303525 1810.6796144192194 -76.473810277923803 0 -76.473810277923803 -8210.3839659376245 0 0 0 -1599.9260878796049 1729.2739227178427 -79.888497956297215 0 -79.888497956297215 -8239.5607721404012 0 0 0 -1627.5717123556424 1794.894176350921 -59.544758927288058 0 -59.544758927288058 -8281.3025834313448 0 0 0 -1621.6021017701132 1690.7552304917745 -83.064095982867002 0 -83.064095982867002 -8306.2600876461402 0 0 0 -1653.8762142885889 1935.5859771795831 -144.03794345036295 0 -144.03794345036295 -8164.0851362536851 0 0 0 -1557.1247897685289 2093.0584368319269 -142.147741783112 0 -142.147741783112 -8137.5131671742201 0 0 0 -1511.1136825855847 2022.4062716560584 -85.363124651099497 0 -85.363124651099497 -8137.1250946610526 0 0 0 -1528.6797057512376 2013.7743453117437 -30.925150668394053 0 -30.925150668394053 -8326.7231142605015 0 0 0 -1578.2371922371967 2141.3657006111898 -21.860734806759865 0 -21.860734806759865 -8295.6737072309479 0 0 0 -1538.5770016549432 1971.5085018964164 -74.207942465454835 0 -74.207942465454835 -8380.7028235643229 0 0 0 -1602.298580416973 2139.9742432821367 -14.874074149207445 0 -14.874074149207445 -8388.0428492761275 0 0 0 -1562.017151498505 2032.3926486718919 -5.2235737281735055 0 -5.2235737281735055 -8504.5396223153803 0 0 0 -1618.0367434108703 1906.4128162594861 -22.12890617523226 0 -22.12890617523226 -8390.4886851253395 0 0 0 -1621.0189672164706 1934.6024127095952 -53.763711778854486 0 -53.763711778854486 -8446.3169339289743 0 0 0 -1627.9286303048357 1853.6895161312132 -61.170294276802451 0 -61.170294276802451 -8459.0669312844839 0 0 0 -1651.3443537883286 1725.9140455518173 -93.123842176690232 0 -93.123842176690232 -8515.4062109509105 0 0 0 -1697.3730413497651 1770.4000676541327 -86.465516283500619 0 -86.465516283500619 -8433.3817343659757 0 0 0 -1665.7454166779498 1800.8349742422724 -70.375020269606466 0 -70.375020269606466 -8361.8017939112324 0 0 0 -1640.2417049172218 1855.4977733499418 -105.78297972222208 0 -105.78297972222208 -8360.5325052142362 0 0 0 -1626.2586829660704 1923.075387173616 -60.192362396534008 0 -60.192362396534008 -8297.0977315371274 0 0 0 -1593.505586090876 1827.6916366721125 -82.280138732610794 0 -82.280138732610794 -8279.6440339593391 0 0 0 -1612.9880993218103 1724.2201526135832 -140.63691093487432 0 -140.63691093487432 -8253.7606211754755 0 0 0 -1632.3851171404822 1732.5096281723745 -94.907849072113095 0 -94.907849072113095 -8278.2512459243299 0 0 0 -1636.4354044379943 1595.1858905152221 -149.81341718761541 0 -149.81341718761541 -8353.0978484721418 0 0 0 -1689.4779894892308 1723.246804513954 -125.05900071522046 0 -125.05900071522046 -8339.0300519070588 0 0 0 -1653.9458118482726 1722.0907497759981 -63.259027889704157 0 -63.259027889704157 -8430.0131493828667 0 0 0 -1676.980599901719 1618.7859897069357 -123.44123140547526 0 -123.44123140547526 -8601.4929418849933 0 0 0 -1745.6767380445162 1649.3253020914563 -119.72583588936686 0 -119.72583588936686 -8352.6422094620648 0 0 0 -1675.8292268426521 1533.7126052076346 -206.87624907628924 0 -206.87624907628924 -8651.839666799031 0 0 0 -1779.5317653978564 1498.9134965175908 -225.85864805418078 0 -225.85864805418078 -8768.3126041924115 0 0 0 -1817.3497769186943 1487.0479034283844 -364.15045609611116 0 -364.15045609611116 -8182.0329872853472 0 0 0 -1673.7462709642432 1561.6421537063479 -75.558787983070943 0 -75.558787983070943 -8066.3462947977459 0 0 0 -1626.1760352728479 1573.470169741202 -81.439993133575626 0 -81.439993133575626 -8224.1398874247679 0 0 0 -1662.6674294209006 1614.300847732733 -133.488027186002 0 -133.488027186002 -8192.5089377451477 0 0 0 -1644.552022503105 1629.630059453506 -86.419735221890733 0 -86.419735221890733 -8002.511362820951 0 0 0 -1593.2203258418522 1698.1721813361291 -93.45972058197367 0 -93.45972058197367 -8131.1132225552283 0 0 0 -1608.2352603047766 1764.9368055550658 -88.745782086123654 0 -88.745782086123654 -8109.5900674898294 0 0 0 -1586.1633154836891 1679.1055559820234 -55.383000965623069 0 -55.383000965623069 -8110.7992628139618 0 0 0 -1607.923426707981 1803.9246978835654 22.402892506783246 0 22.402892506783246 -7928.8503613499488 0 0 0 -1531.2314158666049 1854.2029903327057 -105.64995079153232 0 -105.64995079153232 -8007.5033984704351 0 0 0 -1538.3251020344323 1761.6798781298176 -119.50068871292751 0 -119.50068871292751 -8038.3528957110329 0 0 0 -1569.1682543952948 1830.9067377873871 -74.832416384349926 0 -74.832416384349926 -8082.6349366924478 0 0 0 -1562.932049726267 1813.4547189913865 -115.95984025010966 0 -115.95984025010966 -8110.2075504717941 0 0 0 -1574.1882078701019 1888.4256296361673 -94.777548395228223 0 -94.777548395228223 -8080.3732001476183 0 0 0 -1547.9868926278687 1929.4333774251218 -108.05955704557709 0 -108.05955704557709 -8064.6447359623799 0 0 0 -1533.8028396343061 1890.5970400340448 -114.46491243617493 0 -114.46491243617493 -8114.7494698940427 0 0 0 -1556.0381074650068 1932.4960571424781 -103.23933254047733 0 -103.23933254047733 -8157.3502070196118 0 0 0 -1556.2135374692843 1836.2183302463382 -115.63754750442604 0 -115.63754750442604 -8173.254767090868 0 0 0 -1584.2591092111325 1795.580850519802 -83.734521731646964 0 -83.734521731646964 -8128.5376330405925 0 0 0 -1583.2391956301926 1828.4087954941569 -94.256752405548468 0 -94.256752405548468 -8190.6595526681631 0 0 0 -1590.5626892935034 1852.1940105707436 -119.23242163529358 0 -119.23242163529358 -8260.1132273462536 0 0 0 -1601.9798041938811 1914.1821496212287 -79.502007929026149 0 -79.502007929026149 -8214.8814846073801 0 0 0 -1575.1748337465251 1942.4341523869462 -99.558145712842816 0 -99.558145712842816 -8286.8451779863408 0 0 0 -1586.1027563998632 1979.6673354012746 -76.411877218536119 0 -76.411877218536119 -8193.111452381534 0 0 0 -1553.3610292450612 1974.7933064952522 -90.66948419752589 0 -90.66948419752589 -8203.6977332691968 0 0 0 -1557.226106693488 1935.3711812099791 -110.46372423389403 0 -110.46372423389403 -8162.5593770498817 0 0 0 -1556.7970489599829 1981.4915740414053 -112.77926803026639 0 -112.77926803026639 -8084.7149637607617 0 0 0 -1525.8058474298396 2013.0464638745216 -90.921894822167815 0 -90.921894822167815 -8127.6567360803929 0 0 0 -1528.6525680514715 2008.7157738007736 -77.827517116762465 0 -77.827517116762465 -8129.100299438287 0 0 0 -1530.0961314093802 2041.8421862734685 -81.78367656172486 0 -81.78367656172486 -8179.7705514190602 0 0 0 -1534.4820912863797 2133.8728391946788 -27.018044657030259 0 -27.018044657030259 -8141.0314780089975 0 0 0 -1501.7896597035724 2061.2520727003212 -46.392826606330345 0 -46.392826606330345 -8119.7140958769014 0 0 0 -1514.6155057941505 2063.899258915073 -45.692709329436184 0 -45.692709329436184 -8174.5736156052881 0 0 0 -1527.6685891725574 2160.2579778510262 -18.382018379226793 0 -18.382018379226793 -8203.0277239784482 0 0 0 -1510.6924365318482 2041.0130810965857 -59.119661193573847 0 -59.119661193573847 -8239.2986466324946 0 0 0 -1549.5713913839718 2036.6793814518751 -47.813645385334894 0 -47.813645385334894 -8241.7073100821872 0 0 0 -1551.2569821575744 2037.4201663456001 -38.446927993703866 0 -38.446927993703866 -8025.5907308814249 0 0 0 -1497.0426411339472 2078.9757429019301 -38.690680888350471 0 -38.690680888350471 -8011.7822782129806 0 0 0 -1483.2016338277608 2029.7559312508856 -62.711245941507514 0 -62.711245941507514 -8046.3950894584705 0 0 0 -1504.1597895518898 2082.2765476459463 -27.998137125992798 0 -27.998137125992798 -8053.6693494575738 0 0 0 -1492.8482004529142 2068.6299859670689 -35.367816086567473 0 -35.367816086567473 -8064.5209271292551 0 0 0 -1498.9727352905611 2119.0040912324766 -29.255561485618983 0 -29.255561485618983 -8089.5600517497514 0 0 0 -1492.6389901293296 2077.8424632050155 -62.525139399556792 0 -62.525139399556792 -8093.826658381091 0 0 0 -1503.9960487940407 2078.105208331428 -56.156221849172653 0 -56.156221849172653 -8050.9960155054578 0 0 0 -1493.2227017935074 2036.5380511486583 -88.591037072859763 0 -88.591037072859763 -8066.4612659161503 0 0 0 -1507.4808036918839 2027.0235424109051 -77.287459557323018 0 -77.287459557323018 -8088.3987954628537 0 0 0 -1515.343813262989 1988.7240409467777 -93.435823450083262 0 -93.435823450083262 -8082.0180048150069 0 0 0 -1523.32349096705 2002.87423356621 -94.408702242435538 0 -94.408702242435538 -8044.5173064495029 0 0 0 -1510.4107682208123 2025.6250710107706 -84.180663755330897 0 -84.180663755330897 -7996.5091452646593 0 0 0 -1492.7210185634685 2045.3497083150141 -79.419415787277103 0 -79.419415787277103 -8020.087261827015 0 0 0 -1493.6843883779948 2035.2427296841915 -71.727224868707708 0 -71.727224868707708 -7990.5510227856248 0 0 0 -1488.8270732753599 2004.8871372630238 -91.060338901508658 0 -91.060338901508658 -7967.0415323367342 0 0 0 -1490.5385987684276 2026.3045445589123 -83.838874304659839 0 -83.838874304659839 -7905.218005142553 0 0 0 -1469.7283651459111 1988.4293095476096 -114.19141274501453 0 -114.19141274501453 -7951.8402670447394 0 0 0 -1490.8527393742916 2030.9269241655711 -91.812943413376161 0 -91.812943413376161 -7976.0286860149063 0 0 0 -1486.2754404623265 2006.2449329481169 -106.00529840764375 0 -106.00529840764375 -8033.5446375464671 0 0 0 -1506.8249261495948 1983.7551184386175 -109.16115301042737 0 -109.16115301042737 -8004.2420574608332 0 0 0 -1505.1217347555576 1935.6468386353008 -102.41266496392927 0 -102.41266496392927 -8057.054627971811 0 0 0 -1530.3519473341366 1963.468425098974 -99.439839909944567 0 -99.439839909944567 -7991.7298431214876 0 0 0 -1507.0653545056266 1981.1911484124284 -95.207530564604895 0 -95.207530564604895 -7999.3517639011843 0 0 0 -1504.5401538721781 1929.3135170682726 -82.468470748979598 0 -82.468470748979598 -7987.4976225738064 0 0 0 -1514.5460263763816 1896.8904504048478 -75.376844430304345 0 -75.376844430304345 -7972.5802974098769 0 0 0 -1518.9224617512591 1883.8294668115341 -111.56976549819956 0 -111.56976549819956 -8019.4951470587403 0 0 0 -1533.9164200618034 1954.09577134141 -69.370656020095339 0 -69.370656020095339 -7963.0103742540741 0 0 0 -1502.2286507281678 1822.0828635382932 17.858160776944715 0 17.858160776944715 -8082.3771880207933 0 0 0 -1565.0735811206105 1988.2599210586995 -116.2595918189254 0 -116.2595918189254 -7870.1829236943158 0 0 0 -1470.4807506589059 1964.6035547385836 -110.42300026086741 0 -110.42300026086741 -7975.6868710278068 0 0 0 -1502.7708290722949 1986.6203788637804 -105.09089774153836 0 -105.09089774153836 -7970.582688767613 0 0 0 -1495.9905774759527 2047.7189269646924 -54.531526126185781 0 -54.531526126185781 -7825.1083028265712 0 0 0 -1444.347343965469 1982.3904376566134 -19.90238732141006 0 -19.90238732141006 -7894.7963928051468 0 0 0 -1478.1014887871279 2083.517665898049 -63.450359728522017 0 -63.450359728522017 -7699.4481474628556 0 0 0 -1403.9826203912016 2045.3055144048485 -110.97897783371445 0 -110.97897783371445 -7859.5018068990903 0 0 0 -1453.549073123555 2085.1944283805788 4.8785499968653312 0 4.8785499968653312 -7736.8407331029011 0 0 0 -1412.9115761805879 2084.4996108874184 2.9834402818814851 0 2.9834402818814851 -7672.0145914776658 0 0 0 -1396.8787451475582 2160.1530811848925 65.022672912775306 0 65.022672912775306 -7657.7872287133905 0 0 0 -1374.4085368821334 2097.7446189258844 19.416029167085071 0 19.416029167085071 -7780.8293005850574 0 0 0 -1420.7711704147951 2106.586477416844 6.672876407399599 0 6.672876407399599 -7736.9326596601459 0 0 0 -1407.5865455608291 2041.4407890397051 -37.681670557581128 0 -37.681670557581128 -7904.2409445090743 0 0 0 -1465.7000388673405 2077.1909029312519 -22.391048125042289 0 -22.391048125042289 -7796.9906028347614 0 0 0 -1429.949924975881 2078.6785729682597 -21.617487015356346 0 -21.617487015356346 -7801.6481109753076 0 0 0 -1430.7423845017693 2039.4401879682555 -74.404392888724942 0 -74.404392888724942 -7931.3992638321652 0 0 0 -1472.9897689659774 2039.6796409574526 -77.127748350525508 0 -77.127748350525508 -7861.6846842614177 0 0 0 -1455.5012608259858 2053.9397125460382 -66.066068173364329 0 -66.066068173364329 -7883.5797393848916 0 0 0 -1457.4100067097133 2008.7547767113283 -79.902785050422608 0 -79.902785050422608 -7907.6488363198296 0 0 0 -1474.7235149021144 2046.0897716464533 -72.0444464894681 0 -72.0444464894681 -7932.9097421185579 0 0 0 -1471.7049926180334 2065.504495476227 -54.798571355131571 0 -54.798571355131571 -7972.0845761674282 0 0 0 -1476.6450201728003 2038.0175764913729 -46.097012090011049 0 -46.097012090011049 -7948.1422909826506 0 0 0 -1477.5311786228121 2036.1090478228216 -38.39867181104637 0 -38.39867181104637 -7977.0271234299289 0 0 0 -1485.229518901775 2054.5186898847314 -50.475748807119089 0 -50.475748807119089 -7888.2059212564782 0 0 0 -1458.4218078429403 2055.0316008307491 -27.2625210423721 0 -27.2625210423721 -7876.0020899498195 0 0 0 -1455.2426222797585 2041.3277089124167 -16.34263573915814 0 -16.34263573915814 -7937.3316035955504 0 0 0 -1474.0009736707871 2031.9584000258328 -19.718495669747426 0 -19.718495669747426 -7941.1806941485265 0 0 0 -1477.3055735306989 2037.1584218322314 -22.750926117194467 0 -22.750926117194467 -7935.3845539209724 0 0 0 -1474.5565330221798 2042.5176568540483 -20.822317473117437 0 -20.822317473117437 -7960.2129926709167 0 0 0 -1479.4238339542208 2022.6674240253897 -5.0987216604844434 0 -5.0987216604844434 -7964.0417336352948 0 0 0 -1485.343577402472 2024.294059178952 -4.2705851347054704 0 -4.2705851347054704 -7977.0219084127457 0 0 0 -1488.1819623084375 2021.3314792529127 -3.7189265093911672 0 -3.7189265093911672 -7977.1545459875488 0 0 0 -1488.9557666836627 2021.7332492981222 -9.1278130452192272 0 -9.1278130452192272 -7988.0905678657291 0 0 0 -1491.5893296418944 2033.4319053888466 -14.633872417471139 0 -14.633872417471139 -8002.565174765914 0 0 0 -1492.2833173442632 2045.2313695522407 -23.444208986300509 0 -23.444208986300509 -7976.3897824867017 0 0 0 -1482.7896032336193 2061.3615918408905 -24.483493639156222 0 -24.483493639156222 -7992.68854579053 0 0 0 -1482.8317384874244 2071.411676282376 -158.75688627240379 0 -158.75688627240379 -7970.9531799807155 0 0 0 -1474.8853759245903 2115.8696797939774 -126.29155977514165 0 -126.29155977514165 -7939.1796593903855 0 0 0 -1455.8274948991093 2169.1469549610483 -130.74988751416822 0 -130.74988751416822 -7929.3779362653731 0 0 0 -1440.0577453260921 2130.1384602657126 -124.2785005293681 0 -124.2785005293681 -7867.0322843932081 0 0 0 -1434.2234560318757 2061.4534445415698 -147.54955916172912 0 -147.54955916172912 -7885.8435819034075 0 0 0 -1456.0975343404577 2008.1723041373843 -181.23065676510214 0 -181.23065676510214 -7991.1013267620874 0 0 0 -1495.7322556561703 1999.4629292842728 -148.78946339459617 0 -148.78946339459617 -7975.7310029373912 0 0 0 -1494.0670184132832 2020.7273908544812 -140.83484557127304 0 -140.83484557127304 -8029.820048207388 0 0 0 -1502.2731643382212 1966.4746246189679 -170.44698702659662 0 -170.44698702659662 -8096.2397399196634 0 0 0 -1532.441278825172 1901.6611243159559 -145.61144684767351 0 -145.61144684767351 -8106.3854512561011 0 0 0 -1551.1810817350388 2071.2389552228851 -118.34754545855685 0 -118.34754545855685 -8058.280179116322 0 0 0 -1496.7603059733592 2085.4486065683232 -148.6287514613723 0 -148.6287514613723 -8051.2567050857178 0 0 0 -1491.4520246293541 2042.3491065692542 -160.57290857111002 0 -160.57290857111002 -7980.1438275076071 0 0 0 -1484.4486802345891 2125.1724787392013 -131.4817955886034 0 -131.4817955886034 -7932.9587451718689 0 0 0 -1451.9465666081669 2177.7311322569367 -107.984207554553 0 -107.984207554553 -8006.9693974964321 0 0 0 -1457.3095663098757 2191.5131895211416 -107.92311154913477 0 -107.92311154913477 -7965.5675716183032 0 0 0 -1443.513595524284 2317.8934298084059 -34.218127517939138 0 -34.218127517939138 -7461.28818202806 0 0 0 -1285.8486880549026 2219.1236385058437 -42.872129753865011 0 -42.872129753865011 -8375.3492266960966 0 0 0 -1539.0563970475705 2378.5825820018217 -68.357140452208114 0 -68.357140452208114 -7903.872437491591 0 0 0 -1381.3224638724423 1905.743234128493 100.45524575574382 0 100.45524575574382 -7697.8939072448484 0 0 0 -1448.0376682790975 1814.94715069214 199.08977703142298 0 199.08977703142298 -8042.4084454144759 0 0 0 -1556.8653236805694 2301.1746633857765 -235.24665780708165 0 -235.24665780708165 -7938.004629314717 0 0 0 -1409.2074914822369 -3.5119433163083897 -5.666315186170916 0 -5.666315186170916 -11.831981259522649 0 0 0 -3.8359811439577811 2094.969606528357 -82.344991742662387 0 -82.344991742662387 -7920.8634003455518 0 0 0 -1456.4734484542932 1957.8193929834124 -33.095287633870612 0 -33.095287633870612 -8305.0416498587147 0 0 0 -1586.8055642188228 1966.5093690281792 -134.85655001269697 0 -134.85655001269697 -7597.5163997663622 0 0 0 -1407.7517576845567 -3.3614109205296216 -6.0247466275856816 0 -6.0247466275856816 -11.781803812501551 0 0 0 -3.7858036832577966 2234.7101592395629 152.53069008373132 0 152.53069008373132 -7875.0940399894898 0 0 0 -1410.0959701874817 1904.0631728038315 -262.32642300023144 0 -262.32642300023144 -7959.7286679600802 0 0 0 -1513.9163737890594 -3.8650121148593826 -6.2059354260618953 0 -6.2059354260618953 -11.949670892763834 0 0 0 -3.9536707519058041 2134.4730858616513 68.327723691465508 0 68.327723691465508 -7586.9377518135498 0 0 0 -1363.116166487971 2170.9778906510255 -69.93102389183332 0 -69.93102389183332 -7879.1067487940309 0 0 0 -1427.0322145357422 2224.7317390609242 -30.94123862458946 0 -30.94123862458946 -7371.0118990694027 0 0 0 -1286.5700400021233 2148.6160040380128 -107.74892502586954 0 -107.74892502586954 -7824.3955965637579 0 0 0 -1418.9448981314345 2057.1470453513484 -57.92294398166996 0 -57.92294398166996 -7891.2523816640605 0 0 0 -1458.5263340781803 2314.5006216760448 -28.477425918497829 0 -28.477425918497829 -7731.4798740131955 0 0 0 -1354.2448130842895 2160.8161431232265 -107.70394450535969 0 -107.70394450535969 -7820.5140027832786 0 0 0 -1414.924464915016 2186.4970666607041 -269.98550212757254 0 -269.98550212757254 -7832.8988804453547 0 0 0 -1411.6004534461645 2172.7369337274431 -21.839417741432044 0 -21.839417741432044 -8223.391117856052 0 0 0 -1512.6635460321486 2008.0258663349778 63.576600413383858 0 63.576600413383858 -7851.9253490372903 0 0 0 -1460.9748706755818 2046.6745598324269 173.41272669812315 0 173.41272669812315 -7976.9514533542097 0 0 0 -1482.5692233804511 -1.9728375438487546 -6.2486198005495481 0 -6.2486198005495481 -11.318946049786064 0 0 0 -3.3229458984087046 2199.8984593050554 220.60900871751801 0 220.60900871751801 -7749.3402821437921 0 0 0 -1387.3604557096696 2158.5539056439338 -262.32393183440581 0 -262.32393183440581 -7939.8721981154995 0 0 0 -1445.3295731178914 2187.3627020473286 -157.00403418277892 0 -157.00403418277892 -7460.420238809791 0 0 0 -1318.2643841906174 2115.6588425494665 52.336065645125927 0 52.336065645125927 -7423.5006296295323 0 0 0 -1326.9604467700228 -9.0492740206371423 -6.1613311742194838 0 -6.1613311742194838 -13.677758223136209 0 0 0 -5.681758060943352 2281.5955736535398 138.83193889781251 0 138.83193889781251 -7614.7432095643017 0 0 0 -1333.2869089776941 2206.4236113266088 40.353170687645616 0 40.353170687645616 -7869.9010628076212 0 0 0 -1415.8693628702531 2143.1387659750144 -16.010747579108283 0 -16.010747579108283 -7621.5860988488712 0 0 0 -1369.6118332184633 2176.4704659393901 95.545508485563914 0 95.545508485563914 -7313.1351312785264 0 0 0 -1284.1661663347913 2253.0876432328369 -179.9119794136239 0 -179.9119794136239 -7427.5593347402755 0 0 0 -1293.6179228768597 2121.0921053808925 -59.53244875814562 0 -59.53244875814562 -7777.8131734526542 0 0 0 -1414.1802670179386 2159.4022239732294 -78.895645958115892 0 -78.895645958115892 -7618.7075032369466 0 0 0 -1364.8263198159257 2034.3846264002386 -70.107369417484733 0 -70.107369417484733 -7688.038199216011 0 0 0 -1413.413393203944 2074.2467449437754 -40.476128884445643 0 -40.476128884445643 -7689.7851649546501 0 0 0 -1403.8846050027205 2093.8989405146131 -40.604553444472955 0 -40.604553444472955 -7630.8246881516534 0 0 0 -1384.2314369092564 2071.6799020232502 -62.779627041898493 0 -62.779627041898493 -7783.215294055175 0 0 0 -1427.8838480079794 2102.9325951347491 -69.548282444386132 0 -69.548282444386132 -7684.2125756847672 0 0 0 -1395.3199951375063 2089.4861977266701 -123.94188942461187 0 -123.94188942461187 -7786.1773451160116 0 0 0 -1424.172786847339 2075.0948182676148 -128.96710110555432 0 -128.96710110555432 -7884.6531443752974 0 0 0 -1452.3895815269207 2150.6070168020451 -84.659610028782481 0 -84.659610028782481 -7750.0268691070669 0 0 0 -1399.8549630762573 2032.8111873074959 -153.20556654378015 0 -153.20556654378015 -7777.2456274909782 0 0 0 -1436.1086100458706 2024.8154886469861 -165.58955862578296 0 -165.58955862578296 -7897.5877161747831 0 0 0 -1468.1930568819512 2030.5164334984693 -119.11094957792375 0 -119.11094957792375 -7721.9102825029404 0 0 0 -1422.8484622511169 2050.298427448367 -114.34681180601183 0 -114.34681180601183 -7800.3802517789445 0 0 0 -1437.5204560826469 2008.6234789086811 -130.41594970424921 0 -130.41594970424921 -7771.5384893050068 0 0 0 -1440.728752599076 2048.2274647408285 -66.165286944054969 0 -66.165286944054969 -7648.9058804237575 0 0 0 -1400.1696039207363 2004.8783440250518 -55.924611739446846 0 -55.924611739446846 -7567.0399180352106 0 0 0 -1390.5403935025315 1981.5028999041024 -67.21148643457127 0 -67.21148643457127 -7626.5440417843347 0 0 0 -1411.2602854700453 1999.3218117457 -63.265410822699778 0 -63.265410822699778 -7426.1246978148411 0 0 0 -1356.7007215172853 1936.9332219610951 -116.52199835420834 0 -116.52199835420834 -7614.5373341618397 0 0 0 -1419.4010280501752 2010.8746437129448 -101.74315534409834 0 -101.74315534409834 -7650.064649767126 0 0 0 -1409.7975015135453 1997.2806194726754 -117.28043735974643 0 -117.28043735974643 -7643.8713929461737 0 0 0 -1411.6476933683707 1926.3961217228825 -3.2078629491176756 0 -3.2078629491176756 -7227.1767384155974 0 0 0 -1325.195154173176 1887.8000138448417 -97.192807565774274 0 -97.192807565774274 -7341.7803745850979 0 0 0 -1363.4950901850632 1966.4115902383128 -60.719636493557118 0 -60.719636493557118 -7481.5515014143602 0 0 0 -1378.7849777940064 1912.9325873209127 -136.82495212919275 0 -136.82495212919275 -7772.0661093215895 0 0 0 -1464.783380500161 1918.738374064802 -176.63469798551523 0 -176.63469798551523 -7642.6427014285582 0 0 0 -1430.9760818409468 1909.2399377679212 -188.9434540153743 0 -188.9434540153743 -7881.2778686709789 0 0 0 -1493.0094827257635 1894.748880114832 -156.4206319765417 0 -156.4206319765417 -8004.8640741641138 0 0 0 -1527.5287985123214 1851.9753855242998 -164.34865213887679 0 -164.34865213887679 -7808.2110730093264 0 0 0 -1489.0589218712594 1949.3857405827202 -183.26033132944576 0 -183.26033132944576 -7752.2811686061541 0 0 0 -1450.7238570058598 1963.603857955899 -149.61951703347586 0 -149.61951703347586 -7825.3700119342393 0 0 0 -1465.441538494586 2018.055799652946 -155.06462791873491 0 -155.06462791873491 -7874.9070208924677 0 0 0 -1464.2128053098822 1959.6201612667737 -179.76200315255119 0 -179.76200315255119 -7909.4950361557421 0 0 0 -1487.4687187222426 1949.4856182083531 -179.20655893686126 0 -179.20655893686126 -8061.9727342356637 0 0 0 -1528.1217790068258 1930.3651909422551 -149.71401763552058 0 -149.71401763552058 -7996.2470148592838 0 0 0 -1516.4704559792517 1901.8739984413769 -165.64899011437956 0 -165.64899011437956 -8107.7193485559401 0 0 0 -1551.4613375286353 1957.5143641418108 -184.4672026168555 0 -184.4672026168555 -7993.0017047332076 0 0 0 -1508.8718351478528 1874.1049981147225 -154.92163179812633 0 -154.92163179812633 -8006.8058357974878 0 0 0 -1533.1752094206968 1934.0856881178552 -135.7577446627256 0 -135.7577446627256 -7973.4783038221503 0 0 0 -1509.8481539260756 1812.1435651588386 -123.08703424205305 0 -123.08703424205305 -8021.4365133641522 0 0 0 -1552.3232370513228 1776.582323312723 -96.734430012145822 0 -96.734430012145822 -8199.0317253462272 0 0 0 -1605.6123505083888 1847.6515428953207 -151.01769760748357 0 -151.01769760748357 -8112.4173745476583 0 0 0 -1566.1914579130753 1821.9146582856156 -132.07505684426724 0 -132.07505684426724 -8202.5094175252452 0 0 0 -1595.1486898099065 1734.2573424763796 -92.862808210378716 0 -92.862808210378716 -8174.7979781718495 0 0 0 -1610.1351589238657 1719.4487468625593 -54.385652101735104 0 -54.385652101735104 -8274.8927009108083 0 0 0 -1638.8609885120568 1770.6684153740689 -60.524349919767701 0 -60.524349919767701 -8241.9384661289751 0 0 0 -1617.8175126887281 1808.9596437864529 -129.83999116597897 0 -129.83999116597897 -8217.4697217431094 0 0 0 -1602.1275194891568 1862.5317633404097 -101.5649740264198 0 -101.5649740264198 -8157.1456006856679 0 0 0 -1573.6534593363199 1899.2799933335409 -155.84592505488763 0 -155.84592505488763 -8149.1473623327474 0 0 0 -1562.4668422498071 1934.4846443680003 -133.2488173184247 0 -133.2488173184247 -8068.298798702459 0 0 0 -1533.4535385836202 1846.5550924570143 -120.84082150390168 0 -120.84082150390168 -8107.1683703963208 0 0 0 -1565.1533194848216 1057.993211980096 87.8797559792838 0 87.8797559792838 -8808.1339196248737 0 0 0 -1937.535176911193 -3.5738231664490314 10.86678328881893 0 10.86678328881893 -11.847275505532821 0 0 0 -3.8552746679954737 1142.623881813257 -116.2686010815014 0 -116.2686010815014 -8355.8776812259639 0 0 0 -1803.3134498531763 1316.7777265542027 275.32499204124179 0 275.32499204124179 -8393.2600513860707 0 0 0 -1769.1205812079679 1452.6035530446388 36.741982048994942 0 36.741982048994942 -7930.3232371863705 0 0 0 -1619.4299210354293 1528.1524024337605 3.6561847196207964 0 3.6561847196207964 -8312.6885174908311 0 0 0 -1696.1340287642661 1403.8610775745183 -53.050379278593027 0 -53.050379278593027 -8302.9859985834628 0 0 0 -1724.7812302522398 1692.8244138868031 -98.123798226512008 0 -98.123798226512008 -8184.1275503751822 0 0 0 -1622.8257841220984 1561.8322676560765 -107.5103651763493 0 -107.5103651763493 -8752.0369140434777 0 0 0 -1797.5511615968517 1679.7185100835486 -84.137800251286535 0 -84.137800251286535 -8188.087128657804 0 0 0 -1627.0921546435638 1505.6625289399708 -155.40228587263482 0 -155.40228587263482 -8173.0333249572068 0 0 0 -1666.8426990043081 1695.8233616736215 -53.779210002827313 0 -53.779210002827313 -8017.6266962151713 0 0 0 -1580.4508336353865 1584.2827805170236 -10.979764979952961 0 -10.979764979952961 -7621.0849015618733 0 0 0 -1509.2005302612233 1490.4407049608672 216.74688529292689 0 216.74688529292689 -8031.6267723414057 0 0 0 -1635.2965168451337 1175.773249986154 374.90757119753835 0 374.90757119753835 -8046.6650536940797 0 0 0 -1717.7229509269837 1704.7439916423027 -21.156478936545682 0 -21.156478936545682 -7898.7624738688755 0 0 0 -1548.5046205566396 -3.8869255232862798 10.208811472931792 0 10.208811472931792 -11.951643253058194 0 0 0 -3.9596421940861291 1331.0062542564137 -257.67778418910166 0 -257.67778418910166 -8213.3414680933492 0 0 0 -1720.5838034592325 1562.8959769925896 379.37839317860784 0 379.37839317860784 -8385.1861964603304 0 0 0 -1705.5725548669325 -3.4212034654448047 10.758667336433859 0 10.758667336433859 -11.796402419062872 0 0 0 -3.8044014711269085 1702.5740566098211 -96.69152419558668 0 -96.69152419558668 -8239.5066945608123 0 0 0 -1634.2331594877469 -2.0912862958971914 9.5824038161954306 0 9.5824038161954306 -11.353096991615246 0 0 0 -3.3610958218781235 1706.1305551757541 -378.44768965352341 0 -378.44768965352341 -7779.6010429657254 0 0 0 -1518.367621947491 1948.9032337295425 311.29229373250928 0 311.29229373250928 -8181.4773552898714 0 0 0 -1558.1435303900839 1850.1843384072217 177.28477334694799 0 177.28477334694799 -7363.6321579184805 0 0 0 -1378.3619548778133 1861.8968932709918 -104.52913051673022 0 -104.52913051673022 -7982.6165796387413 0 0 0 -1530.1799215919368 1894.6845636679536 -133.85204523996526 0 -133.85204523996526 -7781.7399844022584 0 0 0 -1471.7638551835807 1745.1565815286995 -16.081509871597518 0 -16.081509871597518 -8505.8195415351875 0 0 0 -1690.1657400016229 1696.2991721905223 -261.61719632407767 0 -261.61719632407767 -7870.1977466386961 0 0 0 -1543.4746436120454 1856.5493015995598 -152.31281244752427 0 -152.31281244752427 -7398.8075859742094 0 0 0 -1385.5645710936587 1820.9096231807234 -152.05017120379398 0 -152.05017120379398 -7044.8365599067183 0 0 0 -1305.9817341814996 1970.8506290676064 133.5268919320697 0 133.5268919320697 -7142.1686053489138 0 0 0 -1292.8294940703295 1886.7819271786648 89.841364722889466 0 89.841364722889466 -7232.8527058120599 0 0 0 -1336.5176946583488 1916.365080674108 -59.514768358709262 0 -59.514768358709262 -7382.7713581143453 0 0 0 -1366.6015693600621 1916.5014000374085 -118.02425608313933 0 -118.02425608313933 -7257.4464081455808 0 0 0 -1335.2362520270381 -8.7372605722900403 9.1446826037845028 0 9.1446826037845028 -13.56842189541328 0 0 0 -5.5764206169258301 2004.05198069369 -114.10606186871925 0 -114.10606186871925 -7258.5335786818177 0 0 0 -1313.620399497031 1901.9479454002994 -98.778279074802413 0 -98.778279074802413 -7252.1222058561107 0 0 0 -1337.5435651139487 1965.3784526936633 -62.950095249969308 0 -62.950095249969308 -7259.1299226153333 0 0 0 -1323.4378674804193 1697.9667893659735 -45.042630505415218 0 -45.042630505415218 -7038.5110172028581 0 0 0 -1335.1360569592198 1833.881503722565 38.071547546196598 0 38.071547546196598 -7703.2150320832734 0 0 0 -1467.3333820901789 1690.2541739053165 -24.246297403977223 0 -24.246297403977223 -7343.1337489265479 0 0 0 -1413.2198937553069 1765.2784934387091 -105.73907501379654 0 -105.73907501379654 -7368.7431765471556 0 0 0 -1400.8661707771062 1799.0253259519232 57.920004650232841 0 57.920004650232841 -7778.0150488664112 0 0 0 -1494.747430728622 1493.247427888211 595.26595944138921 0 595.26595944138921 -8695.3487430828536 0 0 0 -1800.5253287986598 1727.8361173152753 161.72306331633717 0 161.72306331633717 -7285.7088853200912 0 0 0 -1389.4681920012026 1560.0008836174175 565.35677385647614 0 565.35677385647614 -8357.2249135961574 0 0 0 -1699.3060074946879 1181.8635002392639 591.7913659089636 0 591.7913659089636 -8296.4505748175434 0 0 0 -1778.6467686445703 915.3328791487329 1191.8566728259996 0 1191.8566728259996 -8820.9762721034422 0 0 0 -1976.4108482386782 906.40401755340918 816.86013705152618 0 816.86013705152618 -8603.1189439614463 0 0 0 -1924.17873160201 1257.1461118327493 329.90803033628981 0 329.90803033628981 -8248.1850772009348 0 0 0 -1747.7597413420449 1676.4517489460559 258.80497083076853 0 258.80497083076853 -8132.2942984108086 0 0 0 -1613.9606373661918 1585.8569305543865 173.59652048529642 0 173.59652048529642 -7700.8656786379561 0 0 0 -1528.7521870208943 -1119.9363073060008 2674.0584816691194 0 2674.0584816691194 -9289.4182818206828 0 0 0 -2602.3386472816701 -3688.533265595996 3700.7290627935563 0 3700.7290627935563 -11093.942397961324 0 0 0 -3695.6189158893303 -877.33181968497297 3037.0557716070352 0 3037.0557716070352 -14506.314896532482 0 0 0 -3845.911679054363 2722.0913302062809 967.41882147004617 0 967.41882147004617 -9745.4503803628741 0 0 0 -1755.839762539149 -595.87014883676693 2579.3543984732532 0 2579.3543984732532 -11117.345344349544 0 0 0 -2928.3038732965788 1709.8368784866907 1296.7786348550617 0 1296.7786348550617 -8794.3757881709025 0 0 0 -1771.134727421053 1344.1788623517996 966.97260423765783 0 966.97260423765783 -9464.1360439939235 0 0 0 -2029.9892954105326 1191.6021177238745 819.52778089820822 0 819.52778089820822 -8674.0403779427725 0 0 0 -1870.6095650547231 1759.8690961989228 277.32376806310003 0 277.32376806310003 -7681.020850066725 0 0 0 -1480.2879384669509 1180.3835542410943 954.17489865062544 0 954.17489865062544 -8385.0621347540146 0 0 0 -1801.1696451282314 -202.25845889246148 1456.657950991631 0 1456.657950991631 -8669.4306329182455 0 0 0 -2217.9222729526768 -1327.6878430130885 2252.0868641067377 0 2252.0868641067377 -8957.6126492373278 0 0 0 -2571.3251230626047 363.52659044243956 1962.5764028236099 0 1962.5764028236099 -9561.3090310026091 0 0 0 -2299.4456101400428 -557.55409037327308 1928.6430883790374 0 1928.6430883790374 -8651.7714377575849 0 0 0 -2302.3313820327144 -1289.5061601134298 2750.5919013800462 0 2750.5919013800462 -9322.2352502846279 0 0 0 -2652.9353525995143 -2812.8544723211107 2466.0953365628616 0 2466.0953365628616 -8443.3663649411501 0 0 0 -2814.0552093155652 -2817.0673586027433 2467.8832235080031 0 2467.8832235080031 -8444.7697827584634 0 0 0 -2815.4592853403019 -2602.1871609111181 1698.3654460091354 0 1698.3654460091354 -7805.8056984016175 0 0 0 -2601.9982148281842 -1372.1190613363362 1902.9656062050781 0 1902.9656062050781 -7799.4441183003155 0 0 0 -2292.8907949091627 -1177.9155690971597 1509.0390253733572 0 1509.0390253733572 -7952.0526026109383 0 0 0 -2282.4920429270251 -1806.0963615165126 1808.3864579952483 0 1808.3864579952483 -7920.846128496034 0 0 0 -2431.7356225031367 -1189.7794281894489 1678.245286583503 0 1678.245286583503 -8472.1933465750953 0 0 0 -2415.4931936911362 37.827725084648591 1596.2136447302155 0 1596.2136447302155 -8126.6804612605174 0 0 0 -2022.213184043967 -338.31078811009411 1283.7963895497001 0 1283.7963895497001 -8118.6455485827064 0 0 0 -2114.2390841732004 -437.15337427896702 1261.5355905233419 0 1261.5355905233419 -8406.6025677522557 0 0 0 -2210.9389855078061 -980.29128657606361 1374.6193666598988 0 1374.6193666598988 -8325.7586147033562 0 0 0 -2326.5124753198561 -1075.7065216145959 1077.7719296555779 0 1077.7719296555779 -8312.7916923748799 0 0 0 -2347.1245534973668 -448.17403032765287 1064.9825370365952 0 1064.9825370365952 -8103.5062035985429 0 0 0 -2137.9200584815508 -1393.7257650262509 1197.4838064347939 0 1197.4838064347939 -8134.2488261399649 0 0 0 -2381.9936477915526 -1937.9601921181666 1503.7440218591014 0 1503.7440218591014 -8075.7459812052166 0 0 0 -2503.426543330846 -1626.9351086681102 1411.3711520116926 0 1411.3711520116926 -7913.9066370569253 0 0 0 -2385.210436431259 -2017.0777883063515 1241.8439868708674 0 1241.8439868708674 -7701.4613426388623 0 0 0 -2429.6347827363038 -2588.746262409089 1416.1649181107739 0 1416.1649181107739 -7767.7747064296645 0 0 0 -2589.1302422096878 -1767.1011811372957 1542.3437506806874 0 1542.3437506806874 -7510.1183386388348 0 0 0 -2319.3048799440326 1012.6430862644265 594.09209656737039 0 594.09209656737039 -8346.2127314486788 0 0 0 -1833.3924112960631 689.61176347953733 673.43173984392524 0 673.43173984392524 -8429.7492022559927 0 0 0 -1935.0343596941129 1122.9149502074033 314.05609832720074 0 314.05609832720074 -8394.9778326402666 0 0 0 -1818.0157206082113 1420.4720789109469 419.53772254087289 0 419.53772254087289 -8248.1398555024134 0 0 0 -1706.9169441478643 424.43740492986672 904.69721196855426 0 904.69721196855426 -8372.3035626067485 0 0 0 -1986.9665394192225 473.98536129795048 1231.7509749337223 0 1231.7509749337223 -8351.3169138563935 0 0 0 -1969.3328881396101 759.3657285414356 833.38436856254827 0 833.38436856254827 -8315.7369772084421 0 0 0 -1889.0928121667512 340.84123853475649 796.84985229413178 0 796.84985229413178 -8269.1103873997199 0 0 0 -1982.0672872162395 11.231883836425823 903.63111881186978 0 903.63111881186978 -8398.4133696424196 0 0 0 -2096.7953714514992 -18.504067665757248 1150.5135641577581 0 1150.5135641577581 -8260.0988935326786 0 0 0 -2069.6507402996103 -365.4124689478997 869.60194226262502 0 869.60194226262502 -8471.4169206983479 0 0 0 -2209.2073474115623 614.01496574757584 558.38691979920623 0 558.38691979920623 -8342.3164358319773 0 0 0 -1932.0753675211035 284.38678391130452 636.7483909343855 0 636.7483909343855 -8419.476075925566 0 0 0 -2033.7723230035663 1118.8802498262485 340.14496463651381 0 340.14496463651381 -8432.6651037490956 0 0 0 -1828.4462134807145 661.46646435848743 323.97132163524657 0 323.97132163524657 -8299.7548709019684 0 0 0 -1909.5721016358693 425.41008870759288 408.71456061159188 0 408.71456061159188 -8438.8283519493998 0 0 0 -2003.3545658104485 460.23385703764689 435.43392615946141 0 435.43392615946141 -8342.5305271915786 0 0 0 -1970.5741675384816 174.68940535511501 452.63854963970698 0 452.63854963970698 -8437.7120110857359 0 0 0 -2065.755651432657 608.68736721656023 288.66171781128651 0 288.66171781128651 -8380.7638758963512 0 0 0 -1943.0191271699514 6.5242199396871001 405.90008850894992 0 405.90008850894992 -8391.3696902000593 0 0 0 -2096.2113675650926 69.682501261917878 589.51170443848241 0 589.51170443848241 -8468.9695328104171 0 0 0 -2099.821757887124 139.13924616092481 630.78914321875618 0 630.78914321875618 -8313.984601022923 0 0 0 -2043.7113387155005 -364.6486830378135 823.39217614231347 0 823.39217614231347 -8186.7623304953759 0 0 0 -2137.8527533832957 -697.17737221608422 828.66373540960194 0 828.66373540960194 -8297.7651623186521 0 0 0 -2248.7356336336834 -156.54248920764587 664.69911485931152 0 664.69911485931152 -8408.8663079286234 0 0 0 -2141.3521992840665 -410.08290451436733 555.1542265623857 0 555.1542265623857 -8376.4436053302925 0 0 0 -2196.6316274611654 -333.22768045586963 588.38780325273729 0 588.38780325273729 -8356.3993207438652 0 0 0 -2172.4067502999314 -716.73641890870113 575.01191721239593 0 575.01191721239593 -8226.7118535459558 0 0 0 -2235.8620681136645 -804.49693141826174 452.39859001747845 0 452.39859001747845 -8423.4321202237516 0 0 0 -2306.9822629105038 -150.30326439228247 336.2718148668846 0 336.2718148668846 -8464.1422207120668 0 0 0 -2153.6113712760898 -189.2557973710027 226.67136818010749 0 226.67136818010749 -8465.4357851405657 0 0 0 -2163.6728956278894 -9.8092313020242727 253.22042727987446 0 253.22042727987446 -8525.225174594525 0 0 0 -2133.7586014741319 -367.79757770883589 338.28236150275188 0 338.28236150275188 -8512.9457500681056 0 0 0 -2220.1858319442345 59.594793128668243 452.04982652138563 0 452.04982652138563 -8401.7882781891531 0 0 0 -2085.5483712651239 -2083.6425920284491 957.17663227972344 0 957.17663227972344 -7762.1859201099433 0 0 0 -2461.4571280345981 -2036.3113799457226 827.93702723730075 0 827.93702723730075 -7740.1736264044166 0 0 0 -2444.121251587535 -2059.7922155437241 1110.2140437502039 0 1110.2140437502039 -7697.0727261001912 0 0 0 -2439.2162354109787 -2554.9250823784828 1040.8011165801915 0 1040.8011165801915 -7665.1529681073716 0 0 0 -2555.0195126214635 -1629.4935459833296 1026.3423769781159 0 1026.3423769781159 -7822.6399984312247 0 0 0 -2363.0333861036393 -1104.347950473627 913.80813877228411 0 913.80813877228411 -7892.3539183672538 0 0 0 -2249.1754672102202 -1713.7602620997004 998.30596436012161 0 998.30596436012161 -8062.5855433925935 0 0 0 -2444.0864513730735 -951.85004736984229 1072.5817411368034 0 1072.5817411368034 -7914.6617469958455 0 0 0 -2216.6279485914215 -1182.957109105475 721.66646632576794 0 721.66646632576794 -8235.9766141801119 0 0 0 -2354.7334308213976 -1198.5443535165523 618.52083611713033 0 618.52083611713033 -8093.012680829841 0 0 0 -2322.8892585865988 -1130.4706703522941 682.6338778432164 0 682.6338778432164 -8217.0429441781907 0 0 0 -2336.878403632621 -1187.6745147746096 455.29149749060707 0 455.29149749060707 -8341.5467591301422 0 0 0 -2382.3053184761884 -1281.1377554519718 636.10755484182391 0 636.10755484182391 -8119.1175750990187 0 0 0 -2350.063832637748 -1685.1750383996132 505.70174373527971 0 505.70174373527971 -8133.7490026312671 0 0 0 -2454.7310102577208 -1720.6537465362176 786.80524910999338 0 786.80524910999338 -8147.6839153089541 0 0 0 -2467.0844154612932 -1786.6564659302585 670.5967882324112 0 670.5967882324112 -7896.1885006347093 0 0 0 -2420.7112416412429 -2056.4004580395695 633.47888234884931 0 633.47888234884931 -7995.9509741318161 0 0 0 -2513.0878580428471 -1985.8207141118642 605.55637205427615 0 605.55637205427615 -7674.8147410029633 0 0 0 -2415.1588637787067 -2617.5630768299616 654.516525944058 0 654.516525944058 -7853.260794045862 0 0 0 -2617.7059677189559 -2675.4396632911312 197.57519877758349 0 197.57519877758349 -8025.5343021940726 0 0 0 -2675.2434913713009 -2649.9344528687893 434.70099339559232 0 434.70099339559232 -7951.4032610112836 0 0 0 -2650.3344284700183 -2020.9390446867774 369.46943755926304 0 369.46943755926304 -7765.9384726324161 0 0 0 -2446.7193793297984 -2066.8686030441422 279.4913226387057 0 279.4913226387057 -8117.1674203947541 0 0 0 -2546.0090058597243 -1689.0414353263227 436.97647019752185 0 436.97647019752185 -8134.5310940234986 0 0 0 -2455.8931323374554 -1258.226284212933 426.20085858505036 0 426.20085858505036 -8357.3007508655464 0 0 0 -2403.8817587696185 -1384.9478581670028 272.68697484323366 0 272.68697484323366 -8242.1389224491286 0 0 0 -2406.7716951540333 -1351.0535925233889 210.52768914899389 0 210.52768914899389 -8460.5472730121364 0 0 0 -2452.9002163838813 -1333.6830888526315 263.38414011805071 0 263.38414011805071 -8221.729547818697 0 0 0 -2388.8531591678334 -1470.8465214465577 52.906948822211916 0 52.906948822211916 -8290.629250652386 0 0 0 -2440.3689430247359 -1705.8568031116192 -34.701117544828776 0 -34.701117544828776 -8409.881888875836 0 0 0 -2528.9346729968638 -1862.0974555009752 97.685473738442397 0 97.685473738442397 -8374.8576329939369 0 0 0 -2559.2387721237283 -2086.1682739272474 113.593597826413 0 113.593597826413 -7915.8735678844077 0 0 0 -2500.5104604529138 -1944.53813013831 243.01003804546508 0 243.01003804546508 -8070.4885631693196 0 0 0 -2503.7566733269077 -2729.1143126621428 -28.21607904498854 0 -28.21607904498854 -8189.5049009838276 0 0 0 -2729.6548034114926 -542.75693382379791 280.39711710817755 0 280.39711710817755 -8525.9192452228381 0 0 0 -2267.1690447616575 -312.09936557566289 181.93817791554648 0 181.93817791554648 -8558.2665829504876 0 0 0 -2217.5914871315399 -502.0120599266229 251.71152220564909 0 251.71152220564909 -8506.7936691145514 0 0 0 -2252.2014322602936 -479.89508818625291 424.99331148226474 0 424.99331148226474 -8336.5080611336743 0 0 0 -2204.1007873299804 -907.1873357063896 301.14017491133654 0 301.14017491133654 -8334.1869719283422 0 0 0 -2310.3435769086836 -961.72716927070269 294.42251683133327 0 294.42251683133327 -8496.5631480435513 0 0 0 -2364.5725793285646 -615.9125401979145 213.78551283039087 0 213.78551283039087 -8487.5736907239625 0 0 0 -2275.8715577304692 -872.14240903149584 189.06561522261472 0 189.06561522261472 -8577.6004487824939 0 0 0 -2362.435714453497 -1357.1655910101654 198.11512591839528 0 198.11512591839528 -8452.8265553562524 0 0 0 -2452.4980365916053 -1110.4115747468613 16.814145458132771 0 16.814145458132771 -8566.8474247406921 0 0 0 -2419.3147498718881 -1049.4222473306272 26.251268659743801 0 26.251268659743801 -8550.9655106548671 0 0 0 -2400.096939496374 -567.66395776038871 117.13711473975491 0 117.13711473975491 -8639.2978735022061 0 0 0 -2301.7404578156488 -537.57848829291106 194.6243611198413 0 194.6243611198413 -8617.0959473112089 0 0 0 -2288.6686089010291 -226.49991817488581 207.91398309564465 0 207.91398309564465 -8755.1765198917674 0 0 0 -2245.419109516662 -363.34430557985957 321.57673255246846 0 321.57673255246846 -9129.7861010090128 0 0 0 -2373.2826016472191 1627.6610091963375 -231.76120879396694 0 -231.76120879396694 -8493.0730954508617 0 0 0 -1716.3530215636274 -447.60748740854069 552.14213754411185 0 552.14213754411185 -8340.8153498590036 0 0 0 -2197.1057093168874 -0.17329271428937432 1.9674986388513303 0 1.9674986388513303 -7.3375027131734214 0 0 0 -1.877698856865706 -142.95279117213204 -71.977813315446838 0 -71.977813315446838 -7983.1817702702774 0 0 0 -2031.5336403606029 -422.15357429026699 81.323283670957608 0 81.323283670957608 -8642.3674162532989 0 0 0 -2266.1302476358906 -4.1880874073132048 5.2373262179581657 0 5.2373262179581657 -12.052029594166811 0 0 0 -4.0600292503700075 5.6491231619002065 -161.81016359695423 0 -161.81016359695423 -8523.150192013687 0 0 0 -2129.3752672129485 -3.4375128642441837 7.459554925896585 0 7.459554925896585 -11.801838273621968 0 0 0 -3.8098377844665237 -41.582773861629903 78.256407545648472 0 78.256407545648472 -9065.1662489755436 0 0 0 -2276.6872557092902 172.23894604416637 157.06337587861708 0 157.06337587861708 -8478.9464125213672 0 0 0 -2076.6768666192984 1406.9464524159157 54.266073717633844 0 54.266073717633844 -8442.9668116914399 0 0 0 -1759.005089818882 1305.6460446945985 -182.58423846521328 0 -182.58423846521328 -8471.1373390245317 0 0 0 -1791.3728235824838 1318.7122582019801 90.946077556891396 0 90.946077556891396 -8878.5954144688367 0 0 0 -1889.9707890667123 1390.1343358374143 411.14593016079544 0 411.14593016079544 -8293.1625112096735 0 0 0 -1725.757043843063 1108.3429288417428 12.123056919943338 0 12.123056919943338 -8523.7568867286755 0 0 0 -1853.8534894717341 1202.3466245865093 -16.204077482085268 0 -16.204077482085268 -7916.9601139807455 0 0 0 -1678.6533723485591 1276.7657934894178 27.948568204639741 0 27.948568204639741 -9098.9548659338725 0 0 0 -1955.547268111115 1005.4367633687398 -141.12822361751932 0 -141.12822361751932 -8588.3264076911073 0 0 0 -1895.7224110805873 1187.8330936824168 47.361726005401579 0 47.361726005401579 -8468.0755335714712 0 0 0 -1820.0606099722572 1265.333899470128 -48.348012914033461 0 -48.348012914033461 -8647.3241242914373 0 0 0 -1845.4975562053241 1268.1798941207926 29.590118749471003 0 29.590118749471003 -8696.1043720834277 0 0 0 -1856.9811194906615 1421.0317887452329 43.331334909526049 0 43.331334909526049 -8630.9315530940949 0 0 0 -1802.4749410872209 1300.5588811703822 -29.034054647025187 0 -29.034054647025187 -8854.3671189017841 0 0 0 -1888.4520594328494 1485.9174636453135 -1.3344852266554881 0 -1.3344852266554881 -8621.7814298800658 0 0 0 -1783.9659915586926 1563.6390483777527 -29.512844797951402 0 -29.512844797951402 -8448.5253785416589 0 0 0 -1721.221582540978 1409.4190504396429 -25.835492081685516 0 -25.835492081685516 -8497.8924658725446 0 0 0 -1772.1183538582263 1455.3251079603106 -10.861581180979556 0 -10.861581180979556 -8481.2120126298832 0 0 0 -1756.4717261673904 1398.1971614677714 21.4547556272978 0 21.4547556272978 -8504.4340875779744 0 0 0 -1776.5592315275499 1486.002393608178 6.1972233451742795 0 6.1972233451742795 -8418.7694757105055 0 0 0 -1733.1917705255837 1362.7778253690813 72.997274484834634 0 72.997274484834634 -8422.9101822640987 0 0 0 -1765.0330892237544 1395.4532681196761 -6.094889746800618 0 -6.094889746800618 -8415.040719059165 0 0 0 -1754.8968627348695 1391.6221391832005 63.315601856644207 0 63.315601856644207 -8469.948176783495 0 0 0 -1769.5815094000682 1411.0258425176798 35.987298920848843 0 35.987298920848843 -8380.3451435012976 0 0 0 -1742.3298252459081 1584.4096567561946 -31.675416628451785 0 -31.675416628451785 -8336.9583918774078 0 0 0 -1688.1371837803044 1499.7816234648199 33.620295019598416 0 33.620295019598416 -8393.7140992041968 0 0 0 -1723.4831189348442 1509.1933575246003 39.055465310028012 0 39.055465310028012 -8352.7294372571632 0 0 0 -1710.8840199331389 1614.8116863276955 -17.452179703463116 0 -17.452179703463116 -8338.8730253474932 0 0 0 -1681.0153347549494 1568.9512603801554 -41.247325518183061 0 -41.247325518183061 -8380.6041914791076 0 0 0 -1702.9132327747361 1515.077279815865 17.479508420190541 0 17.479508420190541 -8390.7017460811185 0 0 0 -1718.9061165663079 1627.4235021505228 -14.052353540731929 0 -14.052353540731929 -8324.9844461284374 0 0 0 -1674.3902359944805 1728.8271793834538 -72.12713318146416 0 -72.12713318146416 -8292.8237311367739 0 0 0 -1640.9991379383246 1818.1335567900896 -126.50772613131267 0 -126.50772613131267 -8194.0093295101615 0 0 0 -1593.9689431800143 1718.8278336286494 -85.74027063682297 0 -85.74027063682297 -8274.4263430371648 0 0 0 -1638.8996273521298 1775.5604987173137 -62.701961587696132 0 -62.701961587696132 -8247.7581891984155 0 0 0 -1618.0494226202754 1543.1845748443156 0.0019344845895830076 0 0.0019344845895830076 -8339.7460437611735 0 0 0 -1699.1403672292217 1641.1043506519236 -18.810891940718648 0 -18.810891940718648 -8312.5290364743851 0 0 0 -1667.8561714556163 1588.4444181118788 -43.448488143509167 0 -43.448488143509167 -8334.4586707982926 0 0 0 -1686.5035631716046 1686.6953641446416 -83.677883198801283 0 -83.677883198801283 -8265.4892988843494 0 0 0 -1644.6984836849333 1506.1791778984007 -28.813775352111406 0 -28.813775352111406 -8324.6611052130902 0 0 0 -1704.6204818286824 1663.8744484077397 -14.026069943206608 0 -14.026069943206608 -8320.7503862671438 0 0 0 -1664.2189844648456 1513.0333649449094 -36.2919036059875 0 -36.2919036059875 -8313.8444884191849 0 0 0 -1700.2027808685671 1580.6656967505514 -68.159916623215395 0 -68.159916623215395 -8361.7413114657247 0 0 0 -1695.2689036787888 1521.4621674395858 -13.991391986453891 0 -13.991391986453891 -8497.3398302455462 0 0 0 -1743.9694157014892 1414.2295665338534 -84.350286266540138 0 -84.350286266540138 -8863.464198747839 0 0 0 -1862.3086580534982 767.29818793916456 425.54968887162249 0 425.54968887162249 -8391.4713357085602 0 0 0 -1906.0432869423475 -3.5535928706448487 10.309814747250346 0 10.309814747250346 -11.840531926398057 0 0 0 -3.8485311992607336 1199.5947791987401 -227.00812131394196 0 -227.00812131394196 -8347.3474877236913 0 0 0 -1786.9381771312383 699.52868156033583 149.30877969370522 0 149.30877969370522 -7997.6959841001226 0 0 0 -1824.541825634944 385.77644851906916 135.37067188510628 0 135.37067188510628 -8847.1455865616808 0 0 0 -2115.3422845106525 501.84027644087837 -105.10184437936186 0 -105.10184437936186 -8482.2633806478625 0 0 0 -1995.1057760517469 1240.2070844379277 303.21919006876851 0 303.21919006876851 -8579.5621611305687 0 0 0 -1834.8387691731577 -3.6225543418905772 9.2083293225149632 0 9.2083293225149632 -11.863518931760154 0 0 0 -3.8715183184126971 157.49908212561786 91.577315362127592 0 91.577315362127592 -7950.1658449548413 0 0 0 -1948.166690707305 27.63297650329514 235.05761312070899 0 235.05761312070899 -8490.7514637553541 0 0 0 -2115.7796218130152 209.37553021363965 339.35204216855709 0 339.35204216855709 -8482.3120590654071 0 0 0 -2068.234132212945 1315.0422586599816 -44.26295519091218 0 -44.26295519091218 -8104.2377188670362 0 0 0 -1697.2988650517636 1280.7107535258547 -42.869181791225856 0 -42.869181791225856 -8547.8854020700528 0 0 0 -1816.7936621360532 1304.7975746357597 126.61087371409667 0 126.61087371409667 -8507.7010596863875 0 0 0 -1800.7258712626563 1372.7865551658324 168.95337455625486 0 168.95337455625486 -8133.884220781998 0 0 0 -1690.2744164040414 
</DataArray>
<DataArray type="Float64" Name="cross_section_updated" format="ascii">
1 1 1 1 1 1 1 1 1 1 1 1 1 1 1 1 1 1 1 1 1 1 1 1 1 1 1 1 1 1 1 1 1 1 1 1 1 1 1 1 1 1 1 1 1 1 1 1 1 1 1 1 1 1 1 1 1 1 1 1 1 1 1 1 1 1 1 1 1 1 1 1 1 1 1 1 1 1 1 1 1 1 1 1 1 1 1 1 1 1 1 1 1 1 1 1 1 1 1 1 1 1 1 1 1 1 1 1 1 1 1 1 1 1 1 1 1 1 1 1 1 1 1 1 1 1 1 1 1 1 1 1 1 1 1 1 1 1 1 1 1 1 1 1 1 1 1 1 1 1 1 1 1 1 1 1 1 1 1 1 1 1 1 1 1 1 1 1 1 1 1 1 1 1 1 1 1 1 1 1 1 1 1 1 1 1 1 1 1 1 1 1 1 1 1 1 1 1 1 1 1 1 1 1 1 1 1 1 1 1 1 1 1 1 1 1 1 1 1 1 1 1 1 1 1 1 1 1 1 1 1 1 1 1 1 1 1 1 1 1 1 1 1 1 1 1 1 1 1 1 1 1 1 1 1 1 1 1 1 1 1 1 1 1 1 1 1 1 1 1 1 1 1 1 1 1 1 1 1 1 1 1 1 1 1 1 1 1 1 1 1 1 1 1 1 1 1 1 1 1 1 1 1 1 1 1 1 1 1 1 1 1 1 1 1 1 1 1 1 1 1 1 1 1 1 1 1 1 1 1 1 1 1 1 1 1 1 1 1 1 1 1 1 1 1 1 1 1 1 1 1 1 1 1 1 1 1 1 1 1 1 1 1 1 1 1 1 1 1 1 1 1 1 1 1 1 1 1 1 1 1 1 1 1 1 1 1 1 1 1 1 1 1 1 1 1 1 1 1 1 1 1 1 1 1 1 1 1 1 1 1 1 1 1 1 1 1 1 1 1 1 1 1 1 1 1 1 1 1 1 1 1 1 1 1 1 1 1 1 1 1 1 1 1 1 1 1 1 1 1 1 1 1 1 1 1 1 1 1 1 1 1 1 1 1 1 1 1 1 1 1 1 1 1 1 1 1 1 1 1 1 1 1 1 1 1 1 1 1 1 1 1 1 1 1 1 1 1 1 1 1 1 1 1 1 1 1 1 1 1 1 1 1 1 1 1 1 1 1 1 1 1 1 1 1 1 1 1 1 1 1 1 1 1 1 1 1 1 0.00084723847778433309 1 1 9.999879845984383e-07 1 1 9.9998347897339857e-07 1 1 1 1 1 1 1 1 1 1 1 1 1 9.9997918018290832e-07 1 1 1 1 1 9.9997501359222474e-07 1 1 1 1 1 1 1 1 1 1 1 1 1 1 1 1 1 1 1 1 1 1 1 1 1 1 1 1 1 1 1 1 1 1 1 1 1 1 1 1 1 1 1 1 1 1 1 1 1 1 1 1 1 1 1 1 1 1 1 1 1 1 1 1 1 1 1 1 1 1 1 1 1 1 1 1 1 1 1 1 1 1 1 1 1 1 1 1 1 1 1 1 1 1 1 1 1 1 1 1 1 1 1 1 1 1 1 1 1 1 1 1 1 1 1 1 1 1 1 1 1 1 1 1 1 1 1 1 1 1 1 1 1 1 1 1 1 1 1 1 1 1 1 1 1 1 1 1 1 1 1 1 1 1 1 1 1 1 1 1 1 1 1 1 1 1 1 1 9.9997110877131368e-07 1 1 1 9.9996768906235323e-07 1 1 9.9996478549607692e-07 1 1 1 1 1 1 1 1 1 1 1 9.9996215566916513e-07 1 1 1 1 9.9995945176956091e-07 1 1 1 1 1 1 1 1 1 1 1 1 1 1 1 1 1 1 1 1 1 1 1 1 1 1 1 1 1 1 1 1 1 1 1 1 1 1 1 1 1 1 1 1 1 1 1 1 1 1 1 1 1 1 1 1 1 1 9.998953078294015e-07 1 1 1 1 1 1 1 1 1 1 1 1 1 1 9.998676284914132e-07 1 1 9.9988150801394449e-07 1 9.9985378285497029e-07 1 1 1 1 1 1 1 1 1 1 1 1 1 9.9984018906568162e-07 1 1 1 1 1 1 1 1 1 1 1 1 1 1 1 1 1 1 1 1 1 1 1 1 1 1 1 1 1 1 1 1 1 1 1 1 1 1 1 1 1 1 1 1 1 1 1 1 1 1 1 1 1 1 1 1 1 1 1 1 1 1 1 1 1 1 1 1 1 1 1 1 1 1 1 1 1 1 1 1 1 1 1 1 1 1 1 1 1 1 1 1 1 1 1 1 1 1 1 1 1 1 1 1 1 1 1 1 1 1 1 1 1 1 1 1 1 1 1 1 1 1 1 1 1 1 1 1 1 1 1 1 1 1 1 1 0.00031752451796153436 1 1 9.9995702540142672e-07 1 9.9993885557120299e-07 1 1 1 1 1 1 1 1 1 1 1 1 1 1 1 1 1 1 1 1 1 1 1 1 1 1 1 1 1 1 1 1 1 1 1 1 1 1 1 1 1 1 1 1 1 1 1 9.9990910783220865e-07 1 1 1 1 1 9.9992333156551094e-07 1 1 1 1 1 1 1 
</DataArray>
<DataArray type="Float64" Name="displacement_divergence" format="ascii">
-0.10722730766837978 -0.11015646532747543 -0.086086464456828063 -0.091638107921988718 -0.071664610727478553 -0.060307440409487267 -0.079717595191820825 -0.069096371481531665 -0.063225889008972747 -0.069798782423909966 -0.072546076046220737 -0.066025084760759994 -0.07626855851412076 -0.070055807953660371 -0.084265803865903238 -0.091324079647693568 -0.07254703746519324 -0.07975566245322957 -0.055765357314998543 -0.058820914931507429 -0.058969088455351162 -0.05871056019570714 -0.067124294200548607 -0.062598588115235748 -0.057625999264942662 -0.063130800795990594 -0.069580487702111976 -0.06421969970069491 -0.06105670753014146 -0.063453156043609793 -0.060672062671295046 -0.058145129595602474 -0.060788794887564668 -0.062232755082051949 -0.061465749124323898 -0.065364193377137031 -0.063059402476631415 -0.06512556233849387 -0.065988486010452568 -0.065886768690076092 -0.065314209039508922 -0.062321264748853078 -0.064528005800720226 -0.063130847900895029 -0.062727911766339461 -0.064162578527925104 -0.060931743998132171 -0.060639553122039391 -0.074211157971018835 -0.069838249077248102 -0.076878488699566386 -0.072138597535747348 -0.066754351410950388 -0.070767027926052758 -0.068267419714934968 -0.071566990811051945 -0.066718734717182426 -0.069896116552243232 -0.066466890587152896 -0.066950677280998239 -0.071884798177403036 -0.073469596910270538 -0.069489708676267539 -0.074975884790825759 -0.073694148723577046 -0.068158581769617296 -0.067257771524537158 -0.071595935396305918 -0.068307768694648024 -0.067024772778682531 -0.066052545910199378 -0.070689380216092709 -0.065624746452492999 -0.063569282353352685 -0.065585579532975335 -0.068313336581758838 -0.063926066209679194 -0.068895813450281784 -0.068316388275237186 -0.06702693984735858 -0.066157595780142298 -0.063252356168225277 -0.065599072158993577 -0.064575168946711337 -0.061844451127368971 -0.066424770354311657 -0.062024634253573074 -0.060892248041756469 -0.063603809533786665 -0.061246153654301028 -0.059982984658288663 -0.061971116974486207 -0.060320864964503756 -0.05926328171234746 -0.062314848839005482 -0.065388816049478202 -0.061790559215459451 -0.062784996798487092 -0.062476761739023612 -0.062508573788065985 -0.061899022183838942 -0.062984358647729222 -0.058837752742287142 -0.061359872832533302 -0.060366167286278416 -0.059420245963019702 -0.05920102296395835 -0.060265912764224994 -0.059264287676711325 -0.058720413112967232 -0.058609512551570209 -0.062766634120206444 -0.059721719974868998 -0.059435563336244446 -0.060465388702956507 -0.062742877293524763 -0.065045979334146575 -0.062448676465041777 -0.065575666049981302 -0.062681333208505538 -0.06870619623559665 -0.063865342282576565 -0.066849772017447601 -0.066324601433281824 -0.065184436493637352 -0.069375510934705675 -0.066533211383254659 -0.064693024106757854 -0.062756649393892652 -0.065672346001744819 -0.051550525114103629 -0.052901312932628564 -0.053001048153784036 -0.051248877278053981 -0.050143142153043163 -0.050107535199460873 -0.049204082643227336 -0.048890413611014982 -0.048127770546179116 -0.047630066205824106 -0.048623020302634101 -0.049378301604971919 -0.050963886311396006 -0.051423327151566056 -0.049403953952514013 -0.055557848518691 -0.051160821932933254 -0.055979696251508004 -0.050758828238507803 -0.056112054760693586 -0.058280672907801812 -0.056232169929027048 -0.054728455108396426 -0.057539615003330248 -0.05731509218213876 -0.057423734452481327 -0.056676635587099455 -0.053850601550536947 -0.053279609407273998 -0.056392865859369312 -0.055196480837468698 -0.054668911156444955 -0.056931378401630761 -0.05559753325001851 -0.059213396135729846 -0.057564821600549348 -0.057013216637653241 -0.05719454804230327 -0.058209406971555633 -0.059633595035412101 -0.057975232701878793 -0.060417439936154338 -0.058892427554694038 -0.056189514147163 -0.058090776567290003 -0.05669955545263379 -0.058827194447553854 -0.057140706482486703 -0.056736253576569584 -0.055536475165050225 -0.055206269759441651 -0.055361964149253096 -0.055334094794539879 -0.054378535247136095 -0.05418004883216887 -0.053965969958662874 -0.053041401430645396 -0.053189220891333655 -0.054568011988412768 -0.051345090867356391 -0.051977471513823481 -0.052265947681952141 -0.053804657374189824 -0.052466850419895406 -0.052866129571426057 -0.053860036852098059 -0.054340002926736908 -0.05434433183739884 -0.055333242371927938 -0.055968661195237024 -0.055381116249803575 -0.055194321133162139 -0.056470980922639247 -0.056752264897155236 -0.056494563978992773 -0.055984152275404264 -0.056477237924194235 -0.057019792497746469 -0.057033720173976343 -0.056799960151702966 -0.05638154523395611 -0.05637982086570259 -0.055921622893968737 -0.056148636996809956 -0.059320231348420571 -0.059520038880192305 -0.05907454979535029 -0.058743534891024574 -0.05828508297552637 -0.057614565062190704 -0.058013475725361974 -0.057115563680667059 -0.057504131764005262 -0.057832398460534618 -0.057593038728918355 -0.05761716854961843 -0.059135272441916631 -0.059442694988497552 -0.060184763502083849 -0.060967039121215982 -0.060184447233925797 -0.058367743270616529 -0.059324248931863166 -0.06017406494578087 -0.057969827290178605 -0.057329164687667356 -0.057732832440735904 -0.058113228181768561 -0.057463951870833974 -0.057469520472878566 -0.056868639429138779 -0.057294923159494582 -0.055266086870062847 -0.057546149849711625 -0.055279984017799537 -0.058198027628169224 -0.056729696149644182 -0.057206135444271555 -0.057046346313426699 -0.057118639179335462 -0.057112563221477508 -0.056846869998401828 -0.055939337661143118 -0.057585701654169208 -0.056425907541517661 -0.057689817159626289 -0.057020640674590117 -0.057759097666583603 -0.056796159085306996 -0.057448130691893362 -0.058188776092297667 -0.0576553132518626 -0.058860578708778588 -0.057570922739571762 -0.057156044622998614 -0.056879504583020934 -0.057827289160462758 -0.056795625667858562 -0.057004447489762855 -0.057405780148403418 -0.057992289863224356 -0.057433836236937874 -0.05832245540665737 -0.058538235395870775 -0.059106346286899925 -0.058687107530495886 -0.059585124964280478 -0.058067936762363617 -0.059207809523716737 -0.060114904560857996 -0.05960400870142557 -0.060091995638474893 -0.058416834224975567 -0.057267668701009189 -0.058420054426329096 -0.056964801174203883 -0.058073988172486768 -0.05740452031220461 -0.056928641703041238 -0.056397942905077936 -0.056230765729273879 -0.05527143323262329 -0.056490188949251285 -0.056491386066766403 -0.056727460198321866 -0.055416312389027611 -0.055767156985563449 -0.055331973564523684 -0.054470611054453277 -0.054280911094726658 -0.053448938647030299 -0.053317102495544333 -0.053016437939384931 -0.054895383893264205 -0.054696417845837897 -0.053902223122860971 -0.053397953787586716 -0.054360161015732267 -0.053423396680913893 -0.054651279996360214 -0.054970168809998499 -0.053970108543011097 -0.054323739513990943 -0.054758570251624894 -0.055734059015796977 -0.055091069463579556 -0.055625477247945865 -0.055677903310576871 -0.056288787843962629 -0.056343429520352734 -0.05643165864937294 -0.056393176387097732 -0.056539189932555023 -0.055471004084224784 -0.055592187264514981 -0.057660100960659155 -0.059066524568966106 -0.059783791489157023 -0.058970849586747434 -0.060825464643656346 -0.061483926722019078 -0.062025112817543304 -0.061390149784015913 -0.060925644449909555 -0.059895874310089969 -0.061745212560875062 -0.061403392252473044 -0.059535834034676993 -0.058747773095150224 -0.058303083147830614 -0.056914495420334332 -0.057344934888797439 -0.057719947562739904 -0.057140922611338671 -0.058286361399237263 -0.05846989654258937 -0.060203190516850968 -0.060684267045191809 -0.061315126219882776 -0.059684708276637743 -0.059228446269535356 -0.060494945709797854 -0.060670548147872996 -0.05871307779233137 -0.058907395124638606 -0.057808645765515476 -0.05756130270887741 -0.057081810862953386 -0.055937324806599048 -0.055651890221311229 -0.05416488713135803 -0.053157981764050732 -0.05403946342049698 -0.054542151800569094 -0.054496206999111507 -0.05298938340489634 -0.053348213239540088 -0.055274742609838445 -0.055488005379075389 -0.055888020791818649 -0.056865032548993444 -0.056189510119892594 -0.056729718329425971 -0.055198730817989317 -0.054895222256267528 -0.053390311500144616 -0.053298134928729812 -0.053308519494171591 -0.053519907722562765 -0.051543263448419196 -0.052515694846849925 -0.053837378865187802 -0.055001403073808963 -0.055297682538761439 -0.055431936949193572 -0.057191914855459602 -0.04737523169806146 -0.045493568265059126 -0.047671587265635251 -0.046340557008262118 -0.047827344705889341 -0.050178826501027896 -0.05177661593895555 -0.049446801552924691 -0.049549903191775435 -0.051052275660258051 -0.050989761877275219 -0.051920941777227558 -0.048601983225323941 -0.048551325381700594 -0.047245337634234115 -0.048310355744533018 -0.04869598937643127 -0.049605509842219009 -0.048968563893713402 -0.050133007496642956 -0.050710521625645821 -0.05168137005253759 -0.051948308328033654 -0.051308318735731051 -0.050236749153249161 -0.051608970693088674 -0.050804665096005008 -0.052562025032519832 -0.05191302797337749 -0.052744646612071566 -0.051264521345350644 -0.050319660789772569 -0.050046320971635416 -0.049195033198292326 -0.049656574836604461 -0.048355118088091231 -0.04884523818194686 -0.047532248264348542 -0.048392013390578636 -0.047891167399084056 -0.047550294338085886 -0.046300833760364368 -0.045832990745227731 -0.045048473428997093 -0.046218958943200938 -0.046961867251286767 -0.04527698130702143 -0.043931584427072901 -0.045020791857638742 -0.04576480596132404 -0.046327495165762428 -0.046828671958135892 -0.047454796188586057 -0.046723710808255881 -0.045543673681993413 -0.045648659175768991 -0.044443792042102026 -0.043820989210211048 -0.042535281914972953 -0.042933557669018851 -0.043748136844597996 -0.043623467341303623 -0.041979833584337101 -0.041622860735418765 -0.043330620368871031 -0.043242741696691289 -0.044510721774075224 -0.044899636647627583 -0.045883368448924378 -0.051187611709815339 -0.050854348902507063 -0.049549569727893684 -0.050749743796776769 -0.050988382022399303 -0.051008091369164954 -0.051370607296226611 -0.052243781929312366 -0.052599206475314686 -0.05308540272478568 -0.053952479769731942 -0.053562763735676699 -0.052985841423483393 -0.051666788649187279 -0.052781609284897613 -0.052169510387253482 -0.053207070336947937 -0.05288866863469277 -0.051290426426346736 -0.052287076886841477 -0.052069352505187405 -0.052357609843900144 -0.051513156516640457 -0.051098808449126121 -0.049983895437027748 -0.049825031976277634 -0.050744359128120836 -0.050990431821633209 -0.050398626456653828 -0.049193462708595398 -0.049671577461298133 -0.049545070472286068 -0.048079904232281034 -0.048147004799749454 -0.048241908739304007 -0.048443200544634468 -0.048433561430599181 -0.048028838057553869 -0.048017082178599901 -0.048564708830529324 -0.049196323644556506 -0.047504864298694383 -0.046145292977543884 -0.045941325159789104 -0.045669959513712444 -0.041962704626627545 -0.045608429444682852 -0.046325332426669419 -0.047890426791603824 -0.047543243186526696 -0.04753691440155583 -0.049177677978699541 -0.049637053701279743 -0.049521763099901417 -0.049577670307239446 -0.049225438041529124 -0.045978922994866528 -0.047258995637409651 -0.04800123840891829 -0.046866453297596089 -0.046681498869519333 -0.044261576820022408 -0.043780594278737137 -0.041632228377079583 -0.043209005881948981 -0.041955350939859595 -0.041309534067133002 -0.042217107168802559 -0.037652711065201627 -0.038194263703006159 -0.040238001175666893 -0.039800484375980272 -0.043194207580853572 -0.040308528342683836 -0.042892459236112734 -0.042104129068047003 -0.039660433341061729 -0.039077094046100269 -0.045919377707476228 -0.028422116324455571 -0.039069536148978568 -0.048387578137210729 -0.033385778883124884 0.3199279519037006 -0.0410891961310067 -0.04349187219767936 -1.1830299062267962 -0.031315787457917299 -0.03781082984299225 -0.89445379091071686 -0.034273449471443729 -0.041575829204808956 -0.036248302884616335 -0.038490961768215537 -0.034284828046208693 -0.037103486772587901 -0.036834176271545283 -0.032522686677830093 -0.034990834827475226 -0.037007880452193387 -0.041132621771392985 -0.037324320726220495 -0.039237396342871156 -0.97205270879414485 -0.03880985688358296 -0.041299540882397956 -0.04065003089915975 -0.039016985599884091 -0.035046299113136614 -0.95052404292239245 -0.036626536357129313 -0.034838127951579034 -0.03665021548797287 -0.038453643993118236 -0.036457095537651085 -0.03688412067739455 -0.036866007568790549 -0.037381490168711728 -0.037020393098011292 -0.038394350911725494 -0.038165393777644274 -0.038328522453117506 -0.039109186863624745 -0.039775392512725771 -0.039211746903258939 -0.0399981521969901 -0.040689292808890998 -0.040540052544252525 -0.041346905357214747 -0.038928119744213369 -0.037777842064639522 -0.038216992643780978 -0.039455929805929713 -0.038464425041373596 -0.040057464510423912 -0.039050428787462899 -0.040450918585271944 -0.040525474180411525 -0.040698215757621115 -0.041283608844708053 -0.042434326033744196 -0.041643635416948932 -0.041006042622930838 -0.040656467074152103 -0.039837639652271495 -0.040324702483045316 -0.040809627928512171 -0.040910885110949646 -0.0422369497372308 -0.041348645296206188 -0.041924514997543127 -0.043641918451113204 -0.041895730671066334 -0.04448829413494626 -0.045433744422967104 -0.041843656774106175 -0.04065440088182104 -0.041566685735522357 -0.041113800562577602 -0.039830508146046162 -0.04020588150761939 -0.039654082887092379 -0.040198085667699557 -0.038280785396664907 -0.038458127550860866 -0.039229206359882432 -0.039073301243156777 -0.039354705196752882 -0.038699672315696668 -0.038345070990857807 -0.038900952686625079 -0.03890533843673194 -0.039606477730278478 -0.039580979890755097 -0.03976406723233783 -0.040049495104847038 -0.039379370843663164 -0.039652568909996647 -0.038834025731127042 -0.038930652667337251 -0.038919926223999646 -0.038145146185746048 -0.038216314201286621 -0.038252403285234715 -0.038362052282159498 -0.037544741492589351 -0.037865387644853588 -0.038191714729313597 -0.037767310913296326 -0.038739284784599537 -0.038781424553939514 -0.037426066028348734 -0.03708004084569394 -0.037603994738797608 -0.037321205011323189 -0.037474318382263672 -0.037315974753233006 -0.037599901219850906 -0.0373305675448381 -0.037687020092296741 -0.037883595331574371 -0.038083087274176419 -0.037760269205520336 -0.037318025464086801 -0.037342109709450177 -0.03722067683188382 -0.037263464969210736 -0.03674320912864748 -0.037271318484356941 -0.03715688601155831 -0.037670623153740035 -0.037628043368889086 -0.038258798683353357 -0.037676633862640863 -0.037613503846804175 -0.037863650659409887 -0.037973061543781439 -0.038347910501544957 -0.037555716268203754 -0.039126839528015545 -0.03676201876647256 -0.03756927072680738 -0.03739976443689888 -0.036108683599136715 -0.036952537219678616 -0.035099565509779884 -0.036338726828088808 -0.035322789404514499 -0.034921968628689015 -0.034360213422053143 -0.035519279260369574 -0.035189663639021207 -0.036642500971683534 -0.035748748124396768 -0.035768559612544104 -0.036824744224149164 -0.036387531520649663 -0.03643525016774285 -0.036868087872552913 -0.036792624815450869 -0.036916125504319997 -0.0369382794655706 -0.037130737972544514 -0.036460545196073557 -0.036381065556994496 -0.03685002434176976 -0.036932639338267403 -0.036863913325554831 -0.036985595848855635 -0.03713358943506187 -0.037204549057711089 -0.037223894167091265 -0.037289733241047562 -0.03730708293360685 -0.037069740080840297 -0.037070793462185003 -0.036872134398114653 -0.036395687372477781 -0.036001443633152053 -0.03585558640079678 -0.036402438358511618 -0.037393306391404479 -0.037351675460331801 -0.037556829108455481 -0.038311031970629461 -0.038779527043376033 -0.037419007649334035 -0.037286300615733681 -0.037111217005864727 -0.036298664165204109 -0.036432739157746807 -0.036087839888107154 -0.032146217201372784 -0.038476409926189281 -0.034533061596811021 -0.036200941706977185 -0.038921633092014796 -0.035230187287056181 -0.95899528598944173 -0.03641183621135724 -0.039670139105470348 -0.035193793942113416 -0.94645092081444915 -0.03525239925468715 -0.037847909344726927 -0.98841768797645102 -0.034077904162199371 -0.035675805363393875 -0.032164251000053046 -0.035473622453286113 -0.03646315835195435 -0.033856120327107275 -0.035373111622875653 -0.035290011336154503 -0.037816588650803284 -0.036524371766889843 -0.037064230584511249 -0.83073647460217614 -0.034684011392742353 -0.036133239327947715 -0.032956609604765541 -0.033174011169250506 -1.420439515235838 -0.033332172724442222 -0.035396734071756475 -0.034240295830461731 -0.032104154158369536 -0.032340448071921157 -0.035354506675448594 -0.034120657995398207 -0.035335334830098319 -0.035097115125067746 -0.034605785922731558 -0.035697096200199674 -0.03488299987843746 -0.035604319671183271 -0.036309739538173055 -0.034996374076906145 -0.035902715251146855 -0.036704826422048781 -0.035571211556278071 -0.035938011402066025 -0.03601821881497691 -0.035004240098018335 -0.034763509837563489 -0.035281507136751378 -0.033917518037932193 -0.035485025701254669 -0.035244937537838694 -0.035291192334209326 -0.033129878854329387 -0.034087377254626509 -0.034469624444850244 -0.036619584512504133 -0.035774402046023557 -0.037325237068144113 -0.03818821996280819 -0.037226473046781394 -0.036268096425146501 -0.036636038462364628 -0.036605320132747088 -0.03718671796805606 -0.038203044475170533 -0.037911761399481048 -0.038786533438216031 -0.037721795878696174 -0.038329380235517518 -0.037746203848151971 -0.038808080926283128 -0.040140308762709687 -0.039154786447827106 -0.039878717245247719 -0.040253378973096582 -0.04097152471280141 -0.040445437817218183 -0.040053187987229011 -0.039341336483407818 -0.039061671056245029 -0.038336338464590371 -0.039128832987120332 -0.048438379422779954 -0.96381866699886842 -0.045082836246329416 -0.044228014530199061 -0.040485748025885893 -0.04240335071910678 -0.043119530756306035 -0.040570644603052264 -0.044938779039921273 -0.040677303866089143 -0.04167106747510782 -0.039511270840884682 -0.03773001325653047 -0.040882412921128319 -0.042943073773174634 -0.038712615513916027 -0.98991054852152871 -0.043014595086480811 -0.04263931387167319 -0.95110036778172358 -0.040855828987193754 -0.84027395546952732 -0.037959190548687238 -0.038953588259752016 -0.034459048871945397 -0.038254498039798607 -0.036794096379589414 -0.042254143500040642 -0.03858686609030109 -0.034639114277341565 -0.032649543354537403 -0.032320737351758264 -0.033412942366458642 -0.034165039234001576 -0.033380906300676139 -1.3941051542314611 -0.032840509987425937 -0.033438589127848695 -0.033085946687010308 -0.033378401423980464 -0.036683334552254476 -0.035330497343882709 -0.035021654269427771 -0.037368685768215559 -0.045013133219966528 -0.034736704800030049 -0.042482650187367188 -0.044466169216114237 -0.049410271205966971 -0.048104468290050217 -0.043693993533551134 -0.040349015934154797 -0.038218804675522397 -0.065058466182041766 -0.092390472897233261 -0.096147791976359087 -0.043895994063478688 -0.073207596832414484 -0.044278368185526273 -0.050749732385263285 -0.046765239126368124 -0.037007198461673739 -0.045029241128205763 -0.055448056823816927 -0.064283128076565083 -0.05748614025350101 -0.057558284550817858 -0.066323383814987869 -0.07035138023288913 -0.070386482133507539 -0.065049955370704612 -0.057322269872729072 -0.057062301073175593 -0.06079339056257841 -0.060387329842278403 -0.05055532960109918 -0.052855977104330029 -0.055273474637695136 -0.058162811882996379 -0.05867811383743423 -0.053448001462038763 -0.059549841194788844 -0.062585663583271167 -0.059630260910781475 -0.060740869568407602 -0.064728256055242198 -0.057982621998600818 -0.045834810282401522 -0.048375858992352833 -0.04545039301520537 -0.042672923603696622 -0.049674163485480594 -0.049233322203490221 -0.047227320304168874 -0.049551682180405954 -0.052419884286287452 -0.051741268507490251 -0.055230183685289043 -0.048301884188027555 -0.050844308075089162 -0.045711155337017806 -0.0477393025408967 -0.050083864145261309 -0.049264354188462089 -0.051643891285816423 -0.048575478179248843 -0.052405284189127377 -0.052495543947178092 -0.051092783467887537 -0.053446318834582396 -0.056218390840842097 -0.053533804982101682 -0.054915790686529187 -0.054310168757498334 -0.055896551702841607 -0.057674556572762575 -0.053840284281902143 -0.054091822390697319 -0.053343965036853347 -0.055504645798605895 -0.052138709281628115 -0.061536428200864961 -0.061103031289688373 -0.060980405885274466 -0.063875487815536564 -0.059075834652590989 -0.056229386680255511 -0.061102161284326828 -0.05541569871478555 -0.058868335770534908 -0.058072231464664947 -0.058421960090815538 -0.059557632961904722 -0.058751595815943698 -0.061368275256443006 -0.061677110386532341 -0.06051778104103106 -0.062827196451071168 -0.060378971594467673 -0.065442649192973906 -0.06688108728428252 -0.066258360711750466 -0.061167984483244953 -0.063650225146493114 -0.061397328308436402 -0.060097043969240482 -0.060169292378850797 -0.061322505409596995 -0.059721328979195826 -0.061009223575618374 -0.063223366824921606 -0.063980969303093244 -0.062512761511322845 -0.062593916833172669 -0.068241370085287315 -0.056679226119041429 -0.055439787178288402 -0.056305035806507364 -0.055102519683249529 -0.057758589422717027 -0.059114314483214025 -0.056896788943261778 -0.059060892861337477 -0.061312450914790151 -0.060482868746797203 -0.060002423487409334 -0.057543511445391174 -0.057216715222525805 -0.056135477737916634 -0.059332065041180479 -0.042908825539090589 -0.054927642732922055 -0.46942471421643006 -0.050788341009015012 -0.056653256190897228 -1.0150073125925019 -0.053234381680323628 -0.95245944611663447 -0.056917181392732163 -0.051916921665482396 -0.043975127245472145 -0.044784320589562082 -0.047249269726667709 -0.043143926096076757 -0.046346337236793322 -0.041966334308714048 -0.048888681702777798 -0.047393060277014842 -0.045501515249306568 -0.046137438905133166 -0.04642452798726654 -0.045061873527180496 -0.047211301485821096 -0.044599149788967396 -0.043030539563524428 -0.044302958846455631 -0.043911793154184808 -0.04441398078818859 -0.043329794263139654 -0.044125827230593884 -0.0438724215683719 -0.044239537735001999 -0.043558245631147796 -0.042203429594507569 -0.04308707797337108 -0.042772100498328469 -0.042025383368873737 -0.042572830819368537 -0.04297265291415775 -0.041859755899862017 -0.041024978448458302 -0.039849223579500159 -0.040972490683803153 -0.040451235565506893 -0.042478509180730484 -0.041696404286390543 -0.042162589079289992 -0.041117462092123414 -0.042615512045716897 -0.041605474611621007 -0.042505069521714178 -0.042381722591969817 -0.043599235392537294 -0.046557716451337328 -0.047651082173558762 -0.9621327998151834 -0.04467345442828094 -0.045613545640873665 -0.05288355711276635 -0.049877644401293636 -0.045870969229329067 -0.96787957960317073 -0.048704167267682674 -0.052894490545325357 -0.051705853305323679 -0.042432471626294044 -0.045419841553401202 -0.045018146781566432 -0.042256860410101016 
</DataArray>
</CellData>
</Piece>
</UnstructuredGrid>
</VTKFile>
