<?xml version="1.0"?>
<VTKFile type="UnstructuredGrid" version="0.1" byte_order="LittleEndian">
<UnstructuredGrid>
<Piece NumberOfPoints="3142" NumberOfCells="1054">
<Points>
<DataArray type="Float64" NumberOfComponents="3" format="ascii">
0.02576622439977887 0.024532886826226379 0 0 0 0 0.049999999999899652 0 0 0.02576622439977887 0.024532886826226379 0 0 0 0 0 0.050000000000207989 0 0.02576622439977887 0.024532886826226379 0 0.049999999999899652 0 0 0.053064897599215843 0.048131547304697528 0 0.02576622439977887 0.024532886826226379 0 0.053064897599215843 0.048131547304697528 0 0 0.050000000000207989 0 0 0.050000000000207989 0 0 0.10000000000041601 0 0.044310582753132287 0.101412518374475 0 0 0.10000000000041601 0 0.044310582753132287 0.101412518374475 0 0 0.15000000000062411 0 0.053064897599215843 0.048131547304697528 0 0.044310582753132287 0.101412518374475 0 0.083411279318303222 0.089699755330707398 0 0.053064897599215843 0.048131547304697528 0 0 0.050000000000207989 0 0.044310582753132287 0.101412518374475 0 0.044310582753132287 0.101412518374475 0 0.083411279318303222 0.089699755330707398 0 0.065374659239632718 0.1448908038746782 0 0.083411279318303222 0.089699755330707398 0 0.065374659239632718 0.1448908038746782 0 0.1053400320299198 0.12877248826361379 0 0.083411279318303222 0.089699755330707398 0 0.12372429750337779 0.095814237875728972 0 0.1053400320299198 0.12877248826361379 0 0.12372429750337779 0.095814237875728972 0 0.1053400320299198 0.12877248826361379 0 0.14332333627550789 0.14578431753966009 0 0.12372429750337779 0.095814237875728972 0 0.10266856499169109 0.044518360900210059 0 0.14618258501891079 0.062070108745602003 0 0.083411279318303222 0.089699755330707398 0 0.12372429750337779 0.095814237875728972 0 0.10266856499169109 0.044518360900210059 0 0.10266856499169109 0.044518360900210059 0 0.099999999999814668 0 0 0.14999999999970359 0 0 0.049999999999899652 0 0 0.053064897599215843 0.048131547304697528 0 0.099999999999814668 0 0 0.053064897599215843 0.048131547304697528 0 0.10266856499169109 0.044518360900210059 0 0.099999999999814668 0 0 0.053064897599215843 0.048131547304697528 0 0.083411279318303222 0.089699755330707398 0 0.10266856499169109 0.044518360900210059 0 0.044081577119474857 0.2271058242433576 0 0 0.20000000000083221 0 0 0.25000000000104028 0 0.044081577119474857 0.2271058242433576 0 0 0.20000000000083221 0 0.038512288486115001 0.1844147282893184 0 0.044081577119474857 0.2271058242433576 0 0.038512288486115001 0.1844147282893184 0 0.083105206071467416 0.20007701332709979 0 0.038512288486115001 0.1844147282893184 0 0 0.15000000000062411 0 0.065374659239632718 0.1448908038746782 0 0.044310582753132287 0.101412518374475 0 0 0.15000000000062411 0 0.065374659239632718 0.1448908038746782 0 0.038512288486115001 0.1844147282893184 0 0.065374659239632718 0.1448908038746782 0 0.083105206071467416 0.20007701332709979 0 0 0.20000000000083221 0 0.038512288486115001 0.1844147282893184 0 0 0.15000000000062411 0 0.065374659239632718 0.1448908038746782 0 0.1053400320299198 0.12877248826361379 0 0.106902708054812 0.16453234188234539 0 0.1053400320299198 0.12877248826361379 0 0.106902708054812 0.16453234188234539 0 0.14332333627550789 0.14578431753966009 0 0.065374659239632718 0.1448908038746782 0 0.106902708054812 0.16453234188234539 0 0.083105206071467416 0.20007701332709979 0 0.083105206071467416 0.20007701332709979 0 0.095326043202144745 0.24554465089224409 0 0.13737030665753211 0.20313708640667491 0 0.106902708054812 0.16453234188234539 0 0.083105206071467416 0.20007701332709979 0 0.13737030665753211 0.20313708640667491 0 0.044081577119474857 0.2271058242433576 0 0.083105206071467416 0.20007701332709979 0 0.095326043202144745 0.24554465089224409 0 0.044081577119474857 0.2271058242433576 0 0.095326043202144745 0.24554465089224409 0 0.049706944316556423 0.27522722923869108 0 0.095326043202144745 0.24554465089224409 0 0.14377654328998779 0.2442024734791064 0 0.13737030665753211 0.20313708640667491 0 0.17933913398461551 0.2350063570234002 0 0.14377654328998779 0.2442024734791064 0 0.13737030665753211 0.20313708640667491 0 0.17933913398461551 0.2350063570234002 0 0.13737030665753211 0.20313708640667491 0 0.18124454140915969 0.18790916706335251 0 0.18124454140915969 0.18790916706335251 0 0.14332333627550789 0.14578431753966009 0 0.18652628422869419 0.14162325200928061 0 0.106902708054812 0.16453234188234539 0 0.13737030665753211 0.20313708640667491 0 0.14332333627550789 0.14578431753966009 0 0.13737030665753211 0.20313708640667491 0 0.18124454140915969 0.18790916706335251 0 0.14332333627550789 0.14578431753966009 0 0.14332333627550789 0.14578431753966009 0 0.18652628422869419 0.14162325200928061 0 0.16141998738593399 0.10404039647458049 0 0.18652628422869419 0.14162325200928061 0 0.22985637510995899 0.1298347970200906 0 0.2185883431182947 0.18019736283949719 0 0.22985637510995899 0.1298347970200906 0 0.2185883431182947 0.18019736283949719 0 0.25557216766470708 0.15874861286892261 0 0.2185883431182947 0.18019736283949719 0 0.25557216766470708 0.15874861286892261 0 0.26429849586623999 0.19346700179430079 0 0.18124454140915969 0.18790916706335251 0 0.18652628422869419 0.14162325200928061 0 0.2185883431182947 0.18019736283949719 0 0.17933913398461551 0.2350063570234002 0 0.18124454140915969 0.18790916706335251 0 0.224700362040408 0.22206622194729711 0 0.18124454140915969 0.18790916706335251 0 0.2185883431182947 0.18019736283949719 0 0.224700362040408 0.22206622194729711 0 0.2185883431182947 0.18019736283949719 0 0.224700362040408 0.22206622194729711 0 0.26429849586623999 0.19346700179430079 0 0.224700362040408 0.22206622194729711 0 0.25195515620380449 0.25883339815888678 0 0.21049769590865089 0.26857363548218488 0 0.17933913398461551 0.2350063570234002 0 0.224700362040408 0.22206622194729711 0 0.21049769590865089 0.26857363548218488 0 0.184418230509967 0.038773194583122873 0 0.14999999999970359 0 0 0.14618258501891079 0.062070108745602003 0 0.184418230509967 0.038773194583122873 0 0.14618258501891079 0.062070108745602003 0 0.19922788606653311 0.085920220746880993 0 0.184418230509967 0.038773194583122873 0 0.14999999999970359 0 0 0.19999999999955789 0 0 0.10266856499169109 0.044518360900210059 0 0.14999999999970359 0 0 0.14618258501891079 0.062070108745602003 0 0.12372429750337779 0.095814237875728972 0 0.14618258501891079 0.062070108745602003 0 0.16141998738593399 0.10404039647458049 0 0.12372429750337779 0.095814237875728972 0 0.14332333627550789 0.14578431753966009 0 0.16141998738593399 0.10404039647458049 0 0.18652628422869419 0.14162325200928061 0 0.16141998738593399 0.10404039647458049 0 0.19922788606653311 0.085920220746880993 0 0.14618258501891079 0.062070108745602003 0 0.16141998738593399 0.10404039647458049 0 0.19922788606653311 0.085920220746880993 0 0.18652628422869419 0.14162325200928061 0 0.22985637510995899 0.1298347970200906 0 0.19922788606653311 0.085920220746880993 0 0.22985637510995899 0.1298347970200906 0 0.19922788606653311 0.085920220746880993 0 0.24218496799700481 0.089025544070598317 0 0.22985637510995899 0.1298347970200906 0 0.24218496799700481 0.089025544070598317 0 0.27474541102162192 0.11822029332053539 0 0.19922788606653311 0.085920220746880993 0 0.24218496799700481 0.089025544070598317 0 0.22668068146512929 0.045875643423131329 0 0.24218496799700481 0.089025544070598317 0 0.22668068146512929 0.045875643423131329 0 0.27499999999933927 0.060310814194988557 0 0.184418230509967 0.038773194583122873 0 0.19922788606653311 0.085920220746880993 0 0.22668068146512929 0.045875643423131329 0 0.184418230509967 0.038773194583122873 0 0.22668068146512929 0.045875643423131329 0 0.19999999999955789 0 0 0.22668068146512929 0.045875643423131329 0 0.19999999999955789 0 0 0.24999999999941211 0 0 0.24999999999941211 0 0 0.27499999999933927 0.060310814194988557 0 0.29999999999926641 0 0 0.22668068146512929 0.045875643423131329 0 0.24999999999941211 0 0 0.27499999999933927 0.060310814194988557 0 0.27499999999933927 0.060310814194988557 0 0.29999999999926641 0 0 0.32541448401678508 0.046215317981507749 0 0.29999999999926641 0 0 0.32541448401678508 0.046215317981507749 0 0.34999999999912063 0 0 0.32541448401678508 0.046215317981507749 0 0.3615861437013822 0.03582617922508851 0 0.35312867752657662 0.084946736076730367 0 0.3615861437013822 0.03582617922508851 0 0.35312867752657662 0.084946736076730367 0 0.39591832466117061 0.056982757562006353 0 0.32541448401678508 0.046215317981507749 0 0.3615861437013822 0.03582617922508851 0 0.34999999999912063 0 0 0.3615861437013822 0.03582617922508851 0 0.34999999999912063 0 0 0.3999999999989749 0 0 0.35312867752657662 0.084946736076730367 0 0.36246644853392812 0.1399454205365751 0 0.39823268594401579 0.1116623613130045 0 0.35312867752657662 0.084946736076730367 0 0.32215584939770009 0.1218492143506909 0 0.36246644853392812 0.1399454205365751 0 0.32541448401678508 0.046215317981507749 0 0.35312867752657662 0.084946736076730367 0 0.3096713403101819 0.085471541595262421 0 0.35312867752657662 0.084946736076730367 0 0.32215584939770009 0.1218492143506909 0 0.3096713403101819 0.085471541595262421 0 0.32215584939770009 0.1218492143506909 0 0.3096713403101819 0.085471541595262421 0 0.27474541102162192 0.11822029332053539 0 0.27499999999933927 0.060310814194988557 0 0.32541448401678508 0.046215317981507749 0 0.3096713403101819 0.085471541595262421 0 0.27499999999933927 0.060310814194988557 0 0.3096713403101819 0.085471541595262421 0 0.27474541102162192 0.11822029332053539 0 0.24218496799700481 0.089025544070598317 0 0.27499999999933927 0.060310814194988557 0 0.27474541102162192 0.11822029332053539 0 0.22985637510995899 0.1298347970200906 0 0.27474541102162192 0.11822029332053539 0 0.25557216766470708 0.15874861286892261 0 0.27474541102162192 0.11822029332053539 0 0.25557216766470708 0.15874861286892261 0 0.29336099386129338 0.15892013001050981 0 0.25557216766470708 0.15874861286892261 0 0.29336099386129338 0.15892013001050981 0 0.26429849586623999 0.19346700179430079 0 0.29336099386129338 0.15892013001050981 0 0.31255190597181792 0.19850845631528771 0 0.33084213324567391 0.16272720141332131 0 0.29336099386129338 0.15892013001050981 0 0.26429849586623999 0.19346700179430079 0 0.31255190597181792 0.19850845631528771 0 0.32215584939770009 0.1218492143506909 0 0.27474541102162192 0.11822029332053539 0 0.29336099386129338 0.15892013001050981 0 0.224700362040408 0.22206622194729711 0 0.28040350263641872 0.23054717217092141 0 0.25195515620380449 0.25883339815888678 0 0.224700362040408 0.22206622194729711 0 0.28040350263641872 0.23054717217092141 0 0.26429849586623999 0.19346700179430079 0 0.28040350263641872 0.23054717217092141 0 0.26429849586623999 0.19346700179430079 0 0.31255190597181792 0.19850845631528771 0 0.28040350263641872 0.23054717217092141 0 0.33758650185219202 0.23837101504325639 0 0.29132859388405002 0.27203693976649962 0 0.28040350263641872 0.23054717217092141 0 0.33758650185219202 0.23837101504325639 0 0.31255190597181792 0.19850845631528771 0 0.33758650185219202 0.23837101504325639 0 0.31255190597181792 0.19850845631528771 0 0.3572130504031617 0.1874703368446563 0 0.33758650185219202 0.23837101504325639 0 0.3572130504031617 0.1874703368446563 0 0.38831533174504851 0.2189834941785925 0 0.33758650185219202 0.23837101504325639 0 0.38831533174504851 0.2189834941785925 0 0.3786248352540974 0.27082301512024259 0 0.32215584939770009 0.1218492143506909 0 0.29336099386129338 0.15892013001050981 0 0.33084213324567391 0.16272720141332131 0 0.32215584939770009 0.1218492143506909 0 0.33084213324567391 0.16272720141332131 0 0.36246644853392812 0.1399454205365751 0 0.31255190597181792 0.19850845631528771 0 0.33084213324567391 0.16272720141332131 0 0.3572130504031617 0.1874703368446563 0 0.3572130504031617 0.1874703368446563 0 0.36246644853392812 0.1399454205365751 0 0.39801143831225599 0.16651381068160659 0 0.33084213324567391 0.16272720141332131 0 0.3572130504031617 0.1874703368446563 0 0.36246644853392812 0.1399454205365751 0 0.36246644853392812 0.1399454205365751 0 0.39801143831225599 0.16651381068160659 0 0.39823268594401579 0.1116623613130045 0 0.39801143831225599 0.16651381068160659 0 0.42905200079338551 0.19982395548231649 0 0.44288491854585582 0.14116182884956319 0 0.39801143831225599 0.16651381068160659 0 0.44288491854585582 0.14116182884956319 0 0.39823268594401579 0.1116623613130045 0 0.38831533174504851 0.2189834941785925 0 0.42377727103934271 0.25099357235810238 0 0.3786248352540974 0.27082301512024259 0 0.3572130504031617 0.1874703368446563 0 0.39801143831225599 0.16651381068160659 0 0.38831533174504851 0.2189834941785925 0 0.39801143831225599 0.16651381068160659 0 0.38831533174504851 0.2189834941785925 0 0.42905200079338551 0.19982395548231649 0 0.38831533174504851 0.2189834941785925 0 0.42905200079338551 0.19982395548231649 0 0.42377727103934271 0.25099357235810238 0 0.42905200079338551 0.19982395548231649 0 0.46429753744194407 0.22870891180733599 0 0.42377727103934271 0.25099357235810238 0 0.42905200079338551 0.19982395548231649 0 0.46429753744194407 0.22870891180733599 0 0.47357141910802508 0.1873585799078378 0 0.47357141910802508 0.1873585799078378 0 0.51729576145820033 0.1683240575987815 0 0.50760557329222289 0.20700468884612061 0 0.46429753744194407 0.22870891180733599 0 0.47357141910802508 0.1873585799078378 0 0.50760557329222289 0.20700468884612061 0 0.46429753744194407 0.22870891180733599 0 0.49695729691142171 0.25014895411178018 0 0.50760557329222289 0.20700468884612061 0 0.44288491854585582 0.14116182884956319 0 0.47357141910802508 0.1873585799078378 0 0.48466639505193998 0.1421439844745814 0 0.42905200079338551 0.19982395548231649 0 0.44288491854585582 0.14116182884956319 0 0.47357141910802508 0.1873585799078378 0 0.47357141910802508 0.1873585799078378 0 0.48466639505193998 0.1421439844745814 0 0.51729576145820033 0.1683240575987815 0 0.44288491854585582 0.14116182884956319 0 0.48466639505193998 0.1421439844745814 0 0.47881186583059909 0.093591717165689425 0 0.48466639505193998 0.1421439844745814 0 0.47881186583059909 0.093591717165689425 0 0.51076801031701946 0.1202837388510348 0 0.44288491854585582 0.14116182884956319 0 0.47881186583059909 0.093591717165689425 0 0.43698630808430822 0.080423614171545449 0 0.47881186583059909 0.093591717165689425 0 0.47040171442036788 0.044141676406503738 0 0.43698630808430822 0.080423614171545449 0 0.47881186583059909 0.093591717165689425 0 0.47040171442036788 0.044141676406503738 0 0.52375890611712683 0.059318771819432882 0 0.47040171442036788 0.044141676406503738 0 0.49999999999869432 0 0 0.52375890611712683 0.059318771819432882 0 0.47040171442036788 0.044141676406503738 0 0.49999999999869432 0 0 0.44999999999882923 0 0 0.47040171442036788 0.044141676406503738 0 0.44999999999882923 0 0 0.4320097814748517 0.037406712692169303 0 0.47040171442036788 0.044141676406503738 0 0.4320097814748517 0.037406712692169303 0 0.43698630808430822 0.080423614171545449 0 0.4320097814748517 0.037406712692169303 0 0.3999999999989749 0 0 0.39591832466117061 0.056982757562006353 0 0.4320097814748517 0.037406712692169303 0 0.39591832466117061 0.056982757562006353 0 0.43698630808430822 0.080423614171545449 0 0.44999999999882923 0 0 0.4320097814748517 0.037406712692169303 0 0.3999999999989749 0 0 0.3615861437013822 0.03582617922508851 0 0.3999999999989749 0 0 0.39591832466117061 0.056982757562006353 0 0.35312867752657662 0.084946736076730367 0 0.39591832466117061 0.056982757562006353 0 0.39823268594401579 0.1116623613130045 0 0.44288491854585582 0.14116182884956319 0 0.39823268594401579 0.1116623613130045 0 0.43698630808430822 0.080423614171545449 0 0.39591832466117061 0.056982757562006353 0 0.39823268594401579 0.1116623613130045 0 0.43698630808430822 0.080423614171545449 0 0.42161023666869668 0.39493916313643851 0 0.38707855792647411 0.42299362914874578 0 0.43249999999999988 0.43937499999999979 0 0.42161023666869668 0.39493916313643851 0 0.38083244760691543 0.38531983672244652 0 0.38707855792647411 0.42299362914874578 0 0.42161023666869668 0.39493916313643851 0 0.38083244760691543 0.38531983672244652 0 0.40076539126862748 0.34589349467022118 0 0.38707855792647411 0.42299362914874578 0 0.3908716102680424 0.47010282357248828 0 0.43249999999999988 0.43937499999999979 0 0.3908716102680424 0.47010282357248828 0 0.43507373378304309 0.49699695397193322 0 0.38244435121258652 0.51653317813019495 0 0.3908716102680424 0.47010282357248828 0 0.43507373378304309 0.49699695397193322 0 0.43249999999999988 0.43937499999999979 0 0.43507373378304309 0.49699695397193322 0 0.43249999999999988 0.43937499999999979 0 0.46111841286828259 0.46690301029591341 0 0.43249999999999988 0.43937499999999979 0 0.46111841286828259 0.46690301029591341 0 0.48858720058566618 0.43964267759203868 0 0.43507373378304309 0.49699695397193322 0 0.46111841286828259 0.46690301029591341 0 0.49102375406324739 0.49123754822244059 0 0.46111841286828259 0.46690301029591341 0 0.49102375406324739 0.49123754822244059 0 0.48858720058566618 0.43964267759203868 0 0.48858720058566618 0.43964267759203868 0 0.46655310992796922 0.39650496622958609 0 0.52289427570932567 0.3932284363388488 0 0.43249999999999988 0.43937499999999979 0 0.48858720058566618 0.43964267759203868 0 0.46655310992796922 0.39650496622958609 0 0.42161023666869668 0.39493916313643851 0 0.43249999999999988 0.43937499999999979 0 0.46655310992796922 0.39650496622958609 0 0.42161023666869668 0.39493916313643851 0 0.46655310992796922 0.39650496622958609 0 0.4409427642593301 0.35743108089689513 0 0.46655310992796922 0.39650496622958609 0 0.49077833859261139 0.35229981449445641 0 0.52289427570932567 0.3932284363388488 0 0.49077833859261139 0.35229981449445641 0 0.46226845272279993 0.31901800744800313 0 0.5 0.29999999999999999 0 0.49077833859261139 0.35229981449445641 0 0.46226845272279993 0.31901800744800313 0 0.4409427642593301 0.35743108089689513 0 0.46226845272279993 0.31901800744800313 0 0.4409427642593301 0.35743108089689513 0 0.41914690343363781 0.30688979866601612 0 0.46655310992796922 0.39650496622958609 0 0.49077833859261139 0.35229981449445641 0 0.4409427642593301 0.35743108089689513 0 0.49695729691142171 0.25014895411178018 0 0.4604742573284204 0.27846934318264788 0 0.5 0.29999999999999999 0 0.46429753744194407 0.22870891180733599 0 0.49695729691142171 0.25014895411178018 0 0.4604742573284204 0.27846934318264788 0 0.46226845272279993 0.31901800744800313 0 0.4604742573284204 0.27846934318264788 0 0.5 0.29999999999999999 0 0.46226845272279993 0.31901800744800313 0 0.4604742573284204 0.27846934318264788 0 0.41914690343363781 0.30688979866601612 0 0.46429753744194407 0.22870891180733599 0 0.4604742573284204 0.27846934318264788 0 0.42377727103934271 0.25099357235810238 0 0.4604742573284204 0.27846934318264788 0 0.42377727103934271 0.25099357235810238 0 0.41914690343363781 0.30688979866601612 0 0.42377727103934271 0.25099357235810238 0 0.41914690343363781 0.30688979866601612 0 0.3786248352540974 0.27082301512024259 0 0.41914690343363781 0.30688979866601612 0 0.3786248352540974 0.27082301512024259 0 0.36575549820117997 0.31677992835137742 0 0.42161023666869668 0.39493916313643851 0 0.4409427642593301 0.35743108089689513 0 0.40076539126862748 0.34589349467022118 0 0.4409427642593301 0.35743108089689513 0 0.41914690343363781 0.30688979866601612 0 0.40076539126862748 0.34589349467022118 0 0.41914690343363781 0.30688979866601612 0 0.40076539126862748 0.34589349467022118 0 0.36575549820117997 0.31677992835137742 0 0.40076539126862748 0.34589349467022118 0 0.36575549820117997 0.31677992835137742 0 0.33277555741076909 0.36432196682010132 0 0.38083244760691543 0.38531983672244652 0 0.40076539126862748 0.34589349467022118 0 0.33277555741076909 0.36432196682010132 0 0.36575549820117997 0.31677992835137742 0 0.32752639306529541 0.32610012995269699 0 0.33277555741076909 0.36432196682010132 0 0.32752639306529541 0.32610012995269699 0 0.33277555741076909 0.36432196682010132 0 0.29644548887253103 0.34914008784168082 0 0.33758650185219202 0.23837101504325639 0 0.3786248352540974 0.27082301512024259 0 0.33402499257867951 0.28911035184473982 0 0.3786248352540974 0.27082301512024259 0 0.36575549820117997 0.31677992835137742 0 0.33402499257867951 0.28911035184473982 0 0.36575549820117997 0.31677992835137742 0 0.32752639306529541 0.32610012995269699 0 0.33402499257867951 0.28911035184473982 0 0.32752639306529541 0.32610012995269699 0 0.33402499257867951 0.28911035184473982 0 0.29348325746214782 0.31350119524708198 0 0.33758650185219202 0.23837101504325639 0 0.33402499257867951 0.28911035184473982 0 0.29132859388405002 0.27203693976649962 0 0.33402499257867951 0.28911035184473982 0 0.29132859388405002 0.27203693976649962 0 0.29348325746214782 0.31350119524708198 0 0.29132859388405002 0.27203693976649962 0 0.29348325746214782 0.31350119524708198 0 0.24432083401701241 0.3006253385567515 0 0.29132859388405002 0.27203693976649962 0 0.25195515620380449 0.25883339815888678 0 0.24432083401701241 0.3006253385567515 0 0.28040350263641872 0.23054717217092141 0 0.29132859388405002 0.27203693976649962 0 0.25195515620380449 0.25883339815888678 0 0.33277555741076909 0.36432196682010132 0 0.29644548887253103 0.34914008784168082 0 0.27866744612395528 0.38416094670951489 0 0.32752639306529541 0.32610012995269699 0 0.29644548887253103 0.34914008784168082 0 0.29348325746214782 0.31350119524708198 0 0.29644548887253103 0.34914008784168082 0 0.29348325746214782 0.31350119524708198 0 0.25966125648670141 0.34351016742083729 0 0.29348325746214782 0.31350119524708198 0 0.25966125648670141 0.34351016742083729 0 0.24432083401701241 0.3006253385567515 0 0.29644548887253103 0.34914008784168082 0 0.25966125648670141 0.34351016742083729 0 0.27866744612395528 0.38416094670951489 0 0.25966125648670141 0.34351016742083729 0 0.27866744612395528 0.38416094670951489 0 0.22033343844674469 0.36963382230740238 0 0.27866744612395528 0.38416094670951489 0 0.29124338931648802 0.43334555462578611 0 0.24049127783545701 0.41270748208749802 0 0.29124338931648802 0.43334555462578611 0 0.25982634974572738 0.46097799597715272 0 0.24049127783545701 0.41270748208749802 0 0.27866744612395528 0.38416094670951489 0 0.29124338931648802 0.43334555462578611 0 0.31778888742534622 0.40581751814196781 0 0.33277555741076909 0.36432196682010132 0 0.27866744612395528 0.38416094670951489 0 0.31778888742534622 0.40581751814196781 0 0.33277555741076909 0.36432196682010132 0 0.31778888742534622 0.40581751814196781 0 0.35221190152536241 0.40457127605439203 0 0.31778888742534622 0.40581751814196781 0 0.35221190152536241 0.40457127605439203 0 0.34258405725730701 0.4444034294386992 0 0.29124338931648802 0.43334555462578611 0 0.31778888742534622 0.40581751814196781 0 0.34258405725730701 0.4444034294386992 0 0.38707855792647411 0.42299362914874578 0 0.35221190152536241 0.40457127605439203 0 0.34258405725730701 0.4444034294386992 0 0.38083244760691543 0.38531983672244652 0 0.38707855792647411 0.42299362914874578 0 0.35221190152536241 0.40457127605439203 0 0.38083244760691543 0.38531983672244652 0 0.33277555741076909 0.36432196682010132 0 0.35221190152536241 0.40457127605439203 0 0.3908716102680424 0.47010282357248828 0 0.35024835142131061 0.48654922671676981 0 0.38244435121258652 0.51653317813019495 0 0.3908716102680424 0.47010282357248828 0 0.35024835142131061 0.48654922671676981 0 0.34258405725730701 0.4444034294386992 0 0.38707855792647411 0.42299362914874578 0 0.3908716102680424 0.47010282357248828 0 0.34258405725730701 0.4444034294386992 0 0.29124338931648802 0.43334555462578611 0 0.34258405725730701 0.4444034294386992 0 0.31068898841644388 0.47541502461811092 0 0.35024835142131061 0.48654922671676981 0 0.31068898841644388 0.47541502461811092 0 0.33190227185843768 0.52715113583864037 0 0.35024835142131061 0.48654922671676981 0 0.34258405725730701 0.4444034294386992 0 0.31068898841644388 0.47541502461811092 0 0.31068898841644388 0.47541502461811092 0 0.25982634974572738 0.46097799597715272 0 0.28307294598219601 0.50789252727458634 0 0.29124338931648802 0.43334555462578611 0 0.31068898841644388 0.47541502461811092 0 0.25982634974572738 0.46097799597715272 0 0.25982634974572738 0.46097799597715272 0 0.23975172658309729 0.49475499200540818 0 0.28307294598219601 0.50789252727458634 0 0.23975172658309729 0.49475499200540818 0 0.19604738184454831 0.47787523520405789 0 0.22278230690790279 0.44824268025881547 0 0.19604738184454831 0.47787523520405789 0 0.22278230690790279 0.44824268025881547 0 0.191953871957803 0.42546416763755879 0 0.25982634974572738 0.46097799597715272 0 0.22278230690790279 0.44824268025881547 0 0.24049127783545701 0.41270748208749802 0 0.25982634974572738 0.46097799597715272 0 0.23975172658309729 0.49475499200540818 0 0.22278230690790279 0.44824268025881547 0 0.27866744612395528 0.38416094670951489 0 0.24049127783545701 0.41270748208749802 0 0.22033343844674469 0.36963382230740238 0 0.191953871957803 0.42546416763755879 0 0.1650278706801647 0.38791388161335733 0 0.22033343844674469 0.36963382230740238 0 0.24049127783545701 0.41270748208749802 0 0.191953871957803 0.42546416763755879 0 0.22033343844674469 0.36963382230740238 0 0.22278230690790279 0.44824268025881547 0 0.24049127783545701 0.41270748208749802 0 0.191953871957803 0.42546416763755879 0 0.191953871957803 0.42546416763755879 0 0.13773355295499351 0.42497777642586831 0 0.15801167086041079 0.46008690540259539 0 0.191953871957803 0.42546416763755879 0 0.1650278706801647 0.38791388161335733 0 0.13773355295499351 0.42497777642586831 0 0.1650278706801647 0.38791388161335733 0 0.13773355295499351 0.42497777642586831 0 0.1117088112799664 0.38831403004970022 0 0.13773355295499351 0.42497777642586831 0 0.15801167086041079 0.46008690540259539 0 0.113541300460994 0.46208784312094731 0 0.15801167086041079 0.46008690540259539 0 0.113541300460994 0.46208784312094731 0 0.1216098864341134 0.50637075089503902 0 0.15801167086041079 0.46008690540259539 0 0.1216098864341134 0.50637075089503902 0 0.16618607197337229 0.50652878253548905 0 0.19604738184454831 0.47787523520405789 0 0.15801167086041079 0.46008690540259539 0 0.16618607197337229 0.50652878253548905 0 0.19604738184454831 0.47787523520405789 0 0.191953871957803 0.42546416763755879 0 0.15801167086041079 0.46008690540259539 0 0.25195515620380449 0.25883339815888678 0 0.21049769590865089 0.26857363548218488 0 0.24432083401701241 0.3006253385567515 0 0.21049769590865089 0.26857363548218488 0 0.24432083401701241 0.3006253385567515 0 0.19670163708476801 0.31472518408333222 0 0.21049769590865089 0.26857363548218488 0 0.19670163708476801 0.31472518408333222 0 0.168349569971391 0.28054490850913671 0 0.19670163708476801 0.31472518408333222 0 0.22615676742807109 0.33458786033114157 0 0.18434624290945251 0.35208838264196463 0 0.24432083401701241 0.3006253385567515 0 0.19670163708476801 0.31472518408333222 0 0.22615676742807109 0.33458786033114157 0 0.25966125648670141 0.34351016742083729 0 0.24432083401701241 0.3006253385567515 0 0.22615676742807109 0.33458786033114157 0 0.25966125648670141 0.34351016742083729 0 0.22615676742807109 0.33458786033114157 0 0.22033343844674469 0.36963382230740238 0 0.22615676742807109 0.33458786033114157 0 0.22033343844674469 0.36963382230740238 0 0.18434624290945251 0.35208838264196463 0 0.1650278706801647 0.38791388161335733 0 0.22033343844674469 0.36963382230740238 0 0.18434624290945251 0.35208838264196463 0 0.1650278706801647 0.38791388161335733 0 0.18434624290945251 0.35208838264196463 0 0.14223753364722069 0.3341983344262433 0 0.1650278706801647 0.38791388161335733 0 0.14223753364722069 0.3341983344262433 0 0.1117088112799664 0.38831403004970022 0 0.19670163708476801 0.31472518408333222 0 0.18434624290945251 0.35208838264196463 0 0.14223753364722069 0.3341983344262433 0 0.19670163708476801 0.31472518408333222 0 0.14223753364722069 0.3341983344262433 0 0.168349569971391 0.28054490850913671 0 0.14223753364722069 0.3341983344262433 0 0.168349569971391 0.28054490850913671 0 0.1247745017231483 0.27198077544791172 0 0.14377654328998779 0.2442024734791064 0 0.168349569971391 0.28054490850913671 0 0.1247745017231483 0.27198077544791172 0 0.17933913398461551 0.2350063570234002 0 0.21049769590865089 0.26857363548218488 0 0.168349569971391 0.28054490850913671 0 0.17933913398461551 0.2350063570234002 0 0.14377654328998779 0.2442024734791064 0 0.168349569971391 0.28054490850913671 0 0.095326043202144745 0.24554465089224409 0 0.093851963071650835 0.30582068233324772 0 0.049706944316556423 0.27522722923869108 0 0.095326043202144745 0.24554465089224409 0 0.14377654328998779 0.2442024734791064 0 0.1247745017231483 0.27198077544791172 0 0.095326043202144745 0.24554465089224409 0 0.1247745017231483 0.27198077544791172 0 0.093851963071650835 0.30582068233324772 0 0.14223753364722069 0.3341983344262433 0 0.1247745017231483 0.27198077544791172 0 0.093851963071650835 0.30582068233324772 0 0.093851963071650835 0.30582068233324772 0 0.046389130980076937 0.32668781832131749 0 0.049706944316556423 0.27522722923869108 0 0.093851963071650835 0.30582068233324772 0 0.087545339447545459 0.35122518864182262 0 0.046389130980076937 0.32668781832131749 0 0.14223753364722069 0.3341983344262433 0 0.093851963071650835 0.30582068233324772 0 0.087545339447545459 0.35122518864182262 0 0.14223753364722069 0.3341983344262433 0 0.087545339447545459 0.35122518864182262 0 0.1117088112799664 0.38831403004970022 0 0.087545339447545459 0.35122518864182262 0 0.1117088112799664 0.38831403004970022 0 0.050583896093752537 0.38543522283434112 0 0.087545339447545459 0.35122518864182262 0 0.046389130980076937 0.32668781832131749 0 0.050583896093752537 0.38543522283434112 0 0 0.35000000000145642 0 0.046389130980076937 0.32668781832131749 0 0.050583896093752537 0.38543522283434112 0 0 0.35000000000145642 0 0.046389130980076937 0.32668781832131749 0 0 0.30000000000124832 0 0.046389130980076937 0.32668781832131749 0 0 0.30000000000124832 0 0.049706944316556423 0.27522722923869108 0 0 0.30000000000124832 0 0 0.25000000000104028 0 0.049706944316556423 0.27522722923869108 0 0.044081577119474857 0.2271058242433576 0 0 0.25000000000104028 0 0.049706944316556423 0.27522722923869108 0 0.068743045408989428 0.48853989837882689 0 0.113541300460994 0.46208784312094731 0 0.078358742472063481 0.43365249433908948 0 0.068743045408989428 0.48853989837882689 0 0.113541300460994 0.46208784312094731 0 0.1216098864341134 0.50637075089503902 0 0.13773355295499351 0.42497777642586831 0 0.113541300460994 0.46208784312094731 0 0.078358742472063481 0.43365249433908948 0 0.13773355295499351 0.42497777642586831 0 0.1117088112799664 0.38831403004970022 0 0.078358742472063481 0.43365249433908948 0 0.1117088112799664 0.38831403004970022 0 0.078358742472063481 0.43365249433908948 0 0.050583896093752537 0.38543522283434112 0 0.078358742472063481 0.43365249433908948 0 0.035463093262830522 0.42673416072819947 0 0.050583896093752537 0.38543522283434112 0 0 0.35000000000145642 0 0.050583896093752537 0.38543522283434112 0 0 0.40000000000166441 0 0.035463093262830522 0.42673416072819947 0 0.050583896093752537 0.38543522283434112 0 0 0.40000000000166441 0 0.035463093262830522 0.42673416072819947 0 0 0.40000000000166441 0 0 0.45000000000187229 0 0.035463093262830522 0.42673416072819947 0 0 0.45000000000187229 0 0.033550201249889847 0.46247875832467239 0 0.068743045408989428 0.48853989837882689 0 0.033550201249889847 0.46247875832467239 0 0 0.50000000000205869 0 0.068743045408989428 0.48853989837882689 0 0.078358742472063481 0.43365249433908948 0 0.033550201249889847 0.46247875832467239 0 0.078358742472063481 0.43365249433908948 0 0.035463093262830522 0.42673416072819947 0 0.033550201249889847 0.46247875832467239 0 0 0.45000000000187229 0 0.033550201249889847 0.46247875832467239 0 0 0.50000000000205869 0 0.068743045408989428 0.48853989837882689 0 0 0.50000000000205869 0 0.044576108720083309 0.53509043209532614 0 0 0.50000000000205869 0 0 0.55000000000173355 0 0.044576108720083309 0.53509043209532614 0 0 0.55000000000173355 0 0.044576108720083309 0.53509043209532614 0 0.034381862692950467 0.57372682250960894 0 0.044576108720083309 0.53509043209532614 0 0.077693244765132896 0.56932317963405099 0 0.034381862692950467 0.57372682250960894 0 0.068743045408989428 0.48853989837882689 0 0.044576108720083309 0.53509043209532614 0 0.085622222639554768 0.53333248912060549 0 0.068743045408989428 0.48853989837882689 0 0.085622222639554768 0.53333248912060549 0 0.1216098864341134 0.50637075089503902 0 0.044576108720083309 0.53509043209532614 0 0.085622222639554768 0.53333248912060549 0 0.077693244765132896 0.56932317963405099 0 0.085622222639554768 0.53333248912060549 0 0.1154888278694548 0.56733818459978413 0 0.077693244765132896 0.56932317963405099 0 0.085622222639554768 0.53333248912060549 0 0.1216098864341134 0.50637075089503902 0 0.1154888278694548 0.56733818459978413 0 0.1024350934457823 0.60772393977513839 0 0.1154888278694548 0.56733818459978413 0 0.077693244765132896 0.56932317963405099 0 0.1024350934457823 0.60772393977513839 0 0.050069554451969707 0.61308520079857043 0 0.086179601630648681 0.64647209519980475 0 0.1024350934457823 0.60772393977513839 0 0.077693244765132896 0.56932317963405099 0 0.050069554451969707 0.61308520079857043 0 0.077693244765132896 0.56932317963405099 0 0.050069554451969707 0.61308520079857043 0 0.034381862692950467 0.57372682250960894 0 0 0.55000000000173355 0 0.034381862692950467 0.57372682250960894 0 0 0.60000000000138687 0 0.050069554451969707 0.61308520079857043 0 0 0.60000000000138687 0 0 0.65000000000104008 0 0.050069554451969707 0.61308520079857043 0 0.034381862692950467 0.57372682250960894 0 0 0.60000000000138687 0 0 0.65000000000104008 0 0.046634677244967337 0.671418230738282 0 0 0.7000000000006934 0 0.050069554451969707 0.61308520079857043 0 0.046634677244967337 0.671418230738282 0 0.086179601630648681 0.64647209519980475 0 0.050069554451969707 0.61308520079857043 0 0 0.65000000000104008 0 0.046634677244967337 0.671418230738282 0 0 0.7000000000006934 0 0.049706944316475897 0.72477277076253799 0 0 0.75000000000034661 0 0.046634677244967337 0.671418230738282 0 0 0.7000000000006934 0 0.049706944316475897 0.72477277076253799 0 0.049706944316475897 0.72477277076253799 0 0 0.75000000000034661 0 0.04408157711937423 0.7728941757575627 0 0.049706944316475897 0.72477277076253799 0 0.1020579365089687 0.69352219419301997 0 0.090953281884486245 0.7564451946902494 0 0.1020579365089687 0.69352219419301997 0 0.1215415378367805 0.72939333680004137 0 0.090953281884486245 0.7564451946902494 0 0.046634677244967337 0.671418230738282 0 0.049706944316475897 0.72477277076253799 0 0.1020579365089687 0.69352219419301997 0 0.1215415378367805 0.72939333680004137 0 0.090953281884486245 0.7564451946902494 0 0.14335651144331049 0.75565258250209677 0 0.046634677244967337 0.671418230738282 0 0.1020579365089687 0.69352219419301997 0 0.086179601630648681 0.64647209519980475 0 0.1020579365089687 0.69352219419301997 0 0.086179601630648681 0.64647209519980475 0 0.1241190223511371 0.64391885572885044 0 0.1024350934457823 0.60772393977513839 0 0.086179601630648681 0.64647209519980475 0 0.1241190223511371 0.64391885572885044 0 0.1020579365089687 0.69352219419301997 0 0.1241190223511371 0.64391885572885044 0 0.16500388252850301 0.66612077714085194 0 0.1241190223511371 0.64391885572885044 0 0.16500388252850301 0.66612077714085194 0 0.15720202157091859 0.60665697304410315 0 0.16500388252850301 0.66612077714085194 0 0.19914261668318661 0.62286739485272158 0 0.15720202157091859 0.60665697304410315 0 0.1020579365089687 0.69352219419301997 0 0.16500388252850301 0.66612077714085194 0 0.15332765547575641 0.71200081858233666 0 0.1215415378367805 0.72939333680004137 0 0.15332765547575641 0.71200081858233666 0 0.14335651144331049 0.75565258250209677 0 0.1020579365089687 0.69352219419301997 0 0.1215415378367805 0.72939333680004137 0 0.15332765547575641 0.71200081858233666 0 0.16500388252850301 0.66612077714085194 0 0.15332765547575641 0.71200081858233666 0 0.19068556247388771 0.71028988922845504 0 0.15332765547575641 0.71200081858233666 0 0.14335651144331049 0.75565258250209677 0 0.18269480424590959 0.75905448272264375 0 0.15332765547575641 0.71200081858233666 0 0.19068556247388771 0.71028988922845504 0 0.18269480424590959 0.75905448272264375 0 0.19068556247388771 0.71028988922845504 0 0.2248999640082178 0.72584299459689172 0 0.18269480424590959 0.75905448272264375 0 0.19068556247388771 0.71028988922845504 0 0.2248999640082178 0.72584299459689172 0 0.2236846579037573 0.67380363126050236 0 0.2248999640082178 0.72584299459689172 0 0.2236846579037573 0.67380363126050236 0 0.26439878998046262 0.7048065392091396 0 0.2248999640082178 0.72584299459689172 0 0.22556077506376701 0.77837424984191617 0 0.25676291524611189 0.7436741304886243 0 0.2248999640082178 0.72584299459689172 0 0.25676291524611189 0.7436741304886243 0 0.26439878998046262 0.7048065392091396 0 0.16500388252850301 0.66612077714085194 0 0.2236846579037573 0.67380363126050236 0 0.19914261668318661 0.62286739485272158 0 0.16500388252850301 0.66612077714085194 0 0.19068556247388771 0.71028988922845504 0 0.2236846579037573 0.67380363126050236 0 0.2236846579037573 0.67380363126050236 0 0.2459498854893499 0.63248470766216769 0 0.19914261668318661 0.62286739485272158 0 0.2236846579037573 0.67380363126050236 0 0.2459498854893499 0.63248470766216769 0 0.27820712747429932 0.65530134213254643 0 0.2459498854893499 0.63248470766216769 0 0.19914261668318661 0.62286739485272158 0 0.22549374774072969 0.58452645269293457 0 0.2459498854893499 0.63248470766216769 0 0.22549374774072969 0.58452645269293457 0 0.26573297623774761 0.59828298563722948 0 0.19914261668318661 0.62286739485272158 0 0.22549374774072969 0.58452645269293457 0 0.18381867841758909 0.57774125163628387 0 0.22549374774072969 0.58452645269293457 0 0.20050006573841939 0.53248514016039872 0 0.18381867841758909 0.57774125163628387 0 0.22549374774072969 0.58452645269293457 0 0.25115337790845271 0.54719303014923271 0 0.26573297623774761 0.59828298563722948 0 0.22549374774072969 0.58452645269293457 0 0.20050006573841939 0.53248514016039872 0 0.25115337790845271 0.54719303014923271 0 0.23975172658309729 0.49475499200540818 0 0.20050006573841939 0.53248514016039872 0 0.25115337790845271 0.54719303014923271 0 0.19604738184454831 0.47787523520405789 0 0.20050006573841939 0.53248514016039872 0 0.16618607197337229 0.50652878253548905 0 0.23975172658309729 0.49475499200540818 0 0.19604738184454831 0.47787523520405789 0 0.20050006573841939 0.53248514016039872 0 0.20050006573841939 0.53248514016039872 0 0.14934928745814749 0.55042914607228977 0 0.18381867841758909 0.57774125163628387 0 0.20050006573841939 0.53248514016039872 0 0.16618607197337229 0.50652878253548905 0 0.14934928745814749 0.55042914607228977 0 0.1216098864341134 0.50637075089503902 0 0.16618607197337229 0.50652878253548905 0 0.14934928745814749 0.55042914607228977 0 0.1216098864341134 0.50637075089503902 0 0.1154888278694548 0.56733818459978413 0 0.14934928745814749 0.55042914607228977 0 0.1154888278694548 0.56733818459978413 0 0.14934928745814749 0.55042914607228977 0 0.15720202157091859 0.60665697304410315 0 0.1024350934457823 0.60772393977513839 0 0.1154888278694548 0.56733818459978413 0 0.15720202157091859 0.60665697304410315 0 0.1024350934457823 0.60772393977513839 0 0.1241190223511371 0.64391885572885044 0 0.15720202157091859 0.60665697304410315 0 0.19914261668318661 0.62286739485272158 0 0.15720202157091859 0.60665697304410315 0 0.18381867841758909 0.57774125163628387 0 0.14934928745814749 0.55042914607228977 0 0.15720202157091859 0.60665697304410315 0 0.18381867841758909 0.57774125163628387 0 0.10000000000041601 1 0 0.10266856499240549 0.95548163909968886 0 0.15000000000062411 1 0 0.10266856499240549 0.95548163909968886 0 0.053064897599294662 0.95186845269532028 0 0.083411279318375747 0.91030024466934134 0 0.10000000000041601 1 0 0.050000000000207989 1 0 0.053064897599294662 0.95186845269532028 0 0.10000000000041601 1 0 0.10266856499240549 0.95548163909968886 0 0.053064897599294662 0.95186845269532028 0 0.050000000000207989 1 0 0.025766224399875661 0.97546711317377799 0 0.053064897599294662 0.95186845269532028 0 0.050000000000207989 1 0 0 1 0 0.025766224399875661 0.97546711317377799 0 0 1 0 0.025766224399875661 0.97546711317377799 0 0 0.94999999999979179 0 0.025766224399875661 0.97546711317377799 0 0 0.94999999999979179 0 0.053064897599294662 0.95186845269532028 0 0 0.94999999999979179 0 0.053064897599294662 0.95186845269532028 0 0.0443105827531413 0.89858748162559932 0 0.053064897599294662 0.95186845269532028 0 0.0443105827531413 0.89858748162559932 0 0.083411279318375747 0.91030024466934134 0 0 0.94999999999979179 0 0 0.89999999999958358 0 0.0443105827531413 0.89858748162559932 0 0 0.89999999999958358 0 0.0443105827531413 0.89858748162559932 0 0 0.84999999999965292 0 0.0443105827531413 0.89858748162559932 0 0.083411279318375747 0.91030024466934134 0 0.065374659239661639 0.8551091961254178 0 0.083411279318375747 0.91030024466934134 0 0.10562472963403439 0.87143394428979881 0 0.065374659239661639 0.8551091961254178 0 0.10266856499240549 0.95548163909968886 0 0.083411279318375747 0.91030024466934134 0 0.1241151115713819 0.9045666525468371 0 0.10266856499240549 0.95548163909968886 0 0.1241151115713819 0.9045666525468371 0 0.14617343800780541 0.93808063414349496 0 0.1241151115713819 0.9045666525468371 0 0.10562472963403439 0.87143394428979881 0 0.14474682429600511 0.85524784522713515 0 0.083411279318375747 0.91030024466934134 0 0.1241151115713819 0.9045666525468371 0 0.10562472963403439 0.87143394428979881 0 0.10562472963403439 0.87143394428979881 0 0.1074251789111534 0.83564394292147814 0 0.14474682429600511 0.85524784522713515 0 0.1074251789111534 0.83564394292147814 0 0.065374659239661639 0.8551091961254178 0 0.083105206071452636 0.79992298667296435 0 0.10562472963403439 0.87143394428979881 0 0.1074251789111534 0.83564394292147814 0 0.065374659239661639 0.8551091961254178 0 0.065374659239661639 0.8551091961254178 0 0 0.84999999999965292 0 0.038512288486097702 0.8155852717111195 0 0.0443105827531413 0.89858748162559932 0 0.065374659239661639 0.8551091961254178 0 0 0.84999999999965292 0 0 0.84999999999965292 0 0.038512288486097702 0.8155852717111195 0 0 0.79999999999999982 0 0.065374659239661639 0.8551091961254178 0 0.038512288486097702 0.8155852717111195 0 0.083105206071452636 0.79992298667296435 0 0.038512288486097702 0.8155852717111195 0 0.04408157711937423 0.7728941757575627 0 0.083105206071452636 0.79992298667296435 0 0.038512288486097702 0.8155852717111195 0 0 0.79999999999999982 0 0.04408157711937423 0.7728941757575627 0 0 0.79999999999999982 0 0 0.75000000000034661 0 0.04408157711937423 0.7728941757575627 0 0.049706944316475897 0.72477277076253799 0 0.04408157711937423 0.7728941757575627 0 0.090953281884486245 0.7564451946902494 0 0.04408157711937423 0.7728941757575627 0 0.090953281884486245 0.7564451946902494 0 0.083105206071452636 0.79992298667296435 0 0.1074251789111534 0.83564394292147814 0 0.083105206071452636 0.79992298667296435 0 0.1382744753146134 0.79650574229207483 0 0.090953281884486245 0.7564451946902494 0 0.083105206071452636 0.79992298667296435 0 0.1382744753146134 0.79650574229207483 0 0.090953281884486245 0.7564451946902494 0 0.14335651144331049 0.75565258250209677 0 0.1382744753146134 0.79650574229207483 0 0.14335651144331049 0.75565258250209677 0 0.1382744753146134 0.79650574229207483 0 0.18269480424590959 0.75905448272264375 0 0.1382744753146134 0.79650574229207483 0 0.18269480424590959 0.75905448272264375 0 0.17777405986036951 0.81832336108265358 0 0.2248999640082178 0.72584299459689172 0 0.18269480424590959 0.75905448272264375 0 0.22556077506376701 0.77837424984191617 0 0.22556077506376701 0.77837424984191617 0 0.21858834311891909 0.81980263716112767 0 0.26104540868854792 0.81401944968719064 0 0.22556077506376701 0.77837424984191617 0 0.21858834311891909 0.81980263716112767 0 0.17777405986036951 0.81832336108265358 0 0.18269480424590959 0.75905448272264375 0 0.22556077506376701 0.77837424984191617 0 0.17777405986036951 0.81832336108265358 0 0.21858834311891909 0.81980263716112767 0 0.19741632902693801 0.86755867406447229 0 0.17777405986036951 0.81832336108265358 0 0.21858834311891909 0.81980263716112767 0 0.2401283238295133 0.85648409884788523 0 0.26104540868854792 0.81401944968719064 0 0.21858834311891909 0.81980263716112767 0 0.2401283238295133 0.85648409884788523 0 0.19741632902693801 0.86755867406447229 0 0.19741632902693801 0.86755867406447229 0 0.17777405986036951 0.81832336108265358 0 0.14474682429600511 0.85524784522713515 0 0.19741632902693801 0.86755867406447229 0 0.14474682429600511 0.85524784522713515 0 0.16206583317966519 0.89685560785156404 0 0.1382744753146134 0.79650574229207483 0 0.17777405986036951 0.81832336108265358 0 0.14474682429600511 0.85524784522713515 0 0.1074251789111534 0.83564394292147814 0 0.1382744753146134 0.79650574229207483 0 0.14474682429600511 0.85524784522713515 0 0.1241151115713819 0.9045666525468371 0 0.14474682429600511 0.85524784522713515 0 0.16206583317966519 0.89685560785156404 0 0.1241151115713819 0.9045666525468371 0 0.16206583317966519 0.89685560785156404 0 0.14617343800780541 0.93808063414349496 0 0.16206583317966519 0.89685560785156404 0 0.19901705110390991 0.9175543425573498 0 0.14617343800780541 0.93808063414349496 0 0.19741632902693801 0.86755867406447229 0 0.16206583317966519 0.89685560785156404 0 0.19901705110390991 0.9175543425573498 0 0.19741632902693801 0.86755867406447229 0 0.24536017905392571 0.90704567837671446 0 0.19901705110390991 0.9175543425573498 0 0.2401283238295133 0.85648409884788523 0 0.19741632902693801 0.86755867406447229 0 0.24536017905392571 0.90704567837671446 0 0.24536017905392571 0.90704567837671446 0 0.19901705110390991 0.9175543425573498 0 0.22850979588452081 0.95594428570238643 0 0.19901705110390991 0.9175543425573498 0 0.22850979588452081 0.95594428570238643 0 0.18474005699953849 0.96231585248064622 0 0.24536017905392571 0.90704567837671446 0 0.22850979588452081 0.95594428570238643 0 0.27609987656793722 0.94991445621608572 0 0.22850979588452081 0.95594428570238643 0 0.20000000000083221 1 0 0.25000000000104028 1 0 0.22850979588452081 0.95594428570238643 0 0.20000000000083221 1 0 0.18474005699953849 0.96231585248064622 0 0.20000000000083221 1 0 0.18474005699953849 0.96231585248064622 0 0.15000000000062411 1 0 0.19901705110390991 0.9175543425573498 0 0.18474005699953849 0.96231585248064622 0 0.14617343800780541 0.93808063414349496 0 0.18474005699953849 0.96231585248064622 0 0.14617343800780541 0.93808063414349496 0 0.15000000000062411 1 0 0.10266856499240549 0.95548163909968886 0 0.14617343800780541 0.93808063414349496 0 0.15000000000062411 1 0 0.35000000000145642 1 0 0.36184234618600131 0.96443954459096326 0 0.32544832635163229 0.95485394099568932 0 0.35000000000145642 1 0 0.36184234618600131 0.96443954459096326 0 0.40000000000166441 1 0 0.36184234618600131 0.96443954459096326 0 0.32544832635163229 0.95485394099568932 0 0.35752321586431363 0.9185439911803448 0 0.36184234618600131 0.96443954459096326 0 0.35752321586431363 0.9185439911803448 0 0.39641108128798319 0.94356127926187128 0 0.35000000000145642 1 0 0.32544832635163229 0.95485394099568932 0 0.30000000000124832 1 0 0.30000000000124832 1 0 0.25000000000104028 1 0 0.27609987656793722 0.94991445621608572 0 0.22850979588452081 0.95594428570238643 0 0.25000000000104028 1 0 0.27609987656793722 0.94991445621608572 0 0.32544832635163229 0.95485394099568932 0 0.30000000000124832 1 0 0.27609987656793722 0.94991445621608572 0 0.32544832635163229 0.95485394099568932 0 0.27609987656793722 0.94991445621608572 0 0.30864387279288652 0.89906554525974958 0 0.24536017905392571 0.90704567837671446 0 0.27270076654418179 0.87751467830216623 0 0.30864387279288652 0.89906554525974958 0 0.24536017905392571 0.90704567837671446 0 0.27609987656793722 0.94991445621608572 0 0.30864387279288652 0.89906554525974958 0 0.2401283238295133 0.85648409884788523 0 0.24536017905392571 0.90704567837671446 0 0.27270076654418179 0.87751467830216623 0 0.30864387279288652 0.89906554525974958 0 0.35752321586431363 0.9185439911803448 0 0.35864759629805099 0.87963482415279515 0 0.32544832635163229 0.95485394099568932 0 0.30864387279288652 0.89906554525974958 0 0.35752321586431363 0.9185439911803448 0 0.35752321586431363 0.9185439911803448 0 0.35864759629805099 0.87963482415279515 0 0.39767323751400468 0.89584229130535065 0 0.35864759629805099 0.87963482415279515 0 0.33403534827021109 0.84402799729020661 0 0.39536230704883951 0.84069429572832477 0 0.33403534827021109 0.84402799729020661 0 0.35642984951668422 0.80994399665655703 0 0.39536230704883951 0.84069429572832477 0 0.33403534827021109 0.84402799729020661 0 0.30857225866488791 0.81101973481716805 0 0.35642984951668422 0.80994399665655703 0 0.30864387279288652 0.89906554525974958 0 0.35864759629805099 0.87963482415279515 0 0.33403534827021109 0.84402799729020661 0 0.30864387279288652 0.89906554525974958 0 0.33403534827021109 0.84402799729020661 0 0.29209212897034281 0.84715728365233667 0 0.27270076654418179 0.87751467830216623 0 0.30864387279288652 0.89906554525974958 0 0.29209212897034281 0.84715728365233667 0 0.2401283238295133 0.85648409884788523 0 0.27270076654418179 0.87751467830216623 0 0.29209212897034281 0.84715728365233667 0 0.2401283238295133 0.85648409884788523 0 0.29209212897034281 0.84715728365233667 0 0.26104540868854792 0.81401944968719064 0 0.29209212897034281 0.84715728365233667 0 0.26104540868854792 0.81401944968719064 0 0.30857225866488791 0.81101973481716805 0 0.33403534827021109 0.84402799729020661 0 0.29209212897034281 0.84715728365233667 0 0.30857225866488791 0.81101973481716805 0 0.26104540868854792 0.81401944968719064 0 0.30857225866488791 0.81101973481716805 0 0.2792923945214143 0.77665808831789485 0 0.30857225866488791 0.81101973481716805 0 0.2792923945214143 0.77665808831789485 0 0.33123028043633618 0.77629643437932982 0 0.22556077506376701 0.77837424984191617 0 0.26104540868854792 0.81401944968719064 0 0.2792923945214143 0.77665808831789485 0 0.2792923945214143 0.77665808831789485 0 0.25676291524611189 0.7436741304886243 0 0.29904318922293632 0.74132814928635593 0 0.22556077506376701 0.77837424984191617 0 0.2792923945214143 0.77665808831789485 0 0.25676291524611189 0.7436741304886243 0 0.2792923945214143 0.77665808831789485 0 0.33123028043633618 0.77629643437932982 0 0.29904318922293632 0.74132814928635593 0 0.33123028043633618 0.77629643437932982 0 0.29904318922293632 0.74132814928635593 0 0.35415581127540569 0.73730480045900215 0 0.30857225866488791 0.81101973481716805 0 0.33123028043633618 0.77629643437932982 0 0.35642984951668422 0.80994399665655703 0 0.33123028043633618 0.77629643437932982 0 0.35642984951668422 0.80994399665655703 0 0.38586766253264881 0.78219501014812498 0 0.33123028043633618 0.77629643437932982 0 0.38586766253264881 0.78219501014812498 0 0.35415581127540569 0.73730480045900215 0 0.38586766253264881 0.78219501014812498 0 0.42676259796334498 0.76772545931379299 0 0.40326160981139969 0.73346192995102844 0 0.38586766253264881 0.78219501014812498 0 0.35415581127540569 0.73730480045900215 0 0.40326160981139969 0.73346192995102844 0 0.38586766253264881 0.78219501014812498 0 0.42609163930740518 0.80361684430568059 0 0.39536230704883951 0.84069429572832477 0 0.35642984951668422 0.80994399665655703 0 0.38586766253264881 0.78219501014812498 0 0.39536230704883951 0.84069429572832477 0 0.38586766253264881 0.78219501014812498 0 0.42609163930740518 0.80361684430568059 0 0.42676259796334498 0.76772545931379299 0 0.42676259796334498 0.76772545931379299 0 0.4656888918609538 0.78493261229743638 0 0.45582236402875981 0.73896743678908217 0 0.4656888918609538 0.78493261229743638 0 0.45582236402875981 0.73896743678908217 0 0.50945740445113552 0.75476055527778108 0 0.4656888918609538 0.78493261229743638 0 0.50731287292894423 0.78963574450233831 0 0.50945740445113552 0.75476055527778108 0 0.4656888918609538 0.78493261229743638 0 0.50627822638148745 0.8263979829520941 0 0.50731287292894423 0.78963574450233831 0 0.42609163930740518 0.80361684430568059 0 0.4656888918609538 0.78493261229743638 0 0.45677673713123867 0.84253684404072415 0 0.42609163930740518 0.80361684430568059 0 0.42676259796334498 0.76772545931379299 0 0.4656888918609538 0.78493261229743638 0 0.4656888918609538 0.78493261229743638 0 0.45677673713123867 0.84253684404072415 0 0.50627822638148745 0.8263979829520941 0 0.45677673713123867 0.84253684404072415 0 0.50202631463681879 0.87892870825713787 0 0.50627822638148745 0.8263979829520941 0 0.45677673713123867 0.84253684404072415 0 0.44003836461056539 0.88093474584252718 0 0.50202631463681879 0.87892870825713787 0 0.45677673713123867 0.84253684404072415 0 0.39536230704883951 0.84069429572832477 0 0.44003836461056539 0.88093474584252718 0 0.39536230704883951 0.84069429572832477 0 0.39767323751400468 0.89584229130535065 0 0.44003836461056539 0.88093474584252718 0 0.42609163930740518 0.80361684430568059 0 0.45677673713123867 0.84253684404072415 0 0.39536230704883951 0.84069429572832477 0 0.35864759629805099 0.87963482415279515 0 0.39536230704883951 0.84069429572832477 0 0.39767323751400468 0.89584229130535065 0 0.35752321586431363 0.9185439911803448 0 0.39767323751400468 0.89584229130535065 0 0.39641108128798319 0.94356127926187128 0 0.39767323751400468 0.89584229130535065 0 0.4367309254023824 0.92065556789053882 0 0.39641108128798319 0.94356127926187128 0 0.39767323751400468 0.89584229130535065 0 0.4367309254023824 0.92065556789053882 0 0.44003836461056539 0.88093474584252718 0 0.4367309254023824 0.92065556789053882 0 0.44003836461056539 0.88093474584252718 0 0.47401147028110507 0.91529957330468115 0 0.44003836461056539 0.88093474584252718 0 0.47401147028110507 0.91529957330468115 0 0.50202631463681879 0.87892870825713787 0 0.47401147028110507 0.91529957330468115 0 0.47135117303824892 0.95556877749289892 0 0.52122150208832174 0.94089974453840242 0 0.47401147028110507 0.91529957330468115 0 0.52122150208832174 0.94089974453840242 0 0.50202631463681879 0.87892870825713787 0 0.4367309254023824 0.92065556789053882 0 0.47401147028110507 0.91529957330468115 0 0.47135117303824892 0.95556877749289892 0 0.4367309254023824 0.92065556789053882 0 0.47135117303824892 0.95556877749289892 0 0.4308986359464303 0.96395712492906194 0 0.47135117303824892 0.95556877749289892 0 0.50000000000205869 1 0 0.52122150208832174 0.94089974453840242 0 0.47135117303824892 0.95556877749289892 0 0.45000000000187229 1 0 0.50000000000205869 1 0 0.47135117303824892 0.95556877749289892 0 0.45000000000187229 1 0 0.4308986359464303 0.96395712492906194 0 0.45000000000187229 1 0 0.4308986359464303 0.96395712492906194 0 0.40000000000166441 1 0 0.4308986359464303 0.96395712492906194 0 0.39641108128798319 0.94356127926187128 0 0.40000000000166441 1 0 0.4367309254023824 0.92065556789053882 0 0.4308986359464303 0.96395712492906194 0 0.39641108128798319 0.94356127926187128 0 0.36184234618600131 0.96443954459096326 0 0.39641108128798319 0.94356127926187128 0 0.40000000000166441 1 0 0.33122374654748771 0.57588941099433744 0 0.31502927232353312 0.6134992213375432 0 0.35765792684946668 0.6000687869219653 0 0.31502927232353312 0.6134992213375432 0 0.35765792684946668 0.6000687869219653 0 0.35864735590330371 0.63903383440414463 0 0.35765792684946668 0.6000687869219653 0 0.35864735590330371 0.63903383440414463 0 0.39743091024207589 0.6239520004230239 0 0.33122374654748771 0.57588941099433744 0 0.35765792684946668 0.6000687869219653 0 0.37272913873093971 0.56192925302619479 0 0.37272913873093971 0.56192925302619479 0 0.33190227185843768 0.52715113583864037 0 0.38244435121258652 0.51653317813019495 0 0.33122374654748771 0.57588941099433744 0 0.37272913873093971 0.56192925302619479 0 0.33190227185843768 0.52715113583864037 0 0.35024835142131061 0.48654922671676981 0 0.33190227185843768 0.52715113583864037 0 0.38244435121258652 0.51653317813019495 0 0.33122374654748771 0.57588941099433744 0 0.33190227185843768 0.52715113583864037 0 0.29110487519241501 0.56588143995431495 0 0.33190227185843768 0.52715113583864037 0 0.28307294598219601 0.50789252727458634 0 0.29110487519241501 0.56588143995431495 0 0.31068898841644388 0.47541502461811092 0 0.33190227185843768 0.52715113583864037 0 0.28307294598219601 0.50789252727458634 0 0.23975172658309729 0.49475499200540818 0 0.28307294598219601 0.50789252727458634 0 0.25115337790845271 0.54719303014923271 0 0.28307294598219601 0.50789252727458634 0 0.25115337790845271 0.54719303014923271 0 0.29110487519241501 0.56588143995431495 0 0.25115337790845271 0.54719303014923271 0 0.29110487519241501 0.56588143995431495 0 0.26573297623774761 0.59828298563722948 0 0.33122374654748771 0.57588941099433744 0 0.31502927232353312 0.6134992213375432 0 0.29110487519241501 0.56588143995431495 0 0.31502927232353312 0.6134992213375432 0 0.29110487519241501 0.56588143995431495 0 0.26573297623774761 0.59828298563722948 0 0.31502927232353312 0.6134992213375432 0 0.26573297623774761 0.59828298563722948 0 0.27820712747429932 0.65530134213254643 0 0.2459498854893499 0.63248470766216769 0 0.26573297623774761 0.59828298563722948 0 0.27820712747429932 0.65530134213254643 0 0.2236846579037573 0.67380363126050236 0 0.27820712747429932 0.65530134213254643 0 0.26439878998046262 0.7048065392091396 0 0.27820712747429932 0.65530134213254643 0 0.31378396441836959 0.70157213313026345 0 0.32263089806001177 0.66003674931826484 0 0.27820712747429932 0.65530134213254643 0 0.26439878998046262 0.7048065392091396 0 0.31378396441836959 0.70157213313026345 0 0.31502927232353312 0.6134992213375432 0 0.27820712747429932 0.65530134213254643 0 0.32263089806001177 0.66003674931826484 0 0.25676291524611189 0.7436741304886243 0 0.26439878998046262 0.7048065392091396 0 0.29904318922293632 0.74132814928635593 0 0.26439878998046262 0.7048065392091396 0 0.29904318922293632 0.74132814928635593 0 0.31378396441836959 0.70157213313026345 0 0.29904318922293632 0.74132814928635593 0 0.31378396441836959 0.70157213313026345 0 0.35415581127540569 0.73730480045900215 0 0.31378396441836959 0.70157213313026345 0 0.36622285152418499 0.69092437780804039 0 0.35415581127540569 0.73730480045900215 0 0.36622285152418499 0.69092437780804039 0 0.35415581127540569 0.73730480045900215 0 0.40326160981139969 0.73346192995102844 0 0.31502927232353312 0.6134992213375432 0 0.32263089806001177 0.66003674931826484 0 0.35864735590330371 0.63903383440414463 0 0.31378396441836959 0.70157213313026345 0 0.36622285152418499 0.69092437780804039 0 0.32263089806001177 0.66003674931826484 0 0.36622285152418499 0.69092437780804039 0 0.32263089806001177 0.66003674931826484 0 0.35864735590330371 0.63903383440414463 0 0.36622285152418499 0.69092437780804039 0 0.35864735590330371 0.63903383440414463 0 0.3977710372045391 0.65868194622830212 0 0.35864735590330371 0.63903383440414463 0 0.3977710372045391 0.65868194622830212 0 0.39743091024207589 0.6239520004230239 0 0.36622285152418499 0.69092437780804039 0 0.3977710372045391 0.65868194622830212 0 0.43323420005758778 0.6913544522562407 0 0.3977710372045391 0.65868194622830212 0 0.43323420005758778 0.6913544522562407 0 0.43846182030517877 0.64845797726506715 0 0.43846182030517877 0.64845797726506715 0 0.43545892161006339 0.61093128915313821 0 0.39743091024207589 0.6239520004230239 0 0.3977710372045391 0.65868194622830212 0 0.43846182030517877 0.64845797726506715 0 0.39743091024207589 0.6239520004230239 0 0.36622285152418499 0.69092437780804039 0 0.40326160981139969 0.73346192995102844 0 0.43323420005758778 0.6913544522562407 0 0.40326160981139969 0.73346192995102844 0 0.43323420005758778 0.6913544522562407 0 0.45582236402875981 0.73896743678908217 0 0.42676259796334498 0.76772545931379299 0 0.40326160981139969 0.73346192995102844 0 0.45582236402875981 0.73896743678908217 0 0.43323420005758778 0.6913544522562407 0 0.45582236402875981 0.73896743678908217 0 0.5 0.69999999999999996 0 0.45582236402875981 0.73896743678908217 0 0.5 0.69999999999999996 0 0.50945740445113552 0.75476055527778108 0 0.43323420005758778 0.6913544522562407 0 0.47913475093885149 0.66010775372412711 0 0.5 0.69999999999999996 0 0.43846182030517877 0.64845797726506715 0 0.47913475093885149 0.66010775372412711 0 0.47095389620662098 0.61892551373708504 0 0.43846182030517877 0.64845797726506715 0 0.47095389620662098 0.61892551373708504 0 0.43545892161006339 0.61093128915313821 0 0.43323420005758778 0.6913544522562407 0 0.43846182030517877 0.64845797726506715 0 0.47913475093885149 0.66010775372412711 0 0.47913475093885149 0.66010775372412711 0 0.47095389620662098 0.61892551373708504 0 0.50715858906372158 0.63295939104129484 0 0.47095389620662098 0.61892551373708504 0 0.5166924242153631 0.59825134841919447 0 0.50715858906372158 0.63295939104129484 0 0.47095389620662098 0.61892551373708504 0 0.46666084890304671 0.57634471035397938 0 0.5166924242153631 0.59825134841919447 0 0.47095389620662098 0.61892551373708504 0 0.46666084890304671 0.57634471035397938 0 0.43545892161006339 0.61093128915313821 0 0.43545892161006339 0.61093128915313821 0 0.4089290844030305 0.58728915500154233 0 0.39743091024207589 0.6239520004230239 0 0.46666084890304671 0.57634471035397938 0 0.43545892161006339 0.61093128915313821 0 0.4089290844030305 0.58728915500154233 0 0.46666084890304671 0.57634471035397938 0 0.4089290844030305 0.58728915500154233 0 0.42644501560315817 0.54603747078095544 0 0.37272913873093971 0.56192925302619479 0 0.4089290844030305 0.58728915500154233 0 0.42644501560315817 0.54603747078095544 0 0.35765792684946668 0.6000687869219653 0 0.37272913873093971 0.56192925302619479 0 0.4089290844030305 0.58728915500154233 0 0.35765792684946668 0.6000687869219653 0 0.4089290844030305 0.58728915500154233 0 0.39743091024207589 0.6239520004230239 0 0.37272913873093971 0.56192925302619479 0 0.38244435121258652 0.51653317813019495 0 0.42644501560315817 0.54603747078095544 0 0.43507373378304309 0.49699695397193322 0 0.38244435121258652 0.51653317813019495 0 0.42644501560315817 0.54603747078095544 0 0.46666084890304671 0.57634471035397938 0 0.47793794143994173 0.52940715638744962 0 0.53245488764484505 0.55078124999999989 0 0.43507373378304309 0.49699695397193322 0 0.49102375406324739 0.49123754822244059 0 0.47793794143994173 0.52940715638744962 0 0.43507373378304309 0.49699695397193322 0 0.42644501560315817 0.54603747078095544 0 0.47793794143994173 0.52940715638744962 0 0.46666084890304671 0.57634471035397938 0 0.42644501560315817 0.54603747078095544 0 0.47793794143994173 0.52940715638744962 0 0.49102375406324739 0.49123754822244059 0 0.47793794143994173 0.52940715638744962 0 0.53330375813596242 0.50827942741749099 0 0.47793794143994173 0.52940715638744962 0 0.53245488764484505 0.55078124999999989 0 0.53330375813596242 0.50827942741749099 0 0.53245488764484505 0.55078124999999989 0 0.53330375813596242 0.50827942741749099 0 0.57435499076887508 0.54267261987897775 0 0.53245488764484505 0.55078124999999989 0 0.57435499076887508 0.54267261987897775 0 0.57412547362576272 0.58273804879550706 0 0.53330375813596242 0.50827942741749099 0 0.57611405284611883 0.50165903596042916 0 0.57435499076887508 0.54267261987897775 0 0.57611405284611883 0.50165903596042916 0 0.57435499076887508 0.54267261987897775 0 0.62042975506801734 0.54295974692364424 0 0.57435499076887508 0.54267261987897775 0 0.62042975506801734 0.54295974692364424 0 0.57412547362576272 0.58273804879550706 0 0.57611405284611883 0.50165903596042916 0 0.62042975506801734 0.54295974692364424 0 0.61547661924074692 0.48539576058873962 0 0.5991018319127801 0.62925360607495295 0 0.6405463747586706 0.63290524857395714 0 0.63065402604362242 0.59661356661633302 0 0.57412547362576272 0.58273804879550706 0 0.5991018319127801 0.62925360607495295 0 0.63065402604362242 0.59661356661633302 0 0.62042975506801734 0.54295974692364424 0 0.57412547362576272 0.58273804879550706 0 0.63065402604362242 0.59661356661633302 0 0.57412547362576272 0.58273804879550706 0 0.5498280205245758 0.6290146943450976 0 0.5991018319127801 0.62925360607495295 0 0.46666084890304671 0.57634471035397938 0 0.53245488764484505 0.55078124999999989 0 0.5166924242153631 0.59825134841919447 0 0.57412547362576272 0.58273804879550706 0 0.5166924242153631 0.59825134841919447 0 0.5498280205245758 0.6290146943450976 0 0.53245488764484505 0.55078124999999989 0 0.57412547362576272 0.58273804879550706 0 0.5166924242153631 0.59825134841919447 0 0.5166924242153631 0.59825134841919447 0 0.50715858906372158 0.63295939104129484 0 0.5498280205245758 0.6290146943450976 0 0.47913475093885149 0.66010775372412711 0 0.50715858906372158 0.63295939104129484 0 0.52584555706968406 0.66664215091846768 0 0.50715858906372158 0.63295939104129484 0 0.52584555706968406 0.66664215091846768 0 0.5498280205245758 0.6290146943450976 0 0.47913475093885149 0.66010775372412711 0 0.52584555706968406 0.66664215091846768 0 0.5 0.69999999999999996 0 0.52584555706968406 0.66664215091846768 0 0.54999999999999993 0.69999999999999996 0 0.57484956128872922 0.66573805030881994 0 0.52584555706968406 0.66664215091846768 0 0.5498280205245758 0.6290146943450976 0 0.57484956128872922 0.66573805030881994 0 0.5 0.69999999999999996 0 0.55363780716230748 0.74348740161571747 0 0.50945740445113552 0.75476055527778108 0 0.52584555706968406 0.66664215091846768 0 0.5 0.69999999999999996 0 0.54999999999999993 0.69999999999999996 0 0.5 0.69999999999999996 0 0.54999999999999993 0.69999999999999996 0 0.5 0.69999999999999996 0 0.54999999999999993 0.69999999999999996 0 0.55363780716230748 0.74348740161571747 0 0.55363780716230748 0.74348740161571747 0 0.59999999999999976 0.69999999999999996 0 0.59636844454254345 0.75937156204589151 0 0.54999999999999993 0.69999999999999996 0 0.59999999999999976 0.69999999999999996 0 0.54999999999999993 0.69999999999999996 0 0.59999999999999976 0.69999999999999996 0 0.57484956128872922 0.66573805030881994 0 0.54999999999999993 0.69999999999999996 0 0.55363780716230748 0.74348740161571747 0 0.59999999999999976 0.69999999999999996 0 0.59999999999999976 0.69999999999999996 0 0.6499999999999998 0.69999999999999996 0 0.59999999999999976 0.69999999999999996 0 0.62460753523532009 0.66851202781000296 0 0.6499999999999998 0.69999999999999996 0 0.59999999999999976 0.69999999999999996 0 0.63221990677827677 0.73442891067859706 0 0.59636844454254345 0.75937156204589151 0 0.5498280205245758 0.6290146943450976 0 0.57484956128872922 0.66573805030881994 0 0.5991018319127801 0.62925360607495295 0 0.59999999999999976 0.69999999999999996 0 0.57484956128872922 0.66573805030881994 0 0.62460753523532009 0.66851202781000296 0 0.57484956128872922 0.66573805030881994 0 0.62460753523532009 0.66851202781000296 0 0.5991018319127801 0.62925360607495295 0 0.62460753523532009 0.66851202781000296 0 0.5991018319127801 0.62925360607495295 0 0.6405463747586706 0.63290524857395714 0 0.62460753523532009 0.66851202781000296 0 0.6405463747586706 0.63290524857395714 0 0.675261390228442 0.65996937624687813 0 0.62460753523532009 0.66851202781000296 0 0.675261390228442 0.65996937624687813 0 0.6499999999999998 0.69999999999999996 0 0.675261390228442 0.65996937624687813 0 0.6499999999999998 0.69999999999999996 0 0.69999999999999984 0.69999999999999996 0 0.6405463747586706 0.63290524857395714 0 0.675261390228442 0.65996937624687813 0 0.67529834988829951 0.61613270668143583 0 0.63221990677827677 0.73442891067859706 0 0.66427993341343905 0.73232764502436276 0 0.64753070846764316 0.77332939069435502 0 0.63221990677827677 0.73442891067859706 0 0.6499999999999998 0.69999999999999996 0 0.66427993341343905 0.73232764502436276 0 0.59999999999999976 0.69999999999999996 0 0.63221990677827677 0.73442891067859706 0 0.6499999999999998 0.69999999999999996 0 0.6499999999999998 0.69999999999999996 0 0.69999999999999984 0.69999999999999996 0 0.6499999999999998 0.69999999999999996 0 0.66427993341343905 0.73232764502436276 0 0.69999999999999984 0.69999999999999996 0 0.66427993341343905 0.73232764502436276 0 0.69999999999999984 0.69999999999999996 0 0.6916490518212759 0.75387992374886192 0 0.69999999999999984 0.69999999999999996 0 0.72501250972655151 0.74067302935308721 0 0.6916490518212759 0.75387992374886192 0 0.69999999999999984 0.69999999999999996 0 0.74999999999999989 0.69999999999999996 0 0.72501250972655151 0.74067302935308721 0 0.69999999999999984 0.69999999999999996 0 0.74999999999999989 0.69999999999999996 0 0.72500000000000064 0.67022701834392062 0 0.69999999999999984 0.69999999999999996 0 0.74999999999999989 0.69999999999999996 0 0.74999999999999989 0.69999999999999996 0 0.72501250972655151 0.74067302935308721 0 0.75841349681148107 0.75422312624214749 0 0.675261390228442 0.65996937624687813 0 0.71406021706547751 0.63292083137662503 0 0.72500000000000064 0.67022701834392062 0 0.675261390228442 0.65996937624687813 0 0.71406021706547751 0.63292083137662503 0 0.67529834988829951 0.61613270668143583 0 0.675261390228442 0.65996937624687813 0 0.69999999999999984 0.69999999999999996 0 0.72500000000000064 0.67022701834392062 0 0.71406021706547751 0.63292083137662503 0 0.72500000000000064 0.67022701834392062 0 0.74994237037456724 0.62775548192980357 0 0.72500000000000064 0.67022701834392062 0 0.74994237037456724 0.62775548192980357 0 0.7750489929959945 0.66593931409600093 0 0.71406021706547751 0.63292083137662503 0 0.74994237037456724 0.62775548192980357 0 0.71809016091162536 0.58185040402320831 0 0.74994237037456724 0.62775548192980357 0 0.71809016091162536 0.58185040402320831 0 0.77293540622714185 0.59448302402785813 0 0.71406021706547751 0.63292083137662503 0 0.71809016091162536 0.58185040402320831 0 0.67529834988829951 0.61613270668143583 0 0.71809016091162536 0.58185040402320831 0 0.67569444444444449 0.53500863336860327 0 0.67323294229744413 0.57556450033612505 0 0.71809016091162536 0.58185040402320831 0 0.67529834988829951 0.61613270668143583 0 0.67323294229744413 0.57556450033612505 0 0.71809016091162536 0.58185040402320831 0 0.7152569930854884 0.5237994455134295 0 0.77151014687832564 0.54436834383023036 0 0.7152569930854884 0.5237994455134295 0 0.77151014687832564 0.54436834383023036 0 0.73947346780852752 0.49062440112282169 0 0.7152569930854884 0.5237994455134295 0 0.67569444444444449 0.53500863336860327 0 0.69385896817107129 0.48377516041410151 0 0.71809016091162536 0.58185040402320831 0 0.7152569930854884 0.5237994455134295 0 0.67569444444444449 0.53500863336860327 0 0.62042975506801734 0.54295974692364424 0 0.67569444444444449 0.53500863336860327 0 0.67323294229744413 0.57556450033612505 0 0.67569444444444449 0.53500863336860327 0 0.6541250972820879 0.49999999999999989 0 0.69385896817107129 0.48377516041410151 0 0.62042975506801734 0.54295974692364424 0 0.67569444444444449 0.53500863336860327 0 0.6541250972820879 0.49999999999999989 0 0.62042975506801734 0.54295974692364424 0 0.61547661924074692 0.48539576058873962 0 0.6541250972820879 0.49999999999999989 0 0.62042975506801734 0.54295974692364424 0 0.63065402604362242 0.59661356661633302 0 0.67323294229744413 0.57556450033612505 0 0.6405463747586706 0.63290524857395714 0 0.63065402604362242 0.59661356661633302 0 0.67529834988829951 0.61613270668143583 0 0.63065402604362242 0.59661356661633302 0 0.67529834988829951 0.61613270668143583 0 0.67323294229744413 0.57556450033612505 0 0.60000000000138687 1 0 0.62065498684670595 0.95224934003983619 0 0.57382506491224949 0.9629411906298494 0 0.60000000000138687 1 0 0.62065498684670595 0.95224934003983619 0 0.65000000000104008 1 0 0.62065498684670595 0.95224934003983619 0 0.57382506491224949 0.9629411906298494 0 0.57724883562309992 0.92155686857100794 0 0.60000000000138687 1 0 0.57382506491224949 0.9629411906298494 0 0.55000000000173355 1 0 0.55000000000173355 1 0 0.50000000000205869 1 0 0.52122150208832174 0.94089974453840242 0 0.57382506491224949 0.9629411906298494 0 0.52122150208832174 0.94089974453840242 0 0.57724883562309992 0.92155686857100794 0 0.57382506491224949 0.9629411906298494 0 0.55000000000173355 1 0 0.52122150208832174 0.94089974453840242 0 0.52122150208832174 0.94089974453840242 0 0.54783390826260769 0.89287767010860219 0 0.57724883562309992 0.92155686857100794 0 0.52122150208832174 0.94089974453840242 0 0.50202631463681879 0.87892870825713787 0 0.54783390826260769 0.89287767010860219 0 0.54783390826260769 0.89287767010860219 0 0.5832743223239254 0.88483152652961872 0 0.55899371797446828 0.85003102233514438 0 0.54783390826260769 0.89287767010860219 0 0.5832743223239254 0.88483152652961872 0 0.57724883562309992 0.92155686857100794 0 0.5832743223239254 0.88483152652961872 0 0.57724883562309992 0.92155686857100794 0 0.61885627562261258 0.90282959257498208 0 0.62065498684670595 0.95224934003983619 0 0.57724883562309992 0.92155686857100794 0 0.61885627562261258 0.90282959257498208 0 0.5832743223239254 0.88483152652961872 0 0.61885627562261258 0.90282959257498208 0 0.61343887413683884 0.856862479058357 0 0.61343887413683884 0.856862479058357 0 0.60294066490120068 0.80851322453934582 0 0.65005442820240822 0.82644988530054031 0 0.61343887413683884 0.856862479058357 0 0.55899371797446828 0.85003102233514438 0 0.60294066490120068 0.80851322453934582 0 0.55899371797446828 0.85003102233514438 0 0.54782696902220018 0.79245182748204157 0 0.60294066490120068 0.80851322453934582 0 0.5832743223239254 0.88483152652961872 0 0.61343887413683884 0.856862479058357 0 0.55899371797446828 0.85003102233514438 0 0.50202631463681879 0.87892870825713787 0 0.54783390826260769 0.89287767010860219 0 0.55899371797446828 0.85003102233514438 0 0.50202631463681879 0.87892870825713787 0 0.55899371797446828 0.85003102233514438 0 0.50627822638148745 0.8263979829520941 0 0.55899371797446828 0.85003102233514438 0 0.50627822638148745 0.8263979829520941 0 0.54782696902220018 0.79245182748204157 0 0.50627822638148745 0.8263979829520941 0 0.54782696902220018 0.79245182748204157 0 0.50731287292894423 0.78963574450233831 0 0.54782696902220018 0.79245182748204157 0 0.50731287292894423 0.78963574450233831 0 0.50945740445113552 0.75476055527778108 0 0.55363780716230748 0.74348740161571747 0 0.54782696902220018 0.79245182748204157 0 0.50945740445113552 0.75476055527778108 0 0.55363780716230748 0.74348740161571747 0 0.54782696902220018 0.79245182748204157 0 0.59636844454254345 0.75937156204589151 0 0.54782696902220018 0.79245182748204157 0 0.60294066490120068 0.80851322453934582 0 0.59636844454254345 0.75937156204589151 0 0.60294066490120068 0.80851322453934582 0 0.59636844454254345 0.75937156204589151 0 0.64753070846764316 0.77332939069435502 0 0.63221990677827677 0.73442891067859706 0 0.59636844454254345 0.75937156204589151 0 0.64753070846764316 0.77332939069435502 0 0.60294066490120068 0.80851322453934582 0 0.64753070846764316 0.77332939069435502 0 0.65005442820240822 0.82644988530054031 0 0.64753070846764316 0.77332939069435502 0 0.68024162096458085 0.79868546898116533 0 0.65005442820240822 0.82644988530054031 0 0.64753070846764316 0.77332939069435502 0 0.68024162096458085 0.79868546898116533 0 0.6916490518212759 0.75387992374886192 0 0.66427993341343905 0.73232764502436276 0 0.64753070846764316 0.77332939069435502 0 0.6916490518212759 0.75387992374886192 0 0.72501250972655151 0.74067302935308721 0 0.6916490518212759 0.75387992374886192 0 0.72500000000000064 0.7952620967744265 0 0.72501250972655151 0.74067302935308721 0 0.72500000000000064 0.7952620967744265 0 0.75841349681148107 0.75422312624214749 0 0.68024162096458085 0.79868546898116533 0 0.6916490518212759 0.75387992374886192 0 0.72500000000000064 0.7952620967744265 0 0.68024162096458085 0.79868546898116533 0 0.72500000000000064 0.7952620967744265 0 0.68697391633157634 0.84450604838764298 0 0.72500000000000064 0.7952620967744265 0 0.72863726579783861 0.85390518901155588 0 0.68697391633157634 0.84450604838764298 0 0.72500000000000064 0.7952620967744265 0 0.72863726579783861 0.85390518901155588 0 0.76901770135486491 0.84293557325473656 0 0.72863726579783861 0.85390518901155588 0 0.68697391633157634 0.84450604838764298 0 0.7250000000005199 0.89375000000045834 0 0.68697391633157634 0.84450604838764298 0 0.66412543161245952 0.88015090885499059 0 0.7250000000005199 0.89375000000045834 0 0.68697391633157634 0.84450604838764298 0 0.65005442820240822 0.82644988530054031 0 0.66412543161245952 0.88015090885499059 0 0.68024162096458085 0.79868546898116533 0 0.68697391633157634 0.84450604838764298 0 0.65005442820240822 0.82644988530054031 0 0.61343887413683884 0.856862479058357 0 0.65005442820240822 0.82644988530054031 0 0.66412543161245952 0.88015090885499059 0 0.61885627562261258 0.90282959257498208 0 0.61343887413683884 0.856862479058357 0 0.66412543161245952 0.88015090885499059 0 0.61885627562261258 0.90282959257498208 0 0.65507451745379841 0.92229208810758578 0 0.66412543161245952 0.88015090885499059 0 0.62065498684670595 0.95224934003983619 0 0.61885627562261258 0.90282959257498208 0 0.65507451745379841 0.92229208810758578 0 0.65507451745379841 0.92229208810758578 0 0.68987011941058407 0.92105047536677087 0 0.68015064798562208 0.95924320340003011 0 0.65507451745379841 0.92229208810758578 0 0.66412543161245952 0.88015090885499059 0 0.68987011941058407 0.92105047536677087 0 0.66412543161245952 0.88015090885499059 0 0.7250000000005199 0.89375000000045834 0 0.68987011941058407 0.92105047536677087 0 0.72863726579783861 0.85390518901155588 0 0.7250000000005199 0.89375000000045834 0 0.76891166905518427 0.88835469571185499 0 0.7250000000005199 0.89375000000045834 0 0.7250000000005199 0.94981617647078953 0 0.75729602384198635 0.92353652857884294 0 0.7250000000005199 0.89375000000045834 0 0.68987011941058407 0.92105047536677087 0 0.7250000000005199 0.94981617647078953 0 0.68987011941058407 0.92105047536677087 0 0.7250000000005199 0.94981617647078953 0 0.68015064798562208 0.95924320340003011 0 0.7250000000005199 0.94981617647078953 0 0.7000000000006934 1 0 0.75000000000034661 1 0 0.7250000000005199 0.94981617647078953 0 0.75000000000034661 1 0 0.770759834363826 0.95919399014344442 0 0.7250000000005199 0.94981617647078953 0 0.7000000000006934 1 0 0.68015064798562208 0.95924320340003011 0 0.7000000000006934 1 0 0.68015064798562208 0.95924320340003011 0 0.65000000000104008 1 0 0.62065498684670595 0.95224934003983619 0 0.65507451745379841 0.92229208810758578 0 0.68015064798562208 0.95924320340003011 0 0.62065498684670595 0.95224934003983619 0 0.68015064798562208 0.95924320340003011 0 0.65000000000104008 1 0 0.84999999999965292 1 0 0.85170973911348691 0.93569607295217616 0 0.89898474358632463 0.95391965591118966 0 0.84999999999965292 1 0 0.81486180804382891 0.96321394949790495 0 0.85170973911348691 0.93569607295217616 0 0.81486180804382891 0.96321394949790495 0 0.79680861578988083 0.92656778056766709 0 0.85170973911348691 0.93569607295217616 0 0.84999999999965292 1 0 0.81486180804382891 0.96321394949790495 0 0.79999999999999982 1 0 0.81486180804382891 0.96321394949790495 0 0.79999999999999982 1 0 0.770759834363826 0.95919399014344442 0 0.79999999999999982 1 0 0.75000000000034661 1 0 0.770759834363826 0.95919399014344442 0 0.7250000000005199 0.94981617647078953 0 0.770759834363826 0.95919399014344442 0 0.75729602384198635 0.92353652857884294 0 0.81486180804382891 0.96321394949790495 0 0.770759834363826 0.95919399014344442 0 0.79680861578988083 0.92656778056766709 0 0.79680861578988083 0.92656778056766709 0 0.75729602384198635 0.92353652857884294 0 0.76891166905518427 0.88835469571185499 0 0.770759834363826 0.95919399014344442 0 0.79680861578988083 0.92656778056766709 0 0.75729602384198635 0.92353652857884294 0 0.7250000000005199 0.89375000000045834 0 0.75729602384198635 0.92353652857884294 0 0.76891166905518427 0.88835469571185499 0 0.79680861578988083 0.92656778056766709 0 0.76891166905518427 0.88835469571185499 0 0.81159157511211755 0.88795995483179491 0 0.81159157511211755 0.88795995483179491 0 0.85170973911348691 0.93569607295217616 0 0.85600844944837662 0.88483418979512773 0 0.79680861578988083 0.92656778056766709 0 0.81159157511211755 0.88795995483179491 0 0.85170973911348691 0.93569607295217616 0 0.85170973911348691 0.93569607295217616 0 0.85600844944837662 0.88483418979512773 0 0.90416666666660628 0.9041666666666166 0 0.85600844944837662 0.88483418979512773 0 0.82709327591091286 0.84937141670920724 0 0.88088768115933802 0.84674609810493673 0 0.82709327591091286 0.84937141670920724 0 0.84725310900444062 0.80779732082917555 0 0.88088768115933802 0.84674609810493673 0 0.82709327591091286 0.84937141670920724 0 0.80041942726660109 0.81543261647703358 0 0.84725310900444062 0.80779732082917555 0 0.81159157511211755 0.88795995483179491 0 0.85600844944837662 0.88483418979512773 0 0.82709327591091286 0.84937141670920724 0 0.76891166905518427 0.88835469571185499 0 0.81159157511211755 0.88795995483179491 0 0.76901770135486491 0.84293557325473656 0 0.81159157511211755 0.88795995483179491 0 0.82709327591091286 0.84937141670920724 0 0.76901770135486491 0.84293557325473656 0 0.72863726579783861 0.85390518901155588 0 0.76891166905518427 0.88835469571185499 0 0.76901770135486491 0.84293557325473656 0 0.76901770135486491 0.84293557325473656 0 0.80041942726660109 0.81543261647703358 0 0.77094201086366854 0.79647480515688507 0 0.82709327591091286 0.84937141670920724 0 0.76901770135486491 0.84293557325473656 0 0.80041942726660109 0.81543261647703358 0 0.80041942726660109 0.81543261647703358 0 0.77094201086366854 0.79647480515688507 0 0.80185942888539485 0.77452061303608133 0 0.72500000000000064 0.7952620967744265 0 0.77094201086366854 0.79647480515688507 0 0.75841349681148107 0.75422312624214749 0 0.72500000000000064 0.7952620967744265 0 0.76901770135486491 0.84293557325473656 0 0.77094201086366854 0.79647480515688507 0 0.77094201086366854 0.79647480515688507 0 0.75841349681148107 0.75422312624214749 0 0.80185942888539485 0.77452061303608133 0 0.75841349681148107 0.75422312624214749 0 0.80185942888539485 0.77452061303608133 0 0.78578450296893509 0.73292684821144505 0 0.80185942888539485 0.77452061303608133 0 0.84725310900444062 0.80779732082917555 0 0.85491058998424563 0.76004753345552634 0 0.80185942888539485 0.77452061303608133 0 0.85491058998424563 0.76004753345552634 0 0.81864958914779962 0.73589050177899629 0 0.80041942726660109 0.81543261647703358 0 0.80185942888539485 0.77452061303608133 0 0.84725310900444062 0.80779732082917555 0 0.84725310900444062 0.80779732082917555 0 0.85491058998424563 0.76004753345552634 0 0.90299850604011456 0.79563452813489832 0 0.85491058998424563 0.76004753345552634 0 0.90299850604011456 0.79563452813489832 0 0.89999166460796554 0.74528934923809909 0 0.90299850604011456 0.79563452813489832 0 0.94399509803918602 0.75600490196082126 0 0.95386563387742829 0.80414874155775029 0 0.90299850604011456 0.79563452813489832 0 0.94399509803918602 0.75600490196082126 0 0.89999166460796554 0.74528934923809909 0 0.94399509803918602 0.75600490196082126 0 0.97435614836745565 0.77499999999987745 0 0.95386563387742829 0.80414874155775029 0 0.94399509803918602 0.75600490196082126 0 0.97435614836745565 0.77499999999987745 0 0.97166519676947294 0.73337114490064459 0 0.97435614836745565 0.77499999999987745 0 0.97166519676947294 0.73337114490064459 0 1 0.74999999999993494 0 0.97435614836745565 0.77499999999987745 0 1 0.7999999999998193 0 1 0.74999999999993494 0 0.97435614836745565 0.77499999999987745 0 1 0.7999999999998193 0 0.95386563387742829 0.80414874155775029 0 1 0.84999999999982645 0 0.93677536231884972 0.85000000000000286 0 0.95391631417670719 0.89584263333814784 0 0.95386563387742829 0.80414874155775029 0 1 0.84999999999982645 0 0.93677536231884972 0.85000000000000286 0 1 0.7999999999998193 0 0.95386563387742829 0.80414874155775029 0 1 0.84999999999982645 0 0.93677536231884972 0.85000000000000286 0 0.88088768115933802 0.84674609810493673 0 0.90416666666660628 0.9041666666666166 0 0.90299850604011456 0.79563452813489832 0 0.95386563387742829 0.80414874155775029 0 0.93677536231884972 0.85000000000000286 0 0.90299850604011456 0.79563452813489832 0 0.93677536231884972 0.85000000000000286 0 0.88088768115933802 0.84674609810493673 0 0.84725310900444062 0.80779732082917555 0 0.90299850604011456 0.79563452813489832 0 0.88088768115933802 0.84674609810493673 0 0.85600844944837662 0.88483418979512773 0 0.88088768115933802 0.84674609810493673 0 0.90416666666660628 0.9041666666666166 0 0.85170973911348691 0.93569607295217616 0 0.90416666666660628 0.9041666666666166 0 0.89898474358632463 0.95391965591118966 0 0.90416666666660628 0.9041666666666166 0 0.95391631417670719 0.89584263333814784 0 0.94399509803919068 0.9439950980391687 0 0.90416666666660628 0.9041666666666166 0 0.94399509803919068 0.9439950980391687 0 0.89898474358632463 0.95391965591118966 0 0.93677536231884972 0.85000000000000286 0 0.90416666666660628 0.9041666666666166 0 0.95391631417670719 0.89584263333814784 0 1 0.84999999999982645 0 0.95391631417670719 0.89584263333814784 0 1 0.8999999999998336 0 1 0.8999999999998336 0 0.97435614836744289 0.92499999999990257 0 1 0.94999999999997109 0 0.95391631417670719 0.89584263333814784 0 1 0.8999999999998336 0 0.97435614836744289 0.92499999999990257 0 0.95391631417670719 0.89584263333814784 0 0.97435614836744289 0.92499999999990257 0 0.94399509803919068 0.9439950980391687 0 0.97435614836744289 0.92499999999990257 0 0.94399509803919068 0.9439950980391687 0 0.97166519676946206 0.96662885509935492 0 0.97435614836744289 0.92499999999990257 0 0.97166519676946206 0.96662885509935492 0 1 0.94999999999997109 0 0.97166519676946206 0.96662885509935492 0 1 0.94999999999997109 0 1 1 0 0.97166519676946206 0.96662885509935492 0 1 1 0 0.94999999999979179 1 0 0.94399509803919068 0.9439950980391687 0 0.97166519676946206 0.96662885509935492 0 0.94999999999979179 1 0 0.94999999999979179 1 0 0.89898474358632463 0.95391965591118966 0 0.89999999999958358 1 0 0.94399509803919068 0.9439950980391687 0 0.94999999999979179 1 0 0.89898474358632463 0.95391965591118966 0 0.84999999999965292 1 0 0.89898474358632463 0.95391965591118966 0 0.89999999999958358 1 0 0.81723410853263523 0.59419663659258926 0 0.86956835336234861 0.571283299838105 0 0.82862096804812391 0.55037090955459045 0 0.81723410853263523 0.59419663659258926 0 0.87159648282691515 0.61285406320581504 0 0.83758014339878906 0.63222013025741819 0 0.81723410853263523 0.59419663659258926 0 0.79884539758237771 0.62875045078114233 0 0.83758014339878906 0.63222013025741819 0 0.81723410853263523 0.59419663659258926 0 0.87159648282691515 0.61285406320581504 0 0.86956835336234861 0.571283299838105 0 0.86956835336234861 0.571283299838105 0 0.86907294890112186 0.52008116128001669 0 0.82862096804812391 0.55037090955459045 0 0.86907294890112186 0.52008116128001669 0 0.81441713509985358 0.51161854125224959 0 0.82862096804812391 0.55037090955459045 0 0.86907294890112186 0.52008116128001669 0 0.81441713509985358 0.51161854125224959 0 0.84723782639812573 0.48638347960178252 0 0.81441713509985358 0.51161854125224959 0 0.82862096804812391 0.55037090955459045 0 0.77151014687832564 0.54436834383023036 0 0.81441713509985358 0.51161854125224959 0 0.77151014687832564 0.54436834383023036 0 0.77846603114747959 0.49850927265137401 0 0.77151014687832564 0.54436834383023036 0 0.77846603114747959 0.49850927265137401 0 0.73947346780852752 0.49062440112282169 0 0.71809016091162536 0.58185040402320831 0 0.77151014687832564 0.54436834383023036 0 0.77293540622714185 0.59448302402785813 0 0.81723410853263523 0.59419663659258926 0 0.77151014687832564 0.54436834383023036 0 0.77293540622714185 0.59448302402785813 0 0.81723410853263523 0.59419663659258926 0 0.82862096804812391 0.55037090955459045 0 0.77151014687832564 0.54436834383023036 0 0.81723410853263523 0.59419663659258926 0 0.77293540622714185 0.59448302402785813 0 0.79884539758237771 0.62875045078114233 0 0.74994237037456724 0.62775548192980357 0 0.77293540622714185 0.59448302402785813 0 0.79884539758237771 0.62875045078114233 0 0.74994237037456724 0.62775548192980357 0 0.7750489929959945 0.66593931409600093 0 0.79884539758237771 0.62875045078114233 0 0.74999999999999989 0.69999999999999996 0 0.72500000000000064 0.67022701834392062 0 0.7750489929959945 0.66593931409600093 0 0.7750489929959945 0.66593931409600093 0 0.79999999999999982 0.69999999999999996 0 0.82457059160610424 0.66831947184359608 0 0.7750489929959945 0.66593931409600093 0 0.79884539758237771 0.62875045078114233 0 0.82457059160610424 0.66831947184359608 0 0.74999999999999989 0.69999999999999996 0 0.75841349681148107 0.75422312624214749 0 0.78578450296893509 0.73292684821144505 0 0.74999999999999989 0.69999999999999996 0 0.79999999999999982 0.69999999999999996 0 0.78578450296893509 0.73292684821144505 0 0.74999999999999989 0.69999999999999996 0 0.7750489929959945 0.66593931409600093 0 0.79999999999999982 0.69999999999999996 0 0.74999999999999989 0.69999999999999996 0 0.79999999999999982 0.69999999999999996 0 0.80185942888539485 0.77452061303608133 0 0.78578450296893509 0.73292684821144505 0 0.81864958914779962 0.73589050177899629 0 0.79999999999999982 0.69999999999999996 0 0.78578450296893509 0.73292684821144505 0 0.81864958914779962 0.73589050177899629 0 0.85491058998424563 0.76004753345552634 0 0.81864958914779962 0.73589050177899629 0 0.84999999999999987 0.69999999999999996 0 0.79999999999999982 0.69999999999999996 0 0.84999999999999987 0.69999999999999996 0 0.79999999999999982 0.69999999999999996 0 0.84999999999999987 0.69999999999999996 0 0.82457059160610424 0.66831947184359608 0 0.79999999999999982 0.69999999999999996 0 0.81864958914779962 0.73589050177899629 0 0.84999999999999987 0.69999999999999996 0 0.84999999999999987 0.69999999999999996 0 0.89999999999999991 0.69999999999999996 0 0.85491058998424563 0.76004753345552634 0 0.84999999999999987 0.69999999999999996 0 0.89999166460796554 0.74528934923809909 0 0.79884539758237771 0.62875045078114233 0 0.83758014339878906 0.63222013025741819 0 0.82457059160610424 0.66831947184359608 0 0.84999999999999987 0.69999999999999996 0 0.82457059160610424 0.66831947184359608 0 0.87712158428786946 0.65709029563313581 0 0.87159648282691515 0.61285406320581504 0 0.83758014339878906 0.63222013025741819 0 0.87712158428786946 0.65709029563313581 0 0.83758014339878906 0.63222013025741819 0 0.82457059160610424 0.66831947184359608 0 0.87712158428786946 0.65709029563313581 0 0.87712158428786946 0.65709029563313581 0 0.92057473616084773 0.66770436535372446 0 0.91750694127105259 0.63017627779935648 0 0.87159648282691515 0.61285406320581504 0 0.87712158428786946 0.65709029563313581 0 0.91750694127105259 0.63017627779935648 0 0.84999999999999987 0.69999999999999996 0 0.87712158428786946 0.65709029563313581 0 0.89999999999999991 0.69999999999999996 0 0.87712158428786946 0.65709029563313581 0 0.92057473616084773 0.66770436535372446 0 0.89999999999999991 0.69999999999999996 0 0.92057473616084773 0.66770436535372446 0 0.91750694127105259 0.63017627779935648 0 0.9578014258160763 0.65787212321113708 0 0.84999999999999987 0.69999999999999996 0 0.89999166460796554 0.74528934923809909 0 0.89999999999999991 0.69999999999999996 0 0.89999999999999991 0.69999999999999996 0 0.94999999999999996 0.69999999999999996 0 0.92057473616084773 0.66770436535372446 0 0.89999999999999991 0.69999999999999996 0 0.94999999999999996 0.69999999999999996 0 0.89999166460796554 0.74528934923809909 0 0.89999999999999991 0.69999999999999996 0 0.94999999999999996 0.69999999999999996 0 0.94399509803918602 0.75600490196082126 0 0.89999166460796554 0.74528934923809909 0 0.94999999999999996 0.69999999999999996 0 0.94399509803918602 0.75600490196082126 0 0.94999999999999996 0.69999999999999996 0 0.97166519676947294 0.73337114490064459 0 0.94999999999999996 0.69999999999999996 0 1 0.69999999999999996 0 0.94999999999999996 0.69999999999999996 0 1 0.69999999999999996 0 0.97166519676947294 0.73337114490064459 0 1 0.69999999999999996 0 0.97166519676947294 0.73337114490064459 0 1 0.74999999999993494 0 0.91750694127105259 0.63017627779935648 0 0.9578014258160763 0.65787212321113708 0 0.95867599106212187 0.60011091146651041 0 0.92057473616084773 0.66770436535372446 0 0.94999999999999996 0.69999999999999996 0 0.9578014258160763 0.65787212321113708 0 0.94999999999999996 0.69999999999999996 0 1 0.69999999999999996 0 0.9578014258160763 0.65787212321113708 0 1 0.69999999999999996 0 0.9578014258160763 0.65787212321113708 0 1 0.64999999999986979 0 0.9578014258160763 0.65787212321113708 0 1 0.64999999999986979 0 0.95867599106212187 0.60011091146651041 0 0.95867599106212187 0.60011091146651041 0 0.93732437411268477 0.55911392101136159 0 1 0.54999999999963112 0 1 0.64999999999986979 0 1 0.59999999999973963 0 0.95867599106212187 0.60011091146651041 0 1 0.59999999999973963 0 0.95867599106212187 0.60011091146651041 0 1 0.54999999999963112 0 0.91750694127105259 0.63017627779935648 0 0.95867599106212187 0.60011091146651041 0 0.91143117093204207 0.58709913730335972 0 0.95867599106212187 0.60011091146651041 0 0.91143117093204207 0.58709913730335972 0 0.93732437411268477 0.55911392101136159 0 0.86956835336234861 0.571283299838105 0 0.91143117093204207 0.58709913730335972 0 0.90900154012161016 0.53607784105648792 0 0.87159648282691515 0.61285406320581504 0 0.86956835336234861 0.571283299838105 0 0.91143117093204207 0.58709913730335972 0 0.87159648282691515 0.61285406320581504 0 0.91750694127105259 0.63017627779935648 0 0.91143117093204207 0.58709913730335972 0 0.86907294890112186 0.52008116128001669 0 0.90900154012161016 0.53607784105648792 0 0.91696753777131557 0.497780560203536 0 0.86956835336234861 0.571283299838105 0 0.86907294890112186 0.52008116128001669 0 0.90900154012161016 0.53607784105648792 0 0.90900154012161016 0.53607784105648792 0 0.93732437411268477 0.55911392101136159 0 0.95631871884947484 0.51827533208233789 0 0.91143117093204207 0.58709913730335972 0 0.90900154012161016 0.53607784105648792 0 0.93732437411268477 0.55911392101136159 0 0.90900154012161016 0.53607784105648792 0 0.95631871884947484 0.51827533208233789 0 0.91696753777131557 0.497780560203536 0 0.93732437411268477 0.55911392101136159 0 0.95631871884947484 0.51827533208233789 0 1 0.54999999999963112 0 0.95631871884947484 0.51827533208233789 0 1 0.54999999999963112 0 1 0.49999999999950101 0 0.95631871884947484 0.51827533208233789 0 1 0.49999999999950101 0 0.96228564064454991 0.48206450662049471 0 1 0.49999999999950101 0 1 0.44999999999963131 0 0.96228564064454991 0.48206450662049471 0 1 0.44999999999963131 0 0.93814194660195893 0.44426664081746747 0 0.96228564064454991 0.48206450662049471 0 0.93814194660195893 0.44426664081746747 0 0.96228564064454991 0.48206450662049471 0 0.91696753777131557 0.497780560203536 0 0.95631871884947484 0.51827533208233789 0 0.96228564064454991 0.48206450662049471 0 0.91696753777131557 0.497780560203536 0 1 0.39999999999978308 0 0.95871855522754235 0.40006508612975411 0 1 0.34999999999993492 0 1 0.44999999999963131 0 1 0.39999999999978308 0 0.95871855522754235 0.40006508612975411 0 1 0.44999999999963131 0 0.93814194660195893 0.44426664081746747 0 0.95871855522754235 0.40006508612975411 0 0.95871855522754235 0.40006508612975411 0 0.90594285160987287 0.4141265964174129 0 0.91750694127107502 0.36982372220068471 0 0.93814194660195893 0.44426664081746747 0 0.95871855522754235 0.40006508612975411 0 0.90594285160987287 0.4141265964174129 0 0.90594285160987287 0.4141265964174129 0 0.88594198078881503 0.46167788676578442 0 0.86411095495256451 0.42388805655111889 0 0.90594285160987287 0.4141265964174129 0 0.86411095495256451 0.42388805655111889 0 0.86844634540301924 0.38530937474099819 0 0.90594285160987287 0.4141265964174129 0 0.86844634540301924 0.38530937474099819 0 0.91750694127107502 0.36982372220068471 0 0.93814194660195893 0.44426664081746747 0 0.91696753777131557 0.497780560203536 0 0.88594198078881503 0.46167788676578442 0 0.93814194660195893 0.44426664081746747 0 0.90594285160987287 0.4141265964174129 0 0.88594198078881503 0.46167788676578442 0 0.86907294890112186 0.52008116128001669 0 0.91696753777131557 0.497780560203536 0 0.88594198078881503 0.46167788676578442 0 0.86907294890112186 0.52008116128001669 0 0.88594198078881503 0.46167788676578442 0 0.84723782639812573 0.48638347960178252 0 0.81441713509985358 0.51161854125224959 0 0.84723782639812573 0.48638347960178252 0 0.81400510706333218 0.47357325943904899 0 0.84723782639812573 0.48638347960178252 0 0.81400510706333218 0.47357325943904899 0 0.84925632466077294 0.45359738909549091 0 0.81400510706333218 0.47357325943904899 0 0.84925632466077294 0.45359738909549091 0 0.81973119833356312 0.43505687159469048 0 0.88594198078881503 0.46167788676578442 0 0.84723782639812573 0.48638347960178252 0 0.84925632466077294 0.45359738909549091 0 0.84925632466077294 0.45359738909549091 0 0.86411095495256451 0.42388805655111889 0 0.81973119833356312 0.43505687159469048 0 0.88594198078881503 0.46167788676578442 0 0.84925632466077294 0.45359738909549091 0 0.86411095495256451 0.42388805655111889 0 0.86411095495256451 0.42388805655111889 0 0.86844634540301924 0.38530937474099819 0 0.81308179852519835 0.39754945808726527 0 0.86844634540301924 0.38530937474099819 0 0.81308179852519835 0.39754945808726527 0 0.83573492347052902 0.36590755630746369 0 0.86411095495256451 0.42388805655111889 0 0.81308179852519835 0.39754945808726527 0 0.81973119833356312 0.43505687159469048 0 0.81973119833356312 0.43505687159469048 0 0.77354604466818633 0.40378688774472771 0 0.77972660463949339 0.45529290596363098 0 0.81308179852519835 0.39754945808726527 0 0.81973119833356312 0.43505687159469048 0 0.77354604466818633 0.40378688774472771 0 0.81308179852519835 0.39754945808726527 0 0.77354604466818633 0.40378688774472771 0 0.78145581580700685 0.34881365920033602 0 0.77354604466818633 0.40378688774472771 0 0.77972660463949339 0.45529290596363098 0 0.73483647259922602 0.44789725365921768 0 0.77972660463949339 0.45529290596363098 0 0.73483647259922602 0.44789725365921768 0 0.73947346780852752 0.49062440112282169 0 0.77972660463949339 0.45529290596363098 0 0.77846603114747959 0.49850927265137401 0 0.73947346780852752 0.49062440112282169 0 0.81400510706333218 0.47357325943904899 0 0.77972660463949339 0.45529290596363098 0 0.77846603114747959 0.49850927265137401 0 0.81441713509985358 0.51161854125224959 0 0.81400510706333218 0.47357325943904899 0 0.77846603114747959 0.49850927265137401 0 0.81400510706333218 0.47357325943904899 0 0.81973119833356312 0.43505687159469048 0 0.77972660463949339 0.45529290596363098 0 0.79999999999999982 0.29999999999999999 0 0.77075983436335049 0.25919399014334171 0 0.81486180804364938 0.26321394949780091 0 0.79999999999999982 0.29999999999999999 0 0.74999999999999989 0.29999999999999999 0 0.79999999999999982 0.29999999999999999 0 0.77075983436335049 0.25919399014334171 0 0.74999999999999989 0.29999999999999999 0 0.79999999999999982 0.29999999999999999 0 0.78145581580700685 0.34881365920033602 0 0.74999999999999989 0.29999999999999999 0 0.78145581580700685 0.34881365920033602 0 0.73090396928863699 0.33699297293167962 0 0.74999999999999989 0.29999999999999999 0 0.77354604466818633 0.40378688774472771 0 0.78145581580700685 0.34881365920033602 0 0.74764719760526988 0.3719647154012321 0 0.78145581580700685 0.34881365920033602 0 0.74764719760526988 0.3719647154012321 0 0.73090396928863699 0.33699297293167962 0 0.81308179852519835 0.39754945808726527 0 0.78145581580700685 0.34881365920033602 0 0.83573492347052902 0.36590755630746369 0 0.79999999999999982 0.29999999999999999 0 0.78145581580700685 0.34881365920033602 0 0.82500000000000062 0.33010209762754811 0 0.78145581580700685 0.34881365920033602 0 0.82500000000000062 0.33010209762754811 0 0.83573492347052902 0.36590755630746369 0 0.82500000000000062 0.33010209762754811 0 0.83573492347052902 0.36590755630746369 0 0.87430060258887643 0.34056085888204451 0 0.86844634540301924 0.38530937474099819 0 0.83573492347052902 0.36590755630746369 0 0.87430060258887643 0.34056085888204451 0 0.82500000000000062 0.33010209762754811 0 0.87430060258887643 0.34056085888204451 0 0.84999999999999987 0.29999999999999999 0 0.87430060258887643 0.34056085888204451 0 0.84999999999999987 0.29999999999999999 0 0.89999999999999991 0.29999999999999999 0 0.84999999999999987 0.29999999999999999 0 0.81486180804364938 0.26321394949780091 0 0.8517097391133297 0.2356960729520409 0 0.84999999999999987 0.29999999999999999 0 0.89898474358614167 0.25391965591104898 0 0.8517097391133297 0.2356960729520409 0 0.84999999999999987 0.29999999999999999 0 0.89999999999999991 0.29999999999999999 0 0.79999999999999982 0.29999999999999999 0 0.82500000000000062 0.33010209762754811 0 0.84999999999999987 0.29999999999999999 0 0.79999999999999982 0.29999999999999999 0 0.84999999999999987 0.29999999999999999 0 0.81486180804364938 0.26321394949780091 0 0.79999999999999982 0.29999999999999999 0 0.84999999999999987 0.29999999999999999 0 0.84999999999999987 0.29999999999999999 0 0.89898474358614167 0.25391965591104898 0 0.89999999999999991 0.29999999999999999 0 0.89999999999999991 0.29999999999999999 0 0.94999999999999996 0.29999999999999999 0 0.89999999999999991 0.29999999999999999 0 0.92012390126144183 0.33123581297173937 0 0.94999999999999996 0.29999999999999999 0 0.89898474358614167 0.25391965591104898 0 0.89999999999999991 0.29999999999999999 0 0.94999999999999996 0.29999999999999999 0 0.89898474358614167 0.25391965591104898 0 0.94999999999999996 0.29999999999999999 0 0.94399509803921056 0.24399509803922639 0 0.86844634540301924 0.38530937474099819 0 0.87430060258887643 0.34056085888204451 0 0.91750694127107502 0.36982372220068471 0 0.87430060258887643 0.34056085888204451 0 0.92012390126144183 0.33123581297173937 0 0.91750694127107502 0.36982372220068471 0 0.87430060258887643 0.34056085888204451 0 0.89999999999999991 0.29999999999999999 0 0.92012390126144183 0.33123581297173937 0 0.92012390126144183 0.33123581297173937 0 0.91750694127107502 0.36982372220068471 0 0.95780851984364423 0.34215720972155339 0 0.95871855522754235 0.40006508612975411 0 0.91750694127107502 0.36982372220068471 0 0.95780851984364423 0.34215720972155339 0 0.92012390126144183 0.33123581297173937 0 0.95780851984364423 0.34215720972155339 0 0.94999999999999996 0.29999999999999999 0 0.95780851984364423 0.34215720972155339 0 0.94999999999999996 0.29999999999999999 0 1 0.29999999999999999 0 0.95780851984364423 0.34215720972155339 0 1 0.34999999999993492 0 1 0.29999999999999999 0 0.95871855522754235 0.40006508612975411 0 0.95780851984364423 0.34215720972155339 0 1 0.34999999999993492 0 0.94999999999999996 0.29999999999999999 0 0.97166519676951801 0.26662885509932011 0 0.94399509803921056 0.24399509803922639 0 0.94999999999999996 0.29999999999999999 0 1 0.29999999999999999 0 0.94999999999999996 0.29999999999999999 0 1 0.29999999999999999 0 0.97166519676951801 0.26662885509932011 0 1 0.29999999999999999 0 0.97166519676951801 0.26662885509932011 0 1 0.24999999999987299 0 0.97166519676951801 0.26662885509932011 0 0.97435614836740092 0.22499999999981049 0 1 0.24999999999987299 0 0.97435614836740092 0.22499999999981049 0 1 0.24999999999987299 0 1 0.19999999999974799 0 0.97435614836740092 0.22499999999981049 0 0.94399509803921056 0.24399509803922639 0 0.95391631417672862 0.19584263333809451 0 0.97166519676951801 0.26662885509932011 0 0.97435614836740092 0.22499999999981049 0 0.94399509803921056 0.24399509803922639 0 0.97435614836740092 0.22499999999981049 0 0.95391631417672862 0.19584263333809451 0 1 0.19999999999974799 0 0.95391631417672862 0.19584263333809451 0 1 0.14999999999961891 0 0.93677536231883773 0.14999999999999089 0 1 0.14999999999961891 0 0.93677536231883773 0.14999999999999089 0 0.95386563387744361 0.1041487415577465 0 0.95391631417672862 0.19584263333809451 0 1 0.19999999999974799 0 1 0.14999999999961891 0 0.95391631417672862 0.19584263333809451 0 0.93677536231883773 0.14999999999999089 0 0.90416666666668166 0.20416666666667119 0 0.93677536231883773 0.14999999999999089 0 0.88088768115941807 0.14674609810479519 0 0.90416666666668166 0.20416666666667119 0 0.93677536231883773 0.14999999999999089 0 0.88088768115941807 0.14674609810479519 0 0.90299850604006393 0.09563452813493091 0 0.88088768115941807 0.14674609810479519 0 0.90416666666668166 0.20416666666667119 0 0.85600844944842547 0.1848341897950983 0 0.89898474358614167 0.25391965591104898 0 0.90416666666668166 0.20416666666667119 0 0.8517097391133297 0.2356960729520409 0 0.89898474358614167 0.25391965591104898 0 0.94399509803921056 0.24399509803922639 0 0.90416666666668166 0.20416666666667119 0 0.94399509803921056 0.24399509803922639 0 0.95391631417672862 0.19584263333809451 0 0.90416666666668166 0.20416666666667119 0 0.94999999999986839 0 0 0.97166519676946894 0.033371144900598393 0 0.94399509803922566 0.056004901960802607 0 0.94999999999986839 0 0 1 0 0 0.97166519676946894 0.033371144900598393 0 1 0 0 1 0.049999999999896842 0 0.97166519676946894 0.033371144900598393 0 1 0.049999999999896842 0 0.97166519676946894 0.033371144900598393 0 0.97435614836748241 0.074999999999825387 0 0.97166519676946894 0.033371144900598393 0 0.94399509803922566 0.056004901960802607 0 0.97435614836748241 0.074999999999825387 0 0.94399509803922566 0.056004901960802607 0 0.97435614836748241 0.074999999999825387 0 0.95386563387744361 0.1041487415577465 0 0.97435614836748241 0.074999999999825387 0 1 0.099999999999753911 0 0.95386563387744361 0.1041487415577465 0 1 0.049999999999896842 0 0.97435614836748241 0.074999999999825387 0 1 0.099999999999753911 0 1 0.14999999999961891 0 1 0.099999999999753911 0 0.95386563387744361 0.1041487415577465 0 0.93677536231883773 0.14999999999999089 0 0.95386563387744361 0.1041487415577465 0 0.90299850604006393 0.09563452813493091 0 0.88088768115941807 0.14674609810479519 0 0.90299850604006393 0.09563452813493091 0 0.84725310900442086 0.10779732082922661 0 0.90299850604006393 0.09563452813493091 0 0.899991664607802 0.045289349238254978 0 0.85491058998398861 0.060047533455626502 0 0.94399509803922566 0.056004901960802607 0 0.95386563387744361 0.1041487415577465 0 0.90299850604006393 0.09563452813493091 0 0.94399509803922566 0.056004901960802607 0 0.90299850604006393 0.09563452813493091 0 0.899991664607802 0.045289349238254978 0 0.94999999999986839 0 0 0.94399509803922566 0.056004901960802607 0 0.899991664607802 0.045289349238254978 0 0.899991664607802 0.045289349238254978 0 0.89999999999973679 0 0 0.84999999999960507 0 0 0.94999999999986839 0 0 0.899991664607802 0.045289349238254978 0 0.89999999999973679 0 0 0.84999999999960507 0 0 0.81864958914740749 0.035890501779055867 0 0.79999999999947335 0 0 0.899991664607802 0.045289349238254978 0 0.84999999999960507 0 0 0.85491058998398861 0.060047533455626502 0 0.85491058998398861 0.060047533455626502 0 0.81864958914740749 0.035890501779055867 0 0.80185942888501827 0.074520613036224564 0 0.84999999999960507 0 0 0.85491058998398861 0.060047533455626502 0 0.81864958914740749 0.035890501779055867 0 0.85491058998398861 0.060047533455626502 0 0.84725310900442086 0.10779732082922661 0 0.80185942888501827 0.074520613036224564 0 0.90299850604006393 0.09563452813493091 0 0.85491058998398861 0.060047533455626502 0 0.84725310900442086 0.10779732082922661 0 0.84725310900442086 0.10779732082922661 0 0.80076557130237269 0.1154587552654202 0 0.80185942888501827 0.074520613036224564 0 0.84725310900442086 0.10779732082922661 0 0.80076557130237269 0.1154587552654202 0 0.82709327591102189 0.14937141670914489 0 0.80076557130237269 0.1154587552654202 0 0.76878382444651716 0.097147941686331368 0 0.80185942888501827 0.074520613036224564 0 0.76878382444651716 0.097147941686331368 0 0.77144070960558853 0.14311854477243749 0 0.72525833953073282 0.1032114801687094 0 0.80076557130237269 0.1154587552654202 0 0.76878382444651716 0.097147941686331368 0 0.77144070960558853 0.14311854477243749 0 0.76878382444651716 0.097147941686331368 0 0.80185942888501827 0.074520613036224564 0 0.7527966693318906 0.053051678021508272 0 0.81864958914740749 0.035890501779055867 0 0.80185942888501827 0.074520613036224564 0 0.78393852574753176 0.032039079577822822 0 0.80185942888501827 0.074520613036224564 0 0.78393852574753176 0.032039079577822822 0 0.7527966693318906 0.053051678021508272 0 0.78393852574753176 0.032039079577822822 0 0.7527966693318906 0.053051678021508272 0 0.74999999999934175 0 0 0.78393852574753176 0.032039079577822822 0 0.79999999999947335 0 0 0.74999999999934175 0 0 0.81864958914740749 0.035890501779055867 0 0.78393852574753176 0.032039079577822822 0 0.79999999999947335 0 0 0.81283102246527783 0.1881007222486438 0 0.8517097391133297 0.2356960729520409 0 0.79680861578956375 0.22656778056752541 0 0.81283102246527783 0.1881007222486438 0 0.8517097391133297 0.2356960729520409 0 0.85600844944842547 0.1848341897950983 0 0.81486180804364938 0.26321394949780091 0 0.8517097391133297 0.2356960729520409 0 0.79680861578956375 0.22656778056752541 0 0.90416666666668166 0.20416666666667119 0 0.8517097391133297 0.2356960729520409 0 0.85600844944842547 0.1848341897950983 0 0.88088768115941807 0.14674609810479519 0 0.85600844944842547 0.1848341897950983 0 0.82709327591102189 0.14937141670914489 0 0.88088768115941807 0.14674609810479519 0 0.84725310900442086 0.10779732082922661 0 0.82709327591102189 0.14937141670914489 0 0.81283102246527783 0.1881007222486438 0 0.85600844944842547 0.1848341897950983 0 0.82709327591102189 0.14937141670914489 0 0.81283102246527783 0.1881007222486438 0 0.77144070960558853 0.14311854477243749 0 0.76587607630038135 0.18880039518954719 0 0.81283102246527783 0.1881007222486438 0 0.82709327591102189 0.14937141670914489 0 0.77144070960558853 0.14311854477243749 0 0.80076557130237269 0.1154587552654202 0 0.82709327591102189 0.14937141670914489 0 0.77144070960558853 0.14311854477243749 0 0.77144070960558853 0.14311854477243749 0 0.76587607630038135 0.18880039518954719 0 0.72634814642510737 0.16106886917518889 0 0.76587607630038135 0.18880039518954719 0 0.79680861578956375 0.22656778056752541 0 0.75668890529066124 0.2244279804069782 0 0.81283102246527783 0.1881007222486438 0 0.76587607630038135 0.18880039518954719 0 0.79680861578956375 0.22656778056752541 0 0.77075983436335049 0.25919399014334171 0 0.81486180804364938 0.26321394949780091 0 0.79680861578956375 0.22656778056752541 0 0.77075983436335049 0.25919399014334171 0 0.79680861578956375 0.22656778056752541 0 0.75668890529066124 0.2244279804069782 0 0.77075983436335049 0.25919399014334171 0 0.75668890529066124 0.2244279804069782 0 0.72500000000000064 0.2498161764706 0 0.75668890529066124 0.2244279804069782 0 0.72500000000000064 0.2498161764706 0 0.72500000000001008 0.19776155966387679 0 0.72500000000000064 0.2498161764706 0 0.69397719155551807 0.2245125647000914 0 0.72500000000001008 0.19776155966387679 0 0.72500000000000064 0.2498161764706 0 0.69397719155551807 0.2245125647000914 0 0.67933712972090698 0.25920070958121938 0 0.69397719155551807 0.2245125647000914 0 0.72500000000001008 0.19776155966387679 0 0.6865991819015953 0.189116534044597 0 0.76587607630038135 0.18880039518954719 0 0.75668890529066124 0.2244279804069782 0 0.72500000000001008 0.19776155966387679 0 0.76587607630038135 0.18880039518954719 0 0.72500000000001008 0.19776155966387679 0 0.72634814642510737 0.16106886917518889 0 0.77144070960558853 0.14311854477243749 0 0.72634814642510737 0.16106886917518889 0 0.72525833953073282 0.1032114801687094 0 0.72634814642510737 0.16106886917518889 0 0.68391457121233579 0.14440470121196541 0 0.72525833953073282 0.1032114801687094 0 0.72500000000001008 0.19776155966387679 0 0.72634814642510737 0.16106886917518889 0 0.6865991819015953 0.189116534044597 0 0.72634814642510737 0.16106886917518889 0 0.68391457121233579 0.14440470121196541 0 0.6865991819015953 0.189116534044597 0 0.68391457121233579 0.14440470121196541 0 0.64011864159029941 0.18789607982138171 0 0.6865991819015953 0.189116534044597 0 0.68391457121233579 0.14440470121196541 0 0.65290632656860115 0.11434202593454081 0 0.6236733212988993 0.14864538214901801 0 0.68391457121233579 0.14440470121196541 0 0.64011864159029941 0.18789607982138171 0 0.6236733212988993 0.14864538214901801 0 0.64011864159029941 0.18789607982138171 0 0.65394964615507722 0.22666784374016369 0 0.59814117807200873 0.23398510860739519 0 0.65394964615507722 0.22666784374016369 0 0.59814117807200873 0.23398510860739519 0 0.62657463266645097 0.26524202571255862 0 0.69397719155551807 0.2245125647000914 0 0.65394964615507722 0.22666784374016369 0 0.67933712972090698 0.25920070958121938 0 0.64011864159029941 0.18789607982138171 0 0.65394964615507722 0.22666784374016369 0 0.6865991819015953 0.189116534044597 0 0.69397719155551807 0.2245125647000914 0 0.65394964615507722 0.22666784374016369 0 0.6865991819015953 0.189116534044597 0 0.69999999999921003 0 0 0.72683645290270404 0.027797073151180601 0 0.7010294155333181 0.056779085686491267 0 0.69999999999921003 0 0 0.7010294155333181 0.056779085686491267 0 0.66369801598854572 0.036327466368102787 0 0.7527966693318906 0.053051678021508272 0 0.74999999999934175 0 0 0.72683645290270404 0.027797073151180601 0 0.69999999999921003 0 0 0.74999999999934175 0 0 0.72683645290270404 0.027797073151180601 0 0.7527966693318906 0.053051678021508272 0 0.72683645290270404 0.027797073151180601 0 0.7010294155333181 0.056779085686491267 0 0.7010294155333181 0.056779085686491267 0 0.72525833953073282 0.1032114801687094 0 0.68330259535470161 0.10038702501083881 0 0.7527966693318906 0.053051678021508272 0 0.7010294155333181 0.056779085686491267 0 0.72525833953073282 0.1032114801687094 0 0.76878382444651716 0.097147941686331368 0 0.7527966693318906 0.053051678021508272 0 0.72525833953073282 0.1032114801687094 0 0.68391457121233579 0.14440470121196541 0 0.72525833953073282 0.1032114801687094 0 0.68330259535470161 0.10038702501083881 0 0.68330259535470161 0.10038702501083881 0 0.65290632656860115 0.11434202593454081 0 0.65408113592120842 0.073941773121567966 0 0.68391457121233579 0.14440470121196541 0 0.68330259535470161 0.10038702501083881 0 0.65290632656860115 0.11434202593454081 0 0.65290632656860115 0.11434202593454081 0 0.61956000905586006 0.1043312481793135 0 0.6236733212988993 0.14864538214901801 0 0.65290632656860115 0.11434202593454081 0 0.65408113592120842 0.073941773121567966 0 0.61956000905586006 0.1043312481793135 0 0.65408113592120842 0.073941773121567966 0 0.61940220174112337 0.047251958781050582 0 0.61956000905586006 0.1043312481793135 0 0.7010294155333181 0.056779085686491267 0 0.68330259535470161 0.10038702501083881 0 0.65408113592120842 0.073941773121567966 0 0.7010294155333181 0.056779085686491267 0 0.65408113592120842 0.073941773121567966 0 0.66369801598854572 0.036327466368102787 0 0.65408113592120842 0.073941773121567966 0 0.66369801598854572 0.036327466368102787 0 0.61940220174112337 0.047251958781050582 0 0.66369801598854572 0.036327466368102787 0 0.64999999999907843 0 0 0.61940220174112337 0.047251958781050582 0 0.69999999999921003 0 0 0.66369801598854572 0.036327466368102787 0 0.64999999999907843 0 0 0.59999999999894682 0 0 0.57396793757665954 0.037011367187645222 0 0.5499999999988151 0 0 0.64999999999907843 0 0 0.59999999999894682 0 0 0.61940220174112337 0.047251958781050582 0 0.59999999999894682 0 0 0.61940220174112337 0.047251958781050582 0 0.57396793757665954 0.037011367187645222 0 0.61940220174112337 0.047251958781050582 0 0.57396793757665954 0.037011367187645222 0 0.57667858002728545 0.078486105337742612 0 0.61940220174112337 0.047251958781050582 0 0.57667858002728545 0.078486105337742612 0 0.61956000905586006 0.1043312481793135 0 0.61956000905586006 0.1043312481793135 0 0.58516465772821369 0.11653801664834119 0 0.6236733212988993 0.14864538214901801 0 0.57667858002728545 0.078486105337742612 0 0.61956000905586006 0.1043312481793135 0 0.58516465772821369 0.11653801664834119 0 0.58516465772821369 0.11653801664834119 0 0.54979595918804436 0.1060565713905809 0 0.56202748619534593 0.15054058349222879 0 0.57667858002728545 0.078486105337742612 0 0.58516465772821369 0.11653801664834119 0 0.54979595918804436 0.1060565713905809 0 0.54979595918804436 0.1060565713905809 0 0.51076801031701946 0.1202837388510348 0 0.52375890611712683 0.059318771819432882 0 0.47881186583059909 0.093591717165689425 0 0.51076801031701946 0.1202837388510348 0 0.52375890611712683 0.059318771819432882 0 0.57667858002728545 0.078486105337742612 0 0.54979595918804436 0.1060565713905809 0 0.52375890611712683 0.059318771819432882 0 0.57396793757665954 0.037011367187645222 0 0.52375890611712683 0.059318771819432882 0 0.5499999999988151 0 0 0.57396793757665954 0.037011367187645222 0 0.57667858002728545 0.078486105337742612 0 0.52375890611712683 0.059318771819432882 0 0.49999999999869432 0 0 0.52375890611712683 0.059318771819432882 0 0.5499999999988151 0 0 0.59814117807200873 0.23398510860739519 0 0.59443395090188023 0.18455690917515069 0 0.55306006949600994 0.20198184231352201 0 0.59814117807200873 0.23398510860739519 0 0.55306006949600994 0.20198184231352201 0 0.54248833945060504 0.2520322959927106 0 0.64011864159029941 0.18789607982138171 0 0.59814117807200873 0.23398510860739519 0 0.59443395090188023 0.18455690917515069 0 0.64011864159029941 0.18789607982138171 0 0.59443395090188023 0.18455690917515069 0 0.6236733212988993 0.14864538214901801 0 0.58516465772821369 0.11653801664834119 0 0.6236733212988993 0.14864538214901801 0 0.56202748619534593 0.15054058349222879 0 0.59443395090188023 0.18455690917515069 0 0.6236733212988993 0.14864538214901801 0 0.56202748619534593 0.15054058349222879 0 0.59443395090188023 0.18455690917515069 0 0.56202748619534593 0.15054058349222879 0 0.55306006949600994 0.20198184231352201 0 0.56202748619534593 0.15054058349222879 0 0.51729576145820033 0.1683240575987815 0 0.55306006949600994 0.20198184231352201 0 0.54979595918804436 0.1060565713905809 0 0.51076801031701946 0.1202837388510348 0 0.56202748619534593 0.15054058349222879 0 0.48466639505193998 0.1421439844745814 0 0.51076801031701946 0.1202837388510348 0 0.51729576145820033 0.1683240575987815 0 0.51076801031701946 0.1202837388510348 0 0.56202748619534593 0.15054058349222879 0 0.51729576145820033 0.1683240575987815 0 0.51729576145820033 0.1683240575987815 0 0.50760557329222289 0.20700468884612061 0 0.55306006949600994 0.20198184231352201 0 0.50760557329222289 0.20700468884612061 0 0.55306006949600994 0.20198184231352201 0 0.54248833945060504 0.2520322959927106 0 0.49695729691142171 0.25014895411178018 0 0.50760557329222289 0.20700468884612061 0 0.54248833945060504 0.2520322959927106 0 0.49695729691142171 0.25014895411178018 0 0.5 0.29999999999999999 0 0.54248833945060504 0.2520322959927106 0 0.5 0.29999999999999999 0 0.54999999999999993 0.29999999999999999 0 0.52752007115234678 0.33170632466418198 0 0.5 0.29999999999999999 0 0.54999999999999993 0.29999999999999999 0 0.54248833945060504 0.2520322959927106 0 0.5 0.29999999999999999 0 0.54999999999999993 0.29999999999999999 0 0.54999999999999993 0.29999999999999999 0 0.54248833945060504 0.2520322959927106 0 0.5794309697024993 0.27124795968204829 0 0.59814117807200873 0.23398510860739519 0 0.54248833945060504 0.2520322959927106 0 0.5794309697024993 0.27124795968204829 0 0.54999999999999993 0.29999999999999999 0 0.59999999999999976 0.29999999999999999 0 0.54999999999999993 0.29999999999999999 0 0.5794309697024993 0.27124795968204829 0 0.59999999999999976 0.29999999999999999 0 0.59999999999999976 0.29999999999999999 0 0.6499999999999998 0.29999999999999999 0 0.5794309697024993 0.27124795968204829 0 0.59999999999999976 0.29999999999999999 0 0.62657463266645097 0.26524202571255862 0 0.59814117807200873 0.23398510860739519 0 0.5794309697024993 0.27124795968204829 0 0.62657463266645097 0.26524202571255862 0 0.61959173890754571 0.33832250091341232 0 0.56836770495988642 0.3523062350852913 0 0.6084546825910605 0.37989672713932537 0 0.59999999999999976 0.29999999999999999 0 0.61959173890754571 0.33832250091341232 0 0.6499999999999998 0.29999999999999999 0 0.59999999999999976 0.29999999999999999 0 0.61959173890754571 0.33832250091341232 0 0.56836770495988642 0.3523062350852913 0 0.54999999999999993 0.29999999999999999 0 0.59999999999999976 0.29999999999999999 0 0.56836770495988642 0.3523062350852913 0 0.56836770495988642 0.3523062350852913 0 0.52752007115234678 0.33170632466418198 0 0.52289427570932567 0.3932284363388488 0 0.54999999999999993 0.29999999999999999 0 0.56836770495988642 0.3523062350852913 0 0.52752007115234678 0.33170632466418198 0 0.49077833859261139 0.35229981449445641 0 0.5 0.29999999999999999 0 0.52752007115234678 0.33170632466418198 0 0.49077833859261139 0.35229981449445641 0 0.52752007115234678 0.33170632466418198 0 0.52289427570932567 0.3932284363388488 0 0.56836770495988642 0.3523062350852913 0 0.52289427570932567 0.3932284363388488 0 0.57744073070774993 0.41535148636609359 0 0.52289427570932567 0.3932284363388488 0 0.53823865529665704 0.45873898050322898 0 0.57744073070774993 0.41535148636609359 0 0.48858720058566618 0.43964267759203868 0 0.52289427570932567 0.3932284363388488 0 0.53823865529665704 0.45873898050322898 0 0.49102375406324739 0.49123754822244059 0 0.53330375813596242 0.50827942741749099 0 0.53823865529665704 0.45873898050322898 0 0.49102375406324739 0.49123754822244059 0 0.48858720058566618 0.43964267759203868 0 0.53823865529665704 0.45873898050322898 0 0.53330375813596242 0.50827942741749099 0 0.57611405284611883 0.50165903596042916 0 0.53823865529665704 0.45873898050322898 0 0.57611405284611883 0.50165903596042916 0 0.57975577671020095 0.46172033326338591 0 0.61547661924074692 0.48539576058873962 0 0.57611405284611883 0.50165903596042916 0 0.53823865529665704 0.45873898050322898 0 0.57975577671020095 0.46172033326338591 0 0.57975577671020095 0.46172033326338591 0 0.61209567303293111 0.44669033081290321 0 0.57744073070774993 0.41535148636609359 0 0.53823865529665704 0.45873898050322898 0 0.57975577671020095 0.46172033326338591 0 0.57744073070774993 0.41535148636609359 0 0.57975577671020095 0.46172033326338591 0 0.61209567303293111 0.44669033081290321 0 0.61547661924074692 0.48539576058873962 0 0.56836770495988642 0.3523062350852913 0 0.57744073070774993 0.41535148636609359 0 0.6084546825910605 0.37989672713932537 0 0.61209567303293111 0.44669033081290321 0 0.57744073070774993 0.41535148636609359 0 0.63912439215427275 0.41063340167983359 0 0.57744073070774993 0.41535148636609359 0 0.6084546825910605 0.37989672713932537 0 0.63912439215427275 0.41063340167983359 0 0.6084546825910605 0.37989672713932537 0 0.63912439215427275 0.41063340167983359 0 0.65481233915350323 0.35652751921065562 0 0.63912439215427275 0.41063340167983359 0 0.65178832218679827 0.45929119821019959 0 0.6879972333610942 0.43038561374960838 0 0.63912439215427275 0.41063340167983359 0 0.68128176404677243 0.38629093627004979 0 0.6879972333610942 0.43038561374960838 0 0.63912439215427275 0.41063340167983359 0 0.68128176404677243 0.38629093627004979 0 0.65481233915350323 0.35652751921065562 0 0.61547661924074692 0.48539576058873962 0 0.6541250972820879 0.49999999999999989 0 0.65178832218679827 0.45929119821019959 0 0.61209567303293111 0.44669033081290321 0 0.61547661924074692 0.48539576058873962 0 0.65178832218679827 0.45929119821019959 0 0.61209567303293111 0.44669033081290321 0 0.63912439215427275 0.41063340167983359 0 0.65178832218679827 0.45929119821019959 0 0.65178832218679827 0.45929119821019959 0 0.69385896817107129 0.48377516041410151 0 0.6879972333610942 0.43038561374960838 0 0.6541250972820879 0.49999999999999989 0 0.65178832218679827 0.45929119821019959 0 0.69385896817107129 0.48377516041410151 0 0.7152569930854884 0.5237994455134295 0 0.69385896817107129 0.48377516041410151 0 0.73947346780852752 0.49062440112282169 0 0.69385896817107129 0.48377516041410151 0 0.73483647259922602 0.44789725365921768 0 0.6879972333610942 0.43038561374960838 0 0.69385896817107129 0.48377516041410151 0 0.73483647259922602 0.44789725365921768 0 0.73947346780852752 0.49062440112282169 0 0.68128176404677243 0.38629093627004979 0 0.72622533758026719 0.40265885511101601 0 0.71508799138962864 0.36622814920737751 0 0.73483647259922602 0.44789725365921768 0 0.6879972333610942 0.43038561374960838 0 0.72622533758026719 0.40265885511101601 0 0.68128176404677243 0.38629093627004979 0 0.6879972333610942 0.43038561374960838 0 0.72622533758026719 0.40265885511101601 0 0.77354604466818633 0.40378688774472771 0 0.73483647259922602 0.44789725365921768 0 0.72622533758026719 0.40265885511101601 0 0.72622533758026719 0.40265885511101601 0 0.74764719760526988 0.3719647154012321 0 0.71508799138962864 0.36622814920737751 0 0.77354604466818633 0.40378688774472771 0 0.72622533758026719 0.40265885511101601 0 0.74764719760526988 0.3719647154012321 0 0.74764719760526988 0.3719647154012321 0 0.71508799138962864 0.36622814920737751 0 0.73090396928863699 0.33699297293167962 0 0.71508799138962864 0.36622814920737751 0 0.68887083591306764 0.33632058575757479 0 0.73090396928863699 0.33699297293167962 0 0.68128176404677243 0.38629093627004979 0 0.71508799138962864 0.36622814920737751 0 0.68887083591306764 0.33632058575757479 0 0.68887083591306764 0.33632058575757479 0 0.73090396928863699 0.33699297293167962 0 0.69999999999999984 0.29999999999999999 0 0.72500000000000064 0.2498161764706 0 0.74999999999999989 0.29999999999999999 0 0.69999999999999984 0.29999999999999999 0 0.74999999999999989 0.29999999999999999 0 0.69999999999999984 0.29999999999999999 0 0.73090396928863699 0.33699297293167962 0 0.74999999999999989 0.29999999999999999 0 0.69999999999999984 0.29999999999999999 0 0.77075983436335049 0.25919399014334171 0 0.72500000000000064 0.2498161764706 0 0.74999999999999989 0.29999999999999999 0 0.72500000000000064 0.2498161764706 0 0.69999999999999984 0.29999999999999999 0 0.67933712972090698 0.25920070958121938 0 0.69999999999999984 0.29999999999999999 0 0.67933712972090698 0.25920070958121938 0 0.6499999999999998 0.29999999999999999 0 0.68887083591306764 0.33632058575757479 0 0.69999999999999984 0.29999999999999999 0 0.6499999999999998 0.29999999999999999 0 0.69999999999999984 0.29999999999999999 0 0.6499999999999998 0.29999999999999999 0 0.67933712972090698 0.25920070958121938 0 0.62657463266645097 0.26524202571255862 0 0.6499999999999998 0.29999999999999999 0 0.65394964615507722 0.22666784374016369 0 0.67933712972090698 0.25920070958121938 0 0.62657463266645097 0.26524202571255862 0 0.59999999999999976 0.29999999999999999 0 0.62657463266645097 0.26524202571255862 0 0.6499999999999998 0.29999999999999999 0 0.61959173890754571 0.33832250091341232 0 0.6499999999999998 0.29999999999999999 0 0.65481233915350323 0.35652751921065562 0 0.61959173890754571 0.33832250091341232 0 0.6084546825910605 0.37989672713932537 0 0.65481233915350323 0.35652751921065562 0 0.68128176404677243 0.38629093627004979 0 0.68887083591306764 0.33632058575757479 0 0.65481233915350323 0.35652751921065562 0 0.68887083591306764 0.33632058575757479 0 0.6499999999999998 0.29999999999999999 0 0.65481233915350323 0.35652751921065562 0 
</DataArray>
</Points>
<Cells>
<DataArray type="UInt32" Name="connectivity" format="ascii">
0 1 2 3 4 5 6 7 8 9 10 11 12 13 14 15 16 17 18 19 20 21 22 23 24 25 26 27 28 29 30 31 32 33 34 35 36 37 38 39 40 41 42 43 44 45 46 47 48 49 50 51 52 53 54 55 56 57 58 59 60 61 62 63 64 65 66 67 68 69 70 71 72 73 74 75 76 77 78 79 80 81 82 83 84 85 86 87 88 89 90 91 92 93 94 95 96 97 98 99 100 101 102 103 104 105 106 107 108 109 110 111 112 113 114 115 116 117 118 119 120 121 122 123 124 125 126 127 128 129 130 131 132 133 134 135 136 137 138 139 140 141 142 143 144 145 146 147 148 149 150 151 152 153 154 155 156 157 158 159 160 161 162 163 164 165 166 167 168 169 170 171 172 173 174 175 176 177 178 179 180 181 182 183 184 185 186 187 188 189 190 191 192 193 194 195 196 197 198 199 200 201 202 203 204 205 206 207 208 209 210 211 212 213 214 215 216 217 218 219 220 221 222 223 224 225 226 227 228 229 230 231 232 233 234 235 236 237 238 239 240 241 242 243 244 245 246 247 248 249 250 251 252 253 254 255 256 257 258 259 260 261 262 263 264 265 266 267 268 269 270 271 272 273 274 275 276 277 278 279 280 281 282 283 284 285 286 287 288 289 290 291 292 293 294 295 296 297 298 299 300 301 302 303 304 305 306 307 308 309 310 311 312 313 314 315 316 317 318 319 320 321 322 323 324 325 326 327 328 329 330 331 332 333 334 335 336 337 338 339 340 341 342 343 344 345 346 347 348 349 350 351 352 353 354 355 356 357 358 359 360 361 362 363 364 365 366 367 368 369 370 371 372 373 374 375 376 377 378 379 380 381 382 383 384 385 386 387 388 389 390 391 392 393 394 395 396 397 398 399 400 401 402 403 404 405 406 407 408 409 410 411 412 413 414 415 416 417 418 419 420 421 422 423 424 425 426 427 428 429 430 431 432 433 434 435 436 437 438 439 440 441 442 443 444 445 446 447 448 449 450 451 452 453 454 455 456 457 458 459 460 461 462 463 464 465 466 467 468 469 470 471 472 473 474 475 476 477 478 479 480 481 482 483 484 485 486 487 488 489 490 491 492 493 494 495 496 497 498 499 500 501 502 503 504 505 506 507 508 509 510 511 512 513 514 515 516 517 518 519 520 521 522 523 524 525 526 527 528 529 530 531 532 533 534 535 536 537 538 539 540 541 542 543 544 545 546 547 548 549 550 551 552 553 554 555 556 557 558 559 560 561 562 563 564 565 566 567 568 569 570 571 572 573 574 575 576 577 578 579 580 581 582 583 584 585 586 587 588 589 590 591 592 593 594 595 596 597 598 599 600 601 602 603 604 605 606 607 608 609 610 611 612 613 614 615 616 617 618 619 620 621 622 623 624 625 626 627 628 629 630 631 632 633 634 635 636 637 638 639 640 641 642 643 644 645 646 647 648 649 650 651 652 653 654 655 656 657 658 659 660 661 662 663 664 665 666 667 668 669 670 671 672 673 674 675 676 677 678 679 680 681 682 683 684 685 686 687 688 689 690 691 692 693 694 695 696 697 698 699 700 701 702 703 704 705 706 707 708 709 710 711 712 713 714 715 716 717 718 719 720 721 722 723 724 725 726 727 728 729 730 731 732 733 734 735 736 737 738 739 740 741 742 743 744 745 746 747 748 749 750 751 752 753 754 755 756 757 758 759 760 761 762 763 764 765 766 767 768 769 770 771 772 773 774 775 776 777 778 779 780 781 782 783 784 785 786 787 788 789 790 791 792 793 794 795 796 797 798 799 800 801 802 803 804 805 806 807 808 809 810 811 812 813 814 815 816 817 818 819 820 821 822 823 824 825 826 827 828 829 830 831 832 833 834 835 836 837 838 839 840 841 842 843 844 845 846 847 848 849 850 851 852 853 854 855 856 857 858 859 860 861 862 863 864 865 866 867 868 869 870 871 872 873 874 875 876 877 878 879 880 881 882 883 884 885 886 887 888 889 890 891 892 893 894 895 896 897 898 899 900 901 902 903 904 905 906 907 908 909 910 911 912 913 914 915 916 917 918 919 920 921 922 923 924 925 926 927 928 929 930 931 932 933 934 935 936 937 938 939 940 941 942 943 944 945 946 947 948 949 950 951 952 953 954 955 956 957 958 959 960 961 962 963 964 965 966 967 968 969 970 971 972 973 974 975 976 977 978 979 980 981 982 983 984 985 986 987 988 989 990 991 992 993 994 995 996 997 998 999 1000 1001 1002 1003 1004 1005 1006 1007 1008 1009 1010 1011 1012 1013 1014 1015 1016 1017 1018 1019 1020 1021 1022 1023 1024 1025 1026 1027 1028 1029 1030 1031 1032 1033 1034 1035 1036 1037 1038 1039 1040 1041 1042 1043 1044 1045 1046 1047 1048 1049 1050 1051 1052 1053 1054 1055 1056 1057 1058 1059 1060 1061 1062 1063 1064 1065 1066 1067 1068 1069 1070 1071 1072 1073 1074 1075 1076 1077 1078 1079 1080 1081 1082 1083 1084 1085 1086 1087 1088 1089 1090 1091 1092 1093 1094 1095 1096 1097 1098 1099 1100 1101 1102 1103 1104 1105 1106 1107 1108 1109 1110 1111 1112 1113 1114 1115 1116 1117 1118 1119 1120 1121 1122 1123 1124 1125 1126 1127 1128 1129 1130 1131 1132 1133 1134 1135 1136 1137 1138 1139 1140 1141 1142 1143 1144 1145 1146 1147 1148 1149 1150 1151 1152 1153 1154 1155 1156 1157 1158 1159 1160 1161 1162 1163 1164 1165 1166 1167 1168 1169 1170 1171 1172 1173 1174 1175 1176 1177 1178 1179 1180 1181 1182 1183 1184 1185 1186 1187 1188 1189 1190 1191 1192 1193 1194 1195 1196 1197 1198 1199 1200 1201 1202 1203 1204 1205 1206 1207 1208 1209 1210 1211 1212 1213 1214 1215 1216 1217 1218 1219 1220 1221 1222 1223 1224 1225 1226 1227 1228 1229 1230 1231 1232 1233 1234 1235 1236 1237 1238 1239 1240 1241 1242 1243 1244 1245 1246 1247 1248 1249 1250 1251 1252 1253 1254 1255 1256 1257 1258 1259 1260 1261 1262 1263 1264 1265 1266 1267 1268 1269 1270 1271 1272 1273 1274 1275 1276 1277 1278 1279 1280 1281 1282 1283 1284 1285 1286 1287 1288 1289 1290 1291 1292 1293 1294 1295 1296 1297 1298 1299 1300 1301 1302 1303 1304 1305 1306 1307 1308 1309 1310 1311 1312 1313 1314 1315 1316 1317 1318 1319 1320 1321 1322 1323 1324 1325 1326 1327 1328 1329 1330 1331 1332 1333 1334 1335 1336 1337 1338 1339 1340 1341 1342 1343 1344 1345 1346 1347 1348 1349 1350 1351 1352 1353 1354 1355 1356 1357 1358 1359 1360 1361 1362 1363 1364 1365 1366 1367 1368 1369 1370 1371 1372 1373 1374 1375 1376 1377 1378 1379 1380 1381 1382 1383 1384 1385 1386 1387 1388 1389 1390 1391 1392 1393 1394 1395 1396 1397 1398 1399 1400 1401 1402 1403 1404 1405 1406 1407 1408 1409 1410 1411 1412 1413 1414 1415 1416 1417 1418 1419 1420 1421 1422 1423 1424 1425 1426 1427 1428 1429 1430 1431 1432 1433 1434 1435 1436 1437 1438 1439 1440 1441 1442 1443 1444 1445 1446 1447 1448 1449 1450 1451 1452 1453 1454 1455 1456 1457 1458 1459 1460 1461 1462 1463 1464 1465 1466 1467 1468 1469 1470 1471 1472 1473 1474 1475 1476 1477 1478 1479 1480 1481 1482 1483 1484 1485 1486 1487 1488 1489 1490 1491 1492 1493 1494 1495 1496 1497 1498 1499 1500 1501 1502 1503 1504 1505 1506 1507 1508 1509 1510 1511 1512 1513 1514 1515 1516 1517 1518 1519 1520 1521 1522 1523 1524 1525 1526 1527 1528 1529 1530 1531 1532 1533 1534 1535 1536 1537 1538 1539 1540 1541 1542 1543 1544 1545 1546 1547 1548 1549 1550 1551 1552 1553 1554 1555 1556 1557 1558 1559 1560 1561 1562 1563 1564 1565 1566 1567 1568 1569 1570 1571 1572 1573 1574 1575 1576 1577 1578 1579 1580 1581 1582 1583 1584 1585 1586 1587 1588 1589 1590 1591 1592 1593 1594 1595 1596 1597 1598 1599 1600 1601 1602 1603 1604 1605 1606 1607 1608 1609 1610 1611 1612 1613 1614 1615 1616 1617 1618 1619 1620 1621 1622 1623 1624 1625 1626 1627 1628 1629 1630 1631 1632 1633 1634 1635 1636 1637 1638 1639 1640 1641 1642 1643 1644 1645 1646 1647 1648 1649 1650 1651 1652 1653 1654 1655 1656 1657 1658 1659 1660 1661 1662 1663 1664 1665 1666 1667 1668 1669 1670 1671 1672 1673 1674 1675 1676 1677 1678 1679 1680 1681 1682 1683 1684 1685 1686 1687 1688 1689 1690 1691 1692 1693 1694 1695 1696 1697 1698 1699 1700 1701 1702 1703 1704 1705 1706 1707 1708 1709 1710 1711 1712 1713 1714 1715 1716 1717 1718 1719 1720 1721 1722 1723 1724 1725 1726 1727 1728 1729 1730 1731 1732 1733 1734 1735 1736 1737 1738 1739 1740 1741 1742 1743 1744 1745 1746 1747 1748 1749 1750 1751 1752 1753 1754 1755 1756 1757 1758 1759 1760 1761 1762 1763 1764 1765 1766 1767 1768 1769 1770 1771 1772 1773 1774 1775 1776 1777 1778 1779 1780 1781 1782 1783 1784 1785 1786 1787 1788 1789 1790 1791 1792 1793 1794 1795 1796 1797 1798 1799 1800 1801 1802 1803 1804 1805 1806 1807 1808 1809 1810 1811 1812 1813 1814 1815 1816 1817 1818 1819 1820 1821 1822 1823 1824 1825 1826 1827 1828 1829 1830 1831 1832 1833 1834 1835 1836 1837 1838 1839 1840 1841 1842 1843 1844 1845 1846 1847 1848 1849 1850 1851 1852 1853 1854 1855 1856 1857 1858 1859 1860 1861 1862 1863 1864 1865 1866 1867 1868 1869 1870 1871 1872 1873 1874 1875 1876 1877 1878 1879 1880 1881 1882 1883 1884 1885 1886 1887 1888 1889 1890 1891 1892 1893 1894 1895 1896 1897 1898 1899 1900 1901 1902 1903 1904 1905 1906 1907 1908 1909 1910 1911 1912 1913 1914 1915 1916 1917 1918 1919 1920 1921 1922 1923 1924 1925 1926 1927 1928 1929 1930 1931 1932 1933 1934 1935 1936 1937 1938 1939 1940 1941 1942 1943 1944 1945 1946 1947 1948 1949 1950 1951 1952 1953 1954 1955 1956 1957 1958 1959 1960 1961 1962 1963 1964 1965 1966 1967 1968 1969 1970 1971 1972 1973 1974 1975 1976 1977 1978 1979 1980 1981 1982 1983 1984 1985 1986 1987 1988 1989 1990 1991 1992 1993 1994 1995 1996 1997 1998 1999 2000 2001 2002 2003 2004 2005 2006 2007 2008 2009 2010 2011 2012 2013 2014 2015 2016 2017 2018 2019 2020 2021 2022 2023 2024 2025 2026 2027 2028 2029 2030 2031 2032 2033 2034 2035 2036 2037 2038 2039 2040 2041 2042 2043 2044 2045 2046 2047 2048 2049 2050 2051 2052 2053 2054 2055 2056 2057 2058 2059 2060 2061 2062 2063 2064 2065 2066 2067 2068 2069 2070 2071 2072 2073 2074 2075 2076 2077 2078 2079 2080 2081 2082 2083 2084 2085 2086 2087 2088 2089 2090 2091 2092 2093 2094 2095 2096 2097 2098 2099 2100 2101 2102 2103 2104 2105 2106 2107 2108 2109 2110 2111 2112 2113 2114 2115 2116 2117 2118 2119 2120 2121 2122 2123 2124 2125 2126 2127 2128 2129 2130 2131 2132 2133 2134 2135 2136 2137 2138 2139 2140 2141 2142 2143 2144 2145 2146 2147 2148 2149 2150 2151 2152 2153 2154 2155 2156 2157 2158 2159 2160 2161 2162 2163 2164 2165 2166 2167 2168 2169 2170 2171 2172 2173 2174 2175 2176 2177 2178 2179 2180 2181 2182 2183 2184 2185 2186 2187 2188 2189 2190 2191 2192 2193 2194 2195 2196 2197 2198 2199 2200 2201 2202 2203 2204 2205 2206 2207 2208 2209 2210 2211 2212 2213 2214 2215 2216 2217 2218 2219 2220 2221 2222 2223 2224 2225 2226 2227 2228 2229 2230 2231 2232 2233 2234 2235 2236 2237 2238 2239 2240 2241 2242 2243 2244 2245 2246 2247 2248 2249 2250 2251 2252 2253 2254 2255 2256 2257 2258 2259 2260 2261 2262 2263 2264 2265 2266 2267 2268 2269 2270 2271 2272 2273 2274 2275 2276 2277 2278 2279 2280 2281 2282 2283 2284 2285 2286 2287 2288 2289 2290 2291 2292 2293 2294 2295 2296 2297 2298 2299 2300 2301 2302 2303 2304 2305 2306 2307 2308 2309 2310 2311 2312 2313 2314 2315 2316 2317 2318 2319 2320 2321 2322 2323 2324 2325 2326 2327 2328 2329 2330 2331 2332 2333 2334 2335 2336 2337 2338 2339 2340 2341 2342 2343 2344 2345 2346 2347 2348 2349 2350 2351 2352 2353 2354 2355 2356 2357 2358 2359 2360 2361 2362 2363 2364 2365 2366 2367 2368 2369 2370 2371 2372 2373 2374 2375 2376 2377 2378 2379 2380 2381 2382 2383 2384 2385 2386 2387 2388 2389 2390 2391 2392 2393 2394 2395 2396 2397 2398 2399 2400 2401 2402 2403 2404 2405 2406 2407 2408 2409 2410 2411 2412 2413 2414 2415 2416 2417 2418 2419 2420 2421 2422 2423 2424 2425 2426 2427 2428 2429 2430 2431 2432 2433 2434 2435 2436 2437 2438 2439 2440 2441 2442 2443 2444 2445 2446 2447 2448 2449 2450 2451 2452 2453 2454 2455 2456 2457 2458 2459 2460 2461 2462 2463 2464 2465 2466 2467 2468 2469 2470 2471 2472 2473 2474 2475 2476 2477 2478 2479 2480 2481 2482 2483 2484 2485 2486 2487 2488 2489 2490 2491 2492 2493 2494 2495 2496 2497 2498 2499 2500 2501 2502 2503 2504 2505 2506 2507 2508 2509 2510 2511 2512 2513 2514 2515 2516 2517 2518 2519 2520 2521 2522 2523 2524 2525 2526 2527 2528 2529 2530 2531 2532 2533 2534 2535 2536 2537 2538 2539 2540 2541 2542 2543 2544 2545 2546 2547 2548 2549 2550 2551 2552 2553 2554 2555 2556 2557 2558 2559 2560 2561 2562 2563 2564 2565 2566 2567 2568 2569 2570 2571 2572 2573 2574 2575 2576 2577 2578 2579 2580 2581 2582 2583 2584 2585 2586 2587 2588 2589 2590 2591 2592 2593 2594 2595 2596 2597 2598 2599 2600 2601 2602 2603 2604 2605 2606 2607 2608 2609 2610 2611 2612 2613 2614 2615 2616 2617 2618 2619 2620 2621 2622 2623 2624 2625 2626 2627 2628 2629 2630 2631 2632 2633 2634 2635 2636 2637 2638 2639 2640 2641 2642 2643 2644 2645 2646 2647 2648 2649 2650 2651 2652 2653 2654 2655 2656 2657 2658 2659 2660 2661 2662 2663 2664 2665 2666 2667 2668 2669 2670 2671 2672 2673 2674 2675 2676 2677 2678 2679 2680 2681 2682 2683 2684 2685 2686 2687 2688 2689 2690 2691 2692 2693 2694 2695 2696 2697 2698 2699 2700 2701 2702 2703 2704 2705 2706 2707 2708 2709 2710 2711 2712 2713 2714 2715 2716 2717 2718 2719 2720 2721 2722 2723 2724 2725 2726 2727 2728 2729 2730 2731 2732 2733 2734 2735 2736 2737 2738 2739 2740 2741 2742 2743 2744 2745 2746 2747 2748 2749 2750 2751 2752 2753 2754 2755 2756 2757 2758 2759 2760 2761 2762 2763 2764 2765 2766 2767 2768 2769 2770 2771 2772 2773 2774 2775 2776 2777 2778 2779 2780 2781 2782 2783 2784 2785 2786 2787 2788 2789 2790 2791 2792 2793 2794 2795 2796 2797 2798 2799 2800 2801 2802 2803 2804 2805 2806 2807 2808 2809 2810 2811 2812 2813 2814 2815 2816 2817 2818 2819 2820 2821 2822 2823 2824 2825 2826 2827 2828 2829 2830 2831 2832 2833 2834 2835 2836 2837 2838 2839 2840 2841 2842 2843 2844 2845 2846 2847 2848 2849 2850 2851 2852 2853 2854 2855 2856 2857 2858 2859 2860 2861 2862 2863 2864 2865 2866 2867 2868 2869 2870 2871 2872 2873 2874 2875 2876 2877 2878 2879 2880 2881 2882 2883 2884 2885 2886 2887 2888 2889 2890 2891 2892 2893 2894 2895 2896 2897 2898 2899 2900 2901 2902 2903 2904 2905 2906 2907 2908 2909 2910 2911 2912 2913 2914 2915 2916 2917 2918 2919 2920 2921 2922 2923 2924 2925 2926 2927 2928 2929 2930 2931 2932 2933 2934 2935 2936 2937 2938 2939 2940 2941 2942 2943 2944 2945 2946 2947 2948 2949 2950 2951 2952 2953 2954 2955 2956 2957 2958 2959 2960 2961 2962 2963 2964 2965 2966 2967 2968 2969 2970 2971 2972 2973 2974 2975 2976 2977 2978 2979 2980 2981 2982 2983 2984 2985 2986 2987 2988 2989 2990 2991 2992 2993 2994 2995 2996 2997 2998 2999 3000 3001 3002 3003 3004 3005 3006 3007 3008 3009 3010 3011 3012 3013 3014 3015 3016 3017 3018 3019 3020 3021 3022 3023 3024 3025 3026 3027 3028 3029 3030 3031 3032 3033 3034 3035 3036 3037 3038 3039 3040 3041 3042 3043 3044 3045 3046 3047 3048 3049 3050 3051 3052 3053 3054 3055 3056 3057 3058 3059 3060 3061 3062 3063 3064 3065 3066 3067 3068 3069 3070 3071 3072 3073 3074 3075 3076 3077 3078 3079 3080 3081 3082 3083 3084 3085 3086 3087 3088 3089 3090 3091 3092 3093 3094 3095 3096 3097 3098 3099 3100 3101 3102 3103 3104 3105 3106 3107 3108 3109 3110 3111 3112 3113 3114 3115 3116 3117 3118 3119 3120 3121 3122 3123 3124 3125 3126 3127 3128 3129 3130 3131 3132 3133 3134 3135 3136 3137 3138 3139 3140 3141 
</DataArray>
<DataArray type="UInt32" Name="offsets" format="ascii">
3 6 9 12 15 18 21 24 27 30 33 36 39 42 45 48 51 54 57 60 63 66 69 72 75 78 81 84 87 90 93 96 99 102 105 108 111 114 117 120 123 126 129 132 135 138 141 144 147 150 153 156 159 162 165 168 171 174 177 180 183 186 189 192 195 198 201 204 207 210 213 216 219 222 225 228 231 234 237 240 243 246 249 252 255 258 261 264 267 270 273 276 279 282 285 288 291 294 297 300 303 306 309 312 315 318 321 324 327 330 333 336 339 342 345 348 351 354 357 360 363 366 369 372 375 378 381 384 387 390 393 396 399 402 405 408 411 414 417 420 423 426 429 432 435 438 441 444 447 450 453 456 459 462 465 468 471 474 477 480 483 486 489 492 495 498 501 504 507 510 513 516 519 522 525 528 531 534 537 540 543 546 549 552 555 558 561 564 567 570 573 576 579 582 585 588 591 594 597 600 603 606 609 612 615 618 621 624 627 630 633 636 639 642 645 648 651 654 657 660 663 666 669 672 675 678 681 684 687 690 693 696 699 702 705 708 711 714 717 720 723 726 729 732 735 738 741 744 747 750 753 756 759 762 765 768 771 774 777 780 783 786 789 792 795 798 801 804 807 810 813 816 819 822 825 828 831 834 837 840 843 846 849 852 855 858 861 864 867 870 873 876 879 882 885 888 891 894 897 900 903 906 909 912 915 918 921 924 927 930 933 936 939 942 945 948 951 954 957 960 963 966 969 972 975 978 981 984 987 990 993 996 999 1002 1005 1008 1011 1014 1017 1020 1023 1026 1029 1032 1035 1038 1041 1044 1047 1050 1053 1056 1059 1062 1065 1068 1071 1074 1077 1080 1083 1086 1089 1092 1095 1098 1101 1104 1107 1110 1113 1116 1119 1122 1125 1128 1131 1134 1137 1140 1143 1146 1149 1152 1155 1158 1161 1164 1167 1170 1173 1176 1179 1182 1185 1188 1191 1194 1197 1200 1203 1206 1209 1212 1215 1218 1221 1224 1227 1230 1233 1236 1239 1242 1245 1248 1251 1254 1257 1260 1263 1266 1269 1272 1275 1278 1281 1284 1287 1290 1293 1296 1299 1302 1305 1308 1311 1314 1317 1320 1323 1326 1329 1332 1335 1338 1341 1344 1347 1350 1353 1356 1359 1362 1365 1368 1371 1374 1377 1380 1383 1386 1389 1392 1395 1398 1401 1404 1407 1410 1413 1416 1419 1422 1425 1428 1431 1434 1437 1440 1443 1446 1449 1452 1455 1458 1461 1464 1467 1470 1473 1476 1479 1482 1485 1488 1491 1494 1497 1500 1503 1506 1509 1512 1515 1518 1521 1524 1527 1530 1533 1536 1539 1542 1545 1548 1551 1554 1557 1560 1563 1566 1569 1572 1575 1578 1581 1584 1587 1590 1593 1596 1599 1602 1605 1608 1611 1614 1616 1619 1622 1624 1627 1630 1632 1635 1638 1641 1644 1647 1650 1653 1656 1659 1662 1665 1668 1671 1673 1676 1679 1682 1685 1688 1690 1693 1696 1699 1702 1705 1708 1711 1714 1717 1720 1723 1726 1729 1732 1735 1738 1741 1744 1747 1750 1753 1756 1759 1762 1765 1768 1771 1774 1777 1780 1783 1786 1789 1792 1795 1798 1801 1804 1807 1810 1813 1816 1819 1822 1825 1828 1831 1834 1837 1840 1843 1846 1849 1852 1855 1858 1861 1864 1867 1870 1873 1876 1879 1882 1885 1888 1891 1894 1897 1900 1903 1906 1909 1912 1915 1918 1921 1924 1927 1930 1933 1936 1939 1942 1945 1948 1951 1954 1957 1960 1963 1966 1969 1972 1975 1978 1981 1984 1987 1990 1993 1996 1999 2002 2005 2008 2011 2014 2017 2020 2023 2026 2029 2032 2035 2038 2041 2044 2047 2050 2053 2056 2059 2062 2065 2068 2071 2074 2077 2080 2083 2086 2089 2092 2095 2098 2101 2104 2107 2110 2113 2116 2119 2122 2125 2128 2131 2134 2137 2140 2143 2146 2149 2152 2155 2158 2161 2164 2167 2170 2173 2176 2179 2182 2185 2188 2191 2194 2196 2199 2202 2205 2207 2210 2213 2215 2218 2221 2224 2227 2230 2233 2236 2239 2242 2245 2248 2250 2253 2256 2259 2262 2264 2267 2270 2273 2276 2279 2282 2285 2288 2291 2294 2297 2300 2303 2306 2309 2312 2315 2318 2321 2324 2327 2330 2333 2336 2339 2342 2345 2348 2351 2354 2357 2360 2363 2366 2369 2372 2375 2378 2381 2384 2387 2390 2393 2396 2399 2402 2405 2408 2411 2414 2417 2420 2423 2426 2429 2432 2435 2438 2440 2443 2446 2449 2452 2455 2458 2461 2464 2467 2470 2473 2476 2479 2482 2484 2487 2490 2492 2495 2497 2500 2503 2506 2509 2512 2515 2518 2521 2524 2527 2530 2533 2536 2538 2541 2544 2547 2550 2553 2556 2559 2562 2565 2568 2571 2574 2577 2580 2583 2586 2589 2592 2595 2598 2601 2604 2607 2610 2613 2616 2619 2622 2625 2628 2631 2634 2637 2640 2643 2646 2649 2652 2655 2658 2661 2664 2667 2670 2673 2676 2679 2682 2685 2688 2691 2694 2697 2700 2703 2706 2709 2712 2715 2718 2721 2724 2727 2730 2733 2736 2739 2742 2745 2748 2751 2754 2757 2760 2763 2766 2769 2772 2775 2778 2781 2784 2787 2790 2793 2796 2799 2802 2805 2808 2811 2814 2817 2820 2823 2826 2829 2832 2835 2838 2841 2844 2847 2850 2853 2856 2859 2862 2865 2868 2871 2874 2877 2880 2883 2886 2889 2892 2895 2898 2901 2904 2907 2910 2913 2916 2919 2922 2925 2928 2931 2934 2937 2940 2943 2946 2948 2951 2954 2956 2959 2961 2964 2967 2970 2973 2976 2979 2982 2985 2988 2991 2994 2997 3000 3003 3006 3009 3012 3015 3018 3021 3024 3027 3030 3033 3036 3039 3042 3045 3048 3051 3054 3057 3060 3063 3066 3069 3072 3075 3078 3081 3084 3087 3090 3093 3096 3099 3102 3104 3107 3110 3113 3116 3119 3121 3124 3127 3130 3133 3136 3139 3142 
</DataArray>
<DataArray type="UInt32" Name="types" format="ascii">
5 5 5 5 5 5 5 5 5 5 5 5 5 5 5 5 5 5 5 5 5 5 5 5 5 5 5 5 5 5 5 5 5 5 5 5 5 5 5 5 5 5 5 5 5 5 5 5 5 5 5 5 5 5 5 5 5 5 5 5 5 5 5 5 5 5 5 5 5 5 5 5 5 5 5 5 5 5 5 5 5 5 5 5 5 5 5 5 5 5 5 5 5 5 5 5 5 5 5 5 5 5 5 5 5 5 5 5 5 5 5 5 5 5 5 5 5 5 5 5 5 5 5 5 5 5 5 5 5 5 5 5 5 5 5 5 5 5 5 5 5 5 5 5 5 5 5 5 5 5 5 5 5 5 5 5 5 5 5 5 5 5 5 5 5 5 5 5 5 5 5 5 5 5 5 5 5 5 5 5 5 5 5 5 5 5 5 5 5 5 5 5 5 5 5 5 5 5 5 5 5 5 5 5 5 5 5 5 5 5 5 5 5 5 5 5 5 5 5 5 5 5 5 5 5 5 5 5 5 5 5 5 5 5 5 5 5 5 5 5 5 5 5 5 5 5 5 5 5 5 5 5 5 5 5 5 5 5 5 5 5 5 5 5 5 5 5 5 5 5 5 5 5 5 5 5 5 5 5 5 5 5 5 5 5 5 5 5 5 5 5 5 5 5 5 5 5 5 5 5 5 5 5 5 5 5 5 5 5 5 5 5 5 5 5 5 5 5 5 5 5 5 5 5 5 5 5 5 5 5 5 5 5 5 5 5 5 5 5 5 5 5 5 5 5 5 5 5 5 5 5 5 5 5 5 5 5 5 5 5 5 5 5 5 5 5 5 5 5 5 5 5 5 5 5 5 5 5 5 5 5 5 5 5 5 5 5 5 5 5 5 5 5 5 5 5 5 5 5 5 5 5 5 5 5 5 5 5 5 5 5 5 5 5 5 5 5 5 5 5 5 5 5 5 5 5 5 5 5 5 5 5 5 5 5 5 5 5 5 5 5 5 5 5 5 5 5 5 5 5 5 5 5 5 5 5 5 5 5 5 5 5 5 5 5 5 5 5 5 5 5 5 5 5 5 5 5 5 5 5 5 5 5 5 5 5 5 5 5 5 5 5 5 5 5 5 5 5 5 5 5 5 5 5 5 5 5 5 5 5 5 5 5 5 5 5 5 5 5 5 5 5 5 5 5 5 5 5 5 5 5 5 5 5 5 5 5 5 3 5 5 3 5 5 3 5 5 5 5 5 5 5 5 5 5 5 5 5 3 5 5 5 5 5 3 5 5 5 5 5 5 5 5 5 5 5 5 5 5 5 5 5 5 5 5 5 5 5 5 5 5 5 5 5 5 5 5 5 5 5 5 5 5 5 5 5 5 5 5 5 5 5 5 5 5 5 5 5 5 5 5 5 5 5 5 5 5 5 5 5 5 5 5 5 5 5 5 5 5 5 5 5 5 5 5 5 5 5 5 5 5 5 5 5 5 5 5 5 5 5 5 5 5 5 5 5 5 5 5 5 5 5 5 5 5 5 5 5 5 5 5 5 5 5 5 5 5 5 5 5 5 5 5 5 5 5 5 5 5 5 5 5 5 5 5 5 5 5 5 5 5 5 5 5 5 5 5 5 5 5 5 5 5 5 5 5 5 5 5 5 5 5 5 3 5 5 5 3 5 5 3 5 5 5 5 5 5 5 5 5 5 5 3 5 5 5 5 3 5 5 5 5 5 5 5 5 5 5 5 5 5 5 5 5 5 5 5 5 5 5 5 5 5 5 5 5 5 5 5 5 5 5 5 5 5 5 5 5 5 5 5 5 5 5 5 5 5 5 5 5 5 5 5 5 5 5 3 5 5 5 5 5 5 5 5 5 5 5 5 5 5 3 5 5 3 5 3 5 5 5 5 5 5 5 5 5 5 5 5 5 3 5 5 5 5 5 5 5 5 5 5 5 5 5 5 5 5 5 5 5 5 5 5 5 5 5 5 5 5 5 5 5 5 5 5 5 5 5 5 5 5 5 5 5 5 5 5 5 5 5 5 5 5 5 5 5 5 5 5 5 5 5 5 5 5 5 5 5 5 5 5 5 5 5 5 5 5 5 5 5 5 5 5 5 5 5 5 5 5 5 5 5 5 5 5 5 5 5 5 5 5 5 5 5 5 5 5 5 5 5 5 5 5 5 5 5 5 5 5 5 5 5 5 5 5 5 5 5 5 5 5 5 5 5 5 5 5 3 5 5 3 5 3 5 5 5 5 5 5 5 5 5 5 5 5 5 5 5 5 5 5 5 5 5 5 5 5 5 5 5 5 5 5 5 5 5 5 5 5 5 5 5 5 5 5 5 5 5 5 5 3 5 5 5 5 5 3 5 5 5 5 5 5 5 
</DataArray>
</Cells>
<PointData Scalars="" Vectors="displacement," Tensors="">
<DataArray type="Float64" Name="displacement" NumberOfComponents="3" format="ascii">
-0.00016942401219171183 -0.00024975686293996879 0 -3.4190308798956629e-07 -8.1214709516853348e-07 0 -4.8099854547962667e-08 -3.845155984052433e-07 0 -0.00016942401219171183 -0.00024975686293996879 0 -3.4190308798956629e-07 -8.1214709516853348e-07 0 -0.00047505679873224827 -0.00063939155271764152 0 -0.00016942401219171183 -0.00024975686293996879 0 -4.8099854547962667e-08 -3.845155984052433e-07 0 -0.00029885424367215725 -0.00042806124302677761 0 -0.00016942401219171183 -0.00024975686293996879 0 -0.00029885424367215725 -0.00042806124302677761 0 -0.00047505679873224827 -0.00063939155271764152 0 -0.00047505679873224827 -0.00063939155271764152 0 -0.00075146033194907328 -0.0011235255509837283 0 -0.00063188066705165103 -0.0009835396955601382 0 -0.00075146033194907328 -0.0011235255509837283 0 -0.00063188066705165103 -0.0009835396955601382 0 -0.00095784176273211962 -0.001554397119313938 0 -0.00029885424367215725 -0.00042806124302677761 0 -0.00063188066705165103 -0.0009835396955601382 0 -0.00047059987555444469 -0.00079391200054391834 0 -0.00029885424367215725 -0.00042806124302677761 0 -0.00047505679873224827 -0.00063939155271764152 0 -0.00063188066705165103 -0.0009835396955601382 0 -0.00063188066705165103 -0.0009835396955601382 0 -0.00047059987555444469 -0.00079391200054391834 0 -0.0007497011020877203 -0.001338782488981637 0 -0.00047059987555444469 -0.00079391200054391834 0 -0.0007497011020877203 -0.001338782488981637 0 -0.00058296353830150529 -0.001134576493505414 0 -0.00047059987555444469 -0.00079391200054391834 0 -0.00042402085276234701 -0.00082259942243568781 0 -0.00058296353830150529 -0.001134576493505414 0 -0.00042402085276234701 -0.00082259942243568781 0 -0.00058296353830150529 -0.001134576493505414 0 -0.00055753019531365206 -0.0012659704773079167 0 -0.00042402085276234701 -0.00082259942243568781 0 -0.00022249948515342768 -0.00037659237782698029 0 -0.00025470758226332502 -0.00052013030920869125 0 -0.00047059987555444469 -0.00079391200054391834 0 -0.00042402085276234701 -0.00082259942243568781 0 -0.00022249948515342768 -0.00037659237782698029 0 -0.00022249948515342768 -0.00037659237782698029 0 -8.6426543126881135e-08 -4.1287128540899337e-07 0 -5.837866921097401e-08 -3.8902718660901499e-07 0 -4.8099854547962667e-08 -3.845155984052433e-07 0 -0.00029885424367215725 -0.00042806124302677761 0 -8.6426543126881135e-08 -4.1287128540899337e-07 0 -0.00029885424367215725 -0.00042806124302677761 0 -0.00022249948515342768 -0.00037659237782698029 0 -8.6426543126881135e-08 -4.1287128540899337e-07 0 -0.00029885424367215725 -0.00042806124302677761 0 -0.00047059987555444469 -0.00079391200054391834 0 -0.00022249948515342768 -0.00037659237782698029 0 -0.0010232532229728264 -0.0021105581782872021 0 -0.0010905353543307294 -0.0019629583132148103 0 -0.0011784969199693026 -0.0023610678548939821 0 -0.0010232532229728264 -0.0021105581782872021 0 -0.0010905353543307294 -0.0019629583132148103 0 -0.00094675191512820966 -0.0017534082245191304 0 -0.0010232532229728264 -0.0021105581782872021 0 -0.00094675191512820966 -0.0017534082245191304 0 -0.00085854612645962084 -0.001817104012467729 0 -0.00094675191512820966 -0.0017534082245191304 0 -0.00095784176273211962 -0.001554397119313938 0 -0.0007497011020877203 -0.001338782488981637 0 -0.00063188066705165103 -0.0009835396955601382 0 -0.00095784176273211962 -0.001554397119313938 0 -0.0007497011020877203 -0.001338782488981637 0 -0.00094675191512820966 -0.0017534082245191304 0 -0.0007497011020877203 -0.001338782488981637 0 -0.00085854612645962084 -0.001817104012467729 0 -0.0010905353543307294 -0.0019629583132148103 0 -0.00094675191512820966 -0.0017534082245191304 0 -0.00095784176273211962 -0.001554397119313938 0 -0.0007497011020877203 -0.001338782488981637 0 -0.00058296353830150529 -0.001134576493505414 0 -0.00069783624202707326 -0.00146487969368471 0 -0.00058296353830150529 -0.001134576493505414 0 -0.00069783624202707326 -0.00146487969368471 0 -0.00055753019531365206 -0.0012659704773079167 0 -0.0007497011020877203 -0.001338782488981637 0 -0.00069783624202707326 -0.00146487969368471 0 -0.00085854612645962084 -0.001817104012467729 0 -0.00085854612645962084 -0.001817104012467729 0 -0.00090846421390525277 -0.0022153293249957727 0 -0.00071691275137401715 -0.0017972010565081753 0 -0.00069783624202707326 -0.00146487969368471 0 -0.00085854612645962084 -0.001817104012467729 0 -0.00071691275137401715 -0.0017972010565081753 0 -0.0010232532229728264 -0.0021105581782872021 0 -0.00085854612645962084 -0.001817104012467729 0 -0.00090846421390525277 -0.0022153293249957727 0 -0.0010232532229728264 -0.0021105581782872021 0 -0.00090846421390525277 -0.0022153293249957727 0 -0.001071841423439087 -0.0025149818074294292 0 -0.00090846421390525277 -0.0022153293249957727 0 -0.00076900513811680403 -0.0021731066260772219 0 -0.00071691275137401715 -0.0017972010565081753 0 -0.00066185221255277962 -0.0020782507634040273 0 -0.00076900513811680403 -0.0021731066260772219 0 -0.00071691275137401715 -0.0017972010565081753 0 -0.00066185221255277962 -0.0020782507634040273 0 -0.00071691275137401715 -0.0017972010565081753 0 -0.00057597542632625441 -0.0016399350574765052 0 -0.00057597542632625441 -0.0016399350574765052 0 -0.00055753019531365206 -0.0012659704773079167 0 -0.00045705585749255075 -0.0012157886370972495 0 -0.00069783624202707326 -0.00146487969368471 0 -0.00071691275137401715 -0.0017972010565081753 0 -0.00055753019531365206 -0.0012659704773079167 0 -0.00071691275137401715 -0.0017972010565081753 0 -0.00057597542632625441 -0.0016399350574765052 0 -0.00055753019531365206 -0.0012659704773079167 0 -0.00055753019531365206 -0.0012659704773079167 0 -0.00045705585749255075 -0.0012157886370972495 0 -0.00038934370950437707 -0.0008836709389358307 0 -0.00045705585749255075 -0.0012157886370972495 0 -0.00035189611278580292 -0.0011052245994600555 0 -0.00047845839308749796 -0.0015650271125127282 0 -0.00035189611278580292 -0.0011052245994600555 0 -0.00047845839308749796 -0.0015650271125127282 0 -0.00036517515962124366 -0.0013692435487122278 0 -0.00047845839308749796 -0.0015650271125127282 0 -0.00036517515962124366 -0.0013692435487122278 0 -0.00040399533704855046 -0.0016906450972220617 0 -0.00057597542632625441 -0.0016399350574765052 0 -0.00045705585749255075 -0.0012157886370972495 0 -0.00047845839308749796 -0.0015650271125127282 0 -0.00066185221255277962 -0.0020782507634040273 0 -0.00057597542632625441 -0.0016399350574765052 0 -0.00053119499231601237 -0.0019532543115673164 0 -0.00057597542632625441 -0.0016399350574765052 0 -0.00047845839308749796 -0.0015650271125127282 0 -0.00053119499231601237 -0.0019532543115673164 0 -0.00047845839308749796 -0.0015650271125127282 0 -0.00053119499231601237 -0.0019532543115673164 0 -0.00040399533704855046 -0.0016906450972220617 0 -0.00053119499231601237 -0.0019532543115673164 0 -0.00050210856466892991 -0.0023028107029418451 0 -0.00061617774489789313 -0.0023902285406151671 0 -0.00066185221255277962 -0.0020782507634040273 0 -0.00053119499231601237 -0.0019532543115673164 0 -0.00061617774489789313 -0.0023902285406151671 0 -0.00013586675638510085 -0.00031610555900855067 0 -5.837866921097401e-08 -3.8902718660901499e-07 0 -0.00025470758226332502 -0.00052013030920869125 0 -0.00013586675638510085 -0.00031610555900855067 0 -0.00025470758226332502 -0.00052013030920869125 0 -0.00027764628827995524 -0.00071715160476943382 0 -0.00013586675638510085 -0.00031610555900855067 0 -5.837866921097401e-08 -3.8902718660901499e-07 0 -5.7096424164619391e-08 -4.002692127064434e-07 0 -0.00022249948515342768 -0.00037659237782698029 0 -5.837866921097401e-08 -3.8902718660901499e-07 0 -0.00025470758226332502 -0.00052013030920869125 0 -0.00042402085276234701 -0.00082259942243568781 0 -0.00025470758226332502 -0.00052013030920869125 0 -0.00038934370950437707 -0.0008836709389358307 0 -0.00042402085276234701 -0.00082259942243568781 0 -0.00055753019531365206 -0.0012659704773079167 0 -0.00038934370950437707 -0.0008836709389358307 0 -0.00045705585749255075 -0.0012157886370972495 0 -0.00038934370950437707 -0.0008836709389358307 0 -0.00027764628827995524 -0.00071715160476943382 0 -0.00025470758226332502 -0.00052013030920869125 0 -0.00038934370950437707 -0.0008836709389358307 0 -0.00027764628827995524 -0.00071715160476943382 0 -0.00045705585749255075 -0.0012157886370972495 0 -0.00035189611278580292 -0.0011052245994600555 0 -0.00027764628827995524 -0.00071715160476943382 0 -0.00035189611278580292 -0.0011052245994600555 0 -0.00027764628827995524 -0.00071715160476943382 0 -0.00023537903290244712 -0.00074428241752765945 0 -0.00035189611278580292 -0.0011052245994600555 0 -0.00023537903290244712 -0.00074428241752765945 0 -0.00025880568665131515 -0.0010041806486409668 0 -0.00027764628827995524 -0.00071715160476943382 0 -0.00023537903290244712 -0.00074428241752765945 0 -0.00013132039402860701 -0.00037461601018699066 0 -0.00023537903290244712 -0.00074428241752765945 0 -0.00013132039402860701 -0.00037461601018699066 0 -0.00013748880368840509 -0.00049777483733600607 0 -0.00013586675638510085 -0.00031610555900855067 0 -0.00027764628827995524 -0.00071715160476943382 0 -0.00013132039402860701 -0.00037461601018699066 0 -0.00013586675638510085 -0.00031610555900855067 0 -0.00013132039402860701 -0.00037461601018699066 0 -5.7096424164619391e-08 -4.002692127064434e-07 0 -0.00013132039402860701 -0.00037461601018699066 0 -5.7096424164619391e-08 -4.002692127064434e-07 0 -5.263483487851576e-08 -3.9917655897572913e-07 0 -5.263483487851576e-08 -3.9917655897572913e-07 0 -0.00013748880368840509 -0.00049777483733600607 0 -2.5078411257962256e-08 -4.0166101239708071e-07 0 -0.00013132039402860701 -0.00037461601018699066 0 -5.263483487851576e-08 -3.9917655897572913e-07 0 -0.00013748880368840509 -0.00049777483733600607 0 -0.00013748880368840509 -0.00049777483733600607 0 -2.5078411257962256e-08 -4.0166101239708071e-07 0 -7.9473792614288727e-05 -0.00038059141996453505 0 -2.5078411257962256e-08 -4.0166101239708071e-07 0 -7.9473792614288727e-05 -0.00038059141996453505 0 -2.246749598731242e-08 -4.0654511380141022e-07 0 -7.9473792614288727e-05 -0.00038059141996453505 0 -4.4590108606818883e-05 -0.00029555485926953558 0 -0.00010926116544207533 -0.00071681951097287073 0 -4.4590108606818883e-05 -0.00029555485926953558 0 -0.00010926116544207533 -0.00071681951097287073 0 -4.396495456743342e-05 -0.00047615522077708197 0 -7.9473792614288727e-05 -0.00038059141996453505 0 -4.4590108606818883e-05 -0.00029555485926953558 0 -2.246749598731242e-08 -4.0654511380141022e-07 0 -4.4590108606818883e-05 -0.00029555485926953558 0 -2.246749598731242e-08 -4.0654511380141022e-07 0 -1.1707216322183736e-08 -4.0221110699315898e-07 0 -0.00010926116544207533 -0.00071681951097287073 0 -0.00016048059712940873 -0.0012132931069714591 0 -8.1636747572724403e-05 -0.00095610985653982899 0 -0.00010926116544207533 -0.00071681951097287073 0 -0.00019658701254195705 -0.0010426940077659483 0 -0.00016048059712940873 -0.0012132931069714591 0 -7.9473792614288727e-05 -0.00038059141996453505 0 -0.00010926116544207533 -0.00071681951097287073 0 -0.00015425883405296948 -0.00071747955414231583 0 -0.00010926116544207533 -0.00071681951097287073 0 -0.00019658701254195705 -0.0010426940077659483 0 -0.00015425883405296948 -0.00071747955414231583 0 -0.00019658701254195705 -0.0010426940077659483 0 -0.00015425883405296948 -0.00071747955414231583 0 -0.00025880568665131515 -0.0010041806486409668 0 -0.00013748880368840509 -0.00049777483733600607 0 -7.9473792614288727e-05 -0.00038059141996453505 0 -0.00015425883405296948 -0.00071747955414231583 0 -0.00013748880368840509 -0.00049777483733600607 0 -0.00015425883405296948 -0.00071747955414231583 0 -0.00025880568665131515 -0.0010041806486409668 0 -0.00023537903290244712 -0.00074428241752765945 0 -0.00013748880368840509 -0.00049777483733600607 0 -0.00025880568665131515 -0.0010041806486409668 0 -0.00035189611278580292 -0.0011052245994600555 0 -0.00025880568665131515 -0.0010041806486409668 0 -0.00036517515962124366 -0.0013692435487122278 0 -0.00025880568665131515 -0.0010041806486409668 0 -0.00036517515962124366 -0.0013692435487122278 0 -0.00029883469244176511 -0.001375479739204321 0 -0.00036517515962124366 -0.0013692435487122278 0 -0.00029883469244176511 -0.001375479739204321 0 -0.00040399533704855046 -0.0016906450972220617 0 -0.00029883469244176511 -0.001375479739204321 0 -0.00031342874159645821 -0.0017474770949216559 0 -0.00023877918068069526 -0.0014187277269995435 0 -0.00029883469244176511 -0.001375479739204321 0 -0.00040399533704855046 -0.0016906450972220617 0 -0.00031342874159645821 -0.0017474770949216559 0 -0.00019658701254195705 -0.0010426940077659483 0 -0.00025880568665131515 -0.0010041806486409668 0 -0.00029883469244176511 -0.001375479739204321 0 -0.00053119499231601237 -0.0019532543115673164 0 -0.000412259952456149 -0.0020412672252232166 0 -0.00050210856466892991 -0.0023028107029418451 0 -0.00053119499231601237 -0.0019532543115673164 0 -0.000412259952456149 -0.0020412672252232166 0 -0.00040399533704855046 -0.0016906450972220617 0 -0.000412259952456149 -0.0020412672252232166 0 -0.00040399533704855046 -0.0016906450972220617 0 -0.00031342874159645821 -0.0017474770949216559 0 -0.000412259952456149 -0.0020412672252232166 0 -0.00029294902187182166 -0.0021327048718469983 0 -0.00041260984421915566 -0.0024382710707217155 0 -0.000412259952456149 -0.0020412672252232166 0 -0.00029294902187182166 -0.0021327048718469983 0 -0.00031342874159645821 -0.0017474770949216559 0 -0.00029294902187182166 -0.0021327048718469983 0 -0.00031342874159645821 -0.0017474770949216559 0 -0.00021705635359437682 -0.0016562825493692105 0 -0.00029294902187182166 -0.0021327048718469983 0 -0.00021705635359437682 -0.0016562825493692105 0 -0.00017904776246081041 -0.001964594736417954 0 -0.00029294902187182166 -0.0021327048718469983 0 -0.00017904776246081041 -0.001964594736417954 0 -0.00021423555686847184 -0.0024608561333552509 0 -0.00019658701254195705 -0.0010426940077659483 0 -0.00029883469244176511 -0.001375479739204321 0 -0.00023877918068069526 -0.0014187277269995435 0 -0.00019658701254195705 -0.0010426940077659483 0 -0.00023877918068069526 -0.0014187277269995435 0 -0.00016048059712940873 -0.0012132931069714591 0 -0.00031342874159645821 -0.0017474770949216559 0 -0.00023877918068069526 -0.0014187277269995435 0 -0.00021705635359437682 -0.0016562825493692105 0 -0.00021705635359437682 -0.0016562825493692105 0 -0.00016048059712940873 -0.0012132931069714591 0 -0.0001249005481311371 -0.0014632825626730097 0 -0.00023877918068069526 -0.0014187277269995435 0 -0.00021705635359437682 -0.0016562825493692105 0 -0.00016048059712940873 -0.0012132931069714591 0 -0.00016048059712940873 -0.0012132931069714591 0 -0.0001249005481311371 -0.0014632825626730097 0 -8.1636747572724403e-05 -0.00095610985653982899 0 -0.0001249005481311371 -0.0014632825626730097 0 -8.4292232951739386e-05 -0.0017807762441361898 0 -3.2764768176666456e-05 -0.0012161458438049589 0 -0.0001249005481311371 -0.0014632825626730097 0 -3.2764768176666456e-05 -0.0012161458438049589 0 -8.1636747572724403e-05 -0.00095610985653982899 0 -0.00017904776246081041 -0.001964594736417954 0 -0.00012234068837678407 -0.0022861847955671817 0 -0.00021423555686847184 -0.0024608561333552509 0 -0.00021705635359437682 -0.0016562825493692105 0 -0.0001249005481311371 -0.0014632825626730097 0 -0.00017904776246081041 -0.001964594736417954 0 -0.0001249005481311371 -0.0014632825626730097 0 -0.00017904776246081041 -0.001964594736417954 0 -8.4292232951739386e-05 -0.0017807762441361898 0 -0.00017904776246081041 -0.001964594736417954 0 -8.4292232951739386e-05 -0.0017807762441361898 0 -0.00012234068837678407 -0.0022861847955671817 0 -8.4292232951739386e-05 -0.0017807762441361898 0 -2.3597123866213176e-05 -0.0020562146877286516 0 -0.00012234068837678407 -0.0022861847955671817 0 -8.4292232951739386e-05 -0.0017807762441361898 0 -2.3597123866213176e-05 -0.0020562146877286516 0 1.2098263218158195e-05 -0.0016362022908952807 0 1.2098263218158195e-05 -0.0016362022908952807 0 8.5486298585763618e-05 -0.0014120173098877923 0 8.453696510856249e-05 -0.0017806716893723534 0 -2.3597123866213176e-05 -0.0020562146877286516 0 1.2098263218158195e-05 -0.0016362022908952807 0 8.453696510856249e-05 -0.0017806716893723534 0 -2.3597123866213176e-05 -0.0020562146877286516 0 4.5269203109619526e-05 -0.0022470261807294614 0 8.453696510856249e-05 -0.0017806716893723534 0 -3.2764768176666456e-05 -0.0012161458438049589 0 1.2098263218158195e-05 -0.0016362022908952807 0 3.1039172762805091e-05 -0.0012084744696348991 0 -8.4292232951739386e-05 -0.0017807762441361898 0 -3.2764768176666456e-05 -0.0012161458438049589 0 1.2098263218158195e-05 -0.0016362022908952807 0 1.2098263218158195e-05 -0.0016362022908952807 0 3.1039172762805091e-05 -0.0012084744696348991 0 8.5486298585763618e-05 -0.0014120173098877923 0 -3.2764768176666456e-05 -0.0012161458438049589 0 3.1039172762805091e-05 -0.0012084744696348991 0 1.9242164157856663e-05 -0.00077736517325561105 0 3.1039172762805091e-05 -0.0012084744696348991 0 1.9242164157856663e-05 -0.00077736517325561105 0 6.0217979405394483e-05 -0.00099649599209864935 0 -3.2764768176666456e-05 -0.0012161458438049589 0 1.9242164157856663e-05 -0.00077736517325561105 0 -2.1469791477657377e-05 -0.00067441509886513693 0 1.9242164157856663e-05 -0.00077736517325561105 0 7.9909291115395255e-06 -0.00035960028973104115 0 -2.1469791477657377e-05 -0.00067441509886513693 0 1.9242164157856663e-05 -0.00077736517325561105 0 7.9909291115395255e-06 -0.00035960028973104115 0 4.1990822325789083e-05 -0.00047501316288513196 0 7.9909291115395255e-06 -0.00035960028973104115 0 3.4225403565805189e-09 -3.9319028430097867e-07 0 4.1990822325789083e-05 -0.00047501316288513196 0 7.9909291115395255e-06 -0.00035960028973104115 0 3.4225403565805189e-09 -3.9319028430097867e-07 0 -6.7933965173819851e-10 -4.0459489017760799e-07 0 7.9909291115395255e-06 -0.00035960028973104115 0 -6.7933965173819851e-10 -4.0459489017760799e-07 0 -1.162981480513544e-05 -0.00030775651962982714 0 7.9909291115395255e-06 -0.00035960028973104115 0 -1.162981480513544e-05 -0.00030775651962982714 0 -2.1469791477657377e-05 -0.00067441509886513693 0 -1.162981480513544e-05 -0.00030775651962982714 0 -1.1707216322183736e-08 -4.0221110699315898e-07 0 -4.396495456743342e-05 -0.00047615522077708197 0 -1.162981480513544e-05 -0.00030775651962982714 0 -4.396495456743342e-05 -0.00047615522077708197 0 -2.1469791477657377e-05 -0.00067441509886513693 0 -6.7933965173819851e-10 -4.0459489017760799e-07 0 -1.162981480513544e-05 -0.00030775651962982714 0 -1.1707216322183736e-08 -4.0221110699315898e-07 0 -4.4590108606818883e-05 -0.00029555485926953558 0 -1.1707216322183736e-08 -4.0221110699315898e-07 0 -4.396495456743342e-05 -0.00047615522077708197 0 -0.00010926116544207533 -0.00071681951097287073 0 -4.396495456743342e-05 -0.00047615522077708197 0 -8.1636747572724403e-05 -0.00095610985653982899 0 -3.2764768176666456e-05 -0.0012161458438049589 0 -8.1636747572724403e-05 -0.00095610985653982899 0 -2.1469791477657377e-05 -0.00067441509886513693 0 -4.396495456743342e-05 -0.00047615522077708197 0 -8.1636747572724403e-05 -0.00095610985653982899 0 -2.1469791477657377e-05 -0.00067441509886513693 0 4.2838476362115714e-05 -0.0037439917111976727 0 -2.9873868681138574e-05 -0.0040023734829831951 0 0.00015874688071697323 -0.004227860883836046 0 4.2838476362115714e-05 -0.0037439917111976727 0 -0.00010415007996956619 -0.0036051028387786041 0 -2.9873868681138574e-05 -0.0040023734829831951 0 4.2838476362115714e-05 -0.0037439917111976727 0 -0.00010415007996956619 -0.0036051028387786041 0 -0.00010055811465477537 -0.0032156407289330373 0 -2.9873868681138574e-05 -0.0040023734829831951 0 5.2700729320615009e-05 -0.0045018067190386599 0 0.00015874688071697323 -0.004227860883836046 0 5.2700729320615009e-05 -0.0045018067190386599 0 0.00025743326777492815 -0.0048405670682051998 0 8.4403421215039801e-05 -0.0049836507522762934 0 5.2700729320615009e-05 -0.0045018067190386599 0 0.00025743326777492815 -0.0048405670682051998 0 0.00015874688071697323 -0.004227860883836046 0 0.00025743326777492815 -0.0048405670682051998 0 0.00015874688071697323 -0.004227860883836046 0 0.00030850934414048282 -0.0045599335874249892 0 0.00015874688071697323 -0.004227860883836046 0 0.00030850934414048282 -0.0045599335874249892 0 0.00036014847796267651 -0.004326318190805107 0 0.00025743326777492815 -0.0048405670682051998 0 0.00030850934414048282 -0.0045599335874249892 0 0.00045061268391165108 -0.0048445175456169878 0 0.00030850934414048282 -0.0045599335874249892 0 0.00045061268391165108 -0.0048445175456169878 0 0.00036014847796267651 -0.004326318190805107 0 0.00036014847796267651 -0.004326318190805107 0 0.00020333830087178938 -0.0038328998728947364 0 0.00038977445284162792 -0.0039519136047820366 0 0.00015874688071697323 -0.004227860883836046 0 0.00036014847796267651 -0.004326318190805107 0 0.00020333830087178938 -0.0038328998728947364 0 4.2838476362115714e-05 -0.0037439917111976727 0 0.00015874688071697323 -0.004227860883836046 0 0.00020333830087178938 -0.0038328998728947364 0 4.2838476362115714e-05 -0.0037439917111976727 0 0.00020333830087178938 -0.0038328998728947364 0 3.7040102135786154e-05 -0.0033692992602751856 0 0.00020333830087178938 -0.0038328998728947364 0 0.00020177054794749563 -0.0034194141953050308 0 0.00038977445284162792 -0.0039519136047820366 0 0.00020177054794749563 -0.0034194141953050308 0 -3.3540123474413872e-06 -0.002988402241016245 0 1.5747508446059645e-05 -0.0028136536479444131 0 0.00020177054794749563 -0.0034194141953050308 0 -3.3540123474413872e-06 -0.002988402241016245 0 3.7040102135786154e-05 -0.0033692992602751856 0 -3.3540123474413872e-06 -0.002988402241016245 0 3.7040102135786154e-05 -0.0033692992602751856 0 -0.00011547155352616431 -0.0028341241818878316 0 0.00020333830087178938 -0.0038328998728947364 0 0.00020177054794749563 -0.0034194141953050308 0 3.7040102135786154e-05 -0.0033692992602751856 0 4.5269203109619526e-05 -0.0022470261807294614 0 -5.3698042325917964e-05 -0.0025727807211705562 0 1.5747508446059645e-05 -0.0028136536479444131 0 -2.3597123866213176e-05 -0.0020562146877286516 0 4.5269203109619526e-05 -0.0022470261807294614 0 -5.3698042325917964e-05 -0.0025727807211705562 0 -3.3540123474413872e-06 -0.002988402241016245 0 -5.3698042325917964e-05 -0.0025727807211705562 0 1.5747508446059645e-05 -0.0028136536479444131 0 -3.3540123474413872e-06 -0.002988402241016245 0 -5.3698042325917964e-05 -0.0025727807211705562 0 -0.00011547155352616431 -0.0028341241818878316 0 -2.3597123866213176e-05 -0.0020562146877286516 0 -5.3698042325917964e-05 -0.0025727807211705562 0 -0.00012234068837678407 -0.0022861847955671817 0 -5.3698042325917964e-05 -0.0025727807211705562 0 -0.00012234068837678407 -0.0022861847955671817 0 -0.00011547155352616431 -0.0028341241818878316 0 -0.00012234068837678407 -0.0022861847955671817 0 -0.00011547155352616431 -0.0028341241818878316 0 -0.00021423555686847184 -0.0024608561333552509 0 -0.00011547155352616431 -0.0028341241818878316 0 -0.00021423555686847184 -0.0024608561333552509 0 -0.00022689897123757694 -0.0029027770666648772 0 4.2838476362115714e-05 -0.0037439917111976727 0 3.7040102135786154e-05 -0.0033692992602751856 0 -0.00010055811465477537 -0.0032156407289330373 0 3.7040102135786154e-05 -0.0033692992602751856 0 -0.00011547155352616431 -0.0028341241818878316 0 -0.00010055811465477537 -0.0032156407289330373 0 -0.00011547155352616431 -0.0028341241818878316 0 -0.00010055811465477537 -0.0032156407289330373 0 -0.00022689897123757694 -0.0029027770666648772 0 -0.00010055811465477537 -0.0032156407289330373 0 -0.00022689897123757694 -0.0029027770666648772 0 -0.00027582047259242681 -0.0033582416544747275 0 -0.00010415007996956619 -0.0036051028387786041 0 -0.00010055811465477537 -0.0032156407289330373 0 -0.00027582047259242681 -0.0033582416544747275 0 -0.00022689897123757694 -0.0029027770666648772 0 -0.00031966904286007212 -0.0029770003928270912 0 -0.00027582047259242681 -0.0033582416544747275 0 -0.00031966904286007212 -0.0029770003928270912 0 -0.00027582047259242681 -0.0033582416544747275 0 -0.00039254990362972987 -0.0031874821493190052 0 -0.00029294902187182166 -0.0021327048718469983 0 -0.00021423555686847184 -0.0024608561333552509 0 -0.00031326379221045152 -0.0026186869198074605 0 -0.00021423555686847184 -0.0024608561333552509 0 -0.00022689897123757694 -0.0029027770666648772 0 -0.00031326379221045152 -0.0026186869198074605 0 -0.00022689897123757694 -0.0029027770666648772 0 -0.00031966904286007212 -0.0029770003928270912 0 -0.00031326379221045152 -0.0026186869198074605 0 -0.00031966904286007212 -0.0029770003928270912 0 -0.00031326379221045152 -0.0026186869198074605 0 -0.0004130924701660587 -0.0028384040454914202 0 -0.00029294902187182166 -0.0021327048718469983 0 -0.00031326379221045152 -0.0026186869198074605 0 -0.00041260984421915566 -0.0024382710707217155 0 -0.00031326379221045152 -0.0026186869198074605 0 -0.00041260984421915566 -0.0024382710707217155 0 -0.0004130924701660587 -0.0028384040454914202 0 -0.00041260984421915566 -0.0024382710707217155 0 -0.0004130924701660587 -0.0028384040454914202 0 -0.00054315580061282053 -0.002698265271007535 0 -0.00041260984421915566 -0.0024382710707217155 0 -0.00050210856466892991 -0.0023028107029418451 0 -0.00054315580061282053 -0.002698265271007535 0 -0.000412259952456149 -0.0020412672252232166 0 -0.00041260984421915566 -0.0024382710707217155 0 -0.00050210856466892991 -0.0023028107029418451 0 -0.00027582047259242681 -0.0033582416544747275 0 -0.00039254990362972987 -0.0031874821493190052 0 -0.0004246193674225995 -0.0035228579236243791 0 -0.00031966904286007212 -0.0029770003928270912 0 -0.00039254990362972987 -0.0031874821493190052 0 -0.0004130924701660587 -0.0028384040454914202 0 -0.00039254990362972987 -0.0031874821493190052 0 -0.0004130924701660587 -0.0028384040454914202 0 -0.00050116196986238601 -0.0031158049971756418 0 -0.0004130924701660587 -0.0028384040454914202 0 -0.00050116196986238601 -0.0031158049971756418 0 -0.00054315580061282053 -0.002698265271007535 0 -0.00039254990362972987 -0.0031874821493190052 0 -0.00050116196986238601 -0.0031158049971756418 0 -0.0004246193674225995 -0.0035228579236243791 0 -0.00050116196986238601 -0.0031158049971756418 0 -0.0004246193674225995 -0.0035228579236243791 0 -0.0006089192298547306 -0.0033515034971898414 0 -0.0004246193674225995 -0.0035228579236243791 0 -0.00034078722033629717 -0.0040222300571606381 0 -0.00052242057022158447 -0.0037785866588605863 0 -0.00034078722033629717 -0.0040222300571606381 0 -0.00041554063515372296 -0.0042693078854602008 0 -0.00052242057022158447 -0.0037785866588605863 0 -0.0004246193674225995 -0.0035228579236243791 0 -0.00034078722033629717 -0.0040222300571606381 0 -0.00028201365235393862 -0.003765874640362786 0 -0.00027582047259242681 -0.0033582416544747275 0 -0.0004246193674225995 -0.0035228579236243791 0 -0.00028201365235393862 -0.003765874640362786 0 -0.00027582047259242681 -0.0033582416544747275 0 -0.00028201365235393862 -0.003765874640362786 0 -0.00017186708205168064 -0.003780301306897973 0 -0.00028201365235393862 -0.003765874640362786 0 -0.00017186708205168064 -0.003780301306897973 0 -0.00015541514376105815 -0.0041811690118795193 0 -0.00034078722033629717 -0.0040222300571606381 0 -0.00028201365235393862 -0.003765874640362786 0 -0.00015541514376105815 -0.0041811690118795193 0 -2.9873868681138574e-05 -0.0040023734829831951 0 -0.00017186708205168064 -0.003780301306897973 0 -0.00015541514376105815 -0.0041811690118795193 0 -0.00010415007996956619 -0.0036051028387786041 0 -2.9873868681138574e-05 -0.0040023734829831951 0 -0.00017186708205168064 -0.003780301306897973 0 -0.00010415007996956619 -0.0036051028387786041 0 -0.00027582047259242681 -0.0033582416544747275 0 -0.00017186708205168064 -0.003780301306897973 0 5.2700729320615009e-05 -0.0045018067190386599 0 -7.3484905954672246e-05 -0.0046282062714612382 0 8.4403421215039801e-05 -0.0049836507522762934 0 5.2700729320615009e-05 -0.0045018067190386599 0 -7.3484905954672246e-05 -0.0046282062714612382 0 -0.00015541514376105815 -0.0041811690118795193 0 -2.9873868681138574e-05 -0.0040023734829831951 0 5.2700729320615009e-05 -0.0045018067190386599 0 -0.00015541514376105815 -0.0041811690118795193 0 -0.00034078722033629717 -0.0040222300571606381 0 -0.00015541514376105815 -0.0041811690118795193 0 -0.00022799572766673648 -0.0044678400680647438 0 -7.3484905954672246e-05 -0.0046282062714612382 0 -0.00022799572766673648 -0.0044678400680647438 0 -8.9418169810989235e-05 -0.0050282442028467727 0 -7.3484905954672246e-05 -0.0046282062714612382 0 -0.00015541514376105815 -0.0041811690118795193 0 -0.00022799572766673648 -0.0044678400680647438 0 -0.00022799572766673648 -0.0044678400680647438 0 -0.00041554063515372296 -0.0042693078854602008 0 -0.00028298814282474766 -0.0047639462539606535 0 -0.00034078722033629717 -0.0040222300571606381 0 -0.00022799572766673648 -0.0044678400680647438 0 -0.00041554063515372296 -0.0042693078854602008 0 -0.00041554063515372296 -0.0042693078854602008 0 -0.00044271074204763788 -0.0045804671901839653 0 -0.00028298814282474766 -0.0047639462539606535 0 -0.00044271074204763788 -0.0045804671901839653 0 -0.00060240640833798321 -0.004369647470898172 0 -0.0005477738625350308 -0.0041106842303447241 0 -0.00060240640833798321 -0.004369647470898172 0 -0.0005477738625350308 -0.0041106842303447241 0 -0.00066503803493935172 -0.0038689718020377835 0 -0.00041554063515372296 -0.0042693078854602008 0 -0.0005477738625350308 -0.0041106842303447241 0 -0.00052242057022158447 -0.0037785866588605863 0 -0.00041554063515372296 -0.0042693078854602008 0 -0.00044271074204763788 -0.0045804671901839653 0 -0.0005477738625350308 -0.0041106842303447241 0 -0.0004246193674225995 -0.0035228579236243791 0 -0.00052242057022158447 -0.0037785866588605863 0 -0.0006089192298547306 -0.0033515034971898414 0 -0.00066503803493935172 -0.0038689718020377835 0 -0.00076835445137656108 -0.0035016075626581053 0 -0.0006089192298547306 -0.0033515034971898414 0 -0.00052242057022158447 -0.0037785866588605863 0 -0.00066503803493935172 -0.0038689718020377835 0 -0.0006089192298547306 -0.0033515034971898414 0 -0.0005477738625350308 -0.0041106842303447241 0 -0.00052242057022158447 -0.0037785866588605863 0 -0.00066503803493935172 -0.0038689718020377835 0 -0.00066503803493935172 -0.0038689718020377835 0 -0.00083047100051377603 -0.0038307980924965389 0 -0.00073977596731265275 -0.0041685470197626575 0 -0.00066503803493935172 -0.0038689718020377835 0 -0.00076835445137656108 -0.0035016075626581053 0 -0.00083047100051377603 -0.0038307980924965389 0 -0.00076835445137656108 -0.0035016075626581053 0 -0.00083047100051377603 -0.0038307980924965389 0 -0.00092734835931000475 -0.003487929200125325 0 -0.00083047100051377603 -0.0038307980924965389 0 -0.00073977596731265275 -0.0041685470197626575 0 -0.00087169669249760357 -0.0041496187505978442 0 -0.00073977596731265275 -0.0041685470197626575 0 -0.00087169669249760357 -0.0041496187505978442 0 -0.00079779730008442502 -0.0045554415125183849 0 -0.00073977596731265275 -0.0041685470197626575 0 -0.00079779730008442502 -0.0045554415125183849 0 -0.00066080764879732144 -0.0046072900897728046 0 -0.00060240640833798321 -0.004369647470898172 0 -0.00073977596731265275 -0.0041685470197626575 0 -0.00066080764879732144 -0.0046072900897728046 0 -0.00060240640833798321 -0.004369647470898172 0 -0.00066503803493935172 -0.0038689718020377835 0 -0.00073977596731265275 -0.0041685470197626575 0 -0.00050210856466892991 -0.0023028107029418451 0 -0.00061617774489789313 -0.0023902285406151671 0 -0.00054315580061282053 -0.002698265271007535 0 -0.00061617774489789313 -0.0023902285406151671 0 -0.00054315580061282053 -0.002698265271007535 0 -0.00067897094857533545 -0.0028236368660230484 0 -0.00061617774489789313 -0.0023902285406151671 0 -0.00067897094857533545 -0.0028236368660230484 0 -0.00073982434379318439 -0.0025042906312859802 0 -0.00067897094857533545 -0.0028236368660230484 0 -0.00059732900930336023 -0.0030187302419551159 0 -0.00071891847776296767 -0.0031732839776421303 0 -0.00054315580061282053 -0.002698265271007535 0 -0.00067897094857533545 -0.0028236368660230484 0 -0.00059732900930336023 -0.0030187302419551159 0 -0.00050116196986238601 -0.0031158049971756418 0 -0.00054315580061282053 -0.002698265271007535 0 -0.00059732900930336023 -0.0030187302419551159 0 -0.00050116196986238601 -0.0031158049971756418 0 -0.00059732900930336023 -0.0030187302419551159 0 -0.0006089192298547306 -0.0033515034971898414 0 -0.00059732900930336023 -0.0030187302419551159 0 -0.0006089192298547306 -0.0033515034971898414 0 -0.00071891847776296767 -0.0031732839776421303 0 -0.00076835445137656108 -0.0035016075626581053 0 -0.0006089192298547306 -0.0033515034971898414 0 -0.00071891847776296767 -0.0031732839776421303 0 -0.00076835445137656108 -0.0035016075626581053 0 -0.00071891847776296767 -0.0031732839776421303 0 -0.00084409708297433815 -0.0030013228368228301 0 -0.00076835445137656108 -0.0035016075626581053 0 -0.00084409708297433815 -0.0030013228368228301 0 -0.00092734835931000475 -0.003487929200125325 0 -0.00067897094857533545 -0.0028236368660230484 0 -0.00071891847776296767 -0.0031732839776421303 0 -0.00084409708297433815 -0.0030013228368228301 0 -0.00067897094857533545 -0.0028236368660230484 0 -0.00084409708297433815 -0.0030013228368228301 0 -0.00073982434379318439 -0.0025042906312859802 0 -0.00084409708297433815 -0.0030013228368228301 0 -0.00073982434379318439 -0.0025042906312859802 0 -0.00085497598413641657 -0.002436929719191116 0 -0.00076900513811680403 -0.0021731066260772219 0 -0.00073982434379318439 -0.0025042906312859802 0 -0.00085497598413641657 -0.002436929719191116 0 -0.00066185221255277962 -0.0020782507634040273 0 -0.00061617774489789313 -0.0023902285406151671 0 -0.00073982434379318439 -0.0025042906312859802 0 -0.00066185221255277962 -0.0020782507634040273 0 -0.00076900513811680403 -0.0021731066260772219 0 -0.00073982434379318439 -0.0025042906312859802 0 -0.00090846421390525277 -0.0022153293249957727 0 -0.00097100711428717821 -0.0027536395186970645 0 -0.001071841423439087 -0.0025149818074294292 0 -0.00090846421390525277 -0.0022153293249957727 0 -0.00076900513811680403 -0.0021731066260772219 0 -0.00085497598413641657 -0.002436929719191116 0 -0.00090846421390525277 -0.0022153293249957727 0 -0.00085497598413641657 -0.002436929719191116 0 -0.00097100711428717821 -0.0027536395186970645 0 -0.00084409708297433815 -0.0030013228368228301 0 -0.00085497598413641657 -0.002436929719191116 0 -0.00097100711428717821 -0.0027536395186970645 0 -0.00097100711428717821 -0.0027536395186970645 0 -0.0011152890962738112 -0.0029528124818585448 0 -0.001071841423439087 -0.0025149818074294292 0 -0.00097100711428717821 -0.0027536395186970645 0 -0.0010026874177118496 -0.0031557874735423188 0 -0.0011152890962738112 -0.0029528124818585448 0 -0.00084409708297433815 -0.0030013228368228301 0 -0.00097100711428717821 -0.0027536395186970645 0 -0.0010026874177118496 -0.0031557874735423188 0 -0.00084409708297433815 -0.0030013228368228301 0 -0.0010026874177118496 -0.0031557874735423188 0 -0.00092734835931000475 -0.003487929200125325 0 -0.0010026874177118496 -0.0031557874735423188 0 -0.00092734835931000475 -0.003487929200125325 0 -0.0011046902811712646 -0.0034471733820048102 0 -0.0010026874177118496 -0.0031557874735423188 0 -0.0011152890962738112 -0.0029528124818585448 0 -0.0011046902811712646 -0.0034471733820048102 0 -0.0012461024691146545 -0.0031549987957013303 0 -0.0011152890962738112 -0.0029528124818585448 0 -0.0011046902811712646 -0.0034471733820048102 0 -0.0012461024691146545 -0.0031549987957013303 0 -0.0011152890962738112 -0.0029528124818585448 0 -0.0012278262023162157 -0.002758857547048711 0 -0.0011152890962738112 -0.0029528124818585448 0 -0.0012278262023162157 -0.002758857547048711 0 -0.001071841423439087 -0.0025149818074294292 0 -0.0012278262023162157 -0.002758857547048711 0 -0.0011784969199693026 -0.0023610678548939821 0 -0.001071841423439087 -0.0025149818074294292 0 -0.0010232532229728264 -0.0021105581782872021 0 -0.0011784969199693026 -0.0023610678548939821 0 -0.001071841423439087 -0.0025149818074294292 0 -0.00097520713372892059 -0.0043417006591133398 0 -0.00087169669249760357 -0.0041496187505978442 0 -0.0010008392096552648 -0.0038734143523084311 0 -0.00097520713372892059 -0.0043417006591133398 0 -0.00087169669249760357 -0.0041496187505978442 0 -0.00079779730008442502 -0.0045554415125183849 0 -0.00083047100051377603 -0.0038307980924965389 0 -0.00087169669249760357 -0.0041496187505978442 0 -0.0010008392096552648 -0.0038734143523084311 0 -0.00083047100051377603 -0.0038307980924965389 0 -0.00092734835931000475 -0.003487929200125325 0 -0.0010008392096552648 -0.0038734143523084311 0 -0.00092734835931000475 -0.003487929200125325 0 -0.0010008392096552648 -0.0038734143523084311 0 -0.0011046902811712646 -0.0034471733820048102 0 -0.0010008392096552648 -0.0038734143523084311 0 -0.0011256800194788634 -0.0037881607256974141 0 -0.0011046902811712646 -0.0034471733820048102 0 -0.0012461024691146545 -0.0031549987957013303 0 -0.0011046902811712646 -0.0034471733820048102 0 -0.0012365525254993948 -0.0035556734452152163 0 -0.0011256800194788634 -0.0037881607256974141 0 -0.0011046902811712646 -0.0034471733820048102 0 -0.0012365525254993948 -0.0035556734452152163 0 -0.0011256800194788634 -0.0037881607256974141 0 -0.0012365525254993948 -0.0035556734452152163 0 -0.0012058975996307665 -0.0039559308556096793 0 -0.0011256800194788634 -0.0037881607256974141 0 -0.0012058975996307665 -0.0039559308556096793 0 -0.0011028221682232785 -0.004085774381827118 0 -0.00097520713372892059 -0.0043417006591133398 0 -0.0011028221682232785 -0.004085774381827118 0 -0.0011539440874009748 -0.0043607424681518106 0 -0.00097520713372892059 -0.0043417006591133398 0 -0.0010008392096552648 -0.0038734143523084311 0 -0.0011028221682232785 -0.004085774381827118 0 -0.0010008392096552648 -0.0038734143523084311 0 -0.0011256800194788634 -0.0037881607256974141 0 -0.0011028221682232785 -0.004085774381827118 0 -0.0012058975996307665 -0.0039559308556096793 0 -0.0011028221682232785 -0.004085774381827118 0 -0.0011539440874009748 -0.0043607424681518106 0 -0.00097520713372892059 -0.0043417006591133398 0 -0.0011539440874009748 -0.0043607424681518106 0 -0.00098117869886118927 -0.0047097765633678859 0 -0.0011539440874009748 -0.0043607424681518106 0 -0.0010810759283966893 -0.0047688925812703307 0 -0.00098117869886118927 -0.0047097765633678859 0 -0.0010810759283966893 -0.0047688925812703307 0 -0.00098117869886118927 -0.0047097765633678859 0 -0.00094467639215958365 -0.00502202467013414 0 -0.00098117869886118927 -0.0047097765633678859 0 -0.00082931622455681029 -0.0050547727090031929 0 -0.00094467639215958365 -0.00502202467013414 0 -0.00097520713372892059 -0.0043417006591133398 0 -0.00098117869886118927 -0.0047097765633678859 0 -0.00086484398373852165 -0.0047515060458586467 0 -0.00097520713372892059 -0.0043417006591133398 0 -0.00086484398373852165 -0.0047515060458586467 0 -0.00079779730008442502 -0.0045554415125183849 0 -0.00098117869886118927 -0.0047097765633678859 0 -0.00086484398373852165 -0.0047515060458586467 0 -0.00082931622455681029 -0.0050547727090031929 0 -0.00086484398373852165 -0.0047515060458586467 0 -0.00072234583082217277 -0.0050953172387397912 0 -0.00082931622455681029 -0.0050547727090031929 0 -0.00086484398373852165 -0.0047515060458586467 0 -0.00079779730008442502 -0.0045554415125183849 0 -0.00072234583082217277 -0.0050953172387397912 0 -0.00068280376775995831 -0.0054347275979346171 0 -0.00072234583082217277 -0.0050953172387397912 0 -0.00082931622455681029 -0.0050547727090031929 0 -0.00068280376775995831 -0.0054347275979346171 0 -0.00082382605160864633 -0.0053866184049470153 0 -0.00064539295825259755 -0.0057469987075627373 0 -0.00068280376775995831 -0.0054347275979346171 0 -0.00082931622455681029 -0.0050547727090031929 0 -0.00082382605160864633 -0.0053866184049470153 0 -0.00082931622455681029 -0.0050547727090031929 0 -0.00082382605160864633 -0.0053866184049470153 0 -0.00094467639215958365 -0.00502202467013414 0 -0.0010810759283966893 -0.0047688925812703307 0 -0.00094467639215958365 -0.00502202467013414 0 -0.0009902371082383865 -0.005177908174440758 0 -0.00082382605160864633 -0.0053866184049470153 0 -0.0009902371082383865 -0.005177908174440758 0 -0.00088302793111250447 -0.0055946697248307293 0 -0.00082382605160864633 -0.0053866184049470153 0 -0.00094467639215958365 -0.00502202467013414 0 -0.0009902371082383865 -0.005177908174440758 0 -0.00088302793111250447 -0.0055946697248307293 0 -0.00069960204307249188 -0.0058820987288114709 0 -0.00075915809165423781 -0.0060156178611084511 0 -0.00082382605160864633 -0.0053866184049470153 0 -0.00069960204307249188 -0.0058820987288114709 0 -0.00064539295825259755 -0.0057469987075627373 0 -0.00082382605160864633 -0.0053866184049470153 0 -0.00088302793111250447 -0.0055946697248307293 0 -0.00069960204307249188 -0.0058820987288114709 0 -0.00075915809165423781 -0.0060156178611084511 0 -0.00054895809054080532 -0.0063549513064723737 0 -0.00062113887241185622 -0.0064445409240329278 0 -0.00069960204307249188 -0.0058820987288114709 0 -0.00075915809165423781 -0.0060156178611084511 0 -0.00054895809054080532 -0.0063549513064723737 0 -0.00054895809054080532 -0.0063549513064723737 0 -0.00062113887241185622 -0.0064445409240329278 0 -0.00042462487128858096 -0.006765094506254149 0 -0.00054895809054080532 -0.0063549513064723737 0 -0.00048255446369222822 -0.0061981389186986481 0 -0.00033630700874656352 -0.0067350720922523888 0 -0.00048255446369222822 -0.0061981389186986481 0 -0.00032482309898110669 -0.0065620982845239388 0 -0.00033630700874656352 -0.0067350720922523888 0 -0.00069960204307249188 -0.0058820987288114709 0 -0.00054895809054080532 -0.0063549513064723737 0 -0.00048255446369222822 -0.0061981389186986481 0 -0.00032482309898110669 -0.0065620982845239388 0 -0.00033630700874656352 -0.0067350720922523888 0 -0.00018262045849851174 -0.0068501070855918932 0 -0.00069960204307249188 -0.0058820987288114709 0 -0.00048255446369222822 -0.0061981389186986481 0 -0.00064539295825259755 -0.0057469987075627373 0 -0.00048255446369222822 -0.0061981389186986481 0 -0.00064539295825259755 -0.0057469987075627373 0 -0.00054079779459576872 -0.0057980665790707351 0 -0.00068280376775995831 -0.0054347275979346171 0 -0.00064539295825259755 -0.0057469987075627373 0 -0.00054079779459576872 -0.0057980665790707351 0 -0.00048255446369222822 -0.0061981389186986481 0 -0.00054079779459576872 -0.0057980665790707351 0 -0.00036874710818898397 -0.0060798391235434542 0 -0.00054079779459576872 -0.0057980665790707351 0 -0.00036874710818898397 -0.0060798391235434542 0 -0.00052445038976167138 -0.0055197632924964398 0 -0.00036874710818898397 -0.0060798391235434542 0 -0.00036554234861415795 -0.0057456949670392065 0 -0.00052445038976167138 -0.0055197632924964398 0 -0.00048255446369222822 -0.0061981389186986481 0 -0.00036874710818898397 -0.0060798391235434542 0 -0.00028187804808789196 -0.0064737431968197867 0 -0.00032482309898110669 -0.0065620982845239388 0 -0.00028187804808789196 -0.0064737431968197867 0 -0.00018262045849851174 -0.0068501070855918932 0 -0.00048255446369222822 -0.0061981389186986481 0 -0.00032482309898110669 -0.0065620982845239388 0 -0.00028187804808789196 -0.0064737431968197867 0 -0.00036874710818898397 -0.0060798391235434542 0 -0.00028187804808789196 -0.0064737431968197867 0 -0.00017798285863907822 -0.0065396248982266692 0 -0.00028187804808789196 -0.0064737431968197867 0 -0.00018262045849851174 -0.0068501070855918932 0 -5.706544347440549e-05 -0.006969951679442205 0 -0.00028187804808789196 -0.0064737431968197867 0 -0.00017798285863907822 -0.0065396248982266692 0 -5.706544347440549e-05 -0.006969951679442205 0 -0.00017798285863907822 -0.0065396248982266692 0 -3.5489884930604718e-05 -0.006758838704371095 0 -5.706544347440549e-05 -0.006969951679442205 0 -0.00017798285863907822 -0.0065396248982266692 0 -3.5489884930604718e-05 -0.006758838704371095 0 -0.00017825871710228176 -0.0062705777489559158 0 -3.5489884930604718e-05 -0.006758838704371095 0 -0.00017825871710228176 -0.0062705777489559158 0 1.7798847788704908e-05 -0.0066528104783248844 0 -3.5489884930604718e-05 -0.006758838704371095 0 0.00013196714302800847 -0.0072492202926232024 0 0.0001107016810265074 -0.0070009174598980759 0 -3.5489884930604718e-05 -0.006758838704371095 0 0.0001107016810265074 -0.0070009174598980759 0 1.7798847788704908e-05 -0.0066528104783248844 0 -0.00036874710818898397 -0.0060798391235434542 0 -0.00017825871710228176 -0.0062705777489559158 0 -0.00036554234861415795 -0.0057456949670392065 0 -0.00036874710818898397 -0.0060798391235434542 0 -0.00017798285863907822 -0.0065396248982266692 0 -0.00017825871710228176 -0.0062705777489559158 0 -0.00017825871710228176 -0.0062705777489559158 0 -0.00020549002093306844 -0.0059266834035538929 0 -0.00036554234861415795 -0.0057456949670392065 0 -0.00017825871710228176 -0.0062705777489559158 0 -0.00020549002093306844 -0.0059266834035538929 0 -6.3419511487189826e-05 -0.0062131648623769938 0 -0.00020549002093306844 -0.0059266834035538929 0 -0.00036554234861415795 -0.0057456949670392065 0 -0.0003580847183436761 -0.0054300159374239057 0 -0.00020549002093306844 -0.0059266834035538929 0 -0.0003580847183436761 -0.0054300159374239057 0 -0.00020858979201444583 -0.005633602937327775 0 -0.00036554234861415795 -0.0057456949670392065 0 -0.0003580847183436761 -0.0054300159374239057 0 -0.00049757272284875085 -0.0052964928030263857 0 -0.0003580847183436761 -0.0054300159374239057 0 -0.0005190039729935465 -0.0048950343235177711 0 -0.00049757272284875085 -0.0052964928030263857 0 -0.0003580847183436761 -0.0054300159374239057 0 -0.00033588156356421066 -0.0051092339075577689 0 -0.00020858979201444583 -0.005633602937327775 0 -0.0003580847183436761 -0.0054300159374239057 0 -0.0005190039729935465 -0.0048950343235177711 0 -0.00033588156356421066 -0.0051092339075577689 0 -0.00044271074204763788 -0.0045804671901839653 0 -0.0005190039729935465 -0.0048950343235177711 0 -0.00033588156356421066 -0.0051092339075577689 0 -0.00060240640833798321 -0.004369647470898172 0 -0.0005190039729935465 -0.0048950343235177711 0 -0.00066080764879732144 -0.0046072900897728046 0 -0.00044271074204763788 -0.0045804671901839653 0 -0.00060240640833798321 -0.004369647470898172 0 -0.0005190039729935465 -0.0048950343235177711 0 -0.0005190039729935465 -0.0048950343235177711 0 -0.00064888705328391039 -0.0049917105783611193 0 -0.00049757272284875085 -0.0052964928030263857 0 -0.0005190039729935465 -0.0048950343235177711 0 -0.00066080764879732144 -0.0046072900897728046 0 -0.00064888705328391039 -0.0049917105783611193 0 -0.00079779730008442502 -0.0045554415125183849 0 -0.00066080764879732144 -0.0046072900897728046 0 -0.00064888705328391039 -0.0049917105783611193 0 -0.00079779730008442502 -0.0045554415125183849 0 -0.00072234583082217277 -0.0050953172387397912 0 -0.00064888705328391039 -0.0049917105783611193 0 -0.00072234583082217277 -0.0050953172387397912 0 -0.00064888705328391039 -0.0049917105783611193 0 -0.00052445038976167138 -0.0055197632924964398 0 -0.00068280376775995831 -0.0054347275979346171 0 -0.00072234583082217277 -0.0050953172387397912 0 -0.00052445038976167138 -0.0055197632924964398 0 -0.00068280376775995831 -0.0054347275979346171 0 -0.00054079779459576872 -0.0057980665790707351 0 -0.00052445038976167138 -0.0055197632924964398 0 -0.00036554234861415795 -0.0057456949670392065 0 -0.00052445038976167138 -0.0055197632924964398 0 -0.00049757272284875085 -0.0052964928030263857 0 -0.00064888705328391039 -0.0049917105783611193 0 -0.00052445038976167138 -0.0055197632924964398 0 -0.00049757272284875085 -0.0052964928030263857 0 0.00045612557896609689 -0.0090056628178535568 0 0.00033501028753211358 -0.0085936909932128047 0 0.0006243136531508042 -0.0091395733897012884 0 0.00033501028753211358 -0.0085936909932128047 0 0.0001648770800930141 -0.0084241096244777793 0 0.00013218773680173424 -0.0081201343319290669 0 0.00045612557896609689 -0.0090056628178535568 0 0.00029660747440646046 -0.0088662328757469662 0 0.0001648770800930141 -0.0084241096244777793 0 0.00045612557896609689 -0.0090056628178535568 0 0.00033501028753211358 -0.0085936909932128047 0 0.0001648770800930141 -0.0084241096244777793 0 0.00029660747440646046 -0.0088662328757469662 0 0.00014864524160305103 -0.0085658861713562504 0 0.0001648770800930141 -0.0084241096244777793 0 0.00029660747440646046 -0.0088662328757469662 0 0.00013996413085074142 -0.0087207905426284153 0 0.00014864524160305103 -0.0085658861713562504 0 0.00013996413085074142 -0.0087207905426284153 0 0.00014864524160305103 -0.0085658861713562504 0 -6.768323866305164e-06 -0.0082524449285242309 0 0.00014864524160305103 -0.0085658861713562504 0 -6.768323866305164e-06 -0.0082524449285242309 0 0.0001648770800930141 -0.0084241096244777793 0 -6.768323866305164e-06 -0.0082524449285242309 0 0.0001648770800930141 -0.0084241096244777793 0 -2.6855905691802411e-05 -0.0079038893963063999 0 0.0001648770800930141 -0.0084241096244777793 0 -2.6855905691802411e-05 -0.0079038893963063999 0 0.00013218773680173424 -0.0081201343319290669 0 -6.768323866305164e-06 -0.0082524449285242309 0 -0.00015929836476449055 -0.0077880086104225857 0 -2.6855905691802411e-05 -0.0079038893963063999 0 -0.00015929836476449055 -0.0077880086104225857 0 -2.6855905691802411e-05 -0.0079038893963063999 0 -0.00031620769288679855 -0.0073304461705991052 0 -2.6855905691802411e-05 -0.0079038893963063999 0 0.00013218773680173424 -0.0081201343319290669 0 -0.00010082907512580875 -0.0075641258140917086 0 0.00013218773680173424 -0.0081201343319290669 0 7.6835789624851567e-05 -0.0078180897430313919 0 -0.00010082907512580875 -0.0075641258140917086 0 0.00033501028753211358 -0.0085936909932128047 0 0.00013218773680173424 -0.0081201343319290669 0 0.00024475092817170357 -0.0081728415749466599 0 0.00033501028753211358 -0.0085936909932128047 0 0.00024475092817170357 -0.0081728415749466599 0 0.00042591013904947668 -0.0085445430821934551 0 0.00024475092817170357 -0.0081728415749466599 0 7.6835789624851567e-05 -0.0078180897430313919 0 0.00014578364003860469 -0.0077664687385388112 0 0.00013218773680173424 -0.0081201343319290669 0 0.00024475092817170357 -0.0081728415749466599 0 7.6835789624851567e-05 -0.0078180897430313919 0 7.6835789624851567e-05 -0.0078180897430313919 0 -3.4994861599100623e-05 -0.0074934783028202719 0 0.00014578364003860469 -0.0077664687385388112 0 -3.4994861599100623e-05 -0.0074934783028202719 0 -0.00010082907512580875 -0.0075641258140917086 0 -0.00022398917064364064 -0.0071080237615835894 0 7.6835789624851567e-05 -0.0078180897430313919 0 -3.4994861599100623e-05 -0.0074934783028202719 0 -0.00010082907512580875 -0.0075641258140917086 0 -0.00010082907512580875 -0.0075641258140917086 0 -0.00031620769288679855 -0.0073304461705991052 0 -0.00030883350668604013 -0.0071312026462058749 0 -2.6855905691802411e-05 -0.0079038893963063999 0 -0.00010082907512580875 -0.0075641258140917086 0 -0.00031620769288679855 -0.0073304461705991052 0 -0.00031620769288679855 -0.0073304461705991052 0 -0.00030883350668604013 -0.0071312026462058749 0 -0.00047218359483079951 -0.0068819359230260172 0 -0.00010082907512580875 -0.0075641258140917086 0 -0.00030883350668604013 -0.0071312026462058749 0 -0.00022398917064364064 -0.0071080237615835894 0 -0.00030883350668604013 -0.0071312026462058749 0 -0.00042462487128858096 -0.006765094506254149 0 -0.00022398917064364064 -0.0071080237615835894 0 -0.00030883350668604013 -0.0071312026462058749 0 -0.00047218359483079951 -0.0068819359230260172 0 -0.00042462487128858096 -0.006765094506254149 0 -0.00047218359483079951 -0.0068819359230260172 0 -0.00062113887241185622 -0.0064445409240329278 0 -0.00042462487128858096 -0.006765094506254149 0 -0.00054895809054080532 -0.0063549513064723737 0 -0.00042462487128858096 -0.006765094506254149 0 -0.00033630700874656352 -0.0067350720922523888 0 -0.00042462487128858096 -0.006765094506254149 0 -0.00033630700874656352 -0.0067350720922523888 0 -0.00022398917064364064 -0.0071080237615835894 0 -3.4994861599100623e-05 -0.0074934783028202719 0 -0.00022398917064364064 -0.0071080237615835894 0 -6.9549502882298501e-05 -0.0072105278448992959 0 -0.00033630700874656352 -0.0067350720922523888 0 -0.00022398917064364064 -0.0071080237615835894 0 -6.9549502882298501e-05 -0.0072105278448992959 0 -0.00033630700874656352 -0.0067350720922523888 0 -0.00018262045849851174 -0.0068501070855918932 0 -6.9549502882298501e-05 -0.0072105278448992959 0 -0.00018262045849851174 -0.0068501070855918932 0 -6.9549502882298501e-05 -0.0072105278448992959 0 -5.706544347440549e-05 -0.006969951679442205 0 -6.9549502882298501e-05 -0.0072105278448992959 0 -5.706544347440549e-05 -0.006969951679442205 0 0.00012270573517231584 -0.007505220102545924 0 -3.5489884930604718e-05 -0.006758838704371095 0 -5.706544347440549e-05 -0.006969951679442205 0 0.00013196714302800847 -0.0072492202926232024 0 0.00013196714302800847 -0.0072492202926232024 0 0.00025401121385527117 -0.0076192993794786112 0 0.00036381906442000788 -0.0076739287293664986 0 0.00013196714302800847 -0.0072492202926232024 0 0.00025401121385527117 -0.0076192993794786112 0 0.00012270573517231584 -0.007505220102545924 0 -5.706544347440549e-05 -0.006969951679442205 0 0.00013196714302800847 -0.0072492202926232024 0 0.00012270573517231584 -0.007505220102545924 0 0.00025401121385527117 -0.0076192993794786112 0 0.00035586961216450776 -0.0080121514872497964 0 0.00012270573517231584 -0.007505220102545924 0 0.00025401121385527117 -0.0076192993794786112 0 0.00045482427968343564 -0.0080196925528769492 0 0.00036381906442000788 -0.0076739287293664986 0 0.00025401121385527117 -0.0076192993794786112 0 0.00045482427968343564 -0.0080196925528769492 0 0.00035586961216450776 -0.0080121514872497964 0 0.00035586961216450776 -0.0080121514872497964 0 0.00012270573517231584 -0.007505220102545924 0 0.00014578364003860469 -0.0077664687385388112 0 0.00035586961216450776 -0.0080121514872497964 0 0.00014578364003860469 -0.0077664687385388112 0 0.00034213998529689191 -0.0081976282219126551 0 -6.9549502882298501e-05 -0.0072105278448992959 0 0.00012270573517231584 -0.007505220102545924 0 0.00014578364003860469 -0.0077664687385388112 0 -3.4994861599100623e-05 -0.0074934783028202719 0 -6.9549502882298501e-05 -0.0072105278448992959 0 0.00014578364003860469 -0.0077664687385388112 0 0.00024475092817170357 -0.0081728415749466599 0 0.00014578364003860469 -0.0077664687385388112 0 0.00034213998529689191 -0.0081976282219126551 0 0.00024475092817170357 -0.0081728415749466599 0 0.00034213998529689191 -0.0081976282219126551 0 0.00042591013904947668 -0.0085445430821934551 0 0.00034213998529689191 -0.0081976282219126551 0 0.00053674112191377137 -0.0084879318961401488 0 0.00042591013904947668 -0.0085445430821934551 0 0.00035586961216450776 -0.0080121514872497964 0 0.00034213998529689191 -0.0081976282219126551 0 0.00053674112191377137 -0.0084879318961401488 0 0.00035586961216450776 -0.0080121514872497964 0 0.00065876833530046296 -0.008511626523411581 0 0.00053674112191377137 -0.0084879318961401488 0 0.00045482427968343564 -0.0080196925528769492 0 0.00035586961216450776 -0.0080121514872497964 0 0.00065876833530046296 -0.008511626523411581 0 0.00065876833530046296 -0.008511626523411581 0 0.00053674112191377137 -0.0084879318961401488 0 0.00077172840626715442 -0.0089316065490495419 0 0.00053674112191377137 -0.0084879318961401488 0 0.00077172840626715442 -0.0089316065490495419 0 0.0006342699476417355 -0.008874106248397939 0 0.00065876833530046296 -0.008511626523411581 0 0.00077172840626715442 -0.0089316065490495419 0 0.00092892767293040863 -0.0090136181459777014 0 0.00077172840626715442 -0.0089316065490495419 0 0.00080340999507995652 -0.009274121551891187 0 0.00099734106011888438 -0.0094170906115105951 0 0.00077172840626715442 -0.0089316065490495419 0 0.00080340999507995652 -0.009274121551891187 0 0.0006342699476417355 -0.008874106248397939 0 0.00080340999507995652 -0.009274121551891187 0 0.0006342699476417355 -0.008874106248397939 0 0.0006243136531508042 -0.0091395733897012884 0 0.00053674112191377137 -0.0084879318961401488 0 0.0006342699476417355 -0.008874106248397939 0 0.00042591013904947668 -0.0085445430821934551 0 0.0006342699476417355 -0.008874106248397939 0 0.00042591013904947668 -0.0085445430821934551 0 0.0006243136531508042 -0.0091395733897012884 0 0.00033501028753211358 -0.0085936909932128047 0 0.00042591013904947668 -0.0085445430821934551 0 0.0006243136531508042 -0.0091395733897012884 0 0.0014226571258170772 -0.0097623634472883657 0 0.0013266332303643715 -0.0094625778523145642 0 0.0011398331519335205 -0.0092275870256656959 0 0.0014226571258170772 -0.0097623634472883657 0 0.0013266332303643715 -0.0094625778523145642 0 0.001648409153822597 -0.009978932266321695 0 0.0013266332303643715 -0.0094625778523145642 0 0.0011398331519335205 -0.0092275870256656959 0 0.0011132173401873088 -0.0089964198777938674 0 0.0013266332303643715 -0.0094625778523145642 0 0.0011132173401873088 -0.0089964198777938674 0 0.0013737769377699467 -0.0094117599793614882 0 0.0014226571258170772 -0.0097623634472883657 0 0.0011398331519335205 -0.0092275870256656959 0 0.001203911635917496 -0.0095773997290226204 0 0.001203911635917496 -0.0095773997290226204 0 0.00099734106011888438 -0.0094170906115105951 0 0.00092892767293040863 -0.0090136181459777014 0 0.00077172840626715442 -0.0089316065490495419 0 0.00099734106011888438 -0.0094170906115105951 0 0.00092892767293040863 -0.0090136181459777014 0 0.0011398331519335205 -0.0092275870256656959 0 0.001203911635917496 -0.0095773997290226204 0 0.00092892767293040863 -0.0090136181459777014 0 0.0011398331519335205 -0.0092275870256656959 0 0.00092892767293040863 -0.0090136181459777014 0 0.00085211514934104774 -0.0086272772106062851 0 0.00065876833530046296 -0.008511626523411581 0 0.00064145277963292943 -0.0083101946190084243 0 0.00085211514934104774 -0.0086272772106062851 0 0.00065876833530046296 -0.008511626523411581 0 0.00092892767293040863 -0.0090136181459777014 0 0.00085211514934104774 -0.0086272772106062851 0 0.00045482427968343564 -0.0080196925528769492 0 0.00065876833530046296 -0.008511626523411581 0 0.00064145277963292943 -0.0083101946190084243 0 0.00085211514934104774 -0.0086272772106062851 0 0.0011132173401873088 -0.0089964198777938674 0 0.00095049577967032579 -0.0086203022945176375 0 0.0011398331519335205 -0.0092275870256656959 0 0.00085211514934104774 -0.0086272772106062851 0 0.0011132173401873088 -0.0089964198777938674 0 0.0011132173401873088 -0.0089964198777938674 0 0.00095049577967032579 -0.0086203022945176375 0 0.0011658284668556772 -0.0089474362367990244 0 0.00095049577967032579 -0.0086203022945176375 0 0.00071454324942481001 -0.0081783194390393898 0 0.00091319707175978239 -0.0083785139428573536 0 0.00071454324942481001 -0.0081783194390393898 0 0.00064425722773494133 -0.0079201905972654269 0 0.00091319707175978239 -0.0083785139428573536 0 0.00071454324942481001 -0.0081783194390393898 0 0.00049920642328894857 -0.0077774722037532258 0 0.00064425722773494133 -0.0079201905972654269 0 0.00085211514934104774 -0.0086272772106062851 0 0.00095049577967032579 -0.0086203022945176375 0 0.00071454324942481001 -0.0081783194390393898 0 0.00085211514934104774 -0.0086272772106062851 0 0.00071454324942481001 -0.0081783194390393898 0 0.0005877226915735063 -0.008075953928715832 0 0.00064145277963292943 -0.0083101946190084243 0 0.00085211514934104774 -0.0086272772106062851 0 0.0005877226915735063 -0.008075953928715832 0 0.00045482427968343564 -0.0080196925528769492 0 0.00064145277963292943 -0.0083101946190084243 0 0.0005877226915735063 -0.008075953928715832 0 0.00045482427968343564 -0.0080196925528769492 0 0.0005877226915735063 -0.008075953928715832 0 0.00036381906442000788 -0.0076739287293664986 0 0.0005877226915735063 -0.008075953928715832 0 0.00036381906442000788 -0.0076739287293664986 0 0.00049920642328894857 -0.0077774722037532258 0 0.00071454324942481001 -0.0081783194390393898 0 0.0005877226915735063 -0.008075953928715832 0 0.00049920642328894857 -0.0077774722037532258 0 0.00036381906442000788 -0.0076739287293664986 0 0.00049920642328894857 -0.0077774722037532258 0 0.00028496303707404127 -0.0073682594233364538 0 0.00049920642328894857 -0.0077774722037532258 0 0.00028496303707404127 -0.0073682594233364538 0 0.00043488087518391764 -0.0075094301157160297 0 0.00013196714302800847 -0.0072492202926232024 0 0.00036381906442000788 -0.0076739287293664986 0 0.00028496303707404127 -0.0073682594233364538 0 0.00028496303707404127 -0.0073682594233364538 0 0.0001107016810265074 -0.0070009174598980759 0 0.00022197942339642255 -0.0070841923812469936 0 0.00013196714302800847 -0.0072492202926232024 0 0.00028496303707404127 -0.0073682594233364538 0 0.0001107016810265074 -0.0070009174598980759 0 0.00028496303707404127 -0.0073682594233364538 0 0.00043488087518391764 -0.0075094301157160297 0 0.00022197942339642255 -0.0070841923812469936 0 0.00043488087518391764 -0.0075094301157160297 0 0.00022197942339642255 -0.0070841923812469936 0 0.00035855475511840977 -0.0071964113235356928 0 0.00049920642328894857 -0.0077774722037532258 0 0.00043488087518391764 -0.0075094301157160297 0 0.00064425722773494133 -0.0079201905972654269 0 0.00043488087518391764 -0.0075094301157160297 0 0.00064425722773494133 -0.0079201905972654269 0 0.00061844153111223911 -0.0077439283733381284 0 0.00043488087518391764 -0.0075094301157160297 0 0.00061844153111223911 -0.0077439283733381284 0 0.00035855475511840977 -0.0071964113235356928 0 0.00061844153111223911 -0.0077439283733381284 0 0.00067919962401119429 -0.0077528336628031385 0 0.00047350396729680549 -0.007310007658260358 0 0.00061844153111223911 -0.0077439283733381284 0 0.00035855475511840977 -0.0071964113235356928 0 0.00047350396729680549 -0.007310007658260358 0 0.00061844153111223911 -0.0077439283733381284 0 0.00085316081074295416 -0.0081387765220566448 0 0.00091319707175978239 -0.0083785139428573536 0 0.00064425722773494133 -0.0079201905972654269 0 0.00061844153111223911 -0.0077439283733381284 0 0.00091319707175978239 -0.0083785139428573536 0 0.00061844153111223911 -0.0077439283733381284 0 0.00085316081074295416 -0.0081387765220566448 0 0.00067919962401119429 -0.0077528336628031385 0 0.00067919962401119429 -0.0077528336628031385 0 0.00091155165764738005 -0.0081536503380605606 0 0.00062632046301754941 -0.0075545149330142596 0 0.00091155165764738005 -0.0081536503380605606 0 0.00062632046301754941 -0.0075545149330142596 0 0.00093755882310783288 -0.0081245849355326642 0 0.00091155165764738005 -0.0081536503380605606 0 0.0010882539320859396 -0.0085052752416933178 0 0.00093755882310783288 -0.0081245849355326642 0 0.00091155165764738005 -0.0081536503380605606 0 0.0012687652161328974 -0.008885619481288843 0 0.0010882539320859396 -0.0085052752416933178 0 0.00085316081074295416 -0.0081387765220566448 0 0.00091155165764738005 -0.0081536503380605606 0 0.0011523249513361597 -0.0087158653798751606 0 0.00085316081074295416 -0.0081387765220566448 0 0.00067919962401119429 -0.0077528336628031385 0 0.00091155165764738005 -0.0081536503380605606 0 0.00091155165764738005 -0.0081536503380605606 0 0.0011523249513361597 -0.0087158653798751606 0 0.0012687652161328974 -0.008885619481288843 0 0.0011523249513361597 -0.0087158653798751606 0 0.0014768765619334453 -0.0093731149168975614 0 0.0012687652161328974 -0.008885619481288843 0 0.0011523249513361597 -0.0087158653798751606 0 0.0012576596256273945 -0.0090128262136330052 0 0.0014768765619334453 -0.0093731149168975614 0 0.0011523249513361597 -0.0087158653798751606 0 0.00091319707175978239 -0.0083785139428573536 0 0.0012576596256273945 -0.0090128262136330052 0 0.00091319707175978239 -0.0083785139428573536 0 0.0011658284668556772 -0.0089474362367990244 0 0.0012576596256273945 -0.0090128262136330052 0 0.00085316081074295416 -0.0081387765220566448 0 0.0011523249513361597 -0.0087158653798751606 0 0.00091319707175978239 -0.0083785139428573536 0 0.00095049577967032579 -0.0086203022945176375 0 0.00091319707175978239 -0.0083785139428573536 0 0.0011658284668556772 -0.0089474362367990244 0 0.0011132173401873088 -0.0089964198777938674 0 0.0011658284668556772 -0.0089474362367990244 0 0.0013737769377699467 -0.0094117599793614882 0 0.0011658284668556772 -0.0089474362367990244 0 0.0014253128425915349 -0.0093906561722725945 0 0.0013737769377699467 -0.0094117599793614882 0 0.0011658284668556772 -0.0089474362367990244 0 0.0014253128425915349 -0.0093906561722725945 0 0.0012576596256273945 -0.0090128262136330052 0 0.0014253128425915349 -0.0093906561722725945 0 0.0012576596256273945 -0.0090128262136330052 0 0.0015397549530865142 -0.0095569916120417549 0 0.0012576596256273945 -0.0090128262136330052 0 0.0015397549530865142 -0.0095569916120417549 0 0.0014768765619334453 -0.0093731149168975614 0 0.0015397549530865142 -0.0095569916120417549 0 0.0017236368327731766 -0.0099295908675141979 0 0.0018272681221752588 -0.010098289730212656 0 0.0015397549530865142 -0.0095569916120417549 0 0.0018272681221752588 -0.010098289730212656 0 0.0014768765619334453 -0.0093731149168975614 0 0.0014253128425915349 -0.0093906561722725945 0 0.0015397549530865142 -0.0095569916120417549 0 0.0017236368327731766 -0.0099295908675141979 0 0.0014253128425915349 -0.0093906561722725945 0 0.0017236368327731766 -0.0099295908675141979 0 0.0016068634696690756 -0.0097833617199008915 0 0.0017236368327731766 -0.0099295908675141979 0 0.002070810058954316 -0.010530875817850078 0 0.0018272681221752588 -0.010098289730212656 0 0.0017236368327731766 -0.0099295908675141979 0 0.0018702617155038832 -0.010238806990175039 0 0.002070810058954316 -0.010530875817850078 0 0.0017236368327731766 -0.0099295908675141979 0 0.0018702617155038832 -0.010238806990175039 0 0.0016068634696690756 -0.0097833617199008915 0 0.0018702617155038832 -0.010238806990175039 0 0.0016068634696690756 -0.0097833617199008915 0 0.001648409153822597 -0.009978932266321695 0 0.0016068634696690756 -0.0097833617199008915 0 0.0013737769377699467 -0.0094117599793614882 0 0.001648409153822597 -0.009978932266321695 0 0.0014253128425915349 -0.0093906561722725945 0 0.0016068634696690756 -0.0097833617199008915 0 0.0013737769377699467 -0.0094117599793614882 0 0.0013266332303643715 -0.0094625778523145642 0 0.0013737769377699467 -0.0094117599793614882 0 0.001648409153822597 -0.009978932266321695 0 -2.8564471321204639e-05 -0.0055303893871715779 0 -2.9393713075775908e-05 -0.0058819551353998982 0 9.225449839627007e-05 -0.0058302896595481954 0 -2.9393713075775908e-05 -0.0058819551353998982 0 9.225449839627007e-05 -0.0058302896595481954 0 0.00014449273778955517 -0.0062340948293983078 0 9.225449839627007e-05 -0.0058302896595481954 0 0.00014449273778955517 -0.0062340948293983078 0 0.00025361683598630635 -0.0061597712758450357 0 -2.8564471321204639e-05 -0.0055303893871715779 0 9.225449839627007e-05 -0.0058302896595481954 0 0.00010119593803724319 -0.005453653122583022 0 0.00010119593803724319 -0.005453653122583022 0 -8.9418169810989235e-05 -0.0050282442028467727 0 8.4403421215039801e-05 -0.0049836507522762934 0 -2.8564471321204639e-05 -0.0055303893871715779 0 0.00010119593803724319 -0.005453653122583022 0 -8.9418169810989235e-05 -0.0050282442028467727 0 -7.3484905954672246e-05 -0.0046282062714612382 0 -8.9418169810989235e-05 -0.0050282442028467727 0 8.4403421215039801e-05 -0.0049836507522762934 0 -2.8564471321204639e-05 -0.0055303893871715779 0 -8.9418169810989235e-05 -0.0050282442028467727 0 -0.00017792279373930053 -0.0053598955489994613 0 -8.9418169810989235e-05 -0.0050282442028467727 0 -0.00028298814282474766 -0.0047639462539606535 0 -0.00017792279373930053 -0.0053598955489994613 0 -0.00022799572766673648 -0.0044678400680647438 0 -8.9418169810989235e-05 -0.0050282442028467727 0 -0.00028298814282474766 -0.0047639462539606535 0 -0.00044271074204763788 -0.0045804671901839653 0 -0.00028298814282474766 -0.0047639462539606535 0 -0.00033588156356421066 -0.0051092339075577689 0 -0.00028298814282474766 -0.0047639462539606535 0 -0.00033588156356421066 -0.0051092339075577689 0 -0.00017792279373930053 -0.0053598955489994613 0 -0.00033588156356421066 -0.0051092339075577689 0 -0.00017792279373930053 -0.0053598955489994613 0 -0.00020858979201444583 -0.005633602937327775 0 -2.8564471321204639e-05 -0.0055303893871715779 0 -2.9393713075775908e-05 -0.0058819551353998982 0 -0.00017792279373930053 -0.0053598955489994613 0 -2.9393713075775908e-05 -0.0058819551353998982 0 -0.00017792279373930053 -0.0053598955489994613 0 -0.00020858979201444583 -0.005633602937327775 0 -2.9393713075775908e-05 -0.0058819551353998982 0 -0.00020858979201444583 -0.005633602937327775 0 -6.3419511487189826e-05 -0.0062131648623769938 0 -0.00020549002093306844 -0.0059266834035538929 0 -0.00020858979201444583 -0.005633602937327775 0 -6.3419511487189826e-05 -0.0062131648623769938 0 -0.00017825871710228176 -0.0062705777489559158 0 -6.3419511487189826e-05 -0.0062131648623769938 0 1.7798847788704908e-05 -0.0066528104783248844 0 -6.3419511487189826e-05 -0.0062131648623769938 0 0.00014626608026980132 -0.0067410987276808366 0 7.621806544442727e-05 -0.006359515165401777 0 -6.3419511487189826e-05 -0.0062131648623769938 0 1.7798847788704908e-05 -0.0066528104783248844 0 0.00014626608026980132 -0.0067410987276808366 0 -2.9393713075775908e-05 -0.0058819551353998982 0 -6.3419511487189826e-05 -0.0062131648623769938 0 7.621806544442727e-05 -0.006359515165401777 0 0.0001107016810265074 -0.0070009174598980759 0 1.7798847788704908e-05 -0.0066528104783248844 0 0.00022197942339642255 -0.0070841923812469936 0 1.7798847788704908e-05 -0.0066528104783248844 0 0.00022197942339642255 -0.0070841923812469936 0 0.00014626608026980132 -0.0067410987276808366 0 0.00022197942339642255 -0.0070841923812469936 0 0.00014626608026980132 -0.0067410987276808366 0 0.00035855475511840977 -0.0071964113235356928 0 0.00014626608026980132 -0.0067410987276808366 0 0.00025806193065259017 -0.006773120762461218 0 0.00035855475511840977 -0.0071964113235356928 0 0.00025806193065259017 -0.006773120762461218 0 0.00035855475511840977 -0.0071964113235356928 0 0.00047350396729680549 -0.007310007658260358 0 -2.9393713075775908e-05 -0.0058819551353998982 0 7.621806544442727e-05 -0.006359515165401777 0 0.00014449273778955517 -0.0062340948293983078 0 0.00014626608026980132 -0.0067410987276808366 0 0.00025806193065259017 -0.006773120762461218 0 7.621806544442727e-05 -0.006359515165401777 0 0.00025806193065259017 -0.006773120762461218 0 7.621806544442727e-05 -0.006359515165401777 0 0.00014449273778955517 -0.0062340948293983078 0 0.00025806193065259017 -0.006773120762461218 0 0.00014449273778955517 -0.0062340948293983078 0 0.00028652650669684952 -0.0065312403346252474 0 0.00014449273778955517 -0.0062340948293983078 0 0.00028652650669684952 -0.0065312403346252474 0 0.00025361683598630635 -0.0061597712758450357 0 0.00025806193065259017 -0.006773120762461218 0 0.00028652650669684952 -0.0065312403346252474 0 0.00041758681115107465 -0.0069681780807251065 0 0.00028652650669684952 -0.0065312403346252474 0 0.00041758681115107465 -0.0069681780807251065 0 0.00040767060693899137 -0.0065022056701424134 0 0.00040767060693899137 -0.0065022056701424134 0 0.0003875314195557005 -0.0060730454946527467 0 0.00025361683598630635 -0.0061597712758450357 0 0.00028652650669684952 -0.0065312403346252474 0 0.00040767060693899137 -0.0065022056701424134 0 0.00025361683598630635 -0.0061597712758450357 0 0.00025806193065259017 -0.006773120762461218 0 0.00047350396729680549 -0.007310007658260358 0 0.00041758681115107465 -0.0069681780807251065 0 0.00047350396729680549 -0.007310007658260358 0 0.00041758681115107465 -0.0069681780807251065 0 0.00062632046301754941 -0.0075545149330142596 0 0.00067919962401119429 -0.0077528336628031385 0 0.00047350396729680549 -0.007310007658260358 0 0.00062632046301754941 -0.0075545149330142596 0 0.00041758681115107465 -0.0069681780807251065 0 0.00062632046301754941 -0.0075545149330142596 0 0.00053483842961470182 -0.0072806691392404985 0 0.00062632046301754941 -0.0075545149330142596 0 0.00053483842961470182 -0.0072806691392404985 0 0.00093755882310783288 -0.0081245849355326642 0 0.00041758681115107465 -0.0069681780807251065 0 0.00055703895256749379 -0.0067219497839525024 0 0.00053483842961470182 -0.0072806691392404985 0 0.00040767060693899137 -0.0065022056701424134 0 0.00055703895256749379 -0.0067219497839525024 0 0.00053807943139494473 -0.0061911327119329165 0 0.00040767060693899137 -0.0065022056701424134 0 0.00053807943139494473 -0.0061911327119329165 0 0.0003875314195557005 -0.0060730454946527467 0 0.00041758681115107465 -0.0069681780807251065 0 0.00040767060693899137 -0.0065022056701424134 0 0.00055703895256749379 -0.0067219497839525024 0 0.00055703895256749379 -0.0067219497839525024 0 0.00053807943139494473 -0.0061911327119329165 0 0.00071097404456519069 -0.0062625393921254503 0 0.00053807943139494473 -0.0061911327119329165 0 0.00070568483400459817 -0.0058962702809128012 0 0.00071097404456519069 -0.0062625393921254503 0 0.00053807943139494473 -0.0061911327119329165 0 0.00048671198215810492 -0.0057109017954527844 0 0.00070568483400459817 -0.0058962702809128012 0 0.00053807943139494473 -0.0061911327119329165 0 0.00048671198215810492 -0.0057109017954527844 0 0.0003875314195557005 -0.0060730454946527467 0 0.0003875314195557005 -0.0060730454946527467 0 0.00026518941112794428 -0.0057819629738213819 0 0.00025361683598630635 -0.0061597712758450357 0 0.00048671198215810492 -0.0057109017954527844 0 0.0003875314195557005 -0.0060730454946527467 0 0.00026518941112794428 -0.0057819629738213819 0 0.00048671198215810492 -0.0057109017954527844 0 0.00026518941112794428 -0.0057819629738213819 0 0.00028995677080432918 -0.0053521205157316797 0 0.00010119593803724319 -0.005453653122583022 0 0.00026518941112794428 -0.0057819629738213819 0 0.00028995677080432918 -0.0053521205157316797 0 9.225449839627007e-05 -0.0058302896595481954 0 0.00010119593803724319 -0.005453653122583022 0 0.00026518941112794428 -0.0057819629738213819 0 9.225449839627007e-05 -0.0058302896595481954 0 0.00026518941112794428 -0.0057819629738213819 0 0.00025361683598630635 -0.0061597712758450357 0 0.00010119593803724319 -0.005453653122583022 0 8.4403421215039801e-05 -0.0049836507522762934 0 0.00028995677080432918 -0.0053521205157316797 0 0.00025743326777492815 -0.0048405670682051998 0 8.4403421215039801e-05 -0.0049836507522762934 0 0.00028995677080432918 -0.0053521205157316797 0 0.00048671198215810492 -0.0057109017954527844 0 0.00046366038577340423 -0.005221963868496376 0 0.00067961919520033638 -0.0054396171192321327 0 0.00025743326777492815 -0.0048405670682051998 0 0.00045061268391165108 -0.0048445175456169878 0 0.00046366038577340423 -0.005221963868496376 0 0.00025743326777492815 -0.0048405670682051998 0 0.00028995677080432918 -0.0053521205157316797 0 0.00046366038577340423 -0.005221963868496376 0 0.00048671198215810492 -0.0057109017954527844 0 0.00028995677080432918 -0.0053521205157316797 0 0.00046366038577340423 -0.005221963868496376 0 0.00045061268391165108 -0.0048445175456169878 0 0.00046366038577340423 -0.005221963868496376 0 0.0006120414298857982 -0.0050447406226866529 0 0.00046366038577340423 -0.005221963868496376 0 0.00067961919520033638 -0.0054396171192321327 0 0.0006120414298857982 -0.0050447406226866529 0 0.00067961919520033638 -0.0054396171192321327 0 0.0006120414298857982 -0.0050447406226866529 0 0.00078136534188671502 -0.0053786049587233207 0 0.00067961919520033638 -0.0054396171192321327 0 0.00078136534188671502 -0.0053786049587233207 0 0.00084482400971578697 -0.0057105087059221718 0 0.0006120414298857982 -0.0050447406226866529 0 0.00071906704177136045 -0.0050301511766057743 0 0.00078136534188671502 -0.0053786049587233207 0 0.00071906704177136045 -0.0050301511766057743 0 0.00078136534188671502 -0.0053786049587233207 0 0.00089599405358158958 -0.0054334728648839023 0 0.00078136534188671502 -0.0053786049587233207 0 0.00089599405358158958 -0.0054334728648839023 0 0.00084482400971578697 -0.0057105087059221718 0 0.00071906704177136045 -0.0050301511766057743 0 0.00089599405358158958 -0.0054334728648839023 0 0.00078672697657948727 -0.0049490916624016857 0 0.00093881093011235518 -0.0060658207216172655 0 0.0010678403948550651 -0.0061968899738837849 0 0.00098892676493295096 -0.0058769077589585113 0 0.00084482400971578697 -0.0057105087059221718 0 0.00093881093011235518 -0.0060658207216172655 0 0.00098892676493295096 -0.0058769077589585113 0 0.00089599405358158958 -0.0054334728648839023 0 0.00084482400971578697 -0.0057105087059221718 0 0.00098892676493295096 -0.0058769077589585113 0 0.00084482400971578697 -0.0057105087059221718 0 0.00084323023633090617 -0.0061072876321954231 0 0.00093881093011235518 -0.0060658207216172655 0 0.00048671198215810492 -0.0057109017954527844 0 0.00067961919520033638 -0.0054396171192321327 0 0.00070568483400459817 -0.0058962702809128012 0 0.00084482400971578697 -0.0057105087059221718 0 0.00070568483400459817 -0.0058962702809128012 0 0.00084323023633090617 -0.0061072876321954231 0 0.00067961919520033638 -0.0054396171192321327 0 0.00084482400971578697 -0.0057105087059221718 0 0.00070568483400459817 -0.0058962702809128012 0 0.00070568483400459817 -0.0058962702809128012 0 0.00071097404456519069 -0.0062625393921254503 0 0.00084323023633090617 -0.0061072876321954231 0 0.00055703895256749379 -0.0067219497839525024 0 0.00071097404456519069 -0.0062625393921254503 0 0.0008172489903334161 -0.0065118122158806177 0 0.00071097404456519069 -0.0062625393921254503 0 0.0008172489903334161 -0.0065118122158806177 0 0.00084323023633090617 -0.0061072876321954231 0 0.00055703895256749379 -0.0067219497839525024 0 0.0008172489903334161 -0.0065118122158806177 0 0.00053483842961470182 -0.0072806691392404985 0 0.0008172489903334161 -0.0065118122158806177 0 0.00073258252776314565 -0.0064102630043214115 0 0.00087731386221288259 -0.0062686988283079332 0 0.0008172489903334161 -0.0065118122158806177 0 0.00084323023633090617 -0.0061072876321954231 0 0.00087731386221288259 -0.0062686988283079332 0 0.00053483842961470182 -0.0072806691392404985 0 0.00099897192610167969 -0.0086600117397651714 0 0.00093755882310783288 -0.0081245849355326642 0 0.0008172489903334161 -0.0065118122158806177 0 0.00053483842961470182 -0.0072806691392404985 0 0.00073258252776314565 -0.0064102630043214115 0 0.00051009376956433162 -0.0072812933475725544 0 0.00064371207487042773 -0.0074003214032183533 0 0.00053483842961470182 -0.0072806691392404985 0 0.00057369812881764729 -0.0083896036620498861 0 0.00099897192610167969 -0.0086600117397651714 0 0.00099897192610167969 -0.0086600117397651714 0 0.00081402106214752557 -0.0086368034326812886 0 0.001179336943165864 -0.0090423270807455363 0 0.00064371207487042773 -0.0074003214032183533 0 0.00092386046494028656 -0.0076274887433388418 0 0.00073258252776314565 -0.0064102630043214115 0 0.0010288407636436479 -0.0066181440889448544 0 0.00087731386221288259 -0.0062686988283079332 0 0.00057369812881764729 -0.0083896036620498861 0 0.00099897192610167969 -0.0086600117397651714 0 0.00081402106214752557 -0.0086368034326812886 0 0.00092386046494028656 -0.0076274887433388418 0 0.001149838424862798 -0.0078022107186310865 0 0.0010288407636436479 -0.0066181440889448544 0 0.0010628848550129787 -0.0064448226998289736 0 0.001250368020812076 -0.006812597005295548 0 0.00081402106214752557 -0.0086368034326812886 0 0.0011330492503209967 -0.0090350643288708964 0 0.001179336943165864 -0.0090423270807455363 0 0.00084323023633090617 -0.0061072876321954231 0 0.00087731386221288259 -0.0062686988283079332 0 0.00093881093011235518 -0.0060658207216172655 0 0.0010288407636436479 -0.0066181440889448544 0 0.00087731386221288259 -0.0062686988283079332 0 0.0010628848550129787 -0.0064448226998289736 0 0.00087731386221288259 -0.0062686988283079332 0 0.0010628848550129787 -0.0064448226998289736 0 0.00093881093011235518 -0.0060658207216172655 0 0.0010628848550129787 -0.0064448226998289736 0 0.00093881093011235518 -0.0060658207216172655 0 0.0010678403948550651 -0.0061968899738837849 0 0.0010628848550129787 -0.0064448226998289736 0 0.0010678403948550651 -0.0061968899738837849 0 0.0012360673793727827 -0.0065347605316640415 0 0.0010628848550129787 -0.0064448226998289736 0 0.0012360673793727827 -0.0065347605316640415 0 0.001250368020812076 -0.006812597005295548 0 0.0012360673793727827 -0.0065347605316640415 0 0.001250368020812076 -0.006812597005295548 0 0.0014413515081609038 -0.0069684616253444572 0 0.0010678403948550651 -0.0061968899738837849 0 0.0012360673793727827 -0.0065347605316640415 0 0.001148079384367129 -0.0061543497373473177 0 0.0011330492503209967 -0.0090350643288708964 0 0.0012445230995852578 -0.0091379766023709889 0 0.0013889142489827977 -0.009421463090959984 0 0.0011330492503209967 -0.0090350643288708964 0 0.001050243354472867 -0.008791937663579304 0 0.0012445230995852578 -0.0091379766023709889 0 0.00081402106214752557 -0.0086368034326812886 0 0.0011330492503209967 -0.0090350643288708964 0 0.001050243354472867 -0.008791937663579304 0 0.001149838424862798 -0.0078022107186310865 0 0.0013455614829058493 -0.0079777572458082872 0 0.001050243354472867 -0.008791937663579304 0 0.0012445230995852578 -0.0091379766023709889 0 0.0012511167542393958 -0.0089871209692929579 0 0.0012445230995852578 -0.0091379766023709889 0 0.0012511167542393958 -0.0089871209692929579 0 0.0014380015878862752 -0.0094361319256993127 0 0.0012511167542393958 -0.0089871209692929579 0 0.0015000278929019823 -0.0094369744044343357 0 0.0014380015878862752 -0.0094361319256993127 0 0.0012511167542393958 -0.0089871209692929579 0 0.0014426958429069395 -0.0091356385031789548 0 0.0015000278929019823 -0.0094369744044343357 0 0.0014413515081609038 -0.0069684616253444572 0 0.0016182402292304839 -0.0071562978448419532 0 0.0014375295575380944 -0.0067910283115315637 0 0.0013455614829058493 -0.0079777572458082872 0 0.0015335933998389029 -0.0081459122423719922 0 0.0014426958429069395 -0.0091356385031789548 0 0.0015000278929019823 -0.0094369744044343357 0 0.0016738445259661758 -0.0096785975689976482 0 0.0012360673793727827 -0.0065347605316640415 0 0.0013080600663251481 -0.0064187066720119207 0 0.0014375295575380944 -0.0067910283115315637 0 0.0012360673793727827 -0.0065347605316640415 0 0.0013080600663251481 -0.0064187066720119207 0 0.001148079384367129 -0.0061543497373473177 0 0.0012360673793727827 -0.0065347605316640415 0 0.0014413515081609038 -0.0069684616253444572 0 0.0014375295575380944 -0.0067910283115315637 0 0.0013080600663251481 -0.0064187066720119207 0 0.0014375295575380944 -0.0067910283115315637 0 0.001414579766128098 -0.0064812093396329745 0 0.0014375295575380944 -0.0067910283115315637 0 0.001414579766128098 -0.0064812093396329745 0 0.0016011794594420177 -0.0069118871647028055 0 0.0013080600663251481 -0.0064187066720119207 0 0.001414579766128098 -0.0064812093396329745 0 0.0012149004626902792 -0.0059774496180699695 0 0.001414579766128098 -0.0064812093396329745 0 0.0012149004626902792 -0.0059774496180699695 0 0.0014153723928987041 -0.0062464431288431054 0 0.0013080600663251481 -0.0064187066720119207 0 0.0012149004626902792 -0.0059774496180699695 0 0.001148079384367129 -0.0061543497373473177 0 0.0012149004626902792 -0.0059774496180699695 0 0.0010188646018809335 -0.0054720017090015005 0 0.0010751148982595848 -0.0058059400805151179 0 0.0012149004626902792 -0.0059774496180699695 0 0.001148079384367129 -0.0061543497373473177 0 0.0010751148982595848 -0.0058059400805151179 0 0.0012149004626902792 -0.0059774496180699695 0 0.00110713869130035 -0.0054665559738291975 0 0.0013056505816677695 -0.0057862986937977168 0 0.00110713869130035 -0.0054665559738291975 0 0.0013056505816677695 -0.0057862986937977168 0 0.0011144773545472659 -0.005231527918070248 0 0.00110713869130035 -0.0054665559738291975 0 0.0010188646018809335 -0.0054720017090015005 0 0.00097822936210149262 -0.0050756765451959313 0 0.0012149004626902792 -0.0059774496180699695 0 0.00110713869130035 -0.0054665559738291975 0 0.0010188646018809335 -0.0054720017090015005 0 0.00089599405358158958 -0.0054334728648839023 0 0.0010188646018809335 -0.0054720017090015005 0 0.0010751148982595848 -0.0058059400805151179 0 0.0010188646018809335 -0.0054720017090015005 0 0.00090587938335602136 -0.0051382252096583694 0 0.00097822936210149262 -0.0050756765451959313 0 0.00089599405358158958 -0.0054334728648839023 0 0.0010188646018809335 -0.0054720017090015005 0 0.00090587938335602136 -0.0051382252096583694 0 0.00089599405358158958 -0.0054334728648839023 0 0.00078672697657948727 -0.0049490916624016857 0 0.00090587938335602136 -0.0051382252096583694 0 0.00089599405358158958 -0.0054334728648839023 0 0.00098892676493295096 -0.0058769077589585113 0 0.0010751148982595848 -0.0058059400805151179 0 0.0010678403948550651 -0.0061968899738837849 0 0.00098892676493295096 -0.0058769077589585113 0 0.001148079384367129 -0.0061543497373473177 0 0.00098892676493295096 -0.0058769077589585113 0 0.001148079384367129 -0.0061543497373473177 0 0.0010751148982595848 -0.0058059400805151179 0 0.0023876165169385137 -0.011143434787355399 0 0.0021870620885432166 -0.010825612757988583 0 0.0021099208981752333 -0.010641351588878899 0 0.0023876165169385137 -0.011143434787355399 0 0.0021870620885432166 -0.010825612757988583 0 0.0025103531705957384 -0.011422760580945624 0 0.0021870620885432166 -0.010825612757988583 0 0.0021099208981752333 -0.010641351588878899 0 0.0019104438155783778 -0.010279720727160529 0 0.0023876165169385137 -0.011143434787355399 0 0.0021099208981752333 -0.010641351588878899 0 0.0022436667999414829 -0.010836345071740684 0 0.0022436667999414829 -0.010836345071740684 0 0.002070810058954316 -0.010530875817850078 0 0.0018272681221752588 -0.010098289730212656 0 0.0021099208981752333 -0.010641351588878899 0 0.0018272681221752588 -0.010098289730212656 0 0.0019104438155783778 -0.010279720727160529 0 0.0021099208981752333 -0.010641351588878899 0 0.0022436667999414829 -0.010836345071740684 0 0.0018272681221752588 -0.010098289730212656 0 0.0018272681221752588 -0.010098289730212656 0 0.0016888730422877909 -0.0098274732910955589 0 0.0019104438155783778 -0.010279720727160529 0 0.0018272681221752588 -0.010098289730212656 0 0.0014768765619334453 -0.0093731149168975614 0 0.0016888730422877909 -0.0098274732910955589 0 0.0016888730422877909 -0.0098274732910955589 0 0.0017561192973323484 -0.009984677305653519 0 0.0015326178613058307 -0.0095155704254236313 0 0.0016888730422877909 -0.0098274732910955589 0 0.0017561192973323484 -0.009984677305653519 0 0.0019104438155783778 -0.010279720727160529 0 0.0017561192973323484 -0.009984677305653519 0 0.0019104438155783778 -0.010279720727160529 0 0.0019383191995320792 -0.010366308697099423 0 0.0021870620885432166 -0.010825612757988583 0 0.0019104438155783778 -0.010279720727160529 0 0.0019383191995320792 -0.010366308697099423 0 0.0017561192973323484 -0.009984677305653519 0 0.0019383191995320792 -0.010366308697099423 0 0.0017073465181024631 -0.0099331725161973371 0 0.0017073465181024631 -0.0099331725161973371 0 0.0014537246413966897 -0.0094643941687230088 0 0.0016617575712379075 -0.0098741537311458853 0 0.0017073465181024631 -0.0099331725161973371 0 0.0015326178613058307 -0.0095155704254236313 0 0.0014537246413966897 -0.0094643941687230088 0 0.0015326178613058307 -0.0095155704254236313 0 0.0012501991664488402 -0.0089429584887312456 0 0.0014537246413966897 -0.0094643941687230088 0 0.0017561192973323484 -0.009984677305653519 0 0.0017073465181024631 -0.0099331725161973371 0 0.0015326178613058307 -0.0095155704254236313 0 0.0014768765619334453 -0.0093731149168975614 0 0.0016888730422877909 -0.0098274732910955589 0 0.0015326178613058307 -0.0095155704254236313 0 0.0014768765619334453 -0.0093731149168975614 0 0.0015326178613058307 -0.0095155704254236313 0 0.0012687652161328974 -0.008885619481288843 0 0.0015326178613058307 -0.0095155704254236313 0 0.0012687652161328974 -0.008885619481288843 0 0.0012501991664488402 -0.0089429584887312456 0 0.0012687652161328974 -0.008885619481288843 0 0.0012501991664488402 -0.0089429584887312456 0 0.0010882539320859396 -0.0085052752416933178 0 0.0012501991664488402 -0.0089429584887312456 0 0.0010882539320859396 -0.0085052752416933178 0 0.00093755882310783288 -0.0081245849355326642 0 0.00099897192610167969 -0.0086600117397651714 0 0.0012501991664488402 -0.0089429584887312456 0 0.00093755882310783288 -0.0081245849355326642 0 0.00099897192610167969 -0.0086600117397651714 0 0.0012501991664488402 -0.0089429584887312456 0 0.001179336943165864 -0.0090423270807455363 0 0.0012501991664488402 -0.0089429584887312456 0 0.0014537246413966897 -0.0094643941687230088 0 0.001179336943165864 -0.0090423270807455363 0 0.0014537246413966897 -0.0094643941687230088 0 0.001179336943165864 -0.0090423270807455363 0 0.0013889142489827977 -0.009421463090959984 0 0.0011330492503209967 -0.0090350643288708964 0 0.001179336943165864 -0.0090423270807455363 0 0.0013889142489827977 -0.009421463090959984 0 0.0014537246413966897 -0.0094643941687230088 0 0.0013889142489827977 -0.009421463090959984 0 0.0016617575712379075 -0.0098741537311458853 0 0.0013889142489827977 -0.009421463090959984 0 0.001611250227894732 -0.0097792775310870297 0 0.0016617575712379075 -0.0098741537311458853 0 0.0013889142489827977 -0.009421463090959984 0 0.001611250227894732 -0.0097792775310870297 0 0.0014380015878862752 -0.0094361319256993127 0 0.0012445230995852578 -0.0091379766023709889 0 0.0013889142489827977 -0.009421463090959984 0 0.0014380015878862752 -0.0094361319256993127 0 0.0015000278929019823 -0.0094369744044343357 0 0.0014380015878862752 -0.0094361319256993127 0 0.0017335644288164771 -0.0099343686341936861 0 0.0015000278929019823 -0.0094369744044343357 0 0.0017335644288164771 -0.0099343686341936861 0 0.0016738445259661758 -0.0096785975689976482 0 0.001611250227894732 -0.0097792775310870297 0 0.0014380015878862752 -0.0094361319256993127 0 0.0017335644288164771 -0.0099343686341936861 0 0.001611250227894732 -0.0097792775310870297 0 0.0017335644288164771 -0.0099343686341936861 0 0.001849770747730368 -0.010209442723613503 0 0.0017335644288164771 -0.0099343686341936861 0 0.0020164864882507589 -0.010475981367733447 0 0.001849770747730368 -0.010209442723613503 0 0.0017335644288164771 -0.0099343686341936861 0 0.0020164864882507589 -0.010475981367733447 0 0.0020881363188145746 -0.010536395523100563 0 0.0020164864882507589 -0.010475981367733447 0 0.001849770747730368 -0.010209442723613503 0 0.0021891345539628362 -0.010822720960447415 0 0.001849770747730368 -0.010209442723613503 0 0.0019546588582091047 -0.010414709787316945 0 0.0021891345539628362 -0.010822720960447415 0 0.001849770747730368 -0.010209442723613503 0 0.0016617575712379075 -0.0098741537311458853 0 0.0019546588582091047 -0.010414709787316945 0 0.001611250227894732 -0.0097792775310870297 0 0.001849770747730368 -0.010209442723613503 0 0.0016617575712379075 -0.0098741537311458853 0 0.0017073465181024631 -0.0099331725161973371 0 0.0016617575712379075 -0.0098741537311458853 0 0.0019546588582091047 -0.010414709787316945 0 0.0019383191995320792 -0.010366308697099423 0 0.0017073465181024631 -0.0099331725161973371 0 0.0019546588582091047 -0.010414709787316945 0 0.0019383191995320792 -0.010366308697099423 0 0.0021324806964388029 -0.010741802847325545 0 0.0019546588582091047 -0.010414709787316945 0 0.0021870620885432166 -0.010825612757988583 0 0.0019383191995320792 -0.010366308697099423 0 0.0021324806964388029 -0.010741802847325545 0 0.0021324806964388029 -0.010741802847325545 0 0.0022199497950366573 -0.010907235107120031 0 0.0023783167507558179 -0.011208625200912712 0 0.0021324806964388029 -0.010741802847325545 0 0.0019546588582091047 -0.010414709787316945 0 0.0022199497950366573 -0.010907235107120031 0 0.0019546588582091047 -0.010414709787316945 0 0.0021891345539628362 -0.010822720960447415 0 0.0022199497950366573 -0.010907235107120031 0 0.0020164864882507589 -0.010475981367733447 0 0.0021891345539628362 -0.010822720960447415 0 0.0022913743380844581 -0.010953374105433072 0 0.0021891345539628362 -0.010822720960447415 0 0.0024495929930171793 -0.011333486452116443 0 0.002416391452724315 -0.011230027647484996 0 0.0021891345539628362 -0.010822720960447415 0 0.0022199497950366573 -0.010907235107120031 0 0.0024495929930171793 -0.011333486452116443 0 0.0022199497950366573 -0.010907235107120031 0 0.0024495929930171793 -0.011333486452116443 0 0.0023783167507558179 -0.011208625200912712 0 0.0024495929930171793 -0.011333486452116443 0 0.0026223807353665178 -0.011676189970665059 0 0.002737492230484626 -0.011900331067228053 0 0.0024495929930171793 -0.011333486452116443 0 0.002737492230484626 -0.011900331067228053 0 0.0026113805352913654 -0.011612728092797944 0 0.0024495929930171793 -0.011333486452116443 0 0.0026223807353665178 -0.011676189970665059 0 0.0023783167507558179 -0.011208625200912712 0 0.0026223807353665178 -0.011676189970665059 0 0.0023783167507558179 -0.011208625200912712 0 0.0025103531705957384 -0.011422760580945624 0 0.0021870620885432166 -0.010825612757988583 0 0.0021324806964388029 -0.010741802847325545 0 0.0023783167507558179 -0.011208625200912712 0 0.0021870620885432166 -0.010825612757988583 0 0.0023783167507558179 -0.011208625200912712 0 0.0025103531705957384 -0.011422760580945624 0 0.0029907973976300512 -0.012293632812985202 0 0.0027392222296764327 -0.011702008339691119 0 0.002951851654425343 -0.012042740248601606 0 0.0029907973976300512 -0.012293632812985202 0 0.0027469788443477013 -0.01182161880260746 0 0.0027392222296764327 -0.011702008339691119 0 0.0027469788443477013 -0.01182161880260746 0 0.0025409963928445072 -0.011413834696936931 0 0.0027392222296764327 -0.011702008339691119 0 0.0029907973976300512 -0.012293632812985202 0 0.0027469788443477013 -0.01182161880260746 0 0.0028583042299959388 -0.012103716214962083 0 0.0027469788443477013 -0.01182161880260746 0 0.0028583042299959388 -0.012103716214962083 0 0.0026113805352913654 -0.011612728092797944 0 0.0028583042299959388 -0.012103716214962083 0 0.002737492230484626 -0.011900331067228053 0 0.0026113805352913654 -0.011612728092797944 0 0.0024495929930171793 -0.011333486452116443 0 0.0026113805352913654 -0.011612728092797944 0 0.002416391452724315 -0.011230027647484996 0 0.0027469788443477013 -0.01182161880260746 0 0.0026113805352913654 -0.011612728092797944 0 0.0025409963928445072 -0.011413834696936931 0 0.0025409963928445072 -0.011413834696936931 0 0.002416391452724315 -0.011230027647484996 0 0.0022913743380844581 -0.010953374105433072 0 0.0026113805352913654 -0.011612728092797944 0 0.0025409963928445072 -0.011413834696936931 0 0.002416391452724315 -0.011230027647484996 0 0.0021891345539628362 -0.010822720960447415 0 0.002416391452724315 -0.011230027647484996 0 0.0022913743380844581 -0.010953374105433072 0 0.0025409963928445072 -0.011413834696936931 0 0.0022913743380844581 -0.010953374105433072 0 0.0024162374205864922 -0.011110743882774434 0 0.0024162374205864922 -0.011110743882774434 0 0.0027392222296764327 -0.011702008339691119 0 0.0025370881636067912 -0.011241135532895262 0 0.0025409963928445072 -0.011413834696936931 0 0.0024162374205864922 -0.011110743882774434 0 0.0027392222296764327 -0.011702008339691119 0 0.0027392222296764327 -0.011702008339691119 0 0.0025370881636067912 -0.011241135532895262 0 0.0027655430727208533 -0.01159477948151498 0 0.0025370881636067912 -0.011241135532895262 0 0.0022967613201577575 -0.010806677148157065 0 0.0024559251952180456 -0.010968981893045116 0 0.0022967613201577575 -0.010806677148157065 0 0.0021877773671365418 -0.010484243561000813 0 0.0024559251952180456 -0.010968981893045116 0 0.0022967613201577575 -0.010806677148157065 0 0.0020676034604965952 -0.010395436143101571 0 0.0021877773671365418 -0.010484243561000813 0 0.0024162374205864922 -0.011110743882774434 0 0.0025370881636067912 -0.011241135532895262 0 0.0022967613201577575 -0.010806677148157065 0 0.0022913743380844581 -0.010953374105433072 0 0.0024162374205864922 -0.011110743882774434 0 0.0020881363188145746 -0.010536395523100563 0 0.0024162374205864922 -0.011110743882774434 0 0.0022967613201577575 -0.010806677148157065 0 0.0020881363188145746 -0.010536395523100563 0 0.0020164864882507589 -0.010475981367733447 0 0.0022913743380844581 -0.010953374105433072 0 0.0020881363188145746 -0.010536395523100563 0 0.0020881363188145746 -0.010536395523100563 0 0.0020676034604965952 -0.010395436143101571 0 0.0018909128791889317 -0.010114008346930764 0 0.0022967613201577575 -0.010806677148157065 0 0.0020881363188145746 -0.010536395523100563 0 0.0020676034604965952 -0.010395436143101571 0 0.0020676034604965952 -0.010395436143101571 0 0.0018909128791889317 -0.010114008346930764 0 0.0019033028896080541 -0.0100182671369417 0 0.0017335644288164771 -0.0099343686341936861 0 0.0018909128791889317 -0.010114008346930764 0 0.0016738445259661758 -0.0096785975689976482 0 0.0017335644288164771 -0.0099343686341936861 0 0.0020881363188145746 -0.010536395523100563 0 0.0018909128791889317 -0.010114008346930764 0 0.0018909128791889317 -0.010114008346930764 0 0.0016738445259661758 -0.0096785975689976482 0 0.0019033028896080541 -0.0100182671369417 0 0.0016738445259661758 -0.0096785975689976482 0 0.0019033028896080541 -0.0100182671369417 0 0.0016919182767296348 -0.0095752354420317477 0 0.0019033028896080541 -0.0100182671369417 0 0.0021877773671365418 -0.010484243561000813 0 0.0020260165042242317 -0.010054928770021456 0 0.0019033028896080541 -0.0100182671369417 0 0.0020260165042242317 -0.010054928770021456 0 0.0018145292013632647 -0.0097101827043754689 0 0.0020676034604965952 -0.010395436143101571 0 0.0019033028896080541 -0.0100182671369417 0 0.0021877773671365418 -0.010484243561000813 0 0.0021877773671365418 -0.010484243561000813 0 0.0020260165042242317 -0.010054928770021456 0 0.0023215765735647184 -0.010556908909649824 0 0.0020260165042242317 -0.010054928770021456 0 0.0023215765735647184 -0.010556908909649824 0 0.0021251101114631663 -0.01006312494763896 0 0.0023215765735647184 -0.010556908909649824 0 0.0023098145947083011 -0.010306233460960339 0 0.0025215160341557409 -0.010811088388287475 0 0.0023215765735647184 -0.010556908909649824 0 0.0023098145947083011 -0.010306233460960339 0 0.0021251101114631663 -0.01006312494763896 0 0.0023098145947083011 -0.010306233460960339 0 0.002480176301149549 -0.010598279446104503 0 0.0025215160341557409 -0.010811088388287475 0 0.0023098145947083011 -0.010306233460960339 0 0.002480176301149549 -0.010598279446104503 0 0.002324015997467609 -0.010175638935786059 0 0.002480176301149549 -0.010598279446104503 0 0.002324015997467609 -0.010175638935786059 0 0.0024760989841332583 -0.01044086431374662 0 0.002480176301149549 -0.010598279446104503 0 0.0026573719106565662 -0.010938454087210787 0 0.0024760989841332583 -0.01044086431374662 0 0.002480176301149549 -0.010598279446104503 0 0.0026573719106565662 -0.010938454087210787 0 0.0025215160341557409 -0.010811088388287475 0 0.002850729637923204 -0.011428356659846588 0 0.0026471103363572084 -0.011194002457601946 0 0.0028877820670581669 -0.011695360331684118 0 0.0025215160341557409 -0.010811088388287475 0 0.002850729637923204 -0.011428356659846588 0 0.0026471103363572084 -0.011194002457601946 0 0.0026573719106565662 -0.010938454087210787 0 0.0025215160341557409 -0.010811088388287475 0 0.002850729637923204 -0.011428356659846588 0 0.0026471103363572084 -0.011194002457601946 0 0.0024559251952180456 -0.010968981893045116 0 0.0027655430727208533 -0.01159477948151498 0 0.0023215765735647184 -0.010556908909649824 0 0.0025215160341557409 -0.010811088388287475 0 0.0026471103363572084 -0.011194002457601946 0 0.0023215765735647184 -0.010556908909649824 0 0.0026471103363572084 -0.011194002457601946 0 0.0024559251952180456 -0.010968981893045116 0 0.0021877773671365418 -0.010484243561000813 0 0.0023215765735647184 -0.010556908909649824 0 0.0024559251952180456 -0.010968981893045116 0 0.0025370881636067912 -0.011241135532895262 0 0.0024559251952180456 -0.010968981893045116 0 0.0027655430727208533 -0.01159477948151498 0 0.0027392222296764327 -0.011702008339691119 0 0.0027655430727208533 -0.01159477948151498 0 0.002951851654425343 -0.012042740248601606 0 0.0027655430727208533 -0.01159477948151498 0 0.0028877820670581669 -0.011695360331684118 0 0.0030495363755858318 -0.012115045613395601 0 0.0027655430727208533 -0.01159477948151498 0 0.0030495363755858318 -0.012115045613395601 0 0.002951851654425343 -0.012042740248601606 0 0.0026471103363572084 -0.011194002457601946 0 0.0027655430727208533 -0.01159477948151498 0 0.0028877820670581669 -0.011695360331684118 0 0.002850729637923204 -0.011428356659846588 0 0.0028877820670581669 -0.011695360331684118 0 0.0030511009743203039 -0.01190965578245623 0 0.0030511009743203039 -0.01190965578245623 0 0.0030688289252237318 -0.012049367655438053 0 0.0032473170561110611 -0.012383697586072101 0 0.0028877820670581669 -0.011695360331684118 0 0.0030511009743203039 -0.01190965578245623 0 0.0030688289252237318 -0.012049367655438053 0 0.0028877820670581669 -0.011695360331684118 0 0.0030688289252237318 -0.012049367655438053 0 0.0030495363755858318 -0.012115045613395601 0 0.0030688289252237318 -0.012049367655438053 0 0.0030495363755858318 -0.012115045613395601 0 0.003223231094596637 -0.012431365482497634 0 0.0030688289252237318 -0.012049367655438053 0 0.003223231094596637 -0.012431365482497634 0 0.0032473170561110611 -0.012383697586072101 0 0.003223231094596637 -0.012431365482497634 0 0.0032473170561110611 -0.012383697586072101 0 0.0034405854153538493 -0.012852947628221641 0 0.003223231094596637 -0.012431365482497634 0 0.0034405854153538493 -0.012852947628221641 0 0.0032849403082872192 -0.012662151150467246 0 0.0030495363755858318 -0.012115045613395601 0 0.003223231094596637 -0.012431365482497634 0 0.0032849403082872192 -0.012662151150467246 0 0.0032849403082872192 -0.012662151150467246 0 0.002951851654425343 -0.012042740248601606 0 0.0031341622641434296 -0.012476193130937792 0 0.0030495363755858318 -0.012115045613395601 0 0.0032849403082872192 -0.012662151150467246 0 0.002951851654425343 -0.012042740248601606 0 0.0029907973976300512 -0.012293632812985202 0 0.002951851654425343 -0.012042740248601606 0 0.0031341622641434296 -0.012476193130937792 0 0.0015561513732388478 -0.0063699869151528079 0 0.0016733450463390647 -0.0063011061551328258 0 0.001497740845725605 -0.0059939874887947912 0 0.0015561513732388478 -0.0063699869151528079 0 0.0017787436917749155 -0.006701562481699566 0 0.0017167984558099723 -0.0067862739462551027 0 0.0015561513732388478 -0.0063699869151528079 0 0.0015796016155189016 -0.0066391934481909894 0 0.0017167984558099723 -0.0067862739462551027 0 0.0015561513732388478 -0.0063699869151528079 0 0.0017787436917749155 -0.006701562481699566 0 0.0016733450463390647 -0.0063011061551328258 0 0.0016733450463390647 -0.0063011061551328258 0 0.0015616762876731762 -0.005816146141309683 0 0.001497740845725605 -0.0059939874887947912 0 0.0015616762876731762 -0.005816146141309683 0 0.0013744185194103505 -0.0055979445734212806 0 0.001497740845725605 -0.0059939874887947912 0 0.0015616762876731762 -0.005816146141309683 0 0.0013744185194103505 -0.0055979445734212806 0 0.001426437172548289 -0.0054455727100962536 0 0.0013744185194103505 -0.0055979445734212806 0 0.001497740845725605 -0.0059939874887947912 0 0.0013056505816677695 -0.0057862986937977168 0 0.0013744185194103505 -0.0055979445734212806 0 0.0013056505816677695 -0.0057862986937977168 0 0.0012423109584451517 -0.005390694457382327 0 0.0013056505816677695 -0.0057862986937977168 0 0.0012423109584451517 -0.005390694457382327 0 0.0011144773545472659 -0.005231527918070248 0 0.0012149004626902792 -0.0059774496180699695 0 0.0013056505816677695 -0.0057862986937977168 0 0.0014153723928987041 -0.0062464431288431054 0 0.0015561513732388478 -0.0063699869151528079 0 0.0013056505816677695 -0.0057862986937977168 0 0.0014153723928987041 -0.0062464431288431054 0 0.0015561513732388478 -0.0063699869151528079 0 0.001497740845725605 -0.0059939874887947912 0 0.0013056505816677695 -0.0057862986937977168 0 0.0015561513732388478 -0.0063699869151528079 0 0.0014153723928987041 -0.0062464431288431054 0 0.0015796016155189016 -0.0066391934481909894 0 0.001414579766128098 -0.0064812093396329745 0 0.0014153723928987041 -0.0062464431288431054 0 0.0015796016155189016 -0.0066391934481909894 0 0.001414579766128098 -0.0064812093396329745 0 0.0016011794594420177 -0.0069118871647028055 0 0.0015796016155189016 -0.0066391934481909894 0 0.0016182402292304839 -0.0071562978448419532 0 0.0014375295575380944 -0.0067910283115315637 0 0.0016011794594420177 -0.0069118871647028055 0 0.0016011794594420177 -0.0069118871647028055 0 0.0017872490555417239 -0.007300241931342091 0 0.0017701471690439905 -0.0070887243270001399 0 0.0016011794594420177 -0.0069118871647028055 0 0.0015796016155189016 -0.0066391934481909894 0 0.0017701471690439905 -0.0070887243270001399 0 0.0014426958429069395 -0.0091356385031789548 0 0.0016738445259661758 -0.0096785975689976482 0 0.0016919182767296348 -0.0095752354420317477 0 0.0014426958429069395 -0.0091356385031789548 0 0.0016275986887638821 -0.0093189012754321607 0 0.0016919182767296348 -0.0095752354420317477 0 0.0016182402292304839 -0.0071562978448419532 0 0.0016011794594420177 -0.0069118871647028055 0 0.0017872490555417239 -0.007300241931342091 0 0.0015335933998389029 -0.0081459122423719922 0 0.0016955236877699471 -0.0083095217156474426 0 0.0019033028896080541 -0.0100182671369417 0 0.0016919182767296348 -0.0095752354420317477 0 0.0018145292013632647 -0.0097101827043754689 0 0.0016275986887638821 -0.0093189012754321607 0 0.0016919182767296348 -0.0095752354420317477 0 0.0018145292013632647 -0.0097101827043754689 0 0.0020260165042242317 -0.010054928770021456 0 0.0018145292013632647 -0.0097101827043754689 0 0.0018038376423339367 -0.0094571066791520417 0 0.0016955236877699471 -0.0083095217156474426 0 0.0019228712762271816 -0.0084674222733436711 0 0.0017872490555417239 -0.007300241931342091 0 0.0019526548798542327 -0.0074777660203874333 0 0.0017701471690439905 -0.0070887243270001399 0 0.0016275986887638821 -0.0093189012754321607 0 0.0018145292013632647 -0.0097101827043754689 0 0.0018038376423339367 -0.0094571066791520417 0 0.0019228712762271816 -0.0084674222733436711 0 0.0018782865073441828 -0.0086209363475798668 0 0.0020260165042242317 -0.010054928770021456 0 0.0018038376423339367 -0.0094571066791520417 0 0.0021251101114631663 -0.01006312494763896 0 0.0015796016155189016 -0.0066391934481909894 0 0.0017167984558099723 -0.0067862739462551027 0 0.0017701471690439905 -0.0070887243270001399 0 0.0019526548798542327 -0.0074777660203874333 0 0.0017701471690439905 -0.0070887243270001399 0 0.0019154130101185795 -0.0071407181548255125 0 0.0017787436917749155 -0.006701562481699566 0 0.0017167984558099723 -0.0067862739462551027 0 0.0019154130101185795 -0.0071407181548255125 0 0.0017167984558099723 -0.0067862739462551027 0 0.0017701471690439905 -0.0070887243270001399 0 0.0019154130101185795 -0.0071407181548255125 0 0.0019154130101185795 -0.0071407181548255125 0 0.0020848857138986653 -0.0073719278350852669 0 0.001973463167891655 -0.0069995115076347944 0 0.0017787436917749155 -0.006701562481699566 0 0.0019154130101185795 -0.0071407181548255125 0 0.001973463167891655 -0.0069995115076347944 0 0.0019526548798542327 -0.0074777660203874333 0 0.0019154130101185795 -0.0071407181548255125 0 0.0021165911891651446 -0.0076116777688412327 0 0.0019154130101185795 -0.0071407181548255125 0 0.0020848857138986653 -0.0073719278350852669 0 0.0021165911891651446 -0.0076116777688412327 0 0.0020848857138986653 -0.0073719278350852669 0 0.001973463167891655 -0.0069995115076347944 0 0.0021819175725451348 -0.0073894213520374636 0 0.0018038376423339367 -0.0094571066791520417 0 0.0021251101114631663 -0.01006312494763896 0 0.0019744953141396493 -0.0096303371136981387 0 0.0018782865073441828 -0.0086209363475798668 0 0.0028348941225334774 -0.008778890747487297 0 0.0020848857138986653 -0.0073719278350852669 0 0.0021165911891651446 -0.0076116777688412327 0 0.0022789432586648476 -0.0077889914449743051 0 0.0021251101114631663 -0.01006312494763896 0 0.0019744953141396493 -0.0096303371136981387 0 0.0021372467274157377 -0.0097683321047167745 0 0.0023098145947083011 -0.010306233460960339 0 0.0021251101114631663 -0.01006312494763896 0 0.0021372467274157377 -0.0097683321047167745 0 0.0023098145947083011 -0.010306233460960339 0 0.0021372467274157377 -0.0097683321047167745 0 0.002324015997467609 -0.010175638935786059 0 0.0028348941225334774 -0.008778890747487297 0 2.2983879415000311e-05 -0.0089337455944625225 0 0.0021372467274157377 -0.0097683321047167745 0 0.0023013265674198379 -0.0099439292795223226 0 0.002324015997467609 -0.010175638935786059 0 0.0023013265674198379 -0.0099439292795223226 0 0.002324015997467609 -0.010175638935786059 0 0.0024760989841332583 -0.01044086431374662 0 0.001973463167891655 -0.0069995115076347944 0 0.0021819175725451348 -0.0073894213520374636 0 0.0020317452879927292 -0.0068201787325532391 0 0.0020848857138986653 -0.0073719278350852669 0 0.0022789432586648476 -0.0077889914449743051 0 0.0021819175725451348 -0.0073894213520374636 0 0.0022789432586648476 -0.0077889914449743051 0 0.0024426064570506781 -0.0079252699336937512 0 0.0021819175725451348 -0.0073894213520374636 0 0.0024426064570506781 -0.0079252699336937512 0 0.0021819175725451348 -0.0073894213520374636 0 0.0023006673505699985 -0.0074259382398195019 0 0.0021819175725451348 -0.0073894213520374636 0 0.0023006673505699985 -0.0074259382398195019 0 0.0020317452879927292 -0.0068201787325532391 0 0.0020317452879927292 -0.0068201787325532391 0 0.001865336554561644 -0.0063644548673636291 0 0.0020491644709644896 -0.006428861971513493 0 0.0023006673505699985 -0.0074259382398195019 0 0.0021699412412398253 -0.0069259523837851581 0 0.0020317452879927292 -0.0068201787325532391 0 0.0021699412412398253 -0.0069259523837851581 0 0.0020317452879927292 -0.0068201787325532391 0 0.0020491644709644896 -0.006428861971513493 0 0.001973463167891655 -0.0069995115076347944 0 0.0020317452879927292 -0.0068201787325532391 0 0.0018457691521207619 -0.0065662096897272527 0 0.0020317452879927292 -0.0068201787325532391 0 0.0018457691521207619 -0.0065662096897272527 0 0.001865336554561644 -0.0063644548673636291 0 0.0016733450463390647 -0.0063011061551328258 0 0.0018457691521207619 -0.0065662096897272527 0 0.0017224885595545116 -0.0060702210084917644 0 0.0017787436917749155 -0.006701562481699566 0 0.0016733450463390647 -0.0063011061551328258 0 0.0018457691521207619 -0.0065662096897272527 0 0.0017787436917749155 -0.006701562481699566 0 0.001973463167891655 -0.0069995115076347944 0 0.0018457691521207619 -0.0065662096897272527 0 0.0015616762876731762 -0.005816146141309683 0 0.0017224885595545116 -0.0060702210084917644 0 0.0016687481040822728 -0.0057237912846679591 0 0.0016733450463390647 -0.0063011061551328258 0 0.0015616762876731762 -0.005816146141309683 0 0.0017224885595545116 -0.0060702210084917644 0 0.0017224885595545116 -0.0060702210084917644 0 0.001865336554561644 -0.0063644548673636291 0 0.0018371522502870802 -0.0060148625363363167 0 0.0018457691521207619 -0.0065662096897272527 0 0.0017224885595545116 -0.0060702210084917644 0 0.001865336554561644 -0.0063644548673636291 0 0.0017224885595545116 -0.0060702210084917644 0 0.0018371522502870802 -0.0060148625363363167 0 0.0016687481040822728 -0.0057237912846679591 0 0.001865336554561644 -0.0063644548673636291 0 0.0018371522502870802 -0.0060148625363363167 0 0.0020491644709644896 -0.006428861971513493 0 0.0018371522502870802 -0.0060148625363363167 0 0.0020491644709644896 -0.006428861971513493 0 0.0019406991562585139 -0.0059366518264056065 0 0.0018371522502870802 -0.0060148625363363167 0 0.0019406991562585139 -0.0059366518264056065 0 0.0017822308823270358 -0.0056789578086313764 0 0.0019406991562585139 -0.0059366518264056065 0 0.0018394851463883371 -0.0054518298658422391 0 0.0017822308823270358 -0.0056789578086313764 0 0.0018394851463883371 -0.0054518298658422391 0 0.0016317022642932408 -0.0052631826382578311 0 0.0017822308823270358 -0.0056789578086313764 0 0.0016317022642932408 -0.0052631826382578311 0 0.0017822308823270358 -0.0056789578086313764 0 0.0016687481040822728 -0.0057237912846679591 0 0.0018371522502870802 -0.0060148625363363167 0 0.0017822308823270358 -0.0056789578086313764 0 0.0016687481040822728 -0.0057237912846679591 0 0.0017423268849091338 -0.004974308375936363 0 0.001612042289240876 -0.0048881714553471621 0 0.0016430245212817652 -0.0045023133998823624 0 0.0018394851463883371 -0.0054518298658422391 0 0.0017423268849091338 -0.004974308375936363 0 0.001612042289240876 -0.0048881714553471621 0 0.0018394851463883371 -0.0054518298658422391 0 0.0016317022642932408 -0.0052631826382578311 0 0.001612042289240876 -0.0048881714553471621 0 0.001612042289240876 -0.0048881714553471621 0 0.0014724768296558192 -0.0049027930290660307 0 0.0014254713072584567 -0.0045094985711120333 0 0.0016317022642932408 -0.0052631826382578311 0 0.001612042289240876 -0.0048881714553471621 0 0.0014724768296558192 -0.0049027930290660307 0 0.0014724768296558192 -0.0049027930290660307 0 0.0014996011302997846 -0.0053064272842084067 0 0.0013602130940054212 -0.0048998337013600353 0 0.0014724768296558192 -0.0049027930290660307 0 0.0013602130940054212 -0.0048998337013600353 0 0.0013029371132688046 -0.0045473637274732383 0 0.0014724768296558192 -0.0049027930290660307 0 0.0013029371132688046 -0.0045473637274732383 0 0.0014254713072584567 -0.0045094985711120333 0 0.0016317022642932408 -0.0052631826382578311 0 0.0016687481040822728 -0.0057237912846679591 0 0.0014996011302997846 -0.0053064272842084067 0 0.0016317022642932408 -0.0052631826382578311 0 0.0014724768296558192 -0.0049027930290660307 0 0.0014996011302997846 -0.0053064272842084067 0 0.0015616762876731762 -0.005816146141309683 0 0.0016687481040822728 -0.0057237912846679591 0 0.0014996011302997846 -0.0053064272842084067 0 0.0015616762876731762 -0.005816146141309683 0 0.0014996011302997846 -0.0053064272842084067 0 0.001426437172548289 -0.0054455727100962536 0 0.0013744185194103505 -0.0055979445734212806 0 0.001426437172548289 -0.0054455727100962536 0 0.001300381868084141 -0.0052474457407793345 0 0.001426437172548289 -0.0054455727100962536 0 0.001300381868084141 -0.0052474457407793345 0 0.0013701633558077066 -0.0051442048289385093 0 0.001300381868084141 -0.0052474457407793345 0 0.0013701633558077066 -0.0051442048289385093 0 0.0012455782114819622 -0.0049056788574671877 0 0.0014996011302997846 -0.0053064272842084067 0 0.001426437172548289 -0.0054455727100962536 0 0.0013701633558077066 -0.0051442048289385093 0 0.0013701633558077066 -0.0051442048289385093 0 0.0013602130940054212 -0.0048998337013600353 0 0.0012455782114819622 -0.0049056788574671877 0 0.0014996011302997846 -0.0053064272842084067 0 0.0013701633558077066 -0.0051442048289385093 0 0.0013602130940054212 -0.0048998337013600353 0 0.0013602130940054212 -0.0048998337013600353 0 0.0013029371132688046 -0.0045473637274732383 0 0.0011570910297553796 -0.0045450747608224993 0 0.0013029371132688046 -0.0045473637274732383 0 0.0011570910297553796 -0.0045450747608224993 0 0.0011675015011673509 -0.0042965630798484167 0 0.0013602130940054212 -0.0048998337013600353 0 0.0011570910297553796 -0.0045450747608224993 0 0.0012455782114819622 -0.0049056788574671877 0 0.0012455782114819622 -0.0049056788574671877 0 0.001051575757600198 -0.0045240388371361809 0 0.0011647088149134947 -0.0050036733286569152 0 0.0011570910297553796 -0.0045450747608224993 0 0.0012455782114819622 -0.0049056788574671877 0 0.001051575757600198 -0.0045240388371361809 0 0.0011570910297553796 -0.0045450747608224993 0 0.001051575757600198 -0.0045240388371361809 0 0.00097673598180081649 -0.0040351641174687395 0 0.001051575757600198 -0.0045240388371361809 0 0.0011647088149134947 -0.0050036733286569152 0 0.0010225707851081636 -0.0048448641087593261 0 0.0011647088149134947 -0.0050036733286569152 0 0.0010225707851081636 -0.0048448641087593261 0 0.0011144773545472659 -0.005231527918070248 0 0.0011647088149134947 -0.0050036733286569152 0 0.0012423109584451517 -0.005390694457382327 0 0.0011144773545472659 -0.005231527918070248 0 0.001300381868084141 -0.0052474457407793345 0 0.0011647088149134947 -0.0050036733286569152 0 0.0012423109584451517 -0.005390694457382327 0 0.0013744185194103505 -0.0055979445734212806 0 0.001300381868084141 -0.0052474457407793345 0 0.0012423109584451517 -0.005390694457382327 0 0.001300381868084141 -0.0052474457407793345 0 0.0012455782114819622 -0.0049056788574671877 0 0.0011647088149134947 -0.0050036733286569152 0 0.00074063158251187148 -0.0026291413939042848 0 0.00059039358555980836 -0.0021993543074108777 0 0.00071947538909303353 -0.0023045820930933368 0 0.00083772706443821033 -0.0031191636136555598 0 0.00070740636617896621 -0.0030423231045587544 0 0.00074063158251187148 -0.0026291413939042848 0 0.00059039358555980836 -0.0021993543074108777 0 0.00059860845371718116 -0.0025333242317202242 0 0.00094949365395754918 -0.0036091424131232371 0 0.00097673598180081649 -0.0040351641174687395 0 0.00081229443053284112 -0.0035513232110272555 0 0.00097673598180081649 -0.0040351641174687395 0 0.00081816233210040012 -0.0038511735315209373 0 0.00081229443053284112 -0.0035513232110272555 0 0.001051575757600198 -0.0045240388371361809 0 0.00097673598180081649 -0.0040351641174687395 0 0.00092119652279689323 -0.0041912172553020318 0 0.00097673598180081649 -0.0040351641174687395 0 0.00092119652279689323 -0.0041912172553020318 0 0.00081816233210040012 -0.0038511735315209373 0 0.0011570910297553796 -0.0045450747608224993 0 0.00097673598180081649 -0.0040351641174687395 0 0.0011675015011673509 -0.0042965630798484167 0 0.00094949365395754918 -0.0036091424131232371 0 0.00097673598180081649 -0.0040351641174687395 0 0.0010742968088035155 -0.003942283824237283 0 0.00097673598180081649 -0.0040351641174687395 0 0.0010742968088035155 -0.003942283824237283 0 0.0011675015011673509 -0.0042965630798484167 0 0.0010742968088035155 -0.003942283824237283 0 0.0011675015011673509 -0.0042965630798484167 0 0.0012351727372645308 -0.0041384544804870613 0 0.0013029371132688046 -0.0045473637274732383 0 0.0011675015011673509 -0.0042965630798484167 0 0.0012351727372645308 -0.0041384544804870613 0 0.0010742968088035155 -0.003942283824237283 0 0.0012351727372645308 -0.0041384544804870613 0 0.0010872269555987427 -0.0037184858481433044 0 0.0012351727372645308 -0.0041384544804870613 0 0.0010872269555987427 -0.0037184858481433044 0 0.0012313286708668567 -0.0038013050794573882 0 0.00089453084949110175 -0.0027004868691062334 0 0.00071947538909303353 -0.0023045820930933368 0 0.0007647435921515959 -0.0021063383561709028 0 0.00089453084949110175 -0.0027004868691062334 0 0.00094649803301563237 -0.0023754047011557205 0 0.0007647435921515959 -0.0021063383561709028 0 0.0010182982054791438 -0.0032095064352560356 0 0.0010402189661104951 -0.0033113612670590382 0 0.00094949365395754918 -0.0036091424131232371 0 0.0010742968088035155 -0.003942283824237283 0 0.0010872269555987427 -0.0037184858481433044 0 0.00074063158251187148 -0.0026291413939042848 0 0.00089453084949110175 -0.0027004868691062334 0 0.00071947538909303353 -0.0023045820930933368 0 0.00083772706443821033 -0.0031191636136555598 0 0.0010182982054791438 -0.0032095064352560356 0 0.00089453084949110175 -0.0027004868691062334 0 0.00094649803301563237 -0.0023754047011557205 0 0.0010539793823852973 -0.0028213040603130061 0 0.0010402189661104951 -0.0033113612670590382 0 0.0016826945128234378 -0.0034262089128743838 0 0.0012313286708668567 -0.0038013050794573882 0 0.0013599756541991773 -0.0041500592574555475 0 0.0013829048996218578 -0.0039353195344204476 0 0.00094649803301563237 -0.0023754047011557205 0 0.0010539793823852973 -0.0028213040603130061 0 0.0012170942397758265 -0.0029173205553261758 0 0.00094649803301563237 -0.0023754047011557205 0 0.0012170942397758265 -0.0029173205553261758 0 0.0010612984188031666 -0.0023823717966566498 0 0.0013029371132688046 -0.0045473637274732383 0 0.0012351727372645308 -0.0041384544804870613 0 0.0014254713072584567 -0.0045094985711120333 0 0.0012351727372645308 -0.0041384544804870613 0 0.0013599756541991773 -0.0041500592574555475 0 0.0014254713072584567 -0.0045094985711120333 0 0.0012351727372645308 -0.0041384544804870613 0 0.0012313286708668567 -0.0038013050794573882 0 0.0013599756541991773 -0.0041500592574555475 0 0.0013599756541991773 -0.0041500592574555475 0 0.0014254713072584567 -0.0045094985711120333 0 0.0014959919977942631 -0.004341819010853492 0 0.001612042289240876 -0.0048881714553471621 0 0.0014254713072584567 -0.0045094985711120333 0 0.0014959919977942631 -0.004341819010853492 0 0.0013599756541991773 -0.0041500592574555475 0 0.0014959919977942631 -0.004341819010853492 0 0.0013829048996218578 -0.0039353195344204476 0 0.0014959919977942631 -0.004341819010853492 0 0.0013829048996218578 -0.0039353195344204476 0 0.001538481008639893 -0.0040331887824817895 0 0.0014959919977942631 -0.004341819010853492 0 0.0016430245212817652 -0.0045023133998823624 0 0.001538481008639893 -0.0040331887824817895 0 0.001612042289240876 -0.0048881714553471621 0 0.0014959919977942631 -0.004341819010853492 0 0.0016430245212817652 -0.0045023133998823624 0 0.0012170942397758265 -0.0029173205553261758 0 0.0012023559971829595 -0.0026641353547236729 0 0.0010612984188031666 -0.0023823717966566498 0 0.0016826945128234378 -0.0034262089128743838 0 2.7699635037541016e-05 -0.0035436525029352273 0 0.0012170942397758265 -0.0029173205553261758 0 0.0013763646032962696 -0.0030531877632707775 0 0.0012023559971829595 -0.0026641353547236729 0 0.0013763646032962696 -0.0030531877632707775 0 0.0012023559971829595 -0.0026641353547236729 0 0.0012489729843781171 -0.0025839955487637644 0 0.0012023559971829595 -0.0026641353547236729 0 0.0011056493536182545 -0.0022835082251347386 0 0.0012489729843781171 -0.0025839955487637644 0 0.0011056493536182545 -0.0022835082251347386 0 0.0012489729843781171 -0.0025839955487637644 0 0.0011160887265416742 -0.0021242883763301691 0 0.0011056493536182545 -0.0022835082251347386 0 0.0010612984188031666 -0.0023823717966566498 0 0.000963179605763742 -0.0019526340284561996 0 0.0012023559971829595 -0.0026641353547236729 0 0.0011056493536182545 -0.0022835082251347386 0 0.0010612984188031666 -0.0023823717966566498 0 0.0011056493536182545 -0.0022835082251347386 0 0.000963179605763742 -0.0019526340284561996 0 0.0011160887265416742 -0.0021242883763301691 0 0.000963179605763742 -0.0019526340284561996 0 0.00096028496358495558 -0.0016602114737167533 0 0.00076001947077431224 -0.0014628546166134228 0 0.00096028496358495558 -0.0016602114737167533 0 0.00076001947077431224 -0.0014628546166134228 0 0.00062654364185445296 -0.0010563260033090718 0 0.000963179605763742 -0.0019526340284561996 0 0.0011160887265416742 -0.0021242883763301691 0 0.00096028496358495558 -0.0016602114737167533 0 0.000963179605763742 -0.0019526340284561996 0 0.00076001947077431224 -0.0014628546166134228 0 0.00083574916504059566 -0.0019121408634310414 0 0.00076001947077431224 -0.0014628546166134228 0 0.00059404990881558066 -0.0013181997813308873 0 0.00083574916504059566 -0.0019121408634310414 0 0.00076001947077431224 -0.0014628546166134228 0 0.00059404990881558066 -0.0013181997813308873 0 0.00044776126658203767 -0.0008622117979852832 0 0.00059404990881558066 -0.0013181997813308873 0 0.00083574916504059566 -0.0019121408634310414 0 0.00064691580985345521 -0.0016378762194638097 0 0.00094649803301563237 -0.0023754047011557205 0 0.00083574916504059566 -0.0019121408634310414 0 0.0007647435921515959 -0.0021063383561709028 0 0.00094649803301563237 -0.0023754047011557205 0 0.0010612984188031666 -0.0023823717966566498 0 0.00083574916504059566 -0.0019121408634310414 0 0.0010612984188031666 -0.0023823717966566498 0 0.000963179605763742 -0.0019526340284561996 0 0.00083574916504059566 -0.0019121408634310414 0 1.7477711055967394e-08 -3.7205213896301947e-07 0 0.00023239948549717829 -0.00034967686312286397 0 0.00033022173373281415 -0.00053911801518384116 0 1.7477711055967394e-08 -3.7205213896301947e-07 0 3.6259946542119549e-07 -8.5474637760280385e-07 0 0.00023239948549717829 -0.00034967686312286397 0 3.6259946542119549e-07 -8.5474637760280385e-07 0 0.00047008232645776059 -0.00068138072312949724 0 0.00023239948549717829 -0.00034967686312286397 0 0.00047008232645776059 -0.00068138072312949724 0 0.00023239948549717829 -0.00034967686312286397 0 0.00053520088141279236 -0.00082468418660749953 0 0.00023239948549717829 -0.00034967686312286397 0 0.00033022173373281415 -0.00053911801518384116 0 0.00053520088141279236 -0.00082468418660749953 0 0.00033022173373281415 -0.00053911801518384116 0 0.00053520088141279236 -0.00082468418660749953 0 0.00062654364185445296 -0.0010563260033090718 0 0.00053520088141279236 -0.00082468418660749953 0 0.00075482212134262382 -0.0011845314878474349 0 0.00062654364185445296 -0.0010563260033090718 0 0.00047008232645776059 -0.00068138072312949724 0 0.00053520088141279236 -0.00082468418660749953 0 0.00075482212134262382 -0.0011845314878474349 0 0.00096028496358495558 -0.0016602114737167533 0 0.00075482212134262382 -0.0011845314878474349 0 0.00062654364185445296 -0.0010563260033090718 0 0.00076001947077431224 -0.0014628546166134228 0 0.00062654364185445296 -0.0010563260033090718 0 0.00044776126658203767 -0.0008622117979852832 0 0.00059404990881558066 -0.0013181997813308873 0 0.00044776126658203767 -0.0008622117979852832 0 0.00038790674798641243 -0.00092017396484201969 0 0.00044776126658203767 -0.0008622117979852832 0 0.00020721841664242724 -0.00039041368751486962 0 0.00022390848795790914 -0.00050263027185327221 0 0.00033022173373281415 -0.00053911801518384116 0 0.00062654364185445296 -0.0010563260033090718 0 0.00044776126658203767 -0.0008622117979852832 0 0.00033022173373281415 -0.00053911801518384116 0 0.00044776126658203767 -0.0008622117979852832 0 0.00020721841664242724 -0.00039041368751486962 0 1.7477711055967394e-08 -3.7205213896301947e-07 0 0.00033022173373281415 -0.00053911801518384116 0 0.00020721841664242724 -0.00039041368751486962 0 0.00020721841664242724 -0.00039041368751486962 0 1.0072300560828031e-07 -4.5885383947187963e-07 0 3.6554152590036229e-08 -3.7548715885849028e-07 0 1.7477711055967394e-08 -3.7205213896301947e-07 0 0.00020721841664242724 -0.00039041368751486962 0 1.0072300560828031e-07 -4.5885383947187963e-07 0 3.6554152590036229e-08 -3.7548715885849028e-07 0 0.00011357192881033539 -0.00028597362348984474 0 5.1895902780608927e-08 -3.9513370417869701e-07 0 0.00020721841664242724 -0.00039041368751486962 0 3.6554152590036229e-08 -3.7548715885849028e-07 0 0.00022390848795790914 -0.00050263027185327221 0 0.00022390848795790914 -0.00050263027185327221 0 0.00011357192881033539 -0.00028597362348984474 0 0.00021814553045965983 -0.00060169745167531975 0 3.6554152590036229e-08 -3.7548715885849028e-07 0 0.00022390848795790914 -0.00050263027185327221 0 0.00011357192881033539 -0.00028597362348984474 0 0.00022390848795790914 -0.00050263027185327221 0 0.00038790674798641243 -0.00092017396484201969 0 0.00021814553045965983 -0.00060169745167531975 0 0.00044776126658203767 -0.0008622117979852832 0 0.00022390848795790914 -0.00050263027185327221 0 0.00038790674798641243 -0.00092017396484201969 0 0.00038790674798641243 -0.00092017396484201969 0 0.00033760394281935548 -0.00095346637585896421 0 0.00021814553045965983 -0.00060169745167531975 0 0.00038790674798641243 -0.00092017396484201969 0 0.00033760394281935548 -0.00095346637585896421 0 0.0004820661106177809 -0.0012749706407399195 0 0.00033760394281935548 -0.00095346637585896421 0 0.00024754002193729717 -0.00078124428316245394 0 0.00021814553045965983 -0.00060169745167531975 0 0.00024754002193729717 -0.00078124428316245394 0 0.00036235181140196169 -0.001170133492076201 0 0.00021768999793146473 -0.00081110770024546332 0 0.00033760394281935548 -0.00095346637585896421 0 0.00024754002193729717 -0.00078124428316245394 0 0.00036235181140196169 -0.001170133492076201 0 0.00024754002193729717 -0.00078124428316245394 0 0.00021814553045965983 -0.00060169745167531975 0 0.00012670718517274524 -0.0004144879466759901 0 0.00011357192881033539 -0.00028597362348984474 0 0.00021814553045965983 -0.00060169745167531975 0 8.6140160654722407e-05 -0.00025140485872264691 0 0.00021814553045965983 -0.00060169745167531975 0 8.6140160654722407e-05 -0.00025140485872264691 0 0.00012670718517274524 -0.0004144879466759901 0 8.6140160654722407e-05 -0.00025140485872264691 0 0.00012670718517274524 -0.0004144879466759901 0 3.3824003788951862e-08 -3.7928260464579795e-07 0 8.6140160654722407e-05 -0.00025140485872264691 0 5.1895902780608927e-08 -3.9513370417869701e-07 0 3.3824003788951862e-08 -3.7928260464579795e-07 0 0.00011357192881033539 -0.00028597362348984474 0 8.6140160654722407e-05 -0.00025140485872264691 0 5.1895902780608927e-08 -3.9513370417869701e-07 0 0.00054973653952369937 -0.0016083567376931145 0 0.0007647435921515959 -0.0021063383561709028 0 0.00059803989771091642 -0.001937684224528713 0 0.00054973653952369937 -0.0016083567376931145 0 0.0007647435921515959 -0.0021063383561709028 0 0.00064691580985345521 -0.0016378762194638097 0 0.00071947538909303353 -0.0023045820930933368 0 0.0007647435921515959 -0.0021063383561709028 0 0.00059803989771091642 -0.001937684224528713 0 0.00083574916504059566 -0.0019121408634310414 0 0.0007647435921515959 -0.0021063383561709028 0 0.00064691580985345521 -0.0016378762194638097 0 0.00059404990881558066 -0.0013181997813308873 0 0.00064691580985345521 -0.0016378762194638097 0 0.0004820661106177809 -0.0012749706407399195 0 0.00059404990881558066 -0.0013181997813308873 0 0.00038790674798641243 -0.00092017396484201969 0 0.0004820661106177809 -0.0012749706407399195 0 0.00054973653952369937 -0.0016083567376931145 0 0.00064691580985345521 -0.0016378762194638097 0 0.0004820661106177809 -0.0012749706407399195 0 0.00054973653952369937 -0.0016083567376931145 0 0.00036235181140196169 -0.001170133492076201 0 0.00045380796928617072 -0.0015651066456487234 0 0.00054973653952369937 -0.0016083567376931145 0 0.0004820661106177809 -0.0012749706407399195 0 0.00036235181140196169 -0.001170133492076201 0 0.00033760394281935548 -0.00095346637585896421 0 0.0004820661106177809 -0.0012749706407399195 0 0.00036235181140196169 -0.001170133492076201 0 0.00036235181140196169 -0.001170133492076201 0 0.00045380796928617072 -0.0015651066456487234 0 0.0003309457085547841 -0.0012949231150365917 0 0.00045380796928617072 -0.0015651066456487234 0 0.00059803989771091642 -0.001937684224528713 0 0.0005000001369012294 -0.0018715425457772464 0 0.00054973653952369937 -0.0016083567376931145 0 0.00045380796928617072 -0.0015651066456487234 0 0.00059803989771091642 -0.001937684224528713 0 0.00059039358555980836 -0.0021993543074108777 0 0.00071947538909303353 -0.0023045820930933368 0 0.00059803989771091642 -0.001937684224528713 0 0.00059039358555980836 -0.0021993543074108777 0 0.00059803989771091642 -0.001937684224528713 0 0.0005000001369012294 -0.0018715425457772464 0 0.00059039358555980836 -0.0021993543074108777 0 0.0005000001369012294 -0.0018715425457772464 0 0.00046762590358905259 -0.0020626071666239743 0 0.0005000001369012294 -0.0018715425457772464 0 0.00046762590358905259 -0.0020626071666239743 0 0.00039154177391601642 -0.0016085918539393747 0 0.00046762590358905259 -0.0020626071666239743 0 0.00036766649521476161 -0.0018135941228829579 0 0.00039154177391601642 -0.0016085918539393747 0 0.00046762590358905259 -0.0020626071666239743 0 0.00036766649521476161 -0.0018135941228829579 0 0.00037030485885062865 -0.0021007383215225373 0 0.00036766649521476161 -0.0018135941228829579 0 0.00039154177391601642 -0.0016085918539393747 0 0.00031238396232045223 -0.0015083338391336889 0 0.00045380796928617072 -0.0015651066456487234 0 0.0005000001369012294 -0.0018715425457772464 0 0.00039154177391601642 -0.0016085918539393747 0 0.00045380796928617072 -0.0015651066456487234 0 0.00039154177391601642 -0.0016085918539393747 0 0.0003309457085547841 -0.0012949231150365917 0 0.00036235181140196169 -0.001170133492076201 0 0.0003309457085547841 -0.0012949231150365917 0 0.00021768999793146473 -0.00081110770024546332 0 0.0003309457085547841 -0.0012949231150365917 0 0.00024731213934102897 -0.0011356938639208729 0 0.00021768999793146473 -0.00081110770024546332 0 0.00039154177391601642 -0.0016085918539393747 0 0.0003309457085547841 -0.0012949231150365917 0 0.00031238396232045223 -0.0015083338391336889 0 0.0003309457085547841 -0.0012949231150365917 0 0.00024731213934102897 -0.0011356938639208729 0 0.00031238396232045223 -0.0015083338391336889 0 0.00024731213934102897 -0.0011356938639208729 0 0.00024428800823430208 -0.0014826145887513378 0 0.00031238396232045223 -0.0015083338391336889 0 0.00024731213934102897 -0.0011356938639208729 0 0.00017463527478973578 -0.00088998381269985219 0 0.0001885458970881841 -0.0011658251910852135 0 0.00024731213934102897 -0.0011356938639208729 0 0.00024428800823430208 -0.0014826145887513378 0 0.0001885458970881841 -0.0011658251910852135 0 0.00024428800823430208 -0.0014826145887513378 0 0.00029501065826306131 -0.0018054182115356076 0 0.00021191771039266028 -0.0018513151002197558 0 0.00029501065826306131 -0.0018054182115356076 0 0.00021191771039266028 -0.0018513151002197558 0 0.00026245736767351746 -0.0021107618290619025 0 0.00036766649521476161 -0.0018135941228829579 0 0.00029501065826306131 -0.0018054182115356076 0 0.00037030485885062865 -0.0021007383215225373 0 0.00024428800823430208 -0.0014826145887513378 0 0.00029501065826306131 -0.0018054182115356076 0 0.00031238396232045223 -0.0015083338391336889 0 0.00036766649521476161 -0.0018135941228829579 0 0.00029501065826306131 -0.0018054182115356076 0 0.00031238396232045223 -0.0015083338391336889 0 3.3102309538070106e-08 -3.7756462789522267e-07 0 5.921584336214145e-05 -0.00021244820375555083 0 0.00010808086681633421 -0.00043750560713810258 0 3.3102309538070106e-08 -3.7756462789522267e-07 0 0.00010808086681633421 -0.00043750560713810258 0 6.0040434980026656e-05 -0.00027729509175814871 0 0.00012670718517274524 -0.0004144879466759901 0 3.3824003788951862e-08 -3.7928260464579795e-07 0 5.921584336214145e-05 -0.00021244820375555083 0 3.3102309538070106e-08 -3.7756462789522267e-07 0 3.3824003788951862e-08 -3.7928260464579795e-07 0 5.921584336214145e-05 -0.00021244820375555083 0 0.00012670718517274524 -0.0004144879466759901 0 5.921584336214145e-05 -0.00021244820375555083 0 0.00010808086681633421 -0.00043750560713810258 0 0.00010808086681633421 -0.00043750560713810258 0 0.00021768999793146473 -0.00081110770024546332 0 0.00017800223949309172 -0.00078109273036021181 0 0.00012670718517274524 -0.0004144879466759901 0 0.00010808086681633421 -0.00043750560713810258 0 0.00021768999793146473 -0.00081110770024546332 0 0.00024754002193729717 -0.00078124428316245394 0 0.00012670718517274524 -0.0004144879466759901 0 0.00021768999793146473 -0.00081110770024546332 0 0.00024731213934102897 -0.0011356938639208729 0 0.00021768999793146473 -0.00081110770024546332 0 0.00017800223949309172 -0.00078109273036021181 0 0.00017800223949309172 -0.00078109273036021181 0 0.00017463527478973578 -0.00088998381269985219 0 0.00011669612197585975 -0.00056913673875603609 0 0.00024731213934102897 -0.0011356938639208729 0 0.00017800223949309172 -0.00078109273036021181 0 0.00017463527478973578 -0.00088998381269985219 0 0.00017463527478973578 -0.00088998381269985219 0 0.0001376864786841932 -0.00081308245581193975 0 0.0001885458970881841 -0.0011658251910852135 0 0.00017463527478973578 -0.00088998381269985219 0 0.00011669612197585975 -0.00056913673875603609 0 0.0001376864786841932 -0.00081308245581193975 0 0.00011669612197585975 -0.00056913673875603609 0 6.593587908428857e-05 -0.00036277849460854771 0 0.0001376864786841932 -0.00081308245581193975 0 0.00010808086681633421 -0.00043750560713810258 0 0.00017800223949309172 -0.00078109273036021181 0 0.00011669612197585975 -0.00056913673875603609 0 0.00010808086681633421 -0.00043750560713810258 0 0.00011669612197585975 -0.00056913673875603609 0 6.0040434980026656e-05 -0.00027729509175814871 0 0.00011669612197585975 -0.00056913673875603609 0 6.0040434980026656e-05 -0.00027729509175814871 0 6.593587908428857e-05 -0.00036277849460854771 0 6.0040434980026656e-05 -0.00027729509175814871 0 2.9404111169265385e-08 -3.7768359469167529e-07 0 6.593587908428857e-05 -0.00036277849460854771 0 3.3102309538070106e-08 -3.7756462789522267e-07 0 6.0040434980026656e-05 -0.00027729509175814871 0 2.9404111169265385e-08 -3.7768359469167529e-07 0 1.753604120894243e-08 -3.808181362889006e-07 0 4.022470398970968e-05 -0.0002882539516448316 0 2.7773987191120435e-08 -3.8894854217820118e-07 0 2.9404111169265385e-08 -3.7768359469167529e-07 0 1.753604120894243e-08 -3.808181362889006e-07 0 6.593587908428857e-05 -0.00036277849460854771 0 1.753604120894243e-08 -3.808181362889006e-07 0 6.593587908428857e-05 -0.00036277849460854771 0 4.022470398970968e-05 -0.0002882539516448316 0 6.593587908428857e-05 -0.00036277849460854771 0 4.022470398970968e-05 -0.0002882539516448316 0 8.4096604732191829e-05 -0.00061671312225140536 0 6.593587908428857e-05 -0.00036277849460854771 0 8.4096604732191829e-05 -0.00061671312225140536 0 0.0001376864786841932 -0.00081308245581193975 0 0.0001376864786841932 -0.00081308245581193975 0 0.00012486570076638187 -0.0009216245909452629 0 0.0001885458970881841 -0.0011658251910852135 0 8.4096604732191829e-05 -0.00061671312225140536 0 0.0001376864786841932 -0.00081308245581193975 0 0.00012486570076638187 -0.0009216245909452629 0 0.00012486570076638187 -0.0009216245909452629 0 8.7739576271360676e-05 -0.0008501247461504568 0 0.00013197133515719563 -0.0012104491778030374 0 8.4096604732191829e-05 -0.00061671312225140536 0 0.00012486570076638187 -0.0009216245909452629 0 8.7739576271360676e-05 -0.0008501247461504568 0 8.7739576271360676e-05 -0.0008501247461504568 0 6.0217979405394483e-05 -0.00099649599209864935 0 4.1990822325789083e-05 -0.00047501316288513196 0 1.9242164157856663e-05 -0.00077736517325561105 0 6.0217979405394483e-05 -0.00099649599209864935 0 4.1990822325789083e-05 -0.00047501316288513196 0 8.4096604732191829e-05 -0.00061671312225140536 0 8.7739576271360676e-05 -0.0008501247461504568 0 4.1990822325789083e-05 -0.00047501316288513196 0 4.022470398970968e-05 -0.0002882539516448316 0 4.1990822325789083e-05 -0.00047501316288513196 0 2.7773987191120435e-08 -3.8894854217820118e-07 0 4.022470398970968e-05 -0.0002882539516448316 0 8.4096604732191829e-05 -0.00061671312225140536 0 4.1990822325789083e-05 -0.00047501316288513196 0 3.4225403565805189e-09 -3.9319028430097867e-07 0 4.1990822325789083e-05 -0.00047501316288513196 0 2.7773987191120435e-08 -3.8894854217820118e-07 0 0.00021191771039266028 -0.0018513151002197558 0 0.00018815767756292294 -0.0014646507754753164 0 0.00014719188413901015 -0.0016477728268536565 0 0.00021191771039266028 -0.0018513151002197558 0 0.00014719188413901015 -0.0016477728268536565 0 0.00015863324115252277 -0.0020684142675872117 0 0.00024428800823430208 -0.0014826145887513378 0 0.00021191771039266028 -0.0018513151002197558 0 0.00018815767756292294 -0.0014646507754753164 0 0.00024428800823430208 -0.0014826145887513378 0 0.00018815767756292294 -0.0014646507754753164 0 0.0001885458970881841 -0.0011658251910852135 0 0.00012486570076638187 -0.0009216245909452629 0 0.0001885458970881841 -0.0011658251910852135 0 0.00013197133515719563 -0.0012104491778030374 0 0.00018815767756292294 -0.0014646507754753164 0 0.0001885458970881841 -0.0011658251910852135 0 0.00013197133515719563 -0.0012104491778030374 0 0.00018815767756292294 -0.0014646507754753164 0 0.00013197133515719563 -0.0012104491778030374 0 0.00014719188413901015 -0.0016477728268536565 0 0.00013197133515719563 -0.0012104491778030374 0 8.5486298585763618e-05 -0.0014120173098877923 0 0.00014719188413901015 -0.0016477728268536565 0 8.7739576271360676e-05 -0.0008501247461504568 0 6.0217979405394483e-05 -0.00099649599209864935 0 0.00013197133515719563 -0.0012104491778030374 0 3.1039172762805091e-05 -0.0012084744696348991 0 6.0217979405394483e-05 -0.00099649599209864935 0 8.5486298585763618e-05 -0.0014120173098877923 0 6.0217979405394483e-05 -0.00099649599209864935 0 0.00013197133515719563 -0.0012104491778030374 0 8.5486298585763618e-05 -0.0014120173098877923 0 8.5486298585763618e-05 -0.0014120173098877923 0 8.453696510856249e-05 -0.0017806716893723534 0 0.00014719188413901015 -0.0016477728268536565 0 8.453696510856249e-05 -0.0017806716893723534 0 0.00014719188413901015 -0.0016477728268536565 0 0.00015863324115252277 -0.0020684142675872117 0 4.5269203109619526e-05 -0.0022470261807294614 0 8.453696510856249e-05 -0.0017806716893723534 0 0.00015863324115252277 -0.0020684142675872117 0 4.5269203109619526e-05 -0.0022470261807294614 0 1.5747508446059645e-05 -0.0028136536479444131 0 0.00015863324115252277 -0.0020684142675872117 0 1.5747508446059645e-05 -0.0028136536479444131 0 0.00018771076358315193 -0.0033650390826257958 0 0.00027216722083738291 -0.0034145424400174964 0 1.5747508446059645e-05 -0.0028136536479444131 0 5.5784970079898605e-05 -0.0023470401027006235 0 0.00015863324115252277 -0.0020684142675872117 0 9.2478027690551029e-06 -0.002813386006315444 0 0.00011957529008656285 -0.0028559194953843934 0 5.5784970079898605e-05 -0.0023470401027006235 0 0.00015863324115252277 -0.0020684142675872117 0 0.00015907773850064834 -0.0021441011114340788 0 0.00021191771039266028 -0.0018513151002197558 0 0.00015863324115252277 -0.0020684142675872117 0 0.00015907773850064834 -0.0021441011114340788 0 0.00011957529008656285 -0.0028559194953843934 0 0.00028795362992179926 -0.0028846204873194969 0 5.5784970079898605e-05 -0.0023470401027006235 0 0.00015907773850064834 -0.0021441011114340788 0 0.0002097877848625526 -0.0023946495591156375 0 0.00028795362992179926 -0.0028846204873194969 0 0.00043492407160364678 -0.0029270920593862703 0 0.00015907773850064834 -0.0021441011114340788 0 0.0002097877848625526 -0.0023946495591156375 0 0.00026245736767351746 -0.0021107618290619025 0 0.00021191771039266028 -0.0018513151002197558 0 0.00015907773850064834 -0.0021441011114340788 0 0.00026245736767351746 -0.0021107618290619025 0 0.00050898460669823763 -0.0037278812026824786 0 0.00040677970691712663 -0.0037631548564550227 0 0.00056565402579366133 -0.0040573157830523189 0 0.00036503402163703074 -0.0033746505791001431 0 0.00050898460669823763 -0.0037278812026824786 0 0.00053061665432686583 -0.0034361488745469982 0 0.00036503402163703074 -0.0033746505791001431 0 0.00050898460669823763 -0.0037278812026824786 0 0.00040677970691712663 -0.0037631548564550227 0 0.00018771076358315193 -0.0033650390826257958 0 0.00036503402163703074 -0.0033746505791001431 0 0.00040677970691712663 -0.0037631548564550227 0 0.00040677970691712663 -0.0037631548564550227 0 0.00027216722083738291 -0.0034145424400174964 0 0.00038977445284162792 -0.0039519136047820366 0 0.00018771076358315193 -0.0033650390826257958 0 0.00040677970691712663 -0.0037631548564550227 0 0.00027216722083738291 -0.0034145424400174964 0 0.00020177054794749563 -0.0034194141953050308 0 1.5747508446059645e-05 -0.0028136536479444131 0 0.00027216722083738291 -0.0034145424400174964 0 0.00020177054794749563 -0.0034194141953050308 0 0.00027216722083738291 -0.0034145424400174964 0 0.00038977445284162792 -0.0039519136047820366 0 0.00040677970691712663 -0.0037631548564550227 0 0.00038977445284162792 -0.0039519136047820366 0 0.00056928034830481492 -0.0042974309915603352 0 0.00038977445284162792 -0.0039519136047820366 0 0.00054629163956219321 -0.0045937054142485634 0 0.00056928034830481492 -0.0042974309915603352 0 0.00036014847796267651 -0.004326318190805107 0 0.00038977445284162792 -0.0039519136047820366 0 0.00054629163956219321 -0.0045937054142485634 0 0.00045061268391165108 -0.0048445175456169878 0 0.0006120414298857982 -0.0050447406226866529 0 0.00054629163956219321 -0.0045937054142485634 0 0.00045061268391165108 -0.0048445175456169878 0 0.00036014847796267651 -0.004326318190805107 0 0.00054629163956219321 -0.0045937054142485634 0 0.0006120414298857982 -0.0050447406226866529 0 0.00071906704177136045 -0.0050301511766057743 0 0.00054629163956219321 -0.0045937054142485634 0 0.00071906704177136045 -0.0050301511766057743 0 0.00065573821494090264 -0.0046939670994693757 0 0.00078672697657948727 -0.0049490916624016857 0 0.00071906704177136045 -0.0050301511766057743 0 0.00054629163956219321 -0.0045937054142485634 0 0.00065573821494090264 -0.0046939670994693757 0 0.00065573821494090264 -0.0046939670994693757 0 0.00070794944651961624 -0.0046180919040646152 0 0.00056928034830481492 -0.0042974309915603352 0 0.00054629163956219321 -0.0045937054142485634 0 0.00065573821494090264 -0.0046939670994693757 0 0.00056928034830481492 -0.0042974309915603352 0 0.00065573821494090264 -0.0046939670994693757 0 0.00070794944651961624 -0.0046180919040646152 0 0.00078672697657948727 -0.0049490916624016857 0 0.00040677970691712663 -0.0037631548564550227 0 0.00056928034830481492 -0.0042974309915603352 0 0.00056565402579366133 -0.0040573157830523189 0 0.00070794944651961624 -0.0046180919040646152 0 0.00056928034830481492 -0.0042974309915603352 0 0.0007037625383946749 -0.0043615367097550733 0 0.00056928034830481492 -0.0042974309915603352 0 0.00056565402579366133 -0.0040573157830523189 0 0.0007037625383946749 -0.0043615367097550733 0 0.00056565402579366133 -0.0040573157830523189 0 0.0007037625383946749 -0.0043615367097550733 0 0.00063691092761026526 -0.0039254716071920985 0 0.0007037625383946749 -0.0043615367097550733 0 0.00082749294299737993 -0.0047918862722234092 0 0.00086528344858109415 -0.0046069301376597581 0 0.0007037625383946749 -0.0043615367097550733 0 0.00076431171114151465 -0.0042164292112041642 0 0.00086528344858109415 -0.0046069301376597581 0 0.0007037625383946749 -0.0043615367097550733 0 0.00076431171114151465 -0.0042164292112041642 0 0.00063691092761026526 -0.0039254716071920985 0 0.00078672697657948727 -0.0049490916624016857 0 0.00090587938335602136 -0.0051382252096583694 0 0.00082749294299737993 -0.0047918862722234092 0 0.00070794944651961624 -0.0046180919040646152 0 0.00078672697657948727 -0.0049490916624016857 0 0.00082749294299737993 -0.0047918862722234092 0 0.00070794944651961624 -0.0046180919040646152 0 0.0007037625383946749 -0.0043615367097550733 0 0.00082749294299737993 -0.0047918862722234092 0 0.00082749294299737993 -0.0047918862722234092 0 0.00097822936210149262 -0.0050756765451959313 0 0.00086528344858109415 -0.0046069301376597581 0 0.00090587938335602136 -0.0051382252096583694 0 0.00082749294299737993 -0.0047918862722234092 0 0.00097822936210149262 -0.0050756765451959313 0 0.00110713869130035 -0.0054665559738291975 0 0.00097822936210149262 -0.0050756765451959313 0 0.0011144773545472659 -0.005231527918070248 0 0.00097822936210149262 -0.0050756765451959313 0 0.0010225707851081636 -0.0048448641087593261 0 0.00086528344858109415 -0.0046069301376597581 0 0.00097822936210149262 -0.0050756765451959313 0 0.0010225707851081636 -0.0048448641087593261 0 0.0011144773545472659 -0.005231527918070248 0 0.00076431171114151465 -0.0042164292112041642 0 0.00091643325251271942 -0.0044294529514760355 0 0.00082131849709659818 -0.004089977218435621 0 0.0010225707851081636 -0.0048448641087593261 0 0.00086528344858109415 -0.0046069301376597581 0 0.00091643325251271942 -0.0044294529514760355 0 0.00076431171114151465 -0.0042164292112041642 0 0.00086528344858109415 -0.0046069301376597581 0 0.00091643325251271942 -0.0044294529514760355 0 0.001051575757600198 -0.0045240388371361809 0 0.0010225707851081636 -0.0048448641087593261 0 0.00091643325251271942 -0.0044294529514760355 0 0.00091643325251271942 -0.0044294529514760355 0 0.00092119652279689323 -0.0041912172553020318 0 0.00082131849709659818 -0.004089977218435621 0 0.001051575757600198 -0.0045240388371361809 0 0.00091643325251271942 -0.0044294529514760355 0 0.00092119652279689323 -0.0041912172553020318 0 0.00092119652279689323 -0.0041912172553020318 0 0.00082131849709659818 -0.004089977218435621 0 0.00081816233210040012 -0.0038511735315209373 0 0.00082131849709659818 -0.004089977218435621 0 0.00069549001263610527 -0.0037864349649208624 0 0.00081816233210040012 -0.0038511735315209373 0 0.00076431171114151465 -0.0042164292112041642 0 0.00082131849709659818 -0.004089977218435621 0 0.00069549001263610527 -0.0037864349649208624 0 0.00069549001263610527 -0.0037864349649208624 0 0.00081816233210040012 -0.0038511735315209373 0 0.00067741966077901588 -0.0034685260472573243 0 0.00046762590358905259 -0.0020626071666239743 0 0.00059860845371718116 -0.0025333242317202242 0 0.00046759394476833348 -0.0024885250276180442 0 0.00070740636617896621 -0.0030423231045587544 0 0.00057202162189407175 -0.0029785124154332581 0 0.00081816233210040012 -0.0038511735315209373 0 0.00081229443053284112 -0.0035513232110272555 0 0.00067741966077901588 -0.0034685260472573243 0 0.00059039358555980836 -0.0021993543074108777 0 0.00046762590358905259 -0.0020626071666239743 0 0.00059860845371718116 -0.0025333242317202242 0 0.00046762590358905259 -0.0020626071666239743 0 0.00046759394476833348 -0.0024885250276180442 0 0.00037030485885062865 -0.0021007383215225373 0 0.00046759394476833348 -0.0024885250276180442 0 0.00037030485885062865 -0.0021007383215225373 0 0.00033926471819143263 -0.002418149894787136 0 0.00069549001263610527 -0.0037864349649208624 0 0.00067741966077901588 -0.0034685260472573243 0 0.00053061665432686583 -0.0034361488745469982 0 0.00057202162189407175 -0.0029785124154332581 0 0.00043492407160364678 -0.0029270920593862703 0 0.00037030485885062865 -0.0021007383215225373 0 0.00026245736767351746 -0.0021107618290619025 0 0.00033926471819143263 -0.002418149894787136 0 0.00029501065826306131 -0.0018054182115356076 0 0.00037030485885062865 -0.0021007383215225373 0 0.00026245736767351746 -0.0021107618290619025 0 0.0002097877848625526 -0.0023946495591156375 0 0.00026245736767351746 -0.0021107618290619025 0 0.00033926471819143263 -0.002418149894787136 0 0.00050898460669823763 -0.0037278812026824786 0 0.00053061665432686583 -0.0034361488745469982 0 0.00063691092761026526 -0.0039254716071920985 0 0.00050898460669823763 -0.0037278812026824786 0 0.00056565402579366133 -0.0040573157830523189 0 0.00063691092761026526 -0.0039254716071920985 0 0.00076431171114151465 -0.0042164292112041642 0 0.00069549001263610527 -0.0037864349649208624 0 0.00063691092761026526 -0.0039254716071920985 0 0.00069549001263610527 -0.0037864349649208624 0 0.00053061665432686583 -0.0034361488745469982 0 0.00063691092761026526 -0.0039254716071920985 0 
</DataArray>
</PointData>
<CellData Scalars="region_id,cross_section_updated,displacement_divergence," Vectors="" Tensors="stress,">
<DataArray type="Float64" Name="region_id" format="ascii">
1 1 1 1 1 1 1 1 1 1 1 1 1 1 1 1 1 1 1 1 1 1 1 1 1 1 1 1 1 1 1 1 1 1 1 1 1 1 1 1 1 1 1 1 1 1 1 1 1 1 1 1 1 1 1 1 1 1 1 1 1 1 1 1 1 1 1 1 1 1 1 1 1 1 1 1 1 1 1 1 1 1 1 1 1 1 1 1 1 1 1 1 1 1 1 1 1 1 1 1 1 1 1 1 1 1 1 1 1 1 1 1 1 1 1 1 1 1 1 1 1 1 1 1 1 1 1 1 1 1 1 1 1 1 1 1 1 1 1 1 1 1 1 1 1 1 1 1 1 1 1 1 1 1 1 1 1 1 1 1 1 1 1 1 1 1 1 1 1 1 1 1 1 1 1 1 1 1 1 1 1 1 1 1 1 1 1 1 1 1 1 1 1 1 1 1 1 1 1 1 1 1 1 1 1 1 1 1 1 1 1 1 1 1 1 1 1 1 1 1 1 1 1 1 1 1 1 1 1 1 1 1 1 1 1 1 1 1 1 1 1 1 1 1 1 1 1 1 1 1 1 1 1 1 1 1 1 1 1 1 1 1 1 1 1 1 1 1 1 1 1 1 1 1 1 1 1 1 1 1 1 1 1 1 1 1 1 1 1 1 1 1 1 1 1 1 1 1 1 1 1 1 1 1 1 1 1 1 1 1 1 1 1 1 1 1 1 1 1 1 1 1 1 1 1 1 1 1 1 1 1 1 1 1 1 1 1 1 1 1 1 1 1 1 1 1 1 1 1 1 1 1 1 1 1 1 1 1 1 1 1 1 1 1 1 1 1 1 1 1 1 1 1 1 1 1 1 1 1 1 1 1 1 1 1 1 1 1 1 1 1 1 1 1 1 1 1 1 1 1 1 1 1 1 1 1 1 1 1 1 1 1 1 1 1 1 1 1 1 1 1 1 1 1 1 1 1 1 1 1 1 1 1 1 1 1 1 1 1 1 1 1 1 1 1 1 1 1 1 1 1 1 1 1 1 1 1 1 1 1 1 1 1 1 1 1 1 1 1 1 1 1 1 1 1 1 1 1 1 1 1 1 1 1 1 1 1 1 1 1 1 1 1 1 1 1 1 1 1 1 1 1 1 1 1 1 1 1 1 1 1 1 1 1 1 1 1 1 1 1 1 1 1 1 1 1 1 1 1 1 1 1 1 1 1 1 1 1 3 1 1 3 1 1 3 1 1 1 1 1 1 1 1 1 1 1 1 1 3 1 1 1 1 1 3 1 1 1 1 1 1 1 1 1 1 1 1 1 1 1 1 1 1 1 1 1 1 1 1 1 1 1 1 1 1 1 1 1 1 1 1 1 1 1 1 1 1 1 1 1 1 1 1 1 1 1 1 1 1 1 1 1 1 1 1 1 1 1 1 1 1 1 1 1 1 1 1 1 1 1 1 1 1 1 1 1 1 1 1 1 1 1 1 1 1 1 1 1 1 1 1 1 1 1 1 1 1 1 1 1 1 1 1 1 1 1 1 1 1 1 1 1 1 1 1 1 1 1 1 1 1 1 1 1 1 1 1 1 1 1 1 1 1 1 1 1 1 1 1 1 1 1 1 1 1 1 1 1 1 1 1 1 1 1 1 1 1 1 1 1 1 1 1 3 1 1 1 3 1 1 3 1 1 1 1 1 1 1 1 1 1 1 3 1 1 1 1 3 1 1 1 1 1 1 1 1 1 1 1 1 1 1 1 1 1 1 1 1 1 1 1 1 1 1 1 1 1 1 1 1 1 1 1 1 1 1 1 1 1 1 1 1 1 1 1 1 1 1 1 1 1 1 1 1 1 1 2 1 1 1 1 1 1 1 1 1 1 1 1 1 1 2 1 1 2 1 2 1 1 1 1 1 1 1 1 1 1 1 1 1 2 1 1 1 1 1 1 1 1 1 1 1 1 1 1 1 1 1 1 1 1 1 1 1 1 1 1 1 1 1 1 1 1 1 1 1 1 1 1 1 1 1 1 1 1 1 1 1 1 1 1 1 1 1 1 1 1 1 1 1 1 1 1 1 1 1 1 1 1 1 1 1 1 1 1 1 1 1 1 1 1 1 1 1 1 1 1 1 1 1 1 1 1 1 1 1 1 1 1 1 1 1 1 1 1 1 1 1 1 1 1 1 1 1 1 1 1 1 1 1 1 1 1 1 1 1 1 1 1 1 1 1 1 1 1 1 1 2 1 1 2 1 2 1 1 1 1 1 1 1 1 1 1 1 1 1 1 1 1 1 1 1 1 1 1 1 1 1 1 1 1 1 1 1 1 1 1 1 1 1 1 1 1 1 1 1 1 1 1 1 2 1 1 1 1 1 2 1 1 1 1 1 1 1 
</DataArray>
<DataArray type="Float64" Name="stress" NumberOfComponents="9" format="ascii">
-405.54968699811627 -275.58712286824249 0 -275.58712286824249 -1218.5294016883793 0 0 0 -406.01977217162386 -213.54207252334305 -279.82834867258828 0 -279.82834867258828 -1433.4834228300567 0 0 0 -411.75637383834987 -279.10054597737786 -201.34630071583649 0 -201.34630071583649 -1049.09222868815 0 0 0 -332.04819366638202 -106.86409751031522 -215.59174592540376 0 -215.59174592540376 -1282.1906547092451 0 0 0 -347.26368805489017 -42.320087084659775 -82.408497636010338 0 -82.408497636010338 -1046.9258919915746 0 0 0 -272.31149476905875 -5.0672835824391314 -27.749121651482938 0 -27.749121651482938 -920.88177362810166 0 0 0 -231.48726430263514 -120.79894490595402 -161.80046905042502 0 -161.80046905042502 -1120.485862628741 0 0 0 -310.32120188367378 -18.902332782831195 -84.062579746822394 0 -84.062579746822394 -1054.6178669439003 0 0 0 -268.38004993168283 -20.299363965314342 -80.550251234938003 0 -80.550251234938003 -986.70121324072124 0 0 0 -251.75014430150895 -83.162519535504146 -118.20411006013819 0 -118.20411006013819 -1035.4932082990865 0 0 0 -279.66393195864788 -154.97205478356295 -127.38004703881751 0 -127.38004703881751 -1021.6221244359172 0 0 0 -294.14854480486986 -93.034338412958618 -117.41713772039054 0 -117.41713772039054 -1003.5543712877261 0 0 0 -274.14717742517121 -230.45134473960573 -163.76780985280834 0 -163.76780985280834 -1015.1999502413912 0 0 0 -311.41282374524917 -134.31316473478802 -161.90903197347609 0 -161.90903197347609 -1000.5649440845912 0 0 0 -283.71952720484478 -337.93325073469612 -199.82166554279021 0 -199.82166554279021 -1013.9792585971499 0 0 0 -337.97812733296149 -355.51375063360422 -248.34530138010774 0 -248.34530138010774 -1066.2959610939072 0 0 0 -355.45242793187782 -198.57424024041708 -185.83495910647008 0 -185.83495910647008 -970.21031988189168 0 0 0 -292.19614003057728 -221.94482606988603 -184.54231268110232 0 -184.54231268110232 -1042.0955718433825 0 0 0 -316.01009947831699 -5.5200301765346467 -8.4641350395038444 0 -8.4641350395038444 -851.14036563754507 0 0 0 -214.16509895351965 -1.9358415385297576 -8.4894916413161354 0 -8.4894916413161354 -920.1787795031978 0 0 0 -230.52865526043206 -14.97956983168649 -22.639641963687382 0 -22.639641963687382 -919.37758385147629 0 0 0 -233.58928842079092 5.6436670758456557 -14.508942892208438 0 -14.508942892208438 -927.36216785315082 0 0 0 -230.42962519432638 -32.850260503743016 -61.385957821274701 0 -61.385957821274701 -1014.9044493549466 0 0 0 -261.93867746467242 -8.8470763592407593 -44.726279772723274 0 -44.726279772723274 -989.89266210929031 0 0 0 -249.68493461713263 -7.7130232700560555 -20.780207089669545 0 -20.780207089669545 -874.16822140825207 0 0 0 -220.47031116957737 -32.645083694634195 -79.019620124569201 0 -79.019620124569201 -1002.4711902606136 0 0 0 -258.77906848881184 -112.62707514384357 -104.60536484481986 0 -104.60536484481986 -1026.0125683768672 0 0 0 -284.65991088017773 -54.080441966196076 -61.817106666463133 0 -61.817106666463133 -985.50759886304559 0 0 0 -259.89701020731059 -34.165942980463626 -38.12734123787186 0 -38.12734123787186 -970.67680688952601 0 0 0 -251.21068746749717 -41.197065377045419 -71.24379169105714 0 -71.24379169105714 -1007.0344695323492 0 0 0 -262.05788372734878 -13.448546745716158 -26.260854789078849 0 -26.260854789078849 -973.84939531052441 0 0 0 -246.82448551405992 -14.832479078299002 -12.196003705611133 0 -12.196003705611133 -914.14570613244086 0 0 0 -232.24454630268474 -30.271292925684747 -43.79762135641645 0 -43.79762135641645 -996.73631162665151 0 0 0 -256.75190113808435 -58.241373986786812 -55.303371356271782 0 -55.303371356271782 -1000.6241034249288 0 0 0 -264.71636935292895 -57.742585811871777 -54.327463403563797 0 -54.327463403563797 -1010.4029776085072 0 0 0 -267.03639085509485 -113.10421969798153 -81.896423047593657 0 -81.896423047593657 -1011.7208749201441 0 0 0 -281.20627365453129 -60.431268843577072 -71.233404972505809 0 -71.233404972505809 -1000.0339158411248 0 0 0 -265.11629617117535 -89.095590064117687 -86.140462762908783 0 -86.140462762908783 -1013.4542061555558 0 0 0 -275.63744905491842 -118.62959366503048 -114.43135336916646 0 -114.43135336916646 -1002.932510682544 0 0 0 -280.39052608689371 -141.79930497500141 -81.021197954923252 0 -81.021197954923252 -1019.3941254325082 0 0 0 -290.29835760187711 -143.80186183448126 -84.058803478352957 0 -84.058803478352957 -1021.8141222302424 0 0 0 -291.40399601618077 -116.7499990073527 -68.533388522456562 0 -68.533388522456562 -1024.6150071116936 0 0 0 -285.34125152976139 -110.29654762603741 -88.391707262545424 0 -88.391707262545424 -1012.8027327688367 0 0 0 -280.77482009871846 -85.56732341355999 -64.997017906679048 0 -64.997017906679048 -1020.7891004652087 0 0 0 -276.58910596969213 -97.524714558073811 -60.174272502035308 0 -60.174272502035308 -1022.9467652266567 0 0 0 -280.11786994618274 -120.60075673722801 -64.899212611545636 0 -64.899212611545636 -1028.3460523760841 0 0 0 -287.23670227832827 -76.934988060533215 -46.794183297312429 0 -46.794183297312429 -1031.3334121640814 0 0 0 -277.06710005615378 -64.717048994700235 -38.226985438817678 0 -38.226985438817678 -1021.105475207205 0 0 0 -271.45563105047609 -258.48904113834948 -152.82274586616683 0 -152.82274586616683 -977.73639007753923 0 0 0 -309.05635780397216 -213.35952298883609 -128.60169355842908 0 -128.60169355842908 -982.76308359116501 0 0 0 -299.03065164500038 -325.6949174285968 -140.11533443512315 0 -140.11533443512315 -977.09295865408717 0 0 0 -325.69696902067096 -227.64860226968321 -158.83118480022182 0 -158.83118480022182 -968.54672049648923 0 0 0 -299.04883069154312 -139.61180266789307 -142.13075721775658 0 -142.13075721775658 -981.82922260791474 0 0 0 -280.360256318952 -163.09426598300178 -118.82904863000317 0 -118.82904863000317 -1015.2533186750547 0 0 0 -294.58689616451426 -166.84620260072165 -109.26451902719589 0 -109.26451902719589 -1007.3488176903061 0 0 0 -293.54875507275699 -204.77612375506922 -137.22259794554463 0 -137.22259794554463 -1000.5351981679713 0 0 0 -301.32783048075999 -158.5483753913478 -108.79604756187192 0 -108.79604756187192 -1004.683260215249 0 0 0 -290.80790890164917 -213.90472941345575 -99.824873509389818 0 -99.824873509389818 -1014.4816883644714 0 0 0 -307.09660444448201 -180.48534107699396 -98.331441712765695 0 -98.331441712765695 -1004.8972528779035 0 0 0 -296.34564848872429 -199.80094719039772 -114.05783577326316 0 -114.05783577326316 -979.93351888469942 0 0 0 -294.93361651877427 -263.16234445035474 -105.53593030419194 0 -105.53593030419194 -1001.9882197107663 0 0 0 -316.28764104028033 -263.19630566412138 -126.51433711733188 0 -126.51433711733188 -996.66363885659837 0 0 0 -314.96498613017991 -247.67584425655559 -130.22588352873865 0 -130.22588352873865 -951.72281287631938 0 0 0 -299.84966428321883 -326.27687845683721 -114.45260800789045 0 -114.45260800789045 -978.85918954194267 0 0 0 -326.28401699969493 -329.80798430073145 -91.163049737061428 0 -91.163049737061428 -989.60031401336641 0 0 0 -329.85207457852448 -252.50797890577059 -105.50617848943 0 -105.50617848943 -959.53938806094754 0 0 0 -303.01184174167952 -259.82597090374531 -80.696085404181986 0 -80.696085404181986 -965.33807116921525 0 0 0 -306.29101051824017 -329.05110527133138 -68.76902220350452 0 -68.76902220350452 -987.17002567172619 0 0 0 -329.05528273576442 -269.84942245763 -53.141269443123122 0 -53.141269443123122 -1006.9075956134757 0 0 0 -319.18925451777642 -252.89831435668771 -46.611875494919104 0 -46.611875494919104 -998.68053723012099 0 0 0 -312.89471289670206 -262.6931549247663 -57.50501103319683 0 -57.50501103319683 -965.8385462832581 0 0 0 -307.13292530200613 -329.5089734325984 -49.759176177467438 0 -49.759176177467438 -988.59578608765241 0 0 0 -329.52618988006265 -206.08695352361104 -44.195185590346341 0 -44.195185590346341 -1032.4121704073686 0 0 0 -309.62478098274494 -189.09844096571862 -54.691527462433442 0 -54.691527462433442 -1022.390514879944 0 0 0 -302.87223896141558 -222.61289931330907 -63.437118490276703 0 -63.437118490276703 -993.39575533633933 0 0 0 -304.00216366241216 -234.26828819867364 -64.202119673802144 0 -64.202119673802144 -1028.3015866728958 0 0 0 -315.64246871789237 -183.08729803168393 -71.560286667667356 0 -71.560286667667356 -1009.8093389192373 0 0 0 -298.22415923773025 -261.0839150952703 -68.41294429544368 0 -68.41294429544368 -1006.0308025902018 0 0 0 -316.77867942136805 -225.79372563510299 -83.247449853960006 0 -83.247449853960006 -1008.037077271282 0 0 0 -308.45770072659616 -211.29298625162392 -89.219150624573786 0 -89.219150624573786 -1003.273756511484 0 0 0 -303.64168569077691 -171.31195548335609 -78.538925673381925 0 -78.538925673381925 -1022.4938741481301 0 0 0 -298.45145740787166 -151.00619467178205 -76.56324169397999 0 -76.56324169397999 -1017.3972070228278 0 0 0 -292.10085042365233 -157.54008982274581 -67.373125103020769 0 -67.373125103020769 -1036.6662495777646 0 0 0 -298.55158485012771 -164.84068505210996 -56.577292021906715 0 -56.577292021906715 -1046.4101007786776 0 0 0 -302.81269645769692 -129.75014967723303 -62.127610245165215 0 -62.127610245165215 -1034.8813761119736 0 0 0 -291.15788144730152 -190.19646499485066 -70.376518969367325 0 -70.376518969367325 -1030.7381711407229 0 0 0 -305.23365903389322 -103.33949615597157 -41.670096353246379 0 -41.670096353246379 -1036.7461824945403 0 0 0 -285.02141966262843 -96.897596915273425 -55.280106797533449 0 -55.280106797533449 -1033.9528372784362 0 0 0 -282.7126085484274 -135.91535104274999 -51.451973205093964 0 -51.451973205093964 -1044.7084791034276 0 0 0 -295.15595753654497 -119.70347018354369 -35.174333426271232 0 -35.174333426271232 -1052.1193811915518 0 0 0 -292.95571284377365 -114.26311956555128 -46.97241766135744 0 -46.97241766135744 -1048.6173147689133 0 0 0 -290.72010858361591 -141.67965099962134 -41.133809413434392 0 -41.133809413434392 -1057.9474508546018 0 0 0 -299.90677546355539 -143.35038829305233 -41.681737530294413 0 -41.681737530294413 -1058.8648231659254 0 0 0 -300.55380286474417 -129.0567927433658 -26.009515354876953 0 -26.009515354876953 -1071.5447206862927 0 0 0 -300.15037835741464 -156.67636941532965 -65.089690832205406 0 -65.089690832205406 -1028.3597435873476 0 0 0 -296.25902825066919 -186.70917241330841 -58.589725447504406 0 -58.589725447504406 -1040.8863293312884 0 0 0 -306.89887543614913 -147.30166758727387 -55.495253382736109 0 -55.495253382736109 -1043.4103647554616 0 0 0 -297.67800808568381 -163.5380651394552 -42.327874370312884 0 -42.327874370312884 -1049.4914559839701 0 0 0 -303.25738028085618 -162.89899923228779 -49.351814266883366 0 -49.351814266883366 -1051.3643388581995 0 0 0 -303.56583452262169 -179.58031852641659 -36.152299780881208 0 -36.152299780881208 -1046.1838771846637 0 0 0 -306.44104892777023 -168.69374964964254 -14.982704801030764 0 -14.982704801030764 -1080.8933560495791 0 0 0 -312.39677642480558 -176.45085790498922 -19.921088649813441 0 -19.921088649813441 -1044.9661816473604 0 0 0 -305.35425988808743 -158.55845334894661 -27.628577908603575 0 -27.628577908603575 -1081.2680456694852 0 0 0 -309.9566247546079 -154.41558903691634 -34.987271020188246 0 -34.987271020188246 -1074.4563816939944 0 0 0 -307.21799268272753 -140.11391753704328 -25.558236921063781 0 -25.558236921063781 -1065.4282901883732 0 0 0 -301.3855519313542 -146.41849262596202 -26.77459131671651 0 -26.77459131671651 -1103.9040861770045 0 0 0 -312.58064470074191 -136.04113599668926 -10.558289035792541 0 -10.558289035792541 -1096.0698121288651 0 0 0 -308.0277370313886 -156.15871787110632 1.0976671839302981 0 1.0976671839302981 -1125.2138801669107 0 0 0 -320.34314950950443 -145.60033113730174 61.694565981926758 0 61.694565981926758 -1035.8041370122774 0 0 0 -295.35111703739494 -114.3651267219646 43.652880756897048 0 43.652880756897048 -1087.2982182759135 0 0 0 -300.41583624946935 -142.26550790088322 29.732127273623291 0 29.732127273623291 -1172.0041393428019 0 0 0 -328.56741181092116 -191.06164556974227 14.388773856732541 0 14.388773856732541 -1062.1831921635317 0 0 0 -313.31120943331871 -132.84267007107468 7.9055474366616636 0 7.9055474366616636 -1056.0841125591521 0 0 0 -297.23169565755671 -166.31081968101512 44.872768465817671 0 44.872768465817671 -1034.9287321734155 0 0 0 -300.30988796360771 -173.98502946286885 18.098031117929857 0 18.098031117929857 -1010.1790240356615 0 0 0 -296.04101337463271 -214.14961496547565 28.810781669150856 0 28.810781669150856 -1026.5070683185586 0 0 0 -310.16417082100861 -230.41710180594009 2.7286699686962947 0 2.7286699686962947 -1031.8812012611877 0 0 0 -315.57457576678189 -225.02384877125778 11.003277909514736 0 11.003277909514736 -979.95382365388969 0 0 0 -301.24441810628684 -267.45298366415921 15.097155960161217 0 15.097155960161217 -994.87011741375863 0 0 0 -315.58077526947943 -263.05727433034906 25.526651632409937 0 25.526651632409937 -946.58616391114901 0 0 0 -302.41085956037449 -325.48785068487882 7.2493876655442655 0 7.2493876655442655 -976.48980408668979 0 0 0 -325.49441369289212 -264.45368093138251 0.95591137927152658 0 0.95591137927152658 -960.27147330006801 0 0 0 -306.18128855786267 -274.11481188979258 -5.8380012993905694 0 -5.8380012993905694 -1002.3797939991928 0 0 0 -319.12365147224631 -273.93151668597483 -23.714319757389944 0 -23.714319757389944 -980.78613183964183 0 0 0 -313.67941213140415 -253.97640023816592 -10.904248001161761 0 -10.904248001161761 -994.33769807300212 0 0 0 -312.07852457779211 -328.63409727285693 -12.433010163492543 0 -12.433010163492543 -985.97287022926196 0 0 0 -328.65174187552969 -277.55899334937942 -33.921042201645093 0 -33.921042201645093 -983.93167871879029 0 0 0 -315.37266801704237 -225.30522091269233 -33.689259918513812 0 -33.689259918513812 -1010.8850416239275 0 0 0 -309.04756563415492 -200.95195013831278 -9.5501033673740494 0 -9.5501033673740494 -1019.11736934651 0 0 0 -305.01732987120556 -235.70460468720864 -21.710833855125429 0 -21.710833855125429 -1015.6877330922662 0 0 0 -312.84808444486862 -1.6127452702626215 24.292186815845525 0 24.292186815845525 -1132.308942400241 0 0 0 -283.48042191762579 -23.382544022180809 18.960366651851928 0 18.960366651851928 -1115.691670392338 0 0 0 -284.7685536036297 -25.797679680867077 23.427580602838361 0 23.427580602838361 -1114.1078936633185 0 0 0 -284.97639333604684 14.816232838912526 11.437639593683798 0 11.437639593683798 -1115.80850264378 0 0 0 -275.2480674512172 31.702357945451695 6.2602756445280647 0 6.2602756445280647 -1119.9275121535702 0 0 0 -272.05628855203031 19.66228599581018 12.807964902397771 0 12.807964902397771 -1121.8057843539063 0 0 0 -275.53587458952416 26.837827254226511 4.3265306137091102 0 4.3265306137091102 -1118.4157836733293 0 0 0 -272.89448910477523 18.354518613738037 0.37799505494240293 0 0.37799505494240293 -1091.3930760723852 0 0 0 -268.25963936466178 19.657639231380927 11.43392252999729 0 11.43392252999729 -1092.5774743888032 0 0 0 -268.22995878935535 15.843737210867857 7.7157303744561432 0 7.7157303744561432 -1059.0004452468074 0 0 0 -260.7891770089841 7.8519582668000112 -32.346249800080841 0 -32.346249800080841 -1070.492113796302 0 0 0 -265.66003888237537 7.1769582928964155 4.0139112774294752 0 4.0139112774294752 -1124.7889643964336 0 0 0 -279.40300152588406 1.4763622866247488 5.4218947293520614 0 5.4218947293520614 -1118.8636302251675 0 0 0 -279.34681698463567 -12.253911037217676 14.34465594254786 0 14.34465594254786 -1157.6922349445886 0 0 0 -292.48653649545076 -23.883168183844418 -33.361561183732647 0 -33.361561183732647 -1166.0877191127383 0 0 0 -297.49272182414575 -169.84504179492274 107.09925262866727 0 107.09925262866727 -1316.9844468887914 0 0 0 -371.70737217092869 -9.8781707770917819 36.489387233992147 0 36.489387233992147 -1188.2653923166108 0 0 0 -299.53589077342576 -172.61669657387051 59.029473291462182 0 59.029473291462182 -1155.6316987209439 0 0 0 -332.06209882370331 0.95434943748341539 -5.1625165411110174 0 -5.1625165411110174 -1119.3827319313586 0 0 0 -279.60709562346892 -196.77379785652192 -24.905920977334745 0 -24.905920977334745 -1278.6649561550967 0 0 0 -368.8596885029051 -126.15051201153142 20.16341777386765 0 20.16341777386765 -1141.7763975039425 0 0 0 -316.9817273788683 -276.19003590284939 26.771296435043951 0 26.771296435043951 -1182.9208410902565 0 0 0 -364.77771924827658 -135.24832900729703 17.483072741438264 0 17.483072741438264 -1135.0890432396641 0 0 0 -317.58434306174024 -151.70486636929948 -18.854690152722014 0 -18.854690152722014 -1158.1703367956807 0 0 0 -327.4688007912448 -192.62131765380195 -7.2465690789936161 0 -7.2465690789936161 -1113.7513007714706 0 0 0 -326.59315460631819 -133.44625623383948 -6.0229257611358662 0 -6.0229257611358662 -1094.1171358299034 0 0 0 -306.89084801593549 -132.81169564649122 -7.8696061345981434 0 -7.8696061345981434 -1085.5828418048623 0 0 0 -304.59863436283854 -63.405445663436467 33.587787221370036 0 33.587787221370036 -1132.4714561908222 0 0 0 -298.9692254635645 -57.746568320116921 34.555386760884176 0 34.555386760884176 -1107.58080123747 0 0 0 -291.33184238939725 -118.42223808750646 36.806497527172269 0 36.806497527172269 -1111.8142492239413 0 0 0 -307.55912182786165 -60.529447881242504 12.801919282834888 0 12.801919282834888 -1087.5721603083211 0 0 0 -287.02540204739057 -53.703164748443896 29.297548669835578 0 29.297548669835578 -1107.8279932444116 0 0 0 -290.38278949821347 -82.128130032419449 12.529755633983768 0 12.529755633983768 -1084.3673919262583 0 0 0 -291.62388048966977 -47.870303611375448 7.3803816435679437 0 7.3803816435679437 -1071.6283263456537 0 0 0 -279.87465748925729 -130.18688408035428 -26.069889777726303 0 -26.069889777726303 -1068.045103048873 0 0 0 -299.55799678230665 -104.06228880277911 -2.6125350645029357 0 -2.6125350645029357 -1074.0263684785195 0 0 0 -294.52216432032435 -91.616592408745419 -6.9756271491190773 0 -6.9756271491190773 -1072.0248990378732 0 0 0 -290.91037286165465 -74.253052219079905 -6.6575066999648698 0 -6.6575066999648698 -1066.5678059609522 0 0 0 -285.20521454500783 -93.919975028489688 -24.611315752713836 0 -24.611315752713836 -1055.8417620247865 0 0 0 -287.44043426331905 -99.512774179690041 -20.393264212932763 0 -20.393264212932763 -1060.4361139936345 0 0 0 -289.98722204333126 -63.100638400118797 -19.150458434145548 0 -19.150458434145548 -1048.5585855868669 0 0 0 -277.91480599674594 -86.07198969547062 -31.441686441289676 0 -31.441686441289676 -1042.926516257442 0 0 0 -282.24962648822793 -80.51289023612685 -36.792566470710426 0 -36.792566470710426 -1040.365261831344 0 0 0 -280.21953801686755 -38.787753623540539 0.56087885755823663 0 0.56087885755823663 -1065.6144063510965 0 0 0 -276.10053999365982 -76.911480946488155 -4.0415893345279983 0 -4.0415893345279983 -1066.3407355281925 0 0 0 -285.81305411867061 -42.116752787920404 -4.7997296635189741 0 -4.7997296635189741 -1054.78823138196 0 0 0 -274.22624604246971 -68.376882689792865 -11.813969565374009 0 -11.813969565374009 -1048.6783798716406 0 0 0 -279.26381564035842 -47.773695891305579 3.7226084181578472 0 3.7226084181578472 -1061.6756360587242 0 0 0 -277.36233298750722 -25.739884013157507 -1.7217084459307443 0 -1.7217084459307443 -1051.6275270242713 0 0 0 -269.34185275935738 -11.979385773309104 5.2402874250856257 0 5.2402874250856257 -1066.5274740188297 0 0 0 -269.62671494803431 -9.9290019343284257 5.44641763322511 0 5.44641763322511 -1053.662995460325 0 0 0 -265.89799934866323 -21.419398733685057 8.4328607994257254 0 8.4328607994257254 -1071.3386469033562 0 0 0 -273.18951140926015 -29.453358839926295 13.115878466173172 0 13.115878466173172 -1082.5049220205165 0 0 0 -277.98957021511069 -15.876581896738344 9.3887967245227628 0 9.3887967245227628 -1083.377781835613 0 0 0 -274.81359093308834 -21.023165649359726 16.262467181979957 0 16.262467181979957 -1100.8703916917129 0 0 0 -280.47338933526817 -2.8602936679271806 8.5019723139412235 0 8.5019723139412235 -1087.1259582501916 0 0 0 -272.49656297952924 -1.4444492653942689 12.259780465547692 0 12.259780465547692 -1098.0123338607973 0 0 0 -274.86419578154801 -17.394237165683876 21.868059403605002 0 21.868059403605002 -1115.1406709413845 0 0 0 -283.13372702676759 -34.187034918689278 15.343162963158647 0 15.343162963158647 -1093.6798279357499 0 0 0 -281.96671571360912 14.462361059455361 6.7623769528836419 0 6.7623769528836419 -1124.9180133596637 0 0 0 -277.61391307505255 18.890346293273069 7.3161473174425282 0 7.3161473174425282 -1103.7396781761945 0 0 0 -271.21233297073013 2.6812682548079465 17.05001081901537 0 17.05001081901537 -1120.991052026769 0 0 0 -279.57744594299083 -2.7444819640040805 8.7850913682721057 0 8.7850913682721057 -1086.1618977175785 0 0 0 -272.22659492039656 12.928878476913269 3.2541488043725622 0 3.2541488043725622 -1101.4067198347111 0 0 0 -272.11946033944969 8.6943777545118337 6.9670384692699372 0 6.9670384692699372 -1106.664093056449 0 0 0 -274.49242882548447 2.1718053407439584 4.0818161122519996 0 4.0818161122519996 -1067.8967411343165 0 0 0 -266.43123394839313 -0.42390330691455347 3.6812932934981291 0 3.6812932934981291 -1079.0895393274222 0 0 0 -269.87836065858505 2.145231816935393 -1.8570196724326706 0 -1.8570196724326706 -1059.352449809784 0 0 0 -264.30180449821228 0.20742550810882676 0.13471892357847537 0 0.13471892357847537 -1035.4812858086043 0 0 0 -258.81846507512273 -7.5596250870326003 4.9143575229331873 0 4.9143575229331873 -1014.5765371914049 0 0 0 -255.53404056960881 -1.1894439952820903 -0.12529150903628761 0 -0.12529150903628761 -1045.7789536513901 0 0 0 -261.74209941166782 -7.2606463973074824 6.713761246253398 0 6.713761246253398 -1043.7439446614098 0 0 0 -262.7511477646799 -25.473356979850905 2.7777773211314525 0 2.7777773211314525 -1039.6522559458199 0 0 0 -266.28140323141724 -11.406765711767548 5.3256118264537236 0 5.3256118264537236 -1015.2246270241549 0 0 0 -256.65784818398015 -13.834060803919328 -3.9421252278906422 0 -3.9421252278906422 -1029.1702160047862 0 0 0 -260.7510692021765 -7.605127489870938 7.216466682369628 0 7.216466682369628 -1035.7360575840939 0 0 0 -260.83529626849122 -5.2061668000860664 8.1715915901345042 0 8.1715915901345042 -989.60947916284385 0 0 0 -248.70391149073203 -8.0149010372160774 -2.122706773358459 0 -2.122706773358459 -998.77644084838539 0 0 0 -251.69783547140059 -6.5382316356781303 7.9160989939719002 0 7.9160989939719002 -975.08926829959182 0 0 0 -245.40687498381703 -4.9116848141025002 0.44367779351932768 0 0.44367779351932768 -976.2179426711582 0 0 0 -245.28240687131483 1.5057754292633945 11.51784873825352 0 11.51784873825352 -960.87159200473616 0 0 0 -239.84145414386876 -1.6420288304379937 1.1926685083708435 0 1.1926685083708435 -987.0203970618586 0 0 0 -247.16560647307415 -2.9381565716903424 8.5309693130457163 0 8.5309693130457163 -990.89668972995059 0 0 0 -248.45871157541023 0.75746825861614298 3.8779978776647113 0 3.8779978776647113 -1011.6330735965346 0 0 0 -252.71890133447943 -63.322512093190198 -24.82972935274006 0 -24.82972935274006 -1032.7686209711819 0 0 0 -274.02278326609257 -55.12857189917645 -28.781182357904527 0 -28.781182357904527 -1025.2524414204363 0 0 0 -270.09525332990302 -41.109953461583586 -19.439675513717248 0 -19.439675513717248 -1014.0521013104271 0 0 0 -263.79051369300248 -35.001333887755663 -15.225732084415313 0 -15.225732084415313 -1018.8855479292561 0 0 0 -263.47172045425259 -42.218580742724043 -10.97008593716987 0 -10.97008593716987 -1031.4835472784216 0 0 0 -268.42553200528573 -38.524559896566871 -15.565921193319809 0 -15.565921193319809 -1038.5358595754851 0 0 0 -269.26510486801294 -42.202260717182526 -8.5237251538663941 0 -8.5237251538663941 -1033.1620825022565 0 0 0 -268.84108580485963 -24.593376466664608 -5.3912871397328672 0 -5.3912871397328672 -1026.3277530530429 0 0 0 -262.73028237992673 -20.486185370587009 -6.8364016875414109 0 -6.8364016875414109 -1006.4291542050196 0 0 0 -256.72883489390097 -22.442315122040327 1.0720243832483902 0 1.0720243832483902 -993.92880357116201 0 0 0 -254.09277967330081 -9.059187335857132 -7.2383546766732252 0 -7.2383546766732252 -981.74326956374171 0 0 0 -247.70061422489994 -14.994300602080784 -6.8062898019543354 0 -6.8062898019543354 -1006.5294976139057 0 0 0 -255.38094955399674 -32.207431557935706 -25.067938701491585 0 -25.067938701491585 -1001.9951998483284 0 0 0 -258.55065785156603 -34.405127625389355 -13.96547669998472 0 -13.96547669998472 -986.5813485700578 0 0 0 -255.24661904886204 -28.289301025602526 -34.076438930865152 0 -34.076438930865152 -1001.8612075115416 0 0 0 -257.53762713428614 -58.429293291497743 -41.024018578139021 0 -41.024018578139021 -1016.0524941067224 0 0 0 -268.62044684955481 -42.702954250045877 -31.444540764141152 0 -31.444540764141152 -1005.3538579407495 0 0 0 -262.01420304769863 -2.0935580813154004 -7.8181061870359372 0 -7.8181061870359372 -951.30279369444634 0 0 0 -238.34908794394045 -21.33945894153976 -21.101558783598904 0 -21.101558783598904 -974.92727186251614 0 0 0 -249.06668270101363 -34.106005786307151 -19.609714007679941 0 -19.609714007679941 -962.72572670332556 0 0 0 -249.20793312240835 -3.5188630658559532 -17.240669102427091 0 -17.240669102427091 -975.98960583960024 0 0 0 -244.87711722636402 -9.5269774525181674 -7.9244358512970621 0 -7.9244358512970621 -907.4778544718074 0 0 0 -229.25120798108173 -3.1836521617285598 1.1459624577937575 0 1.1459624577937575 -941.03678917057141 0 0 0 -236.05511033307516 -17.447000114158982 -9.5361276139176425 0 -9.5361276139176425 -949.52726701202846 0 0 0 -241.74356678154709 -6.6200290601946108 5.9338706660748812 0 5.9338706660748812 -959.53462799372028 0 0 0 -241.53866426347895 -4.2916855335517994 -4.2870187576422722 0 -4.2870187576422722 -939.09817806317369 0 0 0 -235.84746589918154 -7.4235850381032833 2.9363269303266861 0 2.9363269303266861 -900.75521447246956 0 0 0 -227.04469987764287 0.21234283439071078 4.1973125051581519 0 4.1973125051581519 -898.48508163186852 0 0 0 -224.56818469936979 -0.56601707469917528 0.45836251196169542 0 0.45836251196169542 -845.29000281363915 0 0 0 -211.46400497208379 -1.6454386299017187 0.99505102549665025 0 0.99505102549665025 -903.34420183529437 0 0 0 -226.24741011629908 -0.66408839924196994 -1.811799406035334 0 -1.811799406035334 -848.8393727263043 0 0 0 -212.37586528138644 -2.886440169234902 -3.8970655185290752 0 -3.8970655185290752 -912.9083494018987 0 0 0 -228.94869739278329 -0.96323609524006315 5.4314121540699034 0 5.4314121540699034 -926.00894934437747 0 0 0 -231.74304635990484 -2.0822345402511928 4.4871135444645915 0 4.4871135444645915 -958.50620001258358 0 0 0 -240.14710863820801 -0.093697929021345772 9.8244431689540761 0 9.8244431689540761 -957.73330281470953 0 0 0 -239.45675018593329 -3.4410348938752122 -1.5571572192970962 0 -1.5571572192970962 -954.17296818222621 0 0 0 -239.40350076902587 -2.3161353565126319 9.5444521591493867 0 9.5444521591493867 -927.88994623834787 0 0 0 -232.55152039871541 -0.27622801484994852 -3.7202717939017589 0 -3.7202717939017589 -904.9766538345666 0 0 0 -226.31322046235437 -1.1239907155750188 1.1440720845841952 0 1.1440720845841952 -855.1472491979257 0 0 0 -214.06780997837541 -4.0170793558709192 9.5600549176874665 0 9.5600549176874665 -892.18430347890489 0 0 0 -224.05034570869338 -0.49834607130242148 3.6838391089554534 0 3.6838391089554534 -854.04859086173747 0 0 0 -213.63673423326009 -1.1746477160404538 1.2002846415339263 0 1.2002846415339263 -892.83858694830815 0 0 0 -223.50330866608783 1.793720055266931 0.83276322590927521 0 0.83276322590927521 -886.97830470800454 0 0 0 -221.29614616318486 1.2488809890678567 5.2445051391159723 0 5.2445051391159723 -925.42077025609069 0 0 0 -231.04297231675537 -0.43124292944412446 5.9732322894295748 0 5.9732322894295748 -891.91089026077498 0 0 0 -223.08553329755432 -1.553309962543608 7.2111820009570238 0 7.2111820009570238 -864.11587674083967 0 0 0 -216.4172966758465 -1.1888716240464419 7.8990950660969474 0 7.8990950660969474 -906.93094015302631 0 0 0 -227.02995294426819 0.89983463967461641 2.1291772470794967 0 2.1291772470794967 -870.42029644527872 0 0 0 -217.38011545140137 -2.6608545472690821 6.9810478092924768 0 6.9810478092924768 -905.43988430123136 0 0 0 -227.02518471212534 -0.10335448233581701 2.8659467027955543 0 2.8659467027955543 -907.71358846605835 0 0 0 -226.95423573709832 2.1041677440771309 -0.49762447678676835 0 -0.49762447678676835 -919.47203328175783 0 0 0 -229.34196638442018 -2.3417739502397126 11.091858236395638 0 11.091858236395638 -932.58961832697059 0 0 0 -233.73284806930224 -0.83432841927242407 9.4494406121742713 0 9.4494406121742713 -931.75788079602899 0 0 0 -233.14805230382535 -0.66147825399093563 3.860021655291348 0 3.860021655291348 -935.04553402701276 0 0 0 -233.92675307025092 2.7038855823125232 10.315852393291607 0 10.315852393291607 -957.3835292672411 0 0 0 -238.66991092123226 -4.3121113315282855 15.454378411757716 0 15.454378411757716 -950.99072100209469 0 0 0 -238.82570808340643 -2.8737792129650188 14.68886593130685 0 14.68886593130685 -942.11857810094079 0 0 0 -236.24808932847645 -1.9345510764628671 5.5718497781208498 0 5.5718497781208498 -931.50982863961599 0 0 0 -233.36109492901869 -1.3441551642572449 11.95231776012497 0 11.95231776012497 -919.16921898578767 0 0 0 -230.12834353751123 -1.5993831867517656 3.9845143332295265 0 3.9845143332295265 -873.09972649854535 0 0 0 -218.67477742132405 -1.8209465241261569 6.1644291783873086 0 6.1644291783873086 -889.6982896794816 0 0 0 -222.87980905090171 -1.7199484132943326 -0.076960899511504977 0 -0.076960899511504977 -905.73761850913797 0 0 0 -226.86439173060762 -1.3057352095029273 7.2245654208541055 0 7.2245654208541055 -898.45793580186364 0 0 0 -224.94091775284232 -6.2386098811292641 11.14957618086919 0 11.14957618086919 -920.7729327745019 0 0 0 -231.75288566390861 0.33701436125011242 3.8497883735508367 0 3.8497883735508367 -919.7489144956271 0 0 0 -229.85297503359425 -0.76947115960138035 8.3602659040752769 0 8.3602659040752769 -915.29235796509784 0 0 0 -229.01545728117435 -0.18268707222250669 7.0054609792177871 0 7.0054609792177871 -930.15139896305845 0 0 0 -232.58352150882001 -0.9407930101351667 9.7894392403086385 0 9.7894392403086385 -942.89135827931023 0 0 0 -235.9580378223618 -1.6523448908437786 20.104458068832173 0 20.104458068832173 -954.90971935605921 0 0 0 -239.14051606172598 -11.486344028824988 23.640178894445853 0 23.640178894445853 -956.23119846092959 0 0 0 -241.92938562243899 -6.7027496042669554 17.611790540629954 0 17.611790540629954 -933.93594364609498 0 0 0 -235.15967331259117 -3.9585656010021921 24.407133191753928 0 24.407133191753928 -964.60099935900507 0 0 0 -242.13989124000182 -2.610312524137953 12.069867848389549 0 12.069867848389549 -945.51822402932885 0 0 0 -237.03213413836511 -6.4459013224866339 21.090852636989439 0 21.090852636989439 -954.83183078777074 0 0 0 -240.3194330275644 -6.5058559636659083 9.6179956572796073 0 9.6179956572796073 -948.75203299119312 0 0 0 -238.81447223871464 -13.497150153342773 17.195977641863465 0 17.195977641863465 -960.80034283987789 0 0 0 -243.57437324830516 -6.7077207536567585 12.455238186702445 0 12.455238186702445 -980.12560742789174 0 0 0 -246.70833204538758 -16.075245216910844 15.794348570667353 0 15.794348570667353 -984.27896691529531 0 0 0 -250.08855303305154 -9.4688557701092577 22.28902934781172 0 22.28902934781172 -975.66761296978439 0 0 0 -246.28411718497227 -9.2001087050548449 29.459408694173817 0 29.459408694173817 -976.70861116208471 0 0 0 -246.47717996678512 -11.867687683739405 27.481303284253954 0 27.481303284253954 -962.41772723662689 0 0 0 -243.57135373009032 -17.441604240656034 17.98702608086478 0 17.98702608086478 -980.84005453876398 0 0 0 -249.57041469485512 -13.052321360104997 27.536317100173619 0 27.536317100173619 -979.00300531701396 0 0 0 -248.01383166927872 -17.315445865476249 30.938372971275783 0 30.938372971275783 -985.23469649351682 0 0 0 -250.63753558974804 -28.362199012110977 28.532746125675658 0 28.532746125675658 -989.71158505284802 0 0 0 -254.51844601623907 -19.412185428353951 20.386191299749498 0 20.386191299749498 -1001.8810544875232 0 0 0 -255.32330997897043 -40.079691930339294 15.776592863808219 0 15.776592863808219 -1008.4730813793748 0 0 0 -262.13819332742878 -33.30900481937303 30.479335338288365 0 30.479335338288365 -1003.6338043715491 0 0 0 -259.23570229772986 -25.128781705067013 25.449977511119869 0 25.449977511119869 -1012.5195901817278 0 0 0 -259.41209297169917 -18.964932083263193 9.0281283792870681 0 9.0281283792870681 -1001.1959361294175 0 0 0 -255.04021705317064 -20.677287126841748 23.5506833533791 0 23.5506833533791 -990.54484593613506 0 0 0 -252.80553326574363 -19.972649834414824 12.425839994283706 0 12.425839994283706 -1006.0381584356646 0 0 0 -256.50270206751929 -37.483436278688714 1.1091613481248714 0 1.1091613481248714 -1024.8753993373448 0 0 0 -265.58970890400724 -17.97767971725807 -0.67956234114035396 0 -0.67956234114035396 -1023.9473980349794 0 0 0 -260.48126943805983 -14.799499610370731 3.662931731374556 0 3.662931731374556 -1028.6933881415825 0 0 0 -260.87322193798718 -10.769020218884634 8.7222660056240784 0 8.7222660056240784 -1004.6854574112422 0 0 0 -253.86361940753113 -9.1305393340721821 -1.9759344892290756 0 -1.9759344892290756 -1014.5307384551406 0 0 0 -255.91531944730332 -10.180838818119355 -5.2866940382036773 0 -5.2866940382036773 -1045.8799985012029 0 0 0 -264.01520932983158 -4.5054496497632499 5.2090515844874972 0 5.2090515844874972 -1023.984587843278 0 0 0 -257.12250937326007 -3.9785532625260203 -2.1187250396633317 0 -2.1187250396633317 -1044.7130023334157 0 0 0 -262.172888898986 -0.22070328218279656 3.5012624018418137 0 3.5012624018418137 -1016.0128289437127 0 0 0 -254.0583830564745 -1.4452343676384771 5.0102217056407881 0 5.0102217056407881 -1016.7425750612219 0 0 0 -254.54695235721465 -2.6696913229097845 8.6184352520160701 0 8.6184352520160701 -1002.2868734453041 0 0 0 -251.23914119205256 -5.932574732032208 2.9358657128400409 0 2.9358657128400409 -991.88629734683855 0 0 0 -249.4547180197178 0.55262359284006379 12.705208839572357 0 12.705208839572357 -980.10969243599902 0 0 0 -244.88926721078951 -7.8136779604216144 3.9231211583091863 0 3.9231211583091863 -962.51212667349046 0 0 0 -242.58145115847822 0.19428004953351774 10.474762162187744 0 10.474762162187744 -978.97603309263468 0 0 0 -244.69543826077552 -7.0297629923707063 7.9409392270422359 0 7.9409392270422359 -958.34489514369898 0 0 0 -241.34366453401753 -8.0929333637004675 17.512081084152214 0 17.512081084152214 -963.03105488408619 0 0 0 -242.78099706194689 -6.9510875365922402 4.5898500167822931 0 4.5898500167822931 -999.92811684145454 0 0 0 -251.71980109451215 -11.137565312903121 8.9579877301712258 0 8.9579877301712258 -981.9869824991456 0 0 0 -248.28113695301147 27.070751579607702 9.7596803061705941 0 9.7596803061705941 -995.19142003882052 0 0 0 -242.03016711480342 11.744233356797849 15.354042925002886 0 15.354042925002886 -989.49749277755473 0 0 0 -244.43831485518967 8.3115304841176112 6.0575242241811793 0 6.0575242241811793 -995.98127772506996 0 0 0 -246.91743681023854 9.4046113611817077 7.2287782977082315 0 7.2287782977082315 -1001.4286863457548 0 0 0 -248.00601874614352 1.125177424802132 1.1669454540315201 0 1.1669454540315201 -999.18236910133419 0 0 0 -249.51429791913233 1.1746486368574551 1.1064887809510136 0 1.1064887809510136 -998.99345284185983 0 0 0 -249.45470105125059 1.0550413142273101 1.1205358360266473 0 1.1205358360266473 -998.78562964669254 0 0 0 -249.43264708311563 1.0193990359157397 1.172341298961328 0 1.172341298961328 -998.96044507452461 0 0 0 -249.48526150965426 3.6847205790672888 7.0750609520596015 0 7.0750609520596015 -989.26902723086096 0 0 0 -246.39607666294705 4.7846265161754218 13.652183076008441 0 13.652183076008441 -991.83693193808722 0 0 0 -246.76307635547869 -1.204598732233535 5.5721383615855302 0 5.5721383615855302 -991.1990115234621 0 0 0 -248.10090256392323 4.6295474802282115 9.2508667499170087 0 9.2508667499170087 -974.59002246470482 0 0 0 -242.49011874611915 6.2781868918737018 16.851085616635146 0 16.851085616635146 -975.39937509798256 0 0 0 -242.28029705152767 4.27560126287608 25.628079275119489 0 25.628079275119489 -983.80106400584373 0 0 0 -244.88136568574282 9.9600174810543649 20.342481101425619 0 20.342481101425619 -995.82082457220895 0 0 0 -246.46520177278808 29.130516807142158 22.91972477822128 0 22.91972477822128 -989.56728368735639 0 0 0 -240.10919172005288 4.3580699843932962 31.65424840399919 0 31.65424840399919 -990.20645205005167 0 0 0 -246.46209551641368 16.819473920892051 26.758901215218884 0 26.758901215218884 -981.77294969061768 0 0 0 -241.23836894243141 6.6139248554858341 31.873942684858775 0 31.873942684858775 -978.58353477668948 0 0 0 -242.99240248030094 3.3356989599597 27.676303328610175 0 27.676303328610175 -966.84682415077987 0 0 0 -240.87778129770504 2.0728195651655597 28.052775986654524 0 28.052775986654524 -980.6000517279324 0 0 0 -244.63180804069168 5.3069660484516135 12.892758349477276 0 12.892758349477276 -958.46877640215098 0 0 0 -238.29045258842507 -2.3745839675511888 12.863069782935781 0 12.863069782935781 -981.91468095357959 0 0 0 -246.07231623028201 -1.3174653807027426 11.088551073453345 0 11.088551073453345 -957.26101662280053 0 0 0 -239.64462050087423 -1.7282686848861886 20.739319194275595 0 20.739319194275595 -974.2087435634603 0 0 0 -243.98425306208674 2.4272033591541913 19.629901106682155 0 19.629901106682155 -950.28325084730932 0 0 0 -236.96401187203992 0.4382057090251692 10.019106403201476 0 10.019106403201476 -954.27848078427269 0 0 0 -238.46006876881256 -0.62767493239291849 10.023278901488993 0 10.023278901488993 -933.31855616919495 0 0 0 -233.48655777539582 -3.1404643150631273 18.914711461875413 0 18.914711461875413 -940.74008420000382 0 0 0 -235.97013712876696 -3.8374855980973734 23.644086203250481 0 23.644086203250481 -964.97820906895868 0 0 0 -242.20392366676333 -5.5434978663611219 32.952924907377565 0 32.952924907377565 -976.81019123607621 0 0 0 -245.58842227561081 -1.4232303463160179 28.289324087514615 0 28.289324087514615 -961.98359341599235 0 0 0 -240.85170594057774 -6.8740981416394789 32.21825908762051 0 32.21825908762051 -974.29874788556845 0 0 0 -245.29321150680062 -13.627408386102275 34.873040371659044 0 34.873040371659044 -975.57124661096896 0 0 0 -247.29966374926846 -2.8632878496755438 36.907006088112212 0 36.907006088112212 -985.21530711726336 0 0 0 -247.01964874173518 -13.424957493619331 33.17535024218796 0 33.17535024218796 -997.09902829344355 0 0 0 -252.63099644676549 -7.6451258528734343 35.931895660627561 0 35.931895660627561 -1001.397101651633 0 0 0 -252.26055687612666 -2.873542354644087 40.395121837628722 0 40.395121837628722 -997.90565871213948 0 0 0 -250.19480026669589 -17.106347395080775 36.811232881921569 0 36.811232881921569 -989.89677665051931 0 0 0 -251.75078101139934 -1.8058034988712279 41.817646828516445 0 41.817646828516445 -994.27708004036322 0 0 0 -249.02072088480872 -6.0655026816752979 43.788072162509707 0 43.788072162509707 -1005.475428649177 0 0 0 -252.88523283271252 13.781916279453981 38.43922292526986 0 38.43922292526986 -996.26951915448444 0 0 0 -245.6219007187583 9.2807480799765472 39.100994507179166 0 39.100994507179166 -989.18584511675908 0 0 0 -244.97627425919654 10.468226987975868 36.176069721836257 0 36.176069721836257 -991.5441158830472 0 0 0 -245.26897222376647 -4.8795241462257763 38.175610047007922 0 38.175610047007922 -983.18359095978849 0 0 0 -247.0157787765047 4.1071327115068925 33.485947130836394 0 33.485947130836394 -978.90189523254594 0 0 0 -243.69869063025999 17.872943323521213 32.913288368354188 0 32.913288368354188 -986.44254236758934 0 0 0 -242.14239976101589 11.730516083431212 28.571334902549097 0 28.571334902549097 -999.12981457177739 0 0 0 -246.84982462208609 30.944884922791061 30.255014479421789 0 30.255014479421789 -993.57449381488914 0 0 0 -240.65740222302247 18.52510257256472 37.61399121699651 0 37.61399121699651 -1000.1280890399685 0 0 0 -245.40074661685048 34.166524763908455 34.319894262693197 0 34.319894262693197 -994.64719537580095 0 0 0 -240.12016765297176 14.677016009153704 42.640175990127545 0 42.640175990127545 -1003.8966263708826 0 0 0 -247.30490259043199 30.628605944841183 32.915894258795561 0 32.915894258795561 -1003.9702391817809 0 0 0 -243.3354083092363 55.648241890774443 25.627831827695445 0 25.627831827695445 -993.3834146494155 0 0 0 -234.43379318966072 67.132468287749816 26.636653084217869 0 26.636653084217869 -1001.8222010372237 0 0 0 -233.67243318736791 80.435348837306265 14.788737205198231 0 14.788737205198231 -999.85276973205328 0 0 0 -229.85435522368698 49.052885504432197 13.512306036644077 0 13.512306036644077 -999.29635122967011 0 0 0 -237.56086643130857 48.820762487776847 13.876808217179132 0 13.876808217179132 -999.75430087847417 0 0 0 -237.73338459767365 24.899627164862068 25.93021534964646 0 25.93021534964646 -1000.4885380746782 0 0 0 -243.89722772745336 45.175272999731533 15.140584571647196 0 15.140584571647196 -992.79233873451085 0 0 0 -236.90426643369483 16.923170199257584 14.096144187667051 0 14.096144187667051 -1001.941333624125 0 0 0 -246.2545408562155 98.699757518391834 6.367583617911805 0 6.367583617911805 -1004.6853338194851 0 0 0 -226.49639407527366 146.89512886182274 -5.0990886242525448 0 -5.0990886242525448 -1004.1275926438502 0 0 0 -214.30811594550687 89.195468499025083 15.80480085156978 0 15.80480085156978 -1014.7481958743847 0 0 0 -231.38818184383945 84.076643134073265 -5.3999939913483104 0 -5.3999939913483104 -1011.0768672842364 0 0 0 -231.75005603754039 131.64095936229933 7.4469025139460427 0 7.4469025139460427 -1005.0482572645997 0 0 0 -218.35182447557509 106.71226697019847 12.506068727536869 0 12.506068727536869 -1001.9148841950155 0 0 0 -223.80065430620562 63.175276491544992 14.701562834505239 0 14.701562834505239 -1001.5178495312321 0 0 0 -234.58564325992165 83.400180015536534 10.153140590768999 0 10.153140590768999 -1001.3395002965535 0 0 0 -229.48483007025334 74.993968886665243 25.205774661324995 0 25.205774661324995 -1014.8258352399862 0 0 0 -234.95796658832933 39.60630621333712 32.939134817128433 0 32.939134817128433 -1014.8741933305137 0 0 0 -243.81697177929345 42.194966596341601 29.605753723466478 0 29.605753723466478 -1003.2312151942078 0 0 0 -240.25906214946781 24.40999247595164 34.458160042533564 0 34.458160042533564 -998.47948944804784 0 0 0 -243.51737424302382 45.113414893485242 25.168548848535011 0 25.168548848535011 -1027.3363861555517 0 0 0 -245.55574281551708 62.461211257522336 12.919158180176964 0 12.919158180176964 -1007.7841370364595 0 0 0 -236.33073144473383 56.674977846780905 -1.0455465802424442 0 -1.0455465802424442 -1025.5117418337554 0 0 0 -242.20919099674319 24.749084524662067 17.287379495886853 0 17.287379495886853 -1035.8730704735226 0 0 0 -252.78099648721491 13.934748224005034 21.337983022291155 0 21.337983022291155 -1070.3512775626623 0 0 0 -264.10413233466488 -12.220082046535936 36.587110411722279 0 36.587110411722279 -1036.1370661066539 0 0 0 -262.08928703829861 35.255430687849184 18.372375680471578 0 18.372375680471578 -1040.0570546587187 0 0 0 -251.2004059927167 14.37845659306322 35.020366719877529 0 35.020366719877529 -1020.7191835006652 0 0 0 -251.58518172689992 30.315720663466891 38.131407031869458 0 38.131407031869458 -1019.6358082661791 0 0 0 -247.33002190067873 9.844241261019306 42.285696702022506 0 42.285696702022506 -1009.67573641747 0 0 0 -249.95787378911336 6.6176698144709007 37.679280572825519 0 37.679280572825519 -1012.9540133515839 0 0 0 -251.58408588427938 -10.024373821838708 43.186081617413947 0 43.186081617413947 -1019.5944747827089 0 0 0 -257.40471215113666 10.207920883956831 31.947541079965617 0 31.947541079965617 -1031.554462407239 0 0 0 -255.33663538081964 -12.375866775319992 33.301578968460831 0 33.301578968460831 -1021.6734527697554 0 0 0 -258.51232988626816 -31.93900567829678 38.744768728551207 0 38.744768728551207 -1027.8543864488038 0 0 0 -264.94834803177673 -21.08761053381204 41.630676264647263 0 41.630676264647263 -1010.786107661319 0 0 0 -257.9684295487823 -39.175668296701588 34.60697104789233 0 34.60697104789233 -1019.3648173871679 0 0 0 -264.63512142096533 -22.520315422008935 30.031319814453298 0 30.031319814453298 -1012.1230303264711 0 0 0 -258.66083643711863 -34.663729677543415 24.990352352831536 0 24.990352352831536 -1035.263305899789 0 0 0 -267.48175889433242 -56.922803329554881 33.113551468748483 0 33.113551468748483 -1047.1080201140448 0 0 0 -276.00770586090039 -18.176254851401609 27.385701603486268 0 27.385701603486268 -1052.3725575619446 0 0 0 -267.63720310333611 -40.468943947628759 31.87962699997388 0 31.87962699997388 -1057.1719810812992 0 0 0 -274.41023125723041 -41.616365754568506 19.091913371797091 0 19.091913371797091 -1072.169618583237 0 0 0 -278.44649608445161 -62.615266004307159 6.2349413884312526 0 6.2349413884312526 -1117.4033199125297 0 0 0 -295.00464647920853 -82.6657198864159 32.89943880939245 0 32.89943880939245 -1095.2109987287022 0 0 0 -294.46917965377997 8.8107052086361364 2.2945935633915724 0 2.2945935633915724 -1077.6133916485778 0 0 0 -267.20067160998587 -6.9996524418620538 32.719815591142833 0 32.719815591142833 -1095.7950046375699 0 0 0 -275.69866426985755 -46.515994360159311 34.315414287085332 0 34.315414287085332 -1170.5746330196744 0 0 0 -304.27265684495796 -50.663114972806397 17.197906702586806 0 17.197906702586806 -1292.5210698846131 0 0 0 -335.79604621435556 50.127580629784688 -78.173906159177022 0 -78.173906159177022 -1207.6736346990228 0 0 0 -289.38651351730982 -6.5281012658742839 -104.56304915206465 0 -104.56304915206465 -1213.5197910543138 0 0 0 -305.01197308004521 19.432746027860048 -89.671903982067306 0 -89.671903982067306 -1118.8835263727306 0 0 0 -274.86269508621808 22.548496061272999 -24.725110915502228 0 -24.725110915502228 -1122.2188440017999 0 0 0 -274.91758698513149 21.180979790780952 -23.208514039606598 0 -23.208514039606598 -1150.8979689489674 0 0 0 -282.42924728954665 35.992948019159485 -87.096426543451344 0 -87.096426543451344 -1143.9651780652339 0 0 0 -276.9930575115186 56.445009928647778 -94.607503251496382 0 -94.607503251496382 -1028.312896059444 0 0 0 -242.96697153269815 24.676879380626815 -72.12437633130412 0 -72.12437633130412 -1102.6392744338746 0 0 0 -269.49059876331285 51.558732057761517 -32.393816270831451 0 -32.393816270831451 -1049.2183010255394 0 0 0 -249.41489224194629 42.853030869693328 -26.941351989546092 0 -26.941351989546092 -1063.3302766694696 0 0 0 -255.11931144994406 20.173474869568963 -17.672642347699366 0 -17.672642347699366 -1140.0578166863706 0 0 0 -279.97108545420087 35.850972952289339 10.242274105656179 0 10.242274105656179 -1069.8108569032811 0 0 0 -258.48997098774817 65.983667827853424 4.4943463042709482 0 4.4943463042709482 -1028.17587399693 0 0 0 -240.5480515422696 62.740834044522671 -24.887548331018479 0 -24.887548331018479 -1031.3276698229347 0 0 0 -242.14670894460323 54.304788544590338 -20.165271587737152 0 -20.165271587737152 -1041.2754913100434 0 0 0 -246.74267569136282 46.345514431309198 -54.730996456926732 0 -54.730996456926732 -1051.5723659328951 0 0 0 -251.30671287539656 51.059356188380661 -62.480209981330518 0 -62.480209981330518 -1025.7747931810627 0 0 0 -243.67885924817074 32.116768271917067 -57.141563010867685 0 -57.141563010867685 -1020.1182552466084 0 0 0 -247.00037174367378 44.317602937427182 -65.023248518620221 0 -65.023248518620221 -1030.1012677867147 0 0 0 -246.44591621232121 65.820278725957905 -41.268568966047042 0 -41.268568966047042 -1006.2143108384371 0 0 0 -235.0985080281207 70.459557060916268 -37.606820130695269 0 -37.606820130695269 -1025.1035453508557 0 0 0 -238.66099707248395 59.759517666239844 -29.908948668738049 0 -29.908948668738049 -997.89600660596807 0 0 0 -234.5341222349316 90.657077944422781 -24.555499005020465 0 -24.555499005020465 -1011.5381642447173 0 0 0 -230.22027157507546 89.583695100134719 -16.470962422492448 0 -16.470962422492448 -1000.4333633040605 0 0 0 -227.71241705098055 137.1768634478185 -9.6419935556295968 0 -9.6419935556295968 -1008.3258044108788 0 0 0 -217.78723524076395 94.692074330538162 -16.440088195929093 0 -16.440088195929093 -1006.3120808349122 0 0 0 -227.90500162609351 85.830409000252303 -11.429669723720508 0 -11.429669723720508 -1010.7699610715649 0 0 0 -231.23488801782764 106.51647738519205 6.9304060660924733 0 6.9304060660924733 -1006.3815114507379 0 0 0 -224.96625851638601 -13.219992317497599 -24.358462287460497 0 -24.358462287460497 -1093.5890068664139 0 0 0 -276.70224979597697 -22.455943702272634 -31.144599649332804 0 -31.144599649332804 -1107.383799933541 0 0 0 -282.4599359089525 -16.117030719423553 -33.44646939163249 0 -33.44646939163249 -1105.1185606396461 0 0 0 -280.30889783976744 -0.099251394372913637 -21.759919146808897 0 -21.759919146808897 -1124.9786871931592 0 0 0 -281.26948464688394 16.16786395401823 -7.8248310695057626 0 -7.8248310695057626 -1129.8699549101257 0 0 0 -278.4255227390272 14.538621678089839 -13.037074675613439 0 -13.037074675613439 -1096.5407328464353 0 0 0 -270.50052779208636 27.228568460078122 -1.1492371862004802 0 -1.1492371862004802 -1105.1181411228235 0 0 0 -269.47239316568653 -5.0934326673337296 -15.114219823723943 0 -15.114219823723943 -1103.1584871688844 0 0 0 -277.06297995905476 9.3768951209121951 -4.0893438636021529 0 -4.0893438636021529 -1071.8381733764581 0 0 0 -265.61531956388626 5.2833010749041023 -4.1696192147783222 0 -4.1696192147783222 -1094.1457112472699 0 0 0 -272.21560254309179 1.9105284427832885 2.4935908653840215 0 2.4935908653840215 -1045.7185280486428 0 0 0 -260.95199990146511 -3.8162511642613026 -8.6668215999384302 0 -8.6668215999384302 -1074.3078655755617 0 0 0 -269.53102918495551 -5.0005269080220387 -5.0693409717327995 0 -5.0693409717327995 -1044.7087032516574 0 0 0 -262.42730753991964 0.27367942455475713 -12.167301117810894 0 -12.167301117810894 -1076.540906825192 0 0 0 -269.06680685015908 -19.670418804766086 -17.090829734491308 0 -17.090829734491308 -1071.1000518958535 0 0 0 -272.69261767515536 -22.078901237972786 -6.4227045118414026 0 -6.4227045118414026 -1044.0093535296346 0 0 0 -266.52206369190299 -19.463505444043676 -5.1578737394047494 0 -5.1578737394047494 -1044.0004920650754 0 0 0 -265.86599937727942 -26.422647231564952 11.814246987662273 0 11.814246987662273 -1020.526717356981 0 0 0 -261.73734114713534 -39.035456789003547 1.5982356698013973 0 1.5982356698013973 -1044.3845020094814 0 0 0 -270.854989699621 -51.056956581504892 -0.13028947999555385 0 -0.13028947999555385 -1036.1101398737392 0 0 0 -271.7917741138117 -41.502877188920138 -18.098854185567689 0 -18.098854185567689 -1069.4088501834631 0 0 0 -277.72793184309558 -42.445604914975547 17.824627269545999 0 17.824627269545999 -1021.7369314164571 0 0 0 -266.04563408285935 -45.696103822841906 21.154470706188476 0 21.154470706188476 -1031.1387042471251 0 0 0 -269.2087020174904 -63.047667109099848 6.4589831151361068 0 6.4589831151361068 -1049.9282997421851 0 0 0 -278.24399171282016 -66.291499428323732 10.878160118779761 0 10.878160118779761 -1067.7786426556995 0 0 0 -283.51753552100581 -89.711820999297061 -10.280135057128973 0 -10.280135057128973 -1089.1622019743263 0 0 0 -294.71850574340647 -42.858237817770942 -19.798450298492753 0 -19.798450298492753 -1069.0812438288272 0 0 0 -277.98487041164958 -79.181570447134618 -14.027088815101479 0 -14.027088815101479 -1065.1340624781478 0 0 0 -286.07890823132038 -50.880027296933804 -24.45420077598601 0 -24.45420077598601 -1088.0298075037226 0 0 0 -284.72745870016388 -72.742841451310142 -31.062082841263873 0 -31.062082841263873 -1092.3093614508193 0 0 0 -291.26305072553214 -46.551467203688844 -52.717090751104479 0 -52.717090751104479 -1154.082113326589 0 0 0 -300.15839513256924 -126.85816667694689 -56.293942561402218 0 -56.293942561402218 -1139.4031982276283 0 0 0 -316.56534122614448 -68.908051335546588 -58.670082911701684 0 -58.670082911701684 -1208.6909899769707 0 0 0 -319.39976032812865 -19.581550612287003 -53.737957342273148 0 -53.737957342273148 -1212.7968383627951 0 0 0 -308.09459724377012 -42.1794766241037 -42.115777723420024 0 -42.115777723420024 -1152.9020280034274 0 0 0 -298.77037615688278 -122.39472974010414 6.5208976082421941 0 6.5208976082421941 -1122.7858856121638 0 0 0 -311.29515383806711 -116.3013742324697 -15.041287672565886 0 -15.041287672565886 -1173.3025461385187 0 0 0 -322.40098009274743 -124.87669976694542 30.642058579729564 0 30.642058579729564 -1160.2228918647543 0 0 0 -321.27489790792515 -278.24345398636979 19.819358385792839 0 19.819358385792839 -1239.9366669541378 0 0 0 -379.54503023512734 -112.23428664418407 11.007261456631568 0 11.007261456631568 -1563.037124032855 0 0 0 -418.81785266925908 -260.56772352424559 -186.29142177756785 0 -186.29142177756785 -1409.2376649819489 0 0 0 -417.45134712654908 -50.664002698952572 -83.977509604780153 0 -83.977509604780153 -1353.3257608159329 0 0 0 -350.99744087872023 48.540797785751238 -22.564469172708414 0 -22.564469172708414 -1197.1442202883882 0 0 0 -287.15085562565946 -27.151592152102467 -62.329883440589583 0 -62.329883440589583 -1196.5214107299607 0 0 0 -305.91825072051529 56.051750817332504 109.89054175242563 0 109.89054175242563 -1425.614327820228 0 0 0 -342.39064425072411 110.42583161923176 129.50698436639368 0 129.50698436639368 -1032.7374951556703 0 0 0 -230.57791588410873 26.819547909425182 83.621452251027222 0 83.621452251027222 -1207.9325870539028 0 0 0 -295.27825978611918 39.553769137513314 -0.33033206657091796 0 -0.33033206657091796 -1181.1555765871899 0 0 0 -285.40045186241935 29.14933795242996 -20.571389709293726 0 -20.571389709293726 -1136.2412052636137 0 0 0 -276.77296682779615 25.101753950913917 -7.7241530062019592 0 -7.7241530062019592 -1196.0349769585973 0 0 0 -292.73330575192085 55.355549544742644 12.372045696755777 0 12.372045696755777 -1129.6850932537236 0 0 0 -268.5823859272441 17.927907106293333 -13.763026515566708 0 -13.763026515566708 -1167.2640548666805 0 0 0 -287.33403694009621 19.557302133590838 -18.656531262467979 0 -18.656531262467979 -1117.8548769188656 0 0 0 -274.57439369631948 -5.4898799459670045 -38.350805270357114 0 -38.350805270357114 -1160.0297700507472 0 0 0 -291.37991249917832 39.357562312117466 -2.1735869126905527 0 -2.1735869126905527 -1119.8236484405716 0 0 0 -270.11652153211332 27.764311680087303 3.7770303895438246 0 3.7770303895438246 -1126.5709353733073 0 0 0 -274.70165592330432 -2.5469872287817452 56.095463918418773 0 56.095463918418773 -1109.8253393569103 0 0 0 -278.09308164642334 22.839542622712543 18.119858783972745 0 18.119858783972745 -1088.4398673209507 0 0 0 -266.40008117456 32.914987073123825 17.621131419674384 0 17.621131419674384 -1118.4338487951441 0 0 0 -271.37971543050537 34.101903213243531 20.165135985663255 0 20.165135985663255 -1122.9980756203367 0 0 0 -272.22404310177353 -16.562770235573453 31.664354953893962 0 31.664354953893962 -1084.4019575634838 0 0 0 -275.24118194976404 25.530316237637635 52.362183183743582 0 52.362183183743582 -983.24942108655705 0 0 0 -239.42977621222963 -42.312302761242236 52.06704505678681 0 52.06704505678681 -1005.8552897284674 0 0 0 -262.04189812242782 -2.8529162677077693 58.095135836069858 0 58.095135836069858 -884.67219003320315 0 0 0 -221.88127657522728 -11.143858227042074 26.298955818161858 0 26.298955818161858 -914.44225871119852 0 0 0 -231.39652923455924 -44.46314214005173 19.505689462988812 0 19.505689462988812 -926.27161220473397 0 0 0 -242.68368858619664 -34.271630180587636 18.355626019087381 0 18.355626019087381 -895.75125173813467 0 0 0 -232.50572047968035 -41.809005815709497 12.860229111830904 0 12.860229111830904 -898.93764856387315 0 0 0 -235.18666359489544 33.20675187206416 -43.437654946510747 0 -43.437654946510747 -858.33618979094899 0 0 0 -206.28235947972189 4.6866199388787209 -19.207592156293686 0 -19.207592156293686 -742.71923563633209 0 0 0 -184.5081539243638 -55.88038346909434 13.904023115934706 0 13.904023115934706 -880.68861788386857 0 0 0 -234.14225033824096 -92.258839593662287 74.49732020886313 0 74.49732020886313 -895.98539549455381 0 0 0 -247.06105877205346 54.43527884400828 87.636184770921773 0 87.636184770921773 -992.2877969371475 0 0 0 -234.46312952328481 16.972754593931313 100.49238160652567 0 100.49238160652567 -848.97063941452507 0 0 0 -207.99947120514935 -36.601783938366225 87.421617456578588 0 87.421617456578588 -1013.568065791369 0 0 0 -262.54246243243369 -8.7211917753097623 150.48897268927612 0 150.48897268927612 -1048.4901356097307 0 0 0 -264.30283184625978 238.13773729060267 242.78569492342831 0 242.78569492342831 -1065.0625666091946 0 0 0 -206.73120732964708 28.708342400816491 167.02799730799416 0 167.02799730799416 -946.12888209481753 0 0 0 -229.35513492349992 25.325986438192558 128.94540780121702 0 128.94540780121702 -1874.239825161123 0 0 0 -462.22845968073307 117.96667633451489 62.824302142863417 0 62.824302142863417 -18.370312658718831 0 0 0 24.899090918948787 -159.87304354128855 196.44956227025432 0 196.44956227025432 -872.38956660580516 0 0 0 -258.06565253677354 -134.79175598236543 -342.40188621184279 0 -342.40188621184279 -1405.5566341144258 0 0 0 -385.08709752419691 92.145955930618584 480.25050481591825 0 480.25050481591825 -989.12436035818428 0 0 0 -224.24460110689233 -0.19472722644550133 -0.016840664339716108 0 -0.016840664339716108 -0.59273325087609408 0 0 0 -0.19686511933039896 -81.248209538432093 -498.57851570574201 0 -498.57851570574201 -492.44670351414607 0 0 0 -143.42372826314477 -61.653077992642466 0.12224602631886228 0 0.12224602631886228 -789.9926384106584 0 0 0 -212.91142910082363 -0.39307643878481446 -0.039187748765126179 0 -0.039187748765126179 -1.1971588133189139 0 0 0 -0.39755881302593221 425.12914601358989 -163.37869523172049 0 -163.37869523172049 -620.66527159445468 0 0 0 -48.884031395215061 344.59489915609095 177.32704761688819 0 177.32704761688819 -504.28207584295728 0 0 0 -39.921794171715987 -0.39437652916387878 -0.042892212585871142 0 -0.042892212585871142 -1.1975921769266762 0 0 0 -0.39799217652263885 189.92028695979388 -60.312370453099902 0 -60.312370453099902 -848.01358499855269 0 0 0 -164.52332450969016 89.875049943146223 63.698042257786256 0 63.698042257786256 -729.60496757006331 0 0 0 -159.93247940673064 33.596306576234383 18.834728469861147 0 18.834728469861147 -520.5555471052885 0 0 0 -121.7398101322633 118.77347293031744 -53.638229813299404 0 -53.638229813299404 -805.76930362877465 0 0 0 -171.74895767461385 137.18686872465605 -93.961453100216772 0 -93.961453100216772 -768.22020365536446 0 0 0 -157.75833373267778 38.404043783373709 -49.817599758593133 0 -49.817599758593133 -847.01811875387284 0 0 0 -202.15351874262433 105.07383887240758 -67.433989383482185 0 -67.433989383482185 -860.05315799870277 0 0 0 -188.74482978157357 106.38225342617807 -19.305939080308008 0 -19.305939080308008 -926.79324097383869 0 0 0 -205.10274688691516 102.0495455761793 -13.985642449039915 0 -13.985642449039915 -916.14568230395889 0 0 0 -203.52403418194535 46.26040161036417 -38.216972027252268 0 -38.216972027252268 -910.49057856748186 0 0 0 -216.05754423928011 119.11913010281387 52.559738551105397 0 52.559738551105397 -861.79456009214482 0 0 0 -185.66885749733228 90.444623546534785 21.857707557930553 0 21.857707557930553 -932.50811219955358 0 0 0 -210.51587216325515 220.37279877941546 69.691350277522361 0 69.691350277522361 -850.70427454393212 0 0 0 -157.58286894113007 -0.39510264683019236 -0.040440314243489262 0 -0.040440314243489262 -1.1978342162053339 0 0 0 -0.39823421575888118 122.90532275138867 13.25705872421986 0 13.25705872421986 -916.87379025161681 0 0 0 -198.49211687505704 106.64688125643806 8.2973374519833669 0 8.2973374519833669 -917.18330514563422 0 0 0 -202.63410597229813 57.909909980998236 18.435505696153996 0 18.435505696153996 -928.15582008240381 0 0 0 -217.56147752535162 90.446770597522118 31.72667735628669 0 31.72667735628669 -954.76585567971051 0 0 0 -216.07977127054801 59.972300803885446 -26.309189207221181 0 -26.309189207221181 -952.1709124336594 0 0 0 -223.0496529074444 -0.39528723422215717 -0.037923153997014847 0 -0.037923153997014847 -1.1978957453501859 0 0 0 -0.39829574489308595 65.427043097158275 12.109419695889301 0 12.109419695889301 -990.26738228255454 0 0 0 -231.2100847963502 65.344743929311335 -34.544042831525985 0 -34.544042831525985 -939.75865613853603 0 0 0 -218.60347805230595 43.590649807073532 -42.019995292198473 0 -42.019995292198473 -911.38904458373145 0 0 0 -216.9495986941638 60.894121228042422 -13.42664841811802 0 -13.42664841811802 -914.91024768531133 0 0 0 -213.50403161431586 35.892189906166095 -22.207638057439908 0 -22.207638057439908 -957.18999554676429 0 0 0 -230.32445141014978 52.03238633399269 -24.392638808973061 0 -24.392638808973061 -961.26706342985381 0 0 0 -227.30866927396528 37.0588777298899 -37.517214843391685 0 -37.517214843391685 -934.68407513291095 0 0 0 -224.40629935075503 18.528498360311914 -26.821302617915535 0 -26.821302617915535 -954.98879505725563 0 0 0 -234.11507417423718 32.23127886317917 -35.895929099714522 0 -35.895929099714522 -935.92462977298055 0 0 0 -225.92333772745013 11.880000892786484 -43.370652577240435 0 -43.370652577240435 -891.47430638648257 0 0 0 -219.89857637342448 8.017618753784518 -39.484193026659341 0 -39.484193026659341 -899.07653925492923 0 0 0 -222.7647301252855 1.1012444284424419 -31.844234950289319 0 -31.844234950289319 -925.31176364747853 0 0 0 -231.05262980475936 -12.762198094668747 -23.326505028715474 0 -23.326505028715474 -950.05837541325673 0 0 0 -240.70514337698205 -14.182628348719845 -20.893541539642229 0 -20.893541539642229 -916.2216378836838 0 0 0 -232.60106655809977 -21.142935550645859 -24.005099558522488 0 -24.005099558522488 -933.70040097566243 0 0 0 -238.7108341315772 -40.665807053519529 -14.52290316905146 0 -14.52290316905146 -904.14252867214236 0 0 0 -236.20208393141638 -34.767468979436671 -6.8220727422990421 0 -6.8220727422990421 -906.79692404901107 0 0 0 -235.39109825711148 -38.273818642509468 -7.7651402750016132 0 -7.7651402750016132 -904.83731523176175 0 0 0 -235.77778346856758 -37.063655217198402 -3.3531262973783669 0 -3.3531262973783669 -893.65772791612062 0 0 0 -232.68034578333004 2.1576402307201761 -39.211232456244034 0 -39.211232456244034 -835.91717500840878 0 0 0 -208.43988369442229 32.679164460420225 -52.536468679098107 0 -52.536468679098107 -851.69464520062957 0 0 0 -204.75387018505239 2.6092708624273655 -34.468256960069539 0 -34.468256960069539 -901.5484289507549 0 0 0 -224.73478952208188 -23.936066918613506 -24.043820296323247 0 -24.043820296323247 -997.17457599083355 0 0 0 -255.27766072736267 -68.326652214181195 -12.986553099923185 0 -12.986553099923185 -990.49454005422376 0 0 0 -264.70529806710147 -33.456458773671329 -39.684417172128178 0 -39.684417172128178 -996.57878220376006 0 0 0 -257.50881024435694 -22.932009003331586 -27.274978606410514 0 -27.274978606410514 -990.07421579736547 0 0 0 -253.25155620017631 34.325562101942523 -29.887307863702517 0 -29.887307863702517 -1003.3064560192361 0 0 0 -242.24522347932361 18.104899656525959 -54.029458940632139 0 -54.029458940632139 -982.87806300441662 0 0 0 -241.19329083697085 -9.9471116017798522 -33.259283376797612 0 -33.259283376797612 -1003.1775832180429 0 0 0 -253.28117370495465 0.22513712014915654 -73.235966513359017 0 -73.235966513359017 -980.48301117762094 0 0 0 -245.06446851436976 3.9379399167723932 -94.28801900113649 0 -94.28801900113649 -1015.0328981076582 0 0 0 -252.77373954772202 -10.995906934394952 -82.790141521008536 0 -82.790141521008536 -959.92844988262004 0 0 0 -242.73108920425329 -8.6064738321492769 -72.551402545790552 0 -72.551402545790552 -973.59245663310867 0 0 0 -245.54973261631312 -29.855813694451399 -59.816613051221793 0 -59.816613051221793 -974.54038499272792 0 0 0 -251.0990496717925 -16.213219015446157 -49.40402881193495 0 -49.40402881193495 -972.83014812941838 0 0 0 -247.26084178621568 -17.943078646627328 -65.41774314921804 0 -65.41774314921804 -931.41075350926258 0 0 0 -237.33845803897384 -24.058966803705061 -31.357839415917624 0 -31.357839415917624 -915.83302795401505 0 0 0 -234.97299868942946 -15.503098916603449 -78.32600953696317 0 -78.32600953696317 -885.71559241069917 0 0 0 -225.30467283182497 -55.946135058184154 -100.65940356220744 0 -100.65940356220744 -935.52604539157892 0 0 0 -247.86804511244281 -40.247663882749293 -78.712038310192838 0 -78.712038310192838 -963.62706385483034 0 0 0 -250.96868193439605 25.550785497714969 -105.6189224568775 0 -105.6189224568775 -966.22378734483573 0 0 0 -235.16825046177837 -21.617210747108402 -132.11575849373548 0 -132.11575849373548 -1061.9916838634963 0 0 0 -270.90222365265163 34.682928003923735 -155.8490210476316 0 -155.8490210476316 -879.4802180405386 0 0 0 -211.19932250915281 12.685180512147781 -202.05896080898583 0 -202.05896080898583 -1129.5649963426367 0 0 0 -279.21995395762133 -19.491433514322125 -218.17586982533123 0 -218.17586982533123 -1236.4507475195933 0 0 0 -313.98554525847794 36.335149728890428 -342.27695166007015 0 -342.27695166007015 -781.72389405907097 0 0 0 -186.34718608254479 3.858673454422501 -44.719003407755736 0 -44.719003407755736 -697.52981622499328 0 0 0 -173.41778569264341 -46.889083594172916 -77.766791494912013 0 -77.766791494912013 -828.47893657687018 0 0 0 -218.84200504276123 5.0398242161763847 -1.309842155467777 0 -1.309842155467777 -839.43108995428884 0 0 0 -208.5978164345297 -4.9567433651345709 11.85571030279425 0 11.85571030279425 -840.08976811607135 0 0 0 -211.26162787029989 -29.674781011616687 -21.44042032303696 0 -21.44042032303696 -890.75827852676593 0 0 0 -230.10826488459497 18.455258477256393 19.957111372308646 0 19.957111372308646 -880.0602377882642 0 0 0 -215.40124482775263 31.924423281526288 19.879653680789488 0 19.879653680789488 -919.72364722963539 0 0 0 -221.94980598702841 46.126921222246892 29.055805218862588 0 29.055805218862588 -901.77226766012973 0 0 0 -213.91133660946798 61.851114403757492 25.859744782130292 0 25.859744782130292 -951.37669590155201 0 0 0 -222.38139537444931 51.673310053651122 29.663467072445201 0 29.663467072445201 -954.76697242930402 0 0 0 -225.77341559391255 22.223977705736161 20.870164592890433 0 20.870164592890433 -921.69852523043573 0 0 0 -224.86863688117455 20.32455913020749 24.559631621762037 0 24.559631621762037 -929.78511947151128 0 0 0 -227.36514008532504 -4.041736621971495 10.645308606801336 0 10.645308606801336 -957.54848238091495 0 0 0 -240.39755475072138 4.4042083685570788 27.903600945568542 0 27.903600945568542 -957.62021553246927 0 0 0 -238.30400179097808 -8.3992895380688424 10.349288261111724 0 10.349288261111724 -973.34555437540621 0 0 0 -245.43621097837058 -16.505298111455431 -0.15517346798969811 0 -0.15517346798969811 -943.68857515920899 0 0 0 -240.04846831766599 -18.876454937517337 -1.7763423288524791 0 -1.7763423288524791 -946.68640907762165 0 0 0 -241.3907160037852 -17.830370047128554 -1.4192041532060102 0 -1.4192041532060102 -931.51352246189526 0 0 0 -237.33597312725647 -20.784462785458345 -31.81179213217456 0 -31.81179213217456 -925.72493698196558 0 0 0 -236.62734994185666 -25.00773616348738 -30.500655863199427 0 -30.500655863199427 -944.7026896420175 0 0 0 -242.42760645137673 -25.405707223995705 -29.604356643115352 0 -29.604356643115352 -963.66951936683836 0 0 0 -247.26880664770761 -38.680867368265865 -21.832337554615151 0 -21.832337554615151 -982.97012141776918 0 0 0 -255.41274719650897 -45.046839862176057 -10.081233226107884 0 -10.081233226107884 -994.70864204713871 0 0 0 -259.93887047733006 -31.838653472800615 -10.955754714872455 0 -10.955754714872455 -954.69842340157811 0 0 0 -246.63426921859627 -28.629686925172791 2.306637516704086 0 2.306637516704086 -980.58030863755994 0 0 0 -252.30249889068364 -15.849299320208615 20.266088566801045 0 20.266088566801045 -973.35279438101361 0 0 0 -247.30052342530655 -34.149535552323648 17.442269280500113 0 17.442269280500113 -983.12150409287392 0 0 0 -254.3177599113003 -36.439746360181744 -1.1348873560564243 0 -1.1348873560564243 -983.88490769549026 0 0 0 -255.08116351391709 -51.446449262239184 4.5745799424212237 0 4.5745799424212237 -986.30004896906757 0 0 0 -259.4366245578276 -86.218993922059781 4.2869154379841348 0 4.2869154379841348 -995.37055052717915 0 0 0 -270.3973861123095 -52.375816378453237 8.3781105868765735 0 8.3781105868765735 -998.15358442082652 0 0 0 -262.63235019981948 -57.054949100245722 0.68751204070031235 0 0.68751204070031235 -997.87576341906606 0 0 0 -263.73267812982795 -91.276561360121377 -6.8591343084754044 0 -6.8591343084754044 -990.80609861832636 0 0 0 -270.52066499461125 -42.040375453136221 -20.910850965056852 0 -20.910850965056852 -972.00811947049442 0 0 0 -253.51212373090857 -55.753242344610044 -7.4466205621688459 0 -7.4466205621688459 -1001.518575317361 0 0 0 -264.31795441549184 -16.758596912153394 14.690063338821346 0 14.690063338821346 -997.24375388217038 0 0 0 -253.50058769858117 -40.019220541200411 11.504145130225879 0 11.504145130225879 -1005.2086173719254 0 0 0 -261.3069594782819 -22.380838259755365 19.315927269130043 0 19.315927269130043 -999.8717762259239 0 0 0 -255.56315362141959 -50.142345655978716 11.94095551580358 0 11.94095551580358 -998.38330983213382 0 0 0 -262.13141387202995 -45.746614815827343 8.9094671054590435 0 8.9094671054590435 -1001.0464121217719 0 0 0 -261.69825673440209 -74.750239687518842 10.082544552519638 0 10.082544552519638 -997.4475159403155 0 0 0 -268.04943890695904 -51.323062195970124 9.9968672774607512 0 9.9968672774607512 -991.55410482419393 0 0 0 -260.71929175504192 -46.37452325330014 16.078867594531403 0 16.078867594531403 -997.61128660428949 0 0 0 -260.99645246439832 -29.515035558737509 21.301786067677199 0 21.301786067677199 -987.67314189271565 0 0 0 -254.29704436286556 -31.887540050000098 18.502519287525502 0 18.502519287525502 -996.65323625203746 0 0 0 -257.13519407551212 -22.978302404611895 15.869246305854176 0 15.869246305854176 -991.11478343340059 0 0 0 -253.52327145950403 -15.894820402337245 23.757215644134703 0 23.757215644134703 -996.79215289288186 0 0 0 -253.17174332380728 -12.387922653419992 25.384115044820646 0 25.384115044820646 -1003.0705694949247 0 0 0 -253.86462303708595 -24.082590690688448 25.206131624121554 0 25.206131624121554 -996.84407247340459 0 0 0 -255.23166579102326 -9.1504255346328591 25.891869164053787 0 25.891869164053787 -1001.8972987934521 0 0 0 -252.7619310820221 2.9767984942582189 28.828656515272087 0 28.828656515272087 -1003.4179391309735 0 0 0 -250.11028515917951 1.6940619862953099 27.062264746346045 0 27.062264746346045 -1006.5961632376038 0 0 0 -251.22552531282872 13.242543769406439 30.624279328061675 0 30.624279328061675 -1000.3679737691054 0 0 0 -246.78135749992452 -9.9971475645215833 28.773649566265135 0 28.773649566265135 -997.73913768364582 0 0 0 -251.93407131204367 -11.537080329497257 28.377911569254223 0 28.377911569254223 -984.0579272324976 0 0 0 -248.89875189049963 -0.065997151663395925 29.046916226747271 0 29.046916226747271 -995.62495169976501 0 0 0 -248.9227372128571 -8.5774568747201556 19.562301741048032 0 19.562301741048032 -983.1262813311987 0 0 0 -247.92593455148199 11.901054610578285 30.890782951301844 0 30.890782951301844 -981.69171091988756 0 0 0 -242.44766407732823 3.1871103970679542 27.060740824046889 0 27.060740824046889 -987.36199282361486 0 0 0 -246.04372060663809 26.554728330656872 23.810174132800967 0 23.810174132800967 -987.79515979489952 0 0 0 -240.31010786606021 29.117487901799905 19.505577544538482 0 19.505577544538482 -973.5348524618239 0 0 0 -236.104341140006 27.387562814461489 28.634164949728074 0 28.634164949728074 -976.80255070230487 0 0 0 -237.35374697195948 30.502866968565741 26.359475087405372 0 26.359475087405372 -978.76777009339821 0 0 0 -237.06622578120687 53.285295731771839 9.7128406100191569 0 9.7128406100191569 -975.41442365782859 0 0 0 -230.53228198151555 25.525524935166686 25.713603144876288 0 25.713603144876288 -1006.7631158077347 0 0 0 -245.30939771814155 24.712944917908317 19.813361340491156 0 19.813361340491156 -993.24461036395951 0 0 0 -242.13291636151189 15.13901436379291 28.445540121700105 0 28.445540121700105 -991.15256583084147 0 0 0 -244.00338786676167 9.0362710873841934 21.031176024731394 0 21.031176024731394 -1013.8990597743928 0 0 0 -251.21569717175225 24.709763873830525 14.848251987051299 0 14.848251987051299 -1016.7480445586225 0 0 0 -248.00957017119617 5.0490743748423483 14.485204228974908 0 14.485204228974908 -1043.4528574939068 0 0 0 -259.60094577976633 10.700173192760303 20.917538593294921 0 20.917538593294921 -1022.3412131805417 0 0 0 -252.91025999694739 3.0279480237059033 8.6475989311602461 0 8.6475989311602461 -1040.8130600437253 0 0 0 -259.4462780050053 10.920994997652087 5.0565990013292321 0 5.0565990013292321 -1055.824765027206 0 0 0 -261.22594250738985 -2.0763655033840678 0.088914457995997509 0 0.088914457995997509 -1059.2513652602529 0 0 0 -265.3319326909093 6.9803433710276295 2.4816338887367237 0 2.4816338887367237 -1059.1980689356715 0 0 0 -263.05443139116142 -1.0474229702213051 3.0323516980261047 0 3.0323516980261047 -1052.6303535156658 0 0 0 -263.41944412147313 4.4468796518231102 13.562600441689169 0 13.562600441689169 -1017.2414077135509 0 0 0 -253.19863201543194 -2.8448655131242049 9.3155543791972377 0 9.3155543791972377 -1039.1166432082973 0 0 0 -260.49037718035561 3.1839265374310344 9.0114527182371376 0 9.0114527182371376 -1044.0641794437433 0 0 0 -260.22006322657944 2.2385499450083444 25.132222310106215 0 25.132222310106215 -1011.5404900826688 0 0 0 -252.32548503441558 7.6305790334154153 22.784502264085859 0 22.784502264085859 -1022.9436922343339 0 0 0 -253.8282783002287 -0.018403652179586061 21.518317359755201 0 21.518317359755201 -1020.0737539244565 0 0 0 -255.02303939415742 13.027340805072527 26.690325356415542 0 26.690325356415542 -1011.6763251911361 0 0 0 -249.66224609651545 -8.7737721057701492 23.915139890552382 0 23.915139890552382 -1012.1170953879209 0 0 0 -255.22271687342254 -22.755309819076501 18.321435742093854 0 18.321435742093854 -1007.8903054358452 0 0 0 -257.66140381373225 -3.1026218752049317 15.967068702428378 0 15.967068702428378 -1009.9281315892149 0 0 0 -253.25768836610405 -7.4981272901368357 15.517376921194227 0 15.517376921194227 -1003.7338590493273 0 0 0 -252.80799658486649 -6.5525403375222595 18.054946481139268 0 18.054946481139268 -1024.1723487435484 0 0 0 -257.68122227026925 -3.1464984189733514 9.0273005425806332 0 9.0273005425806332 -1027.8202943734141 0 0 0 -257.74169819809686 -3.0960772087164514 5.1875092845457402 0 5.1875092845457402 -1012.3212067806489 0 0 0 -253.85432099734317 2.9876614305467228 7.2627888499050641 0 7.2627888499050641 -1010.3137699858999 0 0 0 -251.83152713884192 -2.6984568035477423 9.2038508881760208 0 9.2038508881760208 -1013.5781552464287 0 0 0 -254.06915301249501 -7.0280050348337681 7.1814909381437246 0 7.1814909381437246 -1006.8544668640752 0 0 0 -253.47061797472634 0.53033749523365259 2.5358763262011053 0 2.5358763262011053 -1005.165047619495 0 0 0 -251.1586775310634 -1.1778803414799768 1.595911413025533 0 1.595911413025533 -1001.4593833655999 0 0 0 -250.65931592677043 -2.1757807666872395 2.1682360607319424 0 2.1682360607319424 -1002.6560275223528 0 0 0 -251.20795207225819 -1.1304299517560139 3.9107645060494178 0 3.9107645060494178 -999.2533639565554 0 0 0 -250.0959484770774 -11.113399295592899 6.830549405547572 0 6.830549405547572 -998.31968040302309 0 0 0 -252.35826992465263 -11.934878520999064 8.2125649848312605 0 8.2125649848312605 -1003.9787256205614 0 0 0 -253.97840103539102 -28.964912977378845 9.6793742066911364 0 9.6793742066911364 -1004.4298846190322 0 0 0 -258.34869939910277 10.432035570017433 -23.718757265412478 0 -23.718757265412478 -987.96795438244953 0 0 0 -244.38397970310689 12.215549747301338 -15.08865331222114 0 -15.08865331222114 -999.99443104744205 0 0 0 -246.94472032503654 24.123198272383434 -20.45075242587609 0 -20.45075242587609 -990.91705961213847 0 0 0 -241.69846533493865 13.740793585866413 -18.615104222854825 0 -18.615104222854825 -1008.1695433495661 0 0 0 -248.60718744092446 5.0320971013014599 -21.050583017201461 0 -21.050583017201461 -1005.8516879084021 0 0 0 -250.20489770177494 1.8501340699049251 -20.497386571060929 0 -20.497386571060929 -989.61240482498397 0 0 0 -246.94056768876908 0.18085246491409634 -22.065461315898801 0 -22.065461315898801 -997.05807347900191 0 0 0 -249.21930525352309 8.322637674265934 -25.499786793403473 0 -25.499786793403473 -983.14545441376595 0 0 0 -243.70570418487478 0.45899669790742337 -25.79872829020178 0 -25.79872829020178 -960.16455639942978 0 0 0 -239.92638992538014 -9.6375140728607676 -17.818058497535276 0 -17.818058497535276 -960.06902787321224 0 0 0 -242.42663548651876 16.526933186353745 -28.356203962228847 0 -28.356203962228847 -965.3674505158142 0 0 0 -237.21012933236489 18.948280480854919 -29.96274629450545 0 -29.96274629450545 -964.44020323043696 0 0 0 -236.37298068739528 5.6794922449869318 -20.565265562887362 0 -20.565265562887362 -987.02517147667004 0 0 0 -245.33641980792095 10.913399182033572 -18.839291256030378 0 -18.839291256030378 -989.12290387144458 0 0 0 -244.55237617235343 32.996359145588485 -30.723445061449638 0 -30.723445061449638 -966.02269543352304 0 0 0 -233.25658407198307 27.172521067415346 -13.499880692997067 0 -13.499880692997067 -980.70662319223811 0 0 0 -238.38352553120558 42.111988124287564 -5.2928443406963197 0 -5.2928443406963197 -1005.0088162279753 0 0 0 -240.7242070259208 27.459565985553127 -2.4653565109110787 0 -2.4653565109110787 -962.21992258619139 0 0 0 -233.69008915015911 20.750404212356443 -17.656420859188074 0 -17.656420859188074 -988.35405097534385 0 0 0 -241.9009116907464 47.54095560974838 5.202109456382459 0 5.202109456382459 -992.96236545335523 0 0 0 -236.3553524609033 69.072486381486669 -4.6114399767313916 0 -4.6114399767313916 -976.16075433997321 0 0 0 -226.77206698962254 33.903749948580298 4.3147710754465152 0 4.3147710754465152 -979.94523854619729 0 0 0 -236.5103721494047 -0.39591367333236227 -0.034828351096341859 0 -0.034828351096341859 -1.1981045584246726 0 0 0 -0.39850455793925876 31.201307855996674 20.502331608042368 0 20.502331608042368 -991.39236825889748 0 0 0 -240.04776510072497 42.584801223722934 6.1601266325797042 0 6.1601266325797042 -967.08816911477697 0 0 0 -231.12584197276283 39.083877444447353 14.73425434251385 0 14.73425434251385 -1022.4036705541657 0 0 0 -245.82994827743005 -0.39434365816249373 -0.032109964891383957 0 -0.032109964891383957 -1.1975812201487459 0 0 0 -0.39798121957780963 19.764304684731542 -17.798784530883495 0 -17.798784530883495 -999.30436154585914 0 0 0 -244.88501421528235 44.341892846621704 24.507437042690981 0 24.507437042690981 -994.90362430847927 0 0 0 -237.6404328654653 -0.40087003481534333 -0.030319423848468863 0 -0.030319423848468863 -1.1997566792375185 0 0 0 -0.40015667851321557 11.191099630654776 3.0872692682041816 0 3.0872692682041816 -1028.9894816744809 0 0 0 -254.44959551095542 18.678962824418704 -11.328095097114328 0 -11.328095097114328 -1000.9092842794307 0 0 0 -245.55758036375209 17.066794092295822 -2.437920680782554 0 -2.437920680782554 -1040.1086467395762 0 0 0 -255.76046316181964 18.722588078709123 -11.184483909744813 0 -11.184483909744813 -1013.369235271115 0 0 0 -248.66166179810079 21.901140249728087 -13.246151639736127 0 -13.246151639736127 -1002.150738634642 0 0 0 -245.06239959622781 1.4681963643815834 -10.067902573551237 0 -10.067902573551237 -1032.2607835062954 0 0 0 -257.69814678547755 4.6110519543657347 -7.7364117927463667 0 -7.7364117927463667 -1019.0308181263522 0 0 0 -253.6049415429967 11.542072559873304 10.481403001835133 0 10.481403001835133 -1014.5661619102157 0 0 0 -250.75602233758582 5.7998536869317832 -1.4251914183309964 0 -1.4251914183309964 -996.17644892635144 0 0 0 -247.59414880985514 11.230306953529976 -13.115578494338479 0 -13.115578494338479 -1028.3990139546279 0 0 0 -254.29217675027587 27.310422094271416 -5.5347456180843437 0 -5.5347456180843437 -1010.2778332737507 0 0 0 -245.74185279486846 -0.37684141769539403 -0.029642875826720816 0 -0.029642875826720816 -1.1917471404582978 0 0 0 -0.39214713953842306 2.3312270149667711 -19.837552722032342 0 -19.837552722032342 -1032.0595637531951 0 0 0 -257.43208418455697 8.3405896197367451 22.652445102115962 0 22.652445102115962 -1016.5872761077561 0 0 0 -252.06167162200441 5.6350266115950944 13.466757516679763 0 13.466757516679763 -1058.1156779728153 0 0 0 -263.12016284030506 0.1144687344308295 -0.015478960631298833 0 -0.015478960631298833 -1063.7689388848476 0 0 0 -265.91361753760384 -0.46728584639194781 -0.029536480863796621 0 -0.029536480863796621 -1.2218952836162602 0 0 0 -0.42229528250205184 -3.2218939178601431 -1.8276216007725452 0 -1.8276216007725452 -1059.7766577798247 0 0 0 -265.74963792441849 0.36975045761937508 -1.2893312034429982 0 -1.2893312034429982 -1060.004822860672 0 0 0 -264.90876810076315 6.2245261309117268 -8.8887552533128655 0 -8.8887552533128655 -1053.7757844381413 0 0 0 -261.88781457680761 3.0580396968753121 -7.9567572304858913 0 -7.9567572304858913 -1072.4687298329991 0 0 0 -267.35267253403072 -6.7854736529207003 7.348430631027056 0 7.348430631027056 -1067.8008906280811 0 0 0 -268.64659107025 1.7719571504167106 4.4168868233919056 0 4.4168868233919056 -1064.6502945454849 0 0 0 -265.71958434876706 1.1644099454488241 -2.4602930437860095 0 -2.4602930437860095 -1055.2018823702074 0 0 0 -263.50936810618987 -0.41243680508637226 -4.1847912757698396 0 -4.1847912757698396 -1049.3033518194434 0 0 0 -262.4289471561317 2.1579721813122887 1.1226439176116401 0 1.1226439176116401 -1065.9171688100541 0 0 0 -265.93979915718501 4.4102387845805424 -6.8306103511660758 0 -6.8306103511660758 -1058.9894665823886 0 0 0 -263.64480694945269 2.4778590577261639 -8.1652087375173323 0 -8.1652087375173323 -1031.326418825618 0 0 0 -257.21213994197387 6.5006109582327554 -14.252077828680513 0 -14.252077828680513 -1033.459947322659 0 0 0 -256.73983409110588 8.0700467582028068 -17.916903909841722 0 -17.916903909841722 -1020.4801171327053 0 0 0 -253.10251759362654 6.4614655809710939 -14.621729006557871 0 -14.621729006557871 -1011.1005221860821 0 0 0 -251.15976415127795 9.5111983953829622 -13.877573476086127 0 -13.877573476086127 -1026.9443123344427 0 0 0 -254.35827848476401 0.98035422668999672 -18.395431021032891 0 -18.395431021032891 -1020.6588334679254 0 0 0 -254.91961981030818 2.060554951237684 -17.13362158651762 0 -17.13362158651762 -1006.9430202876804 0 0 0 -251.22061633411136 1.5842000316843041 -11.323288890729145 0 -11.323288890729145 -1035.8977995214464 0 0 0 -258.57839987244097 0.35244214787189776 -12.726817664648479 0 -12.726817664648479 -1023.6966533005038 0 0 0 -255.8360527881573 2.2265598508020048 -14.15267385415973 0 -14.15267385415973 -1017.9042591826728 0 0 0 -253.9194248329668 2.6505715029184103 -9.3576226390878219 0 -9.3576226390878219 -1033.1358765211244 0 0 0 -257.62132625455115 -0.39586569093535218 -6.3526424858141581 0 -6.3526424858141581 -1050.1802647910717 0 0 0 -262.64403262050109 1.4559466460987096 -7.8714329322810954 0 -7.8714329322810954 -1028.459407825525 0 0 0 -256.75086529485725 0.83834029408353672 -7.8900088200834944 0 -7.8900088200834944 -1034.0074024398509 0 0 0 -258.29226553644185 -3.496096685644261 -8.2178074431075174 0 -8.2178074431075174 -1027.4684229994855 0 0 0 -257.74112992128084 0.77959931604755184 -14.489919177744923 0 -14.489919177744923 -1015.472615507716 0 0 0 -253.67325404791836 -0.97439839780440707 -12.6565444455955 0 -12.6565444455955 -1031.332210600081 0 0 0 -258.07665224946982 1.5008085766794466 -4.6165305940262549 0 -4.6165305940262549 -1006.4223460593657 0 0 0 -251.23038437067135 -2.9285156691978376 -6.3387829871780923 0 -6.3387829871780923 -1019.6886836920255 0 0 0 -255.65429984030675 1.9023134785275033 -9.7725724075041853 0 -9.7725724075041853 -1012.0757044415932 0 0 0 -252.54334774076688 -1.0102959890700731 -14.485623690260581 0 -14.485623690260581 -1009.7472497798644 0 0 0 -252.68938644223272 -3.0192164857055559 -14.046470407858578 0 -14.046470407858578 -1018.4129981162878 0 0 0 -255.35805365049896 -3.0057204440286114 -15.624887812141424 0 -15.624887812141424 -1008.4907649428824 0 0 0 -252.87412134672741 -2.2160983405547086 -17.107697321694559 0 -17.107697321694559 -1002.4021821158876 0 0 0 -251.15457011411218 -7.7775885040855428 -13.833817512279893 0 -13.833817512279893 -1011.1194014984594 0 0 0 -254.72424750063601 0.24274989781088152 -16.077932485587553 0 -16.077932485587553 -1017.3405883256773 0 0 0 -254.27445960696741 1.0642870249162115 -17.121627663182608 0 -17.121627663182608 -1009.5982789559293 0 0 0 -252.13349798275294 0.96052332489125547 -19.726447965742864 0 -19.726447965742864 -1006.6348217587874 0 0 0 -251.41857460847405 0.84322427591132509 -17.998393732850673 0 -17.998393732850673 -1005.2958984056049 0 0 0 -251.11316853242397 -0.7702234125463292 -20.311125950644964 0 -20.311125950644964 -980.14574423704471 0 0 0 -245.22899191239594 -6.4280681722120789 -18.312085002693493 0 -18.312085002693493 -998.13130259808895 0 0 0 -251.13984269257526 -3.5094137189707908 -16.701540555910469 0 -16.701540555910469 -984.01005779129991 0 0 0 -246.87986787756836 -0.53186462221401598 -18.299746782460716 0 -18.299746782460716 -996.18376375910157 0 0 0 -249.17890709532912 -7.2091243666664013 -14.271623632764204 0 -14.271623632764204 -998.03724165321091 0 0 0 -251.31159150496933 -2.6232490963284363 -18.41740117197628 0 -18.41740117197628 -1003.6505426395961 0 0 0 -251.56844793398159 -10.397925778891874 -11.507611725545758 0 -11.507611725545758 -1003.3519274275789 0 0 0 -253.43746330161633 -9.4488068606870002 -10.490764141163254 0 -10.490764141163254 -1002.1771525778422 0 0 0 -252.90648985963162 -4.1067500914732591 -14.802946877485283 0 -14.802946877485283 -985.46881953218326 0 0 0 -247.3938924059139 -7.8583246013340613 -11.57735061667745 0 -11.57735061667745 -968.63800818065465 0 0 0 -244.12408319549741 -15.436415661423553 -6.3358189086411585 0 -6.3358189086411585 -992.97074529438305 0 0 0 -252.10179023895103 -13.040068310979677 -7.7640649602710141 0 -7.7640649602710141 -983.31792389087605 0 0 0 -249.08949805046359 -19.352468374481987 -7.6306894627969086 0 -7.6306894627969086 -973.59055184092358 0 0 0 -248.23575505385156 -9.3571885131586896 -9.7514673909099656 0 -9.7514673909099656 -944.28490329053238 0 0 0 -238.41052295092322 -13.066800531539315 -15.101267625729633 0 -15.101267625729633 -966.62602170918149 0 0 0 -244.92320556017975 -6.3729484451287135 -16.722911994932019 0 -16.722911994932019 -964.52597489606705 0 0 0 -242.72473083529894 -10.244452841131746 -20.04856695934177 0 -20.04856695934177 -983.31041588971925 0 0 0 -248.38871718271207 -12.34289081730924 -13.646701531372855 0 -13.646701531372855 -985.55966020434289 0 0 0 -249.47563775541232 -44.884698042497121 6.7825361636832895 0 6.7825361636832895 -1021.8145839850631 0 0 0 -266.67482050689 -0.39647230294697433 0.083894885579492595 0 0.083894885579492595 -1.1977574335295156 0 0 0 -0.39855743411912248 -25.514928918316855 -10.798331501529219 0 -10.798331501529219 -985.49281104097054 0 0 0 -252.75193498982162 -37.394561830444445 17.765473908674267 0 17.765473908674267 -990.25871540946673 0 0 0 -256.91331930997762 -24.453445355234635 1.1993244793663962 0 1.1993244793663962 -958.44818520662739 0 0 0 -245.72540764046607 -22.356377652654714 5.498525363891531 0 5.498525363891531 -981.12663235017635 0 0 0 -250.87075250070791 -28.69496779135352 3.5315983328596303 0 3.5315983328596303 -968.17315718022837 0 0 0 -249.21703124289525 -14.597209744057182 -5.0697971494387275 0 -5.0697971494387275 -988.58260130219787 0 0 0 -250.79495276156376 -22.765287614728322 -9.9467750144585807 0 -9.9467750144585807 -1016.8468700351295 0 0 0 -259.90303941246452 -16.186884004431704 -6.6428303939278521 0 -6.6428303939278521 -1000.7888644116374 0 0 0 -254.24393710401773 -24.296134569169681 -10.904132233323708 0 -10.904132233323708 -999.31186215129492 0 0 0 -255.90199918011558 -15.389732012202785 -7.0961067064692998 0 -7.0961067064692998 -1008.9440539540174 0 0 0 -256.0834464915547 -23.003631740977653 -4.1263211358152603 0 -4.1263211358152603 -981.59800892593375 0 0 0 -251.15041016672876 -28.622793843232103 10.577910407533182 0 10.577910407533182 -1008.1193592456257 0 0 0 -259.18553827221376 -36.2900953770652 21.66593515919044 0 21.66593515919044 -1002.0624216997358 0 0 0 -259.58812926920064 -7.5724733408387692 -0.36549533437096215 0 -0.36549533437096215 -994.07038127685064 0 0 0 -250.41071365442235 -0.39907390138113819 0.073194240263416033 0 0.073194240263416033 -1.1986246328238215 0 0 0 -0.39942463355124014 -39.473682422397815 -13.145703286391836 0 -13.145703286391836 -999.91417777083097 0 0 0 -259.84696504830754 -6.6166206283091924 15.66926095358378 0 15.66926095358378 -1004.805170552002 0 0 0 -252.85544779507745 -0.39526629226622179 0.079588892937859645 0 0.079588892937859645 -1.1973554298252864 0 0 0 -0.39815543052287694 -2.2565412898397881 -6.1650827815187768 0 -6.1650827815187768 -1027.2402343923695 0 0 0 -257.37419392055244 -0.38418058652662035 0.067713208498995647 0 0.067713208498995647 -1.193660194569488 0 0 0 -0.39446019527402743 -13.753316913579283 -20.591910852955607 0 -20.591910852955607 -1011.3478147727465 0 0 0 -256.27528292158081 6.1055042051321138 13.610852095837345 0 13.610852095837345 -1025.6185746839878 0 0 0 -254.87826761971425 -1.6994216131895428 9.668880759170861 0 9.668880759170861 -994.16660842891997 0 0 0 -248.96650751052744 -4.5965425002993925 -11.325140836903756 0 -11.325140836903756 -1006.9953130095037 0 0 0 -252.89796387745105 -5.0730740515500656 -10.821312384450721 0 -10.821312384450721 -1011.0334365555645 0 0 0 -254.02662765177956 -11.208377649894828 -5.7103902137732803 0 -5.7103902137732803 -1041.261266932509 0 0 0 -263.11741114560027 -12.06713647137758 -17.532285689691889 0 -17.532285689691889 -1014.5516852299348 0 0 0 -256.6547054253283 -4.8874070923548061 -13.444349847766262 0 -13.444349847766262 -1004.1723914701142 0 0 0 -252.26494964061749 -8.6315512876958564 -11.838677723274714 0 -11.838677723274714 -983.51182401738333 0 0 0 -248.03584382627014 2.1861809410605701 5.9518428361811857 0 5.9518428361811857 -989.12855489223921 0 0 0 -246.7355934877952 -3.7528334333101157 1.2395313201370755 0 1.2395313201370755 -1002.0501282669611 0 0 0 -251.45074042506803 -1.5239791309902131 -4.0463802803969884 0 -4.0463802803969884 -1003.4458629167449 0 0 0 -251.24246051193376 0.30814069031521285 -5.8961407898382276 0 -5.8961407898382276 -989.05050237580144 0 0 0 -247.18559042137122 -0.4393198767279185 0.064645864317444457 0 0.064645864317444457 -1.2120399580054571 0 0 0 -0.412839958683344 8.2047724648978146 -8.3067785593808221 0 -8.3067785593808221 -994.7160091361402 0 0 0 -246.62780916781094 1.5023028506670926 -5.2380133097030921 0 -5.2380133097030921 -1000.4426233288623 0 0 0 -249.73508011954891 2.7090362843964897 -4.4997345828924153 0 -4.4997345828924153 -992.57473240926402 0 0 0 -247.46642403121675 -7.9999604342469866 -3.8690811390119961 0 -3.8690811390119961 -983.37528800063319 0 0 0 -247.84381210872016 -2.145048876588362 0.52199344842142636 0 0.52199344842142636 -1011.3803366016027 0 0 0 -253.38134636954783 -7.9325099296298163 -1.9462991031573438 0 -1.9462991031573438 -995.64156574990443 0 0 0 -250.89351891988332 -4.478614969175851 -6.0166496823646867 0 -6.0166496823646867 -996.32142138616564 0 0 0 -250.20000908883458 -0.5678861168532876 5.0321383566440545 0 5.0321383566440545 -1015.3110122268868 0 0 0 -253.96972458593496 -21.086847653189807 38.807326731460819 0 38.807326731460819 -1076.8678968374879 0 0 0 -274.48868612266938 -6.8259500294443569 9.1421873475470363 0 9.1421873475470363 -992.30604224921171 0 0 0 -249.78299806966425 -17.722433505313688 32.840877391051208 0 32.840877391051208 -1047.8762823630016 0 0 0 -266.3996789670789 -45.903120478805249 41.755513542651343 0 41.755513542651343 -1030.6667179421479 0 0 0 -269.14245960523817 -63.674299922651358 81.07571014311668 0 81.07571014311668 -1065.9645184424744 0 0 0 -282.40970459128152 -64.057879971652596 51.448443810536673 0 51.448443810536673 -1044.9986132500424 0 0 0 -277.26412330542382 -36.318315741002976 20.158753332819515 0 20.158753332819515 -1027.7621702447875 0 0 0 -266.02012149644736 -8.3252417448138658 11.616422058724936 0 11.616422058724936 -1021.0832178958171 0 0 0 -257.35211491015775 -15.954142023304485 10.698633574479572 0 10.698633574479572 -1009.7831636803705 0 0 0 -256.43432642591915 -220.23352868276706 197.0693748124994 0 197.0693748124994 -1112.3200709176426 0 0 0 -333.13839990010246 -417.61184067744222 277.97704235194226 0 277.97704235194226 -1255.0443012602584 0 0 0 -418.1640354844252 -199.41122655076751 227.01667150023633 0 227.01667150023633 -1518.2591592572917 0 0 0 -429.41759645201483 70.885992495692449 71.57577037447021 0 71.57577037447021 -1157.5874044874295 0 0 0 -271.67535299793417 -175.11362558857854 190.53062199975511 0 190.53062199975511 -1259.2060204234392 0 0 0 -358.57991150300444 -5.1743008491986302 95.731944504730905 0 95.731944504730905 -1080.2977656051039 0 0 0 -271.36801661357549 -30.460149274979699 68.09235989031481 0 68.09235989031481 -1137.4591038719977 0 0 0 -291.97981328674439 -41.024170783267095 58.906255953504228 0 58.906255953504228 -1087.0630216624249 0 0 0 -282.02179811142298 -2.5349606842559842 18.990622879269495 0 18.990622879269495 -1015.628956752038 0 0 0 -254.54097935907359 -45.419411432663651 71.124468456817112 0 71.124468456817112 -1048.1463782426958 0 0 0 -273.39144741883979 -149.16109371135229 106.88349224415606 0 106.88349224415606 -1047.5408561394361 0 0 0 -299.17548746269688 -232.97332201838626 165.61513171249391 0 165.61513171249391 -1073.6438989798528 0 0 0 -326.65430524955974 -103.85065160473096 141.51272571615664 0 141.51272571615664 -1134.8357627498692 0 0 0 -309.67160358864999 -173.48186330671865 142.61822240982391 0 142.61822240982391 -1050.3352943705431 0 0 0 -305.9542894193155 -230.12480095347857 201.10353554853802 0 201.10353554853802 -1114.3577989450976 0 0 0 -336.12064997464404 -344.25796280452118 182.86170621778166 0 182.86170621778166 -1033.184569072879 0 0 0 -344.36063296935004 -344.61173170343602 182.99781921771361 0 182.99781921771361 -1033.3024252251751 0 0 0 -344.47853923215268 -318.32249872757046 126.54028460305817 0 126.54028460305817 -954.86930898149183 0 0 0 -318.29795192726561 -234.40363870803193 136.72068535936845 0 136.72068535936845 -968.20974210666282 0 0 0 -300.65334520367367 -218.73262709061783 108.54919837616933 0 108.54919837616933 -963.75457430296603 0 0 0 -295.62180034839594 -262.22171227869558 130.16175641455641 0 130.16175641455641 -975.88315723141397 0 0 0 -309.52621737752742 -222.03775749090534 122.71898344313951 0 122.71898344313951 -1016.0194548982304 0 0 0 -309.51430309728397 -128.84588063923502 113.51551094191103 0 113.51551094191103 -991.07413272773829 0 0 0 -279.98000334174333 -156.07213791098741 90.276079204864729 0 90.276079204864729 -970.58187832909039 0 0 0 -281.66350406001948 -166.10698439224439 91.263715761628248 0 91.263715761628248 -1004.4779735132352 0 0 0 -292.64623947637006 -208.8181827026043 99.592919362409759 0 99.592919362409759 -987.46640354509964 0 0 0 -299.07114656192607 -214.19437818855073 77.991465500471691 0 77.991465500471691 -970.73564914030862 0 0 0 -296.23250683221482 -165.05113499854122 74.180394261801666 0 74.180394261801666 -953.91262440349328 0 0 0 -279.74093985050854 -234.85295250763596 89.771526724033407 0 89.771526724033407 -957.34723452440812 0 0 0 -298.05004675801109 -272.31086329601931 113.00948273125459 0 113.00948273125459 -966.49540926938039 0 0 0 -309.70156814134992 -251.36715472038844 103.68470614579962 0 103.68470614579962 -951.88480267448824 0 0 0 -300.81298934871916 -276.42730619836436 93.720145276266138 0 93.720145276266138 -924.59359314755409 0 0 0 -300.25522483647961 -313.34243023902599 107.47364034208847 0 107.47364034208847 -940.14295087062419 0 0 0 -313.3713452774125 -259.83834311200349 112.030214100994 0 112.030214100994 -928.70489405650642 0 0 0 -297.13580929212748 -50.797044118060285 32.619247942799575 0 32.619247942799575 -998.6335750467224 0 0 0 -262.35765479119573 -80.127802442314078 45.34433787471221 0 45.34433787471221 -1021.6854169595463 0 0 0 -275.45330485046497 -45.404722508684245 17.888037731981512 0 17.888037731981512 -1002.5228528191037 0 0 0 -261.98189383194722 -27.79417276488789 25.161207151361509 0 25.161207151361509 -1009.1336803627373 0 0 0 -259.23196328190647 -102.04009466416073 63.40343261104249 0 63.40343261104249 -1016.588696668849 0 0 0 -279.65719783325244 -96.15811641689902 84.160227159117085 0 84.160227159117085 -1006.9921228515705 0 0 0 -275.78755981711743 -70.410714608193302 51.070106395531468 0 51.070106395531468 -995.60740275295939 0 0 0 -266.50452934028817 -101.78083741628734 48.125459875913066 0 48.125459875913066 -969.85231224573454 0 0 0 -267.90828741550547 -132.03544490110914 62.333304943332905 0 62.333304943332905 -996.78455663276986 0 0 0 -282.20500038346984 -131.4872071848514 77.620023296882891 0 77.620023296882891 -980.80107432098021 0 0 0 -278.07207037645765 -160.95457145881306 59.376406784051142 0 59.376406784051142 -985.11967255397644 0 0 0 -286.51856100319748 -75.072183530672874 29.072409254738886 0 29.072409254738886 -974.75734597577684 0 0 0 -262.45738237661249 -111.08284810446025 42.583934594139251 0 42.583934594139251 -997.11384662052842 0 0 0 -277.04917368124711 -40.28670476799698 16.686382671133316 0 16.686382671133316 -1000.3005526025445 0 0 0 -260.14681434263548 -75.502856889350824 19.023113771600038 0 19.023113771600038 -980.38402319398392 0 0 0 -263.9717200208338 -77.182582899722433 19.985549351450118 0 19.985549351450118 -981.78396293017477 0 0 0 -264.74163645747387 -85.760085286464573 20.131228638188873 0 20.131228638188873 -958.92300319864808 0 0 0 -261.17077212127833 -105.28070811610655 21.953130783603456 0 21.953130783603456 -965.42987747519555 0 0 0 -267.67764639782536 -65.02683476744869 4.7905359968176526 0 4.7905359968176526 -947.34740670564588 0 0 0 -253.09356036827398 -123.83863837474337 19.425309294257431 0 19.425309294257431 -945.57366365815687 0 0 0 -267.35307550822495 -123.12775295212617 36.782128670006614 0 36.782128670006614 -982.44934618358843 0 0 0 -276.39427478392867 -115.06455334641805 36.178264918055334 0 36.178264918055334 -953.39976895859309 0 0 0 -267.11608057625267 -158.30042643922593 54.907686103356582 0 54.907686103356582 -943.61591760399324 0 0 0 -275.47908601080474 -188.79395129453599 58.507800625711639 0 58.507800625711639 -953.95166140953916 0 0 0 -285.68640317601876 -141.85625260389892 41.292579778339132 0 41.292579778339132 -961.79685902101528 0 0 0 -275.9132779062287 -160.20871296444375 35.130245531124729 0 35.130245531124729 -939.24552372128073 0 0 0 -274.86355917143101 -161.07594103295128 41.381117441796732 0 41.381117441796732 -940.53386961586739 0 0 0 -275.4024526622045 -195.86194141199246 49.827460477914201 0 49.827460477914201 -929.39030604277832 0 0 0 -281.31306186369261 -196.36939299650771 36.657158770439196 0 36.657158770439196 -923.40417025129454 0 0 0 -279.94339081195062 -139.01191132371707 19.407668178288304 0 19.407668178288304 -924.62984924091097 0 0 0 -265.91044014115676 -141.01640269900736 -0.12136303534532544 0 -0.12136303534532544 -909.33589982541162 0 0 0 -262.58807563110531 -118.95769973050801 7.8651223977823577 0 7.8651223977823577 -952.5675713952287 0 0 0 -267.88131778143406 -154.9019483091202 18.206211190836484 0 18.206211190836484 -926.8559441313314 0 0 0 -270.43947311011294 -114.07313003195327 20.365564834864372 0 20.365564834864372 -943.23150078695107 0 0 0 -264.32615770472648 -279.35590385524 78.879813274491397 0 78.879813274491397 -914.46063686625655 0 0 0 -298.45413518037412 -278.27944700931442 72.953579603524361 0 72.953579603524361 -913.81558445100154 0 0 0 -298.02375786507895 -276.77798655675872 86.922116474032464 0 86.922116474032464 -923.75309479933424 0 0 0 -300.13277033902324 -305.16668028602493 85.162057576275714 0 85.162057576275714 -915.50465970128027 0 0 0 -305.16783499682629 -253.27307901182746 80.862142074077809 0 80.862142074077809 -924.35561223669777 0 0 0 -294.40717281213136 -220.20624500215979 70.197271573405715 0 70.197271573405715 -921.63643660531011 0 0 0 -285.46067040186745 -257.86452939203554 78.573988510362369 0 78.573988510362369 -936.98454687224034 0 0 0 -298.71226906606887 -204.21735942883646 76.877665454588055 0 76.877665454588055 -937.84176735032986 0 0 0 -285.51478169479151 -221.2514061630601 55.586660673921301 0 55.586660673921301 -932.78746685021633 0 0 0 -288.50971825331919 -224.19280895807765 55.690470484613627 0 55.690470484613627 -922.0468013147804 0 0 0 -286.55990256821462 -222.76537113275219 57.908828293919669 0 57.908828293919669 -933.37796057234391 0 0 0 -289.03583292627422 -224.47662408864744 46.428486084972064 0 46.428486084972064 -924.74816141276233 0 0 0 -287.30619637535244 -236.98228706952182 61.239743199642589 0 61.239743199642589 -925.86990685839908 0 0 0 -290.71304848198019 -255.897411687393 55.081411857408341 0 55.081411857408341 -926.83844399303757 0 0 0 -295.6839639201076 -259.87106613822311 68.229908752974836 0 68.229908752974836 -930.9492067783741 0 0 0 -297.70506822914922 -262.12310832374192 62.952102871055189 0 62.952102871055189 -915.9598153558627 0 0 0 -294.5207309199011 -279.64274685120597 63.54739996994806 0 63.54739996994806 -920.34414286697506 0 0 0 -299.996722429545 -275.48270187506625 64.11664696379674 0 64.11664696379674 -906.76174890514858 0 0 0 -295.56111269505368 -304.90359793235245 66.076839531189776 0 66.076839531189776 -914.73446226661792 0 0 0 -304.90951504974254 -311.1386123586928 43.454602253871805 0 43.454602253871805 -933.35031422179236 0 0 0 -311.12223164512136 -306.75151234965705 55.800184097653059 0 55.800184097653059 -920.3304926967171 0 0 0 -306.77050126159355 -275.12514730763314 55.145840314814336 0 55.145840314814336 -914.05125535190678 0 0 0 -297.29410066488498 -277.27917481466494 47.318874392161774 0 47.318874392161774 -938.19707935617021 0 0 0 -303.86906354270872 -256.43352604647157 57.258349871491816 0 57.258349871491816 -927.03319474651255 0 0 0 -295.86668019824606 -228.96864071355287 55.911557523137446 0 55.911557523137446 -928.56505187869561 0 0 0 -289.38342314806221 -239.36882757714739 48.19386989515408 0 48.19386989515408 -941.38974561042505 0 0 0 -295.18964329689322 -229.90020232645907 47.232359734728732 0 47.232359734728732 -952.74130663228198 0 0 0 -295.6603772396852 -229.81508357611369 50.985807081886833 0 50.985807081886833 -940.32300391100853 0 0 0 -292.5345218717805 -230.38157151666979 46.902292461001821 0 46.902292461001821 -973.61988184529639 0 0 0 -301.00036334049156 -234.89012484663289 29.19285907257904 0 29.19285907257904 -985.15572459471628 0 0 0 -305.0114623603373 -261.12060255064819 38.329624646173272 0 38.329624646173272 -960.20325983592272 0 0 0 -305.33096559664261 -274.73317117608468 42.646160519768749 0 42.646160519768749 -935.36829716470004 0 0 0 -302.52536708519619 -266.58774275823248 49.023338324001145 0 49.023338324001145 -934.97140464494657 0 0 0 -300.38978685079474 -319.9899820942249 28.308651390895925 0 28.308651390895925 -960.1257955424154 0 0 0 -320.02894440916009 -177.47209075309632 59.630582060676716 0 59.630582060676716 -902.35822696400169 0 0 0 -269.95757942927452 -192.62005401721876 68.981218856663986 0 68.981218856663986 -932.23678030627252 0 0 0 -281.21420858087299 -169.43772528576824 22.809499024862134 0 22.809499024862134 -892.34208025257203 0 0 0 -265.44495138458478 -186.99207939525786 45.475859120303497 0 45.475859120303497 -932.29796228864188 0 0 0 -279.82251042097505 -213.6353420717619 52.955242491129638 0 52.955242491129638 -942.95591006664495 0 0 0 -289.14781303460154 -204.29651666039661 49.41579072337629 0 49.41579072337629 -913.99562687817797 0 0 0 -279.5730358846439 -189.32406805101857 56.727945668776329 0 56.727945668776329 -952.95676159432696 0 0 0 -285.57020741133647 -182.4616674574238 68.911162260930723 0 68.911162260930723 -945.13508348488403 0 0 0 -281.89918773557679 -215.53137919172661 58.098951987600742 0 58.098951987600742 -957.11612200933337 0 0 0 -293.16187530026514 -182.35713680936215 44.942170335569585 0 44.942170335569585 -994.80824194500019 0 0 0 -294.29134468859047 -209.36270991512674 55.113825528678262 0 55.113825528678262 -1007.0726459475854 0 0 0 -304.10883896567793 -192.16658518213166 90.150856738529001 0 90.150856738529001 -1029.256633468239 0 0 0 -305.35580466259256 -146.44911360495394 102.99683468187845 0 102.99683468187845 -899.25635031992169 0 0 0 -261.42636598121885 -89.431160364518405 161.32596997458518 0 161.32596997458518 -1068.9092172087753 0 0 0 -289.5850943933234 -162.92747260599378 146.32353823901803 0 146.32353823901803 -1295.399433337956 0 0 0 -364.58172648598736 37.511637187852102 -237.0217577470753 0 -237.0217577470753 -988.02992131383689 0 0 0 -237.6295710314962 -194.71132471884698 282.51039986050415 0 282.51039986050415 -840.37372861311087 0 0 0 -258.77126333298952 -0.20095193628941455 0.026044890788098983 0 0.026044890788098983 -0.60991676805656381 0 0 0 -0.20271717608649453 -91.706156962691523 -51.099183184559934 0 -51.099183184559934 -667.84048233782414 0 0 0 -189.88665982512913 -210.50765400521141 19.86131410642497 0 19.86131410642497 -821.7255321914181 0 0 0 -258.05829654915715 -0.39555891982588975 0.057204798120065327 0 0.057204798120065327 -1.1974529732271244 0 0 0 -0.39825297326325348 48.289954168245686 -55.677586238787171 0 -55.677586238787171 -840.74815210425186 0 0 0 -198.1145494840016 -0.39607270934850902 0.068979862005447909 0 0.068979862005447909 -1.1976242363131648 0 0 0 -0.39842423641541846 -72.121594347848713 -7.6258013241379103 0 -7.6258013241379103 -925.36453698590913 0 0 0 -249.37153283343923 -62.630085871178721 -26.100573155022175 0 -26.100573155022175 -875.80191731634022 0 0 0 -234.60800079687976 -27.509610076495846 18.255526722499326 0 18.255526722499326 -899.85686941822132 0 0 0 -231.84161987367861 53.85763631388545 33.33204304070432 0 33.33204304070432 -898.15594027328825 0 0 0 -211.07457598985047 -17.806490486907251 31.893615076779497 0 31.893615076779497 -901.65798755149899 0 0 0 -229.86611950960128 123.82597971150244 110.02412503060778 0 110.02412503060778 -763.39091241032111 0 0 0 -159.89123317470467 -91.800147401764661 -75.92473683329149 0 -75.92473683329149 -994.20031152567572 0 0 0 -271.50011473186032 -51.735763812710047 -80.93509638971409 0 -80.93509638971409 -615.36031001872198 0 0 0 -166.77401845785789 7.5307964848923348 -109.39549571891075 0 -109.39549571891075 -1365.6730104792109 0 0 0 -339.53555349857947 9.9257723762802925 -113.06085645758208 0 -113.06085645758208 -968.26384896341915 0 0 0 -239.58451914678426 -35.106568130690448 -33.700995858778697 0 -33.700995858778697 -868.41538320914424 0 0 0 -225.88048783495833 -59.557054027897834 -32.822113058621653 0 -32.822113058621653 -999.66203333888461 0 0 0 -264.80477184169547 -1.9824529551128762 -4.6731790201301919 0 -4.6731790201301919 -1001.2400711228365 0 0 0 -250.80563101948746 10.509272318665353 24.673444667622334 0 24.673444667622334 -978.51982447472437 0 0 0 -242.00263803901498 -23.033224626283413 2.19485671059374 0 2.19485671059374 -1071.1865312042978 0 0 0 -273.5549389576455 -38.786011161058923 20.681577334691383 0 20.681577334691383 -995.57924564869973 0 0 0 -258.59131420243966 -46.040352031893576 13.461665874299797 0 13.461665874299797 -927.55047352767656 0 0 0 -243.39770638989228 -42.551886778050175 0.61753215038970666 0 0.61753215038970666 -929.54528962452969 0 0 0 -243.02429410064542 -47.923118777297532 6.0865471214772242 0 6.0865471214772242 -919.68934241137686 0 0 0 -241.90311529716746 -37.107243988798473 -2.7254068443795632 0 -2.7254068443795632 -914.93385401713203 0 0 0 -238.01027450148285 -41.345940964598412 10.225784219420802 0 10.225784219420802 -911.39097441541526 0 0 0 -238.18422884500342 -37.772918664312442 22.278446756114135 0 22.278446756114135 -890.8871871345948 0 0 0 -232.16502644972672 -56.31313125232964 7.0827198561441946 0 7.0827198561441946 -912.05031372402482 0 0 0 -242.09086124408759 -47.90482444903364 19.3814896075869 0 19.3814896075869 -894.08497451809581 0 0 0 -235.49744974178202 -35.366555266062733 21.666121404108253 0 21.666121404108253 -915.61314858364767 0 0 0 -237.74492596242817 -31.558817474083753 10.557228401232351 0 10.557228401232351 -909.0443272119519 0 0 0 -235.15078617150948 -40.616679827637199 14.691552166186284 0 14.691552166186284 -933.21566411454842 0 0 0 -243.4580859855464 -29.418933621912402 21.156577064488147 0 21.156577064488147 -914.49322121045407 0 0 0 -235.97803870809139 -47.457654506471044 2.8508435063181423 0 2.8508435063181423 -912.80164088271886 0 0 0 -240.06482384729679 -44.12388589690147 4.4671634338301374 0 4.4671634338301374 -910.95326125396969 0 0 0 -238.76928678771731 -47.589564158994563 8.2092305148426021 0 8.2092305148426021 -911.73312498916675 0 0 0 -239.83067228704022 -42.039172172620511 3.6804836468918438 0 3.6804836468918438 -930.05167355736921 0 0 0 -243.02271143249709 -30.355427070687654 -3.080318380355493 0 -3.080318380355493 -906.24214783696266 0 0 0 -234.14939372691191 -18.675546277829653 -14.195845589440069 0 -14.195845589440069 -927.0118243150182 0 0 0 -236.42184264821162 -21.719484699116947 -2.1074308841825768 0 -2.1074308841825768 -921.79563445720123 0 0 0 -235.87877978907954 -27.93215765873174 -9.3936172518865533 0 -9.3936172518865533 -950.38529909027238 0 0 0 -244.57936418725149 -25.553815920078705 10.349546290939998 0 10.349546290939998 -953.08312713634768 0 0 0 -244.65923576410751 -33.296585949866312 2.5965178809960889 0 2.5965178809960889 -954.59200833264913 0 0 0 -246.97214857062863 -20.403158512217487 11.00379577086278 0 11.00379577086278 -925.38845848464075 0 0 0 -236.44790424921484 -16.167928717910399 0.90954662782723972 0 0.90954662782723972 -948.57409157417351 0 0 0 -241.18550507302189 -23.043774385087545 8.684716983614635 0 8.684716983614635 -951.06080679857223 0 0 0 -243.52614529591528 -22.736023326387112 0.95102199220949046 0 0.95102199220949046 -968.30036200873838 0 0 0 -247.7590963337816 -25.740570981084602 3.5516360381218419 0 3.5516360381218419 -967.86780321942024 0 0 0 -248.40209355012666 -9.9685892172806234 10.997230560295975 0 10.997230560295975 -955.25464365349035 0 0 0 -241.30580821769172 -23.125256211885244 11.741912352902546 0 11.741912352902546 -949.89908583861506 0 0 0 -243.25608551262485 -19.634399057015798 -0.33349776258216934 0 -0.33349776258216934 -985.72301446654819 0 0 0 -251.33935338089123 -42.905398151520103 16.349004242980982 0 16.349004242980982 -967.20905172718449 0 0 0 -252.52861246967632 -0.39635076592642493 0.084191853052264565 0 0.084191853052264565 -1.1977169214135079 0 0 0 -0.39851692183498288 -34.717016981662482 -4.1942109326350874 0 -4.1942109326350874 -967.34957736946672 0 0 0 -250.51664858778281 -64.470586111013745 9.2407366432080948 0 9.2407366432080948 -958.91661894554454 0 0 0 -255.84680126413969 -74.760688002169218 6.7692078112818308 0 6.7692078112818308 -984.0405364309272 0 0 0 -264.70030610827394 -43.686228625297304 -12.911035300064214 0 -12.911035300064214 -952.36573596805647 0 0 0 -249.0129911483383 -5.72376660949692 29.985297510093915 0 29.985297510093915 -956.71054112224874 0 0 0 -240.6085769329369 -0.39630965867285817 0.079824167580847288 0 0.079824167580847288 -1.1977032192371628 0 0 0 -0.39850321947750489 -77.261522047110248 0.35534093750447937 0 0.35534093750447937 -914.17763340339752 0 0 0 -247.85978886262683 -84.409413931410882 -4.7766489940452175 0 -4.7766489940452175 -931.50831851019575 0 0 0 -253.97943311040194 -30.33160727747827 -0.21868389664564347 0 -0.21868389664564347 -919.64719513726686 0 0 0 -237.49470060368594 -8.2920849840788833 18.219850769946788 0 18.219850769946788 -915.32133538630387 0 0 0 -230.90335509259558 -22.630788248215595 28.874238623699966 0 28.874238623699966 -890.77799064160081 0 0 0 -228.35219472245399 -16.431228995237348 27.053959268301696 0 27.053959268301696 -941.55676654092531 0 0 0 -239.49699888404086 -18.928263482070179 25.908826883161964 0 25.908826883161964 -920.54782321866332 0 0 0 -234.86902167518247 
</DataArray>
<DataArray type="Float64" Name="cross_section_updated" format="ascii">
1 1 1 1 1 1 1 1 1 1 1 1 1 1 1 1 1 1 1 1 1 1 1 1 1 1 1 1 1 1 1 1 1 1 1 1 1 1 1 1 1 1 1 1 1 1 1 1 1 1 1 1 1 1 1 1 1 1 1 1 1 1 1 1 1 1 1 1 1 1 1 1 1 1 1 1 1 1 1 1 1 1 1 1 1 1 1 1 1 1 1 1 1 1 1 1 1 1 1 1 1 1 1 1 1 1 1 1 1 1 1 1 1 1 1 1 1 1 1 1 1 1 1 1 1 1 1 1 1 1 1 1 1 1 1 1 1 1 1 1 1 1 1 1 1 1 1 1 1 1 1 1 1 1 1 1 1 1 1 1 1 1 1 1 1 1 1 1 1 1 1 1 1 1 1 1 1 1 1 1 1 1 1 1 1 1 1 1 1 1 1 1 1 1 1 1 1 1 1 1 1 1 1 1 1 1 1 1 1 1 1 1 1 1 1 1 1 1 1 1 1 1 1 1 1 1 1 1 1 1 1 1 1 1 1 1 1 1 1 1 1 1 1 1 1 1 1 1 1 1 1 1 1 1 1 1 1 1 1 1 1 1 1 1 1 1 1 1 1 1 1 1 1 1 1 1 1 1 1 1 1 1 1 1 1 1 1 1 1 1 1 1 1 1 1 1 1 1 1 1 1 1 1 1 1 1 1 1 1 1 1 1 1 1 1 1 1 1 1 1 1 1 1 1 1 1 1 1 1 1 1 1 1 1 1 1 1 1 1 1 1 1 1 1 1 1 1 1 1 1 1 1 1 1 1 1 1 1 1 1 1 1 1 1 1 1 1 1 1 1 1 1 1 1 1 1 1 1 1 1 1 1 1 1 1 1 1 1 1 1 1 1 1 1 1 1 1 1 1 1 1 1 1 1 1 1 1 1 1 1 1 1 1 1 1 1 1 1 1 1 1 1 1 1 1 1 1 1 1 1 1 1 1 1 1 1 1 1 1 1 1 1 1 1 1 1 1 1 1 1 1 1 1 1 1 1 1 1 1 1 1 1 1 1 1 1 1 1 1 1 1 1 1 1 1 1 1 1 1 1 1 1 1 1 1 1 1 1 1 1 1 1 1 1 1 1 1 1 1 1 1 1 1 1 1 1 1 1 1 1 1 1 1 1 1 1 1 1 1 1 1 1 1 1 1 1 1 1 1 1 1 1 1 1 1 1 1 1 0.0010103296711357641 1 1 9.9999926754523738e-07 1 1 9.9999898990447977e-07 1 1 1 1 1 1 1 1 1 1 1 1 1 9.9999888387124203e-07 1 1 1 1 1 9.9999885725017557e-07 1 1 1 1 1 1 1 1 1 1 1 1 1 1 1 1 1 1 1 1 1 1 1 1 1 1 1 1 1 1 1 1 1 1 1 1 1 1 1 1 1 1 1 1 1 1 1 1 1 1 1 1 1 1 1 1 1 1 1 1 1 1 1 1 1 1 1 1 1 1 1 1 1 1 1 1 1 1 1 1 1 1 1 1 1 1 1 1 1 1 1 1 1 1 1 1 1 1 1 1 1 1 1 1 1 1 1 1 1 1 1 1 1 1 1 1 1 1 1 1 1 1 1 1 1 1 1 1 1 1 1 1 1 1 1 1 1 1 1 1 1 1 1 1 1 1 1 1 1 1 1 1 1 1 1 1 1 1 1 1 1 1 1 1 1 1 1 1 9.9999878646391677e-07 1 1 1 9.9999857266185044e-07 1 1 9.9999818924285944e-07 1 1 1 1 1 1 1 1 1 1 1 9.9999770031278246e-07 1 1 1 1 9.9999721447918688e-07 1 1 1 1 1 1 1 1 1 1 1 1 1 1 1 1 1 1 1 1 1 1 1 1 1 1 1 1 1 1 1 1 1 1 1 1 1 1 1 1 1 1 1 1 1 1 1 1 1 1 1 1 1 1 1 1 1 1 1.0000007370082435e-06 1 1 1 1 1 1 1 1 1 1 1 1 1 1 1.0000009092736573e-06 1 1 1.0000008719883782e-06 1 1.0000008806728376e-06 1 1 1 1 1 1 1 1 1 1 1 1 1 1.0000008473583406e-06 1 1 1 1 1 1 1 1 1 1 1 1 1 1 1 1 1 1 1 1 1 1 1 1 1 1 1 1 1 1 1 1 1 1 1 1 1 1 1 1 1 1 1 1 1 1 1 1 1 1 1 1 1 1 1 1 1 1 1 1 1 1 1 1 1 1 1 1 1 1 1 1 1 1 1 1 1 1 1 1 1 1 1 1 1 1 1 1 1 1 1 1 1 1 1 1 1 1 1 1 1 1 1 1 1 1 1 1 1 1 1 1 1 1 1 1 1 1 1 1 1 1 1 1 1 1 1 1 1 1 1 1 1 1 1 1 0.0004910005100374139 1 1 1.0000000451610563e-06 1 1.0000001278158595e-06 1 1 1 1 1 1 1 1 1 1 1 1 1 1 1 1 1 1 1 1 1 1 1 1 1 1 1 1 1 1 1 1 1 1 1 1 1 1 1 1 1 1 1 1 1 1 1 1.000000526844326e-06 1 1 1 1 1 1.0000003004286516e-06 1 1 1 1 1 1 1 
</DataArray>
<DataArray type="Float64" Name="displacement_divergence" format="ascii">
-0.010150494304290596 -0.01029390934595875 -0.0083012048416595506 -0.0086815922013722523 -0.006807787369226468 -0.0057871816075658819 -0.0077580300470918469 -0.0067095012482920723 -0.0062937536075377276 -0.0069915982989661937 -0.0073537136201217435 -0.0068536794356292823 -0.0077853205936312311 -0.0070929881801211191 -0.0084494531833240356 -0.0088863106982969477 -0.0073049035007644305 -0.0079002524869579271 -0.0053541274738379899 -0.0057632163815108037 -0.0058397322105197633 -0.005760740629858159 -0.0065484669366168043 -0.0062421233654283079 -0.005511757779239429 -0.0064694767122202984 -0.0071164977720044511 -0.0064974252551827649 -0.0062802671866874216 -0.0065514470931837127 -0.0061706121378515069 -0.0058061136575671204 -0.0064187975284521123 -0.0066179092338232159 -0.0066759097713773724 -0.0070301568413632838 -0.0066279074042793866 -0.0068909362263729623 -0.0070097631521723359 -0.0072574589400469271 -0.0072850999004045233 -0.0071335312882440452 -0.0070193705024679627 -0.0069147276492423082 -0.0070029467486545718 -0.0071809175569582141 -0.0069266775014038516 -0.0067863907762619052 -0.0077264089450993041 -0.0074757662911250078 -0.0081424242255167742 -0.0074762207672885795 -0.0070090064079737988 -0.0073646724041128552 -0.0073387188768189258 -0.0075331957620190029 -0.007270197722541229 -0.0076774151111120431 -0.0074086412122181125 -0.0073733404129693574 -0.00790719102600701 -0.0078741246532544988 -0.0074962416070804691 -0.0081571004249923734 -0.0082463018644631115 -0.0075752960435419899 -0.0076572752629560049 -0.0082263820683941089 -0.0079797313629444075 -0.0078223678224175509 -0.0076783231325501522 -0.0082381547470015675 -0.0077406195245686253 -0.0075718059740353914 -0.0076000540915603038 -0.0078910617179473123 -0.0074556039809432588 -0.0079194669855342029 -0.0077114425181649057 -0.0075910421422694229 -0.0074612864351967859 -0.0073025212605913048 -0.0074637896212531932 -0.0075703174114424218 -0.0072789470361825336 -0.0076308414758473296 -0.0071255354915656793 -0.0070678152137106862 -0.007378898938413616 -0.0073238928210943507 -0.0072680027145903964 -0.0074976693865888913 -0.0075138450716186085 -0.0075037594589353676 -0.0074064757062667283 -0.0076724718859037351 -0.0074419502021420905 -0.0075814345070214176 -0.0075891458630655412 -0.0076610262231942526 -0.0078099194106201336 -0.0076338564972021836 -0.0077489156188651973 -0.0076804498170681898 -0.0075346387982838554 -0.007814516117518551 -0.0077006934257847146 -0.0080085787377376025 -0.0073837779259348715 -0.0075103959062367311 -0.008214185295273041 -0.0078327802358329687 -0.007430792391438918 -0.0075077471990901944 -0.0074010253343658183 -0.0077541042705252181 -0.007889364394169554 -0.0075311104526571727 -0.0078895193817369869 -0.0075602714890093629 -0.0081373603423223022 -0.0076545322139465665 -0.0079780912868061566 -0.0078419853032851046 -0.0078019631144448029 -0.0082162935468882425 -0.0078843167004260598 -0.0077261891408538716 -0.0076254332467801406 -0.0078212021111217171 -0.007087010547940642 -0.0071192138400907323 -0.0071244098334011657 -0.0068812016862804309 -0.0068014072138007503 -0.0068883968647381055 -0.0068223622276193958 -0.0067064909841165476 -0.0067057489697338879 -0.0065197294252246074 -0.0066415009720593929 -0.00698507503814709 -0.0069836704246158988 -0.0073121634123862744 -0.0074373180456036442 -0.0092926843042732132 -0.0074883972693356518 -0.0083015524705925964 -0.0069901773905867229 -0.0092214922125726309 -0.0079245431844717149 -0.0091194429812069371 -0.0079396085765434995 -0.0081867200197811244 -0.0081648288651579512 -0.0076722712003983859 -0.0076149658590709615 -0.0074742306365891201 -0.0072832960597349269 -0.0076889780456965498 -0.0071756350511847644 -0.0072595697374553264 -0.0072905970122417313 -0.0069968664372314238 -0.0074889499195576678 -0.0073630541080081206 -0.0072727593215413805 -0.0071301303636252047 -0.0071860108565829812 -0.0072496805510832707 -0.0069478701499186592 -0.0070562406622056983 -0.0070054884504216798 -0.0069025134998414867 -0.0071453263529667604 -0.0068556561510617446 -0.0069815953910089615 -0.0069340583246876725 -0.0067335463189839018 -0.00674066787370085 -0.0066474499837165732 -0.0068297377852315072 -0.0069497392553777709 -0.0068703397733272178 -0.007011834733381711 -0.0068124140744882239 -0.0068716048945386965 -0.007078343175669171 -0.0070491678928402135 -0.006940347826876303 -0.0067803083242682638 -0.0069894361485747635 -0.0068056648730098895 -0.0068029865084862362 -0.0068623107206371228 -0.0066607808487098435 -0.0067469590164645904 -0.0066075451124553014 -0.006470461626878074 -0.0063883510142402067 -0.0065435524852916899 -0.0065687786941169835 -0.0066570350807854256 -0.0064164462045995171 -0.0065187767300543958 -0.0065208824067122598 -0.0062175977872683252 -0.0062924458867850003 -0.0061351718745954395 -0.0061320601717828535 -0.0059960363535967176 -0.0061791401618268432 -0.0062114677893852638 -0.0063179725333619846 -0.0068505695816523313 -0.0067523813332475702 -0.0065947628423250713 -0.0065867930113563261 -0.0067106383001321462 -0.0067316276217003271 -0.0067210271451214748 -0.0065682570594981695 -0.0064182208723475298 -0.0063523194918325074 -0.0061925153556224993 -0.006384523738849901 -0.0064637664462891611 -0.0063811654762215599 -0.0064384406783571588 -0.0067155111712388638 -0.0065503550761924628 -0.0059587271985985218 -0.0062266670675253377 -0.0062301983280602102 -0.006121927930659115 -0.0057312801995270321 -0.0059013777583268607 -0.0060435891695386629 -0.0060384666065869674 -0.005896186647479533 -0.0056761174969410799 -0.0056142046174842419 -0.0052866001243021127 -0.0056561852529074808 -0.005309396632034666 -0.0057237174348195793 -0.0057935761589976015 -0.0060036777159551968 -0.0059864187546483094 -0.0059850875192256486 -0.005813788009967881 -0.0056578305115588673 -0.0053516952494593872 -0.0056012586427173564 -0.0053409183558315032 -0.0055875827166521896 -0.0055324036540796012 -0.0057760743079188735 -0.0055771383324388635 -0.0054104324168961632 -0.0056757488236066911 -0.0054345028862850166 -0.0056756296178031018 -0.0056738558934274347 -0.005733549159610489 -0.0058433212017325459 -0.0058287013075956351 -0.0058481688267562476 -0.0059667477730308005 -0.0059706427020851591 -0.0059062022332118935 -0.0058340273732254699 -0.0057532085884377943 -0.0054668694355331088 -0.0055719952262725386 -0.0056716097932651838 -0.0056235229438210826 -0.0057938221415977237 -0.0057463243758398563 -0.0057253864320293418 -0.0058145880377204889 -0.0058989509455590339 -0.0059785129015431371 -0.0060482346405609649 -0.0058789918328147816 -0.0060534972810000753 -0.0059258033534591581 -0.0060079858256891008 -0.0059703618059678693 -0.0060893593312076263 -0.0061677083011346667 -0.0062522138258262749 -0.0061571029296243474 -0.0061619294991696327 -0.0060892838432523022 -0.0062392603673713867 -0.0062003457917319885 -0.0062659383897436804 -0.0063629611504059658 -0.0063830827494742171 -0.0065534548331856995 -0.0064808925574432758 -0.0064853023242924801 -0.0063760054263292676 -0.0063201383316436183 -0.0064125675516880087 -0.006639742722600192 -0.0065120317359515234 -0.0065218305484496808 -0.0063465904851882776 -0.0063978829861825737 -0.0066003802332457728 -0.0064280627343315036 -0.0065543222224746511 -0.006351459576411863 -0.0063636738089303674 -0.0062809785298013621 -0.0062363679504929548 -0.0061222316802697491 -0.00606453627896196 -0.0061173859565193944 -0.0060335916133504447 -0.0060695249265486986 -0.0062929950273628021 -0.0062070284238252872 -0.0060507541778700939 -0.0061109578713797186 -0.006172935920255973 -0.006200150468653607 -0.0062378574479783067 -0.0062363675262813167 -0.006235816177077913 -0.0062371315377413583 -0.0061599019165736735 -0.0061690769088869404 -0.0062025225640980897 -0.0060622529686529814 -0.0060570074262882023 -0.0061220341421435454 -0.0061616300443197297 -0.0060027297930013296 -0.0061615523879103573 -0.0060309592235608112 -0.0060748100620075692 -0.0060219445324426191 -0.0061157952010172274 -0.0059572613147106657 -0.0061518079057570826 -0.0059911155125218496 -0.0060996063265521955 -0.0059241002968009986 -0.0059615017192203301 -0.0058371639443849221 -0.0058992534282192068 -0.0060550980916690977 -0.0061397105568902904 -0.0060212926485144272 -0.0061323302876700181 -0.0061824915937316698 -0.0061754912185433553 -0.0063157749111691641 -0.0063065139219031716 -0.0062548700066673707 -0.0062937695252849868 -0.0062255180221202078 -0.0063221308208178256 -0.0061405475179689695 -0.006124406856479872 -0.0061317243055941384 -0.0061753944694125928 -0.0060924672657564904 -0.0060535599940254314 -0.0061712456155521567 -0.0060164350555756141 -0.0061350186654212657 -0.0060030041913242682 -0.0061826225647607924 -0.0060833852077308848 -0.0058608448297414462 -0.0058418108296842131 -0.0057463588805921617 -0.0059390216607826951 -0.0059433346149418698 -0.0060974306931863356 -0.0059226066608423777 -0.0061563635214053614 -0.0056624098518818222 -0.0053577028986376701 -0.0057847045460960311 -0.0057937514009385252 -0.0054587956118893888 -0.0055950163576551359 -0.0058646410814980482 -0.0057371207517563361 -0.0058739491647082365 -0.0060954242944823434 -0.0060064765537366782 -0.006087934356075627 -0.0061388935703879099 -0.0059082682861183317 -0.0060552297749185803 -0.0063195249121803798 -0.0066026033083666363 -0.0065522321759574342 -0.0062800101498179106 -0.0062896295431725119 -0.0061832505475169497 -0.0062489468447277929 -0.0062896021471069707 -0.0064351178037783952 -0.006383415884520488 -0.0064628082471567538 -0.0066237087007943868 -0.0064492107387195685 -0.0066158780355241725 -0.0064665209109280031 -0.0066870439723583086 -0.0069001926465225016 -0.0066909300775834651 -0.0068602557814307907 -0.0069611624021112817 -0.0073751161619801942 -0.0073617294913445042 -0.0066800167902495988 -0.0068924666067464446 -0.0076068164211239575 -0.0083949011553589303 -0.0072346628379327399 -0.0076252993270011782 -0.0068715673771554964 -0.00687293967462832 -0.0070607311822387161 -0.0069248264377879676 -0.0060741742883174965 -0.0067372649690828484 -0.0062353723060486754 -0.0063779827862485861 -0.0069992771363549949 -0.0064622492746936877 -0.0060137012885567442 -0.0060536677236150693 -0.0061685668922840664 -0.0062826678218849165 -0.0060919714812042725 -0.0061750092935918023 -0.0061611479053080564 -0.0058774627007029956 -0.0059665249268121279 -0.0058633530558732799 -0.0057555067893768769 -0.0056928104262745083 -0.0054446808810191122 -0.0056976250406522988 -0.0057808722004456525 -0.0056241564629096463 -0.0069175562448994116 -0.0070614983977238255 -0.0070077224459941792 -0.0070317371161721098 -0.0069606380684756886 -0.0067625131948021583 -0.0067368098291421402 -0.0069265744989763607 -0.0066403829890971378 -0.0068053900635772768 -0.0065237999975366195 -0.006738275729623891 -0.006560682688497993 -0.0067266701712539664 -0.0068173154418788573 -0.0066630515922975475 -0.006646649984431971 -0.006543433528678394 -0.0067713747424905241 -0.0067947943528452875 -0.0069431982960773964 -0.006651140852071448 -0.0067302175504372896 -0.0069560997928205179 -0.0070879383880251556 -0.0073679626435851908 -0.0069496217602912254 -0.007151972705782994 -0.0071181864675040896 -0.0072815762681383012 -0.0075039598783142314 -0.007914133530653622 -0.0079849940082032111 -0.0077023649310942917 -0.0074692594039220683 -0.0077823788459516763 -0.0080600245023186717 -0.0080318724476981657 -0.0094886257558781523 -0.010470446316731455 -0.010436283678163738 -0.0087749360219680217 -0.0071787713906414918 -0.0076479562680128385 -0.008559766106268088 -0.0057644478971027313 -0.0073819564946529543 -0.0071350112965604708 -0.0069193241706948933 -0.0073183326437980395 -0.0067145596481811287 -0.0071833509235023768 -0.006864359842407991 -0.0072844978124794457 -0.0067529130383028463 -0.0068675413980826133 -0.0069523270411605831 -0.0066600020293639539 -0.0067844928857626226 -0.0068056010775443265 -0.0068810295487441095 -0.0059857444053057624 -0.0065510474530606844 -0.0055470319143807179 -0.0057849132308639695 -0.0060670922146549089 -0.0058126430119920247 -0.0058796665898723927 -0.005157058986993035 -0.0046127038481090926 -0.005853556258456058 -0.0061765264693013355 -0.0058615782380821435 -0.0051999867801287014 -0.0065635615608108377 -0.006607570796156495 -0.0051682801832411696 -0.0057338783730875309 -0.011555711492018339 0.00062247727297373712 -0.0064516413134193401 -0.009627177438104928 -0.0056061150276723037 -0.49216279832599685 -0.0035855932065786134 -0.0053227857275206236 -0.99389703256482953 -0.0012221007848803866 -0.00099804485429291594 -0.99498044130659746 -0.0041130831127422773 -0.0039983119851682292 -0.0030434952533065773 -0.0042937239418653628 -0.0039439583433169279 -0.0050538379685656082 -0.0047186207445393258 -0.0051275686721728719 -0.0050881008545486106 -0.0054014386059819952 -0.0046417214374333271 -0.0052628968040813739 -0.0039395717235282401 -0.99558553939720307 -0.0049623029218764519 -0.0050658526493074507 -0.0054390369381338011 -0.005401994281763689 -0.0055762413226861374 -0.99573936223271353 -0.0057802521199087353 -0.0054650869513076794 -0.0054237399673541242 -0.005337600790357902 -0.0057581112852537336 -0.0056827167318491412 -0.0056101574837688906 -0.0058528768543559262 -0.0056480834431862498 -0.0054974644093356284 -0.0055691182531321382 -0.0057763157451189776 -0.0060176285844245614 -0.0058150266639525189 -0.0059677708532894381 -0.0059050520982854016 -0.0058847774564277922 -0.0058944445867141759 -0.0058170086445832412 -0.0052109970923605621 -0.0051188467546263369 -0.0056183697380520203 -0.0063819415181840256 -0.0066176324516775686 -0.006437720256108892 -0.0063312889050043397 -0.0060561305869830939 -0.0060298322709243235 -0.0063320293426238766 -0.0061266117128591924 -0.0063193434886930355 -0.0060682772301063059 -0.006138743315407813 -0.0062774762417948382 -0.0061815210446553859 -0.0059334614509743422 -0.0058743249672357639 -0.0056326168207956329 -0.0061967011278110731 -0.0062742170483598703 -0.0058792062615445062 -0.0067725555913162871 -0.005279983062728838 -0.0069804988489405306 -0.0078496386314619304 -0.0046586796520636069 -0.0043354446423160622 -0.0054710501260690492 -0.0052149454108631962 -0.0052815406967575695 -0.0057527066221149115 -0.0053850311206938006 -0.0055487451496757101 -0.0053477834152367565 -0.005559534884361228 -0.0056443353898478193 -0.0056217159220293689 -0.0056841285021331511 -0.0060099388687680708 -0.0059576000447744346 -0.0061359052744592302 -0.0060012117079416144 -0.0060347679000946064 -0.0059333993281813976 -0.0059156837485463964 -0.0060606901612844377 -0.0061817201661927001 -0.0063853186799127538 -0.0064984717619332444 -0.0061658567304649081 -0.0063075624722670476 -0.006182513085632637 -0.0063579439977825124 -0.0063770290878479852 -0.0064859156139455976 -0.0067599346528077059 -0.0065658087549954613 -0.0065933169532456648 -0.0067630166248652396 -0.0063378030932726981 -0.0066079488603873471 -0.0063375146924645343 -0.0065326739869570327 -0.0063890788405354532 -0.0065532853468007468 -0.0065424564183600709 -0.0067012359726740245 -0.0065179822938760679 -0.0065249113116099267 -0.0063574261090715845 -0.0064283798518877389 -0.0063380817864876204 -0.0063292935830951413 -0.0063466155759271392 -0.0063807916447756047 -0.0063190482770505187 -0.0062527571289794637 -0.0062806381328206484 -0.0061695339374981117 -0.0062983517828009705 -0.006222468797262487 -0.006223068430321485 -0.0061981483637870149 -0.0060611916019331913 -0.0061510930151659204 -0.0060077526966514916 -0.0059026085285001639 -0.0059338436742990275 -0.0059266556445301266 -0.0057633070495379246 -0.0061327349429535216 -0.0060533229090378726 -0.0061000846966690146 -0.0062803924292938046 -0.0062002392542799822 -0.0064900236444941084 -0.0063227564999236707 -0.0064861569501251104 -0.0065306485626847044 -0.0066332983172727802 -0.0065763607847789673 -0.0065854861030368306 -0.0063299658003857506 -0.0065122594295088654 -0.0065055015806644301 -0.0063081371258603969 -0.0063457069575057201 -0.006375575984853929 -0.0062415561524128693 -0.0063805679218355837 -0.0064415350953432315 -0.0063314422091526601 -0.0063201999146216548 -0.0064420305567567115 -0.0064435424549524334 -0.0063463580249335239 -0.0062957881784710956 -0.0063517288253124027 -0.0063367654493681203 -0.00627896693827662 -0.0062664828981692233 -0.0062801988018065247 -0.0062523987119269542 -0.0063089567481163233 -0.0063494600258847331 -0.0064587174849775608 -0.0061095994925776664 -0.0061736180081259362 -0.0060424616333734499 -0.0062151796860231423 -0.0062551224425443815 -0.0061735141922192316 -0.0062304826313380468 -0.0060926426046218479 -0.0059981597481345017 -0.006060665887162961 -0.0059302532333091185 -0.0059093245171848718 -0.0061334104951980065 -0.0061138094043088898 -0.0058314146017996032 -0.0059595881382801391 -0.0060181051756480058 -0.005842252228754008 -0.006047522792268667 -0.0059088838115225611 -0.0056693016747406122 -0.0059127593037351378 -0.99626139484814713 -0.0060011941275181363 -0.0057781460493190884 -0.0061457487069357664 -0.99495304894452463 -0.0061221253553820631 -0.0059410108216366719 -1.0003916962830388 -0.0063612398877739319 -0.0061389395090938048 -0.0063940115790454971 -0.0062165415449525474 -0.006126559989905668 -0.0064424536696369439 -0.0063401235385749342 -0.0062689005584396357 -0.00618985372024633 -0.0063573044187568983 -0.0061435463198717122 -0.9803678488460581 -0.006435802104613933 -0.0063015417905501461 -0.0065780040710076426 -0.0066478404384401335 -1.0557382062551293 -0.0066437409481104881 -0.0066227192025191117 -0.0065471953644201941 -0.0066838168133507569 -0.0067161647767562394 -0.006642989608719202 -0.0065877342026547242 -0.0065607236789032991 -0.0066484949789296088 -0.0065911201737362812 -0.006430303498549339 -0.0064184958522776614 -0.0063275629398406724 -0.0062789941037819713 -0.0063589569621191333 -0.0063729904952577188 -0.0062805154083527513 -0.0064644599968110422 -0.0063959013197039203 -0.0063479856208242258 -0.0064405331563637883 -0.0065661008155125239 -0.0064187716323714228 -0.0064573066384110561 -0.006443528248032071 -0.0063418313511979518 -0.0064519163062367497 -0.0062807596092667728 -0.0063913574960076484 -0.0063135836935191425 -0.00631723466105584 -0.0063839513412624616 -0.0063218530336681955 -0.0062788642528527755 -0.0063681061875159178 -0.0063568614901741635 -0.0063033374495688327 -0.0062854643652118514 -0.0062778292133106178 -0.0061307247978099333 -0.0062784960673143708 -0.0061719966969392137 -0.0062294726773832187 -0.0062827897876242128 -0.006289211198349548 -0.006335936582540426 -0.0063226622464907511 -0.0061848473101478452 -0.0061031020798874153 -0.0063025447559737699 -0.0062272374512615941 -0.0062058938763463033 -0.0059602630737730644 -0.0061230801390045045 -0.0060681182708824666 -0.0062097179295677995 -0.006236890943885319 -0.0066668705126722641 -0.99639358529780653 -0.0063187983747455406 -0.0064228329827494372 -0.0061431351910116588 -0.006271768812517689 -0.0062304257810724128 -0.0062698738190390957 -0.0064975759853116086 -0.0063560984276004456 -0.0063975499795029117 -0.0064020861622888642 -0.0062787602541682225 -0.0064796384568053464 -0.0064897032317300096 -0.0062602678413605645 -0.99856158387809968 -0.0064961741262076836 -0.0063213861948769323 -0.99538857630719324 -0.0064343548480138082 -0.98615048818506823 -0.0064068820730395007 -0.0063719566904928537 -0.006224162687763185 -0.0063224490969362983 -0.0063506656912944714 -0.0065779352786400277 -0.0064163676356331833 -0.0063066237410154269 -0.0062008960956567577 -0.0061683898371948532 -0.0062862685106266775 -0.0062810615127983551 -0.006179639760534282 -1.0320998967083592 -0.0061656952291952727 -0.0062433770029887217 -0.0061866606007804142 -0.0061960953027180091 -0.0063345336592387017 -0.0062723379729970963 -0.0062550002272208638 -0.0063492431146483751 -0.0068622171530667297 -0.0062445749517415911 -0.006659991974176974 -0.0067285614901309507 -0.0070602426147820391 -0.0069316030826355908 -0.006650503037411183 -0.0064338028727539479 -0.0064108581606479829 -0.0083284599975025596 -0.010454100887110631 -0.010735439911300371 -0.006791883824948353 -0.0089644977875751163 -0.0067842004153393885 -0.0072994953321686047 -0.007050544952785575 -0.0063635244839768332 -0.0068347861854709986 -0.007479387186567427 -0.0081663576312389942 -0.0077417900897162493 -0.0076488572354828878 -0.0084030162493660999 -0.0086090158242337501 -0.0086119634808038189 -0.0079574487981816412 -0.0075163336300918425 -0.0073905450087098992 -0.0077381554344381834 -0.0077378575774321012 -0.0069995000835435858 -0.0070415876015004885 -0.00731615598690925 -0.0074767786640481532 -0.0074058126708053708 -0.006993523496262713 -0.0074512511689502755 -0.0077425392035337468 -0.007520324733717978 -0.0075063806209119902 -0.0078342836319353123 -0.0074283952323031871 -0.0065589413697798929 -0.006886332621261624 -0.0065495473457986633 -0.0064807990820476627 -0.0069914299458313199 -0.006894688995427934 -0.0066626132335072114 -0.0066977071853876295 -0.0070551250095867444 -0.006951801759411444 -0.0071629640250799338 -0.0065614345594153106 -0.0069262293420311802 -0.0065036703585658884 -0.0065992930005208394 -0.0066185409114368557 -0.0065292693030319614 -0.0066919411599456399 -0.0063273390092068449 -0.0066838268877056281 -0.0069098568695982153 -0.0066779020144063159 -0.0068869771502701183 -0.0071421600794004669 -0.0068978319476557179 -0.0068715889792857754 -0.0068850613165551099 -0.007032826546592319 -0.0069985847702987714 -0.0066477610035289222 -0.0065647018907776244 -0.0066970329445358578 -0.0067609868277528195 -0.0066081539426181626 -0.0074613533795093532 -0.0074505939466269749 -0.00750331925847558 -0.0076291958749206568 -0.0073601793203032836 -0.0071365167600466852 -0.0074678067266517219 -0.0071378695423697904 -0.0072127429563329792 -0.0071639975642053648 -0.0072258958231568539 -0.007182654909383808 -0.0072678262120495045 -0.007392099098002692 -0.0074426267057287332 -0.007363018272997528 -0.0074999180607386307 -0.0073890278173763414 -0.0076227378762435648 -0.0077780557911280319 -0.0076692625315398387 -0.0074323525166221241 -0.0075967265885677196 -0.0073966670049561518 -0.0072345855787015537 -0.0073797410824223246 -0.0073915094309921284 -0.0073133630467945082 -0.00752500908351229 -0.0076252865590084361 -0.0076332741399160672 -0.0075631341771299045 -0.00750974467126987 -0.0080007236102290023 -0.0067489394857318565 -0.0070303552145218225 -0.006636123784614617 -0.006995562760524373 -0.0072286953258650331 -0.0069893258971160908 -0.0071392551852834142 -0.0070474796933894246 -0.0073290468825066221 -0.0073572836172147646 -0.0076027209741419514 -0.0076338951165648133 -0.0065356591495304775 -0.0072396273598330906 -0.0091145431621496922 -0.0059407392757873934 -0.0064692815833247361 -0.50679294021623589 -0.0047471664956282179 -0.0064514574137289199 -0.99563243315813477 -0.0049528637371000286 -0.99606059103854738 -0.0062342883208359665 -0.0058652000199219921 -0.0057960404968419865 -0.005276864399746263 -0.0057466529877400127 -0.0039972808293676221 -0.0067875028682964911 -0.0041693504614464527 -0.0084883888374644931 -0.005989612978669609 -0.0056470121958739627 -0.0066201192960423753 -0.0062701407754871957 -0.0060500659509753751 -0.0068388734739411308 -0.0064647828550609826 -0.0060849426597473083 -0.0060756073525161242 -0.0060475778824291837 -0.0059502568625370567 -0.0059546057211251197 -0.0058041256612431716 -0.0060522715311022157 -0.0058874362435445415 -0.0059436231490606894 -0.0058787696542877167 -0.0060864521496386409 -0.0058994509677022799 -0.0060016205961824221 -0.0059692321696929156 -0.0059957668071760201 -0.006075567785812433 -0.0058537348431728286 -0.0059105460662052522 -0.0058969694947269835 -0.0061144841046812809 -0.0061164808941026882 -0.0061743037142657359 -0.0059111976062303472 -0.0060296376268255403 -0.0060881536323978552 -0.0061939774083445143 -0.0062100523387531442 -0.0060326452054423191 -0.0060814021378156197 -0.0062834838345222632 -0.0063132153117419036 -0.99629230458745788 -0.0062629162146945541 -0.0063961700316034764 -0.0066175076527068451 -0.0062253247787084562 -0.0060152144233234055 -0.99625804869376289 -0.0061964947215656721 -0.006349485827760043 -0.0059373675150921554 -0.0057725838773148852 -0.005708804868061336 -0.0059874249721010367 -0.0058717255418795633 
</DataArray>
</CellData>
</Piece>
</UnstructuredGrid>
</VTKFile>
