<?xml version="1.0"?>
<VTKFile type="UnstructuredGrid" version="0.1" byte_order="LittleEndian">
<UnstructuredGrid>
<Piece NumberOfPoints="3142" NumberOfCells="1054">
<Points>
<DataArray type="Float64" NumberOfComponents="3" format="ascii">
0.02576622439977887 0.024532886826226379 0 0 0 0 0.049999999999899652 0 0 0.02576622439977887 0.024532886826226379 0 0 0 0 0 0.050000000000207989 0 0.02576622439977887 0.024532886826226379 0 0.049999999999899652 0 0 0.053064897599215843 0.048131547304697528 0 0.02576622439977887 0.024532886826226379 0 0.053064897599215843 0.048131547304697528 0 0 0.050000000000207989 0 0 0.050000000000207989 0 0 0.10000000000041601 0 0.044310582753132287 0.101412518374475 0 0 0.10000000000041601 0 0.044310582753132287 0.101412518374475 0 0 0.15000000000062411 0 0.053064897599215843 0.048131547304697528 0 0.044310582753132287 0.101412518374475 0 0.083411279318303222 0.089699755330707398 0 0.053064897599215843 0.048131547304697528 0 0 0.050000000000207989 0 0.044310582753132287 0.101412518374475 0 0.044310582753132287 0.101412518374475 0 0.083411279318303222 0.089699755330707398 0 0.065374659239632718 0.1448908038746782 0 0.083411279318303222 0.089699755330707398 0 0.065374659239632718 0.1448908038746782 0 0.1053400320299198 0.12877248826361379 0 0.083411279318303222 0.089699755330707398 0 0.12372429750337779 0.095814237875728972 0 0.1053400320299198 0.12877248826361379 0 0.12372429750337779 0.095814237875728972 0 0.1053400320299198 0.12877248826361379 0 0.14332333627550789 0.14578431753966009 0 0.12372429750337779 0.095814237875728972 0 0.10266856499169109 0.044518360900210059 0 0.14618258501891079 0.062070108745602003 0 0.083411279318303222 0.089699755330707398 0 0.12372429750337779 0.095814237875728972 0 0.10266856499169109 0.044518360900210059 0 0.10266856499169109 0.044518360900210059 0 0.099999999999814668 0 0 0.14999999999970359 0 0 0.049999999999899652 0 0 0.053064897599215843 0.048131547304697528 0 0.099999999999814668 0 0 0.053064897599215843 0.048131547304697528 0 0.10266856499169109 0.044518360900210059 0 0.099999999999814668 0 0 0.053064897599215843 0.048131547304697528 0 0.083411279318303222 0.089699755330707398 0 0.10266856499169109 0.044518360900210059 0 0.044081577119474857 0.2271058242433576 0 0 0.20000000000083221 0 0 0.25000000000104028 0 0.044081577119474857 0.2271058242433576 0 0 0.20000000000083221 0 0.038512288486115001 0.1844147282893184 0 0.044081577119474857 0.2271058242433576 0 0.038512288486115001 0.1844147282893184 0 0.083105206071467416 0.20007701332709979 0 0.038512288486115001 0.1844147282893184 0 0 0.15000000000062411 0 0.065374659239632718 0.1448908038746782 0 0.044310582753132287 0.101412518374475 0 0 0.15000000000062411 0 0.065374659239632718 0.1448908038746782 0 0.038512288486115001 0.1844147282893184 0 0.065374659239632718 0.1448908038746782 0 0.083105206071467416 0.20007701332709979 0 0 0.20000000000083221 0 0.038512288486115001 0.1844147282893184 0 0 0.15000000000062411 0 0.065374659239632718 0.1448908038746782 0 0.1053400320299198 0.12877248826361379 0 0.106902708054812 0.16453234188234539 0 0.1053400320299198 0.12877248826361379 0 0.106902708054812 0.16453234188234539 0 0.14332333627550789 0.14578431753966009 0 0.065374659239632718 0.1448908038746782 0 0.106902708054812 0.16453234188234539 0 0.083105206071467416 0.20007701332709979 0 0.083105206071467416 0.20007701332709979 0 0.095326043202144745 0.24554465089224409 0 0.13737030665753211 0.20313708640667491 0 0.106902708054812 0.16453234188234539 0 0.083105206071467416 0.20007701332709979 0 0.13737030665753211 0.20313708640667491 0 0.044081577119474857 0.2271058242433576 0 0.083105206071467416 0.20007701332709979 0 0.095326043202144745 0.24554465089224409 0 0.044081577119474857 0.2271058242433576 0 0.095326043202144745 0.24554465089224409 0 0.049706944316556423 0.27522722923869108 0 0.095326043202144745 0.24554465089224409 0 0.14377654328998779 0.2442024734791064 0 0.13737030665753211 0.20313708640667491 0 0.17933913398461551 0.2350063570234002 0 0.14377654328998779 0.2442024734791064 0 0.13737030665753211 0.20313708640667491 0 0.17933913398461551 0.2350063570234002 0 0.13737030665753211 0.20313708640667491 0 0.18124454140915969 0.18790916706335251 0 0.18124454140915969 0.18790916706335251 0 0.14332333627550789 0.14578431753966009 0 0.18652628422869419 0.14162325200928061 0 0.106902708054812 0.16453234188234539 0 0.13737030665753211 0.20313708640667491 0 0.14332333627550789 0.14578431753966009 0 0.13737030665753211 0.20313708640667491 0 0.18124454140915969 0.18790916706335251 0 0.14332333627550789 0.14578431753966009 0 0.14332333627550789 0.14578431753966009 0 0.18652628422869419 0.14162325200928061 0 0.16141998738593399 0.10404039647458049 0 0.18652628422869419 0.14162325200928061 0 0.22985637510995899 0.1298347970200906 0 0.2185883431182947 0.18019736283949719 0 0.22985637510995899 0.1298347970200906 0 0.2185883431182947 0.18019736283949719 0 0.25557216766470708 0.15874861286892261 0 0.2185883431182947 0.18019736283949719 0 0.25557216766470708 0.15874861286892261 0 0.26429849586623999 0.19346700179430079 0 0.18124454140915969 0.18790916706335251 0 0.18652628422869419 0.14162325200928061 0 0.2185883431182947 0.18019736283949719 0 0.17933913398461551 0.2350063570234002 0 0.18124454140915969 0.18790916706335251 0 0.224700362040408 0.22206622194729711 0 0.18124454140915969 0.18790916706335251 0 0.2185883431182947 0.18019736283949719 0 0.224700362040408 0.22206622194729711 0 0.2185883431182947 0.18019736283949719 0 0.224700362040408 0.22206622194729711 0 0.26429849586623999 0.19346700179430079 0 0.224700362040408 0.22206622194729711 0 0.25195515620380449 0.25883339815888678 0 0.21049769590865089 0.26857363548218488 0 0.17933913398461551 0.2350063570234002 0 0.224700362040408 0.22206622194729711 0 0.21049769590865089 0.26857363548218488 0 0.184418230509967 0.038773194583122873 0 0.14999999999970359 0 0 0.14618258501891079 0.062070108745602003 0 0.184418230509967 0.038773194583122873 0 0.14618258501891079 0.062070108745602003 0 0.19922788606653311 0.085920220746880993 0 0.184418230509967 0.038773194583122873 0 0.14999999999970359 0 0 0.19999999999955789 0 0 0.10266856499169109 0.044518360900210059 0 0.14999999999970359 0 0 0.14618258501891079 0.062070108745602003 0 0.12372429750337779 0.095814237875728972 0 0.14618258501891079 0.062070108745602003 0 0.16141998738593399 0.10404039647458049 0 0.12372429750337779 0.095814237875728972 0 0.14332333627550789 0.14578431753966009 0 0.16141998738593399 0.10404039647458049 0 0.18652628422869419 0.14162325200928061 0 0.16141998738593399 0.10404039647458049 0 0.19922788606653311 0.085920220746880993 0 0.14618258501891079 0.062070108745602003 0 0.16141998738593399 0.10404039647458049 0 0.19922788606653311 0.085920220746880993 0 0.18652628422869419 0.14162325200928061 0 0.22985637510995899 0.1298347970200906 0 0.19922788606653311 0.085920220746880993 0 0.22985637510995899 0.1298347970200906 0 0.19922788606653311 0.085920220746880993 0 0.24218496799700481 0.089025544070598317 0 0.22985637510995899 0.1298347970200906 0 0.24218496799700481 0.089025544070598317 0 0.27474541102162192 0.11822029332053539 0 0.19922788606653311 0.085920220746880993 0 0.24218496799700481 0.089025544070598317 0 0.22668068146512929 0.045875643423131329 0 0.24218496799700481 0.089025544070598317 0 0.22668068146512929 0.045875643423131329 0 0.27499999999933927 0.060310814194988557 0 0.184418230509967 0.038773194583122873 0 0.19922788606653311 0.085920220746880993 0 0.22668068146512929 0.045875643423131329 0 0.184418230509967 0.038773194583122873 0 0.22668068146512929 0.045875643423131329 0 0.19999999999955789 0 0 0.22668068146512929 0.045875643423131329 0 0.19999999999955789 0 0 0.24999999999941211 0 0 0.24999999999941211 0 0 0.27499999999933927 0.060310814194988557 0 0.29999999999926641 0 0 0.22668068146512929 0.045875643423131329 0 0.24999999999941211 0 0 0.27499999999933927 0.060310814194988557 0 0.27499999999933927 0.060310814194988557 0 0.29999999999926641 0 0 0.32541448401678508 0.046215317981507749 0 0.29999999999926641 0 0 0.32541448401678508 0.046215317981507749 0 0.34999999999912063 0 0 0.32541448401678508 0.046215317981507749 0 0.3615861437013822 0.03582617922508851 0 0.35312867752657662 0.084946736076730367 0 0.3615861437013822 0.03582617922508851 0 0.35312867752657662 0.084946736076730367 0 0.39591832466117061 0.056982757562006353 0 0.32541448401678508 0.046215317981507749 0 0.3615861437013822 0.03582617922508851 0 0.34999999999912063 0 0 0.3615861437013822 0.03582617922508851 0 0.34999999999912063 0 0 0.3999999999989749 0 0 0.35312867752657662 0.084946736076730367 0 0.36246644853392812 0.1399454205365751 0 0.39823268594401579 0.1116623613130045 0 0.35312867752657662 0.084946736076730367 0 0.32215584939770009 0.1218492143506909 0 0.36246644853392812 0.1399454205365751 0 0.32541448401678508 0.046215317981507749 0 0.35312867752657662 0.084946736076730367 0 0.3096713403101819 0.085471541595262421 0 0.35312867752657662 0.084946736076730367 0 0.32215584939770009 0.1218492143506909 0 0.3096713403101819 0.085471541595262421 0 0.32215584939770009 0.1218492143506909 0 0.3096713403101819 0.085471541595262421 0 0.27474541102162192 0.11822029332053539 0 0.27499999999933927 0.060310814194988557 0 0.32541448401678508 0.046215317981507749 0 0.3096713403101819 0.085471541595262421 0 0.27499999999933927 0.060310814194988557 0 0.3096713403101819 0.085471541595262421 0 0.27474541102162192 0.11822029332053539 0 0.24218496799700481 0.089025544070598317 0 0.27499999999933927 0.060310814194988557 0 0.27474541102162192 0.11822029332053539 0 0.22985637510995899 0.1298347970200906 0 0.27474541102162192 0.11822029332053539 0 0.25557216766470708 0.15874861286892261 0 0.27474541102162192 0.11822029332053539 0 0.25557216766470708 0.15874861286892261 0 0.29336099386129338 0.15892013001050981 0 0.25557216766470708 0.15874861286892261 0 0.29336099386129338 0.15892013001050981 0 0.26429849586623999 0.19346700179430079 0 0.29336099386129338 0.15892013001050981 0 0.31255190597181792 0.19850845631528771 0 0.33084213324567391 0.16272720141332131 0 0.29336099386129338 0.15892013001050981 0 0.26429849586623999 0.19346700179430079 0 0.31255190597181792 0.19850845631528771 0 0.32215584939770009 0.1218492143506909 0 0.27474541102162192 0.11822029332053539 0 0.29336099386129338 0.15892013001050981 0 0.224700362040408 0.22206622194729711 0 0.28040350263641872 0.23054717217092141 0 0.25195515620380449 0.25883339815888678 0 0.224700362040408 0.22206622194729711 0 0.28040350263641872 0.23054717217092141 0 0.26429849586623999 0.19346700179430079 0 0.28040350263641872 0.23054717217092141 0 0.26429849586623999 0.19346700179430079 0 0.31255190597181792 0.19850845631528771 0 0.28040350263641872 0.23054717217092141 0 0.33758650185219202 0.23837101504325639 0 0.29132859388405002 0.27203693976649962 0 0.28040350263641872 0.23054717217092141 0 0.33758650185219202 0.23837101504325639 0 0.31255190597181792 0.19850845631528771 0 0.33758650185219202 0.23837101504325639 0 0.31255190597181792 0.19850845631528771 0 0.3572130504031617 0.1874703368446563 0 0.33758650185219202 0.23837101504325639 0 0.3572130504031617 0.1874703368446563 0 0.38831533174504851 0.2189834941785925 0 0.33758650185219202 0.23837101504325639 0 0.38831533174504851 0.2189834941785925 0 0.3786248352540974 0.27082301512024259 0 0.32215584939770009 0.1218492143506909 0 0.29336099386129338 0.15892013001050981 0 0.33084213324567391 0.16272720141332131 0 0.32215584939770009 0.1218492143506909 0 0.33084213324567391 0.16272720141332131 0 0.36246644853392812 0.1399454205365751 0 0.31255190597181792 0.19850845631528771 0 0.33084213324567391 0.16272720141332131 0 0.3572130504031617 0.1874703368446563 0 0.3572130504031617 0.1874703368446563 0 0.36246644853392812 0.1399454205365751 0 0.39801143831225599 0.16651381068160659 0 0.33084213324567391 0.16272720141332131 0 0.3572130504031617 0.1874703368446563 0 0.36246644853392812 0.1399454205365751 0 0.36246644853392812 0.1399454205365751 0 0.39801143831225599 0.16651381068160659 0 0.39823268594401579 0.1116623613130045 0 0.39801143831225599 0.16651381068160659 0 0.42905200079338551 0.19982395548231649 0 0.44288491854585582 0.14116182884956319 0 0.39801143831225599 0.16651381068160659 0 0.44288491854585582 0.14116182884956319 0 0.39823268594401579 0.1116623613130045 0 0.38831533174504851 0.2189834941785925 0 0.42377727103934271 0.25099357235810238 0 0.3786248352540974 0.27082301512024259 0 0.3572130504031617 0.1874703368446563 0 0.39801143831225599 0.16651381068160659 0 0.38831533174504851 0.2189834941785925 0 0.39801143831225599 0.16651381068160659 0 0.38831533174504851 0.2189834941785925 0 0.42905200079338551 0.19982395548231649 0 0.38831533174504851 0.2189834941785925 0 0.42905200079338551 0.19982395548231649 0 0.42377727103934271 0.25099357235810238 0 0.42905200079338551 0.19982395548231649 0 0.46429753744194407 0.22870891180733599 0 0.42377727103934271 0.25099357235810238 0 0.42905200079338551 0.19982395548231649 0 0.46429753744194407 0.22870891180733599 0 0.47357141910802508 0.1873585799078378 0 0.47357141910802508 0.1873585799078378 0 0.51729576145820033 0.1683240575987815 0 0.50760557329222289 0.20700468884612061 0 0.46429753744194407 0.22870891180733599 0 0.47357141910802508 0.1873585799078378 0 0.50760557329222289 0.20700468884612061 0 0.46429753744194407 0.22870891180733599 0 0.49695729691142171 0.25014895411178018 0 0.50760557329222289 0.20700468884612061 0 0.44288491854585582 0.14116182884956319 0 0.47357141910802508 0.1873585799078378 0 0.48466639505193998 0.1421439844745814 0 0.42905200079338551 0.19982395548231649 0 0.44288491854585582 0.14116182884956319 0 0.47357141910802508 0.1873585799078378 0 0.47357141910802508 0.1873585799078378 0 0.48466639505193998 0.1421439844745814 0 0.51729576145820033 0.1683240575987815 0 0.44288491854585582 0.14116182884956319 0 0.48466639505193998 0.1421439844745814 0 0.47881186583059909 0.093591717165689425 0 0.48466639505193998 0.1421439844745814 0 0.47881186583059909 0.093591717165689425 0 0.51076801031701946 0.1202837388510348 0 0.44288491854585582 0.14116182884956319 0 0.47881186583059909 0.093591717165689425 0 0.43698630808430822 0.080423614171545449 0 0.47881186583059909 0.093591717165689425 0 0.47040171442036788 0.044141676406503738 0 0.43698630808430822 0.080423614171545449 0 0.47881186583059909 0.093591717165689425 0 0.47040171442036788 0.044141676406503738 0 0.52375890611712683 0.059318771819432882 0 0.47040171442036788 0.044141676406503738 0 0.49999999999869432 0 0 0.52375890611712683 0.059318771819432882 0 0.47040171442036788 0.044141676406503738 0 0.49999999999869432 0 0 0.44999999999882923 0 0 0.47040171442036788 0.044141676406503738 0 0.44999999999882923 0 0 0.4320097814748517 0.037406712692169303 0 0.47040171442036788 0.044141676406503738 0 0.4320097814748517 0.037406712692169303 0 0.43698630808430822 0.080423614171545449 0 0.4320097814748517 0.037406712692169303 0 0.3999999999989749 0 0 0.39591832466117061 0.056982757562006353 0 0.4320097814748517 0.037406712692169303 0 0.39591832466117061 0.056982757562006353 0 0.43698630808430822 0.080423614171545449 0 0.44999999999882923 0 0 0.4320097814748517 0.037406712692169303 0 0.3999999999989749 0 0 0.3615861437013822 0.03582617922508851 0 0.3999999999989749 0 0 0.39591832466117061 0.056982757562006353 0 0.35312867752657662 0.084946736076730367 0 0.39591832466117061 0.056982757562006353 0 0.39823268594401579 0.1116623613130045 0 0.44288491854585582 0.14116182884956319 0 0.39823268594401579 0.1116623613130045 0 0.43698630808430822 0.080423614171545449 0 0.39591832466117061 0.056982757562006353 0 0.39823268594401579 0.1116623613130045 0 0.43698630808430822 0.080423614171545449 0 0.42161023666869668 0.39493916313643851 0 0.38707855792647411 0.42299362914874578 0 0.43249999999999988 0.43937499999999979 0 0.42161023666869668 0.39493916313643851 0 0.38083244760691543 0.38531983672244652 0 0.38707855792647411 0.42299362914874578 0 0.42161023666869668 0.39493916313643851 0 0.38083244760691543 0.38531983672244652 0 0.40076539126862748 0.34589349467022118 0 0.38707855792647411 0.42299362914874578 0 0.3908716102680424 0.47010282357248828 0 0.43249999999999988 0.43937499999999979 0 0.3908716102680424 0.47010282357248828 0 0.43507373378304309 0.49699695397193322 0 0.38244435121258652 0.51653317813019495 0 0.3908716102680424 0.47010282357248828 0 0.43507373378304309 0.49699695397193322 0 0.43249999999999988 0.43937499999999979 0 0.43507373378304309 0.49699695397193322 0 0.43249999999999988 0.43937499999999979 0 0.46111841286828259 0.46690301029591341 0 0.43249999999999988 0.43937499999999979 0 0.46111841286828259 0.46690301029591341 0 0.48858720058566618 0.43964267759203868 0 0.43507373378304309 0.49699695397193322 0 0.46111841286828259 0.46690301029591341 0 0.49102375406324739 0.49123754822244059 0 0.46111841286828259 0.46690301029591341 0 0.49102375406324739 0.49123754822244059 0 0.48858720058566618 0.43964267759203868 0 0.48858720058566618 0.43964267759203868 0 0.46655310992796922 0.39650496622958609 0 0.52289427570932567 0.3932284363388488 0 0.43249999999999988 0.43937499999999979 0 0.48858720058566618 0.43964267759203868 0 0.46655310992796922 0.39650496622958609 0 0.42161023666869668 0.39493916313643851 0 0.43249999999999988 0.43937499999999979 0 0.46655310992796922 0.39650496622958609 0 0.42161023666869668 0.39493916313643851 0 0.46655310992796922 0.39650496622958609 0 0.4409427642593301 0.35743108089689513 0 0.46655310992796922 0.39650496622958609 0 0.49077833859261139 0.35229981449445641 0 0.52289427570932567 0.3932284363388488 0 0.49077833859261139 0.35229981449445641 0 0.46226845272279993 0.31901800744800313 0 0.5 0.29999999999999999 0 0.49077833859261139 0.35229981449445641 0 0.46226845272279993 0.31901800744800313 0 0.4409427642593301 0.35743108089689513 0 0.46226845272279993 0.31901800744800313 0 0.4409427642593301 0.35743108089689513 0 0.41914690343363781 0.30688979866601612 0 0.46655310992796922 0.39650496622958609 0 0.49077833859261139 0.35229981449445641 0 0.4409427642593301 0.35743108089689513 0 0.49695729691142171 0.25014895411178018 0 0.4604742573284204 0.27846934318264788 0 0.5 0.29999999999999999 0 0.46429753744194407 0.22870891180733599 0 0.49695729691142171 0.25014895411178018 0 0.4604742573284204 0.27846934318264788 0 0.46226845272279993 0.31901800744800313 0 0.4604742573284204 0.27846934318264788 0 0.5 0.29999999999999999 0 0.46226845272279993 0.31901800744800313 0 0.4604742573284204 0.27846934318264788 0 0.41914690343363781 0.30688979866601612 0 0.46429753744194407 0.22870891180733599 0 0.4604742573284204 0.27846934318264788 0 0.42377727103934271 0.25099357235810238 0 0.4604742573284204 0.27846934318264788 0 0.42377727103934271 0.25099357235810238 0 0.41914690343363781 0.30688979866601612 0 0.42377727103934271 0.25099357235810238 0 0.41914690343363781 0.30688979866601612 0 0.3786248352540974 0.27082301512024259 0 0.41914690343363781 0.30688979866601612 0 0.3786248352540974 0.27082301512024259 0 0.36575549820117997 0.31677992835137742 0 0.42161023666869668 0.39493916313643851 0 0.4409427642593301 0.35743108089689513 0 0.40076539126862748 0.34589349467022118 0 0.4409427642593301 0.35743108089689513 0 0.41914690343363781 0.30688979866601612 0 0.40076539126862748 0.34589349467022118 0 0.41914690343363781 0.30688979866601612 0 0.40076539126862748 0.34589349467022118 0 0.36575549820117997 0.31677992835137742 0 0.40076539126862748 0.34589349467022118 0 0.36575549820117997 0.31677992835137742 0 0.33277555741076909 0.36432196682010132 0 0.38083244760691543 0.38531983672244652 0 0.40076539126862748 0.34589349467022118 0 0.33277555741076909 0.36432196682010132 0 0.36575549820117997 0.31677992835137742 0 0.32752639306529541 0.32610012995269699 0 0.33277555741076909 0.36432196682010132 0 0.32752639306529541 0.32610012995269699 0 0.33277555741076909 0.36432196682010132 0 0.29644548887253103 0.34914008784168082 0 0.33758650185219202 0.23837101504325639 0 0.3786248352540974 0.27082301512024259 0 0.33402499257867951 0.28911035184473982 0 0.3786248352540974 0.27082301512024259 0 0.36575549820117997 0.31677992835137742 0 0.33402499257867951 0.28911035184473982 0 0.36575549820117997 0.31677992835137742 0 0.32752639306529541 0.32610012995269699 0 0.33402499257867951 0.28911035184473982 0 0.32752639306529541 0.32610012995269699 0 0.33402499257867951 0.28911035184473982 0 0.29348325746214782 0.31350119524708198 0 0.33758650185219202 0.23837101504325639 0 0.33402499257867951 0.28911035184473982 0 0.29132859388405002 0.27203693976649962 0 0.33402499257867951 0.28911035184473982 0 0.29132859388405002 0.27203693976649962 0 0.29348325746214782 0.31350119524708198 0 0.29132859388405002 0.27203693976649962 0 0.29348325746214782 0.31350119524708198 0 0.24432083401701241 0.3006253385567515 0 0.29132859388405002 0.27203693976649962 0 0.25195515620380449 0.25883339815888678 0 0.24432083401701241 0.3006253385567515 0 0.28040350263641872 0.23054717217092141 0 0.29132859388405002 0.27203693976649962 0 0.25195515620380449 0.25883339815888678 0 0.33277555741076909 0.36432196682010132 0 0.29644548887253103 0.34914008784168082 0 0.27866744612395528 0.38416094670951489 0 0.32752639306529541 0.32610012995269699 0 0.29644548887253103 0.34914008784168082 0 0.29348325746214782 0.31350119524708198 0 0.29644548887253103 0.34914008784168082 0 0.29348325746214782 0.31350119524708198 0 0.25966125648670141 0.34351016742083729 0 0.29348325746214782 0.31350119524708198 0 0.25966125648670141 0.34351016742083729 0 0.24432083401701241 0.3006253385567515 0 0.29644548887253103 0.34914008784168082 0 0.25966125648670141 0.34351016742083729 0 0.27866744612395528 0.38416094670951489 0 0.25966125648670141 0.34351016742083729 0 0.27866744612395528 0.38416094670951489 0 0.22033343844674469 0.36963382230740238 0 0.27866744612395528 0.38416094670951489 0 0.29124338931648802 0.43334555462578611 0 0.24049127783545701 0.41270748208749802 0 0.29124338931648802 0.43334555462578611 0 0.25982634974572738 0.46097799597715272 0 0.24049127783545701 0.41270748208749802 0 0.27866744612395528 0.38416094670951489 0 0.29124338931648802 0.43334555462578611 0 0.31778888742534622 0.40581751814196781 0 0.33277555741076909 0.36432196682010132 0 0.27866744612395528 0.38416094670951489 0 0.31778888742534622 0.40581751814196781 0 0.33277555741076909 0.36432196682010132 0 0.31778888742534622 0.40581751814196781 0 0.35221190152536241 0.40457127605439203 0 0.31778888742534622 0.40581751814196781 0 0.35221190152536241 0.40457127605439203 0 0.34258405725730701 0.4444034294386992 0 0.29124338931648802 0.43334555462578611 0 0.31778888742534622 0.40581751814196781 0 0.34258405725730701 0.4444034294386992 0 0.38707855792647411 0.42299362914874578 0 0.35221190152536241 0.40457127605439203 0 0.34258405725730701 0.4444034294386992 0 0.38083244760691543 0.38531983672244652 0 0.38707855792647411 0.42299362914874578 0 0.35221190152536241 0.40457127605439203 0 0.38083244760691543 0.38531983672244652 0 0.33277555741076909 0.36432196682010132 0 0.35221190152536241 0.40457127605439203 0 0.3908716102680424 0.47010282357248828 0 0.35024835142131061 0.48654922671676981 0 0.38244435121258652 0.51653317813019495 0 0.3908716102680424 0.47010282357248828 0 0.35024835142131061 0.48654922671676981 0 0.34258405725730701 0.4444034294386992 0 0.38707855792647411 0.42299362914874578 0 0.3908716102680424 0.47010282357248828 0 0.34258405725730701 0.4444034294386992 0 0.29124338931648802 0.43334555462578611 0 0.34258405725730701 0.4444034294386992 0 0.31068898841644388 0.47541502461811092 0 0.35024835142131061 0.48654922671676981 0 0.31068898841644388 0.47541502461811092 0 0.33190227185843768 0.52715113583864037 0 0.35024835142131061 0.48654922671676981 0 0.34258405725730701 0.4444034294386992 0 0.31068898841644388 0.47541502461811092 0 0.31068898841644388 0.47541502461811092 0 0.25982634974572738 0.46097799597715272 0 0.28307294598219601 0.50789252727458634 0 0.29124338931648802 0.43334555462578611 0 0.31068898841644388 0.47541502461811092 0 0.25982634974572738 0.46097799597715272 0 0.25982634974572738 0.46097799597715272 0 0.23975172658309729 0.49475499200540818 0 0.28307294598219601 0.50789252727458634 0 0.23975172658309729 0.49475499200540818 0 0.19604738184454831 0.47787523520405789 0 0.22278230690790279 0.44824268025881547 0 0.19604738184454831 0.47787523520405789 0 0.22278230690790279 0.44824268025881547 0 0.191953871957803 0.42546416763755879 0 0.25982634974572738 0.46097799597715272 0 0.22278230690790279 0.44824268025881547 0 0.24049127783545701 0.41270748208749802 0 0.25982634974572738 0.46097799597715272 0 0.23975172658309729 0.49475499200540818 0 0.22278230690790279 0.44824268025881547 0 0.27866744612395528 0.38416094670951489 0 0.24049127783545701 0.41270748208749802 0 0.22033343844674469 0.36963382230740238 0 0.191953871957803 0.42546416763755879 0 0.1650278706801647 0.38791388161335733 0 0.22033343844674469 0.36963382230740238 0 0.24049127783545701 0.41270748208749802 0 0.191953871957803 0.42546416763755879 0 0.22033343844674469 0.36963382230740238 0 0.22278230690790279 0.44824268025881547 0 0.24049127783545701 0.41270748208749802 0 0.191953871957803 0.42546416763755879 0 0.191953871957803 0.42546416763755879 0 0.13773355295499351 0.42497777642586831 0 0.15801167086041079 0.46008690540259539 0 0.191953871957803 0.42546416763755879 0 0.1650278706801647 0.38791388161335733 0 0.13773355295499351 0.42497777642586831 0 0.1650278706801647 0.38791388161335733 0 0.13773355295499351 0.42497777642586831 0 0.1117088112799664 0.38831403004970022 0 0.13773355295499351 0.42497777642586831 0 0.15801167086041079 0.46008690540259539 0 0.113541300460994 0.46208784312094731 0 0.15801167086041079 0.46008690540259539 0 0.113541300460994 0.46208784312094731 0 0.1216098864341134 0.50637075089503902 0 0.15801167086041079 0.46008690540259539 0 0.1216098864341134 0.50637075089503902 0 0.16618607197337229 0.50652878253548905 0 0.19604738184454831 0.47787523520405789 0 0.15801167086041079 0.46008690540259539 0 0.16618607197337229 0.50652878253548905 0 0.19604738184454831 0.47787523520405789 0 0.191953871957803 0.42546416763755879 0 0.15801167086041079 0.46008690540259539 0 0.25195515620380449 0.25883339815888678 0 0.21049769590865089 0.26857363548218488 0 0.24432083401701241 0.3006253385567515 0 0.21049769590865089 0.26857363548218488 0 0.24432083401701241 0.3006253385567515 0 0.19670163708476801 0.31472518408333222 0 0.21049769590865089 0.26857363548218488 0 0.19670163708476801 0.31472518408333222 0 0.168349569971391 0.28054490850913671 0 0.19670163708476801 0.31472518408333222 0 0.22615676742807109 0.33458786033114157 0 0.18434624290945251 0.35208838264196463 0 0.24432083401701241 0.3006253385567515 0 0.19670163708476801 0.31472518408333222 0 0.22615676742807109 0.33458786033114157 0 0.25966125648670141 0.34351016742083729 0 0.24432083401701241 0.3006253385567515 0 0.22615676742807109 0.33458786033114157 0 0.25966125648670141 0.34351016742083729 0 0.22615676742807109 0.33458786033114157 0 0.22033343844674469 0.36963382230740238 0 0.22615676742807109 0.33458786033114157 0 0.22033343844674469 0.36963382230740238 0 0.18434624290945251 0.35208838264196463 0 0.1650278706801647 0.38791388161335733 0 0.22033343844674469 0.36963382230740238 0 0.18434624290945251 0.35208838264196463 0 0.1650278706801647 0.38791388161335733 0 0.18434624290945251 0.35208838264196463 0 0.14223753364722069 0.3341983344262433 0 0.1650278706801647 0.38791388161335733 0 0.14223753364722069 0.3341983344262433 0 0.1117088112799664 0.38831403004970022 0 0.19670163708476801 0.31472518408333222 0 0.18434624290945251 0.35208838264196463 0 0.14223753364722069 0.3341983344262433 0 0.19670163708476801 0.31472518408333222 0 0.14223753364722069 0.3341983344262433 0 0.168349569971391 0.28054490850913671 0 0.14223753364722069 0.3341983344262433 0 0.168349569971391 0.28054490850913671 0 0.1247745017231483 0.27198077544791172 0 0.14377654328998779 0.2442024734791064 0 0.168349569971391 0.28054490850913671 0 0.1247745017231483 0.27198077544791172 0 0.17933913398461551 0.2350063570234002 0 0.21049769590865089 0.26857363548218488 0 0.168349569971391 0.28054490850913671 0 0.17933913398461551 0.2350063570234002 0 0.14377654328998779 0.2442024734791064 0 0.168349569971391 0.28054490850913671 0 0.095326043202144745 0.24554465089224409 0 0.093851963071650835 0.30582068233324772 0 0.049706944316556423 0.27522722923869108 0 0.095326043202144745 0.24554465089224409 0 0.14377654328998779 0.2442024734791064 0 0.1247745017231483 0.27198077544791172 0 0.095326043202144745 0.24554465089224409 0 0.1247745017231483 0.27198077544791172 0 0.093851963071650835 0.30582068233324772 0 0.14223753364722069 0.3341983344262433 0 0.1247745017231483 0.27198077544791172 0 0.093851963071650835 0.30582068233324772 0 0.093851963071650835 0.30582068233324772 0 0.046389130980076937 0.32668781832131749 0 0.049706944316556423 0.27522722923869108 0 0.093851963071650835 0.30582068233324772 0 0.087545339447545459 0.35122518864182262 0 0.046389130980076937 0.32668781832131749 0 0.14223753364722069 0.3341983344262433 0 0.093851963071650835 0.30582068233324772 0 0.087545339447545459 0.35122518864182262 0 0.14223753364722069 0.3341983344262433 0 0.087545339447545459 0.35122518864182262 0 0.1117088112799664 0.38831403004970022 0 0.087545339447545459 0.35122518864182262 0 0.1117088112799664 0.38831403004970022 0 0.050583896093752537 0.38543522283434112 0 0.087545339447545459 0.35122518864182262 0 0.046389130980076937 0.32668781832131749 0 0.050583896093752537 0.38543522283434112 0 0 0.35000000000145642 0 0.046389130980076937 0.32668781832131749 0 0.050583896093752537 0.38543522283434112 0 0 0.35000000000145642 0 0.046389130980076937 0.32668781832131749 0 0 0.30000000000124832 0 0.046389130980076937 0.32668781832131749 0 0 0.30000000000124832 0 0.049706944316556423 0.27522722923869108 0 0 0.30000000000124832 0 0 0.25000000000104028 0 0.049706944316556423 0.27522722923869108 0 0.044081577119474857 0.2271058242433576 0 0 0.25000000000104028 0 0.049706944316556423 0.27522722923869108 0 0.068743045408989428 0.48853989837882689 0 0.113541300460994 0.46208784312094731 0 0.078358742472063481 0.43365249433908948 0 0.068743045408989428 0.48853989837882689 0 0.113541300460994 0.46208784312094731 0 0.1216098864341134 0.50637075089503902 0 0.13773355295499351 0.42497777642586831 0 0.113541300460994 0.46208784312094731 0 0.078358742472063481 0.43365249433908948 0 0.13773355295499351 0.42497777642586831 0 0.1117088112799664 0.38831403004970022 0 0.078358742472063481 0.43365249433908948 0 0.1117088112799664 0.38831403004970022 0 0.078358742472063481 0.43365249433908948 0 0.050583896093752537 0.38543522283434112 0 0.078358742472063481 0.43365249433908948 0 0.035463093262830522 0.42673416072819947 0 0.050583896093752537 0.38543522283434112 0 0 0.35000000000145642 0 0.050583896093752537 0.38543522283434112 0 0 0.40000000000166441 0 0.035463093262830522 0.42673416072819947 0 0.050583896093752537 0.38543522283434112 0 0 0.40000000000166441 0 0.035463093262830522 0.42673416072819947 0 0 0.40000000000166441 0 0 0.45000000000187229 0 0.035463093262830522 0.42673416072819947 0 0 0.45000000000187229 0 0.033550201249889847 0.46247875832467239 0 0.068743045408989428 0.48853989837882689 0 0.033550201249889847 0.46247875832467239 0 0 0.50000000000205869 0 0.068743045408989428 0.48853989837882689 0 0.078358742472063481 0.43365249433908948 0 0.033550201249889847 0.46247875832467239 0 0.078358742472063481 0.43365249433908948 0 0.035463093262830522 0.42673416072819947 0 0.033550201249889847 0.46247875832467239 0 0 0.45000000000187229 0 0.033550201249889847 0.46247875832467239 0 0 0.50000000000205869 0 0.068743045408989428 0.48853989837882689 0 0 0.50000000000205869 0 0.044576108720083309 0.53509043209532614 0 0 0.50000000000205869 0 0 0.55000000000173355 0 0.044576108720083309 0.53509043209532614 0 0 0.55000000000173355 0 0.044576108720083309 0.53509043209532614 0 0.034381862692950467 0.57372682250960894 0 0.044576108720083309 0.53509043209532614 0 0.077693244765132896 0.56932317963405099 0 0.034381862692950467 0.57372682250960894 0 0.068743045408989428 0.48853989837882689 0 0.044576108720083309 0.53509043209532614 0 0.085622222639554768 0.53333248912060549 0 0.068743045408989428 0.48853989837882689 0 0.085622222639554768 0.53333248912060549 0 0.1216098864341134 0.50637075089503902 0 0.044576108720083309 0.53509043209532614 0 0.085622222639554768 0.53333248912060549 0 0.077693244765132896 0.56932317963405099 0 0.085622222639554768 0.53333248912060549 0 0.1154888278694548 0.56733818459978413 0 0.077693244765132896 0.56932317963405099 0 0.085622222639554768 0.53333248912060549 0 0.1216098864341134 0.50637075089503902 0 0.1154888278694548 0.56733818459978413 0 0.1024350934457823 0.60772393977513839 0 0.1154888278694548 0.56733818459978413 0 0.077693244765132896 0.56932317963405099 0 0.1024350934457823 0.60772393977513839 0 0.050069554451969707 0.61308520079857043 0 0.086179601630648681 0.64647209519980475 0 0.1024350934457823 0.60772393977513839 0 0.077693244765132896 0.56932317963405099 0 0.050069554451969707 0.61308520079857043 0 0.077693244765132896 0.56932317963405099 0 0.050069554451969707 0.61308520079857043 0 0.034381862692950467 0.57372682250960894 0 0 0.55000000000173355 0 0.034381862692950467 0.57372682250960894 0 0 0.60000000000138687 0 0.050069554451969707 0.61308520079857043 0 0 0.60000000000138687 0 0 0.65000000000104008 0 0.050069554451969707 0.61308520079857043 0 0.034381862692950467 0.57372682250960894 0 0 0.60000000000138687 0 0 0.65000000000104008 0 0.046634677244967337 0.671418230738282 0 0 0.7000000000006934 0 0.050069554451969707 0.61308520079857043 0 0.046634677244967337 0.671418230738282 0 0.086179601630648681 0.64647209519980475 0 0.050069554451969707 0.61308520079857043 0 0 0.65000000000104008 0 0.046634677244967337 0.671418230738282 0 0 0.7000000000006934 0 0.049706944316475897 0.72477277076253799 0 0 0.75000000000034661 0 0.046634677244967337 0.671418230738282 0 0 0.7000000000006934 0 0.049706944316475897 0.72477277076253799 0 0.049706944316475897 0.72477277076253799 0 0 0.75000000000034661 0 0.04408157711937423 0.7728941757575627 0 0.049706944316475897 0.72477277076253799 0 0.1020579365089687 0.69352219419301997 0 0.090953281884486245 0.7564451946902494 0 0.1020579365089687 0.69352219419301997 0 0.1215415378367805 0.72939333680004137 0 0.090953281884486245 0.7564451946902494 0 0.046634677244967337 0.671418230738282 0 0.049706944316475897 0.72477277076253799 0 0.1020579365089687 0.69352219419301997 0 0.1215415378367805 0.72939333680004137 0 0.090953281884486245 0.7564451946902494 0 0.14335651144331049 0.75565258250209677 0 0.046634677244967337 0.671418230738282 0 0.1020579365089687 0.69352219419301997 0 0.086179601630648681 0.64647209519980475 0 0.1020579365089687 0.69352219419301997 0 0.086179601630648681 0.64647209519980475 0 0.1241190223511371 0.64391885572885044 0 0.1024350934457823 0.60772393977513839 0 0.086179601630648681 0.64647209519980475 0 0.1241190223511371 0.64391885572885044 0 0.1020579365089687 0.69352219419301997 0 0.1241190223511371 0.64391885572885044 0 0.16500388252850301 0.66612077714085194 0 0.1241190223511371 0.64391885572885044 0 0.16500388252850301 0.66612077714085194 0 0.15720202157091859 0.60665697304410315 0 0.16500388252850301 0.66612077714085194 0 0.19914261668318661 0.62286739485272158 0 0.15720202157091859 0.60665697304410315 0 0.1020579365089687 0.69352219419301997 0 0.16500388252850301 0.66612077714085194 0 0.15332765547575641 0.71200081858233666 0 0.1215415378367805 0.72939333680004137 0 0.15332765547575641 0.71200081858233666 0 0.14335651144331049 0.75565258250209677 0 0.1020579365089687 0.69352219419301997 0 0.1215415378367805 0.72939333680004137 0 0.15332765547575641 0.71200081858233666 0 0.16500388252850301 0.66612077714085194 0 0.15332765547575641 0.71200081858233666 0 0.19068556247388771 0.71028988922845504 0 0.15332765547575641 0.71200081858233666 0 0.14335651144331049 0.75565258250209677 0 0.18269480424590959 0.75905448272264375 0 0.15332765547575641 0.71200081858233666 0 0.19068556247388771 0.71028988922845504 0 0.18269480424590959 0.75905448272264375 0 0.19068556247388771 0.71028988922845504 0 0.2248999640082178 0.72584299459689172 0 0.18269480424590959 0.75905448272264375 0 0.19068556247388771 0.71028988922845504 0 0.2248999640082178 0.72584299459689172 0 0.2236846579037573 0.67380363126050236 0 0.2248999640082178 0.72584299459689172 0 0.2236846579037573 0.67380363126050236 0 0.26439878998046262 0.7048065392091396 0 0.2248999640082178 0.72584299459689172 0 0.22556077506376701 0.77837424984191617 0 0.25676291524611189 0.7436741304886243 0 0.2248999640082178 0.72584299459689172 0 0.25676291524611189 0.7436741304886243 0 0.26439878998046262 0.7048065392091396 0 0.16500388252850301 0.66612077714085194 0 0.2236846579037573 0.67380363126050236 0 0.19914261668318661 0.62286739485272158 0 0.16500388252850301 0.66612077714085194 0 0.19068556247388771 0.71028988922845504 0 0.2236846579037573 0.67380363126050236 0 0.2236846579037573 0.67380363126050236 0 0.2459498854893499 0.63248470766216769 0 0.19914261668318661 0.62286739485272158 0 0.2236846579037573 0.67380363126050236 0 0.2459498854893499 0.63248470766216769 0 0.27820712747429932 0.65530134213254643 0 0.2459498854893499 0.63248470766216769 0 0.19914261668318661 0.62286739485272158 0 0.22549374774072969 0.58452645269293457 0 0.2459498854893499 0.63248470766216769 0 0.22549374774072969 0.58452645269293457 0 0.26573297623774761 0.59828298563722948 0 0.19914261668318661 0.62286739485272158 0 0.22549374774072969 0.58452645269293457 0 0.18381867841758909 0.57774125163628387 0 0.22549374774072969 0.58452645269293457 0 0.20050006573841939 0.53248514016039872 0 0.18381867841758909 0.57774125163628387 0 0.22549374774072969 0.58452645269293457 0 0.25115337790845271 0.54719303014923271 0 0.26573297623774761 0.59828298563722948 0 0.22549374774072969 0.58452645269293457 0 0.20050006573841939 0.53248514016039872 0 0.25115337790845271 0.54719303014923271 0 0.23975172658309729 0.49475499200540818 0 0.20050006573841939 0.53248514016039872 0 0.25115337790845271 0.54719303014923271 0 0.19604738184454831 0.47787523520405789 0 0.20050006573841939 0.53248514016039872 0 0.16618607197337229 0.50652878253548905 0 0.23975172658309729 0.49475499200540818 0 0.19604738184454831 0.47787523520405789 0 0.20050006573841939 0.53248514016039872 0 0.20050006573841939 0.53248514016039872 0 0.14934928745814749 0.55042914607228977 0 0.18381867841758909 0.57774125163628387 0 0.20050006573841939 0.53248514016039872 0 0.16618607197337229 0.50652878253548905 0 0.14934928745814749 0.55042914607228977 0 0.1216098864341134 0.50637075089503902 0 0.16618607197337229 0.50652878253548905 0 0.14934928745814749 0.55042914607228977 0 0.1216098864341134 0.50637075089503902 0 0.1154888278694548 0.56733818459978413 0 0.14934928745814749 0.55042914607228977 0 0.1154888278694548 0.56733818459978413 0 0.14934928745814749 0.55042914607228977 0 0.15720202157091859 0.60665697304410315 0 0.1024350934457823 0.60772393977513839 0 0.1154888278694548 0.56733818459978413 0 0.15720202157091859 0.60665697304410315 0 0.1024350934457823 0.60772393977513839 0 0.1241190223511371 0.64391885572885044 0 0.15720202157091859 0.60665697304410315 0 0.19914261668318661 0.62286739485272158 0 0.15720202157091859 0.60665697304410315 0 0.18381867841758909 0.57774125163628387 0 0.14934928745814749 0.55042914607228977 0 0.15720202157091859 0.60665697304410315 0 0.18381867841758909 0.57774125163628387 0 0.10000000000041601 1 0 0.10266856499240549 0.95548163909968886 0 0.15000000000062411 1 0 0.10266856499240549 0.95548163909968886 0 0.053064897599294662 0.95186845269532028 0 0.083411279318375747 0.91030024466934134 0 0.10000000000041601 1 0 0.050000000000207989 1 0 0.053064897599294662 0.95186845269532028 0 0.10000000000041601 1 0 0.10266856499240549 0.95548163909968886 0 0.053064897599294662 0.95186845269532028 0 0.050000000000207989 1 0 0.025766224399875661 0.97546711317377799 0 0.053064897599294662 0.95186845269532028 0 0.050000000000207989 1 0 0 1 0 0.025766224399875661 0.97546711317377799 0 0 1 0 0.025766224399875661 0.97546711317377799 0 0 0.94999999999979179 0 0.025766224399875661 0.97546711317377799 0 0 0.94999999999979179 0 0.053064897599294662 0.95186845269532028 0 0 0.94999999999979179 0 0.053064897599294662 0.95186845269532028 0 0.0443105827531413 0.89858748162559932 0 0.053064897599294662 0.95186845269532028 0 0.0443105827531413 0.89858748162559932 0 0.083411279318375747 0.91030024466934134 0 0 0.94999999999979179 0 0 0.89999999999958358 0 0.0443105827531413 0.89858748162559932 0 0 0.89999999999958358 0 0.0443105827531413 0.89858748162559932 0 0 0.84999999999965292 0 0.0443105827531413 0.89858748162559932 0 0.083411279318375747 0.91030024466934134 0 0.065374659239661639 0.8551091961254178 0 0.083411279318375747 0.91030024466934134 0 0.10562472963403439 0.87143394428979881 0 0.065374659239661639 0.8551091961254178 0 0.10266856499240549 0.95548163909968886 0 0.083411279318375747 0.91030024466934134 0 0.1241151115713819 0.9045666525468371 0 0.10266856499240549 0.95548163909968886 0 0.1241151115713819 0.9045666525468371 0 0.14617343800780541 0.93808063414349496 0 0.1241151115713819 0.9045666525468371 0 0.10562472963403439 0.87143394428979881 0 0.14474682429600511 0.85524784522713515 0 0.083411279318375747 0.91030024466934134 0 0.1241151115713819 0.9045666525468371 0 0.10562472963403439 0.87143394428979881 0 0.10562472963403439 0.87143394428979881 0 0.1074251789111534 0.83564394292147814 0 0.14474682429600511 0.85524784522713515 0 0.1074251789111534 0.83564394292147814 0 0.065374659239661639 0.8551091961254178 0 0.083105206071452636 0.79992298667296435 0 0.10562472963403439 0.87143394428979881 0 0.1074251789111534 0.83564394292147814 0 0.065374659239661639 0.8551091961254178 0 0.065374659239661639 0.8551091961254178 0 0 0.84999999999965292 0 0.038512288486097702 0.8155852717111195 0 0.0443105827531413 0.89858748162559932 0 0.065374659239661639 0.8551091961254178 0 0 0.84999999999965292 0 0 0.84999999999965292 0 0.038512288486097702 0.8155852717111195 0 0 0.79999999999999982 0 0.065374659239661639 0.8551091961254178 0 0.038512288486097702 0.8155852717111195 0 0.083105206071452636 0.79992298667296435 0 0.038512288486097702 0.8155852717111195 0 0.04408157711937423 0.7728941757575627 0 0.083105206071452636 0.79992298667296435 0 0.038512288486097702 0.8155852717111195 0 0 0.79999999999999982 0 0.04408157711937423 0.7728941757575627 0 0 0.79999999999999982 0 0 0.75000000000034661 0 0.04408157711937423 0.7728941757575627 0 0.049706944316475897 0.72477277076253799 0 0.04408157711937423 0.7728941757575627 0 0.090953281884486245 0.7564451946902494 0 0.04408157711937423 0.7728941757575627 0 0.090953281884486245 0.7564451946902494 0 0.083105206071452636 0.79992298667296435 0 0.1074251789111534 0.83564394292147814 0 0.083105206071452636 0.79992298667296435 0 0.1382744753146134 0.79650574229207483 0 0.090953281884486245 0.7564451946902494 0 0.083105206071452636 0.79992298667296435 0 0.1382744753146134 0.79650574229207483 0 0.090953281884486245 0.7564451946902494 0 0.14335651144331049 0.75565258250209677 0 0.1382744753146134 0.79650574229207483 0 0.14335651144331049 0.75565258250209677 0 0.1382744753146134 0.79650574229207483 0 0.18269480424590959 0.75905448272264375 0 0.1382744753146134 0.79650574229207483 0 0.18269480424590959 0.75905448272264375 0 0.17777405986036951 0.81832336108265358 0 0.2248999640082178 0.72584299459689172 0 0.18269480424590959 0.75905448272264375 0 0.22556077506376701 0.77837424984191617 0 0.22556077506376701 0.77837424984191617 0 0.21858834311891909 0.81980263716112767 0 0.26104540868854792 0.81401944968719064 0 0.22556077506376701 0.77837424984191617 0 0.21858834311891909 0.81980263716112767 0 0.17777405986036951 0.81832336108265358 0 0.18269480424590959 0.75905448272264375 0 0.22556077506376701 0.77837424984191617 0 0.17777405986036951 0.81832336108265358 0 0.21858834311891909 0.81980263716112767 0 0.19741632902693801 0.86755867406447229 0 0.17777405986036951 0.81832336108265358 0 0.21858834311891909 0.81980263716112767 0 0.2401283238295133 0.85648409884788523 0 0.26104540868854792 0.81401944968719064 0 0.21858834311891909 0.81980263716112767 0 0.2401283238295133 0.85648409884788523 0 0.19741632902693801 0.86755867406447229 0 0.19741632902693801 0.86755867406447229 0 0.17777405986036951 0.81832336108265358 0 0.14474682429600511 0.85524784522713515 0 0.19741632902693801 0.86755867406447229 0 0.14474682429600511 0.85524784522713515 0 0.16206583317966519 0.89685560785156404 0 0.1382744753146134 0.79650574229207483 0 0.17777405986036951 0.81832336108265358 0 0.14474682429600511 0.85524784522713515 0 0.1074251789111534 0.83564394292147814 0 0.1382744753146134 0.79650574229207483 0 0.14474682429600511 0.85524784522713515 0 0.1241151115713819 0.9045666525468371 0 0.14474682429600511 0.85524784522713515 0 0.16206583317966519 0.89685560785156404 0 0.1241151115713819 0.9045666525468371 0 0.16206583317966519 0.89685560785156404 0 0.14617343800780541 0.93808063414349496 0 0.16206583317966519 0.89685560785156404 0 0.19901705110390991 0.9175543425573498 0 0.14617343800780541 0.93808063414349496 0 0.19741632902693801 0.86755867406447229 0 0.16206583317966519 0.89685560785156404 0 0.19901705110390991 0.9175543425573498 0 0.19741632902693801 0.86755867406447229 0 0.24536017905392571 0.90704567837671446 0 0.19901705110390991 0.9175543425573498 0 0.2401283238295133 0.85648409884788523 0 0.19741632902693801 0.86755867406447229 0 0.24536017905392571 0.90704567837671446 0 0.24536017905392571 0.90704567837671446 0 0.19901705110390991 0.9175543425573498 0 0.22850979588452081 0.95594428570238643 0 0.19901705110390991 0.9175543425573498 0 0.22850979588452081 0.95594428570238643 0 0.18474005699953849 0.96231585248064622 0 0.24536017905392571 0.90704567837671446 0 0.22850979588452081 0.95594428570238643 0 0.27609987656793722 0.94991445621608572 0 0.22850979588452081 0.95594428570238643 0 0.20000000000083221 1 0 0.25000000000104028 1 0 0.22850979588452081 0.95594428570238643 0 0.20000000000083221 1 0 0.18474005699953849 0.96231585248064622 0 0.20000000000083221 1 0 0.18474005699953849 0.96231585248064622 0 0.15000000000062411 1 0 0.19901705110390991 0.9175543425573498 0 0.18474005699953849 0.96231585248064622 0 0.14617343800780541 0.93808063414349496 0 0.18474005699953849 0.96231585248064622 0 0.14617343800780541 0.93808063414349496 0 0.15000000000062411 1 0 0.10266856499240549 0.95548163909968886 0 0.14617343800780541 0.93808063414349496 0 0.15000000000062411 1 0 0.35000000000145642 1 0 0.36184234618600131 0.96443954459096326 0 0.32544832635163229 0.95485394099568932 0 0.35000000000145642 1 0 0.36184234618600131 0.96443954459096326 0 0.40000000000166441 1 0 0.36184234618600131 0.96443954459096326 0 0.32544832635163229 0.95485394099568932 0 0.35752321586431363 0.9185439911803448 0 0.36184234618600131 0.96443954459096326 0 0.35752321586431363 0.9185439911803448 0 0.39641108128798319 0.94356127926187128 0 0.35000000000145642 1 0 0.32544832635163229 0.95485394099568932 0 0.30000000000124832 1 0 0.30000000000124832 1 0 0.25000000000104028 1 0 0.27609987656793722 0.94991445621608572 0 0.22850979588452081 0.95594428570238643 0 0.25000000000104028 1 0 0.27609987656793722 0.94991445621608572 0 0.32544832635163229 0.95485394099568932 0 0.30000000000124832 1 0 0.27609987656793722 0.94991445621608572 0 0.32544832635163229 0.95485394099568932 0 0.27609987656793722 0.94991445621608572 0 0.30864387279288652 0.89906554525974958 0 0.24536017905392571 0.90704567837671446 0 0.27270076654418179 0.87751467830216623 0 0.30864387279288652 0.89906554525974958 0 0.24536017905392571 0.90704567837671446 0 0.27609987656793722 0.94991445621608572 0 0.30864387279288652 0.89906554525974958 0 0.2401283238295133 0.85648409884788523 0 0.24536017905392571 0.90704567837671446 0 0.27270076654418179 0.87751467830216623 0 0.30864387279288652 0.89906554525974958 0 0.35752321586431363 0.9185439911803448 0 0.35864759629805099 0.87963482415279515 0 0.32544832635163229 0.95485394099568932 0 0.30864387279288652 0.89906554525974958 0 0.35752321586431363 0.9185439911803448 0 0.35752321586431363 0.9185439911803448 0 0.35864759629805099 0.87963482415279515 0 0.39767323751400468 0.89584229130535065 0 0.35864759629805099 0.87963482415279515 0 0.33403534827021109 0.84402799729020661 0 0.39536230704883951 0.84069429572832477 0 0.33403534827021109 0.84402799729020661 0 0.35642984951668422 0.80994399665655703 0 0.39536230704883951 0.84069429572832477 0 0.33403534827021109 0.84402799729020661 0 0.30857225866488791 0.81101973481716805 0 0.35642984951668422 0.80994399665655703 0 0.30864387279288652 0.89906554525974958 0 0.35864759629805099 0.87963482415279515 0 0.33403534827021109 0.84402799729020661 0 0.30864387279288652 0.89906554525974958 0 0.33403534827021109 0.84402799729020661 0 0.29209212897034281 0.84715728365233667 0 0.27270076654418179 0.87751467830216623 0 0.30864387279288652 0.89906554525974958 0 0.29209212897034281 0.84715728365233667 0 0.2401283238295133 0.85648409884788523 0 0.27270076654418179 0.87751467830216623 0 0.29209212897034281 0.84715728365233667 0 0.2401283238295133 0.85648409884788523 0 0.29209212897034281 0.84715728365233667 0 0.26104540868854792 0.81401944968719064 0 0.29209212897034281 0.84715728365233667 0 0.26104540868854792 0.81401944968719064 0 0.30857225866488791 0.81101973481716805 0 0.33403534827021109 0.84402799729020661 0 0.29209212897034281 0.84715728365233667 0 0.30857225866488791 0.81101973481716805 0 0.26104540868854792 0.81401944968719064 0 0.30857225866488791 0.81101973481716805 0 0.2792923945214143 0.77665808831789485 0 0.30857225866488791 0.81101973481716805 0 0.2792923945214143 0.77665808831789485 0 0.33123028043633618 0.77629643437932982 0 0.22556077506376701 0.77837424984191617 0 0.26104540868854792 0.81401944968719064 0 0.2792923945214143 0.77665808831789485 0 0.2792923945214143 0.77665808831789485 0 0.25676291524611189 0.7436741304886243 0 0.29904318922293632 0.74132814928635593 0 0.22556077506376701 0.77837424984191617 0 0.2792923945214143 0.77665808831789485 0 0.25676291524611189 0.7436741304886243 0 0.2792923945214143 0.77665808831789485 0 0.33123028043633618 0.77629643437932982 0 0.29904318922293632 0.74132814928635593 0 0.33123028043633618 0.77629643437932982 0 0.29904318922293632 0.74132814928635593 0 0.35415581127540569 0.73730480045900215 0 0.30857225866488791 0.81101973481716805 0 0.33123028043633618 0.77629643437932982 0 0.35642984951668422 0.80994399665655703 0 0.33123028043633618 0.77629643437932982 0 0.35642984951668422 0.80994399665655703 0 0.38586766253264881 0.78219501014812498 0 0.33123028043633618 0.77629643437932982 0 0.38586766253264881 0.78219501014812498 0 0.35415581127540569 0.73730480045900215 0 0.38586766253264881 0.78219501014812498 0 0.42676259796334498 0.76772545931379299 0 0.40326160981139969 0.73346192995102844 0 0.38586766253264881 0.78219501014812498 0 0.35415581127540569 0.73730480045900215 0 0.40326160981139969 0.73346192995102844 0 0.38586766253264881 0.78219501014812498 0 0.42609163930740518 0.80361684430568059 0 0.39536230704883951 0.84069429572832477 0 0.35642984951668422 0.80994399665655703 0 0.38586766253264881 0.78219501014812498 0 0.39536230704883951 0.84069429572832477 0 0.38586766253264881 0.78219501014812498 0 0.42609163930740518 0.80361684430568059 0 0.42676259796334498 0.76772545931379299 0 0.42676259796334498 0.76772545931379299 0 0.4656888918609538 0.78493261229743638 0 0.45582236402875981 0.73896743678908217 0 0.4656888918609538 0.78493261229743638 0 0.45582236402875981 0.73896743678908217 0 0.50945740445113552 0.75476055527778108 0 0.4656888918609538 0.78493261229743638 0 0.50731287292894423 0.78963574450233831 0 0.50945740445113552 0.75476055527778108 0 0.4656888918609538 0.78493261229743638 0 0.50627822638148745 0.8263979829520941 0 0.50731287292894423 0.78963574450233831 0 0.42609163930740518 0.80361684430568059 0 0.4656888918609538 0.78493261229743638 0 0.45677673713123867 0.84253684404072415 0 0.42609163930740518 0.80361684430568059 0 0.42676259796334498 0.76772545931379299 0 0.4656888918609538 0.78493261229743638 0 0.4656888918609538 0.78493261229743638 0 0.45677673713123867 0.84253684404072415 0 0.50627822638148745 0.8263979829520941 0 0.45677673713123867 0.84253684404072415 0 0.50202631463681879 0.87892870825713787 0 0.50627822638148745 0.8263979829520941 0 0.45677673713123867 0.84253684404072415 0 0.44003836461056539 0.88093474584252718 0 0.50202631463681879 0.87892870825713787 0 0.45677673713123867 0.84253684404072415 0 0.39536230704883951 0.84069429572832477 0 0.44003836461056539 0.88093474584252718 0 0.39536230704883951 0.84069429572832477 0 0.39767323751400468 0.89584229130535065 0 0.44003836461056539 0.88093474584252718 0 0.42609163930740518 0.80361684430568059 0 0.45677673713123867 0.84253684404072415 0 0.39536230704883951 0.84069429572832477 0 0.35864759629805099 0.87963482415279515 0 0.39536230704883951 0.84069429572832477 0 0.39767323751400468 0.89584229130535065 0 0.35752321586431363 0.9185439911803448 0 0.39767323751400468 0.89584229130535065 0 0.39641108128798319 0.94356127926187128 0 0.39767323751400468 0.89584229130535065 0 0.4367309254023824 0.92065556789053882 0 0.39641108128798319 0.94356127926187128 0 0.39767323751400468 0.89584229130535065 0 0.4367309254023824 0.92065556789053882 0 0.44003836461056539 0.88093474584252718 0 0.4367309254023824 0.92065556789053882 0 0.44003836461056539 0.88093474584252718 0 0.47401147028110507 0.91529957330468115 0 0.44003836461056539 0.88093474584252718 0 0.47401147028110507 0.91529957330468115 0 0.50202631463681879 0.87892870825713787 0 0.47401147028110507 0.91529957330468115 0 0.47135117303824892 0.95556877749289892 0 0.52122150208832174 0.94089974453840242 0 0.47401147028110507 0.91529957330468115 0 0.52122150208832174 0.94089974453840242 0 0.50202631463681879 0.87892870825713787 0 0.4367309254023824 0.92065556789053882 0 0.47401147028110507 0.91529957330468115 0 0.47135117303824892 0.95556877749289892 0 0.4367309254023824 0.92065556789053882 0 0.47135117303824892 0.95556877749289892 0 0.4308986359464303 0.96395712492906194 0 0.47135117303824892 0.95556877749289892 0 0.50000000000205869 1 0 0.52122150208832174 0.94089974453840242 0 0.47135117303824892 0.95556877749289892 0 0.45000000000187229 1 0 0.50000000000205869 1 0 0.47135117303824892 0.95556877749289892 0 0.45000000000187229 1 0 0.4308986359464303 0.96395712492906194 0 0.45000000000187229 1 0 0.4308986359464303 0.96395712492906194 0 0.40000000000166441 1 0 0.4308986359464303 0.96395712492906194 0 0.39641108128798319 0.94356127926187128 0 0.40000000000166441 1 0 0.4367309254023824 0.92065556789053882 0 0.4308986359464303 0.96395712492906194 0 0.39641108128798319 0.94356127926187128 0 0.36184234618600131 0.96443954459096326 0 0.39641108128798319 0.94356127926187128 0 0.40000000000166441 1 0 0.33122374654748771 0.57588941099433744 0 0.31502927232353312 0.6134992213375432 0 0.35765792684946668 0.6000687869219653 0 0.31502927232353312 0.6134992213375432 0 0.35765792684946668 0.6000687869219653 0 0.35864735590330371 0.63903383440414463 0 0.35765792684946668 0.6000687869219653 0 0.35864735590330371 0.63903383440414463 0 0.39743091024207589 0.6239520004230239 0 0.33122374654748771 0.57588941099433744 0 0.35765792684946668 0.6000687869219653 0 0.37272913873093971 0.56192925302619479 0 0.37272913873093971 0.56192925302619479 0 0.33190227185843768 0.52715113583864037 0 0.38244435121258652 0.51653317813019495 0 0.33122374654748771 0.57588941099433744 0 0.37272913873093971 0.56192925302619479 0 0.33190227185843768 0.52715113583864037 0 0.35024835142131061 0.48654922671676981 0 0.33190227185843768 0.52715113583864037 0 0.38244435121258652 0.51653317813019495 0 0.33122374654748771 0.57588941099433744 0 0.33190227185843768 0.52715113583864037 0 0.29110487519241501 0.56588143995431495 0 0.33190227185843768 0.52715113583864037 0 0.28307294598219601 0.50789252727458634 0 0.29110487519241501 0.56588143995431495 0 0.31068898841644388 0.47541502461811092 0 0.33190227185843768 0.52715113583864037 0 0.28307294598219601 0.50789252727458634 0 0.23975172658309729 0.49475499200540818 0 0.28307294598219601 0.50789252727458634 0 0.25115337790845271 0.54719303014923271 0 0.28307294598219601 0.50789252727458634 0 0.25115337790845271 0.54719303014923271 0 0.29110487519241501 0.56588143995431495 0 0.25115337790845271 0.54719303014923271 0 0.29110487519241501 0.56588143995431495 0 0.26573297623774761 0.59828298563722948 0 0.33122374654748771 0.57588941099433744 0 0.31502927232353312 0.6134992213375432 0 0.29110487519241501 0.56588143995431495 0 0.31502927232353312 0.6134992213375432 0 0.29110487519241501 0.56588143995431495 0 0.26573297623774761 0.59828298563722948 0 0.31502927232353312 0.6134992213375432 0 0.26573297623774761 0.59828298563722948 0 0.27820712747429932 0.65530134213254643 0 0.2459498854893499 0.63248470766216769 0 0.26573297623774761 0.59828298563722948 0 0.27820712747429932 0.65530134213254643 0 0.2236846579037573 0.67380363126050236 0 0.27820712747429932 0.65530134213254643 0 0.26439878998046262 0.7048065392091396 0 0.27820712747429932 0.65530134213254643 0 0.31378396441836959 0.70157213313026345 0 0.32263089806001177 0.66003674931826484 0 0.27820712747429932 0.65530134213254643 0 0.26439878998046262 0.7048065392091396 0 0.31378396441836959 0.70157213313026345 0 0.31502927232353312 0.6134992213375432 0 0.27820712747429932 0.65530134213254643 0 0.32263089806001177 0.66003674931826484 0 0.25676291524611189 0.7436741304886243 0 0.26439878998046262 0.7048065392091396 0 0.29904318922293632 0.74132814928635593 0 0.26439878998046262 0.7048065392091396 0 0.29904318922293632 0.74132814928635593 0 0.31378396441836959 0.70157213313026345 0 0.29904318922293632 0.74132814928635593 0 0.31378396441836959 0.70157213313026345 0 0.35415581127540569 0.73730480045900215 0 0.31378396441836959 0.70157213313026345 0 0.36622285152418499 0.69092437780804039 0 0.35415581127540569 0.73730480045900215 0 0.36622285152418499 0.69092437780804039 0 0.35415581127540569 0.73730480045900215 0 0.40326160981139969 0.73346192995102844 0 0.31502927232353312 0.6134992213375432 0 0.32263089806001177 0.66003674931826484 0 0.35864735590330371 0.63903383440414463 0 0.31378396441836959 0.70157213313026345 0 0.36622285152418499 0.69092437780804039 0 0.32263089806001177 0.66003674931826484 0 0.36622285152418499 0.69092437780804039 0 0.32263089806001177 0.66003674931826484 0 0.35864735590330371 0.63903383440414463 0 0.36622285152418499 0.69092437780804039 0 0.35864735590330371 0.63903383440414463 0 0.3977710372045391 0.65868194622830212 0 0.35864735590330371 0.63903383440414463 0 0.3977710372045391 0.65868194622830212 0 0.39743091024207589 0.6239520004230239 0 0.36622285152418499 0.69092437780804039 0 0.3977710372045391 0.65868194622830212 0 0.43323420005758778 0.6913544522562407 0 0.3977710372045391 0.65868194622830212 0 0.43323420005758778 0.6913544522562407 0 0.43846182030517877 0.64845797726506715 0 0.43846182030517877 0.64845797726506715 0 0.43545892161006339 0.61093128915313821 0 0.39743091024207589 0.6239520004230239 0 0.3977710372045391 0.65868194622830212 0 0.43846182030517877 0.64845797726506715 0 0.39743091024207589 0.6239520004230239 0 0.36622285152418499 0.69092437780804039 0 0.40326160981139969 0.73346192995102844 0 0.43323420005758778 0.6913544522562407 0 0.40326160981139969 0.73346192995102844 0 0.43323420005758778 0.6913544522562407 0 0.45582236402875981 0.73896743678908217 0 0.42676259796334498 0.76772545931379299 0 0.40326160981139969 0.73346192995102844 0 0.45582236402875981 0.73896743678908217 0 0.43323420005758778 0.6913544522562407 0 0.45582236402875981 0.73896743678908217 0 0.5 0.69999999999999996 0 0.45582236402875981 0.73896743678908217 0 0.5 0.69999999999999996 0 0.50945740445113552 0.75476055527778108 0 0.43323420005758778 0.6913544522562407 0 0.47913475093885149 0.66010775372412711 0 0.5 0.69999999999999996 0 0.43846182030517877 0.64845797726506715 0 0.47913475093885149 0.66010775372412711 0 0.47095389620662098 0.61892551373708504 0 0.43846182030517877 0.64845797726506715 0 0.47095389620662098 0.61892551373708504 0 0.43545892161006339 0.61093128915313821 0 0.43323420005758778 0.6913544522562407 0 0.43846182030517877 0.64845797726506715 0 0.47913475093885149 0.66010775372412711 0 0.47913475093885149 0.66010775372412711 0 0.47095389620662098 0.61892551373708504 0 0.50715858906372158 0.63295939104129484 0 0.47095389620662098 0.61892551373708504 0 0.5166924242153631 0.59825134841919447 0 0.50715858906372158 0.63295939104129484 0 0.47095389620662098 0.61892551373708504 0 0.46666084890304671 0.57634471035397938 0 0.5166924242153631 0.59825134841919447 0 0.47095389620662098 0.61892551373708504 0 0.46666084890304671 0.57634471035397938 0 0.43545892161006339 0.61093128915313821 0 0.43545892161006339 0.61093128915313821 0 0.4089290844030305 0.58728915500154233 0 0.39743091024207589 0.6239520004230239 0 0.46666084890304671 0.57634471035397938 0 0.43545892161006339 0.61093128915313821 0 0.4089290844030305 0.58728915500154233 0 0.46666084890304671 0.57634471035397938 0 0.4089290844030305 0.58728915500154233 0 0.42644501560315817 0.54603747078095544 0 0.37272913873093971 0.56192925302619479 0 0.4089290844030305 0.58728915500154233 0 0.42644501560315817 0.54603747078095544 0 0.35765792684946668 0.6000687869219653 0 0.37272913873093971 0.56192925302619479 0 0.4089290844030305 0.58728915500154233 0 0.35765792684946668 0.6000687869219653 0 0.4089290844030305 0.58728915500154233 0 0.39743091024207589 0.6239520004230239 0 0.37272913873093971 0.56192925302619479 0 0.38244435121258652 0.51653317813019495 0 0.42644501560315817 0.54603747078095544 0 0.43507373378304309 0.49699695397193322 0 0.38244435121258652 0.51653317813019495 0 0.42644501560315817 0.54603747078095544 0 0.46666084890304671 0.57634471035397938 0 0.47793794143994173 0.52940715638744962 0 0.53245488764484505 0.55078124999999989 0 0.43507373378304309 0.49699695397193322 0 0.49102375406324739 0.49123754822244059 0 0.47793794143994173 0.52940715638744962 0 0.43507373378304309 0.49699695397193322 0 0.42644501560315817 0.54603747078095544 0 0.47793794143994173 0.52940715638744962 0 0.46666084890304671 0.57634471035397938 0 0.42644501560315817 0.54603747078095544 0 0.47793794143994173 0.52940715638744962 0 0.49102375406324739 0.49123754822244059 0 0.47793794143994173 0.52940715638744962 0 0.53330375813596242 0.50827942741749099 0 0.47793794143994173 0.52940715638744962 0 0.53245488764484505 0.55078124999999989 0 0.53330375813596242 0.50827942741749099 0 0.53245488764484505 0.55078124999999989 0 0.53330375813596242 0.50827942741749099 0 0.57435499076887508 0.54267261987897775 0 0.53245488764484505 0.55078124999999989 0 0.57435499076887508 0.54267261987897775 0 0.57412547362576272 0.58273804879550706 0 0.53330375813596242 0.50827942741749099 0 0.57611405284611883 0.50165903596042916 0 0.57435499076887508 0.54267261987897775 0 0.57611405284611883 0.50165903596042916 0 0.57435499076887508 0.54267261987897775 0 0.62042975506801734 0.54295974692364424 0 0.57435499076887508 0.54267261987897775 0 0.62042975506801734 0.54295974692364424 0 0.57412547362576272 0.58273804879550706 0 0.57611405284611883 0.50165903596042916 0 0.62042975506801734 0.54295974692364424 0 0.61547661924074692 0.48539576058873962 0 0.5991018319127801 0.62925360607495295 0 0.6405463747586706 0.63290524857395714 0 0.63065402604362242 0.59661356661633302 0 0.57412547362576272 0.58273804879550706 0 0.5991018319127801 0.62925360607495295 0 0.63065402604362242 0.59661356661633302 0 0.62042975506801734 0.54295974692364424 0 0.57412547362576272 0.58273804879550706 0 0.63065402604362242 0.59661356661633302 0 0.57412547362576272 0.58273804879550706 0 0.5498280205245758 0.6290146943450976 0 0.5991018319127801 0.62925360607495295 0 0.46666084890304671 0.57634471035397938 0 0.53245488764484505 0.55078124999999989 0 0.5166924242153631 0.59825134841919447 0 0.57412547362576272 0.58273804879550706 0 0.5166924242153631 0.59825134841919447 0 0.5498280205245758 0.6290146943450976 0 0.53245488764484505 0.55078124999999989 0 0.57412547362576272 0.58273804879550706 0 0.5166924242153631 0.59825134841919447 0 0.5166924242153631 0.59825134841919447 0 0.50715858906372158 0.63295939104129484 0 0.5498280205245758 0.6290146943450976 0 0.47913475093885149 0.66010775372412711 0 0.50715858906372158 0.63295939104129484 0 0.52584555706968406 0.66664215091846768 0 0.50715858906372158 0.63295939104129484 0 0.52584555706968406 0.66664215091846768 0 0.5498280205245758 0.6290146943450976 0 0.47913475093885149 0.66010775372412711 0 0.52584555706968406 0.66664215091846768 0 0.5 0.69999999999999996 0 0.52584555706968406 0.66664215091846768 0 0.54999999999999993 0.69999999999999996 0 0.57484956128872922 0.66573805030881994 0 0.52584555706968406 0.66664215091846768 0 0.5498280205245758 0.6290146943450976 0 0.57484956128872922 0.66573805030881994 0 0.5 0.69999999999999996 0 0.55363780716230748 0.74348740161571747 0 0.50945740445113552 0.75476055527778108 0 0.52584555706968406 0.66664215091846768 0 0.5 0.69999999999999996 0 0.54999999999999993 0.69999999999999996 0 0.5 0.69999999999999996 0 0.54999999999999993 0.69999999999999996 0 0.5 0.69999999999999996 0 0.54999999999999993 0.69999999999999996 0 0.55363780716230748 0.74348740161571747 0 0.55363780716230748 0.74348740161571747 0 0.59999999999999976 0.69999999999999996 0 0.59636844454254345 0.75937156204589151 0 0.54999999999999993 0.69999999999999996 0 0.59999999999999976 0.69999999999999996 0 0.54999999999999993 0.69999999999999996 0 0.59999999999999976 0.69999999999999996 0 0.57484956128872922 0.66573805030881994 0 0.54999999999999993 0.69999999999999996 0 0.55363780716230748 0.74348740161571747 0 0.59999999999999976 0.69999999999999996 0 0.59999999999999976 0.69999999999999996 0 0.6499999999999998 0.69999999999999996 0 0.59999999999999976 0.69999999999999996 0 0.62460753523532009 0.66851202781000296 0 0.6499999999999998 0.69999999999999996 0 0.59999999999999976 0.69999999999999996 0 0.63221990677827677 0.73442891067859706 0 0.59636844454254345 0.75937156204589151 0 0.5498280205245758 0.6290146943450976 0 0.57484956128872922 0.66573805030881994 0 0.5991018319127801 0.62925360607495295 0 0.59999999999999976 0.69999999999999996 0 0.57484956128872922 0.66573805030881994 0 0.62460753523532009 0.66851202781000296 0 0.57484956128872922 0.66573805030881994 0 0.62460753523532009 0.66851202781000296 0 0.5991018319127801 0.62925360607495295 0 0.62460753523532009 0.66851202781000296 0 0.5991018319127801 0.62925360607495295 0 0.6405463747586706 0.63290524857395714 0 0.62460753523532009 0.66851202781000296 0 0.6405463747586706 0.63290524857395714 0 0.675261390228442 0.65996937624687813 0 0.62460753523532009 0.66851202781000296 0 0.675261390228442 0.65996937624687813 0 0.6499999999999998 0.69999999999999996 0 0.675261390228442 0.65996937624687813 0 0.6499999999999998 0.69999999999999996 0 0.69999999999999984 0.69999999999999996 0 0.6405463747586706 0.63290524857395714 0 0.675261390228442 0.65996937624687813 0 0.67529834988829951 0.61613270668143583 0 0.63221990677827677 0.73442891067859706 0 0.66427993341343905 0.73232764502436276 0 0.64753070846764316 0.77332939069435502 0 0.63221990677827677 0.73442891067859706 0 0.6499999999999998 0.69999999999999996 0 0.66427993341343905 0.73232764502436276 0 0.59999999999999976 0.69999999999999996 0 0.63221990677827677 0.73442891067859706 0 0.6499999999999998 0.69999999999999996 0 0.6499999999999998 0.69999999999999996 0 0.69999999999999984 0.69999999999999996 0 0.6499999999999998 0.69999999999999996 0 0.66427993341343905 0.73232764502436276 0 0.69999999999999984 0.69999999999999996 0 0.66427993341343905 0.73232764502436276 0 0.69999999999999984 0.69999999999999996 0 0.6916490518212759 0.75387992374886192 0 0.69999999999999984 0.69999999999999996 0 0.72501250972655151 0.74067302935308721 0 0.6916490518212759 0.75387992374886192 0 0.69999999999999984 0.69999999999999996 0 0.74999999999999989 0.69999999999999996 0 0.72501250972655151 0.74067302935308721 0 0.69999999999999984 0.69999999999999996 0 0.74999999999999989 0.69999999999999996 0 0.72500000000000064 0.67022701834392062 0 0.69999999999999984 0.69999999999999996 0 0.74999999999999989 0.69999999999999996 0 0.74999999999999989 0.69999999999999996 0 0.72501250972655151 0.74067302935308721 0 0.75841349681148107 0.75422312624214749 0 0.675261390228442 0.65996937624687813 0 0.71406021706547751 0.63292083137662503 0 0.72500000000000064 0.67022701834392062 0 0.675261390228442 0.65996937624687813 0 0.71406021706547751 0.63292083137662503 0 0.67529834988829951 0.61613270668143583 0 0.675261390228442 0.65996937624687813 0 0.69999999999999984 0.69999999999999996 0 0.72500000000000064 0.67022701834392062 0 0.71406021706547751 0.63292083137662503 0 0.72500000000000064 0.67022701834392062 0 0.74994237037456724 0.62775548192980357 0 0.72500000000000064 0.67022701834392062 0 0.74994237037456724 0.62775548192980357 0 0.7750489929959945 0.66593931409600093 0 0.71406021706547751 0.63292083137662503 0 0.74994237037456724 0.62775548192980357 0 0.71809016091162536 0.58185040402320831 0 0.74994237037456724 0.62775548192980357 0 0.71809016091162536 0.58185040402320831 0 0.77293540622714185 0.59448302402785813 0 0.71406021706547751 0.63292083137662503 0 0.71809016091162536 0.58185040402320831 0 0.67529834988829951 0.61613270668143583 0 0.71809016091162536 0.58185040402320831 0 0.67569444444444449 0.53500863336860327 0 0.67323294229744413 0.57556450033612505 0 0.71809016091162536 0.58185040402320831 0 0.67529834988829951 0.61613270668143583 0 0.67323294229744413 0.57556450033612505 0 0.71809016091162536 0.58185040402320831 0 0.7152569930854884 0.5237994455134295 0 0.77151014687832564 0.54436834383023036 0 0.7152569930854884 0.5237994455134295 0 0.77151014687832564 0.54436834383023036 0 0.73947346780852752 0.49062440112282169 0 0.7152569930854884 0.5237994455134295 0 0.67569444444444449 0.53500863336860327 0 0.69385896817107129 0.48377516041410151 0 0.71809016091162536 0.58185040402320831 0 0.7152569930854884 0.5237994455134295 0 0.67569444444444449 0.53500863336860327 0 0.62042975506801734 0.54295974692364424 0 0.67569444444444449 0.53500863336860327 0 0.67323294229744413 0.57556450033612505 0 0.67569444444444449 0.53500863336860327 0 0.6541250972820879 0.49999999999999989 0 0.69385896817107129 0.48377516041410151 0 0.62042975506801734 0.54295974692364424 0 0.67569444444444449 0.53500863336860327 0 0.6541250972820879 0.49999999999999989 0 0.62042975506801734 0.54295974692364424 0 0.61547661924074692 0.48539576058873962 0 0.6541250972820879 0.49999999999999989 0 0.62042975506801734 0.54295974692364424 0 0.63065402604362242 0.59661356661633302 0 0.67323294229744413 0.57556450033612505 0 0.6405463747586706 0.63290524857395714 0 0.63065402604362242 0.59661356661633302 0 0.67529834988829951 0.61613270668143583 0 0.63065402604362242 0.59661356661633302 0 0.67529834988829951 0.61613270668143583 0 0.67323294229744413 0.57556450033612505 0 0.60000000000138687 1 0 0.62065498684670595 0.95224934003983619 0 0.57382506491224949 0.9629411906298494 0 0.60000000000138687 1 0 0.62065498684670595 0.95224934003983619 0 0.65000000000104008 1 0 0.62065498684670595 0.95224934003983619 0 0.57382506491224949 0.9629411906298494 0 0.57724883562309992 0.92155686857100794 0 0.60000000000138687 1 0 0.57382506491224949 0.9629411906298494 0 0.55000000000173355 1 0 0.55000000000173355 1 0 0.50000000000205869 1 0 0.52122150208832174 0.94089974453840242 0 0.57382506491224949 0.9629411906298494 0 0.52122150208832174 0.94089974453840242 0 0.57724883562309992 0.92155686857100794 0 0.57382506491224949 0.9629411906298494 0 0.55000000000173355 1 0 0.52122150208832174 0.94089974453840242 0 0.52122150208832174 0.94089974453840242 0 0.54783390826260769 0.89287767010860219 0 0.57724883562309992 0.92155686857100794 0 0.52122150208832174 0.94089974453840242 0 0.50202631463681879 0.87892870825713787 0 0.54783390826260769 0.89287767010860219 0 0.54783390826260769 0.89287767010860219 0 0.5832743223239254 0.88483152652961872 0 0.55899371797446828 0.85003102233514438 0 0.54783390826260769 0.89287767010860219 0 0.5832743223239254 0.88483152652961872 0 0.57724883562309992 0.92155686857100794 0 0.5832743223239254 0.88483152652961872 0 0.57724883562309992 0.92155686857100794 0 0.61885627562261258 0.90282959257498208 0 0.62065498684670595 0.95224934003983619 0 0.57724883562309992 0.92155686857100794 0 0.61885627562261258 0.90282959257498208 0 0.5832743223239254 0.88483152652961872 0 0.61885627562261258 0.90282959257498208 0 0.61343887413683884 0.856862479058357 0 0.61343887413683884 0.856862479058357 0 0.60294066490120068 0.80851322453934582 0 0.65005442820240822 0.82644988530054031 0 0.61343887413683884 0.856862479058357 0 0.55899371797446828 0.85003102233514438 0 0.60294066490120068 0.80851322453934582 0 0.55899371797446828 0.85003102233514438 0 0.54782696902220018 0.79245182748204157 0 0.60294066490120068 0.80851322453934582 0 0.5832743223239254 0.88483152652961872 0 0.61343887413683884 0.856862479058357 0 0.55899371797446828 0.85003102233514438 0 0.50202631463681879 0.87892870825713787 0 0.54783390826260769 0.89287767010860219 0 0.55899371797446828 0.85003102233514438 0 0.50202631463681879 0.87892870825713787 0 0.55899371797446828 0.85003102233514438 0 0.50627822638148745 0.8263979829520941 0 0.55899371797446828 0.85003102233514438 0 0.50627822638148745 0.8263979829520941 0 0.54782696902220018 0.79245182748204157 0 0.50627822638148745 0.8263979829520941 0 0.54782696902220018 0.79245182748204157 0 0.50731287292894423 0.78963574450233831 0 0.54782696902220018 0.79245182748204157 0 0.50731287292894423 0.78963574450233831 0 0.50945740445113552 0.75476055527778108 0 0.55363780716230748 0.74348740161571747 0 0.54782696902220018 0.79245182748204157 0 0.50945740445113552 0.75476055527778108 0 0.55363780716230748 0.74348740161571747 0 0.54782696902220018 0.79245182748204157 0 0.59636844454254345 0.75937156204589151 0 0.54782696902220018 0.79245182748204157 0 0.60294066490120068 0.80851322453934582 0 0.59636844454254345 0.75937156204589151 0 0.60294066490120068 0.80851322453934582 0 0.59636844454254345 0.75937156204589151 0 0.64753070846764316 0.77332939069435502 0 0.63221990677827677 0.73442891067859706 0 0.59636844454254345 0.75937156204589151 0 0.64753070846764316 0.77332939069435502 0 0.60294066490120068 0.80851322453934582 0 0.64753070846764316 0.77332939069435502 0 0.65005442820240822 0.82644988530054031 0 0.64753070846764316 0.77332939069435502 0 0.68024162096458085 0.79868546898116533 0 0.65005442820240822 0.82644988530054031 0 0.64753070846764316 0.77332939069435502 0 0.68024162096458085 0.79868546898116533 0 0.6916490518212759 0.75387992374886192 0 0.66427993341343905 0.73232764502436276 0 0.64753070846764316 0.77332939069435502 0 0.6916490518212759 0.75387992374886192 0 0.72501250972655151 0.74067302935308721 0 0.6916490518212759 0.75387992374886192 0 0.72500000000000064 0.7952620967744265 0 0.72501250972655151 0.74067302935308721 0 0.72500000000000064 0.7952620967744265 0 0.75841349681148107 0.75422312624214749 0 0.68024162096458085 0.79868546898116533 0 0.6916490518212759 0.75387992374886192 0 0.72500000000000064 0.7952620967744265 0 0.68024162096458085 0.79868546898116533 0 0.72500000000000064 0.7952620967744265 0 0.68697391633157634 0.84450604838764298 0 0.72500000000000064 0.7952620967744265 0 0.72863726579783861 0.85390518901155588 0 0.68697391633157634 0.84450604838764298 0 0.72500000000000064 0.7952620967744265 0 0.72863726579783861 0.85390518901155588 0 0.76901770135486491 0.84293557325473656 0 0.72863726579783861 0.85390518901155588 0 0.68697391633157634 0.84450604838764298 0 0.7250000000005199 0.89375000000045834 0 0.68697391633157634 0.84450604838764298 0 0.66412543161245952 0.88015090885499059 0 0.7250000000005199 0.89375000000045834 0 0.68697391633157634 0.84450604838764298 0 0.65005442820240822 0.82644988530054031 0 0.66412543161245952 0.88015090885499059 0 0.68024162096458085 0.79868546898116533 0 0.68697391633157634 0.84450604838764298 0 0.65005442820240822 0.82644988530054031 0 0.61343887413683884 0.856862479058357 0 0.65005442820240822 0.82644988530054031 0 0.66412543161245952 0.88015090885499059 0 0.61885627562261258 0.90282959257498208 0 0.61343887413683884 0.856862479058357 0 0.66412543161245952 0.88015090885499059 0 0.61885627562261258 0.90282959257498208 0 0.65507451745379841 0.92229208810758578 0 0.66412543161245952 0.88015090885499059 0 0.62065498684670595 0.95224934003983619 0 0.61885627562261258 0.90282959257498208 0 0.65507451745379841 0.92229208810758578 0 0.65507451745379841 0.92229208810758578 0 0.68987011941058407 0.92105047536677087 0 0.68015064798562208 0.95924320340003011 0 0.65507451745379841 0.92229208810758578 0 0.66412543161245952 0.88015090885499059 0 0.68987011941058407 0.92105047536677087 0 0.66412543161245952 0.88015090885499059 0 0.7250000000005199 0.89375000000045834 0 0.68987011941058407 0.92105047536677087 0 0.72863726579783861 0.85390518901155588 0 0.7250000000005199 0.89375000000045834 0 0.76891166905518427 0.88835469571185499 0 0.7250000000005199 0.89375000000045834 0 0.7250000000005199 0.94981617647078953 0 0.75729602384198635 0.92353652857884294 0 0.7250000000005199 0.89375000000045834 0 0.68987011941058407 0.92105047536677087 0 0.7250000000005199 0.94981617647078953 0 0.68987011941058407 0.92105047536677087 0 0.7250000000005199 0.94981617647078953 0 0.68015064798562208 0.95924320340003011 0 0.7250000000005199 0.94981617647078953 0 0.7000000000006934 1 0 0.75000000000034661 1 0 0.7250000000005199 0.94981617647078953 0 0.75000000000034661 1 0 0.770759834363826 0.95919399014344442 0 0.7250000000005199 0.94981617647078953 0 0.7000000000006934 1 0 0.68015064798562208 0.95924320340003011 0 0.7000000000006934 1 0 0.68015064798562208 0.95924320340003011 0 0.65000000000104008 1 0 0.62065498684670595 0.95224934003983619 0 0.65507451745379841 0.92229208810758578 0 0.68015064798562208 0.95924320340003011 0 0.62065498684670595 0.95224934003983619 0 0.68015064798562208 0.95924320340003011 0 0.65000000000104008 1 0 0.84999999999965292 1 0 0.85170973911348691 0.93569607295217616 0 0.89898474358632463 0.95391965591118966 0 0.84999999999965292 1 0 0.81486180804382891 0.96321394949790495 0 0.85170973911348691 0.93569607295217616 0 0.81486180804382891 0.96321394949790495 0 0.79680861578988083 0.92656778056766709 0 0.85170973911348691 0.93569607295217616 0 0.84999999999965292 1 0 0.81486180804382891 0.96321394949790495 0 0.79999999999999982 1 0 0.81486180804382891 0.96321394949790495 0 0.79999999999999982 1 0 0.770759834363826 0.95919399014344442 0 0.79999999999999982 1 0 0.75000000000034661 1 0 0.770759834363826 0.95919399014344442 0 0.7250000000005199 0.94981617647078953 0 0.770759834363826 0.95919399014344442 0 0.75729602384198635 0.92353652857884294 0 0.81486180804382891 0.96321394949790495 0 0.770759834363826 0.95919399014344442 0 0.79680861578988083 0.92656778056766709 0 0.79680861578988083 0.92656778056766709 0 0.75729602384198635 0.92353652857884294 0 0.76891166905518427 0.88835469571185499 0 0.770759834363826 0.95919399014344442 0 0.79680861578988083 0.92656778056766709 0 0.75729602384198635 0.92353652857884294 0 0.7250000000005199 0.89375000000045834 0 0.75729602384198635 0.92353652857884294 0 0.76891166905518427 0.88835469571185499 0 0.79680861578988083 0.92656778056766709 0 0.76891166905518427 0.88835469571185499 0 0.81159157511211755 0.88795995483179491 0 0.81159157511211755 0.88795995483179491 0 0.85170973911348691 0.93569607295217616 0 0.85600844944837662 0.88483418979512773 0 0.79680861578988083 0.92656778056766709 0 0.81159157511211755 0.88795995483179491 0 0.85170973911348691 0.93569607295217616 0 0.85170973911348691 0.93569607295217616 0 0.85600844944837662 0.88483418979512773 0 0.90416666666660628 0.9041666666666166 0 0.85600844944837662 0.88483418979512773 0 0.82709327591091286 0.84937141670920724 0 0.88088768115933802 0.84674609810493673 0 0.82709327591091286 0.84937141670920724 0 0.84725310900444062 0.80779732082917555 0 0.88088768115933802 0.84674609810493673 0 0.82709327591091286 0.84937141670920724 0 0.80041942726660109 0.81543261647703358 0 0.84725310900444062 0.80779732082917555 0 0.81159157511211755 0.88795995483179491 0 0.85600844944837662 0.88483418979512773 0 0.82709327591091286 0.84937141670920724 0 0.76891166905518427 0.88835469571185499 0 0.81159157511211755 0.88795995483179491 0 0.76901770135486491 0.84293557325473656 0 0.81159157511211755 0.88795995483179491 0 0.82709327591091286 0.84937141670920724 0 0.76901770135486491 0.84293557325473656 0 0.72863726579783861 0.85390518901155588 0 0.76891166905518427 0.88835469571185499 0 0.76901770135486491 0.84293557325473656 0 0.76901770135486491 0.84293557325473656 0 0.80041942726660109 0.81543261647703358 0 0.77094201086366854 0.79647480515688507 0 0.82709327591091286 0.84937141670920724 0 0.76901770135486491 0.84293557325473656 0 0.80041942726660109 0.81543261647703358 0 0.80041942726660109 0.81543261647703358 0 0.77094201086366854 0.79647480515688507 0 0.80185942888539485 0.77452061303608133 0 0.72500000000000064 0.7952620967744265 0 0.77094201086366854 0.79647480515688507 0 0.75841349681148107 0.75422312624214749 0 0.72500000000000064 0.7952620967744265 0 0.76901770135486491 0.84293557325473656 0 0.77094201086366854 0.79647480515688507 0 0.77094201086366854 0.79647480515688507 0 0.75841349681148107 0.75422312624214749 0 0.80185942888539485 0.77452061303608133 0 0.75841349681148107 0.75422312624214749 0 0.80185942888539485 0.77452061303608133 0 0.78578450296893509 0.73292684821144505 0 0.80185942888539485 0.77452061303608133 0 0.84725310900444062 0.80779732082917555 0 0.85491058998424563 0.76004753345552634 0 0.80185942888539485 0.77452061303608133 0 0.85491058998424563 0.76004753345552634 0 0.81864958914779962 0.73589050177899629 0 0.80041942726660109 0.81543261647703358 0 0.80185942888539485 0.77452061303608133 0 0.84725310900444062 0.80779732082917555 0 0.84725310900444062 0.80779732082917555 0 0.85491058998424563 0.76004753345552634 0 0.90299850604011456 0.79563452813489832 0 0.85491058998424563 0.76004753345552634 0 0.90299850604011456 0.79563452813489832 0 0.89999166460796554 0.74528934923809909 0 0.90299850604011456 0.79563452813489832 0 0.94399509803918602 0.75600490196082126 0 0.95386563387742829 0.80414874155775029 0 0.90299850604011456 0.79563452813489832 0 0.94399509803918602 0.75600490196082126 0 0.89999166460796554 0.74528934923809909 0 0.94399509803918602 0.75600490196082126 0 0.97435614836745565 0.77499999999987745 0 0.95386563387742829 0.80414874155775029 0 0.94399509803918602 0.75600490196082126 0 0.97435614836745565 0.77499999999987745 0 0.97166519676947294 0.73337114490064459 0 0.97435614836745565 0.77499999999987745 0 0.97166519676947294 0.73337114490064459 0 1 0.74999999999993494 0 0.97435614836745565 0.77499999999987745 0 1 0.7999999999998193 0 1 0.74999999999993494 0 0.97435614836745565 0.77499999999987745 0 1 0.7999999999998193 0 0.95386563387742829 0.80414874155775029 0 1 0.84999999999982645 0 0.93677536231884972 0.85000000000000286 0 0.95391631417670719 0.89584263333814784 0 0.95386563387742829 0.80414874155775029 0 1 0.84999999999982645 0 0.93677536231884972 0.85000000000000286 0 1 0.7999999999998193 0 0.95386563387742829 0.80414874155775029 0 1 0.84999999999982645 0 0.93677536231884972 0.85000000000000286 0 0.88088768115933802 0.84674609810493673 0 0.90416666666660628 0.9041666666666166 0 0.90299850604011456 0.79563452813489832 0 0.95386563387742829 0.80414874155775029 0 0.93677536231884972 0.85000000000000286 0 0.90299850604011456 0.79563452813489832 0 0.93677536231884972 0.85000000000000286 0 0.88088768115933802 0.84674609810493673 0 0.84725310900444062 0.80779732082917555 0 0.90299850604011456 0.79563452813489832 0 0.88088768115933802 0.84674609810493673 0 0.85600844944837662 0.88483418979512773 0 0.88088768115933802 0.84674609810493673 0 0.90416666666660628 0.9041666666666166 0 0.85170973911348691 0.93569607295217616 0 0.90416666666660628 0.9041666666666166 0 0.89898474358632463 0.95391965591118966 0 0.90416666666660628 0.9041666666666166 0 0.95391631417670719 0.89584263333814784 0 0.94399509803919068 0.9439950980391687 0 0.90416666666660628 0.9041666666666166 0 0.94399509803919068 0.9439950980391687 0 0.89898474358632463 0.95391965591118966 0 0.93677536231884972 0.85000000000000286 0 0.90416666666660628 0.9041666666666166 0 0.95391631417670719 0.89584263333814784 0 1 0.84999999999982645 0 0.95391631417670719 0.89584263333814784 0 1 0.8999999999998336 0 1 0.8999999999998336 0 0.97435614836744289 0.92499999999990257 0 1 0.94999999999997109 0 0.95391631417670719 0.89584263333814784 0 1 0.8999999999998336 0 0.97435614836744289 0.92499999999990257 0 0.95391631417670719 0.89584263333814784 0 0.97435614836744289 0.92499999999990257 0 0.94399509803919068 0.9439950980391687 0 0.97435614836744289 0.92499999999990257 0 0.94399509803919068 0.9439950980391687 0 0.97166519676946206 0.96662885509935492 0 0.97435614836744289 0.92499999999990257 0 0.97166519676946206 0.96662885509935492 0 1 0.94999999999997109 0 0.97166519676946206 0.96662885509935492 0 1 0.94999999999997109 0 1 1 0 0.97166519676946206 0.96662885509935492 0 1 1 0 0.94999999999979179 1 0 0.94399509803919068 0.9439950980391687 0 0.97166519676946206 0.96662885509935492 0 0.94999999999979179 1 0 0.94999999999979179 1 0 0.89898474358632463 0.95391965591118966 0 0.89999999999958358 1 0 0.94399509803919068 0.9439950980391687 0 0.94999999999979179 1 0 0.89898474358632463 0.95391965591118966 0 0.84999999999965292 1 0 0.89898474358632463 0.95391965591118966 0 0.89999999999958358 1 0 0.81723410853263523 0.59419663659258926 0 0.86956835336234861 0.571283299838105 0 0.82862096804812391 0.55037090955459045 0 0.81723410853263523 0.59419663659258926 0 0.87159648282691515 0.61285406320581504 0 0.83758014339878906 0.63222013025741819 0 0.81723410853263523 0.59419663659258926 0 0.79884539758237771 0.62875045078114233 0 0.83758014339878906 0.63222013025741819 0 0.81723410853263523 0.59419663659258926 0 0.87159648282691515 0.61285406320581504 0 0.86956835336234861 0.571283299838105 0 0.86956835336234861 0.571283299838105 0 0.86907294890112186 0.52008116128001669 0 0.82862096804812391 0.55037090955459045 0 0.86907294890112186 0.52008116128001669 0 0.81441713509985358 0.51161854125224959 0 0.82862096804812391 0.55037090955459045 0 0.86907294890112186 0.52008116128001669 0 0.81441713509985358 0.51161854125224959 0 0.84723782639812573 0.48638347960178252 0 0.81441713509985358 0.51161854125224959 0 0.82862096804812391 0.55037090955459045 0 0.77151014687832564 0.54436834383023036 0 0.81441713509985358 0.51161854125224959 0 0.77151014687832564 0.54436834383023036 0 0.77846603114747959 0.49850927265137401 0 0.77151014687832564 0.54436834383023036 0 0.77846603114747959 0.49850927265137401 0 0.73947346780852752 0.49062440112282169 0 0.71809016091162536 0.58185040402320831 0 0.77151014687832564 0.54436834383023036 0 0.77293540622714185 0.59448302402785813 0 0.81723410853263523 0.59419663659258926 0 0.77151014687832564 0.54436834383023036 0 0.77293540622714185 0.59448302402785813 0 0.81723410853263523 0.59419663659258926 0 0.82862096804812391 0.55037090955459045 0 0.77151014687832564 0.54436834383023036 0 0.81723410853263523 0.59419663659258926 0 0.77293540622714185 0.59448302402785813 0 0.79884539758237771 0.62875045078114233 0 0.74994237037456724 0.62775548192980357 0 0.77293540622714185 0.59448302402785813 0 0.79884539758237771 0.62875045078114233 0 0.74994237037456724 0.62775548192980357 0 0.7750489929959945 0.66593931409600093 0 0.79884539758237771 0.62875045078114233 0 0.74999999999999989 0.69999999999999996 0 0.72500000000000064 0.67022701834392062 0 0.7750489929959945 0.66593931409600093 0 0.7750489929959945 0.66593931409600093 0 0.79999999999999982 0.69999999999999996 0 0.82457059160610424 0.66831947184359608 0 0.7750489929959945 0.66593931409600093 0 0.79884539758237771 0.62875045078114233 0 0.82457059160610424 0.66831947184359608 0 0.74999999999999989 0.69999999999999996 0 0.75841349681148107 0.75422312624214749 0 0.78578450296893509 0.73292684821144505 0 0.74999999999999989 0.69999999999999996 0 0.79999999999999982 0.69999999999999996 0 0.78578450296893509 0.73292684821144505 0 0.74999999999999989 0.69999999999999996 0 0.7750489929959945 0.66593931409600093 0 0.79999999999999982 0.69999999999999996 0 0.74999999999999989 0.69999999999999996 0 0.79999999999999982 0.69999999999999996 0 0.80185942888539485 0.77452061303608133 0 0.78578450296893509 0.73292684821144505 0 0.81864958914779962 0.73589050177899629 0 0.79999999999999982 0.69999999999999996 0 0.78578450296893509 0.73292684821144505 0 0.81864958914779962 0.73589050177899629 0 0.85491058998424563 0.76004753345552634 0 0.81864958914779962 0.73589050177899629 0 0.84999999999999987 0.69999999999999996 0 0.79999999999999982 0.69999999999999996 0 0.84999999999999987 0.69999999999999996 0 0.79999999999999982 0.69999999999999996 0 0.84999999999999987 0.69999999999999996 0 0.82457059160610424 0.66831947184359608 0 0.79999999999999982 0.69999999999999996 0 0.81864958914779962 0.73589050177899629 0 0.84999999999999987 0.69999999999999996 0 0.84999999999999987 0.69999999999999996 0 0.89999999999999991 0.69999999999999996 0 0.85491058998424563 0.76004753345552634 0 0.84999999999999987 0.69999999999999996 0 0.89999166460796554 0.74528934923809909 0 0.79884539758237771 0.62875045078114233 0 0.83758014339878906 0.63222013025741819 0 0.82457059160610424 0.66831947184359608 0 0.84999999999999987 0.69999999999999996 0 0.82457059160610424 0.66831947184359608 0 0.87712158428786946 0.65709029563313581 0 0.87159648282691515 0.61285406320581504 0 0.83758014339878906 0.63222013025741819 0 0.87712158428786946 0.65709029563313581 0 0.83758014339878906 0.63222013025741819 0 0.82457059160610424 0.66831947184359608 0 0.87712158428786946 0.65709029563313581 0 0.87712158428786946 0.65709029563313581 0 0.92057473616084773 0.66770436535372446 0 0.91750694127105259 0.63017627779935648 0 0.87159648282691515 0.61285406320581504 0 0.87712158428786946 0.65709029563313581 0 0.91750694127105259 0.63017627779935648 0 0.84999999999999987 0.69999999999999996 0 0.87712158428786946 0.65709029563313581 0 0.89999999999999991 0.69999999999999996 0 0.87712158428786946 0.65709029563313581 0 0.92057473616084773 0.66770436535372446 0 0.89999999999999991 0.69999999999999996 0 0.92057473616084773 0.66770436535372446 0 0.91750694127105259 0.63017627779935648 0 0.9578014258160763 0.65787212321113708 0 0.84999999999999987 0.69999999999999996 0 0.89999166460796554 0.74528934923809909 0 0.89999999999999991 0.69999999999999996 0 0.89999999999999991 0.69999999999999996 0 0.94999999999999996 0.69999999999999996 0 0.92057473616084773 0.66770436535372446 0 0.89999999999999991 0.69999999999999996 0 0.94999999999999996 0.69999999999999996 0 0.89999166460796554 0.74528934923809909 0 0.89999999999999991 0.69999999999999996 0 0.94999999999999996 0.69999999999999996 0 0.94399509803918602 0.75600490196082126 0 0.89999166460796554 0.74528934923809909 0 0.94999999999999996 0.69999999999999996 0 0.94399509803918602 0.75600490196082126 0 0.94999999999999996 0.69999999999999996 0 0.97166519676947294 0.73337114490064459 0 0.94999999999999996 0.69999999999999996 0 1 0.69999999999999996 0 0.94999999999999996 0.69999999999999996 0 1 0.69999999999999996 0 0.97166519676947294 0.73337114490064459 0 1 0.69999999999999996 0 0.97166519676947294 0.73337114490064459 0 1 0.74999999999993494 0 0.91750694127105259 0.63017627779935648 0 0.9578014258160763 0.65787212321113708 0 0.95867599106212187 0.60011091146651041 0 0.92057473616084773 0.66770436535372446 0 0.94999999999999996 0.69999999999999996 0 0.9578014258160763 0.65787212321113708 0 0.94999999999999996 0.69999999999999996 0 1 0.69999999999999996 0 0.9578014258160763 0.65787212321113708 0 1 0.69999999999999996 0 0.9578014258160763 0.65787212321113708 0 1 0.64999999999986979 0 0.9578014258160763 0.65787212321113708 0 1 0.64999999999986979 0 0.95867599106212187 0.60011091146651041 0 0.95867599106212187 0.60011091146651041 0 0.93732437411268477 0.55911392101136159 0 1 0.54999999999963112 0 1 0.64999999999986979 0 1 0.59999999999973963 0 0.95867599106212187 0.60011091146651041 0 1 0.59999999999973963 0 0.95867599106212187 0.60011091146651041 0 1 0.54999999999963112 0 0.91750694127105259 0.63017627779935648 0 0.95867599106212187 0.60011091146651041 0 0.91143117093204207 0.58709913730335972 0 0.95867599106212187 0.60011091146651041 0 0.91143117093204207 0.58709913730335972 0 0.93732437411268477 0.55911392101136159 0 0.86956835336234861 0.571283299838105 0 0.91143117093204207 0.58709913730335972 0 0.90900154012161016 0.53607784105648792 0 0.87159648282691515 0.61285406320581504 0 0.86956835336234861 0.571283299838105 0 0.91143117093204207 0.58709913730335972 0 0.87159648282691515 0.61285406320581504 0 0.91750694127105259 0.63017627779935648 0 0.91143117093204207 0.58709913730335972 0 0.86907294890112186 0.52008116128001669 0 0.90900154012161016 0.53607784105648792 0 0.91696753777131557 0.497780560203536 0 0.86956835336234861 0.571283299838105 0 0.86907294890112186 0.52008116128001669 0 0.90900154012161016 0.53607784105648792 0 0.90900154012161016 0.53607784105648792 0 0.93732437411268477 0.55911392101136159 0 0.95631871884947484 0.51827533208233789 0 0.91143117093204207 0.58709913730335972 0 0.90900154012161016 0.53607784105648792 0 0.93732437411268477 0.55911392101136159 0 0.90900154012161016 0.53607784105648792 0 0.95631871884947484 0.51827533208233789 0 0.91696753777131557 0.497780560203536 0 0.93732437411268477 0.55911392101136159 0 0.95631871884947484 0.51827533208233789 0 1 0.54999999999963112 0 0.95631871884947484 0.51827533208233789 0 1 0.54999999999963112 0 1 0.49999999999950101 0 0.95631871884947484 0.51827533208233789 0 1 0.49999999999950101 0 0.96228564064454991 0.48206450662049471 0 1 0.49999999999950101 0 1 0.44999999999963131 0 0.96228564064454991 0.48206450662049471 0 1 0.44999999999963131 0 0.93814194660195893 0.44426664081746747 0 0.96228564064454991 0.48206450662049471 0 0.93814194660195893 0.44426664081746747 0 0.96228564064454991 0.48206450662049471 0 0.91696753777131557 0.497780560203536 0 0.95631871884947484 0.51827533208233789 0 0.96228564064454991 0.48206450662049471 0 0.91696753777131557 0.497780560203536 0 1 0.39999999999978308 0 0.95871855522754235 0.40006508612975411 0 1 0.34999999999993492 0 1 0.44999999999963131 0 1 0.39999999999978308 0 0.95871855522754235 0.40006508612975411 0 1 0.44999999999963131 0 0.93814194660195893 0.44426664081746747 0 0.95871855522754235 0.40006508612975411 0 0.95871855522754235 0.40006508612975411 0 0.90594285160987287 0.4141265964174129 0 0.91750694127107502 0.36982372220068471 0 0.93814194660195893 0.44426664081746747 0 0.95871855522754235 0.40006508612975411 0 0.90594285160987287 0.4141265964174129 0 0.90594285160987287 0.4141265964174129 0 0.88594198078881503 0.46167788676578442 0 0.86411095495256451 0.42388805655111889 0 0.90594285160987287 0.4141265964174129 0 0.86411095495256451 0.42388805655111889 0 0.86844634540301924 0.38530937474099819 0 0.90594285160987287 0.4141265964174129 0 0.86844634540301924 0.38530937474099819 0 0.91750694127107502 0.36982372220068471 0 0.93814194660195893 0.44426664081746747 0 0.91696753777131557 0.497780560203536 0 0.88594198078881503 0.46167788676578442 0 0.93814194660195893 0.44426664081746747 0 0.90594285160987287 0.4141265964174129 0 0.88594198078881503 0.46167788676578442 0 0.86907294890112186 0.52008116128001669 0 0.91696753777131557 0.497780560203536 0 0.88594198078881503 0.46167788676578442 0 0.86907294890112186 0.52008116128001669 0 0.88594198078881503 0.46167788676578442 0 0.84723782639812573 0.48638347960178252 0 0.81441713509985358 0.51161854125224959 0 0.84723782639812573 0.48638347960178252 0 0.81400510706333218 0.47357325943904899 0 0.84723782639812573 0.48638347960178252 0 0.81400510706333218 0.47357325943904899 0 0.84925632466077294 0.45359738909549091 0 0.81400510706333218 0.47357325943904899 0 0.84925632466077294 0.45359738909549091 0 0.81973119833356312 0.43505687159469048 0 0.88594198078881503 0.46167788676578442 0 0.84723782639812573 0.48638347960178252 0 0.84925632466077294 0.45359738909549091 0 0.84925632466077294 0.45359738909549091 0 0.86411095495256451 0.42388805655111889 0 0.81973119833356312 0.43505687159469048 0 0.88594198078881503 0.46167788676578442 0 0.84925632466077294 0.45359738909549091 0 0.86411095495256451 0.42388805655111889 0 0.86411095495256451 0.42388805655111889 0 0.86844634540301924 0.38530937474099819 0 0.81308179852519835 0.39754945808726527 0 0.86844634540301924 0.38530937474099819 0 0.81308179852519835 0.39754945808726527 0 0.83573492347052902 0.36590755630746369 0 0.86411095495256451 0.42388805655111889 0 0.81308179852519835 0.39754945808726527 0 0.81973119833356312 0.43505687159469048 0 0.81973119833356312 0.43505687159469048 0 0.77354604466818633 0.40378688774472771 0 0.77972660463949339 0.45529290596363098 0 0.81308179852519835 0.39754945808726527 0 0.81973119833356312 0.43505687159469048 0 0.77354604466818633 0.40378688774472771 0 0.81308179852519835 0.39754945808726527 0 0.77354604466818633 0.40378688774472771 0 0.78145581580700685 0.34881365920033602 0 0.77354604466818633 0.40378688774472771 0 0.77972660463949339 0.45529290596363098 0 0.73483647259922602 0.44789725365921768 0 0.77972660463949339 0.45529290596363098 0 0.73483647259922602 0.44789725365921768 0 0.73947346780852752 0.49062440112282169 0 0.77972660463949339 0.45529290596363098 0 0.77846603114747959 0.49850927265137401 0 0.73947346780852752 0.49062440112282169 0 0.81400510706333218 0.47357325943904899 0 0.77972660463949339 0.45529290596363098 0 0.77846603114747959 0.49850927265137401 0 0.81441713509985358 0.51161854125224959 0 0.81400510706333218 0.47357325943904899 0 0.77846603114747959 0.49850927265137401 0 0.81400510706333218 0.47357325943904899 0 0.81973119833356312 0.43505687159469048 0 0.77972660463949339 0.45529290596363098 0 0.79999999999999982 0.29999999999999999 0 0.77075983436335049 0.25919399014334171 0 0.81486180804364938 0.26321394949780091 0 0.79999999999999982 0.29999999999999999 0 0.74999999999999989 0.29999999999999999 0 0.79999999999999982 0.29999999999999999 0 0.77075983436335049 0.25919399014334171 0 0.74999999999999989 0.29999999999999999 0 0.79999999999999982 0.29999999999999999 0 0.78145581580700685 0.34881365920033602 0 0.74999999999999989 0.29999999999999999 0 0.78145581580700685 0.34881365920033602 0 0.73090396928863699 0.33699297293167962 0 0.74999999999999989 0.29999999999999999 0 0.77354604466818633 0.40378688774472771 0 0.78145581580700685 0.34881365920033602 0 0.74764719760526988 0.3719647154012321 0 0.78145581580700685 0.34881365920033602 0 0.74764719760526988 0.3719647154012321 0 0.73090396928863699 0.33699297293167962 0 0.81308179852519835 0.39754945808726527 0 0.78145581580700685 0.34881365920033602 0 0.83573492347052902 0.36590755630746369 0 0.79999999999999982 0.29999999999999999 0 0.78145581580700685 0.34881365920033602 0 0.82500000000000062 0.33010209762754811 0 0.78145581580700685 0.34881365920033602 0 0.82500000000000062 0.33010209762754811 0 0.83573492347052902 0.36590755630746369 0 0.82500000000000062 0.33010209762754811 0 0.83573492347052902 0.36590755630746369 0 0.87430060258887643 0.34056085888204451 0 0.86844634540301924 0.38530937474099819 0 0.83573492347052902 0.36590755630746369 0 0.87430060258887643 0.34056085888204451 0 0.82500000000000062 0.33010209762754811 0 0.87430060258887643 0.34056085888204451 0 0.84999999999999987 0.29999999999999999 0 0.87430060258887643 0.34056085888204451 0 0.84999999999999987 0.29999999999999999 0 0.89999999999999991 0.29999999999999999 0 0.84999999999999987 0.29999999999999999 0 0.81486180804364938 0.26321394949780091 0 0.8517097391133297 0.2356960729520409 0 0.84999999999999987 0.29999999999999999 0 0.89898474358614167 0.25391965591104898 0 0.8517097391133297 0.2356960729520409 0 0.84999999999999987 0.29999999999999999 0 0.89999999999999991 0.29999999999999999 0 0.79999999999999982 0.29999999999999999 0 0.82500000000000062 0.33010209762754811 0 0.84999999999999987 0.29999999999999999 0 0.79999999999999982 0.29999999999999999 0 0.84999999999999987 0.29999999999999999 0 0.81486180804364938 0.26321394949780091 0 0.79999999999999982 0.29999999999999999 0 0.84999999999999987 0.29999999999999999 0 0.84999999999999987 0.29999999999999999 0 0.89898474358614167 0.25391965591104898 0 0.89999999999999991 0.29999999999999999 0 0.89999999999999991 0.29999999999999999 0 0.94999999999999996 0.29999999999999999 0 0.89999999999999991 0.29999999999999999 0 0.92012390126144183 0.33123581297173937 0 0.94999999999999996 0.29999999999999999 0 0.89898474358614167 0.25391965591104898 0 0.89999999999999991 0.29999999999999999 0 0.94999999999999996 0.29999999999999999 0 0.89898474358614167 0.25391965591104898 0 0.94999999999999996 0.29999999999999999 0 0.94399509803921056 0.24399509803922639 0 0.86844634540301924 0.38530937474099819 0 0.87430060258887643 0.34056085888204451 0 0.91750694127107502 0.36982372220068471 0 0.87430060258887643 0.34056085888204451 0 0.92012390126144183 0.33123581297173937 0 0.91750694127107502 0.36982372220068471 0 0.87430060258887643 0.34056085888204451 0 0.89999999999999991 0.29999999999999999 0 0.92012390126144183 0.33123581297173937 0 0.92012390126144183 0.33123581297173937 0 0.91750694127107502 0.36982372220068471 0 0.95780851984364423 0.34215720972155339 0 0.95871855522754235 0.40006508612975411 0 0.91750694127107502 0.36982372220068471 0 0.95780851984364423 0.34215720972155339 0 0.92012390126144183 0.33123581297173937 0 0.95780851984364423 0.34215720972155339 0 0.94999999999999996 0.29999999999999999 0 0.95780851984364423 0.34215720972155339 0 0.94999999999999996 0.29999999999999999 0 1 0.29999999999999999 0 0.95780851984364423 0.34215720972155339 0 1 0.34999999999993492 0 1 0.29999999999999999 0 0.95871855522754235 0.40006508612975411 0 0.95780851984364423 0.34215720972155339 0 1 0.34999999999993492 0 0.94999999999999996 0.29999999999999999 0 0.97166519676951801 0.26662885509932011 0 0.94399509803921056 0.24399509803922639 0 0.94999999999999996 0.29999999999999999 0 1 0.29999999999999999 0 0.94999999999999996 0.29999999999999999 0 1 0.29999999999999999 0 0.97166519676951801 0.26662885509932011 0 1 0.29999999999999999 0 0.97166519676951801 0.26662885509932011 0 1 0.24999999999987299 0 0.97166519676951801 0.26662885509932011 0 0.97435614836740092 0.22499999999981049 0 1 0.24999999999987299 0 0.97435614836740092 0.22499999999981049 0 1 0.24999999999987299 0 1 0.19999999999974799 0 0.97435614836740092 0.22499999999981049 0 0.94399509803921056 0.24399509803922639 0 0.95391631417672862 0.19584263333809451 0 0.97166519676951801 0.26662885509932011 0 0.97435614836740092 0.22499999999981049 0 0.94399509803921056 0.24399509803922639 0 0.97435614836740092 0.22499999999981049 0 0.95391631417672862 0.19584263333809451 0 1 0.19999999999974799 0 0.95391631417672862 0.19584263333809451 0 1 0.14999999999961891 0 0.93677536231883773 0.14999999999999089 0 1 0.14999999999961891 0 0.93677536231883773 0.14999999999999089 0 0.95386563387744361 0.1041487415577465 0 0.95391631417672862 0.19584263333809451 0 1 0.19999999999974799 0 1 0.14999999999961891 0 0.95391631417672862 0.19584263333809451 0 0.93677536231883773 0.14999999999999089 0 0.90416666666668166 0.20416666666667119 0 0.93677536231883773 0.14999999999999089 0 0.88088768115941807 0.14674609810479519 0 0.90416666666668166 0.20416666666667119 0 0.93677536231883773 0.14999999999999089 0 0.88088768115941807 0.14674609810479519 0 0.90299850604006393 0.09563452813493091 0 0.88088768115941807 0.14674609810479519 0 0.90416666666668166 0.20416666666667119 0 0.85600844944842547 0.1848341897950983 0 0.89898474358614167 0.25391965591104898 0 0.90416666666668166 0.20416666666667119 0 0.8517097391133297 0.2356960729520409 0 0.89898474358614167 0.25391965591104898 0 0.94399509803921056 0.24399509803922639 0 0.90416666666668166 0.20416666666667119 0 0.94399509803921056 0.24399509803922639 0 0.95391631417672862 0.19584263333809451 0 0.90416666666668166 0.20416666666667119 0 0.94999999999986839 0 0 0.97166519676946894 0.033371144900598393 0 0.94399509803922566 0.056004901960802607 0 0.94999999999986839 0 0 1 0 0 0.97166519676946894 0.033371144900598393 0 1 0 0 1 0.049999999999896842 0 0.97166519676946894 0.033371144900598393 0 1 0.049999999999896842 0 0.97166519676946894 0.033371144900598393 0 0.97435614836748241 0.074999999999825387 0 0.97166519676946894 0.033371144900598393 0 0.94399509803922566 0.056004901960802607 0 0.97435614836748241 0.074999999999825387 0 0.94399509803922566 0.056004901960802607 0 0.97435614836748241 0.074999999999825387 0 0.95386563387744361 0.1041487415577465 0 0.97435614836748241 0.074999999999825387 0 1 0.099999999999753911 0 0.95386563387744361 0.1041487415577465 0 1 0.049999999999896842 0 0.97435614836748241 0.074999999999825387 0 1 0.099999999999753911 0 1 0.14999999999961891 0 1 0.099999999999753911 0 0.95386563387744361 0.1041487415577465 0 0.93677536231883773 0.14999999999999089 0 0.95386563387744361 0.1041487415577465 0 0.90299850604006393 0.09563452813493091 0 0.88088768115941807 0.14674609810479519 0 0.90299850604006393 0.09563452813493091 0 0.84725310900442086 0.10779732082922661 0 0.90299850604006393 0.09563452813493091 0 0.899991664607802 0.045289349238254978 0 0.85491058998398861 0.060047533455626502 0 0.94399509803922566 0.056004901960802607 0 0.95386563387744361 0.1041487415577465 0 0.90299850604006393 0.09563452813493091 0 0.94399509803922566 0.056004901960802607 0 0.90299850604006393 0.09563452813493091 0 0.899991664607802 0.045289349238254978 0 0.94999999999986839 0 0 0.94399509803922566 0.056004901960802607 0 0.899991664607802 0.045289349238254978 0 0.899991664607802 0.045289349238254978 0 0.89999999999973679 0 0 0.84999999999960507 0 0 0.94999999999986839 0 0 0.899991664607802 0.045289349238254978 0 0.89999999999973679 0 0 0.84999999999960507 0 0 0.81864958914740749 0.035890501779055867 0 0.79999999999947335 0 0 0.899991664607802 0.045289349238254978 0 0.84999999999960507 0 0 0.85491058998398861 0.060047533455626502 0 0.85491058998398861 0.060047533455626502 0 0.81864958914740749 0.035890501779055867 0 0.80185942888501827 0.074520613036224564 0 0.84999999999960507 0 0 0.85491058998398861 0.060047533455626502 0 0.81864958914740749 0.035890501779055867 0 0.85491058998398861 0.060047533455626502 0 0.84725310900442086 0.10779732082922661 0 0.80185942888501827 0.074520613036224564 0 0.90299850604006393 0.09563452813493091 0 0.85491058998398861 0.060047533455626502 0 0.84725310900442086 0.10779732082922661 0 0.84725310900442086 0.10779732082922661 0 0.80076557130237269 0.1154587552654202 0 0.80185942888501827 0.074520613036224564 0 0.84725310900442086 0.10779732082922661 0 0.80076557130237269 0.1154587552654202 0 0.82709327591102189 0.14937141670914489 0 0.80076557130237269 0.1154587552654202 0 0.76878382444651716 0.097147941686331368 0 0.80185942888501827 0.074520613036224564 0 0.76878382444651716 0.097147941686331368 0 0.77144070960558853 0.14311854477243749 0 0.72525833953073282 0.1032114801687094 0 0.80076557130237269 0.1154587552654202 0 0.76878382444651716 0.097147941686331368 0 0.77144070960558853 0.14311854477243749 0 0.76878382444651716 0.097147941686331368 0 0.80185942888501827 0.074520613036224564 0 0.7527966693318906 0.053051678021508272 0 0.81864958914740749 0.035890501779055867 0 0.80185942888501827 0.074520613036224564 0 0.78393852574753176 0.032039079577822822 0 0.80185942888501827 0.074520613036224564 0 0.78393852574753176 0.032039079577822822 0 0.7527966693318906 0.053051678021508272 0 0.78393852574753176 0.032039079577822822 0 0.7527966693318906 0.053051678021508272 0 0.74999999999934175 0 0 0.78393852574753176 0.032039079577822822 0 0.79999999999947335 0 0 0.74999999999934175 0 0 0.81864958914740749 0.035890501779055867 0 0.78393852574753176 0.032039079577822822 0 0.79999999999947335 0 0 0.81283102246527783 0.1881007222486438 0 0.8517097391133297 0.2356960729520409 0 0.79680861578956375 0.22656778056752541 0 0.81283102246527783 0.1881007222486438 0 0.8517097391133297 0.2356960729520409 0 0.85600844944842547 0.1848341897950983 0 0.81486180804364938 0.26321394949780091 0 0.8517097391133297 0.2356960729520409 0 0.79680861578956375 0.22656778056752541 0 0.90416666666668166 0.20416666666667119 0 0.8517097391133297 0.2356960729520409 0 0.85600844944842547 0.1848341897950983 0 0.88088768115941807 0.14674609810479519 0 0.85600844944842547 0.1848341897950983 0 0.82709327591102189 0.14937141670914489 0 0.88088768115941807 0.14674609810479519 0 0.84725310900442086 0.10779732082922661 0 0.82709327591102189 0.14937141670914489 0 0.81283102246527783 0.1881007222486438 0 0.85600844944842547 0.1848341897950983 0 0.82709327591102189 0.14937141670914489 0 0.81283102246527783 0.1881007222486438 0 0.77144070960558853 0.14311854477243749 0 0.76587607630038135 0.18880039518954719 0 0.81283102246527783 0.1881007222486438 0 0.82709327591102189 0.14937141670914489 0 0.77144070960558853 0.14311854477243749 0 0.80076557130237269 0.1154587552654202 0 0.82709327591102189 0.14937141670914489 0 0.77144070960558853 0.14311854477243749 0 0.77144070960558853 0.14311854477243749 0 0.76587607630038135 0.18880039518954719 0 0.72634814642510737 0.16106886917518889 0 0.76587607630038135 0.18880039518954719 0 0.79680861578956375 0.22656778056752541 0 0.75668890529066124 0.2244279804069782 0 0.81283102246527783 0.1881007222486438 0 0.76587607630038135 0.18880039518954719 0 0.79680861578956375 0.22656778056752541 0 0.77075983436335049 0.25919399014334171 0 0.81486180804364938 0.26321394949780091 0 0.79680861578956375 0.22656778056752541 0 0.77075983436335049 0.25919399014334171 0 0.79680861578956375 0.22656778056752541 0 0.75668890529066124 0.2244279804069782 0 0.77075983436335049 0.25919399014334171 0 0.75668890529066124 0.2244279804069782 0 0.72500000000000064 0.2498161764706 0 0.75668890529066124 0.2244279804069782 0 0.72500000000000064 0.2498161764706 0 0.72500000000001008 0.19776155966387679 0 0.72500000000000064 0.2498161764706 0 0.69397719155551807 0.2245125647000914 0 0.72500000000001008 0.19776155966387679 0 0.72500000000000064 0.2498161764706 0 0.69397719155551807 0.2245125647000914 0 0.67933712972090698 0.25920070958121938 0 0.69397719155551807 0.2245125647000914 0 0.72500000000001008 0.19776155966387679 0 0.6865991819015953 0.189116534044597 0 0.76587607630038135 0.18880039518954719 0 0.75668890529066124 0.2244279804069782 0 0.72500000000001008 0.19776155966387679 0 0.76587607630038135 0.18880039518954719 0 0.72500000000001008 0.19776155966387679 0 0.72634814642510737 0.16106886917518889 0 0.77144070960558853 0.14311854477243749 0 0.72634814642510737 0.16106886917518889 0 0.72525833953073282 0.1032114801687094 0 0.72634814642510737 0.16106886917518889 0 0.68391457121233579 0.14440470121196541 0 0.72525833953073282 0.1032114801687094 0 0.72500000000001008 0.19776155966387679 0 0.72634814642510737 0.16106886917518889 0 0.6865991819015953 0.189116534044597 0 0.72634814642510737 0.16106886917518889 0 0.68391457121233579 0.14440470121196541 0 0.6865991819015953 0.189116534044597 0 0.68391457121233579 0.14440470121196541 0 0.64011864159029941 0.18789607982138171 0 0.6865991819015953 0.189116534044597 0 0.68391457121233579 0.14440470121196541 0 0.65290632656860115 0.11434202593454081 0 0.6236733212988993 0.14864538214901801 0 0.68391457121233579 0.14440470121196541 0 0.64011864159029941 0.18789607982138171 0 0.6236733212988993 0.14864538214901801 0 0.64011864159029941 0.18789607982138171 0 0.65394964615507722 0.22666784374016369 0 0.59814117807200873 0.23398510860739519 0 0.65394964615507722 0.22666784374016369 0 0.59814117807200873 0.23398510860739519 0 0.62657463266645097 0.26524202571255862 0 0.69397719155551807 0.2245125647000914 0 0.65394964615507722 0.22666784374016369 0 0.67933712972090698 0.25920070958121938 0 0.64011864159029941 0.18789607982138171 0 0.65394964615507722 0.22666784374016369 0 0.6865991819015953 0.189116534044597 0 0.69397719155551807 0.2245125647000914 0 0.65394964615507722 0.22666784374016369 0 0.6865991819015953 0.189116534044597 0 0.69999999999921003 0 0 0.72683645290270404 0.027797073151180601 0 0.7010294155333181 0.056779085686491267 0 0.69999999999921003 0 0 0.7010294155333181 0.056779085686491267 0 0.66369801598854572 0.036327466368102787 0 0.7527966693318906 0.053051678021508272 0 0.74999999999934175 0 0 0.72683645290270404 0.027797073151180601 0 0.69999999999921003 0 0 0.74999999999934175 0 0 0.72683645290270404 0.027797073151180601 0 0.7527966693318906 0.053051678021508272 0 0.72683645290270404 0.027797073151180601 0 0.7010294155333181 0.056779085686491267 0 0.7010294155333181 0.056779085686491267 0 0.72525833953073282 0.1032114801687094 0 0.68330259535470161 0.10038702501083881 0 0.7527966693318906 0.053051678021508272 0 0.7010294155333181 0.056779085686491267 0 0.72525833953073282 0.1032114801687094 0 0.76878382444651716 0.097147941686331368 0 0.7527966693318906 0.053051678021508272 0 0.72525833953073282 0.1032114801687094 0 0.68391457121233579 0.14440470121196541 0 0.72525833953073282 0.1032114801687094 0 0.68330259535470161 0.10038702501083881 0 0.68330259535470161 0.10038702501083881 0 0.65290632656860115 0.11434202593454081 0 0.65408113592120842 0.073941773121567966 0 0.68391457121233579 0.14440470121196541 0 0.68330259535470161 0.10038702501083881 0 0.65290632656860115 0.11434202593454081 0 0.65290632656860115 0.11434202593454081 0 0.61956000905586006 0.1043312481793135 0 0.6236733212988993 0.14864538214901801 0 0.65290632656860115 0.11434202593454081 0 0.65408113592120842 0.073941773121567966 0 0.61956000905586006 0.1043312481793135 0 0.65408113592120842 0.073941773121567966 0 0.61940220174112337 0.047251958781050582 0 0.61956000905586006 0.1043312481793135 0 0.7010294155333181 0.056779085686491267 0 0.68330259535470161 0.10038702501083881 0 0.65408113592120842 0.073941773121567966 0 0.7010294155333181 0.056779085686491267 0 0.65408113592120842 0.073941773121567966 0 0.66369801598854572 0.036327466368102787 0 0.65408113592120842 0.073941773121567966 0 0.66369801598854572 0.036327466368102787 0 0.61940220174112337 0.047251958781050582 0 0.66369801598854572 0.036327466368102787 0 0.64999999999907843 0 0 0.61940220174112337 0.047251958781050582 0 0.69999999999921003 0 0 0.66369801598854572 0.036327466368102787 0 0.64999999999907843 0 0 0.59999999999894682 0 0 0.57396793757665954 0.037011367187645222 0 0.5499999999988151 0 0 0.64999999999907843 0 0 0.59999999999894682 0 0 0.61940220174112337 0.047251958781050582 0 0.59999999999894682 0 0 0.61940220174112337 0.047251958781050582 0 0.57396793757665954 0.037011367187645222 0 0.61940220174112337 0.047251958781050582 0 0.57396793757665954 0.037011367187645222 0 0.57667858002728545 0.078486105337742612 0 0.61940220174112337 0.047251958781050582 0 0.57667858002728545 0.078486105337742612 0 0.61956000905586006 0.1043312481793135 0 0.61956000905586006 0.1043312481793135 0 0.58516465772821369 0.11653801664834119 0 0.6236733212988993 0.14864538214901801 0 0.57667858002728545 0.078486105337742612 0 0.61956000905586006 0.1043312481793135 0 0.58516465772821369 0.11653801664834119 0 0.58516465772821369 0.11653801664834119 0 0.54979595918804436 0.1060565713905809 0 0.56202748619534593 0.15054058349222879 0 0.57667858002728545 0.078486105337742612 0 0.58516465772821369 0.11653801664834119 0 0.54979595918804436 0.1060565713905809 0 0.54979595918804436 0.1060565713905809 0 0.51076801031701946 0.1202837388510348 0 0.52375890611712683 0.059318771819432882 0 0.47881186583059909 0.093591717165689425 0 0.51076801031701946 0.1202837388510348 0 0.52375890611712683 0.059318771819432882 0 0.57667858002728545 0.078486105337742612 0 0.54979595918804436 0.1060565713905809 0 0.52375890611712683 0.059318771819432882 0 0.57396793757665954 0.037011367187645222 0 0.52375890611712683 0.059318771819432882 0 0.5499999999988151 0 0 0.57396793757665954 0.037011367187645222 0 0.57667858002728545 0.078486105337742612 0 0.52375890611712683 0.059318771819432882 0 0.49999999999869432 0 0 0.52375890611712683 0.059318771819432882 0 0.5499999999988151 0 0 0.59814117807200873 0.23398510860739519 0 0.59443395090188023 0.18455690917515069 0 0.55306006949600994 0.20198184231352201 0 0.59814117807200873 0.23398510860739519 0 0.55306006949600994 0.20198184231352201 0 0.54248833945060504 0.2520322959927106 0 0.64011864159029941 0.18789607982138171 0 0.59814117807200873 0.23398510860739519 0 0.59443395090188023 0.18455690917515069 0 0.64011864159029941 0.18789607982138171 0 0.59443395090188023 0.18455690917515069 0 0.6236733212988993 0.14864538214901801 0 0.58516465772821369 0.11653801664834119 0 0.6236733212988993 0.14864538214901801 0 0.56202748619534593 0.15054058349222879 0 0.59443395090188023 0.18455690917515069 0 0.6236733212988993 0.14864538214901801 0 0.56202748619534593 0.15054058349222879 0 0.59443395090188023 0.18455690917515069 0 0.56202748619534593 0.15054058349222879 0 0.55306006949600994 0.20198184231352201 0 0.56202748619534593 0.15054058349222879 0 0.51729576145820033 0.1683240575987815 0 0.55306006949600994 0.20198184231352201 0 0.54979595918804436 0.1060565713905809 0 0.51076801031701946 0.1202837388510348 0 0.56202748619534593 0.15054058349222879 0 0.48466639505193998 0.1421439844745814 0 0.51076801031701946 0.1202837388510348 0 0.51729576145820033 0.1683240575987815 0 0.51076801031701946 0.1202837388510348 0 0.56202748619534593 0.15054058349222879 0 0.51729576145820033 0.1683240575987815 0 0.51729576145820033 0.1683240575987815 0 0.50760557329222289 0.20700468884612061 0 0.55306006949600994 0.20198184231352201 0 0.50760557329222289 0.20700468884612061 0 0.55306006949600994 0.20198184231352201 0 0.54248833945060504 0.2520322959927106 0 0.49695729691142171 0.25014895411178018 0 0.50760557329222289 0.20700468884612061 0 0.54248833945060504 0.2520322959927106 0 0.49695729691142171 0.25014895411178018 0 0.5 0.29999999999999999 0 0.54248833945060504 0.2520322959927106 0 0.5 0.29999999999999999 0 0.54999999999999993 0.29999999999999999 0 0.52752007115234678 0.33170632466418198 0 0.5 0.29999999999999999 0 0.54999999999999993 0.29999999999999999 0 0.54248833945060504 0.2520322959927106 0 0.5 0.29999999999999999 0 0.54999999999999993 0.29999999999999999 0 0.54999999999999993 0.29999999999999999 0 0.54248833945060504 0.2520322959927106 0 0.5794309697024993 0.27124795968204829 0 0.59814117807200873 0.23398510860739519 0 0.54248833945060504 0.2520322959927106 0 0.5794309697024993 0.27124795968204829 0 0.54999999999999993 0.29999999999999999 0 0.59999999999999976 0.29999999999999999 0 0.54999999999999993 0.29999999999999999 0 0.5794309697024993 0.27124795968204829 0 0.59999999999999976 0.29999999999999999 0 0.59999999999999976 0.29999999999999999 0 0.6499999999999998 0.29999999999999999 0 0.5794309697024993 0.27124795968204829 0 0.59999999999999976 0.29999999999999999 0 0.62657463266645097 0.26524202571255862 0 0.59814117807200873 0.23398510860739519 0 0.5794309697024993 0.27124795968204829 0 0.62657463266645097 0.26524202571255862 0 0.61959173890754571 0.33832250091341232 0 0.56836770495988642 0.3523062350852913 0 0.6084546825910605 0.37989672713932537 0 0.59999999999999976 0.29999999999999999 0 0.61959173890754571 0.33832250091341232 0 0.6499999999999998 0.29999999999999999 0 0.59999999999999976 0.29999999999999999 0 0.61959173890754571 0.33832250091341232 0 0.56836770495988642 0.3523062350852913 0 0.54999999999999993 0.29999999999999999 0 0.59999999999999976 0.29999999999999999 0 0.56836770495988642 0.3523062350852913 0 0.56836770495988642 0.3523062350852913 0 0.52752007115234678 0.33170632466418198 0 0.52289427570932567 0.3932284363388488 0 0.54999999999999993 0.29999999999999999 0 0.56836770495988642 0.3523062350852913 0 0.52752007115234678 0.33170632466418198 0 0.49077833859261139 0.35229981449445641 0 0.5 0.29999999999999999 0 0.52752007115234678 0.33170632466418198 0 0.49077833859261139 0.35229981449445641 0 0.52752007115234678 0.33170632466418198 0 0.52289427570932567 0.3932284363388488 0 0.56836770495988642 0.3523062350852913 0 0.52289427570932567 0.3932284363388488 0 0.57744073070774993 0.41535148636609359 0 0.52289427570932567 0.3932284363388488 0 0.53823865529665704 0.45873898050322898 0 0.57744073070774993 0.41535148636609359 0 0.48858720058566618 0.43964267759203868 0 0.52289427570932567 0.3932284363388488 0 0.53823865529665704 0.45873898050322898 0 0.49102375406324739 0.49123754822244059 0 0.53330375813596242 0.50827942741749099 0 0.53823865529665704 0.45873898050322898 0 0.49102375406324739 0.49123754822244059 0 0.48858720058566618 0.43964267759203868 0 0.53823865529665704 0.45873898050322898 0 0.53330375813596242 0.50827942741749099 0 0.57611405284611883 0.50165903596042916 0 0.53823865529665704 0.45873898050322898 0 0.57611405284611883 0.50165903596042916 0 0.57975577671020095 0.46172033326338591 0 0.61547661924074692 0.48539576058873962 0 0.57611405284611883 0.50165903596042916 0 0.53823865529665704 0.45873898050322898 0 0.57975577671020095 0.46172033326338591 0 0.57975577671020095 0.46172033326338591 0 0.61209567303293111 0.44669033081290321 0 0.57744073070774993 0.41535148636609359 0 0.53823865529665704 0.45873898050322898 0 0.57975577671020095 0.46172033326338591 0 0.57744073070774993 0.41535148636609359 0 0.57975577671020095 0.46172033326338591 0 0.61209567303293111 0.44669033081290321 0 0.61547661924074692 0.48539576058873962 0 0.56836770495988642 0.3523062350852913 0 0.57744073070774993 0.41535148636609359 0 0.6084546825910605 0.37989672713932537 0 0.61209567303293111 0.44669033081290321 0 0.57744073070774993 0.41535148636609359 0 0.63912439215427275 0.41063340167983359 0 0.57744073070774993 0.41535148636609359 0 0.6084546825910605 0.37989672713932537 0 0.63912439215427275 0.41063340167983359 0 0.6084546825910605 0.37989672713932537 0 0.63912439215427275 0.41063340167983359 0 0.65481233915350323 0.35652751921065562 0 0.63912439215427275 0.41063340167983359 0 0.65178832218679827 0.45929119821019959 0 0.6879972333610942 0.43038561374960838 0 0.63912439215427275 0.41063340167983359 0 0.68128176404677243 0.38629093627004979 0 0.6879972333610942 0.43038561374960838 0 0.63912439215427275 0.41063340167983359 0 0.68128176404677243 0.38629093627004979 0 0.65481233915350323 0.35652751921065562 0 0.61547661924074692 0.48539576058873962 0 0.6541250972820879 0.49999999999999989 0 0.65178832218679827 0.45929119821019959 0 0.61209567303293111 0.44669033081290321 0 0.61547661924074692 0.48539576058873962 0 0.65178832218679827 0.45929119821019959 0 0.61209567303293111 0.44669033081290321 0 0.63912439215427275 0.41063340167983359 0 0.65178832218679827 0.45929119821019959 0 0.65178832218679827 0.45929119821019959 0 0.69385896817107129 0.48377516041410151 0 0.6879972333610942 0.43038561374960838 0 0.6541250972820879 0.49999999999999989 0 0.65178832218679827 0.45929119821019959 0 0.69385896817107129 0.48377516041410151 0 0.7152569930854884 0.5237994455134295 0 0.69385896817107129 0.48377516041410151 0 0.73947346780852752 0.49062440112282169 0 0.69385896817107129 0.48377516041410151 0 0.73483647259922602 0.44789725365921768 0 0.6879972333610942 0.43038561374960838 0 0.69385896817107129 0.48377516041410151 0 0.73483647259922602 0.44789725365921768 0 0.73947346780852752 0.49062440112282169 0 0.68128176404677243 0.38629093627004979 0 0.72622533758026719 0.40265885511101601 0 0.71508799138962864 0.36622814920737751 0 0.73483647259922602 0.44789725365921768 0 0.6879972333610942 0.43038561374960838 0 0.72622533758026719 0.40265885511101601 0 0.68128176404677243 0.38629093627004979 0 0.6879972333610942 0.43038561374960838 0 0.72622533758026719 0.40265885511101601 0 0.77354604466818633 0.40378688774472771 0 0.73483647259922602 0.44789725365921768 0 0.72622533758026719 0.40265885511101601 0 0.72622533758026719 0.40265885511101601 0 0.74764719760526988 0.3719647154012321 0 0.71508799138962864 0.36622814920737751 0 0.77354604466818633 0.40378688774472771 0 0.72622533758026719 0.40265885511101601 0 0.74764719760526988 0.3719647154012321 0 0.74764719760526988 0.3719647154012321 0 0.71508799138962864 0.36622814920737751 0 0.73090396928863699 0.33699297293167962 0 0.71508799138962864 0.36622814920737751 0 0.68887083591306764 0.33632058575757479 0 0.73090396928863699 0.33699297293167962 0 0.68128176404677243 0.38629093627004979 0 0.71508799138962864 0.36622814920737751 0 0.68887083591306764 0.33632058575757479 0 0.68887083591306764 0.33632058575757479 0 0.73090396928863699 0.33699297293167962 0 0.69999999999999984 0.29999999999999999 0 0.72500000000000064 0.2498161764706 0 0.74999999999999989 0.29999999999999999 0 0.69999999999999984 0.29999999999999999 0 0.74999999999999989 0.29999999999999999 0 0.69999999999999984 0.29999999999999999 0 0.73090396928863699 0.33699297293167962 0 0.74999999999999989 0.29999999999999999 0 0.69999999999999984 0.29999999999999999 0 0.77075983436335049 0.25919399014334171 0 0.72500000000000064 0.2498161764706 0 0.74999999999999989 0.29999999999999999 0 0.72500000000000064 0.2498161764706 0 0.69999999999999984 0.29999999999999999 0 0.67933712972090698 0.25920070958121938 0 0.69999999999999984 0.29999999999999999 0 0.67933712972090698 0.25920070958121938 0 0.6499999999999998 0.29999999999999999 0 0.68887083591306764 0.33632058575757479 0 0.69999999999999984 0.29999999999999999 0 0.6499999999999998 0.29999999999999999 0 0.69999999999999984 0.29999999999999999 0 0.6499999999999998 0.29999999999999999 0 0.67933712972090698 0.25920070958121938 0 0.62657463266645097 0.26524202571255862 0 0.6499999999999998 0.29999999999999999 0 0.65394964615507722 0.22666784374016369 0 0.67933712972090698 0.25920070958121938 0 0.62657463266645097 0.26524202571255862 0 0.59999999999999976 0.29999999999999999 0 0.62657463266645097 0.26524202571255862 0 0.6499999999999998 0.29999999999999999 0 0.61959173890754571 0.33832250091341232 0 0.6499999999999998 0.29999999999999999 0 0.65481233915350323 0.35652751921065562 0 0.61959173890754571 0.33832250091341232 0 0.6084546825910605 0.37989672713932537 0 0.65481233915350323 0.35652751921065562 0 0.68128176404677243 0.38629093627004979 0 0.68887083591306764 0.33632058575757479 0 0.65481233915350323 0.35652751921065562 0 0.68887083591306764 0.33632058575757479 0 0.6499999999999998 0.29999999999999999 0 0.65481233915350323 0.35652751921065562 0 
</DataArray>
</Points>
<Cells>
<DataArray type="UInt32" Name="connectivity" format="ascii">
0 1 2 3 4 5 6 7 8 9 10 11 12 13 14 15 16 17 18 19 20 21 22 23 24 25 26 27 28 29 30 31 32 33 34 35 36 37 38 39 40 41 42 43 44 45 46 47 48 49 50 51 52 53 54 55 56 57 58 59 60 61 62 63 64 65 66 67 68 69 70 71 72 73 74 75 76 77 78 79 80 81 82 83 84 85 86 87 88 89 90 91 92 93 94 95 96 97 98 99 100 101 102 103 104 105 106 107 108 109 110 111 112 113 114 115 116 117 118 119 120 121 122 123 124 125 126 127 128 129 130 131 132 133 134 135 136 137 138 139 140 141 142 143 144 145 146 147 148 149 150 151 152 153 154 155 156 157 158 159 160 161 162 163 164 165 166 167 168 169 170 171 172 173 174 175 176 177 178 179 180 181 182 183 184 185 186 187 188 189 190 191 192 193 194 195 196 197 198 199 200 201 202 203 204 205 206 207 208 209 210 211 212 213 214 215 216 217 218 219 220 221 222 223 224 225 226 227 228 229 230 231 232 233 234 235 236 237 238 239 240 241 242 243 244 245 246 247 248 249 250 251 252 253 254 255 256 257 258 259 260 261 262 263 264 265 266 267 268 269 270 271 272 273 274 275 276 277 278 279 280 281 282 283 284 285 286 287 288 289 290 291 292 293 294 295 296 297 298 299 300 301 302 303 304 305 306 307 308 309 310 311 312 313 314 315 316 317 318 319 320 321 322 323 324 325 326 327 328 329 330 331 332 333 334 335 336 337 338 339 340 341 342 343 344 345 346 347 348 349 350 351 352 353 354 355 356 357 358 359 360 361 362 363 364 365 366 367 368 369 370 371 372 373 374 375 376 377 378 379 380 381 382 383 384 385 386 387 388 389 390 391 392 393 394 395 396 397 398 399 400 401 402 403 404 405 406 407 408 409 410 411 412 413 414 415 416 417 418 419 420 421 422 423 424 425 426 427 428 429 430 431 432 433 434 435 436 437 438 439 440 441 442 443 444 445 446 447 448 449 450 451 452 453 454 455 456 457 458 459 460 461 462 463 464 465 466 467 468 469 470 471 472 473 474 475 476 477 478 479 480 481 482 483 484 485 486 487 488 489 490 491 492 493 494 495 496 497 498 499 500 501 502 503 504 505 506 507 508 509 510 511 512 513 514 515 516 517 518 519 520 521 522 523 524 525 526 527 528 529 530 531 532 533 534 535 536 537 538 539 540 541 542 543 544 545 546 547 548 549 550 551 552 553 554 555 556 557 558 559 560 561 562 563 564 565 566 567 568 569 570 571 572 573 574 575 576 577 578 579 580 581 582 583 584 585 586 587 588 589 590 591 592 593 594 595 596 597 598 599 600 601 602 603 604 605 606 607 608 609 610 611 612 613 614 615 616 617 618 619 620 621 622 623 624 625 626 627 628 629 630 631 632 633 634 635 636 637 638 639 640 641 642 643 644 645 646 647 648 649 650 651 652 653 654 655 656 657 658 659 660 661 662 663 664 665 666 667 668 669 670 671 672 673 674 675 676 677 678 679 680 681 682 683 684 685 686 687 688 689 690 691 692 693 694 695 696 697 698 699 700 701 702 703 704 705 706 707 708 709 710 711 712 713 714 715 716 717 718 719 720 721 722 723 724 725 726 727 728 729 730 731 732 733 734 735 736 737 738 739 740 741 742 743 744 745 746 747 748 749 750 751 752 753 754 755 756 757 758 759 760 761 762 763 764 765 766 767 768 769 770 771 772 773 774 775 776 777 778 779 780 781 782 783 784 785 786 787 788 789 790 791 792 793 794 795 796 797 798 799 800 801 802 803 804 805 806 807 808 809 810 811 812 813 814 815 816 817 818 819 820 821 822 823 824 825 826 827 828 829 830 831 832 833 834 835 836 837 838 839 840 841 842 843 844 845 846 847 848 849 850 851 852 853 854 855 856 857 858 859 860 861 862 863 864 865 866 867 868 869 870 871 872 873 874 875 876 877 878 879 880 881 882 883 884 885 886 887 888 889 890 891 892 893 894 895 896 897 898 899 900 901 902 903 904 905 906 907 908 909 910 911 912 913 914 915 916 917 918 919 920 921 922 923 924 925 926 927 928 929 930 931 932 933 934 935 936 937 938 939 940 941 942 943 944 945 946 947 948 949 950 951 952 953 954 955 956 957 958 959 960 961 962 963 964 965 966 967 968 969 970 971 972 973 974 975 976 977 978 979 980 981 982 983 984 985 986 987 988 989 990 991 992 993 994 995 996 997 998 999 1000 1001 1002 1003 1004 1005 1006 1007 1008 1009 1010 1011 1012 1013 1014 1015 1016 1017 1018 1019 1020 1021 1022 1023 1024 1025 1026 1027 1028 1029 1030 1031 1032 1033 1034 1035 1036 1037 1038 1039 1040 1041 1042 1043 1044 1045 1046 1047 1048 1049 1050 1051 1052 1053 1054 1055 1056 1057 1058 1059 1060 1061 1062 1063 1064 1065 1066 1067 1068 1069 1070 1071 1072 1073 1074 1075 1076 1077 1078 1079 1080 1081 1082 1083 1084 1085 1086 1087 1088 1089 1090 1091 1092 1093 1094 1095 1096 1097 1098 1099 1100 1101 1102 1103 1104 1105 1106 1107 1108 1109 1110 1111 1112 1113 1114 1115 1116 1117 1118 1119 1120 1121 1122 1123 1124 1125 1126 1127 1128 1129 1130 1131 1132 1133 1134 1135 1136 1137 1138 1139 1140 1141 1142 1143 1144 1145 1146 1147 1148 1149 1150 1151 1152 1153 1154 1155 1156 1157 1158 1159 1160 1161 1162 1163 1164 1165 1166 1167 1168 1169 1170 1171 1172 1173 1174 1175 1176 1177 1178 1179 1180 1181 1182 1183 1184 1185 1186 1187 1188 1189 1190 1191 1192 1193 1194 1195 1196 1197 1198 1199 1200 1201 1202 1203 1204 1205 1206 1207 1208 1209 1210 1211 1212 1213 1214 1215 1216 1217 1218 1219 1220 1221 1222 1223 1224 1225 1226 1227 1228 1229 1230 1231 1232 1233 1234 1235 1236 1237 1238 1239 1240 1241 1242 1243 1244 1245 1246 1247 1248 1249 1250 1251 1252 1253 1254 1255 1256 1257 1258 1259 1260 1261 1262 1263 1264 1265 1266 1267 1268 1269 1270 1271 1272 1273 1274 1275 1276 1277 1278 1279 1280 1281 1282 1283 1284 1285 1286 1287 1288 1289 1290 1291 1292 1293 1294 1295 1296 1297 1298 1299 1300 1301 1302 1303 1304 1305 1306 1307 1308 1309 1310 1311 1312 1313 1314 1315 1316 1317 1318 1319 1320 1321 1322 1323 1324 1325 1326 1327 1328 1329 1330 1331 1332 1333 1334 1335 1336 1337 1338 1339 1340 1341 1342 1343 1344 1345 1346 1347 1348 1349 1350 1351 1352 1353 1354 1355 1356 1357 1358 1359 1360 1361 1362 1363 1364 1365 1366 1367 1368 1369 1370 1371 1372 1373 1374 1375 1376 1377 1378 1379 1380 1381 1382 1383 1384 1385 1386 1387 1388 1389 1390 1391 1392 1393 1394 1395 1396 1397 1398 1399 1400 1401 1402 1403 1404 1405 1406 1407 1408 1409 1410 1411 1412 1413 1414 1415 1416 1417 1418 1419 1420 1421 1422 1423 1424 1425 1426 1427 1428 1429 1430 1431 1432 1433 1434 1435 1436 1437 1438 1439 1440 1441 1442 1443 1444 1445 1446 1447 1448 1449 1450 1451 1452 1453 1454 1455 1456 1457 1458 1459 1460 1461 1462 1463 1464 1465 1466 1467 1468 1469 1470 1471 1472 1473 1474 1475 1476 1477 1478 1479 1480 1481 1482 1483 1484 1485 1486 1487 1488 1489 1490 1491 1492 1493 1494 1495 1496 1497 1498 1499 1500 1501 1502 1503 1504 1505 1506 1507 1508 1509 1510 1511 1512 1513 1514 1515 1516 1517 1518 1519 1520 1521 1522 1523 1524 1525 1526 1527 1528 1529 1530 1531 1532 1533 1534 1535 1536 1537 1538 1539 1540 1541 1542 1543 1544 1545 1546 1547 1548 1549 1550 1551 1552 1553 1554 1555 1556 1557 1558 1559 1560 1561 1562 1563 1564 1565 1566 1567 1568 1569 1570 1571 1572 1573 1574 1575 1576 1577 1578 1579 1580 1581 1582 1583 1584 1585 1586 1587 1588 1589 1590 1591 1592 1593 1594 1595 1596 1597 1598 1599 1600 1601 1602 1603 1604 1605 1606 1607 1608 1609 1610 1611 1612 1613 1614 1615 1616 1617 1618 1619 1620 1621 1622 1623 1624 1625 1626 1627 1628 1629 1630 1631 1632 1633 1634 1635 1636 1637 1638 1639 1640 1641 1642 1643 1644 1645 1646 1647 1648 1649 1650 1651 1652 1653 1654 1655 1656 1657 1658 1659 1660 1661 1662 1663 1664 1665 1666 1667 1668 1669 1670 1671 1672 1673 1674 1675 1676 1677 1678 1679 1680 1681 1682 1683 1684 1685 1686 1687 1688 1689 1690 1691 1692 1693 1694 1695 1696 1697 1698 1699 1700 1701 1702 1703 1704 1705 1706 1707 1708 1709 1710 1711 1712 1713 1714 1715 1716 1717 1718 1719 1720 1721 1722 1723 1724 1725 1726 1727 1728 1729 1730 1731 1732 1733 1734 1735 1736 1737 1738 1739 1740 1741 1742 1743 1744 1745 1746 1747 1748 1749 1750 1751 1752 1753 1754 1755 1756 1757 1758 1759 1760 1761 1762 1763 1764 1765 1766 1767 1768 1769 1770 1771 1772 1773 1774 1775 1776 1777 1778 1779 1780 1781 1782 1783 1784 1785 1786 1787 1788 1789 1790 1791 1792 1793 1794 1795 1796 1797 1798 1799 1800 1801 1802 1803 1804 1805 1806 1807 1808 1809 1810 1811 1812 1813 1814 1815 1816 1817 1818 1819 1820 1821 1822 1823 1824 1825 1826 1827 1828 1829 1830 1831 1832 1833 1834 1835 1836 1837 1838 1839 1840 1841 1842 1843 1844 1845 1846 1847 1848 1849 1850 1851 1852 1853 1854 1855 1856 1857 1858 1859 1860 1861 1862 1863 1864 1865 1866 1867 1868 1869 1870 1871 1872 1873 1874 1875 1876 1877 1878 1879 1880 1881 1882 1883 1884 1885 1886 1887 1888 1889 1890 1891 1892 1893 1894 1895 1896 1897 1898 1899 1900 1901 1902 1903 1904 1905 1906 1907 1908 1909 1910 1911 1912 1913 1914 1915 1916 1917 1918 1919 1920 1921 1922 1923 1924 1925 1926 1927 1928 1929 1930 1931 1932 1933 1934 1935 1936 1937 1938 1939 1940 1941 1942 1943 1944 1945 1946 1947 1948 1949 1950 1951 1952 1953 1954 1955 1956 1957 1958 1959 1960 1961 1962 1963 1964 1965 1966 1967 1968 1969 1970 1971 1972 1973 1974 1975 1976 1977 1978 1979 1980 1981 1982 1983 1984 1985 1986 1987 1988 1989 1990 1991 1992 1993 1994 1995 1996 1997 1998 1999 2000 2001 2002 2003 2004 2005 2006 2007 2008 2009 2010 2011 2012 2013 2014 2015 2016 2017 2018 2019 2020 2021 2022 2023 2024 2025 2026 2027 2028 2029 2030 2031 2032 2033 2034 2035 2036 2037 2038 2039 2040 2041 2042 2043 2044 2045 2046 2047 2048 2049 2050 2051 2052 2053 2054 2055 2056 2057 2058 2059 2060 2061 2062 2063 2064 2065 2066 2067 2068 2069 2070 2071 2072 2073 2074 2075 2076 2077 2078 2079 2080 2081 2082 2083 2084 2085 2086 2087 2088 2089 2090 2091 2092 2093 2094 2095 2096 2097 2098 2099 2100 2101 2102 2103 2104 2105 2106 2107 2108 2109 2110 2111 2112 2113 2114 2115 2116 2117 2118 2119 2120 2121 2122 2123 2124 2125 2126 2127 2128 2129 2130 2131 2132 2133 2134 2135 2136 2137 2138 2139 2140 2141 2142 2143 2144 2145 2146 2147 2148 2149 2150 2151 2152 2153 2154 2155 2156 2157 2158 2159 2160 2161 2162 2163 2164 2165 2166 2167 2168 2169 2170 2171 2172 2173 2174 2175 2176 2177 2178 2179 2180 2181 2182 2183 2184 2185 2186 2187 2188 2189 2190 2191 2192 2193 2194 2195 2196 2197 2198 2199 2200 2201 2202 2203 2204 2205 2206 2207 2208 2209 2210 2211 2212 2213 2214 2215 2216 2217 2218 2219 2220 2221 2222 2223 2224 2225 2226 2227 2228 2229 2230 2231 2232 2233 2234 2235 2236 2237 2238 2239 2240 2241 2242 2243 2244 2245 2246 2247 2248 2249 2250 2251 2252 2253 2254 2255 2256 2257 2258 2259 2260 2261 2262 2263 2264 2265 2266 2267 2268 2269 2270 2271 2272 2273 2274 2275 2276 2277 2278 2279 2280 2281 2282 2283 2284 2285 2286 2287 2288 2289 2290 2291 2292 2293 2294 2295 2296 2297 2298 2299 2300 2301 2302 2303 2304 2305 2306 2307 2308 2309 2310 2311 2312 2313 2314 2315 2316 2317 2318 2319 2320 2321 2322 2323 2324 2325 2326 2327 2328 2329 2330 2331 2332 2333 2334 2335 2336 2337 2338 2339 2340 2341 2342 2343 2344 2345 2346 2347 2348 2349 2350 2351 2352 2353 2354 2355 2356 2357 2358 2359 2360 2361 2362 2363 2364 2365 2366 2367 2368 2369 2370 2371 2372 2373 2374 2375 2376 2377 2378 2379 2380 2381 2382 2383 2384 2385 2386 2387 2388 2389 2390 2391 2392 2393 2394 2395 2396 2397 2398 2399 2400 2401 2402 2403 2404 2405 2406 2407 2408 2409 2410 2411 2412 2413 2414 2415 2416 2417 2418 2419 2420 2421 2422 2423 2424 2425 2426 2427 2428 2429 2430 2431 2432 2433 2434 2435 2436 2437 2438 2439 2440 2441 2442 2443 2444 2445 2446 2447 2448 2449 2450 2451 2452 2453 2454 2455 2456 2457 2458 2459 2460 2461 2462 2463 2464 2465 2466 2467 2468 2469 2470 2471 2472 2473 2474 2475 2476 2477 2478 2479 2480 2481 2482 2483 2484 2485 2486 2487 2488 2489 2490 2491 2492 2493 2494 2495 2496 2497 2498 2499 2500 2501 2502 2503 2504 2505 2506 2507 2508 2509 2510 2511 2512 2513 2514 2515 2516 2517 2518 2519 2520 2521 2522 2523 2524 2525 2526 2527 2528 2529 2530 2531 2532 2533 2534 2535 2536 2537 2538 2539 2540 2541 2542 2543 2544 2545 2546 2547 2548 2549 2550 2551 2552 2553 2554 2555 2556 2557 2558 2559 2560 2561 2562 2563 2564 2565 2566 2567 2568 2569 2570 2571 2572 2573 2574 2575 2576 2577 2578 2579 2580 2581 2582 2583 2584 2585 2586 2587 2588 2589 2590 2591 2592 2593 2594 2595 2596 2597 2598 2599 2600 2601 2602 2603 2604 2605 2606 2607 2608 2609 2610 2611 2612 2613 2614 2615 2616 2617 2618 2619 2620 2621 2622 2623 2624 2625 2626 2627 2628 2629 2630 2631 2632 2633 2634 2635 2636 2637 2638 2639 2640 2641 2642 2643 2644 2645 2646 2647 2648 2649 2650 2651 2652 2653 2654 2655 2656 2657 2658 2659 2660 2661 2662 2663 2664 2665 2666 2667 2668 2669 2670 2671 2672 2673 2674 2675 2676 2677 2678 2679 2680 2681 2682 2683 2684 2685 2686 2687 2688 2689 2690 2691 2692 2693 2694 2695 2696 2697 2698 2699 2700 2701 2702 2703 2704 2705 2706 2707 2708 2709 2710 2711 2712 2713 2714 2715 2716 2717 2718 2719 2720 2721 2722 2723 2724 2725 2726 2727 2728 2729 2730 2731 2732 2733 2734 2735 2736 2737 2738 2739 2740 2741 2742 2743 2744 2745 2746 2747 2748 2749 2750 2751 2752 2753 2754 2755 2756 2757 2758 2759 2760 2761 2762 2763 2764 2765 2766 2767 2768 2769 2770 2771 2772 2773 2774 2775 2776 2777 2778 2779 2780 2781 2782 2783 2784 2785 2786 2787 2788 2789 2790 2791 2792 2793 2794 2795 2796 2797 2798 2799 2800 2801 2802 2803 2804 2805 2806 2807 2808 2809 2810 2811 2812 2813 2814 2815 2816 2817 2818 2819 2820 2821 2822 2823 2824 2825 2826 2827 2828 2829 2830 2831 2832 2833 2834 2835 2836 2837 2838 2839 2840 2841 2842 2843 2844 2845 2846 2847 2848 2849 2850 2851 2852 2853 2854 2855 2856 2857 2858 2859 2860 2861 2862 2863 2864 2865 2866 2867 2868 2869 2870 2871 2872 2873 2874 2875 2876 2877 2878 2879 2880 2881 2882 2883 2884 2885 2886 2887 2888 2889 2890 2891 2892 2893 2894 2895 2896 2897 2898 2899 2900 2901 2902 2903 2904 2905 2906 2907 2908 2909 2910 2911 2912 2913 2914 2915 2916 2917 2918 2919 2920 2921 2922 2923 2924 2925 2926 2927 2928 2929 2930 2931 2932 2933 2934 2935 2936 2937 2938 2939 2940 2941 2942 2943 2944 2945 2946 2947 2948 2949 2950 2951 2952 2953 2954 2955 2956 2957 2958 2959 2960 2961 2962 2963 2964 2965 2966 2967 2968 2969 2970 2971 2972 2973 2974 2975 2976 2977 2978 2979 2980 2981 2982 2983 2984 2985 2986 2987 2988 2989 2990 2991 2992 2993 2994 2995 2996 2997 2998 2999 3000 3001 3002 3003 3004 3005 3006 3007 3008 3009 3010 3011 3012 3013 3014 3015 3016 3017 3018 3019 3020 3021 3022 3023 3024 3025 3026 3027 3028 3029 3030 3031 3032 3033 3034 3035 3036 3037 3038 3039 3040 3041 3042 3043 3044 3045 3046 3047 3048 3049 3050 3051 3052 3053 3054 3055 3056 3057 3058 3059 3060 3061 3062 3063 3064 3065 3066 3067 3068 3069 3070 3071 3072 3073 3074 3075 3076 3077 3078 3079 3080 3081 3082 3083 3084 3085 3086 3087 3088 3089 3090 3091 3092 3093 3094 3095 3096 3097 3098 3099 3100 3101 3102 3103 3104 3105 3106 3107 3108 3109 3110 3111 3112 3113 3114 3115 3116 3117 3118 3119 3120 3121 3122 3123 3124 3125 3126 3127 3128 3129 3130 3131 3132 3133 3134 3135 3136 3137 3138 3139 3140 3141 
</DataArray>
<DataArray type="UInt32" Name="offsets" format="ascii">
3 6 9 12 15 18 21 24 27 30 33 36 39 42 45 48 51 54 57 60 63 66 69 72 75 78 81 84 87 90 93 96 99 102 105 108 111 114 117 120 123 126 129 132 135 138 141 144 147 150 153 156 159 162 165 168 171 174 177 180 183 186 189 192 195 198 201 204 207 210 213 216 219 222 225 228 231 234 237 240 243 246 249 252 255 258 261 264 267 270 273 276 279 282 285 288 291 294 297 300 303 306 309 312 315 318 321 324 327 330 333 336 339 342 345 348 351 354 357 360 363 366 369 372 375 378 381 384 387 390 393 396 399 402 405 408 411 414 417 420 423 426 429 432 435 438 441 444 447 450 453 456 459 462 465 468 471 474 477 480 483 486 489 492 495 498 501 504 507 510 513 516 519 522 525 528 531 534 537 540 543 546 549 552 555 558 561 564 567 570 573 576 579 582 585 588 591 594 597 600 603 606 609 612 615 618 621 624 627 630 633 636 639 642 645 648 651 654 657 660 663 666 669 672 675 678 681 684 687 690 693 696 699 702 705 708 711 714 717 720 723 726 729 732 735 738 741 744 747 750 753 756 759 762 765 768 771 774 777 780 783 786 789 792 795 798 801 804 807 810 813 816 819 822 825 828 831 834 837 840 843 846 849 852 855 858 861 864 867 870 873 876 879 882 885 888 891 894 897 900 903 906 909 912 915 918 921 924 927 930 933 936 939 942 945 948 951 954 957 960 963 966 969 972 975 978 981 984 987 990 993 996 999 1002 1005 1008 1011 1014 1017 1020 1023 1026 1029 1032 1035 1038 1041 1044 1047 1050 1053 1056 1059 1062 1065 1068 1071 1074 1077 1080 1083 1086 1089 1092 1095 1098 1101 1104 1107 1110 1113 1116 1119 1122 1125 1128 1131 1134 1137 1140 1143 1146 1149 1152 1155 1158 1161 1164 1167 1170 1173 1176 1179 1182 1185 1188 1191 1194 1197 1200 1203 1206 1209 1212 1215 1218 1221 1224 1227 1230 1233 1236 1239 1242 1245 1248 1251 1254 1257 1260 1263 1266 1269 1272 1275 1278 1281 1284 1287 1290 1293 1296 1299 1302 1305 1308 1311 1314 1317 1320 1323 1326 1329 1332 1335 1338 1341 1344 1347 1350 1353 1356 1359 1362 1365 1368 1371 1374 1377 1380 1383 1386 1389 1392 1395 1398 1401 1404 1407 1410 1413 1416 1419 1422 1425 1428 1431 1434 1437 1440 1443 1446 1449 1452 1455 1458 1461 1464 1467 1470 1473 1476 1479 1482 1485 1488 1491 1494 1497 1500 1503 1506 1509 1512 1515 1518 1521 1524 1527 1530 1533 1536 1539 1542 1545 1548 1551 1554 1557 1560 1563 1566 1569 1572 1575 1578 1581 1584 1587 1590 1593 1596 1599 1602 1605 1608 1611 1614 1616 1619 1622 1624 1627 1630 1632 1635 1638 1641 1644 1647 1650 1653 1656 1659 1662 1665 1668 1671 1673 1676 1679 1682 1685 1688 1690 1693 1696 1699 1702 1705 1708 1711 1714 1717 1720 1723 1726 1729 1732 1735 1738 1741 1744 1747 1750 1753 1756 1759 1762 1765 1768 1771 1774 1777 1780 1783 1786 1789 1792 1795 1798 1801 1804 1807 1810 1813 1816 1819 1822 1825 1828 1831 1834 1837 1840 1843 1846 1849 1852 1855 1858 1861 1864 1867 1870 1873 1876 1879 1882 1885 1888 1891 1894 1897 1900 1903 1906 1909 1912 1915 1918 1921 1924 1927 1930 1933 1936 1939 1942 1945 1948 1951 1954 1957 1960 1963 1966 1969 1972 1975 1978 1981 1984 1987 1990 1993 1996 1999 2002 2005 2008 2011 2014 2017 2020 2023 2026 2029 2032 2035 2038 2041 2044 2047 2050 2053 2056 2059 2062 2065 2068 2071 2074 2077 2080 2083 2086 2089 2092 2095 2098 2101 2104 2107 2110 2113 2116 2119 2122 2125 2128 2131 2134 2137 2140 2143 2146 2149 2152 2155 2158 2161 2164 2167 2170 2173 2176 2179 2182 2185 2188 2191 2194 2196 2199 2202 2205 2207 2210 2213 2215 2218 2221 2224 2227 2230 2233 2236 2239 2242 2245 2248 2250 2253 2256 2259 2262 2264 2267 2270 2273 2276 2279 2282 2285 2288 2291 2294 2297 2300 2303 2306 2309 2312 2315 2318 2321 2324 2327 2330 2333 2336 2339 2342 2345 2348 2351 2354 2357 2360 2363 2366 2369 2372 2375 2378 2381 2384 2387 2390 2393 2396 2399 2402 2405 2408 2411 2414 2417 2420 2423 2426 2429 2432 2435 2438 2440 2443 2446 2449 2452 2455 2458 2461 2464 2467 2470 2473 2476 2479 2482 2484 2487 2490 2492 2495 2497 2500 2503 2506 2509 2512 2515 2518 2521 2524 2527 2530 2533 2536 2538 2541 2544 2547 2550 2553 2556 2559 2562 2565 2568 2571 2574 2577 2580 2583 2586 2589 2592 2595 2598 2601 2604 2607 2610 2613 2616 2619 2622 2625 2628 2631 2634 2637 2640 2643 2646 2649 2652 2655 2658 2661 2664 2667 2670 2673 2676 2679 2682 2685 2688 2691 2694 2697 2700 2703 2706 2709 2712 2715 2718 2721 2724 2727 2730 2733 2736 2739 2742 2745 2748 2751 2754 2757 2760 2763 2766 2769 2772 2775 2778 2781 2784 2787 2790 2793 2796 2799 2802 2805 2808 2811 2814 2817 2820 2823 2826 2829 2832 2835 2838 2841 2844 2847 2850 2853 2856 2859 2862 2865 2868 2871 2874 2877 2880 2883 2886 2889 2892 2895 2898 2901 2904 2907 2910 2913 2916 2919 2922 2925 2928 2931 2934 2937 2940 2943 2946 2948 2951 2954 2956 2959 2961 2964 2967 2970 2973 2976 2979 2982 2985 2988 2991 2994 2997 3000 3003 3006 3009 3012 3015 3018 3021 3024 3027 3030 3033 3036 3039 3042 3045 3048 3051 3054 3057 3060 3063 3066 3069 3072 3075 3078 3081 3084 3087 3090 3093 3096 3099 3102 3104 3107 3110 3113 3116 3119 3121 3124 3127 3130 3133 3136 3139 3142 
</DataArray>
<DataArray type="UInt32" Name="types" format="ascii">
5 5 5 5 5 5 5 5 5 5 5 5 5 5 5 5 5 5 5 5 5 5 5 5 5 5 5 5 5 5 5 5 5 5 5 5 5 5 5 5 5 5 5 5 5 5 5 5 5 5 5 5 5 5 5 5 5 5 5 5 5 5 5 5 5 5 5 5 5 5 5 5 5 5 5 5 5 5 5 5 5 5 5 5 5 5 5 5 5 5 5 5 5 5 5 5 5 5 5 5 5 5 5 5 5 5 5 5 5 5 5 5 5 5 5 5 5 5 5 5 5 5 5 5 5 5 5 5 5 5 5 5 5 5 5 5 5 5 5 5 5 5 5 5 5 5 5 5 5 5 5 5 5 5 5 5 5 5 5 5 5 5 5 5 5 5 5 5 5 5 5 5 5 5 5 5 5 5 5 5 5 5 5 5 5 5 5 5 5 5 5 5 5 5 5 5 5 5 5 5 5 5 5 5 5 5 5 5 5 5 5 5 5 5 5 5 5 5 5 5 5 5 5 5 5 5 5 5 5 5 5 5 5 5 5 5 5 5 5 5 5 5 5 5 5 5 5 5 5 5 5 5 5 5 5 5 5 5 5 5 5 5 5 5 5 5 5 5 5 5 5 5 5 5 5 5 5 5 5 5 5 5 5 5 5 5 5 5 5 5 5 5 5 5 5 5 5 5 5 5 5 5 5 5 5 5 5 5 5 5 5 5 5 5 5 5 5 5 5 5 5 5 5 5 5 5 5 5 5 5 5 5 5 5 5 5 5 5 5 5 5 5 5 5 5 5 5 5 5 5 5 5 5 5 5 5 5 5 5 5 5 5 5 5 5 5 5 5 5 5 5 5 5 5 5 5 5 5 5 5 5 5 5 5 5 5 5 5 5 5 5 5 5 5 5 5 5 5 5 5 5 5 5 5 5 5 5 5 5 5 5 5 5 5 5 5 5 5 5 5 5 5 5 5 5 5 5 5 5 5 5 5 5 5 5 5 5 5 5 5 5 5 5 5 5 5 5 5 5 5 5 5 5 5 5 5 5 5 5 5 5 5 5 5 5 5 5 5 5 5 5 5 5 5 5 5 5 5 5 5 5 5 5 5 5 5 5 5 5 5 5 5 5 5 5 5 5 5 5 5 5 5 5 5 5 5 5 5 5 5 5 5 5 5 5 5 5 5 5 5 5 5 5 5 5 5 5 5 5 5 5 5 5 5 5 5 5 5 3 5 5 3 5 5 3 5 5 5 5 5 5 5 5 5 5 5 5 5 3 5 5 5 5 5 3 5 5 5 5 5 5 5 5 5 5 5 5 5 5 5 5 5 5 5 5 5 5 5 5 5 5 5 5 5 5 5 5 5 5 5 5 5 5 5 5 5 5 5 5 5 5 5 5 5 5 5 5 5 5 5 5 5 5 5 5 5 5 5 5 5 5 5 5 5 5 5 5 5 5 5 5 5 5 5 5 5 5 5 5 5 5 5 5 5 5 5 5 5 5 5 5 5 5 5 5 5 5 5 5 5 5 5 5 5 5 5 5 5 5 5 5 5 5 5 5 5 5 5 5 5 5 5 5 5 5 5 5 5 5 5 5 5 5 5 5 5 5 5 5 5 5 5 5 5 5 5 5 5 5 5 5 5 5 5 5 5 5 5 5 5 5 5 5 3 5 5 5 3 5 5 3 5 5 5 5 5 5 5 5 5 5 5 3 5 5 5 5 3 5 5 5 5 5 5 5 5 5 5 5 5 5 5 5 5 5 5 5 5 5 5 5 5 5 5 5 5 5 5 5 5 5 5 5 5 5 5 5 5 5 5 5 5 5 5 5 5 5 5 5 5 5 5 5 5 5 5 3 5 5 5 5 5 5 5 5 5 5 5 5 5 5 3 5 5 3 5 3 5 5 5 5 5 5 5 5 5 5 5 5 5 3 5 5 5 5 5 5 5 5 5 5 5 5 5 5 5 5 5 5 5 5 5 5 5 5 5 5 5 5 5 5 5 5 5 5 5 5 5 5 5 5 5 5 5 5 5 5 5 5 5 5 5 5 5 5 5 5 5 5 5 5 5 5 5 5 5 5 5 5 5 5 5 5 5 5 5 5 5 5 5 5 5 5 5 5 5 5 5 5 5 5 5 5 5 5 5 5 5 5 5 5 5 5 5 5 5 5 5 5 5 5 5 5 5 5 5 5 5 5 5 5 5 5 5 5 5 5 5 5 5 5 5 5 5 5 5 5 3 5 5 3 5 3 5 5 5 5 5 5 5 5 5 5 5 5 5 5 5 5 5 5 5 5 5 5 5 5 5 5 5 5 5 5 5 5 5 5 5 5 5 5 5 5 5 5 5 5 5 5 5 3 5 5 5 5 5 3 5 5 5 5 5 5 5 
</DataArray>
</Cells>
<PointData Scalars="" Vectors="displacement," Tensors="">
<DataArray type="Float64" Name="displacement" NumberOfComponents="3" format="ascii">
-0.00016372398242516577 -0.00033688775817627812 0 -4.0985026131721175e-07 -1.0026253262314349e-06 0 -3.3737900221832154e-08 -5.6071004363107755e-07 0 -0.00016372398242516577 -0.00033688775817627812 0 -4.0985026131721175e-07 -1.0026253262314349e-06 0 -0.00051079393210749411 -0.00085101918725838301 0 -0.00016372398242516577 -0.00033688775817627812 0 -3.3737900221832154e-08 -5.6071004363107755e-07 0 -0.00025733690065350527 -0.00059995702060508646 0 -0.00016372398242516577 -0.00033688775817627812 0 -0.00025733690065350527 -0.00059995702060508646 0 -0.00051079393210749411 -0.00085101918725838301 0 -0.00051079393210749411 -0.00085101918725838301 0 -0.00078381745384587475 -0.001576683118132327 0 -0.0005865248893412165 -0.0014012773365664668 0 -0.00078381745384587475 -0.001576683118132327 0 -0.0005865248893412165 -0.0014012773365664668 0 -0.00099913589897397529 -0.0022835147103390527 0 -0.00025733690065350527 -0.00059995702060508646 0 -0.0005865248893412165 -0.0014012773365664668 0 -0.00037089524789444064 -0.0011074066145006886 0 -0.00025733690065350527 -0.00059995702060508646 0 -0.00051079393210749411 -0.00085101918725838301 0 -0.0005865248893412165 -0.0014012773365664668 0 -0.0005865248893412165 -0.0014012773365664668 0 -0.00037089524789444064 -0.0011074066145006886 0 -0.00067513169904414444 -0.0019288401424768073 0 -0.00037089524789444064 -0.0011074066145006886 0 -0.00067513169904414444 -0.0019288401424768073 0 -0.00045314872481180368 -0.0015564917184544697 0 -0.00037089524789444064 -0.0011074066145006886 0 -0.0002814393000982386 -0.0010953830358605085 0 -0.00045314872481180368 -0.0015564917184544697 0 -0.0002814393000982386 -0.0010953830358605085 0 -0.00045314872481180368 -0.0015564917184544697 0 -0.00039136054063214863 -0.001637214759081855 0 -0.0002814393000982386 -0.0010953830358605085 0 -0.00014753549278571045 -0.00051089902767596849 0 -0.00012877281496180405 -0.00066774008216205971 0 -0.00037089524789444064 -0.0011074066145006886 0 -0.0002814393000982386 -0.0010953830358605085 0 -0.00014753549278571045 -0.00051089902767596849 0 -0.00014753549278571045 -0.00051089902767596849 0 -5.071096123059449e-08 -5.5308839493947641e-07 0 9.623300057121954e-09 -4.8579901910340706e-07 0 -3.3737900221832154e-08 -5.6071004363107755e-07 0 -0.00025733690065350527 -0.00059995702060508646 0 -5.071096123059449e-08 -5.5308839493947641e-07 0 -0.00025733690065350527 -0.00059995702060508646 0 -0.00014753549278571045 -0.00051089902767596849 0 -5.071096123059449e-08 -5.5308839493947641e-07 0 -0.00025733690065350527 -0.00059995702060508646 0 -0.00037089524789444064 -0.0011074066145006886 0 -0.00014753549278571045 -0.00051089902767596849 0 -0.0010875299398313228 -0.0031936550680116745 0 -0.001193863688235915 -0.0030050330957460988 0 -0.0013968894157194067 -0.0037545162739733404 0 -0.0010875299398313228 -0.0031936550680116745 0 -0.001193863688235915 -0.0030050330957460988 0 -0.00095042403737668145 -0.002608107549944436 0 -0.0010875299398313228 -0.0031936550680116745 0 -0.00095042403737668145 -0.002608107549944436 0 -0.00081011189372963627 -0.0026044464367739697 0 -0.00095042403737668145 -0.002608107549944436 0 -0.00099913589897397529 -0.0022835147103390527 0 -0.00067513169904414444 -0.0019288401424768073 0 -0.0005865248893412165 -0.0014012773365664668 0 -0.00099913589897397529 -0.0022835147103390527 0 -0.00067513169904414444 -0.0019288401424768073 0 -0.00095042403737668145 -0.002608107549944436 0 -0.00067513169904414444 -0.0019288401424768073 0 -0.00081011189372963627 -0.0026044464367739697 0 -0.001193863688235915 -0.0030050330957460988 0 -0.00095042403737668145 -0.002608107549944436 0 -0.00099913589897397529 -0.0022835147103390527 0 -0.00067513169904414444 -0.0019288401424768073 0 -0.00045314872481180368 -0.0015564917184544697 0 -0.00057845935271822065 -0.0020153185117746872 0 -0.00045314872481180368 -0.0015564917184544697 0 -0.00057845935271822065 -0.0020153185117746872 0 -0.00039136054063214863 -0.001637214759081855 0 -0.00067513169904414444 -0.0019288401424768073 0 -0.00057845935271822065 -0.0020153185117746872 0 -0.00081011189372963627 -0.0026044464367739697 0 -0.00081011189372963627 -0.0026044464367739697 0 -0.00092769674228638176 -0.0031505529093940822 0 -0.00060578009277183708 -0.0023567792323598616 0 -0.00057845935271822065 -0.0020153185117746872 0 -0.00081011189372963627 -0.0026044464367739697 0 -0.00060578009277183708 -0.0023567792323598616 0 -0.0010875299398313228 -0.0031936550680116745 0 -0.00081011189372963627 -0.0026044464367739697 0 -0.00092769674228638176 -0.0031505529093940822 0 -0.0010875299398313228 -0.0031936550680116745 0 -0.00092769674228638176 -0.0031505529093940822 0 -0.0012584833969920351 -0.0038645913931890184 0 -0.00092769674228638176 -0.0031505529093940822 0 -0.00074170926616753355 -0.002822386715989506 0 -0.00060578009277183708 -0.0023567792323598616 0 -0.00059235910125013489 -0.00249284866514844 0 -0.00074170926616753355 -0.002822386715989506 0 -0.00060578009277183708 -0.0023567792323598616 0 -0.00059235910125013489 -0.00249284866514844 0 -0.00060578009277183708 -0.0023567792323598616 0 -0.00042274108432492738 -0.0019630436805442254 0 -0.00042274108432492738 -0.0019630436805442254 0 -0.00039136054063214863 -0.001637214759081855 0 -0.00026915850967974337 -0.0014373811456598526 0 -0.00057845935271822065 -0.0020153185117746872 0 -0.00060578009277183708 -0.0023567792323598616 0 -0.00039136054063214863 -0.001637214759081855 0 -0.00060578009277183708 -0.0023567792323598616 0 -0.00042274108432492738 -0.0019630436805442254 0 -0.00039136054063214863 -0.001637214759081855 0 -0.00039136054063214863 -0.001637214759081855 0 -0.00026915850967974337 -0.0014373811456598526 0 -0.00021718278109840043 -0.0011007563199411379 0 -0.00026915850967974337 -0.0014373811456598526 0 -0.0001576628713459481 -0.0011810543298348178 0 -0.00031568662219868258 -0.0017125813619190524 0 -0.0001576628713459481 -0.0011810543298348178 0 -0.00031568662219868258 -0.0017125813619190524 0 -0.00019306043581408509 -0.0013648360131545355 0 -0.00031568662219868258 -0.0017125813619190524 0 -0.00019306043581408509 -0.0013648360131545355 0 -0.00027909210055401205 -0.0016364594591141307 0 -0.00042274108432492738 -0.0019630436805442254 0 -0.00026915850967974337 -0.0014373811456598526 0 -0.00031568662219868258 -0.0017125813619190524 0 -0.00059235910125013489 -0.00249284866514844 0 -0.00042274108432492738 -0.0019630436805442254 0 -0.00043654779083728901 -0.0020944036878888638 0 -0.00042274108432492738 -0.0019630436805442254 0 -0.00031568662219868258 -0.0017125813619190524 0 -0.00043654779083728901 -0.0020944036878888638 0 -0.00031568662219868258 -0.0017125813619190524 0 -0.00043654779083728901 -0.0020944036878888638 0 -0.00027909210055401205 -0.0016364594591141307 0 -0.00043654779083728901 -0.0020944036878888638 0 -0.00052469676203668078 -0.0022714958645986085 0 -0.0006369907547213652 -0.0026431570391878241 0 -0.00059235910125013489 -0.00249284866514844 0 -0.00043654779083728901 -0.0020944036878888638 0 -0.0006369907547213652 -0.0026431570391878241 0 -3.784594449706508e-05 -0.0003742526677371614 0 9.623300057121954e-09 -4.8579901910340706e-07 0 -0.00012877281496180405 -0.00066774008216205971 0 -3.784594449706508e-05 -0.0003742526677371614 0 -0.00012877281496180405 -0.00066774008216205971 0 -0.00010072917557140223 -0.00082717679894121938 0 -3.784594449706508e-05 -0.0003742526677371614 0 9.623300057121954e-09 -4.8579901910340706e-07 0 -8.3082863647805497e-09 -4.5818743717708581e-07 0 -0.00014753549278571045 -0.00051089902767596849 0 9.623300057121954e-09 -4.8579901910340706e-07 0 -0.00012877281496180405 -0.00066774008216205971 0 -0.0002814393000982386 -0.0010953830358605085 0 -0.00012877281496180405 -0.00066774008216205971 0 -0.00021718278109840043 -0.0011007563199411379 0 -0.0002814393000982386 -0.0010953830358605085 0 -0.00039136054063214863 -0.001637214759081855 0 -0.00021718278109840043 -0.0011007563199411379 0 -0.00026915850967974337 -0.0014373811456598526 0 -0.00021718278109840043 -0.0011007563199411379 0 -0.00010072917557140223 -0.00082717679894121938 0 -0.00012877281496180405 -0.00066774008216205971 0 -0.00021718278109840043 -0.0011007563199411379 0 -0.00010072917557140223 -0.00082717679894121938 0 -0.00026915850967974337 -0.0014373811456598526 0 -0.0001576628713459481 -0.0011810543298348178 0 -0.00010072917557140223 -0.00082717679894121938 0 -0.0001576628713459481 -0.0011810543298348178 0 -0.00010072917557140223 -0.00082717679894121938 0 -5.6932911203670619e-05 -0.00077487981006313042 0 -0.0001576628713459481 -0.0011810543298348178 0 -5.6932911203670619e-05 -0.00077487981006313042 0 -7.5056274081522229e-05 -0.00095917497329677187 0 -0.00010072917557140223 -0.00082717679894121938 0 -5.6932911203670619e-05 -0.00077487981006313042 0 -1.1029476324744188e-05 -0.00040450211626145277 0 -5.6932911203670619e-05 -0.00077487981006313042 0 -1.1029476324744188e-05 -0.00040450211626145277 0 8.1599767601809425e-06 -0.00048001077514389098 0 -3.784594449706508e-05 -0.0003742526677371614 0 -0.00010072917557140223 -0.00082717679894121938 0 -1.1029476324744188e-05 -0.00040450211626145277 0 -3.784594449706508e-05 -0.0003742526677371614 0 -1.1029476324744188e-05 -0.00040450211626145277 0 -8.3082863647805497e-09 -4.5818743717708581e-07 0 -1.1029476324744188e-05 -0.00040450211626145277 0 -8.3082863647805497e-09 -4.5818743717708581e-07 0 1.1694754035547117e-08 -4.1525985706683263e-07 0 1.1694754035547117e-08 -4.1525985706683263e-07 0 8.1599767601809425e-06 -0.00048001077514389098 0 2.8943272129631607e-08 -3.6489929941760063e-07 0 -1.1029476324744188e-05 -0.00040450211626145277 0 1.1694754035547117e-08 -4.1525985706683263e-07 0 8.1599767601809425e-06 -0.00048001077514389098 0 8.1599767601809425e-06 -0.00048001077514389098 0 2.8943272129631607e-08 -3.6489929941760063e-07 0 2.5558144121711915e-05 -0.00032650829106715262 0 2.8943272129631607e-08 -3.6489929941760063e-07 0 2.5558144121711915e-05 -0.00032650829106715262 0 1.7198935760440964e-08 -3.301538882682395e-07 0 2.5558144121711915e-05 -0.00032650829106715262 0 2.7564716419540946e-05 -0.00023066270444050874 0 1.9901902475171249e-05 -0.00056191247322387797 0 2.7564716419540946e-05 -0.00023066270444050874 0 1.9901902475171249e-05 -0.00056191247322387797 0 3.6233748785947848e-05 -0.00033583369097415361 0 2.5558144121711915e-05 -0.00032650829106715262 0 2.7564716419540946e-05 -0.00023066270444050874 0 1.7198935760440964e-08 -3.301538882682395e-07 0 2.7564716419540946e-05 -0.00023066270444050874 0 1.7198935760440964e-08 -3.301538882682395e-07 0 3.1756254123197929e-08 -2.9129707450047735e-07 0 1.9901902475171249e-05 -0.00056191247322387797 0 -5.8278348225284017e-05 -0.00091067334182235132 0 2.7507981229042968e-06 -0.00065563942745869741 0 1.9901902475171249e-05 -0.00056191247322387797 0 -4.56804979870226e-05 -0.00087917237431629585 0 -5.8278348225284017e-05 -0.00091067334182235132 0 2.5558144121711915e-05 -0.00032650829106715262 0 1.9901902475171249e-05 -0.00056191247322387797 0 -1.7645874796913567e-07 -0.0006309546649134073 0 1.9901902475171249e-05 -0.00056191247322387797 0 -4.56804979870226e-05 -0.00087917237431629585 0 -1.7645874796913567e-07 -0.0006309546649134073 0 -4.56804979870226e-05 -0.00087917237431629585 0 -1.7645874796913567e-07 -0.0006309546649134073 0 -7.5056274081522229e-05 -0.00095917497329677187 0 8.1599767601809425e-06 -0.00048001077514389098 0 2.5558144121711915e-05 -0.00032650829106715262 0 -1.7645874796913567e-07 -0.0006309546649134073 0 8.1599767601809425e-06 -0.00048001077514389098 0 -1.7645874796913567e-07 -0.0006309546649134073 0 -7.5056274081522229e-05 -0.00095917497329677187 0 -5.6932911203670619e-05 -0.00077487981006313042 0 8.1599767601809425e-06 -0.00048001077514389098 0 -7.5056274081522229e-05 -0.00095917497329677187 0 -0.0001576628713459481 -0.0011810543298348178 0 -7.5056274081522229e-05 -0.00095917497329677187 0 -0.00019306043581408509 -0.0013648360131545355 0 -7.5056274081522229e-05 -0.00095917497329677187 0 -0.00019306043581408509 -0.0013648360131545355 0 -0.00014829081139708502 -0.0012406646346408178 0 -0.00019306043581408509 -0.0013648360131545355 0 -0.00014829081139708502 -0.0012406646346408178 0 -0.00027909210055401205 -0.0016364594591141307 0 -0.00014829081139708502 -0.0012406646346408178 0 -0.00024607800070003681 -0.0014776811784825935 0 -0.00013194178864071906 -0.0011551910780033565 0 -0.00014829081139708502 -0.0012406646346408178 0 -0.00027909210055401205 -0.0016364594591141307 0 -0.00024607800070003681 -0.0014776811784825935 0 -4.56804979870226e-05 -0.00087917237431629585 0 -7.5056274081522229e-05 -0.00095917497329677187 0 -0.00014829081139708502 -0.0012406646346408178 0 -0.00043654779083728901 -0.0020944036878888638 0 -0.00038591848399287173 -0.001869541156462817 0 -0.00052469676203668078 -0.0022714958645986085 0 -0.00043654779083728901 -0.0020944036878888638 0 -0.00038591848399287173 -0.001869541156462817 0 -0.00027909210055401205 -0.0016364594591141307 0 -0.00038591848399287173 -0.001869541156462817 0 -0.00027909210055401205 -0.0016364594591141307 0 -0.00024607800070003681 -0.0014776811784825935 0 -0.00038591848399287173 -0.001869541156462817 0 -0.00037473915417233708 -0.0016498273839149345 0 -0.00052775804796592021 -0.0021245763923960358 0 -0.00038591848399287173 -0.001869541156462817 0 -0.00037473915417233708 -0.0016498273839149345 0 -0.00024607800070003681 -0.0014776811784825935 0 -0.00037473915417233708 -0.0016498273839149345 0 -0.00024607800070003681 -0.0014776811784825935 0 -0.00018739936549421875 -0.001241297822757865 0 -0.00037473915417233708 -0.0016498273839149345 0 -0.00018739936549421875 -0.001241297822757865 0 -0.00028703838048769624 -0.0013341838344418462 0 -0.00037473915417233708 -0.0016498273839149345 0 -0.00028703838048769624 -0.0013341838344418462 0 -0.00051680683239101243 -0.0016659137301023891 0 -4.56804979870226e-05 -0.00087917237431629585 0 -0.00014829081139708502 -0.0012406646346408178 0 -0.00013194178864071906 -0.0011551910780033565 0 -4.56804979870226e-05 -0.00087917237431629585 0 -0.00013194178864071906 -0.0011551910780033565 0 -5.8278348225284017e-05 -0.00091067334182235132 0 -0.00024607800070003681 -0.0014776811784825935 0 -0.00013194178864071906 -0.0011551910780033565 0 -0.00018739936549421875 -0.001241297822757865 0 -0.00018739936549421875 -0.001241297822757865 0 -5.8278348225284017e-05 -0.00091067334182235132 0 -0.00010428038945669297 -0.00098380150918737658 0 -0.00013194178864071906 -0.0011551910780033565 0 -0.00018739936549421875 -0.001241297822757865 0 -5.8278348225284017e-05 -0.00091067334182235132 0 -5.8278348225284017e-05 -0.00091067334182235132 0 -0.00010428038945669297 -0.00098380150918737658 0 2.7507981229042968e-06 -0.00065563942745869741 0 -0.00010428038945669297 -0.00098380150918737658 0 -0.00018818366448771986 -0.0010865074852027751 0 -2.9111582697164611e-05 -0.00072755081177617708 0 -0.00010428038945669297 -0.00098380150918737658 0 -2.9111582697164611e-05 -0.00072755081177617708 0 2.7507981229042968e-06 -0.00065563942745869741 0 -0.00028703838048769624 -0.0013341838344418462 0 -0.00043758675685604708 -0.0013904082466355174 0 -0.00051680683239101243 -0.0016659137301023891 0 -0.00018739936549421875 -0.001241297822757865 0 -0.00010428038945669297 -0.00098380150918737658 0 -0.00028703838048769624 -0.0013341838344418462 0 -0.00010428038945669297 -0.00098380150918737658 0 -0.00028703838048769624 -0.0013341838344418462 0 -0.00018818366448771986 -0.0010865074852027751 0 -0.00028703838048769624 -0.0013341838344418462 0 -0.00018818366448771986 -0.0010865074852027751 0 -0.00043758675685604708 -0.0013904082466355174 0 -0.00018818366448771986 -0.0010865074852027751 0 -0.00028378979789475851 -0.0011340635817612106 0 -0.00043758675685604708 -0.0013904082466355174 0 -0.00018818366448771986 -0.0010865074852027751 0 -0.00028378979789475851 -0.0011340635817612106 0 -0.00011745290932588488 -0.0008864314929783821 0 -0.00011745290932588488 -0.0008864314929783821 0 -5.8166084126877026e-05 -0.00068983920951356755 0 -0.00013867891122111662 -0.00087134952487300736 0 -0.00028378979789475851 -0.0011340635817612106 0 -0.00011745290932588488 -0.0008864314929783821 0 -0.00013867891122111662 -0.00087134952487300736 0 -0.00028378979789475851 -0.0011340635817612106 0 -0.00035174133950726278 -0.0011355731062750254 0 -0.00013867891122111662 -0.00087134952487300736 0 -2.9111582697164611e-05 -0.00072755081177617708 0 -0.00011745290932588488 -0.0008864314929783821 0 -2.7824699981290328e-05 -0.00064810095261320466 0 -0.00018818366448771986 -0.0010865074852027751 0 -2.9111582697164611e-05 -0.00072755081177617708 0 -0.00011745290932588488 -0.0008864314929783821 0 -0.00011745290932588488 -0.0008864314929783821 0 -2.7824699981290328e-05 -0.00064810095261320466 0 -5.8166084126877026e-05 -0.00068983920951356755 0 -2.9111582697164611e-05 -0.00072755081177617708 0 -2.7824699981290328e-05 -0.00064810095261320466 0 1.7516046921976341e-05 -0.00043337343052491734 0 -2.7824699981290328e-05 -0.00064810095261320466 0 1.7516046921976341e-05 -0.00043337343052491734 0 -8.2821240011946101e-06 -0.00051136658346775693 0 -2.9111582697164611e-05 -0.00072755081177617708 0 1.7516046921976341e-05 -0.00043337343052491734 0 2.9662465237857338e-05 -0.00042254687280179768 0 1.7516046921976341e-05 -0.00043337343052491734 0 2.4876751915407373e-05 -0.00021279882415701178 0 2.9662465237857338e-05 -0.00042254687280179768 0 1.7516046921976341e-05 -0.00043337343052491734 0 2.4876751915407373e-05 -0.00021279882415701178 0 9.6395667331590392e-06 -0.0002537248519158233 0 2.4876751915407373e-05 -0.00021279882415701178 0 2.4817942448226793e-08 -2.3143390203134577e-07 0 9.6395667331590392e-06 -0.0002537248519158233 0 2.4876751915407373e-05 -0.00021279882415701178 0 2.4817942448226793e-08 -2.3143390203134577e-07 0 1.4346509520374337e-08 -2.5652161538285911e-07 0 2.4876751915407373e-05 -0.00021279882415701178 0 1.4346509520374337e-08 -2.5652161538285911e-07 0 2.7506819798842198e-05 -0.00020125481139975841 0 2.4876751915407373e-05 -0.00021279882415701178 0 2.7506819798842198e-05 -0.00020125481139975841 0 2.9662465237857338e-05 -0.00042254687280179768 0 2.7506819798842198e-05 -0.00020125481139975841 0 3.1756254123197929e-08 -2.9129707450047735e-07 0 3.6233748785947848e-05 -0.00033583369097415361 0 2.7506819798842198e-05 -0.00020125481139975841 0 3.6233748785947848e-05 -0.00033583369097415361 0 2.9662465237857338e-05 -0.00042254687280179768 0 1.4346509520374337e-08 -2.5652161538285911e-07 0 2.7506819798842198e-05 -0.00020125481139975841 0 3.1756254123197929e-08 -2.9129707450047735e-07 0 2.7564716419540946e-05 -0.00023066270444050874 0 3.1756254123197929e-08 -2.9129707450047735e-07 0 3.6233748785947848e-05 -0.00033583369097415361 0 1.9901902475171249e-05 -0.00056191247322387797 0 3.6233748785947848e-05 -0.00033583369097415361 0 2.7507981229042968e-06 -0.00065563942745869741 0 -2.9111582697164611e-05 -0.00072755081177617708 0 2.7507981229042968e-06 -0.00065563942745869741 0 2.9662465237857338e-05 -0.00042254687280179768 0 3.6233748785947848e-05 -0.00033583369097415361 0 2.7507981229042968e-06 -0.00065563942745869741 0 2.9662465237857338e-05 -0.00042254687280179768 0 -0.0011286585007192133 -0.0018823047459927864 0 -0.0011591586971465692 -0.0021998774733785367 0 -0.0012495532240238106 -0.0019068726312549296 0 -0.0011286585007192133 -0.0018823047459927864 0 -0.0010317631222703121 -0.0021391110692943137 0 -0.0011591586971465692 -0.0021998774733785367 0 -0.0011286585007192133 -0.0018823047459927864 0 -0.0010317631222703121 -0.0021391110692943137 0 -0.00090713663756933729 -0.0018651937632181129 0 -0.0011591586971465692 -0.0021998774733785367 0 -0.0012956442640202018 -0.0023010499084471928 0 -0.0012495532240238106 -0.0019068726312549296 0 -0.0012956442640202018 -0.0023010499084471928 0 -0.0013510976133812192 -0.0019610846553679471 0 -0.0014476625164024271 -0.0025126325771966836 0 -0.0012956442640202018 -0.0023010499084471928 0 -0.0013510976133812192 -0.0019610846553679471 0 -0.0012495532240238106 -0.0019068726312549296 0 -0.0013510976133812192 -0.0019610846553679471 0 -0.0012495532240238106 -0.0019068726312549296 0 -0.0013251722186830303 -0.0018391228881591483 0 -0.0012495532240238106 -0.0019068726312549296 0 -0.0013251722186830303 -0.0018391228881591483 0 -0.0013373160974387086 -0.0017354031165858327 0 -0.0013510976133812192 -0.0019610846553679471 0 -0.0013251722186830303 -0.0018391228881591483 0 -0.0013727082469470024 -0.0017725502406616726 0 -0.0013251722186830303 -0.0018391228881591483 0 -0.0013727082469470024 -0.0017725502406616726 0 -0.0013373160974387086 -0.0017354031165858327 0 -0.0013373160974387086 -0.0017354031165858327 0 -0.0012349081537127529 -0.0016982839230313786 0 -0.0013791467678542968 -0.0016847927667808173 0 -0.0012495532240238106 -0.0019068726312549296 0 -0.0013373160974387086 -0.0017354031165858327 0 -0.0012349081537127529 -0.0016982839230313786 0 -0.0011286585007192133 -0.0018823047459927864 0 -0.0012495532240238106 -0.0019068726312549296 0 -0.0012349081537127529 -0.0016982839230313786 0 -0.0011286585007192133 -0.0018823047459927864 0 -0.0012349081537127529 -0.0016982839230313786 0 -0.0010538239355758401 -0.0017053843978810886 0 -0.0012349081537127529 -0.0016982839230313786 0 -0.0012119997284664918 -0.0015618550963440896 0 -0.0013791467678542968 -0.0016847927667808173 0 -0.0012119997284664918 -0.0015618550963440896 0 -0.00092584551654732662 -0.0015464337557670696 0 -0.00089527681303526474 -0.0013825020654816584 0 -0.0012119997284664918 -0.0015618550963440896 0 -0.00092584551654732662 -0.0015464337557670696 0 -0.0010538239355758401 -0.0017053843978810886 0 -0.00092584551654732662 -0.0015464337557670696 0 -0.0010538239355758401 -0.0017053843978810886 0 -0.00075180563187711392 -0.0016476999885574129 0 -0.0012349081537127529 -0.0016982839230313786 0 -0.0012119997284664918 -0.0015618550963440896 0 -0.0010538239355758401 -0.0017053843978810886 0 -0.00035174133950726278 -0.0011355731062750254 0 -0.00063249427389265882 -0.0014164381880346498 0 -0.00089527681303526474 -0.0013825020654816584 0 -0.00028378979789475851 -0.0011340635817612106 0 -0.00035174133950726278 -0.0011355731062750254 0 -0.00063249427389265882 -0.0014164381880346498 0 -0.00092584551654732662 -0.0015464337557670696 0 -0.00063249427389265882 -0.0014164381880346498 0 -0.00089527681303526474 -0.0013825020654816584 0 -0.00092584551654732662 -0.0015464337557670696 0 -0.00063249427389265882 -0.0014164381880346498 0 -0.00075180563187711392 -0.0016476999885574129 0 -0.00028378979789475851 -0.0011340635817612106 0 -0.00063249427389265882 -0.0014164381880346498 0 -0.00043758675685604708 -0.0013904082466355174 0 -0.00063249427389265882 -0.0014164381880346498 0 -0.00043758675685604708 -0.0013904082466355174 0 -0.00075180563187711392 -0.0016476999885574129 0 -0.00043758675685604708 -0.0013904082466355174 0 -0.00075180563187711392 -0.0016476999885574129 0 -0.00051680683239101243 -0.0016659137301023891 0 -0.00075180563187711392 -0.0016476999885574129 0 -0.00051680683239101243 -0.0016659137301023891 0 -0.00072860926173165671 -0.001955386545527672 0 -0.0011286585007192133 -0.0018823047459927864 0 -0.0010538239355758401 -0.0017053843978810886 0 -0.00090713663756933729 -0.0018651937632181129 0 -0.0010538239355758401 -0.0017053843978810886 0 -0.00075180563187711392 -0.0016476999885574129 0 -0.00090713663756933729 -0.0018651937632181129 0 -0.00075180563187711392 -0.0016476999885574129 0 -0.00090713663756933729 -0.0018651937632181129 0 -0.00072860926173165671 -0.001955386545527672 0 -0.00090713663756933729 -0.0018651937632181129 0 -0.00072860926173165671 -0.001955386545527672 0 -0.00090812510704858546 -0.0024021081149986382 0 -0.0010317631222703121 -0.0021391110692943137 0 -0.00090713663756933729 -0.0018651937632181129 0 -0.00090812510704858546 -0.0024021081149986382 0 -0.00072860926173165671 -0.001955386545527672 0 -0.00074950731062857739 -0.0022419981253177508 0 -0.00090812510704858546 -0.0024021081149986382 0 -0.00074950731062857739 -0.0022419981253177508 0 -0.00090812510704858546 -0.0024021081149986382 0 -0.00085275451691226229 -0.0026367532990649038 0 -0.00037473915417233708 -0.0016498273839149345 0 -0.00051680683239101243 -0.0016659137301023891 0 -0.00058531672955338472 -0.0019854429933917855 0 -0.00051680683239101243 -0.0016659137301023891 0 -0.00072860926173165671 -0.001955386545527672 0 -0.00058531672955338472 -0.0019854429933917855 0 -0.00072860926173165671 -0.001955386545527672 0 -0.00074950731062857739 -0.0022419981253177508 0 -0.00058531672955338472 -0.0019854429933917855 0 -0.00074950731062857739 -0.0022419981253177508 0 -0.00058531672955338472 -0.0019854429933917855 0 -0.00070039727620827539 -0.0024127233405021259 0 -0.00037473915417233708 -0.0016498273839149345 0 -0.00058531672955338472 -0.0019854429933917855 0 -0.00052775804796592021 -0.0021245763923960358 0 -0.00058531672955338472 -0.0019854429933917855 0 -0.00052775804796592021 -0.0021245763923960358 0 -0.00070039727620827539 -0.0024127233405021259 0 -0.00052775804796592021 -0.0021245763923960358 0 -0.00070039727620827539 -0.0024127233405021259 0 -0.00069736398546626631 -0.0026871143078060489 0 -0.00052775804796592021 -0.0021245763923960358 0 -0.00052469676203668078 -0.0022714958645986085 0 -0.00069736398546626631 -0.0026871143078060489 0 -0.00038591848399287173 -0.001869541156462817 0 -0.00052775804796592021 -0.0021245763923960358 0 -0.00052469676203668078 -0.0022714958645986085 0 -0.00090812510704858546 -0.0024021081149986382 0 -0.00085275451691226229 -0.0026367532990649038 0 -0.0010225012875139765 -0.0030408274295741682 0 -0.00074950731062857739 -0.0022419981253177508 0 -0.00085275451691226229 -0.0026367532990649038 0 -0.00070039727620827539 -0.0024127233405021259 0 -0.00085275451691226229 -0.0026367532990649038 0 -0.00070039727620827539 -0.0024127233405021259 0 -0.0008595583844828277 -0.0029129527981030267 0 -0.00070039727620827539 -0.0024127233405021259 0 -0.0008595583844828277 -0.0029129527981030267 0 -0.00069736398546626631 -0.0026871143078060489 0 -0.00085275451691226229 -0.0026367532990649038 0 -0.0008595583844828277 -0.0029129527981030267 0 -0.0010225012875139765 -0.0030408274295741682 0 -0.0008595583844828277 -0.0029129527981030267 0 -0.0010225012875139765 -0.0030408274295741682 0 -0.0010616534994168363 -0.0035519316215401327 0 -0.0010225012875139765 -0.0030408274295741682 0 -0.0012499200385887135 -0.0032558651665289657 0 -0.0012512236881007178 -0.0037211768831905447 0 -0.0012499200385887135 -0.0032558651665289657 0 -0.0014899313231967236 -0.0038923220299407813 0 -0.0012512236881007178 -0.0037211768831905447 0 -0.0010225012875139765 -0.0030408274295741682 0 -0.0012499200385887135 -0.0032558651665289657 0 -0.0010862265596378081 -0.0027816833510287166 0 -0.00090812510704858546 -0.0024021081149986382 0 -0.0010225012875139765 -0.0030408274295741682 0 -0.0010862265596378081 -0.0027816833510287166 0 -0.00090812510704858546 -0.0024021081149986382 0 -0.0010862265596378081 -0.0027816833510287166 0 -0.001076158217979256 -0.0024398614856243508 0 -0.0010862265596378081 -0.0027816833510287166 0 -0.001076158217979256 -0.0024398614856243508 0 -0.0012283877585624343 -0.0027097176489219348 0 -0.0012499200385887135 -0.0032558651665289657 0 -0.0010862265596378081 -0.0027816833510287166 0 -0.0012283877585624343 -0.0027097176489219348 0 -0.0011591586971465692 -0.0021998774733785367 0 -0.001076158217979256 -0.0024398614856243508 0 -0.0012283877585624343 -0.0027097176489219348 0 -0.0010317631222703121 -0.0021391110692943137 0 -0.0011591586971465692 -0.0021998774733785367 0 -0.001076158217979256 -0.0024398614856243508 0 -0.0010317631222703121 -0.0021391110692943137 0 -0.00090812510704858546 -0.0024021081149986382 0 -0.001076158217979256 -0.0024398614856243508 0 -0.0012956442640202018 -0.0023010499084471928 0 -0.0013935946736417229 -0.0028131386482284672 0 -0.0014476625164024271 -0.0025126325771966836 0 -0.0012956442640202018 -0.0023010499084471928 0 -0.0013935946736417229 -0.0028131386482284672 0 -0.0012283877585624343 -0.0027097176489219348 0 -0.0011591586971465692 -0.0021998774733785367 0 -0.0012956442640202018 -0.0023010499084471928 0 -0.0012283877585624343 -0.0027097176489219348 0 -0.0012499200385887135 -0.0032558651665289657 0 -0.0012283877585624343 -0.0027097176489219348 0 -0.0014265480523669011 -0.0032811674526205528 0 -0.0013935946736417229 -0.0028131386482284672 0 -0.0014265480523669011 -0.0032811674526205528 0 -0.0016603975724910442 -0.003283904533592015 0 -0.0013935946736417229 -0.0028131386482284672 0 -0.0012283877585624343 -0.0027097176489219348 0 -0.0014265480523669011 -0.0032811674526205528 0 -0.0014265480523669011 -0.0032811674526205528 0 -0.0014899313231967236 -0.0038923220299407813 0 -0.0017364317503497952 -0.003942476928221964 0 -0.0012499200385887135 -0.0032558651665289657 0 -0.0014265480523669011 -0.0032811674526205528 0 -0.0014899313231967236 -0.0038923220299407813 0 -0.0014899313231967236 -0.0038923220299407813 0 -0.0018249589406606906 -0.004517359178935771 0 -0.0017364317503497952 -0.003942476928221964 0 -0.0018249589406606906 -0.004517359178935771 0 -0.0018748351794167541 -0.0050238513894364633 0 -0.0015289549976933556 -0.0043001242967614772 0 -0.0018748351794167541 -0.0050238513894364633 0 -0.0015289549976933556 -0.0043001242967614772 0 -0.0014781459596400709 -0.0044750532421963356 0 -0.0014899313231967236 -0.0038923220299407813 0 -0.0015289549976933556 -0.0043001242967614772 0 -0.0012512236881007178 -0.0037211768831905447 0 -0.0014899313231967236 -0.0038923220299407813 0 -0.0018249589406606906 -0.004517359178935771 0 -0.0015289549976933556 -0.0043001242967614772 0 -0.0010225012875139765 -0.0030408274295741682 0 -0.0012512236881007178 -0.0037211768831905447 0 -0.0010616534994168363 -0.0035519316215401327 0 -0.0014781459596400709 -0.0044750532421963356 0 -0.0013413659556797727 -0.004369383227341617 0 -0.0010616534994168363 -0.0035519316215401327 0 -0.0012512236881007178 -0.0037211768831905447 0 -0.0014781459596400709 -0.0044750532421963356 0 -0.0010616534994168363 -0.0035519316215401327 0 -0.0015289549976933556 -0.0043001242967614772 0 -0.0012512236881007178 -0.0037211768831905447 0 -0.0014781459596400709 -0.0044750532421963356 0 -0.0014781459596400709 -0.0044750532421963356 0 -0.0017033058314132349 -0.0051726388125944373 0 -0.0018906134328930684 -0.0053584491460792628 0 -0.0014781459596400709 -0.0044750532421963356 0 -0.0013413659556797727 -0.004369383227341617 0 -0.0017033058314132349 -0.0051726388125944373 0 -0.0013413659556797727 -0.004369383227341617 0 -0.0017033058314132349 -0.0051726388125944373 0 -0.0015611920958811601 -0.0049786152675775934 0 -0.0017033058314132349 -0.0051726388125944373 0 -0.0018906134328930684 -0.0053584491460792628 0 -0.0021362029093033434 -0.0060207873942136258 0 -0.0018906134328930684 -0.0053584491460792628 0 -0.0021362029093033434 -0.0060207873942136258 0 -0.0025516252030087783 -0.0065621789162648948 0 -0.0018906134328930684 -0.0053584491460792628 0 -0.0025516252030087783 -0.0065621789162648948 0 -0.0023157985568942377 -0.0058522142760484286 0 -0.0018748351794167541 -0.0050238513894364633 0 -0.0018906134328930684 -0.0053584491460792628 0 -0.0023157985568942377 -0.0058522142760484286 0 -0.0018748351794167541 -0.0050238513894364633 0 -0.0014781459596400709 -0.0044750532421963356 0 -0.0018906134328930684 -0.0053584491460792628 0 -0.00052469676203668078 -0.0022714958645986085 0 -0.0006369907547213652 -0.0026431570391878241 0 -0.00069736398546626631 -0.0026871143078060489 0 -0.0006369907547213652 -0.0026431570391878241 0 -0.00069736398546626631 -0.0026871143078060489 0 -0.00086331447561473673 -0.0032253608300943609 0 -0.0006369907547213652 -0.0026431570391878241 0 -0.00086331447561473673 -0.0032253608300943609 0 -0.00079848546832259634 -0.003080982830270276 0 -0.00086331447561473673 -0.0032253608300943609 0 -0.00088213072812161743 -0.0031584580071741162 0 -0.0010758224950263148 -0.0037515162051641833 0 -0.00069736398546626631 -0.0026871143078060489 0 -0.00086331447561473673 -0.0032253608300943609 0 -0.00088213072812161743 -0.0031584580071741162 0 -0.0008595583844828277 -0.0029129527981030267 0 -0.00069736398546626631 -0.0026871143078060489 0 -0.00088213072812161743 -0.0031584580071741162 0 -0.0008595583844828277 -0.0029129527981030267 0 -0.00088213072812161743 -0.0031584580071741162 0 -0.0010616534994168363 -0.0035519316215401327 0 -0.00088213072812161743 -0.0031584580071741162 0 -0.0010616534994168363 -0.0035519316215401327 0 -0.0010758224950263148 -0.0037515162051641833 0 -0.0013413659556797727 -0.004369383227341617 0 -0.0010616534994168363 -0.0035519316215401327 0 -0.0010758224950263148 -0.0037515162051641833 0 -0.0013413659556797727 -0.004369383227341617 0 -0.0010758224950263148 -0.0037515162051641833 0 -0.0011240569658395546 -0.0039439040958534925 0 -0.0013413659556797727 -0.004369383227341617 0 -0.0011240569658395546 -0.0039439040958534925 0 -0.0015611920958811601 -0.0049786152675775934 0 -0.00086331447561473673 -0.0032253608300943609 0 -0.0010758224950263148 -0.0037515162051641833 0 -0.0011240569658395546 -0.0039439040958534925 0 -0.00086331447561473673 -0.0032253608300943609 0 -0.0011240569658395546 -0.0039439040958534925 0 -0.00079848546832259634 -0.003080982830270276 0 -0.0011240569658395546 -0.0039439040958534925 0 -0.00079848546832259634 -0.003080982830270276 0 -0.00091687742548902853 -0.0032999214323089134 0 -0.00074170926616753355 -0.002822386715989506 0 -0.00079848546832259634 -0.003080982830270276 0 -0.00091687742548902853 -0.0032999214323089134 0 -0.00059235910125013489 -0.00249284866514844 0 -0.0006369907547213652 -0.0026431570391878241 0 -0.00079848546832259634 -0.003080982830270276 0 -0.00059235910125013489 -0.00249284866514844 0 -0.00074170926616753355 -0.002822386715989506 0 -0.00079848546832259634 -0.003080982830270276 0 -0.00092769674228638176 -0.0031505529093940822 0 -0.0011907277481277077 -0.0039924534888976871 0 -0.0012584833969920351 -0.0038645913931890184 0 -0.00092769674228638176 -0.0031505529093940822 0 -0.00074170926616753355 -0.002822386715989506 0 -0.00091687742548902853 -0.0032999214323089134 0 -0.00092769674228638176 -0.0031505529093940822 0 -0.00091687742548902853 -0.0032999214323089134 0 -0.0011907277481277077 -0.0039924534888976871 0 -0.0011240569658395546 -0.0039439040958534925 0 -0.00091687742548902853 -0.0032999214323089134 0 -0.0011907277481277077 -0.0039924534888976871 0 -0.0011907277481277077 -0.0039924534888976871 0 -0.0015234142863857145 -0.0046677264332977411 0 -0.0012584833969920351 -0.0038645913931890184 0 -0.0011907277481277077 -0.0039924534888976871 0 -0.0014546178869954932 -0.0046892722874743078 0 -0.0015234142863857145 -0.0046677264332977411 0 -0.0011240569658395546 -0.0039439040958534925 0 -0.0011907277481277077 -0.0039924534888976871 0 -0.0014546178869954932 -0.0046892722874743078 0 -0.0011240569658395546 -0.0039439040958534925 0 -0.0014546178869954932 -0.0046892722874743078 0 -0.0015611920958811601 -0.0049786152675775934 0 -0.0014546178869954932 -0.0046892722874743078 0 -0.0015611920958811601 -0.0049786152675775934 0 -0.0018523221340440445 -0.0055748330064770944 0 -0.0014546178869954932 -0.0046892722874743078 0 -0.0015234142863857145 -0.0046677264332977411 0 -0.0018523221340440445 -0.0055748330064770944 0 -0.0019077705100550323 -0.0053740847040302329 0 -0.0015234142863857145 -0.0046677264332977411 0 -0.0018523221340440445 -0.0055748330064770944 0 -0.0019077705100550323 -0.0053740847040302329 0 -0.0015234142863857145 -0.0046677264332977411 0 -0.0016304086067138734 -0.0045394896460388299 0 -0.0015234142863857145 -0.0046677264332977411 0 -0.0016304086067138734 -0.0045394896460388299 0 -0.0012584833969920351 -0.0038645913931890184 0 -0.0016304086067138734 -0.0045394896460388299 0 -0.0013968894157194067 -0.0037545162739733404 0 -0.0012584833969920351 -0.0038645913931890184 0 -0.0010875299398313228 -0.0031936550680116745 0 -0.0013968894157194067 -0.0037545162739733404 0 -0.0012584833969920351 -0.0038645913931890184 0 -0.002650356977525662 -0.0070771923671656941 0 -0.0021362029093033434 -0.0060207873942136258 0 -0.0020604966969153165 -0.0060450080645677931 0 -0.002650356977525662 -0.0070771923671656941 0 -0.0021362029093033434 -0.0060207873942136258 0 -0.0025516252030087783 -0.0065621789162648948 0 -0.0017033058314132349 -0.0051726388125944373 0 -0.0021362029093033434 -0.0060207873942136258 0 -0.0020604966969153165 -0.0060450080645677931 0 -0.0017033058314132349 -0.0051726388125944373 0 -0.0015611920958811601 -0.0049786152675775934 0 -0.0020604966969153165 -0.0060450080645677931 0 -0.0015611920958811601 -0.0049786152675775934 0 -0.0020604966969153165 -0.0060450080645677931 0 -0.0018523221340440445 -0.0055748330064770944 0 -0.0020604966969153165 -0.0060450080645677931 0 -0.0022480393321834169 -0.0064194079400818399 0 -0.0018523221340440445 -0.0055748330064770944 0 -0.0019077705100550323 -0.0053740847040302329 0 -0.0018523221340440445 -0.0055748330064770944 0 -0.0022528884674620836 -0.0062554536142803794 0 -0.0022480393321834169 -0.0064194079400818399 0 -0.0018523221340440445 -0.0055748330064770944 0 -0.0022528884674620836 -0.0062554536142803794 0 -0.0022480393321834169 -0.0064194079400818399 0 -0.0022528884674620836 -0.0062554536142803794 0 -0.0026742495190643415 -0.0072091190574028689 0 -0.0022480393321834169 -0.0064194079400818399 0 -0.0026742495190643415 -0.0072091190574028689 0 -0.0025841796481649269 -0.0070740639137212014 0 -0.002650356977525662 -0.0070771923671656941 0 -0.0025841796481649269 -0.0070740639137212014 0 -0.0032223304203399853 -0.0082277431355444949 0 -0.002650356977525662 -0.0070771923671656941 0 -0.0020604966969153165 -0.0060450080645677931 0 -0.0025841796481649269 -0.0070740639137212014 0 -0.0020604966969153165 -0.0060450080645677931 0 -0.0022480393321834169 -0.0064194079400818399 0 -0.0025841796481649269 -0.0070740639137212014 0 -0.0026742495190643415 -0.0072091190574028689 0 -0.0025841796481649269 -0.0070740639137212014 0 -0.0032223304203399853 -0.0082277431355444949 0 -0.002650356977525662 -0.0070771923671656941 0 -0.0032223304203399853 -0.0082277431355444949 0 -0.0033973782917263318 -0.0082725705769877787 0 -0.0032223304203399853 -0.0082277431355444949 0 -0.0039277800787346426 -0.0092762189454839734 0 -0.0033973782917263318 -0.0082725705769877787 0 -0.0039277800787346426 -0.0092762189454839734 0 -0.0033973782917263318 -0.0082725705769877787 0 -0.0040822821291534991 -0.0091848599343180865 0 -0.0033973782917263318 -0.0082725705769877787 0 -0.0037204087939671335 -0.0083262986063996746 0 -0.0040822821291534991 -0.0091848599343180865 0 -0.002650356977525662 -0.0070771923671656941 0 -0.0033973782917263318 -0.0082725705769877787 0 -0.0031290834938585582 -0.0075742872443189226 0 -0.002650356977525662 -0.0070771923671656941 0 -0.0031290834938585582 -0.0075742872443189226 0 -0.0025516252030087783 -0.0065621789162648948 0 -0.0033973782917263318 -0.0082725705769877787 0 -0.0031290834938585582 -0.0075742872443189226 0 -0.0037204087939671335 -0.0083262986063996746 0 -0.0031290834938585582 -0.0075742872443189226 0 -0.003445577227407441 -0.007613616604936064 0 -0.0037204087939671335 -0.0083262986063996746 0 -0.0031290834938585582 -0.0075742872443189226 0 -0.0025516252030087783 -0.0065621789162648948 0 -0.003445577227407441 -0.007613616604936064 0 -0.0042670682706657474 -0.0085181770551883192 0 -0.003445577227407441 -0.007613616604936064 0 -0.0037204087939671335 -0.0083262986063996746 0 -0.0042670682706657474 -0.0085181770551883192 0 -0.0047131536306035029 -0.0096387052736691247 0 -0.0052125891550884066 -0.0095050378478152165 0 -0.0042670682706657474 -0.0085181770551883192 0 -0.0037204087939671335 -0.0083262986063996746 0 -0.0047131536306035029 -0.0096387052736691247 0 -0.0037204087939671335 -0.0083262986063996746 0 -0.0047131536306035029 -0.0096387052736691247 0 -0.0040822821291534991 -0.0091848599343180865 0 -0.0039277800787346426 -0.0092762189454839734 0 -0.0040822821291534991 -0.0091848599343180865 0 -0.0048054416605725877 -0.010381281038069415 0 -0.0047131536306035029 -0.0096387052736691247 0 -0.0048054416605725877 -0.010381281038069415 0 -0.0058715066190054219 -0.011454126286833887 0 -0.0047131536306035029 -0.0096387052736691247 0 -0.0040822821291534991 -0.0091848599343180865 0 -0.0048054416605725877 -0.010381281038069415 0 -0.0058715066190054219 -0.011454126286833887 0 -0.006070962152939295 -0.01080788909164499 0 -0.0071292123996862054 -0.012502693593631004 0 -0.0047131536306035029 -0.0096387052736691247 0 -0.006070962152939295 -0.01080788909164499 0 -0.0052125891550884066 -0.0095050378478152165 0 -0.0047131536306035029 -0.0096387052736691247 0 -0.0058715066190054219 -0.011454126286833887 0 -0.006070962152939295 -0.01080788909164499 0 -0.0071292123996862054 -0.012502693593631004 0 -0.0075050087648410157 -0.01168703179677444 0 -0.0085493693881802547 -0.013466138067520001 0 -0.006070962152939295 -0.01080788909164499 0 -0.0071292123996862054 -0.012502693593631004 0 -0.0075050087648410157 -0.01168703179677444 0 -0.0075050087648410157 -0.01168703179677444 0 -0.0085493693881802547 -0.013466138067520001 0 -0.0089992439935180878 -0.012634303344811987 0 -0.0075050087648410157 -0.01168703179677444 0 -0.0062870355268241336 -0.0099472257733811808 0 -0.00821170679673555 -0.01120804411684078 0 -0.0062870355268241336 -0.0099472257733811808 0 -0.0072021612383634092 -0.010097993447789371 0 -0.00821170679673555 -0.01120804411684078 0 -0.006070962152939295 -0.01080788909164499 0 -0.0075050087648410157 -0.01168703179677444 0 -0.0062870355268241336 -0.0099472257733811808 0 -0.0072021612383634092 -0.010097993447789371 0 -0.00821170679673555 -0.01120804411684078 0 -0.0078797248356335062 -0.0099975811215604355 0 -0.006070962152939295 -0.01080788909164499 0 -0.0062870355268241336 -0.0099472257733811808 0 -0.0052125891550884066 -0.0095050378478152165 0 -0.0062870355268241336 -0.0099472257733811808 0 -0.0052125891550884066 -0.0095050378478152165 0 -0.0048960656517602792 -0.0086744891630391105 0 -0.0042670682706657474 -0.0085181770551883192 0 -0.0052125891550884066 -0.0095050378478152165 0 -0.0048960656517602792 -0.0086744891630391105 0 -0.0062870355268241336 -0.0099472257733811808 0 -0.0048960656517602792 -0.0086744891630391105 0 -0.0051159923370364332 -0.0081843004472806763 0 -0.0048960656517602792 -0.0086744891630391105 0 -0.0051159923370364332 -0.0081843004472806763 0 -0.0038577367542943896 -0.0074392427106809191 0 -0.0051159923370364332 -0.0081843004472806763 0 -0.0038684513876899702 -0.0068437144481373483 0 -0.0038577367542943896 -0.0074392427106809191 0 -0.0062870355268241336 -0.0099472257733811808 0 -0.0051159923370364332 -0.0081843004472806763 0 -0.0064534817604631669 -0.0091339688320599757 0 -0.0072021612383634092 -0.010097993447789371 0 -0.0064534817604631669 -0.0091339688320599757 0 -0.0078797248356335062 -0.0099975811215604355 0 -0.0062870355268241336 -0.0099472257733811808 0 -0.0072021612383634092 -0.010097993447789371 0 -0.0064534817604631669 -0.0091339688320599757 0 -0.0051159923370364332 -0.0081843004472806763 0 -0.0064534817604631669 -0.0091339688320599757 0 -0.006110675932286749 -0.0083111398452201061 0 -0.0064534817604631669 -0.0091339688320599757 0 -0.0078797248356335062 -0.0099975811215604355 0 -0.0077168806256334294 -0.0092089658813218345 0 -0.0064534817604631669 -0.0091339688320599757 0 -0.006110675932286749 -0.0083111398452201061 0 -0.0077168806256334294 -0.0092089658813218345 0 -0.006110675932286749 -0.0083111398452201061 0 -0.0062748045779502173 -0.0078197537093966929 0 -0.0077168806256334294 -0.0092089658813218345 0 -0.006110675932286749 -0.0083111398452201061 0 -0.0062748045779502173 -0.0078197537093966929 0 -0.0048069378990543317 -0.007077627094378299 0 -0.0062748045779502173 -0.0078197537093966929 0 -0.0048069378990543317 -0.007077627094378299 0 -0.0052366099195842479 -0.0066358992687037838 0 -0.0062748045779502173 -0.0078197537093966929 0 -0.0080954284603279511 -0.0085478758493110051 0 -0.0065824755251549126 -0.0073619444533023024 0 -0.0062748045779502173 -0.0078197537093966929 0 -0.0065824755251549126 -0.0073619444533023024 0 -0.0052366099195842479 -0.0066358992687037838 0 -0.0051159923370364332 -0.0081843004472806763 0 -0.0048069378990543317 -0.007077627094378299 0 -0.0038684513876899702 -0.0068437144481373483 0 -0.0051159923370364332 -0.0081843004472806763 0 -0.006110675932286749 -0.0083111398452201061 0 -0.0048069378990543317 -0.007077627094378299 0 -0.0048069378990543317 -0.007077627094378299 0 -0.0036567498291047492 -0.0060110603063895556 0 -0.0038684513876899702 -0.0068437144481373483 0 -0.0048069378990543317 -0.007077627094378299 0 -0.0036567498291047492 -0.0060110603063895556 0 -0.0037911722237005288 -0.0056321311264884702 0 -0.0036567498291047492 -0.0060110603063895556 0 -0.0038684513876899702 -0.0068437144481373483 0 -0.0029712145824504379 -0.0057986682283887444 0 -0.0036567498291047492 -0.0060110603063895556 0 -0.0029712145824504379 -0.0057986682283887444 0 -0.002862977218389488 -0.0051777188232065043 0 -0.0038684513876899702 -0.0068437144481373483 0 -0.0029712145824504379 -0.0057986682283887444 0 -0.0031702977247756873 -0.0065107802105580587 0 -0.0029712145824504379 -0.0057986682283887444 0 -0.0024188968201317414 -0.0056056701379957738 0 -0.0031702977247756873 -0.0065107802105580587 0 -0.0029712145824504379 -0.0057986682283887444 0 -0.0022861632010698343 -0.0048740597486587271 0 -0.002862977218389488 -0.0051777188232065043 0 -0.0029712145824504379 -0.0057986682283887444 0 -0.0024188968201317414 -0.0056056701379957738 0 -0.0022861632010698343 -0.0048740597486587271 0 -0.0018249589406606906 -0.004517359178935771 0 -0.0024188968201317414 -0.0056056701379957738 0 -0.0022861632010698343 -0.0048740597486587271 0 -0.0018748351794167541 -0.0050238513894364633 0 -0.0024188968201317414 -0.0056056701379957738 0 -0.0023157985568942377 -0.0058522142760484286 0 -0.0018249589406606906 -0.004517359178935771 0 -0.0018748351794167541 -0.0050238513894364633 0 -0.0024188968201317414 -0.0056056701379957738 0 -0.0024188968201317414 -0.0056056701379957738 0 -0.0029757795005797292 -0.0067526044006596371 0 -0.0031702977247756873 -0.0065107802105580587 0 -0.0024188968201317414 -0.0056056701379957738 0 -0.0023157985568942377 -0.0058522142760484286 0 -0.0029757795005797292 -0.0067526044006596371 0 -0.0025516252030087783 -0.0065621789162648948 0 -0.0023157985568942377 -0.0058522142760484286 0 -0.0029757795005797292 -0.0067526044006596371 0 -0.0025516252030087783 -0.0065621789162648948 0 -0.003445577227407441 -0.007613616604936064 0 -0.0029757795005797292 -0.0067526044006596371 0 -0.003445577227407441 -0.007613616604936064 0 -0.0029757795005797292 -0.0067526044006596371 0 -0.0038577367542943896 -0.0074392427106809191 0 -0.0042670682706657474 -0.0085181770551883192 0 -0.003445577227407441 -0.007613616604936064 0 -0.0038577367542943896 -0.0074392427106809191 0 -0.0042670682706657474 -0.0085181770551883192 0 -0.0048960656517602792 -0.0086744891630391105 0 -0.0038577367542943896 -0.0074392427106809191 0 -0.0038684513876899702 -0.0068437144481373483 0 -0.0038577367542943896 -0.0074392427106809191 0 -0.0031702977247756873 -0.0065107802105580587 0 -0.0029757795005797292 -0.0067526044006596371 0 -0.0038577367542943896 -0.0074392427106809191 0 -0.0031702977247756873 -0.0065107802105580587 0 -0.016035249242521275 -0.013820050647956569 0 -0.01475707236622247 -0.013353614678968343 0 -0.016020695209455746 -0.012549272203785241 0 -0.01475707236622247 -0.013353614678968343 0 -0.014750501782845407 -0.014637078781214596 0 -0.013373259910629091 -0.013401612652046003 0 -0.016035249242521275 -0.013820050647956569 0 -0.016157903794041861 -0.015181995463660041 0 -0.014750501782845407 -0.014637078781214596 0 -0.016035249242521275 -0.013820050647956569 0 -0.01475707236622247 -0.013353614678968343 0 -0.014750501782845407 -0.014637078781214596 0 -0.016157903794041861 -0.015181995463660041 0 -0.015520013691879476 -0.015648734304335086 0 -0.014750501782845407 -0.014637078781214596 0 -0.016157903794041861 -0.015181995463660041 0 -0.016312720644238433 -0.016623814374582793 0 -0.015520013691879476 -0.015648734304335086 0 -0.016312720644238433 -0.016623814374582793 0 -0.015520013691879476 -0.015648734304335086 0 -0.014856890802427223 -0.016153607645415114 0 -0.015520013691879476 -0.015648734304335086 0 -0.014856890802427223 -0.016153607645415114 0 -0.014750501782845407 -0.014637078781214596 0 -0.014856890802427223 -0.016153607645415114 0 -0.014750501782845407 -0.014637078781214596 0 -0.013119063837037327 -0.014331421497753764 0 -0.014750501782845407 -0.014637078781214596 0 -0.013119063837037327 -0.014331421497753764 0 -0.013373259910629091 -0.013401612652046003 0 -0.014856890802427223 -0.016153607645415114 0 -0.013318619472219828 -0.015638504074966132 0 -0.013119063837037327 -0.014331421497753764 0 -0.013318619472219828 -0.015638504074966132 0 -0.013119063837037327 -0.014331421497753764 0 -0.011712642062190123 -0.015038368828981005 0 -0.013119063837037327 -0.014331421497753764 0 -0.013373259910629091 -0.013401612652046003 0 -0.011611598389069716 -0.013220755274537121 0 -0.013373259910629091 -0.013401612652046003 0 -0.01201868222519298 -0.012416915138609954 0 -0.011611598389069716 -0.013220755274537121 0 -0.01475707236622247 -0.013353614678968343 0 -0.013373259910629091 -0.013401612652046003 0 -0.013109045312520258 -0.012334608736007171 0 -0.01475707236622247 -0.013353614678968343 0 -0.013109045312520258 -0.012334608736007171 0 -0.01419897214951356 -0.012118710301361099 0 -0.013109045312520258 -0.012334608736007171 0 -0.01201868222519298 -0.012416915138609954 0 -0.011335838324345593 -0.011309916516153068 0 -0.013373259910629091 -0.013401612652046003 0 -0.013109045312520258 -0.012334608736007171 0 -0.01201868222519298 -0.012416915138609954 0 -0.01201868222519298 -0.012416915138609954 0 -0.010784557817434351 -0.011937728317755608 0 -0.011335838324345593 -0.011309916516153068 0 -0.010784557817434351 -0.011937728317755608 0 -0.011611598389069716 -0.013220755274537121 0 -0.0096819567602330955 -0.012035624934265033 0 -0.01201868222519298 -0.012416915138609954 0 -0.010784557817434351 -0.011937728317755608 0 -0.011611598389069716 -0.013220755274537121 0 -0.011611598389069716 -0.013220755274537121 0 -0.011712642062190123 -0.015038368828981005 0 -0.010408296146218113 -0.013435668815770784 0 -0.013119063837037327 -0.014331421497753764 0 -0.011611598389069716 -0.013220755274537121 0 -0.011712642062190123 -0.015038368828981005 0 -0.011712642062190123 -0.015038368828981005 0 -0.010408296146218113 -0.013435668815770784 0 -0.010093617829485611 -0.014324369590598478 0 -0.011611598389069716 -0.013220755274537121 0 -0.010408296146218113 -0.013435668815770784 0 -0.0096819567602330955 -0.012035624934265033 0 -0.010408296146218113 -0.013435668815770784 0 -0.0089992439935180878 -0.012634303344811987 0 -0.0096819567602330955 -0.012035624934265033 0 -0.010408296146218113 -0.013435668815770784 0 -0.010093617829485611 -0.014324369590598478 0 -0.0089992439935180878 -0.012634303344811987 0 -0.010093617829485611 -0.014324369590598478 0 -0.0085493693881802547 -0.013466138067520001 0 -0.0089992439935180878 -0.012634303344811987 0 -0.0075050087648410157 -0.01168703179677444 0 -0.0089992439935180878 -0.012634303344811987 0 -0.00821170679673555 -0.01120804411684078 0 -0.0089992439935180878 -0.012634303344811987 0 -0.00821170679673555 -0.01120804411684078 0 -0.0096819567602330955 -0.012035624934265033 0 -0.010784557817434351 -0.011937728317755608 0 -0.0096819567602330955 -0.012035624934265033 0 -0.0092800861445312705 -0.01070218636772906 0 -0.00821170679673555 -0.01120804411684078 0 -0.0096819567602330955 -0.012035624934265033 0 -0.0092800861445312705 -0.01070218636772906 0 -0.00821170679673555 -0.01120804411684078 0 -0.0078797248356335062 -0.0099975811215604355 0 -0.0092800861445312705 -0.01070218636772906 0 -0.0078797248356335062 -0.0099975811215604355 0 -0.0092800861445312705 -0.01070218636772906 0 -0.0077168806256334294 -0.0092089658813218345 0 -0.0092800861445312705 -0.01070218636772906 0 -0.0077168806256334294 -0.0092089658813218345 0 -0.009856016553370239 -0.010122828875806913 0 -0.0062748045779502173 -0.0078197537093966929 0 -0.0077168806256334294 -0.0092089658813218345 0 -0.0080954284603279511 -0.0085478758493110051 0 -0.0080954284603279511 -0.0085478758493110051 0 -0.0097253488743499917 -0.0092272405167640632 0 -0.0092701328346471105 -0.0081989025315221328 0 -0.0080954284603279511 -0.0085478758493110051 0 -0.0097253488743499917 -0.0092272405167640632 0 -0.009856016553370239 -0.010122828875806913 0 -0.0077168806256334294 -0.0092089658813218345 0 -0.0080954284603279511 -0.0085478758493110051 0 -0.009856016553370239 -0.010122828875806913 0 -0.0097253488743499917 -0.0092272405167640632 0 -0.0116544070316024 -0.010262327019250828 0 -0.009856016553370239 -0.010122828875806913 0 -0.0097253488743499917 -0.0092272405167640632 0 -0.011132494332718911 -0.0091634382421039232 0 -0.0092701328346471105 -0.0081989025315221328 0 -0.0097253488743499917 -0.0092272405167640632 0 -0.011132494332718911 -0.0091634382421039232 0 -0.0116544070316024 -0.010262327019250828 0 -0.0116544070316024 -0.010262327019250828 0 -0.009856016553370239 -0.010122828875806913 0 -0.011335838324345593 -0.011309916516153068 0 -0.0116544070316024 -0.010262327019250828 0 -0.011335838324345593 -0.011309916516153068 0 -0.012782916454345367 -0.011364739132512068 0 -0.0092800861445312705 -0.01070218636772906 0 -0.009856016553370239 -0.010122828875806913 0 -0.011335838324345593 -0.011309916516153068 0 -0.010784557817434351 -0.011937728317755608 0 -0.0092800861445312705 -0.01070218636772906 0 -0.011335838324345593 -0.011309916516153068 0 -0.013109045312520258 -0.012334608736007171 0 -0.011335838324345593 -0.011309916516153068 0 -0.012782916454345367 -0.011364739132512068 0 -0.013109045312520258 -0.012334608736007171 0 -0.012782916454345367 -0.011364739132512068 0 -0.01419897214951356 -0.012118710301361099 0 -0.012782916454345367 -0.011364739132512068 0 -0.013525741770348255 -0.010697500418823221 0 -0.01419897214951356 -0.012118710301361099 0 -0.0116544070316024 -0.010262327019250828 0 -0.012782916454345367 -0.011364739132512068 0 -0.013525741770348255 -0.010697500418823221 0 -0.0116544070316024 -0.010262327019250828 0 -0.013194001458716274 -0.0095416878948510978 0 -0.013525741770348255 -0.010697500418823221 0 -0.011132494332718911 -0.0091634382421039232 0 -0.0116544070316024 -0.010262327019250828 0 -0.013194001458716274 -0.0095416878948510978 0 -0.013194001458716274 -0.0095416878948510978 0 -0.013525741770348255 -0.010697500418823221 0 -0.014962009960579755 -0.010316541657697931 0 -0.013525741770348255 -0.010697500418823221 0 -0.014962009960579755 -0.010316541657697931 0 -0.01500186358976692 -0.011408898303916188 0 -0.013194001458716274 -0.0095416878948510978 0 -0.014962009960579755 -0.010316541657697931 0 -0.01504209247961028 -0.0090775958944547368 0 -0.014962009960579755 -0.010316541657697931 0 -0.016143562820497285 -0.01132110259119682 0 -0.016486487643596386 -0.010051925952636175 0 -0.014962009960579755 -0.010316541657697931 0 -0.016143562820497285 -0.01132110259119682 0 -0.01500186358976692 -0.011408898303916188 0 -0.016143562820497285 -0.01132110259119682 0 -0.01500186358976692 -0.011408898303916188 0 -0.016020695209455746 -0.012549272203785241 0 -0.013525741770348255 -0.010697500418823221 0 -0.01500186358976692 -0.011408898303916188 0 -0.01419897214951356 -0.012118710301361099 0 -0.01500186358976692 -0.011408898303916188 0 -0.01419897214951356 -0.012118710301361099 0 -0.016020695209455746 -0.012549272203785241 0 -0.01475707236622247 -0.013353614678968343 0 -0.01419897214951356 -0.012118710301361099 0 -0.016020695209455746 -0.012549272203785241 0 -0.017918964550766036 -0.0069366790110801302 0 -0.016614836188004127 -0.0064301479711750091 0 -0.015694942348581618 -0.007659395768454964 0 -0.017918964550766036 -0.0069366790110801302 0 -0.016614836188004127 -0.0064301479711750091 0 -0.019101134456831908 -0.0049063615338931351 0 -0.016614836188004127 -0.0064301479711750091 0 -0.015694942348581618 -0.007659395768454964 0 -0.014281969088047552 -0.0064218982029998423 0 -0.016614836188004127 -0.0064301479711750091 0 -0.014281969088047552 -0.0064218982029998423 0 -0.016076974918952644 -0.0049477082490321121 0 -0.017918964550766036 -0.0069366790110801302 0 -0.015694942348581618 -0.007659395768454964 0 -0.017062122081379024 -0.0086303450589811578 0 -0.017062122081379024 -0.0086303450589811578 0 -0.016486487643596386 -0.010051925952636175 0 -0.01504209247961028 -0.0090775958944547368 0 -0.014962009960579755 -0.010316541657697931 0 -0.016486487643596386 -0.010051925952636175 0 -0.01504209247961028 -0.0090775958944547368 0 -0.015694942348581618 -0.007659395768454964 0 -0.017062122081379024 -0.0086303450589811578 0 -0.01504209247961028 -0.0090775958944547368 0 -0.015694942348581618 -0.007659395768454964 0 -0.01504209247961028 -0.0090775958944547368 0 -0.013046506250203611 -0.0078490303876265106 0 -0.013194001458716274 -0.0095416878948510978 0 -0.011992703860102087 -0.0086074741554617671 0 -0.013046506250203611 -0.0078490303876265106 0 -0.013194001458716274 -0.0095416878948510978 0 -0.01504209247961028 -0.0090775958944547368 0 -0.013046506250203611 -0.0078490303876265106 0 -0.011132494332718911 -0.0091634382421039232 0 -0.013194001458716274 -0.0095416878948510978 0 -0.011992703860102087 -0.0086074741554617671 0 -0.013046506250203611 -0.0078490303876265106 0 -0.014281969088047552 -0.0064218982029998423 0 -0.012203751417356299 -0.0061381838422389307 0 -0.015694942348581618 -0.007659395768454964 0 -0.013046506250203611 -0.0078490303876265106 0 -0.014281969088047552 -0.0064218982029998423 0 -0.014281969088047552 -0.0064218982029998423 0 -0.012203751417356299 -0.0061381838422389307 0 -0.013317086360212445 -0.0047107518703278861 0 -0.012203751417356299 -0.0061381838422389307 0 -0.010336074417132591 -0.0066509098188616738 0 -0.0099949895708084206 -0.0045729987735681045 0 -0.010336074417132591 -0.0066509098188616738 0 -0.0084695381145959529 -0.0056465095669210943 0 -0.0099949895708084206 -0.0045729987735681045 0 -0.010336074417132591 -0.0066509098188616738 0 -0.0088507523908130659 -0.0070082688904081133 0 -0.0084695381145959529 -0.0056465095669210943 0 -0.013046506250203611 -0.0078490303876265106 0 -0.012203751417356299 -0.0061381838422389307 0 -0.010336074417132591 -0.0066509098188616738 0 -0.013046506250203611 -0.0078490303876265106 0 -0.010336074417132591 -0.0066509098188616738 0 -0.010576646409629371 -0.0078206580860392168 0 -0.011992703860102087 -0.0086074741554617671 0 -0.013046506250203611 -0.0078490303876265106 0 -0.010576646409629371 -0.0078206580860392168 0 -0.011132494332718911 -0.0091634382421039232 0 -0.011992703860102087 -0.0086074741554617671 0 -0.010576646409629371 -0.0078206580860392168 0 -0.011132494332718911 -0.0091634382421039232 0 -0.010576646409629371 -0.0078206580860392168 0 -0.0092701328346471105 -0.0081989025315221328 0 -0.010576646409629371 -0.0078206580860392168 0 -0.0092701328346471105 -0.0081989025315221328 0 -0.0088507523908130659 -0.0070082688904081133 0 -0.010336074417132591 -0.0066509098188616738 0 -0.010576646409629371 -0.0078206580860392168 0 -0.0088507523908130659 -0.0070082688904081133 0 -0.0092701328346471105 -0.0081989025315221328 0 -0.0088507523908130659 -0.0070082688904081133 0 -0.0076060691615412344 -0.0072990201618154523 0 -0.0088507523908130659 -0.0070082688904081133 0 -0.0076060691615412344 -0.0072990201618154523 0 -0.0070868875225450273 -0.0059906573549775672 0 -0.0080954284603279511 -0.0085478758493110051 0 -0.0092701328346471105 -0.0081989025315221328 0 -0.0076060691615412344 -0.0072990201618154523 0 -0.0076060691615412344 -0.0072990201618154523 0 -0.0065824755251549126 -0.0073619444533023024 0 -0.0060385441205663979 -0.0063500633996137271 0 -0.0080954284603279511 -0.0085478758493110051 0 -0.0076060691615412344 -0.0072990201618154523 0 -0.0065824755251549126 -0.0073619444533023024 0 -0.0076060691615412344 -0.0072990201618154523 0 -0.0070868875225450273 -0.0059906573549775672 0 -0.0060385441205663979 -0.0063500633996137271 0 -0.0070868875225450273 -0.0059906573549775672 0 -0.0060385441205663979 -0.0063500633996137271 0 -0.0051513065300819224 -0.004881475249737679 0 -0.0088507523908130659 -0.0070082688904081133 0 -0.0070868875225450273 -0.0059906573549775672 0 -0.0084695381145959529 -0.0056465095669210943 0 -0.0070868875225450273 -0.0059906573549775672 0 -0.0084695381145959529 -0.0056465095669210943 0 -0.0067310618440279491 -0.0044457184062554481 0 -0.0070868875225450273 -0.0059906573549775672 0 -0.0067310618440279491 -0.0044457184062554481 0 -0.0051513065300819224 -0.004881475249737679 0 -0.0067310618440279491 -0.0044457184062554481 0 -0.0054618574052045128 -0.0028777220610021622 0 -0.0041983920376038554 -0.0033859110556174019 0 -0.0067310618440279491 -0.0044457184062554481 0 -0.0051513065300819224 -0.004881475249737679 0 -0.0041983920376038554 -0.0033859110556174019 0 -0.0067310618440279491 -0.0044457184062554481 0 -0.0076153758632601836 -0.0030588413231676216 0 -0.0099949895708084206 -0.0045729987735681045 0 -0.0084695381145959529 -0.0056465095669210943 0 -0.0067310618440279491 -0.0044457184062554481 0 -0.0099949895708084206 -0.0045729987735681045 0 -0.0067310618440279491 -0.0044457184062554481 0 -0.0076153758632601836 -0.0030588413231676216 0 -0.0054618574052045128 -0.0028777220610021622 0 -0.0054618574052045128 -0.0028777220610021622 0 -0.0061142999303820068 -0.0010843227535837006 0 -0.0033734218333117782 -0.0016548679612640004 0 -0.0061142999303820068 -0.0010843227535837006 0 -0.0033734218333117782 -0.0016548679612640004 0 -0.0036093562503161695 0.0015262375696586373 0 -0.0061142999303820068 -0.0010843227535837006 0 -0.0061411826731795332 0.0016420298519987081 0 -0.0036093562503161695 0.0015262375696586373 0 -0.0061142999303820068 -0.0010843227535837006 0 -0.0088998983411565612 0.0015959075231072777 0 -0.0061411826731795332 0.0016420298519987081 0 -0.0076153758632601836 -0.0030588413231676216 0 -0.0061142999303820068 -0.0010843227535837006 0 -0.010084846490659457 -0.0016443413091837499 0 -0.0076153758632601836 -0.0030588413231676216 0 -0.0054618574052045128 -0.0028777220610021622 0 -0.0061142999303820068 -0.0010843227535837006 0 -0.0061142999303820068 -0.0010843227535837006 0 -0.010084846490659457 -0.0016443413091837499 0 -0.0088998983411565612 0.0015959075231072777 0 -0.010084846490659457 -0.0016443413091837499 0 -0.012878276138335518 0.0012423616858549995 0 -0.0088998983411565612 0.0015959075231072777 0 -0.010084846490659457 -0.0016443413091837499 0 -0.01262402962910263 -0.002671086812269032 0 -0.012878276138335518 0.0012423616858549995 0 -0.010084846490659457 -0.0016443413091837499 0 -0.0099949895708084206 -0.0045729987735681045 0 -0.01262402962910263 -0.002671086812269032 0 -0.0099949895708084206 -0.0045729987735681045 0 -0.013317086360212445 -0.0047107518703278861 0 -0.01262402962910263 -0.002671086812269032 0 -0.0076153758632601836 -0.0030588413231676216 0 -0.010084846490659457 -0.0016443413091837499 0 -0.0099949895708084206 -0.0045729987735681045 0 -0.012203751417356299 -0.0061381838422389307 0 -0.0099949895708084206 -0.0045729987735681045 0 -0.013317086360212445 -0.0047107518703278861 0 -0.014281969088047552 -0.0064218982029998423 0 -0.013317086360212445 -0.0047107518703278861 0 -0.016076974918952644 -0.0049477082490321121 0 -0.013317086360212445 -0.0047107518703278861 0 -0.015210372146497429 -0.0029405156702189527 0 -0.016076974918952644 -0.0049477082490321121 0 -0.013317086360212445 -0.0047107518703278861 0 -0.015210372146497429 -0.0029405156702189527 0 -0.01262402962910263 -0.002671086812269032 0 -0.015210372146497429 -0.0029405156702189527 0 -0.01262402962910263 -0.002671086812269032 0 -0.015302052627321719 -0.00069216529675090381 0 -0.01262402962910263 -0.002671086812269032 0 -0.015302052627321719 -0.00069216529675090381 0 -0.012878276138335518 0.0012423616858549995 0 -0.015302052627321719 -0.00069216529675090381 0 -0.01809098905116998 -0.00093731827677986576 0 -0.017948222598183187 0.0026752912204660042 0 -0.015302052627321719 -0.00069216529675090381 0 -0.017948222598183187 0.0026752912204660042 0 -0.012878276138335518 0.0012423616858549995 0 -0.015210372146497429 -0.0029405156702189527 0 -0.015302052627321719 -0.00069216529675090381 0 -0.01809098905116998 -0.00093731827677986576 0 -0.015210372146497429 -0.0029405156702189527 0 -0.01809098905116998 -0.00093731827677986576 0 -0.017830294762083334 -0.0033246861652970819 0 -0.01809098905116998 -0.00093731827677986576 0 -0.022074599163411254 0.0010974603904561988 0 -0.017948222598183187 0.0026752912204660042 0 -0.01809098905116998 -0.00093731827677986576 0 -0.020522674950620781 -0.0022477811467145198 0 -0.022074599163411254 0.0010974603904561988 0 -0.01809098905116998 -0.00093731827677986576 0 -0.020522674950620781 -0.0022477811467145198 0 -0.017830294762083334 -0.0033246861652970819 0 -0.020522674950620781 -0.0022477811467145198 0 -0.017830294762083334 -0.0033246861652970819 0 -0.019101134456831908 -0.0049063615338931351 0 -0.017830294762083334 -0.0033246861652970819 0 -0.016076974918952644 -0.0049477082490321121 0 -0.019101134456831908 -0.0049063615338931351 0 -0.015210372146497429 -0.0029405156702189527 0 -0.017830294762083334 -0.0033246861652970819 0 -0.016076974918952644 -0.0049477082490321121 0 -0.016614836188004127 -0.0064301479711750091 0 -0.016076974918952644 -0.0049477082490321121 0 -0.019101134456831908 -0.0049063615338931351 0 -0.002055400054013301 -0.0036458387208580319 0 -0.0026347522472793422 -0.0043116177450590095 0 -0.0020774403308063106 -0.0033018736487012913 0 -0.0026347522472793422 -0.0043116177450590095 0 -0.0020774403308063106 -0.0033018736487012913 0 -0.0025228858417551043 -0.0036036489687868265 0 -0.0020774403308063106 -0.0033018736487012913 0 -0.0025228858417551043 -0.0036036489687868265 0 -0.0019170271542965653 -0.0026279391245246347 0 -0.002055400054013301 -0.0036458387208580319 0 -0.0020774403308063106 -0.0033018736487012913 0 -0.001684358831010014 -0.0028106047055548012 0 -0.001684358831010014 -0.0028106047055548012 0 -0.0016603975724910442 -0.003283904533592015 0 -0.0014476625164024271 -0.0025126325771966836 0 -0.002055400054013301 -0.0036458387208580319 0 -0.001684358831010014 -0.0028106047055548012 0 -0.0016603975724910442 -0.003283904533592015 0 -0.0013935946736417229 -0.0028131386482284672 0 -0.0016603975724910442 -0.003283904533592015 0 -0.0014476625164024271 -0.0025126325771966836 0 -0.002055400054013301 -0.0036458387208580319 0 -0.0016603975724910442 -0.003283904533592015 0 -0.0022322865295740352 -0.0043152487996973993 0 -0.0016603975724910442 -0.003283904533592015 0 -0.0017364317503497952 -0.003942476928221964 0 -0.0022322865295740352 -0.0043152487996973993 0 -0.0014265480523669011 -0.0032811674526205528 0 -0.0016603975724910442 -0.003283904533592015 0 -0.0017364317503497952 -0.003942476928221964 0 -0.0018249589406606906 -0.004517359178935771 0 -0.0017364317503497952 -0.003942476928221964 0 -0.0022861632010698343 -0.0048740597486587271 0 -0.0017364317503497952 -0.003942476928221964 0 -0.0022861632010698343 -0.0048740597486587271 0 -0.0022322865295740352 -0.0043152487996973993 0 -0.0022861632010698343 -0.0048740597486587271 0 -0.0022322865295740352 -0.0043152487996973993 0 -0.002862977218389488 -0.0051777188232065043 0 -0.002055400054013301 -0.0036458387208580319 0 -0.0026347522472793422 -0.0043116177450590095 0 -0.0022322865295740352 -0.0043152487996973993 0 -0.0026347522472793422 -0.0043116177450590095 0 -0.0022322865295740352 -0.0043152487996973993 0 -0.002862977218389488 -0.0051777188232065043 0 -0.0026347522472793422 -0.0043116177450590095 0 -0.002862977218389488 -0.0051777188232065043 0 -0.0037911722237005288 -0.0056321311264884702 0 -0.0036567498291047492 -0.0060110603063895556 0 -0.002862977218389488 -0.0051777188232065043 0 -0.0037911722237005288 -0.0056321311264884702 0 -0.0048069378990543317 -0.007077627094378299 0 -0.0037911722237005288 -0.0056321311264884702 0 -0.0052366099195842479 -0.0066358992687037838 0 -0.0037911722237005288 -0.0056321311264884702 0 -0.0045400187928181261 -0.0054443968713376017 0 -0.0033792117966304474 -0.004680482789094555 0 -0.0037911722237005288 -0.0056321311264884702 0 -0.0052366099195842479 -0.0066358992687037838 0 -0.0045400187928181261 -0.0054443968713376017 0 -0.0026347522472793422 -0.0043116177450590095 0 -0.0037911722237005288 -0.0056321311264884702 0 -0.0033792117966304474 -0.004680482789094555 0 -0.0065824755251549126 -0.0073619444533023024 0 -0.0052366099195842479 -0.0066358992687037838 0 -0.0060385441205663979 -0.0063500633996137271 0 -0.0052366099195842479 -0.0066358992687037838 0 -0.0060385441205663979 -0.0063500633996137271 0 -0.0045400187928181261 -0.0054443968713376017 0 -0.0060385441205663979 -0.0063500633996137271 0 -0.0045400187928181261 -0.0054443968713376017 0 -0.0051513065300819224 -0.004881475249737679 0 -0.0045400187928181261 -0.0054443968713376017 0 -0.0034454299490895802 -0.0039856972360633337 0 -0.0051513065300819224 -0.004881475249737679 0 -0.0034454299490895802 -0.0039856972360633337 0 -0.0051513065300819224 -0.004881475249737679 0 -0.0041983920376038554 -0.0033859110556174019 0 -0.0026347522472793422 -0.0043116177450590095 0 -0.0033792117966304474 -0.004680482789094555 0 -0.0025228858417551043 -0.0036036489687868265 0 -0.0045400187928181261 -0.0054443968713376017 0 -0.0034454299490895802 -0.0039856972360633337 0 -0.0033792117966304474 -0.004680482789094555 0 -0.0034454299490895802 -0.0039856972360633337 0 -0.0033792117966304474 -0.004680482789094555 0 -0.0025228858417551043 -0.0036036489687868265 0 -0.0034454299490895802 -0.0039856972360633337 0 -0.0025228858417551043 -0.0036036489687868265 0 -0.00228395717256248 -0.0028092929015333386 0 -0.0025228858417551043 -0.0036036489687868265 0 -0.00228395717256248 -0.0028092929015333386 0 -0.0019170271542965653 -0.0026279391245246347 0 -0.0034454299490895802 -0.0039856972360633337 0 -0.00228395717256248 -0.0028092929015333386 0 -0.0021542614060874061 -0.0020940643833936177 0 -0.00228395717256248 -0.0028092929015333386 0 -0.0021542614060874061 -0.0020940643833936177 0 -0.0016123476576340517 -0.0018557580846944109 0 -0.0016123476576340517 -0.0018557580846944109 0 -0.0015403166624563792 -0.0019307865708977163 0 -0.0019170271542965653 -0.0026279391245246347 0 -0.00228395717256248 -0.0028092929015333386 0 -0.0016123476576340517 -0.0018557580846944109 0 -0.0019170271542965653 -0.0026279391245246347 0 -0.0034454299490895802 -0.0039856972360633337 0 -0.0041983920376038554 -0.0033859110556174019 0 -0.0021542614060874061 -0.0020940643833936177 0 -0.0041983920376038554 -0.0033859110556174019 0 -0.0021542614060874061 -0.0020940643833936177 0 -0.0033734218333117782 -0.0016548679612640004 0 -0.0054618574052045128 -0.0028777220610021622 0 -0.0041983920376038554 -0.0033859110556174019 0 -0.0033734218333117782 -0.0016548679612640004 0 -0.0021542614060874061 -0.0020940643833936177 0 -0.0033734218333117782 -0.0016548679612640004 0 -0.00036480902201968958 -3.1503698457708465e-05 0 -0.0033734218333117782 -0.0016548679612640004 0 -0.00036480902201968958 -3.1503698457708465e-05 0 -0.0036093562503161695 0.0015262375696586373 0 -0.0021542614060874061 -0.0020940643833936177 0 -0.0011440179678242309 -0.00088855909691691896 0 -0.00036480902201968958 -3.1503698457708465e-05 0 -0.0016123476576340517 -0.0018557580846944109 0 -0.0011440179678242309 -0.00088855909691691896 0 -0.00135027306134345 -0.001419252202503438 0 -0.0016123476576340517 -0.0018557580846944109 0 -0.00135027306134345 -0.001419252202503438 0 -0.0015403166624563792 -0.0019307865708977163 0 -0.0021542614060874061 -0.0020940643833936177 0 -0.0016123476576340517 -0.0018557580846944109 0 -0.0011440179678242309 -0.00088855909691691896 0 -0.0011440179678242309 -0.00088855909691691896 0 -0.00135027306134345 -0.001419252202503438 0 -0.0012158186543271172 -0.0014656708976212868 0 -0.00135027306134345 -0.001419252202503438 0 -0.001292687840877978 -0.0017239278618999231 0 -0.0012158186543271172 -0.0014656708976212868 0 -0.00135027306134345 -0.001419252202503438 0 -0.0013950624656331398 -0.0016549292592097475 0 -0.001292687840877978 -0.0017239278618999231 0 -0.00135027306134345 -0.001419252202503438 0 -0.0013950624656331398 -0.0016549292592097475 0 -0.0015403166624563792 -0.0019307865708977163 0 -0.0015403166624563792 -0.0019307865708977163 0 -0.0016236419517523689 -0.0022977088025286987 0 -0.0019170271542965653 -0.0026279391245246347 0 -0.0013950624656331398 -0.0016549292592097475 0 -0.0015403166624563792 -0.0019307865708977163 0 -0.0016236419517523689 -0.0022977088025286987 0 -0.0013950624656331398 -0.0016549292592097475 0 -0.0016236419517523689 -0.0022977088025286987 0 -0.0014377113451293545 -0.002049810729992062 0 -0.001684358831010014 -0.0028106047055548012 0 -0.0016236419517523689 -0.0022977088025286987 0 -0.0014377113451293545 -0.002049810729992062 0 -0.0020774403308063106 -0.0033018736487012913 0 -0.001684358831010014 -0.0028106047055548012 0 -0.0016236419517523689 -0.0022977088025286987 0 -0.0020774403308063106 -0.0033018736487012913 0 -0.0016236419517523689 -0.0022977088025286987 0 -0.0019170271542965653 -0.0026279391245246347 0 -0.001684358831010014 -0.0028106047055548012 0 -0.0014476625164024271 -0.0025126325771966836 0 -0.0014377113451293545 -0.002049810729992062 0 -0.0013510976133812192 -0.0019610846553679471 0 -0.0014476625164024271 -0.0025126325771966836 0 -0.0014377113451293545 -0.002049810729992062 0 -0.0013950624656331398 -0.0016549292592097475 0 -0.0013882434754576619 -0.0017549241155037031 0 -0.0013151969506646861 -0.0019182263773312291 0 -0.0013510976133812192 -0.0019610846553679471 0 -0.0013727082469470024 -0.0017725502406616726 0 -0.0013882434754576619 -0.0017549241155037031 0 -0.0013510976133812192 -0.0019610846553679471 0 -0.0014377113451293545 -0.002049810729992062 0 -0.0013882434754576619 -0.0017549241155037031 0 -0.0013950624656331398 -0.0016549292592097475 0 -0.0014377113451293545 -0.002049810729992062 0 -0.0013882434754576619 -0.0017549241155037031 0 -0.0013727082469470024 -0.0017725502406616726 0 -0.0013882434754576619 -0.0017549241155037031 0 -0.0013647310355894117 -0.0019132762767310916 0 -0.0013882434754576619 -0.0017549241155037031 0 -0.0013151969506646861 -0.0019182263773312291 0 -0.0013647310355894117 -0.0019132762767310916 0 -0.0013151969506646861 -0.0019182263773312291 0 -0.0013647310355894117 -0.0019132762767310916 0 -0.0012196342754480689 -0.0023540628543723984 0 -0.0013151969506646861 -0.0019182263773312291 0 -0.0012196342754480689 -0.0023540628543723984 0 -0.0010865554181263624 -0.0024461294434831001 0 -0.0013647310355894117 -0.0019132762767310916 0 -0.0013395510437178343 -0.002258201272483031 0 -0.0012196342754480689 -0.0023540628543723984 0 -0.0013395510437178343 -0.002258201272483031 0 -0.0012196342754480689 -0.0023540628543723984 0 -0.0010627999877887888 -0.002963964795984592 0 -0.0012196342754480689 -0.0023540628543723984 0 -0.0010627999877887888 -0.002963964795984592 0 -0.0010865554181263624 -0.0024461294434831001 0 -0.0013395510437178343 -0.002258201272483031 0 -0.0010627999877887888 -0.002963964795984592 0 -0.001321456952934905 -0.0026388499144435083 0 -0.00052651877499654515 -0.0031345666626687533 0 -8.9502812473194677e-05 -0.0039056476485118362 0 -0.00057695149523372818 -0.0034729920058196181 0 -0.0010865554181263624 -0.0024461294434831001 0 -0.00052651877499654515 -0.0031345666626687533 0 -0.00057695149523372818 -0.0034729920058196181 0 -0.0010627999877887888 -0.002963964795984592 0 -0.0010865554181263624 -0.0024461294434831001 0 -0.00057695149523372818 -0.0034729920058196181 0 -0.0010865554181263624 -0.0024461294434831001 0 -0.0010090560434041973 -0.0021358034848538423 0 -0.00052651877499654515 -0.0031345666626687533 0 -0.0013950624656331398 -0.0016549292592097475 0 -0.0013151969506646861 -0.0019182263773312291 0 -0.001292687840877978 -0.0017239278618999231 0 -0.0010865554181263624 -0.0024461294434831001 0 -0.001292687840877978 -0.0017239278618999231 0 -0.0010090560434041973 -0.0021358034848538423 0 -0.0013151969506646861 -0.0019182263773312291 0 -0.0010865554181263624 -0.0024461294434831001 0 -0.001292687840877978 -0.0017239278618999231 0 -0.001292687840877978 -0.0017239278618999231 0 -0.0012158186543271172 -0.0014656708976212868 0 -0.0010090560434041973 -0.0021358034848538423 0 -0.0011440179678242309 -0.00088855909691691896 0 -0.0012158186543271172 -0.0014656708976212868 0 -0.00091270080586950103 -0.0014928123697974811 0 -0.0012158186543271172 -0.0014656708976212868 0 -0.00091270080586950103 -0.0014928123697974811 0 -0.0010090560434041973 -0.0021358034848538423 0 -0.0011440179678242309 -0.00088855909691691896 0 -0.00091270080586950103 -0.0014928123697974811 0 -0.00036480902201968958 -3.1503698457708465e-05 0 -0.00091270080586950103 -0.0014928123697974811 0 0.00023915926700938316 -0.0024447104814144761 0 -0.00028082283615574178 -0.0028871158671773946 0 -0.00091270080586950103 -0.0014928123697974811 0 -0.0010090560434041973 -0.0021358034848538423 0 -0.00028082283615574178 -0.0028871158671773946 0 -0.00036480902201968958 -3.1503698457708465e-05 0 -0.001811751970629442 0.0060254434095382767 0 -0.0036093562503161695 0.0015262375696586373 0 -0.00091270080586950103 -0.0014928123697974811 0 -0.00036480902201968958 -3.1503698457708465e-05 0 0.00023915926700938316 -0.0024447104814144761 0 -0.11453864865856317 -0.023680305445714856 0 0.030149633452410868 0.020863268637185881 0 -0.00036480902201968958 -3.1503698457708465e-05 0 0.0022626173172623594 0.0062205799751705723 0 -0.001811751970629442 0.0060254434095382767 0 -0.001811751970629442 0.0060254434095382767 0 0.0041122782614112499 0.011669690342209315 0 -0.0022428205362911287 0.010601494056798324 0 0.030149633452410868 0.020863268637185881 0 -0.0088698339103509532 -0.0054644943917418615 0 0.00023915926700938316 -0.0024447104814144761 0 0.00063788018707571328 -0.0035430730473570982 0 -0.00028082283615574178 -0.0028871158671773946 0 0.0022626173172623594 0.0062205799751705723 0 -0.001811751970629442 0.0060254434095382767 0 0.0041122782614112499 0.011669690342209315 0 -0.0088698339103509532 -0.0054644943917418615 0 0.00095812071829570408 0.010896351616534187 0 0.00063788018707571328 -0.0035430730473570982 0 0.00028538503215840802 -0.003854991430339448 0 0.0010605541816736588 -0.0044411497383783577 0 0.0041122782614112499 0.011669690342209315 0 0.0013128095911912705 0.015064485771831322 0 -0.0022428205362911287 0.010601494056798324 0 -0.0010090560434041973 -0.0021358034848538423 0 -0.00028082283615574178 -0.0028871158671773946 0 -0.00052651877499654515 -0.0031345666626687533 0 0.00063788018707571328 -0.0035430730473570982 0 -0.00028082283615574178 -0.0028871158671773946 0 0.00028538503215840802 -0.003854991430339448 0 -0.00028082283615574178 -0.0028871158671773946 0 0.00028538503215840802 -0.003854991430339448 0 -0.00052651877499654515 -0.0031345666626687533 0 0.00028538503215840802 -0.003854991430339448 0 -0.00052651877499654515 -0.0031345666626687533 0 -8.9502812473194677e-05 -0.0039056476485118362 0 0.00028538503215840802 -0.003854991430339448 0 -8.9502812473194677e-05 -0.0039056476485118362 0 0.00061042766888141876 -0.0046923607387485975 0 0.00028538503215840802 -0.003854991430339448 0 0.00061042766888141876 -0.0046923607387485975 0 0.0010605541816736588 -0.0044411497383783577 0 0.00061042766888141876 -0.0046923607387485975 0 0.0010605541816736588 -0.0044411497383783577 0 0.0015225000809961737 -0.0053247075886246227 0 -8.9502812473194677e-05 -0.0039056476485118362 0 0.00061042766888141876 -0.0046923607387485975 0 -1.2607319644203501e-05 -0.0043732918936210596 0 0.0013128095911912705 0.015064485771831322 0 0.0023470164848657994 0.019017567587985909 0 -0.0026438887219529393 0.016482814139052209 0 0.0013128095911912705 0.015064485771831322 0 0.0057973406421712803 0.017581563257489437 0 0.0023470164848657994 0.019017567587985909 0 0.0041122782614112499 0.011669690342209315 0 0.0013128095911912705 0.015064485771831322 0 0.0057973406421712803 0.017581563257489437 0 0.00095812071829570408 0.010896351616534187 0 -0.0025452709472402282 0.0069300744153367212 0 0.0057973406421712803 0.017581563257489437 0 0.0023470164848657994 0.019017567587985909 0 0.0072321076530525111 0.02389925788528497 0 0.0023470164848657994 0.019017567587985909 0 0.0072321076530525111 0.02389925788528497 0 0.0003888301127395486 0.022275443690137856 0 0.0072321076530525111 0.02389925788528497 0 0.0026595230349516726 0.0268433907478739 0 0.0003888301127395486 0.022275443690137856 0 0.0072321076530525111 0.02389925788528497 0 0.0084924547306038413 0.030616946863466069 0 0.0026595230349516726 0.0268433907478739 0 0.0015225000809961737 -0.0053247075886246227 0 0.0020006149349691823 -0.0062664723381982406 0 0.001221957458835126 -0.00565161713096671 0 -0.0025452709472402282 0.0069300744153367212 0 -0.0029041863155144202 0.011166920752868794 0 0.0084924547306038413 0.030616946863466069 0 0.0026595230349516726 0.0268433907478739 0 0.0015462389627551897 0.031273875595275891 0 0.00061042766888141876 -0.0046923607387485975 0 0.00053313562836004218 -0.0051898796244818366 0 0.001221957458835126 -0.00565161713096671 0 0.00061042766888141876 -0.0046923607387485975 0 0.00053313562836004218 -0.0051898796244818366 0 -1.2607319644203501e-05 -0.0043732918936210596 0 0.00061042766888141876 -0.0046923607387485975 0 0.0015225000809961737 -0.0053247075886246227 0 0.001221957458835126 -0.00565161713096671 0 0.00053313562836004218 -0.0051898796244818366 0 0.001221957458835126 -0.00565161713096671 0 0.00073821937025130122 -0.0058073555899056271 0 0.001221957458835126 -0.00565161713096671 0 0.00073821937025130122 -0.0058073555899056271 0 0.0015993721845404582 -0.0065868649964152051 0 0.00053313562836004218 -0.0051898796244818366 0 0.00073821937025130122 -0.0058073555899056271 0 -0.00013485842284678565 -0.0048227685231307929 0 0.00073821937025130122 -0.0058073555899056271 0 -0.00013485842284678565 -0.0048227685231307929 0 0.00042227811588712352 -0.0059292038188038139 0 0.00053313562836004218 -0.0051898796244818366 0 -0.00013485842284678565 -0.0048227685231307929 0 -1.2607319644203501e-05 -0.0043732918936210596 0 -0.00013485842284678565 -0.0048227685231307929 0 -0.0008412873266431931 -0.0037502547169960105 0 -0.00048468270538554994 -0.0040217102020961275 0 -0.00013485842284678565 -0.0048227685231307929 0 -1.2607319644203501e-05 -0.0043732918936210596 0 -0.00048468270538554994 -0.0040217102020961275 0 -0.00013485842284678565 -0.0048227685231307929 0 -0.00074523669694169948 -0.0042793524419361536 0 -0.00025022100639704957 -0.0053866353504414526 0 -0.00074523669694169948 -0.0042793524419361536 0 -0.00025022100639704957 -0.0053866353504414526 0 -0.00093730300407283116 -0.0043639864783398237 0 -0.00074523669694169948 -0.0042793524419361536 0 -0.0008412873266431931 -0.0037502547169960105 0 -0.0011484942877885785 -0.0036419633614076965 0 -0.00013485842284678565 -0.0048227685231307929 0 -0.00074523669694169948 -0.0042793524419361536 0 -0.0008412873266431931 -0.0037502547169960105 0 -0.0010627999877887888 -0.002963964795984592 0 -0.0008412873266431931 -0.0037502547169960105 0 -0.00048468270538554994 -0.0040217102020961275 0 -0.0008412873266431931 -0.0037502547169960105 0 -0.0011630403012703118 -0.0031987467078776854 0 -0.0011484942877885785 -0.0036419633614076965 0 -0.0010627999877887888 -0.002963964795984592 0 -0.0008412873266431931 -0.0037502547169960105 0 -0.0011630403012703118 -0.0031987467078776854 0 -0.0010627999877887888 -0.002963964795984592 0 -0.001321456952934905 -0.0026388499144435083 0 -0.0011630403012703118 -0.0031987467078776854 0 -0.0010627999877887888 -0.002963964795984592 0 -0.00057695149523372818 -0.0034729920058196181 0 -0.00048468270538554994 -0.0040217102020961275 0 -8.9502812473194677e-05 -0.0039056476485118362 0 -0.00057695149523372818 -0.0034729920058196181 0 -1.2607319644203501e-05 -0.0043732918936210596 0 -0.00057695149523372818 -0.0034729920058196181 0 -1.2607319644203501e-05 -0.0043732918936210596 0 -0.00048468270538554994 -0.0040217102020961275 0 -0.025173345371377245 0.010035257769611955 0 -0.020720310639699889 0.012254702052982288 0 -0.02088038108059613 0.0073834772413620695 0 -0.025173345371377245 0.010035257769611955 0 -0.020720310639699889 0.012254702052982288 0 -0.026506946523857381 0.015546588941545838 0 -0.020720310639699889 0.012254702052982288 0 -0.02088038108059613 0.0073834772413620695 0 -0.01714762685919995 0.0077658613371147508 0 -0.025173345371377245 0.010035257769611955 0 -0.02088038108059613 0.0073834772413620695 0 -0.023573283201070126 0.0051882846601200589 0 -0.023573283201070126 0.0051882846601200589 0 -0.022074599163411254 0.0010974603904561988 0 -0.017948222598183187 0.0026752912204660042 0 -0.02088038108059613 0.0073834772413620695 0 -0.017948222598183187 0.0026752912204660042 0 -0.01714762685919995 0.0077658613371147508 0 -0.02088038108059613 0.0073834772413620695 0 -0.023573283201070126 0.0051882846601200589 0 -0.017948222598183187 0.0026752912204660042 0 -0.017948222598183187 0.0026752912204660042 0 -0.014336494766581784 0.0050914476880101426 0 -0.01714762685919995 0.0077658613371147508 0 -0.017948222598183187 0.0026752912204660042 0 -0.012878276138335518 0.0012423616858549995 0 -0.014336494766581784 0.0050914476880101426 0 -0.014336494766581784 0.0050914476880101426 0 -0.013881995467617612 0.0085004048876688148 0 -0.010775632415784324 0.0061361388820230746 0 -0.014336494766581784 0.0050914476880101426 0 -0.013881995467617612 0.0085004048876688148 0 -0.01714762685919995 0.0077658613371147508 0 -0.013881995467617612 0.0085004048876688148 0 -0.01714762685919995 0.0077658613371147508 0 -0.015793130653277729 0.012233390011000446 0 -0.020720310639699889 0.012254702052982288 0 -0.01714762685919995 0.0077658613371147508 0 -0.015793130653277729 0.012233390011000446 0 -0.013881995467617612 0.0085004048876688148 0 -0.015793130653277729 0.012233390011000446 0 -0.011319354686309711 0.011845039356665376 0 -0.011319354686309711 0.011845039356665376 0 -0.0068351061280472504 0.010946677622875997 0 -0.0081628200287218646 0.016324885697567577 0 -0.011319354686309711 0.011845039356665376 0 -0.010775632415784324 0.0061361388820230746 0 -0.0068351061280472504 0.010946677622875997 0 -0.010775632415784324 0.0061361388820230746 0 -0.0060320861367912605 0.0052089397286244603 0 -0.0068351061280472504 0.010946677622875997 0 -0.013881995467617612 0.0085004048876688148 0 -0.011319354686309711 0.011845039356665376 0 -0.010775632415784324 0.0061361388820230746 0 -0.012878276138335518 0.0012423616858549995 0 -0.014336494766581784 0.0050914476880101426 0 -0.010775632415784324 0.0061361388820230746 0 -0.012878276138335518 0.0012423616858549995 0 -0.010775632415784324 0.0061361388820230746 0 -0.0088998983411565612 0.0015959075231072777 0 -0.010775632415784324 0.0061361388820230746 0 -0.0088998983411565612 0.0015959075231072777 0 -0.0060320861367912605 0.0052089397286244603 0 -0.0088998983411565612 0.0015959075231072777 0 -0.0060320861367912605 0.0052089397286244603 0 -0.0061411826731795332 0.0016420298519987081 0 -0.0060320861367912605 0.0052089397286244603 0 -0.0061411826731795332 0.0016420298519987081 0 -0.0036093562503161695 0.0015262375696586373 0 -0.001811751970629442 0.0060254434095382767 0 -0.0060320861367912605 0.0052089397286244603 0 -0.0036093562503161695 0.0015262375696586373 0 -0.001811751970629442 0.0060254434095382767 0 -0.0060320861367912605 0.0052089397286244603 0 -0.0022428205362911287 0.010601494056798324 0 -0.0060320861367912605 0.0052089397286244603 0 -0.0068351061280472504 0.010946677622875997 0 -0.0022428205362911287 0.010601494056798324 0 -0.0068351061280472504 0.010946677622875997 0 -0.0022428205362911287 0.010601494056798324 0 -0.0026438887219529393 0.016482814139052209 0 0.0013128095911912705 0.015064485771831322 0 -0.0022428205362911287 0.010601494056798324 0 -0.0026438887219529393 0.016482814139052209 0 -0.0068351061280472504 0.010946677622875997 0 -0.0026438887219529393 0.016482814139052209 0 -0.0081628200287218646 0.016324885697567577 0 -0.0026438887219529393 0.016482814139052209 0 -0.0048921521588331206 0.020347050644533793 0 -0.0081628200287218646 0.016324885697567577 0 -0.0026438887219529393 0.016482814139052209 0 -0.0048921521588331206 0.020347050644533793 0 0.0003888301127395486 0.022275443690137856 0 0.0023470164848657994 0.019017567587985909 0 -0.0026438887219529393 0.016482814139052209 0 0.0003888301127395486 0.022275443690137856 0 0.0026595230349516726 0.0268433907478739 0 0.0003888301127395486 0.022275443690137856 0 -0.0039661711536274043 0.026229488573783852 0 0.0026595230349516726 0.0268433907478739 0 -0.0039661711536274043 0.026229488573783852 0 0.0015462389627551897 0.031273875595275891 0 -0.0048921521588331206 0.020347050644533793 0 0.0003888301127395486 0.022275443690137856 0 -0.0039661711536274043 0.026229488573783852 0 -0.0048921521588331206 0.020347050644533793 0 -0.0039661711536274043 0.026229488573783852 0 -0.0098564470224133029 0.020767386078903979 0 -0.0039661711536274043 0.026229488573783852 0 -0.01072855928057154 0.026202774210218372 0 -0.0098564470224133029 0.020767386078903979 0 -0.0039661711536274043 0.026229488573783852 0 -0.01072855928057154 0.026202774210218372 0 -0.0092305839677610888 0.031817591518152499 0 -0.01072855928057154 0.026202774210218372 0 -0.0098564470224133029 0.020767386078903979 0 -0.015284532166310738 0.025370345965451332 0 -0.0098564470224133029 0.020767386078903979 0 -0.01368097092185467 0.017638703446252409 0 -0.015284532166310738 0.025370345965451332 0 -0.0098564470224133029 0.020767386078903979 0 -0.0081628200287218646 0.016324885697567577 0 -0.01368097092185467 0.017638703446252409 0 -0.0048921521588331206 0.020347050644533793 0 -0.0098564470224133029 0.020767386078903979 0 -0.0081628200287218646 0.016324885697567577 0 -0.011319354686309711 0.011845039356665376 0 -0.0081628200287218646 0.016324885697567577 0 -0.01368097092185467 0.017638703446252409 0 -0.015793130653277729 0.012233390011000446 0 -0.011319354686309711 0.011845039356665376 0 -0.01368097092185467 0.017638703446252409 0 -0.015793130653277729 0.012233390011000446 0 -0.018076311973417442 0.016354451630475036 0 -0.01368097092185467 0.017638703446252409 0 -0.020720310639699889 0.012254702052982288 0 -0.015793130653277729 0.012233390011000446 0 -0.018076311973417442 0.016354451630475036 0 -0.018076311973417442 0.016354451630475036 0 -0.018231963820248512 0.02064489334157919 0 -0.022425678070298383 0.019239961237028324 0 -0.018076311973417442 0.016354451630475036 0 -0.01368097092185467 0.017638703446252409 0 -0.018231963820248512 0.02064489334157919 0 -0.01368097092185467 0.017638703446252409 0 -0.015284532166310738 0.025370345965451332 0 -0.018231963820248512 0.02064489334157919 0 -0.01072855928057154 0.026202774210218372 0 -0.015284532166310738 0.025370345965451332 0 -0.014691930555953881 0.031394046520049283 0 -0.015284532166310738 0.025370345965451332 0 -0.021854228065036917 0.025037650069774625 0 -0.018935066446898564 0.029531574217497934 0 -0.015284532166310738 0.025370345965451332 0 -0.018231963820248512 0.02064489334157919 0 -0.021854228065036917 0.025037650069774625 0 -0.018231963820248512 0.02064489334157919 0 -0.021854228065036917 0.025037650069774625 0 -0.022425678070298383 0.019239961237028324 0 -0.021854228065036917 0.025037650069774625 0 -0.027660719429109297 0.021644722542846981 0 -0.028495690367273448 0.02816033646003183 0 -0.021854228065036917 0.025037650069774625 0 -0.028495690367273448 0.02816033646003183 0 -0.023461332598375191 0.031165460913634757 0 -0.021854228065036917 0.025037650069774625 0 -0.027660719429109297 0.021644722542846981 0 -0.022425678070298383 0.019239961237028324 0 -0.027660719429109297 0.021644722542846981 0 -0.022425678070298383 0.019239961237028324 0 -0.026506946523857381 0.015546588941545838 0 -0.020720310639699889 0.012254702052982288 0 -0.018076311973417442 0.016354451630475036 0 -0.022425678070298383 0.019239961237028324 0 -0.020720310639699889 0.012254702052982288 0 -0.022425678070298383 0.019239961237028324 0 -0.026506946523857381 0.015546588941545838 0 -0.029441175610259489 0.042004171321766114 0 -0.020725332622329166 0.04274119746052138 0 -0.023209563316023991 0.049372590993310449 0 -0.029441175610259489 0.042004171321766114 0 -0.024282968914264558 0.037283064067506699 0 -0.020725332622329166 0.04274119746052138 0 -0.024282968914264558 0.037283064067506699 0 -0.019460924158841129 0.035000618046834554 0 -0.020725332622329166 0.04274119746052138 0 -0.029441175610259489 0.042004171321766114 0 -0.024282968914264558 0.037283064067506699 0 -0.029107821272749128 0.034981653216398061 0 -0.024282968914264558 0.037283064067506699 0 -0.029107821272749128 0.034981653216398061 0 -0.023461332598375191 0.031165460913634757 0 -0.029107821272749128 0.034981653216398061 0 -0.028495690367273448 0.02816033646003183 0 -0.023461332598375191 0.031165460913634757 0 -0.021854228065036917 0.025037650069774625 0 -0.023461332598375191 0.031165460913634757 0 -0.018935066446898564 0.029531574217497934 0 -0.024282968914264558 0.037283064067506699 0 -0.023461332598375191 0.031165460913634757 0 -0.019460924158841129 0.035000618046834554 0 -0.019460924158841129 0.035000618046834554 0 -0.018935066446898564 0.029531574217497934 0 -0.014691930555953881 0.031394046520049283 0 -0.023461332598375191 0.031165460913634757 0 -0.019460924158841129 0.035000618046834554 0 -0.018935066446898564 0.029531574217497934 0 -0.015284532166310738 0.025370345965451332 0 -0.018935066446898564 0.029531574217497934 0 -0.014691930555953881 0.031394046520049283 0 -0.019460924158841129 0.035000618046834554 0 -0.014691930555953881 0.031394046520049283 0 -0.014609107236927824 0.037413398834853652 0 -0.014609107236927824 0.037413398834853652 0 -0.020725332622329166 0.04274119746052138 0 -0.01414782485070233 0.043837057486864991 0 -0.019460924158841129 0.035000618046834554 0 -0.014609107236927824 0.037413398834853652 0 -0.020725332622329166 0.04274119746052138 0 -0.020725332622329166 0.04274119746052138 0 -0.01414782485070233 0.043837057486864991 0 -0.016550951429090605 0.050574835675232951 0 -0.01414782485070233 0.043837057486864991 0 -0.0097373372604206976 0.040017969078034496 0 -0.0090998969726830553 0.047854043560571213 0 -0.0097373372604206976 0.040017969078034496 0 -0.0042614879937679694 0.043407355729862075 0 -0.0090998969726830553 0.047854043560571213 0 -0.0097373372604206976 0.040017969078034496 0 -0.0056452418218205826 0.03655378565055608 0 -0.0042614879937679694 0.043407355729862075 0 -0.014609107236927824 0.037413398834853652 0 -0.01414782485070233 0.043837057486864991 0 -0.0097373372604206976 0.040017969078034496 0 -0.014691930555953881 0.031394046520049283 0 -0.014609107236927824 0.037413398834853652 0 -0.0092305839677610888 0.031817591518152499 0 -0.014609107236927824 0.037413398834853652 0 -0.0097373372604206976 0.040017969078034496 0 -0.0092305839677610888 0.031817591518152499 0 -0.01072855928057154 0.026202774210218372 0 -0.014691930555953881 0.031394046520049283 0 -0.0092305839677610888 0.031817591518152499 0 -0.0092305839677610888 0.031817591518152499 0 -0.0056452418218205826 0.03655378565055608 0 -0.003584199947220949 0.032596458863196454 0 -0.0097373372604206976 0.040017969078034496 0 -0.0092305839677610888 0.031817591518152499 0 -0.0056452418218205826 0.03655378565055608 0 -0.0056452418218205826 0.03655378565055608 0 -0.003584199947220949 0.032596458863196454 0 -0.00043392826959409394 0.037203121616693743 0 -0.0039661711536274043 0.026229488573783852 0 -0.003584199947220949 0.032596458863196454 0 0.0015462389627551897 0.031273875595275891 0 -0.0039661711536274043 0.026229488573783852 0 -0.0092305839677610888 0.031817591518152499 0 -0.003584199947220949 0.032596458863196454 0 -0.003584199947220949 0.032596458863196454 0 0.0015462389627551897 0.031273875595275891 0 -0.00043392826959409394 0.037203121616693743 0 0.0015462389627551897 0.031273875595275891 0 -0.00043392826959409394 0.037203121616693743 0 0.004819728616229378 0.03534429532623292 0 -0.00043392826959409394 0.037203121616693743 0 -0.0042614879937679694 0.043407355729862075 0 0.0021488373504781376 0.045086747921240004 0 -0.00043392826959409394 0.037203121616693743 0 0.0021488373504781376 0.045086747921240004 0 0.0049602541366482898 0.040033289861716774 0 -0.0056452418218205826 0.03655378565055608 0 -0.00043392826959409394 0.037203121616693743 0 -0.0042614879937679694 0.043407355729862075 0 -0.0042614879937679694 0.043407355729862075 0 0.0021488373504781376 0.045086747921240004 0 -0.0021337845780603792 0.051715944030908782 0 0.0021488373504781376 0.045086747921240004 0 -0.0021337845780603792 0.051715944030908782 0 0.0048101264677207498 0.051906541417455605 0 -0.0021337845780603792 0.051715944030908782 0 0.0038678004127977172 0.058282064541799489 0 -0.0028386559915145586 0.059057884077342027 0 -0.0021337845780603792 0.051715944030908782 0 0.0038678004127977172 0.058282064541799489 0 0.0048101264677207498 0.051906541417455605 0 0.0038678004127977172 0.058282064541799489 0 0.0015003309255014392 0.062470451295277701 0 -0.0028386559915145586 0.059057884077342027 0 0.0038678004127977172 0.058282064541799489 0 0.0015003309255014392 0.062470451295277701 0 0.0075734845337101743 0.062675921542734339 0 0.0015003309255014392 0.062470451295277701 0 0.0075734845337101743 0.062675921542734339 0 0.0055085754561056384 0.066681224057393171 0 0.0015003309255014392 0.062470451295277701 0 -0.0018427293923474822 0.065769465745310979 0 0.0055085754561056384 0.066681224057393171 0 0.0015003309255014392 0.062470451295277701 0 -0.0018427293923474822 0.065769465745310979 0 -0.0028386559915145586 0.059057884077342027 0 -0.0088193781563323317 0.064911293821710722 0 -0.0092074148638087248 0.055946432804755537 0 -0.015254991209445845 0.057802767702924689 0 -0.0028386559915145586 0.059057884077342027 0 -0.0088193781563323317 0.064911293821710722 0 -0.0092074148638087248 0.055946432804755537 0 -0.0018427293923474822 0.065769465745310979 0 -0.0028386559915145586 0.059057884077342027 0 -0.0088193781563323317 0.064911293821710722 0 -0.0092074148638087248 0.055946432804755537 0 -0.0090998969726830553 0.047854043560571213 0 -0.016550951429090605 0.050574835675232951 0 -0.0021337845780603792 0.051715944030908782 0 -0.0028386559915145586 0.059057884077342027 0 -0.0092074148638087248 0.055946432804755537 0 -0.0021337845780603792 0.051715944030908782 0 -0.0092074148638087248 0.055946432804755537 0 -0.0090998969726830553 0.047854043560571213 0 -0.0042614879937679694 0.043407355729862075 0 -0.0021337845780603792 0.051715944030908782 0 -0.0090998969726830553 0.047854043560571213 0 -0.01414782485070233 0.043837057486864991 0 -0.0090998969726830553 0.047854043560571213 0 -0.016550951429090605 0.050574835675232951 0 -0.020725332622329166 0.04274119746052138 0 -0.016550951429090605 0.050574835675232951 0 -0.023209563316023991 0.049372590993310449 0 -0.016550951429090605 0.050574835675232951 0 -0.015254991209445845 0.057802767702924689 0 -0.02179230628760221 0.055857593477475813 0 -0.016550951429090605 0.050574835675232951 0 -0.02179230628760221 0.055857593477475813 0 -0.023209563316023991 0.049372590993310449 0 -0.0092074148638087248 0.055946432804755537 0 -0.016550951429090605 0.050574835675232951 0 -0.015254991209445845 0.057802767702924689 0 -0.0088193781563323317 0.064911293821710722 0 -0.015254991209445845 0.057802767702924689 0 -0.015593897314897005 0.064201428514452638 0 -0.015593897314897005 0.064201428514452638 0 -0.019115195425244241 0.06032978322398929 0 -0.022448451343797974 0.063627742923686545 0 -0.015254991209445845 0.057802767702924689 0 -0.015593897314897005 0.064201428514452638 0 -0.019115195425244241 0.06032978322398929 0 -0.015254991209445845 0.057802767702924689 0 -0.019115195425244241 0.06032978322398929 0 -0.02179230628760221 0.055857593477475813 0 -0.019115195425244241 0.06032978322398929 0 -0.02179230628760221 0.055857593477475813 0 -0.02483390694581316 0.059531189119142167 0 -0.019115195425244241 0.06032978322398929 0 -0.02483390694581316 0.059531189119142167 0 -0.022448451343797974 0.063627742923686545 0 -0.02483390694581316 0.059531189119142167 0 -0.022448451343797974 0.063627742923686545 0 -0.029355431283241553 0.063153102053644328 0 -0.02483390694581316 0.059531189119142167 0 -0.029355431283241553 0.063153102053644328 0 -0.02950322885788546 0.056194799988876803 0 -0.02179230628760221 0.055857593477475813 0 -0.02483390694581316 0.059531189119142167 0 -0.02950322885788546 0.056194799988876803 0 -0.02950322885788546 0.056194799988876803 0 -0.023209563316023991 0.049372590993310449 0 -0.029550063041049419 0.049136887177337663 0 -0.02179230628760221 0.055857593477475813 0 -0.02950322885788546 0.056194799988876803 0 -0.023209563316023991 0.049372590993310449 0 -0.029441175610259489 0.042004171321766114 0 -0.023209563316023991 0.049372590993310449 0 -0.029550063041049419 0.049136887177337663 0 0.00072690096319309922 -0.0067525780940877553 0 0.00075570025558586475 -0.0074968109833487111 0 0.00018095374881303686 -0.0064668391350353486 0 0.00072690096319309922 -0.0067525780940877553 0 0.001485132236625352 -0.008068916039240235 0 0.0015444741287342582 -0.0075801130643396962 0 0.00072690096319309922 -0.0067525780940877553 0 0.0011494044780788913 -0.0067539159593907883 0 0.0015444741287342582 -0.0075801130643396962 0 0.00072690096319309922 -0.0067525780940877553 0 0.001485132236625352 -0.008068916039240235 0 0.00075570025558586475 -0.0074968109833487111 0 0.00075570025558586475 -0.0074968109833487111 0 1.2490034110308115e-05 -0.0068080407014499559 0 0.00018095374881303686 -0.0064668391350353486 0 1.2490034110308115e-05 -0.0068080407014499559 0 -0.00038368612210696018 -0.005767999514219027 0 0.00018095374881303686 -0.0064668391350353486 0 1.2490034110308115e-05 -0.0068080407014499559 0 -0.00038368612210696018 -0.005767999514219027 0 -0.00049398894688413545 -0.0060119004270305634 0 -0.00038368612210696018 -0.005767999514219027 0 0.00018095374881303686 -0.0064668391350353486 0 -0.00025022100639704957 -0.0053866353504414526 0 -0.00038368612210696018 -0.005767999514219027 0 -0.00025022100639704957 -0.0053866353504414526 0 -0.0006895028901459173 -0.0050482515126288987 0 -0.00025022100639704957 -0.0053866353504414526 0 -0.0006895028901459173 -0.0050482515126288987 0 -0.00093730300407283116 -0.0043639864783398237 0 -0.00013485842284678565 -0.0048227685231307929 0 -0.00025022100639704957 -0.0053866353504414526 0 0.00042227811588712352 -0.0059292038188038139 0 0.00072690096319309922 -0.0067525780940877553 0 -0.00025022100639704957 -0.0053866353504414526 0 0.00042227811588712352 -0.0059292038188038139 0 0.00072690096319309922 -0.0067525780940877553 0 0.00018095374881303686 -0.0064668391350353486 0 -0.00025022100639704957 -0.0053866353504414526 0 0.00072690096319309922 -0.0067525780940877553 0 0.00042227811588712352 -0.0059292038188038139 0 0.0011494044780788913 -0.0067539159593907883 0 0.00073821937025130122 -0.0058073555899056271 0 0.00042227811588712352 -0.0059292038188038139 0 0.0011494044780788913 -0.0067539159593907883 0 0.00073821937025130122 -0.0058073555899056271 0 0.0015993721845404582 -0.0065868649964152051 0 0.0011494044780788913 -0.0067539159593907883 0 0.0020006149349691823 -0.0062664723381982406 0 0.001221957458835126 -0.00565161713096671 0 0.0015993721845404582 -0.0065868649964152051 0 0.0015993721845404582 -0.0065868649964152051 0 0.0025120328299344809 -0.0072755984602057948 0 0.0021189465061934162 -0.0076266886905544239 0 0.0015993721845404582 -0.0065868649964152051 0 0.0011494044780788913 -0.0067539159593907883 0 0.0021189465061934162 -0.0076266886905544239 0 0.0084924547306038413 0.030616946863466069 0 0.0015462389627551897 0.031273875595275891 0 0.004819728616229378 0.03534429532623292 0 0.0084924547306038413 0.030616946863466069 0 0.00961065906431126 0.037637024573020643 0 0.004819728616229378 0.03534429532623292 0 0.0020006149349691823 -0.0062664723381982406 0 0.0015993721845404582 -0.0065868649964152051 0 0.0025120328299344809 -0.0072755984602057948 0 -0.0029041863155144202 0.011166920752868794 0 -0.004395795658397878 0.019131609914187123 0 -0.00043392826959409394 0.037203121616693743 0 0.004819728616229378 0.03534429532623292 0 0.0049602541366482898 0.040033289861716774 0 0.00961065906431126 0.037637024573020643 0 0.004819728616229378 0.03534429532623292 0 0.0049602541366482898 0.040033289861716774 0 0.0021488373504781376 0.045086747921240004 0 0.0049602541366482898 0.040033289861716774 0 0.010529999067574429 0.044905033655596803 0 -0.004395795658397878 0.019131609914187123 0 -0.0066795513666394251 0.0094171305667717503 0 0.0025120328299344809 -0.0072755984602057948 0 0.003067235595144401 -0.0083759890694845799 0 0.0021189465061934162 -0.0076266886905544239 0 0.00961065906431126 0.037637024573020643 0 0.0049602541366482898 0.040033289861716774 0 0.010529999067574429 0.044905033655596803 0 -0.0066795513666394251 0.0094171305667717503 0 -0.0072110213989213514 0.036973937144165699 0 0.0021488373504781376 0.045086747921240004 0 0.010529999067574429 0.044905033655596803 0 0.0048101264677207498 0.051906541417455605 0 0.0011494044780788913 -0.0067539159593907883 0 0.0015444741287342582 -0.0075801130643396962 0 0.0021189465061934162 -0.0076266886905544239 0 0.003067235595144401 -0.0083759890694845799 0 0.0021189465061934162 -0.0076266886905544239 0 0.0024274966472525245 -0.0086975258447020247 0 0.001485132236625352 -0.008068916039240235 0 0.0015444741287342582 -0.0075801130643396962 0 0.0024274966472525245 -0.0086975258447020247 0 0.0015444741287342582 -0.0075801130643396962 0 0.0021189465061934162 -0.0076266886905544239 0 0.0024274966472525245 -0.0086975258447020247 0 0.0024274966472525245 -0.0086975258447020247 0 0.0031878971472167192 -0.0098326291313540412 0 0.0022749918737160583 -0.0093017536803096899 0 0.001485132236625352 -0.008068916039240235 0 0.0024274966472525245 -0.0086975258447020247 0 0.0022749918737160583 -0.0093017536803096899 0 0.003067235595144401 -0.0083759890694845799 0 0.0024274966472525245 -0.0086975258447020247 0 0.0037051501552609403 -0.0095517894131198142 0 0.0024274966472525245 -0.0086975258447020247 0 0.0031878971472167192 -0.0098326291313540412 0 0.0037051501552609403 -0.0095517894131198142 0 0.0031878971472167192 -0.0098326291313540412 0 0.0022749918737160583 -0.0093017536803096899 0 0.0034272966267755358 -0.010674352564262699 0 0.010529999067574429 0.044905033655596803 0 0.0048101264677207498 0.051906541417455605 0 0.011366980733247392 0.052282916241939432 0 -0.0072110213989213514 0.036973937144165699 0 -0.016669781693695193 0.0055309195765685312 0 0.0031878971472167192 -0.0098326291313540412 0 0.0037051501552609403 -0.0095517894131198142 0 0.0044585636708294862 -0.01086383880965627 0 0.0048101264677207498 0.051906541417455605 0 0.011366980733247392 0.052282916241939432 0 0.012153049991788864 0.059751097506127962 0 0.0038678004127977172 0.058282064541799489 0 0.0048101264677207498 0.051906541417455605 0 0.012153049991788864 0.059751097506127962 0 0.0038678004127977172 0.058282064541799489 0 0.012153049991788864 0.059751097506127962 0 0.0075734845337101743 0.062675921542734339 0 -0.016669781693695193 0.0055309195765685312 0 0.0041194719528777311 0.046751577580696591 0 0.012153049991788864 0.059751097506127962 0 0.013106394902447764 0.067284672693876613 0 0.0075734845337101743 0.062675921542734339 0 0.013106394902447764 0.067284672693876613 0 0.0075734845337101743 0.062675921542734339 0 0.0055085754561056384 0.066681224057393171 0 0.0022749918737160583 -0.0093017536803096899 0 0.0034272966267755358 -0.010674352564262699 0 0.0020213409489863517 -0.0097795100907572003 0 0.0031878971472167192 -0.0098326291313540412 0 0.0044585636708294862 -0.01086383880965627 0 0.0034272966267755358 -0.010674352564262699 0 0.0044585636708294862 -0.01086383880965627 0 0.0053366900743348758 -0.0123007669247808 0 0.0034272966267755358 -0.010674352564262699 0 0.0053366900743348758 -0.0123007669247808 0 0.0034272966267755358 -0.010674352564262699 0 0.0038051746012728463 -0.011684425729106517 0 0.0034272966267755358 -0.010674352564262699 0 0.0038051746012728463 -0.011684425729106517 0 0.0020213409489863517 -0.0097795100907572003 0 0.0020213409489863517 -0.0097795100907572003 0 0.0010580447177324385 -0.0086325609018609965 0 0.0013867578212178838 -0.0096660264462872618 0 0.0038051746012728463 -0.011684425729106517 0 0.0024785891329892049 -0.010743655469698287 0 0.0020213409489863517 -0.0097795100907572003 0 0.0024785891329892049 -0.010743655469698287 0 0.0020213409489863517 -0.0097795100907572003 0 0.0013867578212178838 -0.0096660264462872618 0 0.0022749918737160583 -0.0093017536803096899 0 0.0020213409489863517 -0.0097795100907572003 0 0.0013451286758997872 -0.0085520533809692271 0 0.0020213409489863517 -0.0097795100907572003 0 0.0013451286758997872 -0.0085520533809692271 0 0.0010580447177324385 -0.0086325609018609965 0 0.00075570025558586475 -0.0074968109833487111 0 0.0013451286758997872 -0.0085520533809692271 0 0.00048358186386431159 -0.0077415505114276327 0 0.001485132236625352 -0.008068916039240235 0 0.00075570025558586475 -0.0074968109833487111 0 0.0013451286758997872 -0.0085520533809692271 0 0.001485132236625352 -0.008068916039240235 0 0.0022749918737160583 -0.0093017536803096899 0 0.0013451286758997872 -0.0085520533809692271 0 1.2490034110308115e-05 -0.0068080407014499559 0 0.00048358186386431159 -0.0077415505114276327 0 1.7445792827137234e-05 -0.007291853956202134 0 0.00075570025558586475 -0.0074968109833487111 0 1.2490034110308115e-05 -0.0068080407014499559 0 0.00048358186386431159 -0.0077415505114276327 0 0.00048358186386431159 -0.0077415505114276327 0 0.0010580447177324385 -0.0086325609018609965 0 0.00053940355118588289 -0.0082658529175051541 0 0.0013451286758997872 -0.0085520533809692271 0 0.00048358186386431159 -0.0077415505114276327 0 0.0010580447177324385 -0.0086325609018609965 0 0.00048358186386431159 -0.0077415505114276327 0 0.00053940355118588289 -0.0082658529175051541 0 1.7445792827137234e-05 -0.007291853956202134 0 0.0010580447177324385 -0.0086325609018609965 0 0.00053940355118588289 -0.0082658529175051541 0 0.0013867578212178838 -0.0096660264462872618 0 0.00053940355118588289 -0.0082658529175051541 0 0.0013867578212178838 -0.0096660264462872618 0 0.00061790987632714663 -0.0085946881192378102 0 0.00053940355118588289 -0.0082658529175051541 0 0.00061790987632714663 -0.0085946881192378102 0 0.00012260465016695191 -0.007713754495562458 0 0.00061790987632714663 -0.0085946881192378102 0 5.0695636531204693e-05 -0.0075800966289380836 0 0.00012260465016695191 -0.007713754495562458 0 5.0695636531204693e-05 -0.0075800966289380836 0 -0.00041636845654846279 -0.0067745296240758835 0 0.00012260465016695191 -0.007713754495562458 0 -0.00041636845654846279 -0.0067745296240758835 0 0.00012260465016695191 -0.007713754495562458 0 1.7445792827137234e-05 -0.007291853956202134 0 0.00053940355118588289 -0.0082658529175051541 0 0.00012260465016695191 -0.007713754495562458 0 1.7445792827137234e-05 -0.007291853956202134 0 -0.00030096095528820864 -0.0066733371359611309 0 -0.00063922818557586288 -0.006318719379189419 0 -0.00055533413718011166 -0.0059371895721928372 0 5.0695636531204693e-05 -0.0075800966289380836 0 -0.00030096095528820864 -0.0066733371359611309 0 -0.00063922818557586288 -0.006318719379189419 0 5.0695636531204693e-05 -0.0075800966289380836 0 -0.00041636845654846279 -0.0067745296240758835 0 -0.00063922818557586288 -0.006318719379189419 0 -0.00063922818557586288 -0.006318719379189419 0 -0.00088385117524361482 -0.0059176975536741148 0 -0.0011557688718799892 -0.0054687504296069087 0 -0.00041636845654846279 -0.0067745296240758835 0 -0.00063922818557586288 -0.006318719379189419 0 -0.00088385117524361482 -0.0059176975536741148 0 -0.00088385117524361482 -0.0059176975536741148 0 -0.00055790734518137584 -0.0062934994807914172 0 -0.0010260700123273226 -0.0054922663072691641 0 -0.00088385117524361482 -0.0059176975536741148 0 -0.0010260700123273226 -0.0054922663072691641 0 -0.0013325454097054374 -0.005096719476949816 0 -0.00088385117524361482 -0.0059176975536741148 0 -0.0013325454097054374 -0.005096719476949816 0 -0.0011557688718799892 -0.0054687504296069087 0 -0.00041636845654846279 -0.0067745296240758835 0 1.7445792827137234e-05 -0.007291853956202134 0 -0.00055790734518137584 -0.0062934994807914172 0 -0.00041636845654846279 -0.0067745296240758835 0 -0.00088385117524361482 -0.0059176975536741148 0 -0.00055790734518137584 -0.0062934994807914172 0 1.2490034110308115e-05 -0.0068080407014499559 0 1.7445792827137234e-05 -0.007291853956202134 0 -0.00055790734518137584 -0.0062934994807914172 0 1.2490034110308115e-05 -0.0068080407014499559 0 -0.00055790734518137584 -0.0062934994807914172 0 -0.00049398894688413545 -0.0060119004270305634 0 -0.00038368612210696018 -0.005767999514219027 0 -0.00049398894688413545 -0.0060119004270305634 0 -0.00078361893966977182 -0.0053406826974958851 0 -0.00049398894688413545 -0.0060119004270305634 0 -0.00078361893966977182 -0.0053406826974958851 0 -0.00081883612290350864 -0.0056415444690598622 0 -0.00078361893966977182 -0.0053406826974958851 0 -0.00081883612290350864 -0.0056415444690598622 0 -0.0011224451905897295 -0.0050093793281645142 0 -0.00055790734518137584 -0.0062934994807914172 0 -0.00049398894688413545 -0.0060119004270305634 0 -0.00081883612290350864 -0.0056415444690598622 0 -0.00081883612290350864 -0.0056415444690598622 0 -0.0010260700123273226 -0.0054922663072691641 0 -0.0011224451905897295 -0.0050093793281645142 0 -0.00055790734518137584 -0.0062934994807914172 0 -0.00081883612290350864 -0.0056415444690598622 0 -0.0010260700123273226 -0.0054922663072691641 0 -0.0010260700123273226 -0.0054922663072691641 0 -0.0013325454097054374 -0.005096719476949816 0 -0.0014761772700271659 -0.0045355641015833821 0 -0.0013325454097054374 -0.005096719476949816 0 -0.0014761772700271659 -0.0045355641015833821 0 -0.0016560598177695906 -0.0044966700141284401 0 -0.0010260700123273226 -0.0054922663072691641 0 -0.0014761772700271659 -0.0045355641015833821 0 -0.0011224451905897295 -0.0050093793281645142 0 -0.0011224451905897295 -0.0050093793281645142 0 -0.0015412472983859285 -0.0040858637898434245 0 -0.0010912459766643555 -0.0046423969539902132 0 -0.0014761772700271659 -0.0045355641015833821 0 -0.0011224451905897295 -0.0050093793281645142 0 -0.0015412472983859285 -0.0040858637898434245 0 -0.0014761772700271659 -0.0045355641015833821 0 -0.0015412472983859285 -0.0040858637898434245 0 -0.0019730835862228637 -0.0037355226833315483 0 -0.0015412472983859285 -0.0040858637898434245 0 -0.0010912459766643555 -0.0046423969539902132 0 -0.0012918399015356742 -0.0039383706714649202 0 -0.0010912459766643555 -0.0046423969539902132 0 -0.0012918399015356742 -0.0039383706714649202 0 -0.00093730300407283116 -0.0043639864783398237 0 -0.0010912459766643555 -0.0046423969539902132 0 -0.0006895028901459173 -0.0050482515126288987 0 -0.00093730300407283116 -0.0043639864783398237 0 -0.00078361893966977182 -0.0053406826974958851 0 -0.0010912459766643555 -0.0046423969539902132 0 -0.0006895028901459173 -0.0050482515126288987 0 -0.00038368612210696018 -0.005767999514219027 0 -0.00078361893966977182 -0.0053406826974958851 0 -0.0006895028901459173 -0.0050482515126288987 0 -0.00078361893966977182 -0.0053406826974958851 0 -0.0011224451905897295 -0.0050093793281645142 0 -0.0010912459766643555 -0.0046423969539902132 0 0.0011973327411641309 -0.0026305552302574534 0 0.00070609883018202539 -0.00208134815678795 0 0.00098198078134626257 -0.0024937084298024188 0 -0.0025812072396464891 -0.0036450063844586864 0 -0.0022783822773177684 -0.0026606125152470327 0 0.0011973327411641309 -0.0026305552302574534 0 0.00070609883018202539 -0.00208134815678795 0 0.0009000951370253397 -0.0021707023265963984 0 -0.0023543721088391065 -0.0036266525835591023 0 -0.0019730835862228637 -0.0037355226833315483 0 -0.0024184762818743716 -0.0031726050525445904 0 -0.0019730835862228637 -0.0037355226833315483 0 -0.0021088755250982219 -0.0031578563391640767 0 -0.0024184762818743716 -0.0031726050525445904 0 -0.0015412472983859285 -0.0040858637898434245 0 -0.0019730835862228637 -0.0037355226833315483 0 -0.0018430956911661216 -0.0035387071024846912 0 -0.0019730835862228637 -0.0037355226833315483 0 -0.0018430956911661216 -0.0035387071024846912 0 -0.0021088755250982219 -0.0031578563391640767 0 -0.0014761772700271659 -0.0045355641015833821 0 -0.0019730835862228637 -0.0037355226833315483 0 -0.0016560598177695906 -0.0044966700141284401 0 -0.0023543721088391065 -0.0036266525835591023 0 -0.0019730835862228637 -0.0037355226833315483 0 -0.0020104024338390447 -0.0040712902330232986 0 -0.0019730835862228637 -0.0037355226833315483 0 -0.0020104024338390447 -0.0040712902330232986 0 -0.0016560598177695906 -0.0044966700141284401 0 -0.0020104024338390447 -0.0040712902330232986 0 -0.0016560598177695906 -0.0044966700141284401 0 -0.0016833976343736995 -0.004671901594413665 0 -0.0013325454097054374 -0.005096719476949816 0 -0.0016560598177695906 -0.0044966700141284401 0 -0.0016833976343736995 -0.004671901594413665 0 -0.0020104024338390447 -0.0040712902330232986 0 -0.0016833976343736995 -0.004671901594413665 0 -0.0021873974041183176 -0.004119794171373945 0 -0.0016833976343736995 -0.004671901594413665 0 -0.0021873974041183176 -0.004119794171373945 0 -0.0018763744602221571 -0.0045847681838149454 0 0.0015248482406823791 -0.0031178914351279387 0 0.00098198078134626257 -0.0024937084298024188 0 0.00099587205079930104 -0.002549187141657376 0 0.0015248482406823791 -0.0031178914351279387 0 0.0014858923135535383 -0.0031709118240059856 0 0.00099587205079930104 -0.002549187141657376 0 -0.0031369549305715616 -0.0012027581648784954 0 -0.003005798179603265 -0.008878932014193805 0 -0.0023543721088391065 -0.0036266525835591023 0 -0.0020104024338390447 -0.0040712902330232986 0 -0.0021873974041183176 -0.004119794171373945 0 0.0011973327411641309 -0.0026305552302574534 0 0.0015248482406823791 -0.0031178914351279387 0 0.00098198078134626257 -0.0024937084298024188 0 -0.0025812072396464891 -0.0036450063844586864 0 -0.0031369549305715616 -0.0012027581648784954 0 0.0015248482406823791 -0.0031178914351279387 0 0.0014858923135535383 -0.0031709118240059856 0 0.0019331006936150951 -0.0035886708210208433 0 -0.003005798179603265 -0.008878932014193805 0 -0.0058212379859826227 0.0021806810644546325 0 -0.0018763744602221571 -0.0045847681838149454 0 -0.0014292297330343628 -0.0050545144493616924 0 -0.001414969760574593 -0.005085233037476232 0 0.0014858923135535383 -0.0031709118240059856 0 0.0019331006936150951 -0.0035886708210208433 0 0.0024064400001594798 -0.0040833302931110498 0 0.0014858923135535383 -0.0031709118240059856 0 0.0024064400001594798 -0.0040833302931110498 0 0.0017810451304897169 -0.003474411996279033 0 -0.0013325454097054374 -0.005096719476949816 0 -0.0016833976343736995 -0.004671901594413665 0 -0.0011557688718799892 -0.0054687504296069087 0 -0.0016833976343736995 -0.004671901594413665 0 -0.0014292297330343628 -0.0050545144493616924 0 -0.0011557688718799892 -0.0054687504296069087 0 -0.0016833976343736995 -0.004671901594413665 0 -0.0018763744602221571 -0.0045847681838149454 0 -0.0014292297330343628 -0.0050545144493616924 0 -0.0014292297330343628 -0.0050545144493616924 0 -0.0011557688718799892 -0.0054687504296069087 0 -0.0010125007376943229 -0.0055265273751053251 0 -0.00063922818557586288 -0.006318719379189419 0 -0.0011557688718799892 -0.0054687504296069087 0 -0.0010125007376943229 -0.0055265273751053251 0 -0.0014292297330343628 -0.0050545144493616924 0 -0.0010125007376943229 -0.0055265273751053251 0 -0.001414969760574593 -0.005085233037476232 0 -0.0010125007376943229 -0.0055265273751053251 0 -0.001414969760574593 -0.005085233037476232 0 -0.0007990044617584523 -0.0054893499613948953 0 -0.0010125007376943229 -0.0055265273751053251 0 -0.00055533413718011166 -0.0059371895721928372 0 -0.0007990044617584523 -0.0054893499613948953 0 -0.00063922818557586288 -0.006318719379189419 0 -0.0010125007376943229 -0.0055265273751053251 0 -0.00055533413718011166 -0.0059371895721928372 0 0.0024064400001594798 -0.0040833302931110498 0 0.0022975110920670999 -0.0040071675011684399 0 0.0017810451304897169 -0.003474411996279033 0 -0.0058212379859826227 0.0021806810644546325 0 0.0013938872596344287 -0.012618097149933172 0 0.0024064400001594798 -0.0040833302931110498 0 0.0030445520331414087 -0.0045763983394530548 0 0.0022975110920670999 -0.0040071675011684399 0 0.0030445520331414087 -0.0045763983394530548 0 0.0022975110920670999 -0.0040071675011684399 0 0.0023805636818189841 -0.0041535606978964669 0 0.0022975110920670999 -0.0040071675011684399 0 0.0018360001569512105 -0.0035284089657656131 0 0.0023805636818189841 -0.0041535606978964669 0 0.0018360001569512105 -0.0035284089657656131 0 0.0023805636818189841 -0.0041535606978964669 0 0.0017453049834492752 -0.0034359807879669581 0 0.0018360001569512105 -0.0035284089657656131 0 0.0017810451304897169 -0.003474411996279033 0 0.0013753700616179428 -0.0029311599795217762 0 0.0022975110920670999 -0.0040071675011684399 0 0.0018360001569512105 -0.0035284089657656131 0 0.0017810451304897169 -0.003474411996279033 0 0.0018360001569512105 -0.0035284089657656131 0 0.0013753700616179428 -0.0029311599795217762 0 0.0017453049834492752 -0.0034359807879669581 0 0.0013753700616179428 -0.0029311599795217762 0 0.0012602599874215368 -0.002636053977241298 0 0.00088503286338925842 -0.0021292835845256475 0 0.0012602599874215368 -0.002636053977241298 0 0.00088503286338925842 -0.0021292835845256475 0 0.000662872732511085 -0.0015611621581198877 0 0.0013753700616179428 -0.0029311599795217762 0 0.0017453049834492752 -0.0034359807879669581 0 0.0012602599874215368 -0.002636053977241298 0 0.0013753700616179428 -0.0029311599795217762 0 0.00088503286338925842 -0.0021292835845256475 0 0.0010979657608494674 -0.0026173873711496133 0 0.00088503286338925842 -0.0021292835845256475 0 0.00056903576610323301 -0.0017182928526372138 0 0.0010979657608494674 -0.0026173873711496133 0 0.00088503286338925842 -0.0021292835845256475 0 0.00056903576610323301 -0.0017182928526372138 0 0.00036202951905076324 -0.0011687191890851093 0 0.00056903576610323301 -0.0017182928526372138 0 0.0010979657608494674 -0.0026173873711496133 0 0.00068368459944015631 -0.0020169041068148828 0 0.0014858923135535383 -0.0031709118240059856 0 0.0010979657608494674 -0.0026173873711496133 0 0.00099587205079930104 -0.002549187141657376 0 0.0014858923135535383 -0.0031709118240059856 0 0.0017810451304897169 -0.003474411996279033 0 0.0010979657608494674 -0.0026173873711496133 0 0.0017810451304897169 -0.003474411996279033 0 0.0013753700616179428 -0.0029311599795217762 0 0.0010979657608494674 -0.0026173873711496133 0 -5.8413464620755048e-08 -5.6055914760483617e-07 0 0.0002333466195085383 -0.00050760937458748507 0 0.00029309323955936119 -0.00077584969847261742 0 -5.8413464620755048e-08 -5.6055914760483617e-07 0 4.947401780474572e-07 -1.1489314384923043e-06 0 0.0002333466195085383 -0.00050760937458748507 0 4.947401780474572e-07 -1.1489314384923043e-06 0 0.00054208189165528458 -0.00097620618632399635 0 0.0002333466195085383 -0.00050760937458748507 0 0.00054208189165528458 -0.00097620618632399635 0 0.0002333466195085383 -0.00050760937458748507 0 0.00057651651010235088 -0.0012251283675258871 0 0.0002333466195085383 -0.00050760937458748507 0 0.00029309323955936119 -0.00077584969847261742 0 0.00057651651010235088 -0.0012251283675258871 0 0.00029309323955936119 -0.00077584969847261742 0 0.00057651651010235088 -0.0012251283675258871 0 0.000662872732511085 -0.0015611621581198877 0 0.00057651651010235088 -0.0012251283675258871 0 0.00090354241279108638 -0.0018179369109527581 0 0.000662872732511085 -0.0015611621581198877 0 0.00054208189165528458 -0.00097620618632399635 0 0.00057651651010235088 -0.0012251283675258871 0 0.00090354241279108638 -0.0018179369109527581 0 0.0012602599874215368 -0.002636053977241298 0 0.00090354241279108638 -0.0018179369109527581 0 0.000662872732511085 -0.0015611621581198877 0 0.00088503286338925842 -0.0021292835845256475 0 0.000662872732511085 -0.0015611621581198877 0 0.00036202951905076324 -0.0011687191890851093 0 0.00056903576610323301 -0.0017182928526372138 0 0.00036202951905076324 -0.0011687191890851093 0 0.00023794923502260432 -0.0011002015324583663 0 0.00036202951905076324 -0.0011687191890851093 0 0.00012208833284821065 -0.00051904230710917831 0 8.7711472514803802e-05 -0.00061042894808704528 0 0.00029309323955936119 -0.00077584969847261742 0 0.000662872732511085 -0.0015611621581198877 0 0.00036202951905076324 -0.0011687191890851093 0 0.00029309323955936119 -0.00077584969847261742 0 0.00036202951905076324 -0.0011687191890851093 0 0.00012208833284821065 -0.00051904230710917831 0 -5.8413464620755048e-08 -5.6055914760483617e-07 0 0.00029309323955936119 -0.00077584969847261742 0 0.00012208833284821065 -0.00051904230710917831 0 0.00012208833284821065 -0.00051904230710917831 0 9.7572081001596337e-08 -6.1778249250476679e-07 0 -6.464442262679762e-08 -4.2637937624498908e-07 0 -5.8413464620755048e-08 -5.6055914760483617e-07 0 0.00012208833284821065 -0.00051904230710917831 0 9.7572081001596337e-08 -6.1778249250476679e-07 0 -6.464442262679762e-08 -4.2637937624498908e-07 0 6.5541468771246673e-06 -0.00031127407669831854 0 1.7971292658910715e-09 -4.1113480213166439e-07 0 0.00012208833284821065 -0.00051904230710917831 0 -6.464442262679762e-08 -4.2637937624498908e-07 0 8.7711472514803802e-05 -0.00061042894808704528 0 8.7711472514803802e-05 -0.00061042894808704528 0 6.5541468771246673e-06 -0.00031127407669831854 0 3.4500777272996473e-05 -0.00062599698469259848 0 -6.464442262679762e-08 -4.2637937624498908e-07 0 8.7711472514803802e-05 -0.00061042894808704528 0 6.5541468771246673e-06 -0.00031127407669831854 0 8.7711472514803802e-05 -0.00061042894808704528 0 0.00023794923502260432 -0.0011002015324583663 0 3.4500777272996473e-05 -0.00062599698469259848 0 0.00036202951905076324 -0.0011687191890851093 0 8.7711472514803802e-05 -0.00061042894808704528 0 0.00023794923502260432 -0.0011002015324583663 0 0.00023794923502260432 -0.0011002015324583663 0 0.00014330937530115083 -0.0010000851098712425 0 3.4500777272996473e-05 -0.00062599698469259848 0 0.00023794923502260432 -0.0011002015324583663 0 0.00014330937530115083 -0.0010000851098712425 0 0.00036168322961964281 -0.0014521596607097007 0 0.00014330937530115083 -0.0010000851098712425 0 3.4242395489834094e-05 -0.00073786256698621768 0 3.4500777272996473e-05 -0.00062599698469259848 0 3.4242395489834094e-05 -0.00073786256698621768 0 0.00015115918818750727 -0.0011140520781934807 0 -1.7435130717025462e-05 -0.00064839821018337733 0 0.00014330937530115083 -0.0010000851098712425 0 3.4242395489834094e-05 -0.00073786256698621768 0 0.00015115918818750727 -0.0011140520781934807 0 3.4242395489834094e-05 -0.00073786256698621768 0 3.4500777272996473e-05 -0.00062599698469259848 0 -3.5230407104586465e-05 -0.00036736488190542528 0 6.5541468771246673e-06 -0.00031127407669831854 0 3.4500777272996473e-05 -0.00062599698469259848 0 -1.9105720261321513e-05 -0.0002458964194319995 0 3.4500777272996473e-05 -0.00062599698469259848 0 -1.9105720261321513e-05 -0.0002458964194319995 0 -3.5230407104586465e-05 -0.00036736488190542528 0 -1.9105720261321513e-05 -0.0002458964194319995 0 -3.5230407104586465e-05 -0.00036736488190542528 0 -4.2670141476557855e-08 -3.3176847048624664e-07 0 -1.9105720261321513e-05 -0.0002458964194319995 0 1.7971292658910715e-09 -4.1113480213166439e-07 0 -4.2670141476557855e-08 -3.3176847048624664e-07 0 6.5541468771246673e-06 -0.00031127407669831854 0 -1.9105720261321513e-05 -0.0002458964194319995 0 1.7971292658910715e-09 -4.1113480213166439e-07 0 0.00048590394800714591 -0.0017591130269473201 0 0.00099587205079930104 -0.002549187141657376 0 0.00063336452516210974 -0.0020140812878041538 0 0.00048590394800714591 -0.0017591130269473201 0 0.00099587205079930104 -0.002549187141657376 0 0.00068368459944015631 -0.0020169041068148828 0 0.00098198078134626257 -0.0024937084298024188 0 0.00099587205079930104 -0.002549187141657376 0 0.00063336452516210974 -0.0020140812878041538 0 0.0010979657608494674 -0.0026173873711496133 0 0.00099587205079930104 -0.002549187141657376 0 0.00068368459944015631 -0.0020169041068148828 0 0.00056903576610323301 -0.0017182928526372138 0 0.00068368459944015631 -0.0020169041068148828 0 0.00036168322961964281 -0.0014521596607097007 0 0.00056903576610323301 -0.0017182928526372138 0 0.00023794923502260432 -0.0011002015324583663 0 0.00036168322961964281 -0.0014521596607097007 0 0.00048590394800714591 -0.0017591130269473201 0 0.00068368459944015631 -0.0020169041068148828 0 0.00036168322961964281 -0.0014521596607097007 0 0.00048590394800714591 -0.0017591130269473201 0 0.00015115918818750727 -0.0011140520781934807 0 0.00031065056350927357 -0.0014725033551102012 0 0.00048590394800714591 -0.0017591130269473201 0 0.00036168322961964281 -0.0014521596607097007 0 0.00015115918818750727 -0.0011140520781934807 0 0.00014330937530115083 -0.0010000851098712425 0 0.00036168322961964281 -0.0014521596607097007 0 0.00015115918818750727 -0.0011140520781934807 0 0.00015115918818750727 -0.0011140520781934807 0 0.00031065056350927357 -0.0014725033551102012 0 9.9815518942081085e-05 -0.0010472467802409447 0 0.00031065056350927357 -0.0014725033551102012 0 0.00063336452516210974 -0.0020140812878041538 0 0.00044176174835653856 -0.0017020116959436727 0 0.00048590394800714591 -0.0017591130269473201 0 0.00031065056350927357 -0.0014725033551102012 0 0.00063336452516210974 -0.0020140812878041538 0 0.00070609883018202539 -0.00208134815678795 0 0.00098198078134626257 -0.0024937084298024188 0 0.00063336452516210974 -0.0020140812878041538 0 0.00070609883018202539 -0.00208134815678795 0 0.00063336452516210974 -0.0020140812878041538 0 0.00044176174835653856 -0.0017020116959436727 0 0.00070609883018202539 -0.00208134815678795 0 0.00044176174835653856 -0.0017020116959436727 0 0.00042498099523006512 -0.0016580431781554467 0 0.00044176174835653856 -0.0017020116959436727 0 0.00042498099523006512 -0.0016580431781554467 0 0.000210310085559302 -0.0012984901631306251 0 0.00042498099523006512 -0.0016580431781554467 0 0.00019896718673951186 -0.0012831737731273788 0 0.000210310085559302 -0.0012984901631306251 0 0.00042498099523006512 -0.0016580431781554467 0 0.00019896718673951186 -0.0012831737731273788 0 0.00027140440309133607 -0.0013832104886536865 0 0.00019896718673951186 -0.0012831737731273788 0 0.000210310085559302 -0.0012984901631306251 0 8.1071574077789074e-05 -0.001032649701625637 0 0.00031065056350927357 -0.0014725033551102012 0 0.00044176174835653856 -0.0017020116959436727 0 0.000210310085559302 -0.0012984901631306251 0 0.00031065056350927357 -0.0014725033551102012 0 0.000210310085559302 -0.0012984901631306251 0 9.9815518942081085e-05 -0.0010472467802409447 0 0.00015115918818750727 -0.0011140520781934807 0 9.9815518942081085e-05 -0.0010472467802409447 0 -1.7435130717025462e-05 -0.00064839821018337733 0 9.9815518942081085e-05 -0.0010472467802409447 0 -2.4258573662922722e-06 -0.00077022192659885968 0 -1.7435130717025462e-05 -0.00064839821018337733 0 0.000210310085559302 -0.0012984901631306251 0 9.9815518942081085e-05 -0.0010472467802409447 0 8.1071574077789074e-05 -0.001032649701625637 0 9.9815518942081085e-05 -0.0010472467802409447 0 -2.4258573662922722e-06 -0.00077022192659885968 0 8.1071574077789074e-05 -0.001032649701625637 0 -2.4258573662922722e-06 -0.00077022192659885968 0 -5.7268114256411271e-06 -0.00083168167604132895 0 8.1071574077789074e-05 -0.001032649701625637 0 -2.4258573662922722e-06 -0.00077022192659885968 0 -4.5940715892494601e-05 -0.00053895742948334175 0 -4.0007793083154099e-05 -0.0006219309964998461 0 -2.4258573662922722e-06 -0.00077022192659885968 0 -5.7268114256411271e-06 -0.00083168167604132895 0 -4.0007793083154099e-05 -0.0006219309964998461 0 -5.7268114256411271e-06 -0.00083168167604132895 0 7.3670588041960806e-05 -0.0010633761159713742 0 -6.5081621971384141e-05 -0.00086011141188732426 0 7.3670588041960806e-05 -0.0010633761159713742 0 -6.5081621971384141e-05 -0.00086011141188732426 0 5.6832423551717815e-05 -0.0010845704390584018 0 0.00019896718673951186 -0.0012831737731273788 0 7.3670588041960806e-05 -0.0010633761159713742 0 0.00027140440309133607 -0.0013832104886536865 0 -5.7268114256411271e-06 -0.00083168167604132895 0 7.3670588041960806e-05 -0.0010633761159713742 0 8.1071574077789074e-05 -0.001032649701625637 0 0.00019896718673951186 -0.0012831737731273788 0 7.3670588041960806e-05 -0.0010633761159713742 0 8.1071574077789074e-05 -0.001032649701625637 0 -3.1921950483460866e-08 -2.8500202891622757e-07 0 -3.0518133134141456e-05 -0.00017225615191732973 0 -5.2982222529820236e-05 -0.00031944429945249963 0 -3.1921950483460866e-08 -2.8500202891622757e-07 0 -5.2982222529820236e-05 -0.00031944429945249963 0 -3.7211178593334288e-05 -0.00018104697114304155 0 -3.5230407104586465e-05 -0.00036736488190542528 0 -4.2670141476557855e-08 -3.3176847048624664e-07 0 -3.0518133134141456e-05 -0.00017225615191732973 0 -3.1921950483460866e-08 -2.8500202891622757e-07 0 -4.2670141476557855e-08 -3.3176847048624664e-07 0 -3.0518133134141456e-05 -0.00017225615191732973 0 -3.5230407104586465e-05 -0.00036736488190542528 0 -3.0518133134141456e-05 -0.00017225615191732973 0 -5.2982222529820236e-05 -0.00031944429945249963 0 -5.2982222529820236e-05 -0.00031944429945249963 0 -1.7435130717025462e-05 -0.00064839821018337733 0 -4.225360960050479e-05 -0.00053097995817997221 0 -3.5230407104586465e-05 -0.00036736488190542528 0 -5.2982222529820236e-05 -0.00031944429945249963 0 -1.7435130717025462e-05 -0.00064839821018337733 0 3.4242395489834094e-05 -0.00073786256698621768 0 -3.5230407104586465e-05 -0.00036736488190542528 0 -1.7435130717025462e-05 -0.00064839821018337733 0 -2.4258573662922722e-06 -0.00077022192659885968 0 -1.7435130717025462e-05 -0.00064839821018337733 0 -4.225360960050479e-05 -0.00053097995817997221 0 -4.225360960050479e-05 -0.00053097995817997221 0 -4.5940715892494601e-05 -0.00053895742948334175 0 -5.2520548759353481e-05 -0.00035334399684903772 0 -2.4258573662922722e-06 -0.00077022192659885968 0 -4.225360960050479e-05 -0.00053097995817997221 0 -4.5940715892494601e-05 -0.00053895742948334175 0 -4.5940715892494601e-05 -0.00053895742948334175 0 -4.5328760963718203e-05 -0.00044428972911205762 0 -4.0007793083154099e-05 -0.0006219309964998461 0 -4.5940715892494601e-05 -0.00053895742948334175 0 -5.2520548759353481e-05 -0.00035334399684903772 0 -4.5328760963718203e-05 -0.00044428972911205762 0 -5.2520548759353481e-05 -0.00035334399684903772 0 -3.4887168348202532e-05 -0.00020951427287375007 0 -4.5328760963718203e-05 -0.00044428972911205762 0 -5.2982222529820236e-05 -0.00031944429945249963 0 -4.225360960050479e-05 -0.00053097995817997221 0 -5.2520548759353481e-05 -0.00035334399684903772 0 -5.2982222529820236e-05 -0.00031944429945249963 0 -5.2520548759353481e-05 -0.00035334399684903772 0 -3.7211178593334288e-05 -0.00018104697114304155 0 -5.2520548759353481e-05 -0.00035334399684903772 0 -3.7211178593334288e-05 -0.00018104697114304155 0 -3.4887168348202532e-05 -0.00020951427287375007 0 -3.7211178593334288e-05 -0.00018104697114304155 0 -2.7848094233565559e-08 -2.415902504858719e-07 0 -3.4887168348202532e-05 -0.00020951427287375007 0 -3.1921950483460866e-08 -2.8500202891622757e-07 0 -3.7211178593334288e-05 -0.00018104697114304155 0 -2.7848094233565559e-08 -2.415902504858719e-07 0 -6.1525627150111792e-09 -2.2051577894923195e-07 0 -1.0652576998173832e-05 -0.00015529351906537912 0 -1.0920944858954681e-08 -2.1547207212936854e-07 0 -2.7848094233565559e-08 -2.415902504858719e-07 0 -6.1525627150111792e-09 -2.2051577894923195e-07 0 -3.4887168348202532e-05 -0.00020951427287375007 0 -6.1525627150111792e-09 -2.2051577894923195e-07 0 -3.4887168348202532e-05 -0.00020951427287375007 0 -1.0652576998173832e-05 -0.00015529351906537912 0 -3.4887168348202532e-05 -0.00020951427287375007 0 -1.0652576998173832e-05 -0.00015529351906537912 0 -2.3942505469688057e-05 -0.00031800182911602735 0 -3.4887168348202532e-05 -0.00020951427287375007 0 -2.3942505469688057e-05 -0.00031800182911602735 0 -4.5328760963718203e-05 -0.00044428972911205762 0 -4.5328760963718203e-05 -0.00044428972911205762 0 -3.6796893547239182e-05 -0.00046435585320304875 0 -4.0007793083154099e-05 -0.0006219309964998461 0 -2.3942505469688057e-05 -0.00031800182911602735 0 -4.5328760963718203e-05 -0.00044428972911205762 0 -3.6796893547239182e-05 -0.00046435585320304875 0 -3.6796893547239182e-05 -0.00046435585320304875 0 -1.6400821342602264e-05 -0.00042402522745114193 0 -4.082479659378301e-05 -0.00057160113774894878 0 -2.3942505469688057e-05 -0.00031800182911602735 0 -3.6796893547239182e-05 -0.00046435585320304875 0 -1.6400821342602264e-05 -0.00042402522745114193 0 -1.6400821342602264e-05 -0.00042402522745114193 0 -8.2821240011946101e-06 -0.00051136658346775693 0 9.6395667331590392e-06 -0.0002537248519158233 0 1.7516046921976341e-05 -0.00043337343052491734 0 -8.2821240011946101e-06 -0.00051136658346775693 0 9.6395667331590392e-06 -0.0002537248519158233 0 -2.3942505469688057e-05 -0.00031800182911602735 0 -1.6400821342602264e-05 -0.00042402522745114193 0 9.6395667331590392e-06 -0.0002537248519158233 0 -1.0652576998173832e-05 -0.00015529351906537912 0 9.6395667331590392e-06 -0.0002537248519158233 0 -1.0920944858954681e-08 -2.1547207212936854e-07 0 -1.0652576998173832e-05 -0.00015529351906537912 0 -2.3942505469688057e-05 -0.00031800182911602735 0 9.6395667331590392e-06 -0.0002537248519158233 0 2.4817942448226793e-08 -2.3143390203134577e-07 0 9.6395667331590392e-06 -0.0002537248519158233 0 -1.0920944858954681e-08 -2.1547207212936854e-07 0 -6.5081621971384141e-05 -0.00086011141188732426 0 -5.2200217759850362e-05 -0.00070630751836467279 0 -9.4908338406792721e-05 -0.00073967648439336427 0 -6.5081621971384141e-05 -0.00086011141188732426 0 -9.4908338406792721e-05 -0.00073967648439336427 0 -0.00021549137296043839 -0.00088229934701642299 0 -5.7268114256411271e-06 -0.00083168167604132895 0 -6.5081621971384141e-05 -0.00086011141188732426 0 -5.2200217759850362e-05 -0.00070630751836467279 0 -5.7268114256411271e-06 -0.00083168167604132895 0 -5.2200217759850362e-05 -0.00070630751836467279 0 -4.0007793083154099e-05 -0.0006219309964998461 0 -3.6796893547239182e-05 -0.00046435585320304875 0 -4.0007793083154099e-05 -0.0006219309964998461 0 -4.082479659378301e-05 -0.00057160113774894878 0 -5.2200217759850362e-05 -0.00070630751836467279 0 -4.0007793083154099e-05 -0.0006219309964998461 0 -4.082479659378301e-05 -0.00057160113774894878 0 -5.2200217759850362e-05 -0.00070630751836467279 0 -4.082479659378301e-05 -0.00057160113774894878 0 -9.4908338406792721e-05 -0.00073967648439336427 0 -4.082479659378301e-05 -0.00057160113774894878 0 -5.8166084126877026e-05 -0.00068983920951356755 0 -9.4908338406792721e-05 -0.00073967648439336427 0 -1.6400821342602264e-05 -0.00042402522745114193 0 -8.2821240011946101e-06 -0.00051136658346775693 0 -4.082479659378301e-05 -0.00057160113774894878 0 -2.7824699981290328e-05 -0.00064810095261320466 0 -8.2821240011946101e-06 -0.00051136658346775693 0 -5.8166084126877026e-05 -0.00068983920951356755 0 -8.2821240011946101e-06 -0.00051136658346775693 0 -4.082479659378301e-05 -0.00057160113774894878 0 -5.8166084126877026e-05 -0.00068983920951356755 0 -5.8166084126877026e-05 -0.00068983920951356755 0 -0.00013867891122111662 -0.00087134952487300736 0 -9.4908338406792721e-05 -0.00073967648439336427 0 -0.00013867891122111662 -0.00087134952487300736 0 -9.4908338406792721e-05 -0.00073967648439336427 0 -0.00021549137296043839 -0.00088229934701642299 0 -0.00035174133950726278 -0.0011355731062750254 0 -0.00013867891122111662 -0.00087134952487300736 0 -0.00021549137296043839 -0.00088229934701642299 0 -0.00035174133950726278 -0.0011355731062750254 0 -0.00089527681303526474 -0.0013825020654816584 0 -0.00021549137296043839 -0.00088229934701642299 0 -0.00089527681303526474 -0.0013825020654816584 0 -0.0015622949371267689 -0.001803317329709359 0 -0.0012937940985888146 -0.0015648488892090547 0 -0.00089527681303526474 -0.0013825020654816584 0 -0.00045693448481190702 -0.0010217384511590946 0 -0.00021549137296043839 -0.00088229934701642299 0 -0.010088059448870972 7.7132480308367602e-05 0 0.0011783880629794743 -0.0023957125977233048 0 -0.00045693448481190702 -0.0010217384511590946 0 -0.00021549137296043839 -0.00088229934701642299 0 -0.00015172306154567642 -0.00092875132432710642 0 -6.5081621971384141e-05 -0.00086011141188732426 0 -0.00021549137296043839 -0.00088229934701642299 0 -0.00015172306154567642 -0.00092875132432710642 0 0.0011783880629794743 -0.0023957125977233048 0 -0.002141263270237503 -0.0011274943161128201 0 -0.00045693448481190702 -0.0010217384511590946 0 -0.00015172306154567642 -0.00092875132432710642 0 -9.691204506495627e-07 -0.0010807627407959921 0 -0.002141263270237503 -0.0011274943161128201 0 -0.0015454912514809736 -0.002101848645651268 0 -0.00015172306154567642 -0.00092875132432710642 0 -9.691204506495627e-07 -0.0010807627407959921 0 5.6832423551717815e-05 -0.0010845704390584018 0 -6.5081621971384141e-05 -0.00086011141188732426 0 -0.00015172306154567642 -0.00092875132432710642 0 5.6832423551717815e-05 -0.0010845704390584018 0 -0.0018485622715675 -0.0022116504645984286 0 -0.0015339663227334349 -0.0018493847848742573 0 -0.0016437432787284898 -0.0021902558633259696 0 -0.0019256557480960004 -0.00207686007067739 0 -0.0018485622715675 -0.0022116504645984286 0 -0.0021937705014477759 -0.0023785052850237936 0 -0.0019256557480960004 -0.00207686007067739 0 -0.0018485622715675 -0.0022116504645984286 0 -0.0015339663227334349 -0.0018493847848742573 0 -0.0015622949371267689 -0.001803317329709359 0 -0.0019256557480960004 -0.00207686007067739 0 -0.0015339663227334349 -0.0018493847848742573 0 -0.0015339663227334349 -0.0018493847848742573 0 -0.0012937940985888146 -0.0015648488892090547 0 -0.0013791467678542968 -0.0016847927667808173 0 -0.0015622949371267689 -0.001803317329709359 0 -0.0015339663227334349 -0.0018493847848742573 0 -0.0012937940985888146 -0.0015648488892090547 0 -0.0012119997284664918 -0.0015618550963440896 0 -0.00089527681303526474 -0.0013825020654816584 0 -0.0012937940985888146 -0.0015648488892090547 0 -0.0012119997284664918 -0.0015618550963440896 0 -0.0012937940985888146 -0.0015648488892090547 0 -0.0013791467678542968 -0.0016847927667808173 0 -0.0015339663227334349 -0.0018493847848742573 0 -0.0013791467678542968 -0.0016847927667808173 0 -0.0015008137347188445 -0.0020319854163379932 0 -0.0013791467678542968 -0.0016847927667808173 0 -0.0014078987446832882 -0.0018739262355967126 0 -0.0015008137347188445 -0.0020319854163379932 0 -0.0013373160974387086 -0.0017354031165858327 0 -0.0013791467678542968 -0.0016847927667808173 0 -0.0014078987446832882 -0.0018739262355967126 0 -0.0013727082469470024 -0.0017725502406616726 0 -0.0013647310355894117 -0.0019132762767310916 0 -0.0014078987446832882 -0.0018739262355967126 0 -0.0013727082469470024 -0.0017725502406616726 0 -0.0013373160974387086 -0.0017354031165858327 0 -0.0014078987446832882 -0.0018739262355967126 0 -0.0013647310355894117 -0.0019132762767310916 0 -0.0013395510437178343 -0.002258201272483031 0 -0.0014078987446832882 -0.0018739262355967126 0 -0.0013395510437178343 -0.002258201272483031 0 -0.0014134763722657689 -0.0021870116315165344 0 -0.001321456952934905 -0.0026388499144435083 0 -0.0013395510437178343 -0.002258201272483031 0 -0.0014078987446832882 -0.0018739262355967126 0 -0.0014134763722657689 -0.0021870116315165344 0 -0.0014134763722657689 -0.0021870116315165344 0 -0.0014534415219116055 -0.0024438723006264731 0 -0.0015008137347188445 -0.0020319854163379932 0 -0.0014078987446832882 -0.0018739262355967126 0 -0.0014134763722657689 -0.0021870116315165344 0 -0.0015008137347188445 -0.0020319854163379932 0 -0.0014134763722657689 -0.0021870116315165344 0 -0.0014534415219116055 -0.0024438723006264731 0 -0.001321456952934905 -0.0026388499144435083 0 -0.0015339663227334349 -0.0018493847848742573 0 -0.0015008137347188445 -0.0020319854163379932 0 -0.0016437432787284898 -0.0021902558633259696 0 -0.0014534415219116055 -0.0024438723006264731 0 -0.0015008137347188445 -0.0020319854163379932 0 -0.0015911654894443434 -0.0025664906604237841 0 -0.0015008137347188445 -0.0020319854163379932 0 -0.0016437432787284898 -0.0021902558633259696 0 -0.0015911654894443434 -0.0025664906604237841 0 -0.0016437432787284898 -0.0021902558633259696 0 -0.0015911654894443434 -0.0025664906604237841 0 -0.001870941870326539 -0.0025355868589179323 0 -0.0015911654894443434 -0.0025664906604237841 0 -0.0013806845218892929 -0.0029377560979072861 0 -0.001493032178844119 -0.0032115002355102731 0 -0.0015911654894443434 -0.0025664906604237841 0 -0.0017506945493720929 -0.00290175935934542 0 -0.001493032178844119 -0.0032115002355102731 0 -0.0015911654894443434 -0.0025664906604237841 0 -0.0017506945493720929 -0.00290175935934542 0 -0.001870941870326539 -0.0025355868589179323 0 -0.001321456952934905 -0.0026388499144435083 0 -0.0011630403012703118 -0.0031987467078776854 0 -0.0013806845218892929 -0.0029377560979072861 0 -0.0014534415219116055 -0.0024438723006264731 0 -0.001321456952934905 -0.0026388499144435083 0 -0.0013806845218892929 -0.0029377560979072861 0 -0.0014534415219116055 -0.0024438723006264731 0 -0.0015911654894443434 -0.0025664906604237841 0 -0.0013806845218892929 -0.0029377560979072861 0 -0.0013806845218892929 -0.0029377560979072861 0 -0.0011484942877885785 -0.0036419633614076965 0 -0.001493032178844119 -0.0032115002355102731 0 -0.0011630403012703118 -0.0031987467078776854 0 -0.0013806845218892929 -0.0029377560979072861 0 -0.0011484942877885785 -0.0036419633614076965 0 -0.00074523669694169948 -0.0042793524419361536 0 -0.0011484942877885785 -0.0036419633614076965 0 -0.00093730300407283116 -0.0043639864783398237 0 -0.0011484942877885785 -0.0036419633614076965 0 -0.0012918399015356742 -0.0039383706714649202 0 -0.001493032178844119 -0.0032115002355102731 0 -0.0011484942877885785 -0.0036419633614076965 0 -0.0012918399015356742 -0.0039383706714649202 0 -0.00093730300407283116 -0.0043639864783398237 0 -0.0017506945493720929 -0.00290175935934542 0 -0.0016352079158629006 -0.0034967763504661019 0 -0.0018979288668089552 -0.0031553421929934257 0 -0.0012918399015356742 -0.0039383706714649202 0 -0.001493032178844119 -0.0032115002355102731 0 -0.0016352079158629006 -0.0034967763504661019 0 -0.0017506945493720929 -0.00290175935934542 0 -0.001493032178844119 -0.0032115002355102731 0 -0.0016352079158629006 -0.0034967763504661019 0 -0.0015412472983859285 -0.0040858637898434245 0 -0.0012918399015356742 -0.0039383706714649202 0 -0.0016352079158629006 -0.0034967763504661019 0 -0.0016352079158629006 -0.0034967763504661019 0 -0.0018430956911661216 -0.0035387071024846912 0 -0.0018979288668089552 -0.0031553421929934257 0 -0.0015412472983859285 -0.0040858637898434245 0 -0.0016352079158629006 -0.0034967763504661019 0 -0.0018430956911661216 -0.0035387071024846912 0 -0.0018430956911661216 -0.0035387071024846912 0 -0.0018979288668089552 -0.0031553421929934257 0 -0.0021088755250982219 -0.0031578563391640767 0 -0.0018979288668089552 -0.0031553421929934257 0 -0.0020704242576363649 -0.0027643510609005307 0 -0.0021088755250982219 -0.0031578563391640767 0 -0.0017506945493720929 -0.00290175935934542 0 -0.0018979288668089552 -0.0031553421929934257 0 -0.0020704242576363649 -0.0027643510609005307 0 -0.0020704242576363649 -0.0027643510609005307 0 -0.0021088755250982219 -0.0031578563391640767 0 -0.0023573683573053388 -0.0027531233962361885 0 0.00042498099523006512 -0.0016580431781554467 0 0.0009000951370253397 -0.0021707023265963984 0 0.00062428464287275776 -0.0017570260537871287 0 -0.0022783822773177684 -0.0026606125152470327 0 -0.0020314614774094167 -0.0023228260400842246 0 -0.0021088755250982219 -0.0031578563391640767 0 -0.0024184762818743716 -0.0031726050525445904 0 -0.0023573683573053388 -0.0027531233962361885 0 0.00070609883018202539 -0.00208134815678795 0 0.00042498099523006512 -0.0016580431781554467 0 0.0009000951370253397 -0.0021707023265963984 0 0.00042498099523006512 -0.0016580431781554467 0 0.00062428464287275776 -0.0017570260537871287 0 0.00027140440309133607 -0.0013832104886536865 0 0.00062428464287275776 -0.0017570260537871287 0 0.00027140440309133607 -0.0013832104886536865 0 0.00033517799605725028 -0.0013766025705669958 0 -0.0020704242576363649 -0.0027643510609005307 0 -0.0023573683573053388 -0.0027531233962361885 0 -0.0021937705014477759 -0.0023785052850237936 0 -0.0020314614774094167 -0.0023228260400842246 0 -0.0015454912514809736 -0.002101848645651268 0 0.00027140440309133607 -0.0013832104886536865 0 5.6832423551717815e-05 -0.0010845704390584018 0 0.00033517799605725028 -0.0013766025705669958 0 7.3670588041960806e-05 -0.0010633761159713742 0 0.00027140440309133607 -0.0013832104886536865 0 5.6832423551717815e-05 -0.0010845704390584018 0 -9.691204506495627e-07 -0.0010807627407959921 0 5.6832423551717815e-05 -0.0010845704390584018 0 0.00033517799605725028 -0.0013766025705669958 0 -0.0018485622715675 -0.0022116504645984286 0 -0.0021937705014477759 -0.0023785052850237936 0 -0.001870941870326539 -0.0025355868589179323 0 -0.0018485622715675 -0.0022116504645984286 0 -0.0016437432787284898 -0.0021902558633259696 0 -0.001870941870326539 -0.0025355868589179323 0 -0.0017506945493720929 -0.00290175935934542 0 -0.0020704242576363649 -0.0027643510609005307 0 -0.001870941870326539 -0.0025355868589179323 0 -0.0020704242576363649 -0.0027643510609005307 0 -0.0021937705014477759 -0.0023785052850237936 0 -0.001870941870326539 -0.0025355868589179323 0 
</DataArray>
</PointData>
<CellData Scalars="region_id,cross_section_updated,displacement_divergence," Vectors="" Tensors="stress,">
<DataArray type="Float64" Name="region_id" format="ascii">
1 1 1 1 1 1 1 1 1 1 1 1 1 1 1 1 1 1 1 1 1 1 1 1 1 1 1 1 1 1 1 1 1 1 1 1 1 1 1 1 1 1 1 1 1 1 1 1 1 1 1 1 1 1 1 1 1 1 1 1 1 1 1 1 1 1 1 1 1 1 1 1 1 1 1 1 1 1 1 1 1 1 1 1 1 1 1 1 1 1 1 1 1 1 1 1 1 1 1 1 1 1 1 1 1 1 1 1 1 1 1 1 1 1 1 1 1 1 1 1 1 1 1 1 1 1 1 1 1 1 1 1 1 1 1 1 1 1 1 1 1 1 1 1 1 1 1 1 1 1 1 1 1 1 1 1 1 1 1 1 1 1 1 1 1 1 1 1 1 1 1 1 1 1 1 1 1 1 1 1 1 1 1 1 1 1 1 1 1 1 1 1 1 1 1 1 1 1 1 1 1 1 1 1 1 1 1 1 1 1 1 1 1 1 1 1 1 1 1 1 1 1 1 1 1 1 1 1 1 1 1 1 1 1 1 1 1 1 1 1 1 1 1 1 1 1 1 1 1 1 1 1 1 1 1 1 1 1 1 1 1 1 1 1 1 1 1 1 1 1 1 1 1 1 1 1 1 1 1 1 1 1 1 1 1 1 1 1 1 1 1 1 1 1 1 1 1 1 1 1 1 1 1 1 1 1 1 1 1 1 1 1 1 1 1 1 1 1 1 1 1 1 1 1 1 1 1 1 1 1 1 1 1 1 1 1 1 1 1 1 1 1 1 1 1 1 1 1 1 1 1 1 1 1 1 1 1 1 1 1 1 1 1 1 1 1 1 1 1 1 1 1 1 1 1 1 1 1 1 1 1 1 1 1 1 1 1 1 1 1 1 1 1 1 1 1 1 1 1 1 1 1 1 1 1 1 1 1 1 1 1 1 1 1 1 1 1 1 1 1 1 1 1 1 1 1 1 1 1 1 1 1 1 1 1 1 1 1 1 1 1 1 1 1 1 1 1 1 1 1 1 1 1 1 1 1 1 1 1 1 1 1 1 1 1 1 1 1 1 1 1 1 1 1 1 1 1 1 1 1 1 1 1 1 1 1 1 1 1 1 1 1 1 1 1 1 1 1 1 1 1 1 1 1 1 1 1 1 1 1 1 1 1 1 1 1 1 1 1 1 1 1 1 1 1 1 1 1 1 1 1 1 1 1 1 1 1 1 3 1 1 3 1 1 3 1 1 1 1 1 1 1 1 1 1 1 1 1 3 1 1 1 1 1 3 1 1 1 1 1 1 1 1 1 1 1 1 1 1 1 1 1 1 1 1 1 1 1 1 1 1 1 1 1 1 1 1 1 1 1 1 1 1 1 1 1 1 1 1 1 1 1 1 1 1 1 1 1 1 1 1 1 1 1 1 1 1 1 1 1 1 1 1 1 1 1 1 1 1 1 1 1 1 1 1 1 1 1 1 1 1 1 1 1 1 1 1 1 1 1 1 1 1 1 1 1 1 1 1 1 1 1 1 1 1 1 1 1 1 1 1 1 1 1 1 1 1 1 1 1 1 1 1 1 1 1 1 1 1 1 1 1 1 1 1 1 1 1 1 1 1 1 1 1 1 1 1 1 1 1 1 1 1 1 1 1 1 1 1 1 1 1 1 3 1 1 1 3 1 1 3 1 1 1 1 1 1 1 1 1 1 1 3 1 1 1 1 3 1 1 1 1 1 1 1 1 1 1 1 1 1 1 1 1 1 1 1 1 1 1 1 1 1 1 1 1 1 1 1 1 1 1 1 1 1 1 1 1 1 1 1 1 1 1 1 1 1 1 1 1 1 1 1 1 1 1 2 1 1 1 1 1 1 1 1 1 1 1 1 1 1 2 1 1 2 1 2 1 1 1 1 1 1 1 1 1 1 1 1 1 2 1 1 1 1 1 1 1 1 1 1 1 1 1 1 1 1 1 1 1 1 1 1 1 1 1 1 1 1 1 1 1 1 1 1 1 1 1 1 1 1 1 1 1 1 1 1 1 1 1 1 1 1 1 1 1 1 1 1 1 1 1 1 1 1 1 1 1 1 1 1 1 1 1 1 1 1 1 1 1 1 1 1 1 1 1 1 1 1 1 1 1 1 1 1 1 1 1 1 1 1 1 1 1 1 1 1 1 1 1 1 1 1 1 1 1 1 1 1 1 1 1 1 1 1 1 1 1 1 1 1 1 1 1 1 1 1 2 1 1 2 1 2 1 1 1 1 1 1 1 1 1 1 1 1 1 1 1 1 1 1 1 1 1 1 1 1 1 1 1 1 1 1 1 1 1 1 1 1 1 1 1 1 1 1 1 1 1 1 1 2 1 1 1 1 1 2 1 1 1 1 1 1 1 
</DataArray>
<DataArray type="Float64" Name="stress" NumberOfComponents="9" format="ascii">
-547.11740640118205 -266.24037208193437 0 -266.24037208193437 -1643.7593383145613 0 0 0 -547.71918617893596 -274.3204409714433 -282.27860380620064 0 -282.27860380620064 -1904.8088124381948 0 0 0 -544.78231335240957 -349.79440632553195 -169.26874938781486 0 -169.26874938781486 -1453.0624712124052 0 0 0 -450.7142193844843 -104.18134478452794 -198.06849454921326 0 -198.06849454921326 -1738.2131802539252 0 0 0 -460.59863125961328 -25.343918746073342 -41.570721870715488 0 -41.570721870715488 -1556.5310254399972 0 0 0 -395.46873604651785 -14.692856695860883 4.1130744739817899 0 4.1130744739817899 -1512.8050156000268 0 0 0 -381.87446807397168 -118.33239443339508 -95.149051855606558 0 -95.149051855606558 -1588.1652354218127 0 0 0 -426.62440746380196 -23.564768360365861 -47.952851135748716 0 -47.952851135748716 -1538.0041716392411 0 0 0 -390.39223499990169 -37.109215215006998 -28.947741162305306 0 -28.947741162305306 -1481.7967811295048 0 0 0 -379.72649908612789 -85.010653836868642 -17.648474599958718 0 -17.648474599958718 -1482.8380673652955 0 0 0 -391.96218030054115 -176.8968592543722 -57.230947092569352 0 -57.230947092569352 -1418.5336124284677 0 0 0 -398.8576179207098 -105.48037049808727 -5.1731363094288554 0 -5.1731363094288554 -1330.3702783447893 0 0 0 -358.96266221071915 -261.85451492636713 -86.083968289820859 0 -86.083968289820859 -1354.7167593793192 0 0 0 -404.14281857642158 -156.62679469611925 -63.761031204114261 0 -63.761031204114261 -1362.2273118627932 0 0 0 -379.71352663972806 -458.40714827841356 -132.46497553540391 0 -132.46497553540391 -1375.6075841074826 0 0 0 -458.50368309647399 -498.17288468990256 -213.82631551460835 0 -213.82631551460835 -1494.4100264792512 0 0 0 -498.14572779228848 -225.19917336099158 -98.976830876958374 0 -98.976830876958374 -1303.9767682749455 0 0 0 -382.29398540898433 -283.88746821922933 -130.71599296623805 0 -130.71599296623805 -1463.7785781129137 0 0 0 -436.91651158303574 -10.504146905847847 35.108842315446736 0 35.108842315446736 -1602.3988291800788 0 0 0 -403.22574402148166 0.14443984244871899 27.343016292005132 0 27.343016292005132 -1525.8434465843029 0 0 0 -381.42475168546434 -37.858654500488626 53.551946104996659 0 53.551946104996659 -1547.1025822981696 0 0 0 -396.2403091996643 -11.13848891493376 20.501746577038375 0 20.501746577038375 -1524.3741828303268 0 0 0 -383.87816793631532 -14.329746101369437 1.4607605200935723 0 1.4607605200935723 -1521.9797764950756 0 0 0 -384.07738064911109 -11.359191892730678 41.711172678535377 0 41.711172678535377 -1478.9048354988445 0 0 0 -372.56600684789373 -7.8111814979426981 22.887331929238144 0 22.887331929238144 -1541.842949361273 0 0 0 -387.41353271480375 -32.019849071875342 15.529662932343967 0 15.529662932343967 -1398.2624039666089 0 0 0 -357.57056325962094 -128.48949662297815 1.8794818295486948 0 1.8794818295486948 -1428.663413441938 0 0 0 -389.28822751622903 -52.784739994304346 24.24498624946682 0 24.24498624946682 -1473.2792832721216 0 0 0 -381.51600581660637 -61.077436649305128 66.736798055273994 0 66.736798055273994 -1454.1014885616028 0 0 0 -378.79473130272709 -43.161914882118481 57.911251050062901 0 57.911251050062901 -1403.914580235793 0 0 0 -361.7691237794777 -3.9073047111614869 76.98177043007172 0 76.98177043007172 -1446.3308853618009 0 0 0 -362.55954751824038 -35.449573947432327 81.039947417659732 0 81.039947417659732 -1575.27619921525 0 0 0 -402.68144329067036 -45.952627234410102 101.57009581854484 0 101.57009581854484 -1331.7434446938523 0 0 0 -344.42401798206583 -105.83797566605244 91.095943978632022 0 91.095943978632022 -1346.0062707053257 0 0 0 -362.961061592845 -86.023658146919843 66.418317755230191 0 66.418317755230191 -1206.3977229005686 0 0 0 -323.10534526187234 -133.55251027800978 21.689427846094304 0 21.689427846094304 -1212.451357500931 0 0 0 -336.50096694473541 -77.362328922591928 30.333450752203817 0 30.333450752203817 -1318.170178986979 0 0 0 -348.88312697739264 -124.14832916280511 54.525396921879008 0 54.525396921879008 -1326.5955895662869 0 0 0 -362.68597968227323 -148.85171770032412 18.42549579070598 0 18.42549579070598 -1256.9299604327634 0 0 0 -351.44541953327189 -173.43305983768801 20.543688636778427 0 20.543688636778427 -1106.2086168483866 0 0 0 -319.9104191715187 -182.12982061741661 40.722446726361113 0 40.722446726361113 -1096.4703323868712 0 0 0 -319.65003825107203 -158.88872019827318 54.250552273612129 0 54.250552273612129 -1001.3278758514716 0 0 0 -290.05414901243603 -165.78693254322653 56.148921539328512 0 56.148921539328512 -1212.2898198580797 0 0 0 -344.51918810032646 -148.56481979327904 85.478595981775698 0 85.478595981775698 -1225.0962928544755 0 0 0 -343.41527816193855 -127.62225791862556 58.96397584851087 0 58.96397584851087 -1088.1980849729762 0 0 0 -303.95508572290032 -185.74610309843104 54.68423485106473 0 54.68423485106473 -1104.7858816952526 0 0 0 -322.63299619842121 -171.21837056671779 116.77728291222593 0 116.77728291222593 -1098.3456477549853 0 0 0 -317.39100458042594 -109.56786220029608 94.510004183635942 0 94.510004183635942 -1101.7855191008548 0 0 0 -302.83834532528772 -288.2511842161249 -33.359835623859851 0 -33.359835623859851 -1235.0785332692631 0 0 0 -380.8324293713469 -245.81375876133575 -8.6725117936987886 0 -8.6725117936987886 -1157.8985020625773 0 0 0 -350.92806520597833 -385.65570411882265 -39.018515703435895 0 -39.018515703435895 -1156.8523502033675 0 0 0 -385.6270135805475 -279.75884873183577 -51.386978639312304 0 -51.386978639312304 -1235.2366074048307 0 0 0 -378.74886403416662 -163.88643036609392 -26.778312825741864 0 -26.778312825741864 -1243.8279704508409 0 0 0 -351.9286002042337 -185.18028972275607 -28.19810290730743 0 -28.19810290730743 -1320.0660706024037 0 0 0 -376.31159008129003 -198.11926943194152 -15.067510624826014 0 -15.067510624826014 -1180.3036201034911 0 0 0 -344.60572238385811 -229.38945271617035 -31.803197642882424 0 -31.803197642882424 -1252.5468463971597 0 0 0 -370.48407477833257 -185.68218364995869 21.254240976314122 0 21.254240976314122 -1154.2674355598608 0 0 0 -334.98740480245488 -234.53063410198808 -8.7446629981808428 0 -8.7446629981808428 -1078.7484382146649 0 0 0 -328.31976807916317 -210.66572518304179 19.754103156874407 0 19.754103156874407 -1049.1110725620229 0 0 0 -314.9441994362661 -235.37923172889657 16.745869674443902 0 16.745869674443902 -1066.354012731751 0 0 0 -325.43331111516181 -263.3562844655138 -9.1827846112036013 0 -9.1827846112036013 -1046.36346417191 0 0 0 -327.42993715935597 -287.40348046233669 -26.789599814455357 0 -26.789599814455357 -1152.2982639796915 0 0 0 -359.92543611050701 -282.24265786540559 6.8763949408377716 0 6.8763949408377716 -1086.089699614748 0 0 0 -342.08308937003835 -352.2669079090964 -9.5845677627348191 0 -9.5845677627348191 -1056.9287431858515 0 0 0 -352.29891277373702 -318.05790429889578 5.4387615761836008 0 5.4387615761836008 -954.28410341248991 0 0 0 -318.08550192784639 -284.60260693537799 35.766094215346186 0 35.766094215346186 -984.11265815673005 0 0 0 -317.178816273027 -250.75690142496762 49.72769752393549 0 49.72769752393549 -890.82345860124906 0 0 0 -285.3950900065542 -282.32511023861798 22.128841168449881 0 22.128841168449881 -846.90016696309078 0 0 0 -282.30631930042722 -263.23263811502454 23.835131864087828 0 23.835131864087828 -793.28914477680314 0 0 0 -264.13044572295689 -225.11989050360199 35.431290533236563 0 35.431290533236563 -776.22183253644425 0 0 0 -250.33543076001149 -236.33312215577223 56.882546753840209 0 56.882546753840209 -789.90703915372183 0 0 0 -256.56004032737349 -257.14186392247836 30.784176978946299 0 30.784176978946299 -771.51875860495716 0 0 0 -257.16515563185885 -204.72016341763819 14.277824409419736 0 14.277824409419736 -778.42693380615765 0 0 0 -245.78677430594897 -226.53546391325955 30.172674165487365 0 30.172674165487365 -792.40053634002879 0 0 0 -254.73400006332201 -231.3565746532062 41.191981316668489 0 41.191981316668489 -840.09145858380214 0 0 0 -267.86200830925213 -240.11833810510154 3.8597101793674256 0 3.8597101793674256 -862.77869995110927 0 0 0 -275.72425951405273 -215.9288727600059 30.653341507204345 0 30.653341507204345 -882.87447953782635 0 0 0 -274.70083807445803 -272.50930043888047 16.187581110585512 0 16.187581110585512 -875.84776242949374 0 0 0 -287.08926571709361 -234.70552225678074 8.4936029824251591 0 8.4936029824251591 -960.06236663262052 0 0 0 -298.69197222235027 -243.18824831519072 12.730535272500106 0 12.730535272500106 -962.84012409593879 0 0 0 -301.50709310278239 -201.01712470982284 14.22003986215185 0 14.22003986215185 -999.36550554735913 0 0 0 -300.09565756429538 -194.02200764195618 39.123514376842422 0 39.123514376842422 -964.58778751312434 0 0 0 -289.65244878877002 -202.69471864306206 21.851945681502997 0 21.851945681502997 -991.23453071718086 0 0 0 -298.48231234006084 -211.67187802047295 8.7092700131620404 0 8.7092700131620404 -866.27079956345278 0 0 0 -269.4856693959814 -200.36306100843001 46.948179347520636 0 46.948179347520636 -918.69666523336491 0 0 0 -279.76493156044842 -224.50159231505199 5.5566451736494287 0 5.5566451736494287 -924.64431623211385 0 0 0 -287.28647713679152 -179.77695043976155 76.600873282004557 0 76.600873282004557 -998.85338292402594 0 0 0 -294.65758334094653 -171.18178838743415 73.59120507338082 0 73.59120507338082 -975.2946435440881 0 0 0 -286.61910798288091 -199.43012431825014 32.227751283471889 0 32.227751283471889 -928.53395656612065 0 0 0 -281.99102022109287 -214.48570491299097 50.340889879100757 0 50.340889879100757 -863.62823134227165 0 0 0 -269.52848406381599 -210.93357414844877 47.381543167465964 0 47.381543167465964 -855.84016615315977 0 0 0 -266.69343507540248 -211.00991595710298 5.9811029438064907 0 5.9811029438064907 -776.00505632104023 0 0 0 -246.75374306953586 -218.62627226617616 6.6102285012316315 0 6.6102285012316315 -776.80419283712354 0 0 0 -248.85761627582491 -221.04822314444255 -14.327146059411803 0 -14.327146059411803 -675.16495621007243 0 0 0 -224.05329483862897 -216.07295515761234 31.209084139455399 0 31.209084139455399 -860.98194093733537 0 0 0 -269.26372402373704 -207.02077847955528 9.1070225348156555 0 9.1070225348156555 -845.61795350896045 0 0 0 -263.15968299712893 -216.59782597560149 25.046177862260492 0 25.046177862260492 -842.26582214512041 0 0 0 -264.71591203018045 -183.79518864243857 10.443255055686905 0 10.443255055686905 -769.10427613181787 0 0 0 -238.22486619356414 -216.69074800516148 11.33813623242213 0 11.33813623242213 -779.44584429374891 0 0 0 -249.03414807472757 -219.26253674011207 18.264768660695609 0 18.264768660695609 -710.21096637022629 0 0 0 -232.36837577758456 -200.42463879479658 -2.916553764971809 0 -2.916553764971809 -654.11487141633165 0 0 0 -213.63487755278209 -170.0501181154217 15.472678106411024 0 15.472678106411024 -693.83757101681135 0 0 0 -215.97192228305835 -254.25789805473153 -35.426563578150194 0 -35.426563578150194 -695.83289848947152 0 0 0 -237.52269913605107 -210.67678972946351 -9.9582304467130598 0 -9.9582304467130598 -719.77374784011317 0 0 0 -232.61263439239406 -139.69516851933574 -4.1832951892592973 0 -4.1832951892592973 -695.41406930507003 0 0 0 -208.77730945610162 -206.3861040993387 -56.216356120538876 0 -56.216356120538876 -664.31828470033042 0 0 0 -217.67609719991731 -82.345043036727589 -60.329633875215791 0 -60.329633875215791 -625.2817676903901 0 0 0 -176.90670268177939 -153.3675860035255 -36.234856763887592 0 -36.234856763887592 -617.99635510534154 0 0 0 -192.84098527721676 -99.525481279348696 31.947224661716859 0 31.947224661716859 -460.12885371134826 0 0 0 -139.91358374767424 -28.123448404163838 -9.2941651296686132 0 -9.2941651296686132 -565.55641826286706 0 0 0 -148.41996666675769 -91.280122015745064 -50.868972940318884 0 -50.868972940318884 -593.63854465611394 0 0 0 -171.22966666796458 -181.84271720235233 2.0178618776759549 0 2.0178618776759549 -570.15340758326624 0 0 0 -187.99903119640464 -110.10194983458484 19.005957289955973 0 19.005957289955973 -614.51035148257495 0 0 0 -181.15307532928995 -120.4188001765466 24.718305548458943 0 24.718305548458943 -537.87521537736814 0 0 0 -164.57350388847863 -180.25661218271358 42.839456841579022 0 42.839456841579022 -557.69858841801465 0 0 0 -184.48880015018216 -187.26703931498318 18.54511529728029 0 18.54511529728029 -552.09441036964995 0 0 0 -184.84036242115835 -204.39908065697904 15.789383384561461 0 15.789383384561461 -617.89977774987585 0 0 0 -205.57471460171377 -217.5342832487035 44.208022669224874 0 44.208022669224874 -570.25999326999477 0 0 0 -196.94856912967458 -212.68045041449676 16.875219502200338 0 16.875219502200338 -556.25113477903403 0 0 0 -192.23289629838268 -223.9644834449293 32.728166425468032 0 32.728166425468032 -552.1113167693743 0 0 0 -194.01895005357588 -192.58426312178108 22.545841483291294 0 22.545841483291294 -577.81980653608173 0 0 0 -192.6010174144657 -225.3936131894302 49.575335619979143 0 49.575335619979143 -617.91656351703159 0 0 0 -210.82754417661545 -218.08227179268579 26.938547880644578 0 26.938547880644578 -628.99950226528995 0 0 0 -211.77044351449391 -221.11099519818833 47.980161950709117 0 47.980161950709117 -697.55708348772635 0 0 0 -229.66701967147867 -234.09265543349505 38.26444408980197 0 38.26444408980197 -637.65467728945953 0 0 0 -217.93683318073863 -214.96125955291029 29.419560201068624 0 29.419560201068624 -644.77235629327265 0 0 0 -214.93340396154571 -249.96273252791906 46.68874692507859 0 46.68874692507859 -707.28961802988238 0 0 0 -239.31308763945034 -238.51703140350827 32.412308780197577 0 32.412308780197577 -709.788736762084 0 0 0 -237.07644204139805 -217.47545674664417 34.565127766934637 0 34.565127766934637 -627.02636614296557 0 0 0 -211.12545572240242 -212.77355886323386 25.467798365135423 0 25.467798365135423 -700.46431027741676 0 0 0 -228.30946728516264 -226.43364383875428 193.82115226432506 0 193.82115226432506 -325.14616734275114 0 0 0 -137.89495279537618 -307.73761799342719 153.6329036277956 0 153.6329036277956 -397.53772605475115 0 0 0 -176.31883601204481 -309.31622563832025 127.73675517819055 0 127.73675517819055 -461.78096972673029 0 0 0 -192.77429884126263 -226.69188236332189 184.90405363137575 0 184.90405363137575 -368.55291196771549 0 0 0 -148.81119858275935 -34.162678274712334 250.78394160937637 0 250.78394160937637 -315.03092477484643 0 0 0 -87.298400762389747 -75.29944437793506 269.62191801937536 0 269.62191801937536 -165.92469893601856 0 0 0 -60.306035828488348 -162.51003050472363 68.047324069154911 0 68.047324069154911 -170.8148208071625 0 0 0 -83.331212827971598 -215.95608185534297 77.392160457329737 0 77.392160457329737 -148.86519144400836 0 0 0 -91.20531832483789 -112.46744142936564 77.142662326426489 0 77.142662326426489 -170.5617810567569 0 0 0 -70.757305621531259 -163.03347493843671 91.561477813782631 0 91.561477813782631 -145.8728702347762 0 0 0 -77.226586293303399 -352.61550271418275 -34.064414287144245 0 -34.064414287144245 -219.34540256811988 0 0 0 -142.99022632057529 -283.98562212913862 59.608472631266018 0 59.608472631266018 -353.64524040312517 0 0 0 -159.40771563306566 -337.45223473256431 79.580190097115064 0 79.580190097115064 -279.92157448489183 0 0 0 -154.34345230436372 -372.91212308524564 41.070959526755573 0 41.070959526755573 -397.41930686574688 0 0 0 -192.58285748774779 -443.15257157784856 -76.900211363035169 0 -76.900211363035169 -473.29804868814153 0 0 0 -229.11265506649761 -412.2336623521503 -144.73817781013304 0 -144.73817781013304 -449.20162652493809 0 0 0 -215.35882221927181 -555.34442033134178 -111.99013304452205 0 -111.99013304452205 -472.36301689843185 0 0 0 -256.92685930744335 -419.71021971068262 -71.27484140487627 0 -71.27484140487627 -401.38686914958635 0 0 0 -205.27427221506741 -474.36152569390788 12.915535643594467 0 12.915535643594467 -328.58632737141261 0 0 0 -200.73696326633035 -295.14034336294515 -287.17233949640536 0 -287.17233949640536 -650.68873958298354 0 0 0 -236.45727073648231 71.623252116693493 -132.83994886513449 0 -132.83994886513449 -552.72098282676552 0 0 0 -120.27443267751767 -465.89174870954884 -177.70093754999652 0 -177.70093754999652 -509.85983978128536 0 0 0 -243.93789712270879 -377.23998455769618 -154.1539386844122 0 -154.1539386844122 -483.24386839864917 0 0 0 -215.12096323908634 -224.01864101062313 -146.61841699933211 0 -146.61841699933211 -652.54248069876348 0 0 0 -219.14028042734662 -300.139211141082 -125.20972942553999 0 -125.20972942553999 -568.263220360594 0 0 0 -217.10060787541909 -259.03763536341347 -57.94599482643298 0 -57.94599482643298 -539.92114976364019 0 0 0 -199.73969628176332 -360.69078854253462 -5.6662141628423797 0 -5.6662141628423797 -647.30573332277299 0 0 0 -251.99913046632673 -414.65997249825671 50.701734148320384 0 50.701734148320384 -385.99576466229564 0 0 0 -200.16393429013817 -395.4349559989156 -4.3755196183451517 0 -4.3755196183451517 -479.59176249055736 0 0 0 -218.75667962236832 -279.4707488397014 23.784208456620036 0 23.784208456620036 -427.44267022142367 0 0 0 -176.72835476528121 -342.12760006313511 78.045316496323608 0 78.045316496323608 -628.76613065580295 0 0 0 -242.72343267973451 -254.09061081416621 132.57604131599896 0 132.57604131599896 -449.95662153472176 0 0 0 -176.01180808722165 -255.98394001602765 87.120810945723406 0 87.120810945723406 -623.94364604301973 0 0 0 -219.98189651476196 -188.65307824221907 181.13989086495212 0 181.13989086495212 -637.28589907669357 0 0 0 -206.48474432972841 -272.17074139229385 16.879497515894172 0 16.879497515894172 -761.94854681478273 0 0 0 -258.52982205176909 -241.91273042589398 18.21533892109278 0 18.21533892109278 -597.9024193683515 0 0 0 -209.95378744856123 -301.9428092066114 61.159215273656969 0 61.159215273656969 -726.79271082137529 0 0 0 -257.18388000699633 -204.85198067104545 108.52693643531074 0 108.52693643531074 -674.69826683018937 0 0 0 -219.88756187530851 -212.09984311289332 64.542917925631627 0 64.542917925631627 -733.25214211889602 0 0 0 -236.33799630794744 -251.96046587485534 79.411320269549265 0 79.411320269549265 -859.41938320265126 0 0 0 -277.84496226937654 -168.41376658200187 131.42879492383327 0 131.42879492383327 -838.98583830882001 0 0 0 -251.84990122270591 -201.27329553984282 110.08035281152297 0 110.08035281152297 -998.14225349949993 0 0 0 -299.85388725983512 -172.14024924797559 105.05979505133928 0 105.05979505133928 -891.51668453034949 0 0 0 -265.91423344458121 -222.91742064206392 186.76491097415601 0 186.76491097415601 -801.12282695422437 0 0 0 -256.0100618990723 -259.34939774762415 131.49506961818815 0 131.49506961818815 -824.12180208277823 0 0 0 -270.86779995760025 -177.95986465912256 169.36828051953898 0 169.36828051953898 -805.90681377849398 0 0 0 -245.96666960940411 -197.55299749346568 141.25460107969207 0 141.25460107969207 -920.61521989006633 0 0 0 -279.54205434588312 -183.57518810841475 167.81921207268999 0 167.81921207268999 -825.92471886883686 0 0 0 -252.37497674431233 -101.13706020879772 236.44680189648943 0 236.44680189648943 -908.01240454861272 0 0 0 -252.28736618935272 -44.575728019857138 281.94942537292809 0 281.94942537292809 -814.39392732084707 0 0 0 -214.74241383517608 -52.947997843627036 270.19453447367187 0 270.19453447367187 -937.37538610273532 0 0 0 -247.58084598659025 -152.53817292204099 225.38365671460633 0 225.38365671460633 -804.5398516407181 0 0 0 -239.26950614068983 -150.46916984647396 226.92877207743049 0 226.92877207743049 -650.63507596802629 0 0 0 -200.27606145362461 -208.71733122613477 219.36609230167915 0 219.36609230167915 -670.60523027591944 0 0 0 -219.83064037551367 -157.87194342718385 239.44278908695043 0 239.44278908695043 -523.37158126764371 0 0 0 -170.310881173707 -61.833938757691385 291.65548352507903 0 291.65548352507903 -635.98799140268329 0 0 0 -174.45548254009304 -219.73028148359799 215.13763137709202 0 215.13763137709202 -556.69208249018266 0 0 0 -194.10559099344573 -198.8412762986548 208.16642836259643 0 208.16642836259643 -388.25753981175058 0 0 0 -146.77470402760156 -295.3876031220384 149.55722125302486 0 149.55722125302486 -582.54458714553948 0 0 0 -219.48304756689458 42.653516289922663 342.11618603346517 0 342.11618603346517 -247.00350456753495 0 0 0 -51.087497069403071 -84.708683259289046 270.2613549748645 0 270.2613549748645 -499.78849203993377 0 0 0 -146.12429382480559 -99.533483807611276 285.06077450762723 0 285.06077450762723 -348.45232282581651 0 0 0 -111.9964516583571 -68.740719279681798 283.1896380390948 0 283.1896380390948 -676.63136710557592 0 0 0 -186.34302159631488 63.831869778830423 315.82074294623567 0 315.82074294623567 -570.05587084158287 0 0 0 -126.556000265688 50.735689576773893 356.24727777445923 0 356.24727777445923 -500.82887857386686 0 0 0 -112.52329724927358 55.373783299389743 300.1096798922938 0 300.1096798922938 -853.26851920532499 0 0 0 -199.4736839764837 53.323468774472076 341.25252646110812 0 341.25252646110812 -737.95870192656912 0 0 0 -171.15880828802437 153.74786277114481 344.93710499609733 0 344.93710499609733 -908.37403519306918 0 0 0 -188.65654310548098 88.413277831034975 307.88703450197886 0 307.88703450197886 -1075.3999116002924 0 0 0 -246.74665844231458 38.99993762792019 253.46870735116772 0 253.46870735116772 -1222.4822846878687 0 0 0 -295.87058676498691 14.173075062923544 318.23638349569273 0 318.23638349569273 -979.33076914096819 0 0 0 -241.28942351951036 47.433458713535856 268.28681542982031 0 268.28681542982031 -1043.6703690148097 0 0 0 -249.0592275753188 -123.51420724131458 227.51648008494931 0 227.51648008494931 -1010.6422691942898 0 0 0 -283.5391191089011 -59.884956958455859 212.81317554049474 0 212.81317554049474 -1176.5371677559287 0 0 0 -309.10553117859627 -22.880492871700426 281.75278116551181 0 281.75278116551181 -1071.2466121508696 0 0 0 -273.53177625564194 -31.699442095501126 265.31564504243215 0 265.31564504243215 -1060.2565753858162 0 0 0 -272.98900437033035 -4.8919003773280565 208.26874625935284 0 208.26874625935284 -1365.8501388197801 0 0 0 -342.6855097992775 20.789774313124326 252.45094143323013 0 252.45094143323013 -1285.6170695944038 0 0 0 -316.20682382031964 -44.612435732637095 182.3812367540063 0 182.3812367540063 -1436.8970813082888 0 0 0 -370.37737926023146 76.132456203828042 239.03229319230923 0 239.03229319230923 -1419.1835207596196 0 0 0 -335.76276613894697 14.355262714640958 156.9727658932029 0 156.9727658932029 -1575.8032280072221 0 0 0 -390.36199132314596 101.39779681552136 235.27846086778482 0 235.27846086778482 -1400.1901179636825 0 0 0 -324.69808028704028 83.217413427709289 197.93229763847785 0 197.93229763847785 -1388.032298548138 0 0 0 -326.20372128010786 29.293326952686982 252.95023603549726 0 252.95023603549726 -1225.5568752764198 0 0 0 -299.06588708093255 -129.28530706506717 125.02899709708106 0 125.02899709708106 -968.94172447491837 0 0 0 -274.55675788499639 -137.6846309186592 162.62236130056431 0 162.62236130056431 -1126.7588529144041 0 0 0 -316.11087095826565 -95.884865311654266 133.15366662032329 0 133.15366662032329 -1140.4597052162476 0 0 0 -309.08614263197546 -122.36827199190202 191.94258701492618 0 191.94258701492618 -1203.4972575213833 0 0 0 -331.46638237832076 -105.07289593089445 171.91920312339948 0 171.91920312339948 -1027.7686228138573 0 0 0 -283.21037968618748 -125.76607187336867 208.09647738835884 0 208.09647738835884 -971.81620603567899 0 0 0 -274.39556947726214 -149.24690607982848 203.27897326890775 0 203.27897326890775 -1072.2170987221052 0 0 0 -305.36600120048297 -60.398450604360278 220.63688223850204 0 220.63688223850204 -1037.0390031802206 0 0 0 -274.35936344614493 -70.742478607718112 213.94122345153096 0 213.94122345153096 -1227.6625729326133 0 0 0 -324.60126288508309 -61.809450591155155 166.02950609227037 0 166.02950609227037 -1303.5311109599897 0 0 0 -341.33514038778617 -19.593244917327183 222.16977563386263 0 222.16977563386263 -1364.217475212492 0 0 0 -345.95268003245496 -66.135799829766256 183.88091618269937 0 183.88091618269937 -1197.8036397541478 0 0 0 -315.98485989597839 -87.602022689613932 179.3936354282821 0 179.3936354282821 -1276.9925421554362 0 0 0 -341.14864121126266 -69.703971431280252 125.57308701433294 0 125.57308701433294 -1350.9542518528697 0 0 0 -355.16455582103777 -66.463503592306552 139.47616056760626 0 139.47616056760626 -1315.3752984644179 0 0 0 -345.45970051418158 -118.96858516534803 133.88825507139836 0 133.88825507139836 -1231.5673850540334 0 0 0 -337.63399255484546 -67.89246475238906 102.97737988028564 0 102.97737988028564 -1237.5243244670764 0 0 0 -326.35419730486637 -14.205418164134912 96.644996965137125 0 96.644996965137125 -1477.1931953727042 0 0 0 -372.84965338421011 -63.831864157218661 106.70112503707267 0 106.70112503707267 -1386.6309168482821 0 0 0 -362.61569525137566 -48.420098410495484 121.79320638090167 0 121.79320638090167 -1486.9395372779218 0 0 0 -383.83990892210431 -30.621062070180869 160.74878472216596 0 160.74878472216596 -1367.7752819897214 0 0 0 -349.59908601497523 -18.58975323283812 109.89632407866998 0 109.89632407866998 -1618.7882868516645 0 0 0 -409.34451002112564 -0.3517104781734588 112.54139213191775 0 112.54139213191775 -1519.0888025602637 0 0 0 -379.8601282596095 -31.358064515584374 162.13603802476518 0 162.13603802476518 -1510.4005043075631 0 0 0 -385.43964220578619 -40.96878711489353 145.93995267527225 0 145.93995267527225 -1492.8649989923888 0 0 0 -383.45844652682081 22.219740127079149 171.04850619511762 0 171.04850619511762 -1550.3828933497962 0 0 0 -382.04078830567914 -15.659594850396388 123.84270982432827 0 123.84270982432827 -1721.3057383634405 0 0 0 -434.24133330345876 -4.332642650141679 49.309406027911791 0 49.309406027911791 -1703.3655292814165 0 0 0 -426.92454298288976 -7.9404661503317584 51.651827732273432 0 51.651827732273432 -1783.1162790910294 0 0 0 -447.76418631034039 0.76020855144042798 46.852007437247039 0 46.852007437247039 -1623.2640003214838 0 0 0 -405.62594794251117 -9.4087199486132729 43.316632798514547 0 43.316632798514547 -1677.74610038228 0 0 0 -421.78870508272377 3.3410874460737432 41.825392485705834 0 41.825392485705834 -1550.5389604363972 0 0 0 -386.79946824758144 32.128946850708417 166.91581906246165 0 166.91581906246165 -1735.1449343419627 0 0 0 -425.75399687281242 46.627872731905882 176.60573739093115 0 176.60573739093115 -1575.6547510774253 0 0 0 -382.2567195863794 -15.123505539410871 159.60135750595691 0 159.60135750595691 -1570.3130841994025 0 0 0 -396.35914743470312 22.744464804568452 209.2255727959996 0 209.2255727959996 -1511.7697452777047 0 0 0 -372.25632011828429 -19.375527587088982 129.60949149880071 0 129.60949149880071 -1691.6296113368162 0 0 0 -427.75128473097675 18.797638588077461 152.79367636618065 0 152.79367636618065 -1731.6064566797777 0 0 0 -428.20220452292415 6.676879101409213 59.09671656447108 0 59.09671656447108 -1878.0280488253538 0 0 0 -467.83779243098707 -1.9705746717500006 39.550507179359556 0 39.550507179359556 -1851.6750683981172 0 0 0 -463.4114107674668 15.828195649336521 53.124811373068951 0 53.124811373068951 -2029.2102134364068 0 0 0 -503.34550444676825 17.557925835846618 61.858892146298786 0 61.858892146298786 -1887.0716544370807 0 0 0 -467.37843215030898 31.663963419115134 96.047442917561511 0 96.047442917561511 -1967.7237546160868 0 0 0 -484.01494779924451 -20.807883899595481 97.752496203584087 0 97.752496203584087 -1783.9765795666999 0 0 0 -451.19611586657379 -7.1956528198252272 99.622085734225038 0 99.622085734225038 -1889.8655068363078 0 0 0 -474.26528991403393 -3.4921962702392193 25.649833334541654 0 25.649833334541654 -2174.2287654507745 0 0 0 -544.43024043025525 -2.3874133716781216 31.883225614194771 0 31.883225614194771 -1984.7794122497544 0 0 0 -496.79170640535813 22.782564630002202 55.705113038566196 0 55.705113038566196 -2229.1542063420984 0 0 0 -551.5929104280234 10.410949432969574 1.3299249803308157 0 1.3299249803308157 -2063.9385448422327 0 0 0 -513.38189885231441 52.467678699566022 78.089064367540232 0 78.089064367540232 -1997.2930379896316 0 0 0 -486.20633982251638 28.644679559730321 133.29369123096239 0 133.29369123096239 -1828.3516775674834 0 0 0 -449.92674950193759 75.523663206089623 95.92584779691424 0 95.92584779691424 -1779.5206843516899 0 0 0 -425.99925528640051 14.195633205685226 45.523389401476379 0 45.523389401476379 -1841.6730643152841 0 0 0 -456.86935777739927 100.58180713544334 118.60702735717678 0 118.60702735717678 -1773.0243574556225 0 0 0 -418.11063758004366 32.869458894795571 93.058158747306152 0 93.058158747306152 -1652.5477837557319 0 0 0 -404.91958121523385 93.85313827471964 -12.649238340347438 0 -12.649238340347438 -1737.7521062192209 0 0 0 -410.97474198612417 65.597858869497941 -85.148607277742258 0 -85.148607277742258 -1816.1935684246346 0 0 0 -437.64892738878189 90.056192504968749 43.616591561562018 0 43.616591561562018 -1849.5905014547516 0 0 0 -439.88357723744411 28.602249655891683 -27.238699763945988 0 -27.238699763945988 -1982.5114051848177 0 0 0 -488.47728888223082 30.317403970122541 14.238267357599398 0 14.238267357599398 -2347.3599962085791 0 0 0 -579.26064805961414 31.561583435779539 -35.314294854861146 0 -35.314294854861146 -2278.2160029014885 0 0 0 -561.6636048664277 29.206830744664785 48.261433517207479 0 48.261433517207479 -2067.1361460344651 0 0 0 -509.48232882245111 34.233234776798781 -66.600857573539542 0 -66.600857573539542 -2225.5325095904191 0 0 0 -547.82481870340598 123.14891352166944 -70.476924293519914 0 -70.476924293519914 -1964.4609410878102 0 0 0 -460.3280068915368 0.51923211356279353 -18.142954684682991 0 -18.142954684682991 -1996.7319262028504 0 0 0 -499.05317352232123 20.670511850712501 -95.622621643813545 0 -95.622621643813545 -2048.4580403605396 0 0 0 -506.94688212745859 3.4032675515991286 -74.99223997095487 0 -74.99223997095487 -1912.1467698020861 0 0 0 -477.18587556262264 10.741238130302008 -118.80414886113522 0 -118.80414886113522 -1754.1408225404848 0 0 0 -435.84989610254524 37.857256023724403 -232.92087091128724 0 -232.92087091128724 -1677.1184757217343 0 0 0 -409.81530492450293 200.29759331860259 -293.57675958656 0 -293.57675958656 -1656.3609144527054 0 0 0 -364.01583028352616 126.53742669988077 -186.39060129410791 0 -186.39060129410791 -1854.3409627735487 0 0 0 -431.95088401841696 97.530109004112091 -312.43223486955594 0 -312.43223486955594 -1586.1603567523707 0 0 0 -372.15756193706511 45.665929764916655 -103.69203722960083 0 -103.69203722960083 -1789.1103267682811 0 0 0 -435.86109925084202 142.05444334048616 -171.8092845850606 0 -171.8092845850606 -1703.4034716952247 0 0 0 -390.33725708868269 157.12774303309607 -29.812345294161787 0 -29.812345294161787 -1735.1315793544763 0 0 0 -394.500959080347 297.04625477422996 -145.35146488886312 0 -145.35146488886312 -1647.3205575666634 0 0 0 -337.56857569810745 182.25493731510323 -71.526148627486236 0 -71.526148627486236 -1558.932042457378 0 0 0 -344.16927628556823 395.10044127686888 -87.828861103318559 0 -87.828861103318559 -1485.5223788521453 0 0 0 -272.60548439381819 187.5650069738731 -243.85104330578406 0 -243.85104330578406 -1565.440626080388 0 0 0 -344.46890477662964 190.66716691527472 -356.10197837479882 0 -356.10197837479882 -1503.6738254250449 0 0 0 -328.25166462744346 249.99310375355526 -316.8695275663631 0 -316.8695275663631 -1616.8319791607792 0 0 0 -341.70971885180552 341.17256808627508 -232.26645968064258 0 -232.26645968064258 -1515.2412199368928 0 0 0 -293.5171629626534 223.20704775343438 -391.06367245405272 0 -391.06367245405272 -1516.03638932782 0 0 0 -323.20733539359571 330.52184114844931 -413.17752439181311 0 -413.17752439181311 -1480.6701422559745 0 0 0 -287.53707527688039 538.6499085785008 -409.22149127068997 0 -409.22149127068997 -1414.5622818637275 0 0 0 -218.97809332130691 383.23480195321281 -293.11905283932492 0 -293.11905283932492 -1445.8967688727535 0 0 0 -265.66549172988562 743.71647843046378 -254.58987462480218 0 -254.58987462480218 -1328.3108891680413 0 0 0 -146.14860268439438 611.34619704317583 -499.98496424661244 0 -499.98496424661244 -1304.5945901357538 0 0 0 -173.31209827314382 479.60347902205103 -421.72305540684147 0 -421.72305540684147 -1364.0295913618465 0 0 0 -221.10652808494888 399.52188521205244 -64.119564363943141 0 -64.119564363943141 -1424.1591657922327 0 0 0 -256.15932014504415 467.95461643852968 -274.79805898732775 0 -274.79805898732775 -1441.5975642321901 0 0 0 -243.41073694841498 522.18053800154394 -83.07955507085444 0 -83.07955507085444 -1384.303151473543 0 0 0 -215.53065336799955 784.42234999977609 -2.2257026919787677 0 -2.2257026919787677 -1243.194806507955 0 0 0 -114.69311412704428 454.34471074214525 108.52507909126439 0 108.52507909126439 -1253.4250036575449 0 0 0 -199.77007322885038 548.79161075104776 70.417490783597714 0 70.417490783597714 -1192.0593687141072 0 0 0 -160.81693949076498 368.68038883268855 50.601781617861889 0 50.601781617861889 -1365.2879961526069 0 0 0 -249.15190182997867 329.78354388541675 207.58049830411255 0 207.58049830411255 -1268.8111737815652 0 0 0 -234.75690747403723 412.28192890058654 239.59964957576904 0 239.59964957576904 -1085.6033939027684 0 0 0 -168.33036625054592 300.31912476106618 169.60107711984165 0 169.60107711984165 -1219.3966515790507 0 0 0 -229.76938170449603 238.23936427728677 301.15934557172022 0 301.15934557172022 -1052.6205518475972 0 0 0 -203.59529689257761 100.38530781064185 235.58513851746829 0 235.58513851746829 -1244.2697615211878 0 0 0 -285.97111342763617 139.10852159423666 233.27424623390357 0 233.27424623390357 -1231.0877924915239 0 0 0 -272.99481772432182 158.62587786802578 129.38016317737811 0 129.38016317737811 -1384.7244637541116 0 0 0 -306.52464647152192 227.82494784611117 201.9493101826738 0 201.9493101826738 -1391.9856186650759 0 0 0 -291.040167704743 65.097589314395009 119.64095972706608 0 119.64095972706608 -1512.3741817870214 0 0 0 -361.81914811815659 209.04081654654146 149.33951601962508 0 149.33951601962508 -1580.2887846114454 0 0 0 -342.8119920162253 88.315782993050561 63.824919681551364 0 63.824919681551364 -1542.3301300472995 0 0 0 -363.50358676356154 209.44043049392917 53.892149813093056 0 53.892149813093056 -1650.9206467084869 0 0 0 -360.37005405363993 208.98425304127068 -88.540273751184941 0 -88.540273751184941 -1630.0663659295042 0 0 0 -355.2705282220586 228.97971940354273 76.732503885583355 0 76.732503885583355 -1421.5713817775686 0 0 0 -298.14791559350579 322.22823642288063 80.706140720260009 0 80.706140720260009 -1474.7694347539946 0 0 0 -288.13529958277809 -323.22624871696382 -131.12849408682814 0 -131.12849408682814 -1062.8245577698758 0 0 0 -346.51270162170943 -151.51799996856607 -197.09806988193645 0 -197.09806988193645 -1147.5938527558537 0 0 0 -324.77796318110813 -89.10501292214758 -73.825436246430399 0 -73.825436246430399 -1052.3041684949276 0 0 0 -285.35229535426879 -121.45794874417527 -82.902264711492535 0 -82.902264711492535 -988.4955503531387 0 0 0 -277.48837477433165 -9.6614683571642672 -7.3611627021800814 0 -7.3611627021800814 -1014.808356692869 0 0 0 -256.11745626250195 -6.8303780882270075 -8.945437247018365 0 -8.945437247018365 -1011.3189755186177 0 0 0 -254.53733840170753 -11.069855803973041 -9.0898331585940468 0 -9.0898331585940468 -1006.7976408215327 0 0 0 -254.46687415637643 -13.469721714174739 -7.7194115341553697 0 -7.7194115341553697 -1009.8953846264631 0 0 0 -255.84127658516263 -47.60623429455336 -87.232026926644778 0 -87.232026926644778 -1135.1259452751328 0 0 0 -295.68304489242291 -68.594083223808411 -170.51490968603684 0 -170.51490968603684 -1104.792288736573 0 0 0 -293.34659299009218 10.657433086698802 -63.825176761823968 0 -63.825176761823968 -1095.3351392576806 0 0 0 -271.16942654274499 -62.547857190400464 -120.15853034812255 0 -120.15853034812255 -1301.1378105001713 0 0 0 -340.9214169226434 -82.774478406834533 -223.17998821772244 0 -223.17998821772244 -1333.9608279144413 0 0 0 -354.18382658031624 -60.284173505399849 -337.25687712062245 0 -337.25687712062245 -1225.5928916102457 0 0 0 -321.46926627891025 -135.08895736769591 -265.3152901929152 0 -265.3152901929152 -1062.4086258346524 0 0 0 -299.37439580058708 -404.64074688786241 -316.73383384910812 0 -316.73383384910812 -1168.4617422663905 0 0 0 -393.27562228856186 -58.203403349775726 -433.04701331929937 0 -433.04701331929937 -1172.5604525965682 0 0 0 -307.6909639865853 -243.95733590529744 -369.65029370480875 0 -369.65029370480875 -1282.3730767173402 0 0 0 -381.58260315565894 -98.136613886043847 -443.13269181218493 0 -443.13269181218493 -1336.1491655197117 0 0 0 -358.57144485143806 -57.621729412772765 -379.49312638646552 0 -379.49312638646552 -1481.7561231265281 0 0 0 -384.84446313482294 -30.159355632320739 -375.9191795404513 0 -375.9191795404513 -1304.6188756229064 0 0 0 -333.69455781380589 -71.132653269862203 -173.93089598223173 0 -173.93089598223173 -1539.8395743318324 0 0 0 -402.74305690042456 26.608174623804189 -158.91961055141292 0 -158.91961055141292 -1232.1915354936882 0 0 0 -301.39584021746941 20.758165314186044 -141.03378864326078 0 -141.03378864326078 -1516.2789867885804 0 0 0 -373.88020536859403 28.564958040369675 -265.08982004014615 0 -265.08982004014615 -1359.7079255780263 0 0 0 -332.78574188441235 -24.668020644403668 -254.78460409648505 0 -254.78460409648505 -1648.7746581999445 0 0 0 -418.36066971109017 -7.7066460979276599 -129.16169960383741 0 -129.16169960383741 -1599.4277205790495 0 0 0 -401.78359166924565 13.601978188066836 -124.00041447819785 0 -124.00041447819785 -1826.359923184099 0 0 0 -453.18948624900349 66.190412611779266 -232.18152868992183 0 -232.18152868992183 -1771.8394758454001 0 0 0 -426.41226580840294 53.899420109493803 -300.39479389666667 0 -300.39479389666667 -1524.1930447850827 0 0 0 -367.57340616889633 92.194307017906794 -440.8777831644893 0 -440.8777831644893 -1373.0129833074152 0 0 0 -320.20466907237915 36.303421939328928 -384.71374427614501 0 -384.71374427614501 -1570.5760636441346 0 0 0 -383.56816042620221 123.28160138860221 -426.87103618863068 0 -426.87103618863068 -1495.0018789341157 0 0 0 -342.930069386377 259.53433792807641 -483.77340215860568 0 -483.77340215860568 -1470.4421458283987 0 0 0 -302.72695197508278 71.260776597546283 -539.97812733586215 0 -539.97812733586215 -1424.6194062565155 0 0 0 -338.33965741474276 253.98051758226302 -518.03749922645329 0 -518.03749922645329 -1423.0606091868794 0 0 0 -292.27002290115433 154.18039910350672 -636.66021916810678 0 -636.66021916810678 -1293.810125618254 0 0 0 -284.90743162868603 46.791112395460686 -646.73101196065181 0 -646.73101196065181 -1331.4398180210337 0 0 0 -321.16217640639229 314.96833198931017 -557.29241490284812 0 -557.29241490284812 -1348.7223853049036 0 0 0 -258.43851332889881 80.717828971531162 -639.56648065292939 0 -639.56648065292939 -1227.2161257735606 0 0 0 -286.6245742005076 148.37687987576101 -748.14496049069385 0 -748.14496049069385 -1183.4872391968693 0 0 0 -258.77758983027616 -227.37630729339253 -671.99488335371825 0 -671.99488335371825 -1313.3393266051826 0 0 0 -385.17890847464514 -145.61263076500609 -598.23737962210726 0 -598.23737962210726 -1315.2773872102953 0 0 0 -365.22250449382364 -148.64240396976129 -534.55007061792412 0 -534.55007061792412 -1183.5169103356748 0 0 0 -333.03982857636038 97.396628250740832 -554.02955484902213 0 -554.02955484902213 -1326.1469668290338 0 0 0 -307.18758464457187 -57.957603714318793 -471.81749748481889 0 -471.81749748481889 -1400.5021147021398 0 0 0 -364.61492960411397 -271.97867037311244 -481.94829895163457 0 -481.94829895163457 -1266.4358571705561 0 0 0 -384.603631885916 -156.00832423098473 -399.13027441617078 0 -399.13027441617078 -1028.4577298543954 0 0 0 -296.11651352134504 -457.67533766298766 -453.86693765431846 0 -453.86693765431846 -1146.2886391955362 0 0 0 -400.99099421463143 -272.49804853568457 -564.24867110062678 0 -564.24867110062678 -1099.033697873605 0 0 0 -342.88293660232193 -535.72177171578187 -583.46618310615304 0 -583.46618310615304 -1184.8936695822449 0 0 0 -430.15386032450624 -202.56407479269819 -710.86510720830665 0 -710.86510720830665 -1121.1890000091007 0 0 0 -330.93826870044995 -450.09334613171995 -535.55999211809649 0 -535.55999211809649 -989.11601103156499 0 0 0 -359.80233929082169 -822.2964732354958 -421.31072851786666 0 -421.31072851786666 -1161.4760544230121 0 0 0 -495.94313191462788 -1073.5424712816211 -531.63456858095105 0 -531.63456858095105 -1124.6568887756621 0 0 0 -549.54984001432149 -1078.0435602825373 -234.97294788188719 0 -234.97294788188719 -1039.4118130225197 0 0 0 -529.36384332626676 -690.32963099548033 -202.81316826285183 0 -202.81316826285183 -1013.4130889833141 0 0 0 -425.93567999469997 -599.5623740286278 -189.52232222029306 0 -189.52232222029306 -1012.3344114232932 0 0 0 -402.97419636297809 -343.49606271352195 -374.05214761691605 0 -374.05214761691605 -1005.08675479263 0 0 0 -337.14570437653992 -627.64328796411792 -223.05771751171415 0 -223.05771751171415 -1107.1234592642104 0 0 0 -433.6916868070839 -215.69174663183185 -179.93390090467028 0 -179.93390090467028 -978.32230924839314 0 0 0 -298.50351397005397 -1833.0695597685863 -278.13113750575576 0 -278.13113750575576 -904.8366870220234 0 0 0 -684.47656169764923 -2866.0674626739069 -157.63733553184147 0 -157.63733553184147 -1032.3149892316073 0 0 0 -974.59561297637492 -1600.5875786273555 -599.98403950364855 0 -599.98403950364855 -900.85747092528982 0 0 0 -625.36126238815996 -1878.6686003459752 -360.27822134507915 0 -360.27822134507915 -1051.6888258602323 0 0 0 -732.5893565515496 -2152.9353025457358 -242.80030464642005 0 -242.80030464642005 -975.01410358315297 0 0 0 -781.98735153222469 -1567.0199607159866 -256.25108835398754 0 -256.25108835398754 -1016.9994803543959 0 0 0 -646.00486026759609 -937.80393336895213 -263.24348398299117 0 -263.24348398299117 -984.94015244371985 0 0 0 -480.686021453168 -1359.37593820865 -259.34854235052171 0 -259.34854235052171 -988.99998684561069 0 0 0 -587.09398126356609 -1265.7744123044786 -622.35204207569416 0 -622.35204207569416 -1000.1439739183079 0 0 0 -566.47959655569593 -691.47935430909183 -713.88212680340075 0 -713.88212680340075 -1060.3723496973271 0 0 0 -437.96292600160359 -648.19848241596947 -611.48383436530639 0 -611.48383436530639 -1033.2229855038149 0 0 0 -420.35536697994894 -407.20875606320624 -691.85646917594568 0 -691.85646917594568 -1192.713134875004 0 0 0 -399.98047273455268 -728.45570048306945 -871.54944282445194 0 -871.54944282445194 -922.77362338278181 0 0 0 -412.80733096646236 -1112.2662696282227 -546.2451410465128 0 -546.2451410465128 -1024.7804791118788 0 0 0 -534.26168718502458 -998.93448980945391 -578.31506772358716 0 -578.31506772358716 -990.1294033171082 0 0 0 -497.26597328163803 -34.287259170918105 -833.94179512752817 0 -833.94179512752817 -938.7923486981872 0 0 0 -243.26990196727797 22.74549493481527 -781.01199203015085 0 -781.01199203015085 -789.55756253928485 0 0 0 -191.70301690111819 382.90271341147991 -882.51802852127639 0 -882.51802852127639 -1038.683010149558 0 0 0 -163.94507418451985 -625.43778905859745 -765.96797382550085 0 -765.96797382550085 -986.24892966469997 0 0 0 -402.92167968082413 -112.60813806370561 -842.44155336761742 0 -842.44155336761742 -1021.0059553779793 0 0 0 -283.40352336042042 -476.95612419430745 -831.02443411532386 0 -831.02443411532386 -1118.4197524461633 0 0 0 -398.84396916011883 -110.18709808126368 -841.46404327986147 0 -841.46404327986147 -1170.7091116871343 0 0 0 -320.22405244209858 -66.256719024657286 -738.22290877944397 0 -738.22290877944397 -1190.4881221988835 0 0 0 -314.18621030588474 262.48498801731603 -827.90900715205953 0 -827.90900715205953 -1126.7481094865507 0 0 0 -216.06578036730843 -134.35794859433372 -783.94090256316406 0 -783.94090256316406 -1122.7501219742408 0 0 0 -314.27701764214271 255.3877482598773 -689.18402956872137 0 -689.18402956872137 -1219.1623595178098 0 0 0 -240.94365281448154 645.29233369151689 -775.0436821140338 0 -775.0436821140338 -1163.8031716663645 0 0 0 -129.62770949371452 419.35015857072995 -715.90741078836709 0 -715.90741078836709 -1240.0851242347326 0 0 0 -205.18374141600088 731.84722628515874 -608.22099814515241 0 -608.22099814515241 -1240.0069635612635 0 0 0 -127.039934319027 406.37373449820188 -546.10499714572393 0 -546.10499714572393 -1322.641057949917 0 0 0 -229.06683086293015 653.93023933866152 -553.19475595878771 0 -553.19475595878771 -1150.2461308529346 0 0 0 -124.07897287856849 1030.0066412465098 -652.20260485983181 0 -652.20260485983181 -1080.9190661498669 0 0 0 -12.728106225839383 395.09038808699779 -722.77215051773464 0 -722.77215051773464 -1030.84027172897 0 0 0 -158.93747091049545 952.94557899414121 -818.04151754672057 0 -818.04151754672057 -952.95747293426666 0 0 0 -0.0029734850313616334 894.93789333483164 -544.04847499321795 0 -544.04847499321795 -887.3719758987263 0 0 0 1.8914793590256522 1367.9761618176572 -469.05374898138029 0 -469.05374898138029 -528.25563190239882 0 0 0 209.93013247881436 1445.9127084766835 -670.32085732924088 0 -670.32085732924088 -711.55396916555583 0 0 0 183.58968482778187 674.98590641584406 -726.32180579569513 0 -726.32180579569513 -682.43239240371804 0 0 0 -1.8616214969683824 367.43043825336008 -924.18532733131588 0 -924.18532733131588 -691.28965845848415 0 0 0 -80.964805051280564 1010.2243885590228 -920.65890595823134 0 -920.65890595823134 -128.15152669633972 0 0 0 220.51821546566998 1383.9958216031509 -682.64985086786828 0 -682.64985086786828 758.68426452268113 0 0 0 535.67002153145859 1672.0609032572318 -129.37520294581395 0 -129.37520294581395 521.08632539571499 0 0 0 548.2868071632372 1192.4609581799596 -298.40990213352029 0 -298.40990213352029 1175.851120499532 0 0 0 592.07801966987336 960.48616697431112 -375.56392463119073 0 -375.56392463119073 382.77108261344711 0 0 0 335.81431239693916 610.41156401061176 -767.43846318260853 0 -767.43846318260853 -27.472467966448676 0 0 0 145.73477401104037 995.82483945038052 -476.54015030838104 0 -476.54015030838104 -110.8045389229558 0 0 0 221.25507513185653 202.23536760071488 -123.7014050231096 0 -123.7014050231096 112.94562301338522 0 0 0 78.795247653526303 -151.74924938331492 -432.75636758212102 0 -432.75636758212102 -207.47379570954718 0 0 0 -89.805761273215239 -728.01913767584529 -229.19527269887999 0 -229.19527269887999 -158.17580145634497 0 0 0 -221.54873478304808 -173.31375694738608 -721.63977615400961 0 -721.63977615400961 -684.46022132982398 0 0 0 -214.4434945693024 -750.13108697325208 -538.43007818150704 0 -538.43007818150704 -724.68255912160748 0 0 0 -368.7034115237135 2.7978503941526469 -643.21250512415281 0 -643.21250512415281 -135.9791109880498 0 0 0 -33.295315148474856 -592.80993007689312 -872.38451949473483 0 -872.38451949473483 -635.1484687461616 0 0 0 -306.98959970576243 -1212.057953771442 -706.14118444909991 0 -706.14118444909991 -819.66522744987014 0 0 0 -507.93079530532759 -1532.6182427524095 -418.57048670876975 0 -418.57048670876975 -906.03139353138431 0 0 0 -609.66240907094698 -924.41203181098854 -741.43514998426895 0 -741.43514998426895 -612.98133992796556 0 0 0 -384.34834293474023 -1506.1275914005928 -242.23155745884679 0 -242.23155745884679 -692.1903000846446 0 0 0 -549.5794728713081 -957.27453064629151 -344.12687122995533 0 -344.12687122995533 -818.01992662486009 0 0 0 -443.82361431778861 -2195.8191477606833 64.500366773066162 0 64.500366773066162 -873.59997577108061 0 0 0 -767.35478088294099 -1636.2053038129375 -272.06812438376096 0 -272.06812438376096 -413.52008502538774 0 0 0 -512.4313472095813 -1588.3273923863937 -403.24493559241489 0 -403.24493559241489 -755.98442661640138 0 0 0 -586.07795475069804 -2382.3494668302819 -172.63454328513308 0 -172.63454328513308 -895.40301410249776 0 0 0 -819.43812023319629 -2402.066519293403 -188.05630392641137 0 -188.05630392641137 -882.50590132654179 0 0 0 -821.14310515498653 -3618.356125014695 -109.59007577341788 0 -109.59007577341788 -922.75341322207532 0 0 0 -1135.2773845591898 -2421.8888240328974 -218.82679795468812 0 -218.82679795468812 -941.65950383077234 0 0 0 -840.8870819659187 -3343.7172788778571 -258.42036523290244 0 -258.42036523290244 -933.29267642259674 0 0 0 -1069.2524888251137 -2481.7707482802443 -154.71327913976802 0 -154.71327913976802 -1077.7440037744527 0 0 0 -889.87868801367313 -1767.4164755867873 -557.35183240913102 0 -557.35183240913102 -839.42283998301855 0 0 0 -651.70982889245124 -2018.6141748670616 -433.20928936435712 0 -433.20928936435712 -877.73649356198803 0 0 0 -724.08766710726104 794.05975141923727 385.72284909045538 0 385.72284909045538 -661.22783362658902 0 0 0 33.20797944816195 796.4118959129105 376.31103148405214 0 376.31103148405214 -617.72997005110301 0 0 0 44.670481465452667 995.93953751233187 408.66472301962813 0 408.66472301962813 -553.5264069177731 0 0 0 110.60328264863992 530.06730424024272 415.97799814812697 0 415.97799814812697 -429.6402898760407 0 0 0 25.106753591050165 253.10147781610112 400.72914066454609 0 400.72914066454609 -283.98457898214838 0 0 0 -7.7207752915119272 461.96502946434111 387.64189271072053 0 387.64189271072053 -611.82923632071197 0 0 0 -37.466051714092373 167.33846216419238 360.40616778716185 0 360.40616778716185 -498.06440099814927 0 0 0 -82.681484708489052 482.27066968539191 418.34622426945634 0 418.34622426945634 -603.92422095068139 0 0 0 -30.41338781632259 274.70877216260988 307.01475823528722 0 307.01475823528722 -844.51892956323718 0 0 0 -142.45253935015671 211.69851405566078 398.41388219772489 0 398.41388219772489 -639.84608273540562 0 0 0 -107.03689216993644 190.33082556849513 260.94803331457524 0 260.94803331457524 -1042.8561006993277 0 0 0 -213.13131878270815 328.46872860605572 353.14550091875435 0 353.14550091875435 -844.66987260629958 0 0 0 -129.05028600006108 459.51428344952092 235.08198204874998 0 235.08198204874998 -1069.8399151150024 0 0 0 -152.58140791637106 514.27102078648022 274.3636857922088 0 274.3636857922088 -841.63245145895235 0 0 0 -81.840357668118031 613.76821522299679 320.39567395097674 0 320.39567395097674 -900.18340094889663 0 0 0 -71.603796431475075 735.68122536477767 117.43094452890386 0 117.43094452890386 -1106.1113950713861 0 0 0 -92.607542426651889 544.34114104621722 95.453109955224136 0 95.453109955224136 -1148.5893345148634 0 0 0 -151.06204836716051 586.94422628605662 -193.07504914467836 0 -193.07504914467836 -1321.9891473140633 0 0 0 -183.76123025700144 896.77880887820129 -101.28631233021861 0 -101.28631233021861 -1143.4234758562925 0 0 0 -61.661166744522234 938.44783792541648 -100.41759869316502 0 -100.41759869316502 -1159.0229741978146 0 0 0 -55.14378406809783 875.66996093646503 193.57951799929015 0 193.57951799929015 -948.40975773773062 0 0 0 -18.184949200315259 762.41254662012989 -372.18921558665079 0 -372.18921558665079 -1253.3003624431794 0 0 0 -122.72195395576227 863.97963046111954 -402.91791662477726 0 -402.91791662477726 -1224.4558286872143 0 0 0 -90.11904955652335 1115.8206739831048 -277.09968425707939 0 -277.09968425707939 -1042.3852643565197 0 0 0 18.358852406646292 1188.3709754437814 -314.78279410648827 0 -314.78279410648827 -963.87016078438137 0 0 0 56.125203664849323 1559.4017842377457 -113.78815032703551 0 -113.78815032703551 -720.36409176891493 0 0 0 209.75942311720746 1115.0727591421373 197.05435182992687 0 197.05435182992687 -875.8647782751525 0 0 0 59.801995216746832 1385.0916762910911 24.301079005186011 0 24.301079005186011 -928.21900183068283 0 0 0 114.2181686151016 1050.4769815537043 160.54074652394411 0 160.54074652394411 -802.6272052792483 0 0 0 61.962444068613877 1501.264134675514 230.11198979157234 0 230.11198979157234 -688.24438733025454 0 0 0 203.25493683631476 1158.4214583322962 494.47598844896402 0 494.47598844896402 -194.92230567837942 0 0 0 240.87478816347902 1972.883506623112 448.88623915291055 0 448.88623915291055 -282.12306215744229 0 0 0 422.6901111164168 1538.8573146937656 471.07213200120236 0 471.07213200120236 215.89780670378332 0 0 0 438.68878034938734 1100.9976964484847 634.80791305653838 0 634.80791305653838 422.26944831668061 0 0 0 380.81678619129161 1440.4718596356661 454.67183513837017 0 454.67183513837017 -99.889996129311839 0 0 0 335.14546587658788 1917.323881180962 -255.03424546841075 0 -255.03424546841075 -484.96643999771004 0 0 0 358.08936029581309 2051.2455677521516 -45.621182986110398 0 -45.621182986110398 -34.620595002800201 0 0 0 504.15624318733785 2194.3173693413219 -700.73437022958683 0 -700.73437022958683 -160.06563582804438 0 0 0 508.56293337831937 3619.1900493301496 -367.48619344822578 0 -367.48619344822578 589.12095880151264 0 0 0 1052.0777520329157 2416.7306522557269 -318.43313243753039 0 -318.43313243753039 2851.2902363283065 0 0 0 1317.0052221460089 3352.8478976148895 1442.70538934775 0 1442.70538934775 1727.0242740149986 0 0 0 1269.9680429074717 1628.7791556479615 967.44174130169336 0 967.44174130169336 1466.1297382435587 0 0 0 773.72722347288004 741.57827224611356 473.05629023142637 0 473.05629023142637 339.10270596464943 0 0 0 270.17024455269052 1651.9951687738617 546.57326218600997 0 546.57326218600997 276.76755885665 0 0 0 482.19068190762778 799.92517461261207 -86.961145805361184 0 -86.961145805361184 1785.3041370480794 0 0 0 646.30732791517255 565.91850380699248 -33.67563263589966 0 -33.67563263589966 872.00164102982944 0 0 0 359.48003620920576 436.49982265819244 -123.74215311505668 0 -123.74215311505668 778.66299224398301 0 0 0 303.79070372554384 795.39820284736732 559.78964894555793 0 559.78964894555793 710.64517594110555 0 0 0 376.51084469711816 817.4061344449774 463.94155339503345 0 463.94155339503345 -116.82977354160357 0 0 0 175.14409022584368 557.69965588114565 433.98180639816269 0 433.98180639816269 452.05682758559669 0 0 0 252.4391208666857 349.44138030898353 311.84721394598029 0 311.84721394598029 -32.217127440610966 0 0 0 79.306063217093197 447.36817013020641 449.59383826121257 0 449.59383826121257 149.67064791467692 0 0 0 149.25970451122134 608.07591650355073 424.44118739874284 0 424.44118739874284 -405.65178638464022 0 0 0 50.606032529727713 768.21901278754285 525.64447527236484 0 525.64447527236484 -75.426895283357226 0 0 0 173.19802937604663 239.76809671620526 341.20489346575846 0 341.20489346575846 -322.37454291359541 0 0 0 -20.651611549347535 152.87708830456359 357.97762898251153 0 357.97762898251153 54.918707611908758 0 0 0 51.948948979118086 204.76177098136208 -133.57915560327751 0 -133.57915560327751 205.7750692475887 0 0 0 102.63421005723779 13.790322556231331 119.32318326188613 0 119.32318326188613 183.38941505299954 0 0 0 49.29493440230749 15.657068808346395 150.35552228816005 0 150.35552228816005 -85.438306020605637 0 0 0 -17.445309303064931 270.92343294078819 281.88486662133243 0 281.88486662133243 495.77185141217387 0 0 0 191.67382108824086 13.31493165553934 -135.54486274853457 0 -135.54486274853457 -59.224357092120954 0 0 0 -11.47735635914546 98.134173708316212 -69.756121496274432 0 -69.756121496274432 14.052741328000593 0 0 0 28.046728759079087 288.90021490384402 -369.96312205311779 0 -369.96312205311779 61.582566100613121 0 0 0 87.620695251114057 256.80739891984604 -300.80921940061381 0 -300.80921940061381 -166.1425726439511 0 0 0 22.666206568973394 17.641657481522088 -220.23891080413 0 -220.23891080413 -282.20388186298078 0 0 0 -66.140556095363991 290.00288581999735 -406.00485924763643 0 -406.00485924763643 -213.12200649548384 0 0 0 19.220219831128603 311.02459907313687 -395.26050741927804 0 -395.26050741927804 -149.51462246101892 0 0 0 40.377494153029602 82.382177678669677 -291.63241609031547 0 -291.63241609031547 -468.58912528017208 0 0 0 -96.551736900375545 870.22976640158549 -286.78942797727154 0 -286.78942797727154 -458.59785115930754 0 0 0 102.90797881056915 605.0568332862108 -337.86279549452229 0 -337.86279549452229 -418.30187193403981 0 0 0 46.688740338042635 602.21585723890712 -356.65384664514818 0 -356.65384664514818 -473.53720799803068 0 0 0 32.169662310218882 1014.1349203191801 -538.05788461143629 0 -538.05788461143629 -80.798278123089403 0 0 0 233.3341605490225 319.57248266624401 -70.461992661732097 0 -70.461992661732097 445.05359133914772 0 0 0 191.15651850134805 569.94738346470785 -335.78985354421275 0 -335.78985354421275 202.85738131405378 0 0 0 193.20119119469064 486.39102059432525 -430.76124735805865 0 -430.76124735805865 152.48067526948671 0 0 0 159.7179239659531 750.17503350830293 -470.81777459042723 0 -470.81777459042723 592.27688931293687 0 0 0 335.61298070530984 756.75892330732631 -284.97826467133916 0 -284.97826467133916 989.0100311075671 0 0 0 436.44223860372335 948.94032764891472 -360.27617848424393 0 -360.27617848424393 1118.614547677003 0 0 0 516.88871883147954 1506.6078076672768 43.209387325502448 0 43.209387325502448 3753.4607485028982 0 0 0 1315.0171390425439 1289.2258767374944 -149.43455572175208 0 -149.43455572175208 -405.31322810191341 0 0 0 220.97816215889497 1529.119051277785 -702.59567700147136 0 -702.59567700147136 396.74814869611419 0 0 0 481.46679999347475 3354.8523148417889 1640.4641154734122 0 1640.4641154734122 2227.6538542051881 0 0 0 1395.6265422617439 1706.0094940690333 -899.21628944089525 0 -899.21628944089525 1252.6314324210271 0 0 0 739.66023162251531 4.3390478163218864 0.55869439768850415 0 0.55869439768850415 3.7570933938633089 0 0 0 2.0240353025462992 5707.9359762932372 1078.2035573060289 0 1078.2035573060289 308.27935747458105 0 0 0 1504.0538334419539 3037.4597392774358 239.44179493679076 0 239.44179493679076 -180.79200028207561 0 0 0 714.1669347488405 1.4513381679088595 0.33916350822742886 0 0.33916350822742886 6.8512604149433427 0 0 0 2.0756496457130509 836.13010990154953 -40.27553350596645 0 -40.27553350596645 -43.423558719872744 0 0 0 198.17663779541954 3895.0352722618936 487.87420299940459 0 487.87420299940459 -152.72422576726058 0 0 0 935.57776162365917 3.9594185496309411 0.95200522154952405 0 0.95200522154952405 11.249266552659437 0 0 0 3.8021712755725945 849.18536109264232 -6.4250796170217654 0 -6.4250796170217654 -157.55748214891901 0 0 0 172.90696973593003 2663.0747375693486 459.35805853733928 0 459.35805853733928 -268.42484783961118 0 0 0 598.6624724324347 900.67739128546668 -281.43688118276168 0 -281.43688118276168 -411.23736879493299 0 0 0 122.36000562263325 1033.7657007008856 3.1982467933007683 0 3.1982467933007683 -196.6655101702936 0 0 0 209.27504763264778 1036.1500169014125 -213.34978276767572 0 -213.34978276767572 -286.94109303746336 0 0 0 187.30223096598729 844.49854387626419 -133.98719441582989 0 -133.98719441582989 -427.153256360868 0 0 0 104.33632187884905 804.76885667611236 -125.05167407312683 0 -125.05167407312683 -421.3839515044765 0 0 0 95.846226292909023 930.34604324828251 -8.0078250507662005 0 -8.0078250507662005 -186.0579447280561 0 0 0 186.07202463005706 913.63248549338141 -23.854748961399309 0 -23.854748961399309 -215.55629918394879 0 0 0 174.51904657735804 797.39407074608607 -110.24555616826592 0 -110.24555616826592 -512.11092267940512 0 0 0 71.320787016670693 2523.1481594894285 439.94145508098995 0 439.94145508098995 -414.04882219845604 0 0 0 527.27483432274312 2555.7720296321422 203.49602906651489 0 203.49602906651489 -189.44677891867468 0 0 0 591.58131267836507 3562.2239758218166 215.47839942534847 0 215.47839942534847 -97.727309398738726 0 0 0 866.12416660577037 5.040586447004876 1.0129091856458161 0 1.0129091856458161 15.34597640760893 0 0 0 5.0966407136534517 2987.7060004532359 277.94425598959788 0 277.94425598959788 -219.39086828015206 0 0 0 692.07878304326914 2627.9712584918343 166.41386420817435 0 166.41386420817435 -235.14005695631931 0 0 0 598.20780038387966 1893.3952020451452 363.22779788695334 0 363.22779788695334 -382.1843950064067 0 0 0 377.80270175968508 2615.3308052746506 257.17458003608942 0 257.17458003608942 -220.22888050452457 0 0 0 598.77548119252606 954.04815327995311 -28.459149123969329 0 -28.459149123969329 -197.79060558739366 0 0 0 189.06438692313895 6.6021244987188101 1.2540395074693556 0 1.2540395074693556 19.829344079725978 0 0 0 6.6078671446111983 2025.4444885035191 204.80651909345397 0 204.80651909345397 -288.61554638168309 0 0 0 434.207235530459 797.83211097272033 -79.819660576369188 0 -79.819660576369188 -497.16519642530147 0 0 0 75.166728636854714 658.75551950944282 -147.53985331418335 0 -147.53985331418335 -558.40753522137311 0 0 0 25.086996072016518 866.88695520933152 -38.598275570023361 0 -38.598275570023361 -185.11272496686252 0 0 0 170.44355756061668 682.76190222499622 -84.518626197733283 0 -84.518626197733283 -522.68382619232489 0 0 0 40.019519008167435 768.3667493355706 -107.58208035905318 0 -107.58208035905318 -564.6120100610151 0 0 0 50.938684818638649 576.50314737858344 -190.6601238024042 0 -190.6601238024042 -729.90536111941219 0 0 0 -38.350553435206621 470.49434232201611 -155.34353276028469 0 -155.34353276028469 -789.04035513454619 0 0 0 -79.636503203133998 634.02737167256828 -145.52990655370013 0 -145.52990655370013 -701.53337293114669 0 0 0 -16.876500314644488 472.86280935712557 -303.56823811372033 0 -303.56823811372033 -664.95565681053631 0 0 0 -48.023211863353481 432.95484751119693 -217.7122980130207 0 -217.7122980130207 -689.06742468465382 0 0 0 -64.028144293363766 263.30432080828871 -251.52975926082809 0 -251.52975926082809 -824.54964855828871 0 0 0 -140.31133193750011 259.88448840122237 -265.3313216508418 0 -265.3313216508418 -908.32695256990337 0 0 0 -162.11061604217139 245.67427732921988 -316.40721181564959 0 -316.40721181564959 -730.99124162795306 0 0 0 -121.32924107468261 296.39434547973684 -222.12476803602885 0 -222.12476803602885 -817.4197461036764 0 0 0 -130.25635015598567 333.42882525341702 -248.34898699257201 0 -248.34898699257201 -702.0282420548665 0 0 0 -92.149854200361915 111.09154080719577 -275.56300500760108 0 -275.56300500760108 -719.85197234102179 0 0 0 -152.19010788345645 330.83178279263029 -359.09164206357809 0 -359.09164206357809 -574.37524653914261 0 0 0 -60.885865936627852 115.82973641428589 -339.52046006304499 0 -339.52046006304499 -446.64525801122943 0 0 0 -82.703880399235686 471.54010018813278 -326.62455836027357 0 -326.62455836027357 -528.27277216445304 0 0 0 -14.183167994080122 630.34937176045878 -225.60573875593491 0 -225.60573875593491 -567.91547718397078 0 0 0 15.608473644121659 614.47366082378721 -220.26101489871894 0 -220.26101489871894 -628.63341286242576 0 0 0 -3.5399380096600908 -2445.7550825223916 72.350148579283996 0 72.350148579283996 -991.04213717340281 0 0 0 -859.19930492394997 -3152.6558490832485 217.33647050868058 0 217.33647050868058 -922.92017131771536 0 0 0 -1018.894005100241 -2126.5389311417603 489.05389468812677 0 489.05389468812677 -777.79473717131987 0 0 0 -726.08341707826912 -3716.6736845559044 148.01039779290568 0 148.01039779290568 -909.6231636311968 0 0 0 -1156.5742120467748 -3489.6083904954608 49.348073578348476 0 49.348073578348476 -877.24733040722822 0 0 0 -1091.7139302256724 -2152.4382698266045 -55.439285670902791 0 -55.439285670902791 -906.66866736054726 0 0 0 -764.77673429678998 -2444.4327405868662 183.46462309246249 0 183.46462309246249 -957.14927180744098 0 0 0 -850.39550309857441 -1730.7435691529236 306.54859611802567 0 306.54859611802567 -571.937797539038 0 0 0 -575.67034167298789 -1045.2834714996497 222.36874491067101 0 222.36874491067101 -690.49558578249935 0 0 0 -433.9447643205383 -742.3003704828343 462.8048612579048 0 462.8048612579048 -171.35359672543564 0 0 0 -228.41349180206726 -1093.1212148757095 200.72557555447406 0 200.72557555447406 -831.86431180568979 0 0 0 -481.24638167035118 -1070.6444181674233 638.84543514064353 0 638.84543514064353 -631.49427309837756 0 0 0 -425.53467281645135 -1591.4615832003674 262.96893084831117 0 262.96893084831117 -895.36620786051208 0 0 0 -621.70694776522032 -738.44402723242274 410.18713157038655 0 410.18713157038655 -690.31970582241411 0 0 0 -357.19093326370967 661.92275716988115 891.79279373182544 0 891.79279373182544 -500.96535597854927 0 0 0 40.23935029783388 31.466264005004632 491.22340007677758 0 491.22340007677758 -448.63316065134859 0 0 0 -104.29172416158508 1027.1269407461778 841.86968987451473 0 841.86968987451473 -119.71460374059188 0 0 0 226.85308425139556 -69.299250484764343 615.36314266427962 0 615.36314266427962 -633.46241797115181 0 0 0 -175.69041711397767 -818.13982042041334 1.9791043874711249 0 1.9791043874711249 -519.42992352227884 0 0 0 -334.39243598567373 -179.396552215469 406.44988636471032 0 406.44988636471032 -34.994298251549935 0 0 0 -53.597712616754507 151.28191172789911 150.07241025046619 0 150.07241025046619 -19.693006370083822 0 0 0 32.897226339453937 996.04742611253846 525.45593814797803 0 525.45593814797803 462.24045220500102 0 0 0 364.57196957938436 1272.5897822998293 612.55099497309561 0 612.55099497309561 1351.8567876232846 0 0 0 656.11164248077762 2124.1165668866774 669.01756837301923 0 669.01756837301923 203.15506567495976 0 0 0 581.81790814040858 2370.9674843150206 992.24005684666372 0 992.24005684666372 385.10518852422274 0 0 0 689.01816820981071 1294.0584735706852 439.48710996346199 0 439.48710996346199 -334.39462715518312 0 0 0 239.91596160387599 1852.2386944370578 856.71444845983024 0 856.71444845983024 -306.9551108649066 0 0 0 386.32089589303769 2282.9362770957414 285.86996861834996 0 285.86996861834996 -288.72747816144692 0 0 0 498.55219973357271 1047.8133943269604 518.57128439660119 0 518.57128439660119 -562.84115941775235 0 0 0 121.2430587273011 1113.999673520495 822.6273386668181 0 822.6273386668181 -579.46230464905966 0 0 0 133.63434221785792 1835.1704883471175 538.91040079499362 0 538.91040079499362 -543.06056055146473 0 0 0 323.02748194891683 1807.5363683262221 507.38880774197969 0 507.38880774197969 -462.38619160809321 0 0 0 336.28754417953314 1953.2154542199933 444.22383249926224 0 444.22383249926224 -545.25064810617914 0 0 0 351.99120152845353 1460.2144552949208 632.97712907075038 0 632.97712907075038 -709.46894463410854 0 0 0 187.68637766520214 1037.9055976395302 633.83926335224169 0 633.83926335224169 -695.99075222526517 0 0 0 85.478711353567633 1070.7216456884198 820.63491577804302 0 820.63491577804302 -712.31858430006832 0 0 0 89.600765347087872 271.78620320650634 671.25070120889723 0 671.25070120889723 -834.03783046627996 0 0 0 -140.56290681494238 323.82951762783273 838.2374479653372 0 838.2374479653372 -844.52277315032734 0 0 0 -130.17331388062371 219.74130690966922 741.49215582674151 0 741.49215582674151 -865.56748364456871 0 0 0 -161.45654418372578 -471.61298513000656 785.06304008314692 0 785.06304008314692 -750.65117266291418 0 0 0 -305.56603944822928 278.99585271690194 808.72676834057165 0 808.72676834057165 -771.2319816292511 0 0 0 -123.05903222808956 553.07581270782157 613.74103706673486 0 613.74103706673486 -793.2122374655828 0 0 0 -60.034106189440536 -164.83283527388812 569.08816954143549 0 569.08816954143549 -720.08908836199771 0 0 0 -221.230480908971 -450.33813613005009 786.06774629743813 0 786.06774629743813 -716.53806227560563 0 0 0 -291.71904960141296 -968.70574926127119 441.83214509949994 0 441.83214509949994 -900.2070772722509 0 0 0 -467.22820663338098 -1309.6621814706882 658.7317443205975 0 658.7317443205975 -840.19381310629319 0 0 0 -537.46399864424131 -1234.4365200266402 446.01558632460683 0 446.01558632460683 -993.43465464215114 0 0 0 -556.96779366720511 -1151.9256607746947 683.46016083365612 0 683.46016083365612 -813.10023578356595 0 0 0 -491.25647413956631 -507.28158883849028 739.99081803036461 0 739.99081803036461 -969.13958689534047 0 0 0 -369.1052939334586 -405.76906951297815 869.7450539721649 0 869.7450539721649 -1038.1173422094253 0 0 0 -360.97160293059233 -832.68669297950271 685.67312420917733 0 685.67312420917733 -910.52071754690598 0 0 0 -435.80185263160399 -1096.6980709843265 508.99058787945432 0 508.99058787945432 -998.52451021519664 0 0 0 -523.80564529987896 -1475.0418825356428 632.92789841296326 0 632.92789841296326 -929.83771103480831 0 0 0 -601.21989839261732 -2111.6307485670714 251.54842719120279 0 251.54842719120279 -991.07824141358287 0 0 0 -775.67724749516674 -1268.8215478602524 281.25508972965326 0 281.25508972965326 -955.85320346880326 0 0 0 -556.16868783226346 -1695.4452516278361 254.76164588028769 0 254.76164588028769 -947.78530747081822 0 0 0 -660.80763977465904 -2784.8743748202469 190.20076628520474 0 190.20076628520474 -970.47653079729571 0 0 0 -938.83772640438474 -2002.4604059564717 433.56003366743244 0 433.56003366743244 -851.39213983299851 0 0 0 -713.46313644736983 -2003.4581948194646 247.24960336232948 0 247.24960336232948 -1037.2882295096933 0 0 0 -760.18660608228856 -341.77257011050278 306.94931083021947 0 306.94931083021947 -930.3009332248057 0 0 0 -318.01837583382985 -879.09098678423834 269.02760173297065 0 269.02760173297065 -1111.7587195900123 0 0 0 -497.71242659356722 -463.19418783476431 453.0007772955214 0 453.0007772955214 -987.8864402107356 0 0 0 -362.77015701137134 -1032.8174799892622 263.87914795317556 0 263.87914795317556 -964.98467988667835 0 0 0 -499.45053996899151 -1024.0944015334298 221.0957043053786 0 221.0957043053786 -1012.1602522062749 0 0 0 -509.06366343492664 -1638.6346277431148 273.00084853984077 0 273.00084853984077 -998.26608815780492 0 0 0 -659.2251789752263 -1390.0098767667732 470.20697647828547 0 470.20697647828547 -1011.5642375066382 0 0 0 -600.39352856835467 -1087.2821406164876 445.26816369313292 0 445.26816369313292 -1038.3829100102594 0 0 0 -531.4162626566831 -757.16938706710062 681.69599809940155 0 681.69599809940155 -1005.5887525926373 0 0 0 -440.68953491493448 -706.56969209285307 534.9010064723916 0 534.9010064723916 -943.0760508687963 0 0 0 -412.41143574041052 -484.3452973430758 605.48221116737841 0 605.48221116737841 -1011.7099381532607 0 0 0 -374.01380887408959 -247.17457263332471 623.43129584702547 0 623.43129584702547 -991.45548002481519 0 0 0 -309.65751316452952 -220.0729947493528 590.01146431132656 0 590.01146431132656 -1073.7326078414771 0 0 0 -323.45140064770385 -560.95261301531718 635.32879598549698 0 635.32879598549698 -1040.28231782277 0 0 0 -400.30873270952361 -142.38749178764374 581.08679992466932 0 581.08679992466932 -1050.3481184350458 0 0 0 -298.18390255567465 240.84430931218594 649.80508144136547 0 649.80508144136547 -1056.2785638766945 0 0 0 -203.85856364112624 220.18274777734405 644.09764197099139 0 644.09764197099139 -1116.4154119792438 0 0 0 -224.05816605047221 593.04029481763791 680.23793208447387 0 680.23793208447387 -1025.9823764153407 0 0 0 -108.23552039941933 -201.56065389392461 732.50516756215984 0 732.50516756215984 -1098.8830259768583 0 0 0 -325.11091996769392 -260.43137057211425 828.40820591167062 0 828.40820591167062 -1046.4052787949331 0 0 0 -326.70916234175456 192.32808889492117 724.82028522567634 0 724.82028522567634 -1036.0012724075896 0 0 0 -210.91829587816937 171.8818196902248 654.7338720543521 0 654.7338720543521 -903.38417280763679 0 0 0 -182.87558827935209 526.66543734839797 802.8074858615837 0 802.8074858615837 -988.49321366939694 0 0 0 -115.45694408024428 219.21899074770045 708.7528401710415 0 708.7528401710415 -967.37501769201481 0 0 0 -187.03900673607131 972.33602390913438 571.75015081927631 0 571.75015081927631 -838.50655109078798 0 0 0 33.45736820458842 998.48530189442681 559.16909993883087 0 559.16909993883087 -719.83735172693559 0 0 0 69.661987541872804 940.67298974974619 712.97350569147238 0 712.97350569147238 -861.04999997852428 0 0 0 19.90574744280093 1127.7614970389368 647.22098931390065 0 647.22098931390065 -758.88080730297224 0 0 0 92.22017243398659 1573.9206270406648 336.87709087362964 0 336.87709087362964 -523.71252368748537 0 0 0 262.55202583829669 1039.0402929241973 525.73281481261438 0 525.73281481261438 -918.53781397824059 0 0 0 30.125619736492808 1048.0686479614742 460.18379819119946 0 460.18379819119946 -700.34486711127101 0 0 0 86.930945212545339 628.32553236287686 700.51194207126537 0 700.51194207126537 -940.70714291113018 0 0 0 -78.095402637066854 636.80993838082031 548.97836458194797 0 548.97836458194797 -1033.3133088791219 0 0 0 -99.125842624578581 1130.7273437174226 336.90384892978182 0 336.90384892978182 -964.42167403758503 0 0 0 41.576417419964855 617.1897208316077 214.52035195827921 0 214.52035195827921 -1282.9389817133779 0 0 0 -166.43731522043527 977.33847993536619 371.88085236939514 0 371.88085236939514 -1020.641625933873 0 0 0 -10.825786499626702 704.60367989684892 209.11486053228145 0 209.11486053228145 -1254.1161866222101 0 0 0 -137.37812668135302 1085.316366194922 8.0507933288390632 0 8.0507933288390632 -1178.1851915372827 0 0 0 -23.217206335590163 1004.2082594890371 127.87653739732923 0 127.87653739732923 -1225.6036032268275 0 0 0 -55.348835934449198 826.95287608570652 -24.055373493880325 0 -24.055373493880325 -1669.4334404179244 0 0 0 -210.62014108305448 418.27864098720602 54.199292398516263 0 54.199292398516263 -1546.654946881783 0 0 0 -282.09407647364424 235.52054441542714 303.14403598146947 0 303.14403598146947 -1257.4155588585418 0 0 0 -255.47375361077866 136.15294862138398 207.23983050329844 0 207.23983050329844 -1555.5183462385321 0 0 0 -354.84134940428339 398.22520344828081 176.10267299580846 0 176.10267299580846 -1698.0250358641788 0 0 0 -324.94995810397813 228.38058521170024 534.85358546943417 0 534.85358546943417 -1160.4212165228819 0 0 0 -233.01015782778995 531.47028083672194 437.83169562171406 0 437.83169562171406 -1234.6081437518878 0 0 0 -175.78446572878602 199.58183669798018 471.01701549340942 0 471.01701549340942 -1277.6455755546631 0 0 0 -269.51593471417436 627.75839457685652 564.43046038385364 0 564.43046038385364 -1095.9543274801399 0 0 0 -117.04898322582449 -132.07857254593546 542.49866545055556 0 542.49866545055556 -1233.604116934679 0 0 0 -341.42067237014635 -477.99044344171125 395.36968660688581 0 395.36968660688581 -1139.1329770015582 0 0 0 -404.28085511081736 -19.045630222106411 336.87099704168304 0 336.87099704168304 -1162.1131784697645 0 0 0 -295.28970217296592 -132.02533184695494 335.54639254783979 0 335.54639254783979 -1043.8350588691828 0 0 0 -293.96509767902899 -71.498471166778472 391.5402765036124 0 391.5402765036124 -1412.1831599574216 0 0 0 -370.92040778105002 16.376375547799398 185.56499101117515 0 185.56499101117515 -1508.9205303010822 0 0 0 -373.13603868833889 -18.978234549467743 108.03239013031998 0 108.03239013031998 -1230.188671814074 0 0 0 -312.2917265908909 132.41081916596158 161.97992671565135 0 161.97992671565135 -1170.5208988474915 0 0 0 -259.5275199203752 -15.401119515423488 203.48966137829848 0 203.48966137829848 -1235.3739034253376 0 0 0 -312.69375573518482 -123.97910264846723 151.0793310503941 0 151.0793310503941 -1115.3722983951156 0 0 0 -309.83785026090482 35.957142098754048 57.65674660053628 0 57.65674660053628 -1078.7814847112968 0 0 0 -260.70608565313341 -5.5344267842592672 34.643994913774804 0 34.643994913774804 -1014.4119983509008 0 0 0 -254.98660628378275 -30.444271864900657 46.566562909196364 0 46.566562909196364 -1037.2372933118313 0 0 0 -266.92039129419572 -5.1279224894824438 85.153482083092968 0 85.153482083092968 -962.11033240077086 0 0 0 -241.80956372255605 -216.60213638663117 141.63984420568886 0 141.63984420568886 -949.54518140794244 0 0 0 -291.53682944863976 -236.03331832353342 169.84531462562882 0 169.84531462562882 -1061.0185735766445 0 0 0 -324.26297297505425 -591.65247694421123 204.22700492679724 0 204.22700492679724 -1078.0778737760847 0 0 0 -417.4325876800649 351.97865951184758 -201.98231085863699 0 -201.98231085863699 -1112.1028412479791 0 0 0 -190.03104543403242 533.96452334320747 -132.6000791325614 0 -132.6000791325614 -972.75557834754363 0 0 0 -109.69776375108449 607.91794785372304 -140.15417996593897 0 -140.15417996593897 -956.99582475739953 0 0 0 -87.269469225918783 455.46321422156507 -106.77191542769833 0 -106.77191542769833 -1212.9890290163567 0 0 0 -189.38145369869653 267.7505466936056 -156.93630843958272 0 -156.93630843958272 -1326.6648606256254 0 0 0 -264.72857848300447 166.18378997722084 -183.32620380858475 0 -183.32620380858475 -1195.1864334972634 0 0 0 -257.2506608800104 154.20639641928847 -223.97401987831722 0 -223.97401987831722 -1287.8451783267483 0 0 0 -283.40969547686382 289.31526486009557 -216.98016683032029 0 -216.98016683032029 -1135.1000544251228 0 0 0 -211.44619739125551 175.31577388717506 -244.87141370847985 0 -244.87141370847985 -994.31430207980702 0 0 0 -204.74963204815867 124.71960676352899 -213.98159813420807 0 -213.98159813420807 -997.54614804838479 0 0 0 -218.20663532121455 440.87189023208975 -183.19074767485154 0 -183.19074767485154 -953.88554531255613 0 0 0 -128.25341377011682 423.60313154951473 -217.28920732091592 0 -217.28920732091592 -957.04265861963177 0 0 0 -133.35988176752835 283.74224680809516 -148.35183801977564 0 -148.35183801977564 -1092.6457928985974 0 0 0 -202.22588652262561 438.97561459887947 -108.37981072971746 0 -108.37981072971746 -916.55349692319942 0 0 0 -119.39447058107999 588.96471545337135 -162.6846640946078 0 -162.6846640946078 -825.45052404415037 0 0 0 -59.121452147695436 655.17166274809097 -77.688901944538884 0 -77.688901944538884 -612.75853578952592 0 0 0 10.603281739640806 909.89916946234052 -23.68447224636293 0 -23.68447224636293 -190.31229205408999 0 0 0 179.89671935206343 944.15477051748167 -37.983228536708339 0 -37.983228536708339 -220.30436135917444 0 0 0 180.96260228957544 806.67748274535688 -93.143729591122792 0 -93.143729591122792 -656.65204869964873 0 0 0 37.506358511427152 1742.1864464834134 409.65380555787124 0 409.65380555787124 -462.36960827454095 0 0 0 319.95420955222198 2323.0711662585163 182.18181366764225 0 182.18181366764225 -187.29423695194419 0 0 0 533.94423232664121 1009.9567044091636 -35.205094647742953 0 -35.205094647742953 -243.20441455042965 0 0 0 191.6880724646835 8.1438055992598706 1.4227641162916904 0 1.4227641162916904 24.52687979572416 0 0 0 8.1676713487460066 1514.7021433341943 442.741714131349 0 442.741714131349 -649.99837001677952 0 0 0 216.1759433293555 1700.0420224680056 203.93488050602173 0 203.93488050602173 -258.20580034362501 0 0 0 360.45905553109333 1606.9824991479472 173.97704899186283 0 173.97704899186283 -408.66597645096772 0 0 0 299.57913067424306 9.7645544388329863 1.3784231359013597 0 1.3784231359013597 29.439823681826415 0 0 0 9.8010945301648515 1093.0275794190366 -39.519015162039068 0 -39.519015162039068 -274.21495908637371 0 0 0 204.70315508316708 1855.7467644849276 249.35696348194324 0 249.35696348194324 -316.5357274294729 0 0 0 384.8027592638573 11.498817557239297 1.7329138576607992 0 1.7329138576607992 34.530466753783934 0 0 0 11.507321077755808 1195.0733072933808 306.43550574024266 0 306.43550574024266 -572.46542917828992 0 0 0 155.6519695287725 672.09016592832177 -62.956600435144196 0 -62.956600435144196 -703.57387182022285 0 0 0 -7.870926472975043 1007.4861559896062 -7.2073044462704274 0 -7.2073044462704274 -328.41834694462887 0 0 0 169.7669522612432 699.66434628515162 -35.063511155607557 0 -35.063511155607557 -1003.1833698587252 0 0 0 -75.879755893392939 831.29294491340124 -113.68167981191618 0 -113.68167981191618 -720.67065903516868 0 0 0 27.655571469559163 924.92488192950077 9.3195710090485591 0 9.3195710090485591 -998.93148620929787 0 0 0 -18.501651069947911 698.66760930685177 -98.116042935667792 0 -98.116042935667792 -982.39126608201423 0 0 0 -70.930914193791068 1236.1855607511006 -21.720853159566104 0 -21.720853159566104 -374.0965024925481 0 0 0 215.52226456463723 1135.8567962571979 -37.451889646961263 0 -37.451889646961263 -354.82583468849407 0 0 0 195.25774039217504 1028.5756425354298 -99.717755307023253 0 -99.717755307023253 -941.17607092142498 0 0 0 21.849892903502564 1677.4243446591136 111.3509377473747 0 111.3509377473747 -324.40962632960873 0 0 0 338.25367958237621 13.01795395000978 1.2840875493538109 0 1.2840875493538109 39.659222508894857 0 0 0 13.16929411472616 1487.32964847314 -25.007299083334146 0 -25.007299083334146 -359.8575542192666 0 0 0 281.86802356346743 1555.2478629411103 183.58238378261012 0 183.58238378261012 -365.09966584204756 0 0 0 297.53704927475843 1291.7089443746227 40.558219694081345 0 40.558219694081345 -681.25506162999955 0 0 0 152.6134706861485 1294.9083741719005 164.84953948851035 0 164.84953948851035 -644.54698945739801 0 0 0 162.59034617862926 15.518979680961916 1.8761843789402513 0 1.8761843789402513 45.226426809505078 0 0 0 15.186351622616748 1881.084912259772 42.464260258369904 0 42.464260258369904 -458.15269143765909 0 0 0 355.73305520553549 1473.6408929200115 -140.68728931028454 0 -140.68728931028454 -796.14346019300865 0 0 0 169.37435818173981 775.62454374106983 53.756785832064452 0 53.756785832064452 -1431.3773980579608 0 0 0 -163.93821357922297 1261.8758196518738 78.714594045770355 0 78.714594045770355 -553.42022669614016 0 0 0 177.11389823893296 1714.7107201335348 -40.272438172282968 0 -40.272438172282968 -475.87682203388249 0 0 0 309.7084745249158 1267.1861703514187 175.78218995831776 0 175.78218995831776 -892.46582731791204 0 0 0 93.680085758376663 988.07325364629105 -94.259190504900289 0 -94.259190504900289 -1366.5812258110673 0 0 0 -94.62699304119451 245.24884406360843 7.7342328656159225 0 7.7342328656159225 -1840.7832745663909 0 0 0 -398.88360762569619 583.72322313321092 125.99394412936454 0 125.99394412936454 -1812.4021456879309 0 0 0 -307.16973063867954 472.72404918588381 -62.103238459800806 0 -62.103238459800806 -2141.3672335432348 0 0 0 -417.16079608933705 472.95072850579436 -67.43335148287224 0 -67.43335148287224 -1367.0976210740264 0 0 0 -223.53672314205869 424.0006896143077 -104.29089952882987 0 -104.29089952882987 -1657.5326559944879 0 0 0 -308.38299159504459 342.81073914025728 -121.79195150668966 0 -121.79195150668966 -1480.8505138208893 0 0 0 -284.50994367015755 400.17671610565702 -128.28226159356564 0 -128.28226159356564 -1228.5000844432302 0 0 0 -207.08084208439396 573.02962272663171 -47.621378449737676 0 -47.621378449737676 -1343.0208669426756 0 0 0 -192.49781105401235 153.63242546685069 -149.5210654456514 0 -149.5210654456514 -1583.7717947409183 0 0 0 -357.53484231851689 189.67555184870932 -144.12352353722781 0 -144.12352353722781 -1353.0139578800868 0 0 0 -290.83460150784458 181.35544225622743 -58.691014760710459 0 -58.691014760710459 -1766.8406793577196 0 0 0 -396.37130927537237 218.80730551653483 -108.96221993461768 0 -108.96221993461768 -1523.5652844138065 0 0 0 -326.18949472431837 140.1820357667284 -133.72805053872389 0 -133.72805053872389 -1578.8421835473418 0 0 0 -359.66503694515268 198.44276720999278 -113.93512758872021 0 -113.93512758872021 -1838.5292478939482 0 0 0 -410.02162017098817 130.60738979154576 -44.62434213679353 0 -44.62434213679353 -2241.9859677690329 0 0 0 -527.84464449437201 143.98846187137497 -90.241124689881417 0 -90.241124689881417 -1840.8677024350363 0 0 0 -424.21981014091762 116.90643514841213 -94.549887777126969 0 -94.549887777126969 -2125.4930342622538 0 0 0 -502.14664977846041 91.694142589234616 -54.564812561641133 0 -54.564812561641133 -1843.6131204399098 0 0 0 -437.97974446266926 94.787771771402731 -168.64183803278138 0 -168.64183803278138 -1618.9793940351574 0 0 0 -381.04790556593798 91.452966200309675 -114.73838018327388 0 -114.73838018327388 -1867.9628646073897 0 0 0 -444.12747460176979 395.34503998794389 -141.03979964495653 0 -141.03979964495653 -1438.666456047813 0 0 0 -260.83035401496727 259.22361168232055 -63.428267081852937 0 -63.428267081852937 -1848.0123811292642 0 0 0 -397.19719236173569 186.94794808434017 -134.60125087231432 0 -134.60125087231432 -1612.0480033656822 0 0 0 -356.27501382033461 287.79082525654121 -126.86338956979171 0 -126.86338956979171 -1293.1567633522391 0 0 0 -251.34148452392401 186.58837634087467 -143.68152041201483 0 -143.68152041201483 -1624.2429170565001 0 0 0 -359.4136351789075 124.94690343150751 -165.42139678435251 0 -165.42139678435251 -1399.0373679021413 0 0 0 -318.5226161176588 179.29124045559274 -174.01645086461622 0 -174.01645086461622 -1188.5307200019706 0 0 0 -252.30986988659515 196.54125217074215 -161.43967622736227 0 -161.43967622736227 -1342.5450789186616 0 0 0 -286.50095668698032 135.15280244580754 -150.23356619873266 0 -150.23356619873266 -1590.9582490719504 0 0 0 -363.95136165653548 149.55400244588645 -179.41733114155477 0 -179.41733114155477 -1411.62951286725 0 0 0 -315.51887760534009 102.82825982449049 -203.68860158545613 0 -203.68860158545613 -1411.0792197879437 0 0 0 -327.06273999086352 139.10579219873944 -177.03293621061584 0 -177.03293621061584 -1380.6355708376259 0 0 0 -310.38244465972093 119.55308090792551 -218.92748649729765 0 -218.92748649729765 -1139.7997128908792 0 0 0 -255.06165799573773 83.936418147809491 -210.93568940649175 0 -210.93568940649175 -1278.5721622704623 0 0 0 -298.65893603066343 91.175817285569792 -207.9452452251594 0 -207.9452452251594 -1119.3138390018212 0 0 0 -257.03450542906285 94.726470472612164 -194.84963003382381 0 -194.84963003382381 -1272.3676053937234 0 0 0 -294.41028373027621 60.225062060442269 -186.88100010516882 0 -186.88100010516882 -1256.873201690767 0 0 0 -299.16203490758062 101.54172104129975 -220.98283558061985 0 -220.98283558061985 -1302.7196166431895 0 0 0 -300.29447390047244 68.083240064790459 -170.91375729530318 0 -170.91375729530318 -1223.4126724922728 0 0 0 -288.83235810686898 145.78990252692438 -136.15593225227599 0 -136.15593225227599 -1026.724684745961 0 0 0 -220.23369555475892 112.25348935652073 -191.99259030092026 0 -191.99259030092026 -1055.5369457150118 0 0 0 -235.82086408962277 45.794628998149165 -219.05499153725032 0 -219.05499153725032 -960.63596231424526 0 0 0 -228.71033332902334 -47.270825219095059 -164.53071153355131 0 -164.53071153355131 -1117.3280494439241 0 0 0 -291.14971866575615 26.438804902204538 -175.49398470966804 0 -175.49398470966804 -865.38373573124591 0 0 0 -209.73623270726057 6.7005312100018841 -232.70054998335672 0 -232.70054998335672 -968.77701367980217 0 0 0 -240.51912061744946 42.573756592551945 -253.71470031874594 0 -253.71470031874594 -882.82914957078174 0 0 0 -210.06384824455699 140.08048417686743 -245.27737786713897 0 -245.27737786713897 -1003.4427290311739 0 0 0 -215.84056121357688 81.338774855574229 -228.63770238427105 0 -228.63770238427105 -1021.6841976805354 0 0 0 -235.08635570623937 120.67866391203222 -221.06158320400118 0 -221.06158320400118 -1139.3630011403864 0 0 0 -254.67108430708834 45.17813018812933 -209.49780368904158 0 -209.49780368904158 -1134.3560965466972 0 0 0 -272.29449158964132 372.99197411641285 -24.289817397941533 0 -24.289817397941533 -647.00792894410552 0 0 0 -68.50398870692311 -0.40686781494585833 -1.3819304047342833 0 -1.3819304047342833 -1.2012226472485343 0 0 0 -0.40202261554859842 438.62290460509098 -56.743472031240344 0 -56.743472031240344 -586.45195267299323 0 0 0 -36.957262016975619 -73.355996528282617 -31.311493510253968 0 -31.311493510253968 -630.33469701054219 0 0 0 -175.92267338470594 -118.22927798127103 -62.982576713645358 0 -62.982576713645358 -562.90003433015772 0 0 0 -170.28232807785798 -115.70577706273912 -127.93561101888099 0 -127.93561101888099 -891.7567832959819 0 0 0 -251.86564008968003 -121.25502215785946 -115.62045487674754 0 -115.62045487674754 -691.3496150702822 0 0 0 -203.15115930703632 28.802281376309111 -123.03471940207737 0 -123.03471940207737 -971.22768447172803 0 0 0 -235.6063507738545 111.80520438938356 -56.592339512980288 0 -56.592339512980288 -620.47377038122886 0 0 0 -127.16714149796144 21.906508557454799 -94.356532354257524 0 -94.356532354257524 -896.84871451289473 0 0 0 -218.73555148885953 229.49793108577614 -74.9514306195274 0 -74.9514306195274 -860.74404431474022 0 0 0 -157.81152830724068 141.99868377387702 -132.83551879159177 0 -132.83551879159177 -1129.9335240137498 0 0 0 -246.98371005996842 260.16619323660871 -38.633157056925711 0 -38.633157056925711 -684.71606599290499 0 0 0 -106.13746818907384 424.84013093487874 -24.0192501720162 0 -24.0192501720162 -716.02644813078859 0 0 0 -72.796579298977576 435.72277176529633 5.1393851452585295 0 5.1393851452585295 -821.58718605380363 0 0 0 -96.46610357212694 490.53893694035082 -49.107072522508133 0 -49.107072522508133 -807.19669718285331 0 0 0 -79.164440060625338 -0.39645225778478288 -1.5657535505221125 0 -1.5657535505221125 -1.1977508054163177 0 0 0 -0.39855076580027515 137.54586473558811 -48.381481214976247 0 -48.381481214976247 -656.00051600628467 0 0 0 -129.61366281767459 479.72462742130847 -49.847237995283827 0 -49.847237995283827 -656.92531465286265 0 0 0 -44.300171807887637 -0.41293796249173242 -1.4332521132041454 0 -1.4332521132041454 -1.2032460352559933 0 0 0 -0.40404599943693142 625.46846246886525 4.3795157318709244 0 4.3795157318709244 -736.41031136278434 0 0 0 -27.735462223479772 -0.46717057678496188 -1.4377000782850775 0 -1.4377000782850775 -1.2213235827466047 0 0 0 -0.42212353988289197 763.76548308734209 -65.577363472948491 0 -65.577363472948491 -661.69362848238052 0 0 0 25.517963651239825 782.09781790142972 -15.871764200950565 0 -15.871764200950565 -683.07810817977111 0 0 0 24.754927430414298 660.75391290895413 51.715134125388431 0 51.715134125388431 -837.36971329030166 0 0 0 -44.153950095336768 323.29451647068811 -94.615388909850481 0 -94.615388909850481 -1058.8652685104037 0 0 0 -183.89268800992875 392.02595727995958 -124.57633062030277 0 -124.57633062030277 -1091.6476855349683 0 0 0 -174.90543206375241 555.92134997671656 -23.640314301169383 0 -23.640314301169383 -725.59553231480822 0 0 0 -42.418545584523144 605.27510921006478 -61.888322852249075 0 -61.888322852249075 -1010.0833621233874 0 0 0 -101.20206322833064 406.9002852629842 -175.49856281595021 0 -175.49856281595021 -1305.6371308273956 0 0 0 -224.68421139110296 707.0257989936963 -84.244929737225902 0 -84.244929737225902 -682.72658224147017 0 0 0 6.0748041880560777 1119.4853431322765 -32.692259090875268 0 -32.692259090875268 -583.72188302646509 0 0 0 133.94086502645246 833.28308187014409 -127.79804869419354 0 -127.79804869419354 -677.63014241347264 0 0 0 38.913234864168771 617.18961746214256 -36.693288572453639 0 -36.693288572453639 -1241.4042838753176 0 0 0 -156.05366660329344 867.4556493967109 -52.382776078972256 0 -52.382776078972256 -740.71108793425446 0 0 0 31.686140365613937 -0.20980786736659596 -1.6513834768418891 0 -1.6513834768418891 -1.0911916178192769 0 0 0 -0.32524987129646821 1184.0895876155314 67.531945893485158 0 67.531945893485158 -531.64824823775052 0 0 0 163.11033484444488 948.68392239883678 126.0079637689978 0 126.0079637689978 -585.82566118548311 0 0 0 90.714565303338532 685.08695366505435 -26.615326079889201 0 -26.615326079889201 -1083.774054112424 0 0 0 -99.671775111842635 487.87097450954207 92.728377735162212 0 92.728377735162212 -1368.2134830092782 0 0 0 -220.08562712493449 440.57169354572261 -1.7988342538726556 0 -1.7988342538726556 -1279.4986061166783 0 0 0 -209.73172814273903 609.55993066129827 92.941462578458413 0 92.941462578458413 -1088.0311864110654 0 0 0 -119.61781393744087 299.00551761089127 45.439208439965114 0 45.439208439965114 -1358.3385998043432 0 0 0 -264.83327054836218 132.38247450506356 18.464805002518915 0 18.464805002518915 -1501.9963928061752 0 0 0 -342.40347957527842 97.053664334936684 -38.322191759902744 0 -38.322191759902744 -1607.9828233138837 0 0 0 -377.73228974473682 218.33553519634324 7.5898415090696574 0 7.5898415090696574 -1633.7320178115542 0 0 0 -353.8491206538024 262.13235050188916 -23.436767393015543 0 -23.436767393015543 -1431.8372432173887 0 0 0 -292.42622317887515 109.65983536197859 19.542285702547915 0 19.542285702547915 -1348.3175498871115 0 0 0 -309.66442863128327 90.571316496022405 -9.0432323002305637 0 -9.0432323002305637 -1419.5573567263773 0 0 0 -332.24651005758892 196.40454292980303 -21.943134281494395 0 -21.943134281494395 -1285.3609204173526 0 0 0 -272.23909437188763 368.55961978363825 0.53977674932548325 0 0.53977674932548325 -1158.5214247254653 0 0 0 -197.49045123545673 532.31330483312308 -29.312182963783187 0 -29.312182963783187 -1113.8428054907818 0 0 0 -145.38237516441495 346.98142213445249 57.128072094588333 0 57.128072094588333 -1274.2719430256298 0 0 0 -231.82263022279517 -282.21474790961003 147.91407804363405 0 147.91407804363405 -1591.1096970234614 0 0 0 -468.33111123326785 -606.1360024600084 279.0106924731229 0 279.0106924731229 -1821.9481906930926 0 0 0 -607.02104828827532 -235.34837669800626 229.54133180727939 0 229.54133180727939 -2158.5716026593677 0 0 0 -598.47999483934348 83.452120441990701 46.430475555109979 0 46.430475555109979 -1764.669731679943 0 0 0 -420.30440280948801 -156.18720789356939 151.14707404599562 0 151.14707404599562 -1861.7341322829886 0 0 0 -504.48033504413934 14.282476987663358 53.882702810696401 0 53.882702810696401 -1619.9513564666222 0 0 0 -401.41721986973971 43.066080809557434 1.1639428394853439 0 1.1639428394853439 -1743.8069340936081 0 0 0 -425.1852133210125 11.203574448906011 20.966613878509179 0 20.966613878509179 -1791.9576877301902 0 0 0 -445.18852832032098 48.500535955691014 3.8850912299756146 0 3.8850912299756146 -1729.1495627683682 0 0 0 -420.16225670316931 1.6450082145639158 53.034152617248196 0 53.034152617248196 -1532.2178994098895 0 0 0 -382.64322279883157 -86.378107900059092 63.508255265669845 0 63.508255265669845 -1357.8833013591684 0 0 0 -361.06535231480683 -237.64146260955826 98.985142135637147 0 98.985142135637147 -1441.9584469702618 0 0 0 -419.89997739495499 -34.959111922569491 61.444375604813104 0 61.444375604813104 -1638.6921384805353 0 0 0 -418.41281260077631 -177.7498534490004 74.693932179368574 0 74.693932179368574 -1418.3113464685866 0 0 0 -399.01529997939667 -258.62531962019557 124.19913337308651 0 124.19913337308651 -1590.2952660908015 0 0 0 -462.23014642774928 -457.48836266734639 107.59034466807846 0 107.59034466807846 -1373.5032736252583 0 0 0 -457.74790907315111 -458.25201097828131 107.78919898556984 0 107.78919898556984 -1373.7577254428636 0 0 0 -458.00243410528623 -346.61018109808452 7.318024398652228 0 7.318024398652228 -1039.4053173621417 0 0 0 -346.50387461505653 -257.16114520182521 3.9322928925846554 0 3.9322928925846554 -1158.2796204200858 0 0 0 -353.86019140547779 -200.51295370773215 -34.934151835617229 0 -34.934151835617229 -1037.3322924108197 0 0 0 -309.46131152963795 -240.75902201566868 -8.6137601648522377 0 -8.6137601648522377 -1150.1678665197844 0 0 0 -347.73172213386334 -193.50075672127198 33.564048835840197 0 33.564048835840197 -1203.3941292636339 0 0 0 -349.22372149622652 -71.178351534304625 1.5027118131711177 0 1.5027118131711177 -1179.2698817751034 0 0 0 -312.61205832735209 -71.269548890605051 -38.060576218589929 0 -38.060576218589929 -1008.9408698914444 0 0 0 -270.05260469551251 -83.956968906385328 18.023794291642588 0 18.023794291642588 -1130.5086822603416 0 0 0 -303.6164127916818 -145.42809605065997 -8.6015938477668215 0 -8.6015938477668215 -1031.5137800549019 0 0 0 -294.23546902639043 -136.48775149654927 -28.601072579769493 0 -28.601072579769493 -898.83512275635405 0 0 0 -258.83071856322584 -76.405718252580527 -48.30622604730695 0 -48.30622604730695 -875.94601030046306 0 0 0 -238.08793213826084 -204.20662608480472 -25.420463274142321 0 -25.420463274142321 -890.97660612080335 0 0 0 -273.79580805140199 -266.69091782359953 2.4894069815956072 0 2.4894069815956072 -1001.2419063708714 0 0 0 -316.98320604861772 -201.9306480086575 -34.040160127751221 0 -34.040160127751221 -946.86043746863436 0 0 0 -287.19777136932288 -267.0332212291251 -56.324282006656631 0 -56.324282006656631 -822.80639217157943 0 0 0 -272.45990335017615 -306.40742648554448 -23.900923408130282 0 -23.900923408130282 -919.50686998938454 0 0 0 -306.47857411873224 -234.55412561326847 -47.710908856245929 0 -47.710908856245929 -947.81433591145219 0 0 0 -295.59211538118018 269.67086326820254 -77.099297849541699 0 -77.099297849541699 -976.31857634782091 0 0 0 -176.66192826990437 167.67804991661296 -9.5471424940290035 0 -9.5471424940290035 -1121.757288313328 0 0 0 -238.51980959917864 295.27080332731339 -57.092018912167759 0 -57.092018912167759 -864.32580557983601 0 0 0 -142.263750563131 266.80411326722879 -54.271495490130633 0 -54.271495490130633 -1099.4501816639031 0 0 0 -208.1615170991688 38.538864520005177 8.1827060431064638 0 8.1827060431064638 -1207.0064259904357 0 0 0 -292.11689036760765 46.483077297571867 -21.100897309326456 0 -21.100897309326456 -1171.5060742637079 0 0 0 -281.25574924153386 178.80663069113848 -68.955182340214563 0 -68.955182340214563 -1051.2694238442837 0 0 0 -218.11569828828647 110.71966134591685 -91.159488650457661 0 -91.159488650457661 -881.05039375224487 0 0 0 -192.58268310158201 4.0136491524552866 -22.446801315893822 0 -22.446801315893822 -1039.6319040186652 0 0 0 -258.90456371655262 24.714373005471543 -47.109994520547616 0 -47.109994520547616 -998.39782972859575 0 0 0 -243.42086418078088 -18.572145103503715 -40.989741947683001 0 -40.989741947683001 -906.05602193059235 0 0 0 -231.15704175852403 208.76166075999981 -99.563457465665351 0 -99.563457465665351 -819.27361802418773 0 0 0 -152.62798931604721 88.462466382036837 -32.789619303584033 0 -32.789619303584033 -954.82430696885967 0 0 0 -216.59046014670594 321.78631503676979 -72.278727375373307 0 -72.278727375373307 -840.0041114750411 0 0 0 -129.5544491095684 218.6321773542752 -62.390932302326064 0 -62.390932302326064 -773.43809950722334 0 0 0 -138.70148053823709 287.36755513003254 -82.768649487451285 0 -82.768649487451285 -737.84908168437642 0 0 0 -112.62038163858597 183.73518734552101 -111.89645585803987 0 -111.89645585803987 -675.52573628881328 0 0 0 -122.94763723582298 194.31765157751352 -93.034723940622257 0 -93.034723940622257 -671.99824821147331 0 0 0 -119.42014915848995 260.74639235034829 -135.94009584709875 0 -135.94009584709875 -546.60376737310753 0 0 0 -71.464343755689924 92.847901394110636 -113.32387470759238 0 -113.32387470759238 -599.6833824799578 0 0 0 -126.70887027146148 95.177067688742 -57.501977827706696 0 -57.501977827706696 -820.69035517400971 0 0 0 -181.37832187131676 94.404968126322956 -107.12896325692219 0 -107.12896325692219 -721.65332275116361 0 0 0 -156.81208865621011 -40.881195799859086 -88.163787751966026 0 -88.163787751966026 -740.52263981331112 0 0 0 -195.35095890329245 -77.770859494871729 -74.150750662787402 0 -74.150750662787402 -753.51151094847296 0 0 0 -207.82059261083623 38.130861579907901 -89.114310932120361 0 -89.114310932120361 -738.57797713667867 0 0 0 -175.11177888919235 -18.398301148675841 -102.44348863934607 0 -102.44348863934607 -604.49022376869107 0 0 0 -155.72213122934158 -6.1925918796594033 -96.722771486371812 0 -96.722771486371812 -601.37787999704301 0 0 0 -151.8926179691756 -110.99834024480577 -82.011480796558089 0 -82.011480796558089 -549.51434021241926 0 0 0 -165.12817011430622 -87.673403869168624 -86.481257058631286 0 -86.481257058631286 -476.04570780174254 0 0 0 -140.92977791772785 137.09085701843284 -124.75660141351932 0 -124.75660141351932 -430.84950634375991 0 0 0 -73.439662331331789 183.1526110365121 -105.24638272917946 0 -105.24638272917946 -307.5623352220191 0 0 0 -31.102431046376751 185.27768784076875 -91.564073494694398 0 -91.564073494694398 -505.96049260471773 0 0 0 -80.170701190987074 40.679598138290885 -112.45888025158922 0 -112.45888025158922 -463.81460201351183 0 0 0 -105.78375096880529 158.05222200149205 -126.34117121446229 0 -126.34117121446229 -573.16190796705678 0 0 0 -103.77742149139158 -245.20659548880499 -61.059003201218673 0 -61.059003201218673 -680.16185890156578 0 0 0 -231.34211359759269 -213.66413935061698 -62.732099816146018 0 -62.732099816146018 -669.57602562517934 0 0 0 -220.81004124394909 -216.33572143075529 -60.672444364899377 0 -60.672444364899377 -805.42076109301388 0 0 0 -255.43912063094226 -247.45623273370185 -43.898782516074235 0 -43.898782516074235 -742.29990977875002 0 0 0 -247.43903562811295 -215.47820373219838 -75.270962483940934 0 -75.270962483940934 -744.60256804717096 0 0 0 -240.02019294484234 -166.00017177127484 -77.307425449958259 0 -77.307425449958259 -677.09221188868469 0 0 0 -210.77309591498982 -208.46451180197528 -32.737034288258975 0 -32.737034288258975 -748.15371660180062 0 0 0 -239.15455710094398 -130.8508446777042 -79.234421616961413 0 -79.234421616961413 -821.07667103170593 0 0 0 -237.98187892735251 -152.31624247695328 -61.503185706432021 0 -61.503185706432021 -626.90863382683801 0 0 0 -194.80621907594781 -162.1045852144058 -68.127153090855529 0 -68.127153090855529 -549.90626356462963 0 0 0 -178.00271219475894 -152.17563500391864 -52.850976747893242 0 -52.850976747893242 -627.18258626843624 0 0 0 -194.83955531808877 -160.81577436986652 -62.284230619290611 0 -62.284230619290611 -464.54084923158393 0 0 0 -156.33915590036264 -193.45723481098838 -51.444322384524753 0 -51.444322384524753 -559.03954436180095 0 0 0 -188.12419479319732 -208.63349159219447 -46.635530676206201 0 -46.635530676206201 -507.98990446745694 0 0 0 -179.15584901491286 -202.82063303627223 -38.018233750314607 0 -38.018233750314607 -638.569412775979 0 0 0 -210.34751145306279 -214.96702576662153 -60.095987670475594 0 -60.095987670475594 -588.90862035688008 0 0 0 -200.9689115308754 -208.11674858934902 -38.741235366824327 0 -38.741235366824327 -572.14835682303078 0 0 0 -195.06627635309491 -224.48893272015351 -58.137268807152481 0 -58.137268807152481 -584.19960439707336 0 0 0 -202.1721342793067 -199.08062459226349 -40.9758884316064 0 -40.9758884316064 -597.21580109679121 0 0 0 -199.07410642226367 -167.58639517587179 -11.507464995546091 0 -11.507464995546091 -502.78970317333648 0 0 0 -167.59402458730207 -177.21770191457171 -29.537410990123448 0 -29.537410990123448 -531.51425434199666 0 0 0 -177.18298906414211 -222.17581082767248 -31.482579042224415 0 -31.482579042224415 -537.10455834324193 0 0 0 -189.82009229272865 -212.27094983781188 -24.144771959380719 0 -24.144771959380719 -487.03035917815026 0 0 0 -174.82532725399051 -211.16904525420443 -25.945620066704322 0 -25.945620066704322 -508.98760943493187 0 0 0 -180.03916367228408 -181.1970565408605 -26.958716168271479 0 -26.958716168271479 -479.94718323678126 0 0 0 -165.28605994441051 -188.30050153273481 -39.441742365614516 0 -39.441742365614516 -455.79572973920722 0 0 0 -161.02405781798558 -184.90044806002038 -23.849033297004269 0 -23.849033297004269 -410.48242006594091 0 0 0 -148.84571703149032 -215.07621106242283 -8.9813342715463023 0 -8.9813342715463023 -481.93752578056257 0 0 0 -174.25343421074638 -203.60551950832553 15.572192526444738 0 15.572192526444738 -501.46299449350875 0 0 0 -176.26712850045857 -218.3863873799923 21.164289693861321 0 21.164289693861321 -502.55775171344294 0 0 0 -180.23603477335877 -213.74668945387072 -4.9360782587766892 0 -4.9360782587766892 -467.74121015618948 0 0 0 -170.37197490251503 -219.1554772555904 2.2690330154478584 0 2.2690330154478584 -525.28875573768062 0 0 0 -186.11105824831779 -221.20694401557867 -2.9764896421855553 0 -2.9764896421855553 -493.66959837199863 0 0 0 -178.71913559689435 -171.02727798362167 6.5076653173934034 0 6.5076653173934034 -512.85310507209965 0 0 0 -170.97009576393035 -15.691564342743227 -32.649009651752067 0 -32.649009651752067 -333.232738495901 0 0 0 -87.23107570966107 128.77021605322409 -101.50266504297048 0 -101.50266504297048 -273.73939414048482 0 0 0 -36.242294521815211 8.1690424348747683 -114.78144626779124 0 -114.78144626779124 -308.94089242748714 0 0 0 -75.192962498153065 -55.035965499166196 -78.672206986427057 0 -78.672206986427057 -479.84305104805867 0 0 0 -133.71975413680616 -150.37567725350726 -41.78785818529866 0 -41.78785818529866 -454.26838191371178 0 0 0 -151.16101479180469 -123.32159182999862 -49.945869424030661 0 -49.945869424030661 -370.88883734639387 0 0 0 -123.55260729409804 -58.63943861511865 -62.205253311104741 0 -62.205253311104741 -379.49059804312105 0 0 0 -109.53250916456 -124.52867840130818 15.495221587623263 0 15.495221587623263 -363.16599592334501 0 0 0 -121.92366858116333 -187.50066778043356 19.512565316398366 0 19.512565316398366 -443.78629608303163 0 0 0 -157.82174096586624 -172.01210887558051 35.447838224812472 0 35.447838224812472 -481.29114910214548 0 0 0 -163.32581449443148 -157.47912825735159 2.8562518860976525 0 2.8562518860976525 -464.80417164489018 0 0 0 -155.57082497556041 -72.733501012657456 22.134024791421893 0 22.134024791421893 -459.42050237032873 0 0 0 -133.03850084574637 -6.0423054701851697 15.403129435400785 0 15.403129435400785 -246.4078110288101 0 0 0 -63.112529124748789 191.60047683093362 63.993429957984176 0 63.993429957984176 -437.81561227257123 0 0 0 -61.553783860409254 202.01111969205317 -213.26996749837338 0 -213.26996749837338 -498.66340538781992 0 0 0 -74.163071423941815 -1538.684925906593 -376.25258914647293 0 -376.25258914647293 -347.13878353414657 0 0 0 -471.45592736018466 890.54812609151338 32.357903167699469 0 32.357903167699469 -133.74652235495296 0 0 0 189.20040093414013 0.11407896457435823 -0.24085485108722582 0 -0.24085485108722582 -0.37881574703535481 0 0 0 -0.066184195615249131 449.52954751599486 -219.87504981432426 0 -219.87504981432426 -164.860609898186 0 0 0 71.167234404452188 200.86944570881519 -55.747767913685323 0 -55.747767913685323 -142.23774303522987 0 0 0 14.657925668396501 -0.4352068736835405 -0.59586366973915861 0 -0.59586366973915861 -1.0931629357247332 0 0 0 -0.38209245235206846 916.61822488278312 -98.445524022883205 0 -98.445524022883205 -168.32365726370881 0 0 0 187.07364190476869 -0.38530148041748269 -0.89852185966638298 0 -0.89852185966638298 -1.1940338504528654 0 0 0 -0.39483383271758699 452.84572592654808 -69.662120910556041 0 -69.662120910556041 -134.74303838389687 0 0 0 79.525671885662973 379.52564398898471 -155.71010600853811 0 -155.71010600853811 -272.52416766285592 0 0 0 26.750369081532199 -680.56435350038169 -157.53394911558121 0 -157.53394911558121 -385.65848787223513 0 0 0 -266.55571034315403 -660.79714632519904 -51.192711801419364 0 -51.192711801419364 -266.45701752423793 0 0 0 -231.81354096235964 -585.44940301531017 -101.12261910204188 0 -101.12261910204188 -185.95143388172801 0 0 0 -192.85020922425917 -830.44980481128687 -95.093153086256407 0 -95.093153086256407 -165.84022423077022 0 0 0 -249.07250726051439 -694.21696831889881 -301.06475620222466 0 -301.06475620222466 -485.59204285130727 0 0 0 -294.95225279255169 -821.14495212640816 -190.31703773187132 0 -190.31703773187132 -70.810475293945728 0 0 0 -222.98885685508833 -901.27827927799331 -375.15734912260973 0 -375.15734912260973 -708.0364501045118 0 0 0 -402.32868234562631 -457.98594941468696 -113.96099152099634 0 -113.96099152099634 -370.45177266675591 0 0 0 -207.10943052036066 -395.55665684520693 -184.51053796570648 0 -184.51053796570648 -356.18057419550769 0 0 0 -187.93430776017851 -333.86609127978454 -225.88162764665049 0 -225.88162764665049 -275.84869245555001 0 0 0 -152.42869593383375 -263.40416306806299 -78.488476832070091 0 -78.488476832070091 -349.63935142301807 0 0 0 -153.26087862277041 -62.048513623426061 -81.453987854863499 0 -81.453987854863499 -136.13863080981901 0 0 0 -49.546786108311153 -165.46263769370501 -127.59070297443691 0 -127.59070297443691 -119.05883757574369 0 0 0 -71.130368817362168 23.233533743943553 -294.53476992255719 0 -294.53476992255719 -165.25575575143193 0 0 0 -35.505555501872323 41.942799794981141 -353.88798875431939 0 -353.88798875431939 -281.33008167058574 0 0 0 -59.846820468901029 -130.02398076938971 -221.52531526464918 0 -221.52531526464918 -305.10390359122084 0 0 0 -108.78197109015309 -157.46665437108618 -295.19496144765242 0 -295.19496144765242 -359.6842950053524 0 0 0 -129.28773734410947 -151.56862760267063 -217.21025165076094 0 -217.21025165076094 -368.12272850111003 0 0 0 -129.92283902594454 -126.7224616704134 -260.07325358584967 0 -260.07325358584967 -487.49205286351662 0 0 0 -153.55362863348228 -487.21029012483029 -248.17719129722218 0 -248.17719129722218 -360.42967852045604 0 0 0 -211.90999216132138 -280.59688607184808 -241.16893608421583 0 -241.16893608421583 -443.73453791941938 0 0 0 -181.08285599781675 -282.29312703208916 -238.93859955599578 0 -238.93859955599578 -450.29321005164729 0 0 0 -183.14658427093377 -450.39160875192351 -186.79687924878544 0 -186.79687924878544 -491.31543037213214 0 0 0 -235.42675978101374 -152.71332321618718 -282.10634607001384 0 -282.10634607001384 -550.99918345241622 0 0 0 -175.9281266671511 -258.9635174116529 -205.4946332981508 0 -205.4946332981508 -656.28136226549759 0 0 0 -228.8112199192874 -253.29214563897858 -202.21028318125786 0 -202.21028318125786 -453.03057394634652 0 0 0 -176.58067989633128 26.838098478175652 -284.29518938088336 0 -284.29518938088336 -599.40465480730745 0 0 0 -143.14163908228284 -69.905308137959139 -312.40880563294195 0 -312.40880563294195 -456.71746158244787 0 0 0 -131.65569243010196 -131.3512997935668 -269.10498641449203 0 -269.10498641449203 -554.42638254215763 0 0 0 -171.44442058393133 -39.937894782109197 -264.88871674545499 0 -264.88871674545499 -722.62572158668536 0 0 0 -190.64090409219853 73.351495867267886 -330.14928928124345 0 -330.14928928124345 -577.009850043695 0 0 0 -125.91458854410689 82.137899822070267 -253.88211122355006 0 -253.88211122355006 -838.10607259251174 0 0 0 -188.99204319261071 -29.647429975677824 -272.06148571793415 0 -272.06148571793415 -717.19777040242661 0 0 0 -186.711300094526 77.605034826452538 -265.84594591990526 0 -265.84594591990526 -867.99560744463633 0 0 0 -197.59764315454595 -247.33956142522629 -153.03918434394132 0 -153.03918434394132 -721.57966932525778 0 0 0 -242.22980768762091 -104.844818713319 -219.47274225908723 0 -219.47274225908723 -816.72377031557335 0 0 0 -230.39214725722286 -155.9992553530974 -221.43922253305072 0 -221.43922253305072 -617.57336861998101 0 0 0 -193.39315599326983 -79.473537131409557 -201.06866411932742 0 -201.06866411932742 -818.54993073600235 0 0 0 -224.50586696685286 -191.60084833995506 -144.86083054636902 0 -144.86083054636902 -714.66121513600046 0 0 0 -226.56551586898877 -72.774956170003861 -170.07946889363154 0 -170.07946889363154 -792.50382011561487 0 0 0 -216.31969407140423 -184.25366496401057 -133.76771155723895 0 -133.76771155723895 -673.36617543840293 0 0 0 -214.4049601006036 -320.00165802684342 -104.79493512599765 0 -104.79493512599765 -633.16678408326698 0 0 0 -238.29211052752771 -244.56594133967974 -149.29713489307824 0 -149.29713489307824 -537.44016734088018 0 0 0 -195.50152717014043 -250.81880921870561 -69.134354845598821 0 -69.134354845598821 -420.90941258698876 0 0 0 -167.93205545142382 418.18455512693049 -62.162060405404418 0 -62.162060405404418 -510.63349719573262 0 0 0 -23.112235517200361 -0.4055261128772506 -1.2627471756168638 0 -1.2627471756168638 -1.200775407437618 0 0 0 -0.40157538007871696 -303.94292120570822 -26.053694572713084 0 -26.053694572713084 -520.73804637531384 0 0 0 -206.17024189525569 311.92747206753074 -33.409831321155707 0 -33.409831321155707 -562.13913718019558 0 0 0 -62.552916278166322 337.23436699438696 -34.631746600836095 0 -34.631746600836095 -478.27814569195516 0 0 0 -35.260944674391908 481.49662824919687 -75.5065940686261 0 -75.5065940686261 -405.79265487165526 0 0 0 18.925993344385461 -496.83074328551322 -23.784894670993253 0 -23.784894670993253 -443.46595236813664 0 0 0 -235.07417391341244 -0.41126329680345419 -1.1038881186920881 0 -1.1038881186920881 -1.2026877959509423 0 0 0 -0.40348777318859907 384.85430367974004 -50.309898447157678 0 -50.309898447157678 -325.96553158383176 0 0 0 14.72219302397707 325.83967306452189 -142.51861597686559 0 -142.51861597686559 -421.53107327212729 0 0 0 -23.922850051901491 630.18467945367775 -97.586452383047458 0 -97.586452383047458 -260.78750728952446 0 0 0 92.349293041038209 -533.80512684947348 -83.511383968328801 0 -83.511383968328801 -400.62557002809444 0 0 0 -233.60767421939204 -403.87316508836273 -165.37992415779581 0 -165.37992415779581 -317.25242293458905 0 0 0 -180.28139700573763 -437.52485466864152 -124.82282400330723 0 -124.82282400330723 -587.78441252914877 0 0 0 -256.32731679944743 -366.03831979812139 -82.088619729381662 0 -82.088619729381662 -346.11049916491083 0 0 0 -178.03720474075817 
</DataArray>
<DataArray type="Float64" Name="cross_section_updated" format="ascii">
1 1 1 1 1 1 1 1 1 1 1 1 1 1 1 1 1 1 1 1 1 1 1 1 1 1 1 1 1 1 1 1 1 1 1 1 1 1 1 1 1 1 1 1 1 1 1 1 1 1 1 1 1 1 1 1 1 1 1 1 1 1 1 1 1 1 1 1 1 1 1 1 1 1 1 1 1 1 1 1 1 1 1 1 1 1 1 1 1 1 1 1 1 1 1 1 1 1 1 1 1 1 1 1 1 1 1 1 1 1 1 1 1 1 1 1 1 1 1 1 1 1 1 1 1 1 1 1 1 1 1 1 1 1 1 1 1 1 1 1 1 1 1 1 1 1 1 1 1 1 1 1 1 1 1 1 1 1 1 1 1 1 1 1 1 1 1 1 1 1 1 1 1 1 1 1 1 1 1 1 1 1 1 1 1 1 1 1 1 1 1 1 1 1 1 1 1 1 1 1 1 1 1 1 1 1 1 1 1 1 1 1 1 1 1 1 1 1 1 1 1 1 1 1 1 1 1 1 1 1 1 1 1 1 1 1 1 1 1 1 1 1 1 1 1 1 1 1 1 1 1 1 1 1 1 1 1 1 1 1 1 1 1 1 1 1 1 1 1 1 1 1 1 1 1 1 1 1 1 1 1 1 1 1 1 1 1 1 1 1 1 1 1 1 1 1 1 1 1 1 1 1 1 1 1 1 1 1 1 1 1 1 1 1 1 1 1 1 1 1 1 1 1 1 1 1 1 1 1 1 1 1 1 1 1 1 1 1 1 1 1 1 1 1 1 1 1 1 1 1 1 1 1 1 1 1 1 1 1 1 1 1 1 1 1 1 1 1 1 1 1 1 1 1 1 1 1 1 1 1 1 1 1 1 1 1 1 1 1 1 1 1 1 1 1 1 1 1 1 1 1 1 1 1 1 1 1 1 1 1 1 1 1 1 1 1 1 1 1 1 1 1 1 1 1 1 1 1 1 1 1 1 1 1 1 1 1 1 1 1 1 1 1 1 1 1 1 1 1 1 1 1 1 1 1 1 1 1 1 1 1 1 1 1 1 1 1 1 1 1 1 1 1 1 1 1 1 1 1 1 1 1 1 1 1 1 1 1 1 1 1 1 1 1 1 1 1 1 1 1 1 1 1 1 1 1 1 1 1 1 1 1 1 1 1 1 1 1 1 1 1 1 1 1 1 1 1 1 1 1 1 1 1 1 1 1 1 1 0.0063326452282925242 1 1 0.013939026923075731 1 1 0.020617738192717103 1 1 1 1 1 1 1 1 1 1 1 1 1 0.027623339234888692 1 1 1 1 1 0.035053692337786949 1 1 1 1 1 1 1 1 1 1 1 1 1 1 1 1 1 1 1 1 1 1 1 1 1 1 1 1 1 1 1 1 1 1 1 1 1 1 1 1 1 1 1 1 1 1 1 1 1 1 1 1 1 1 1 1 1 1 1 1 1 1 1 1 1 1 1 1 1 1 1 1 1 1 1 1 1 1 1 1 1 1 1 1 1 1 1 1 1 1 1 1 1 1 1 1 1 1 1 1 1 1 1 1 1 1 1 1 1 1 1 1 1 1 1 1 1 1 1 1 1 1 1 1 1 1 1 1 1 1 1 1 1 1 1 1 1 1 1 1 1 1 1 1 1 1 1 1 1 1 1 1 1 1 1 1 1 1 1 1 1 1 1 1 1 1 1 1 0.042898021117445367 1 1 1 0.051096822879153916 1 1 0.059557864190070316 1 1 1 1 1 1 1 1 1 1 1 0.068224820985421736 1 1 1 1 0.077100187967220818 1 1 1 1 1 1 1 1 1 1 1 1 1 1 1 1 1 1 1 1 1 1 1 1 1 1 1 1 1 1 1 1 1 1 1 1 1 1 1 1 1 1 1 1 1 1 1 1 1 1 1 1 1 1 1 1 1 1 9.9996037507873309e-07 1 1 1 1 1 1 1 1 1 1 1 1 1 1 9.9995047994540925e-07 1 1 9.9995522617225829e-07 1 9.9994642035767384e-07 1 1 1 1 1 1 1 1 1 1 1 1 1 4.2572816846488289e-05 1 1 1 1 1 1 1 1 1 1 1 1 1 1 1 1 1 1 1 1 1 1 1 1 1 1 1 1 1 1 1 1 1 1 1 1 1 1 1 1 1 1 1 1 1 1 1 1 1 1 1 1 1 1 1 1 1 1 1 1 1 1 1 1 1 1 1 1 1 1 1 1 1 1 1 1 1 1 1 1 1 1 1 1 1 1 1 1 1 1 1 1 1 1 1 1 1 1 1 1 1 1 1 1 1 1 1 1 1 1 1 1 1 1 1 1 1 1 1 1 1 1 1 1 1 1 1 1 1 1 1 1 1 1 1 1 0.0006092105607248678 1 1 0.00011116189578416888 1 9.9997783090197828e-07 1 1 1 1 1 1 1 1 1 1 1 1 1 1 1 1 1 1 1 1 1 1 1 1 1 1 1 1 1 1 1 1 1 1 1 1 1 1 1 1 1 1 1 1 1 1 1 9.9996580137443059e-07 1 1 1 1 1 9.9997154707131761e-07 1 1 1 1 1 1 1 
</DataArray>
<DataArray type="Float64" Name="displacement_divergence" format="ascii">
-0.0136929796544734 -0.01361955783381024 -0.011267855484612109 -0.011514965781490335 -0.0098867184011629475 -0.0095468617018492977 -0.010665610186595054 -0.0097598058749975465 -0.0094931624771532018 -0.009799054507513524 -0.009971440448017739 -0.0089740665552679767 -0.01010357046441054 -0.0094928381659932001 -0.011462592077411852 -0.012453643194807212 -0.009557349635224607 -0.010922912789575891 -0.010080643600537037 -0.009535618792136602 -0.0099060077299916033 -0.0095969541984078748 -0.0096019345162277787 -0.0093141501711973378 -0.0096853383178701 -0.008939264081490518 -0.0097322056879057383 -0.009537900145415168 -0.0094698682825681817 -0.0090442280944869405 -0.0090639886879560136 -0.010067036082266764 -0.0086106004495516419 -0.0090740265398211103 -0.0080776336315468017 -0.0084125241736183881 -0.0087220781744348184 -0.0090671494920568328 -0.0087861354883317921 -0.0079977604792879631 -0.0079912509562768026 -0.0072513537253109037 -0.0086129797025081591 -0.0085853819540484735 -0.007598877143072516 -0.0080658249049605363 -0.007934775114510649 -0.0075709586331321813 -0.0095208107342836731 -0.0087732016301494582 -0.0096406753395136876 -0.0094687216008541662 -0.0087982150051058427 -0.0094077897520322487 -0.0086151430595964532 -0.0092621018694583127 -0.0083746851200613738 -0.0082079942019790807 -0.0078736049859066577 -0.0081358327778790467 -0.0081857484289839019 -0.0089981359027626745 -0.0085520772342509606 -0.0088074728193434267 -0.0079521375481961601 -0.0079294704068256748 -0.0071348772501638544 -0.0070576579825106815 -0.0066032611430739234 -0.006258385769000287 -0.0064140010081843385 -0.0064291288907964714 -0.0061446693576487233 -0.0063683500015830497 -0.0066965502077312999 -0.0068931064878513214 -0.0068675209518614475 -0.007177231642927339 -0.0074672993055587573 -0.0075376773275695579 -0.007502391439107383 -0.0072413112197192552 -0.0074620578085015168 -0.0067371417348995426 -0.0069941232890112122 -0.0071821619284197849 -0.0073664395835236623 -0.0071654776995720149 -0.0070497755055273226 -0.0067382121015953991 -0.006667335876885068 -0.0061688435767383969 -0.0062214404068956231 -0.005601332370965724 -0.0067315931005934235 -0.0065789920749282247 -0.0066178978007545054 -0.0059556216548391043 -0.0062258537018681816 -0.0058092093944396156 -0.0053408719388195504 -0.0053992980570764602 -0.0059380674784012648 -0.0058153158598098602 -0.0052194327364025418 -0.005441902429997935 -0.0044226675670444894 -0.0048210246319304213 -0.0034978395936918552 -0.0037104991666689433 -0.0042807416666991172 -0.0046999757799101177 -0.0045288268832322474 -0.0041143375972119657 -0.0046122200037545559 -0.0046210090605289574 -0.0051393678650428435 -0.0049237142282418638 -0.0048058224074595699 -0.0048504737513393962 -0.0048150254353616431 -0.0052706886044153849 -0.0052942610878623474 -0.005741675491786967 -0.0054484208295184668 -0.0053733350990386427 -0.0059828271909862585 -0.0059269110510349497 -0.005278136393060062 -0.0057077366821290648 -0.003447373819884407 -0.0044079709003011155 -0.0048193574710315712 -0.0037202799645689936 -0.0021824600190597371 -0.001507650895712212 -0.0020832803206992851 -0.0022801329581209548 -0.0017689326405382726 -0.0019306646573325897 -0.0035747556580143936 -0.0039851928908266401 -0.0038585863076090968 -0.0048145714371936946 -0.0057278163766624375 -0.0053839705554818013 -0.0064231714826860874 -0.0051318568053766826 -0.005018424081658257 -0.0059114317684120544 -0.0030068608169379445 -0.0060984474280677201 -0.0053780240809771472 -0.0054785070106836645 -0.0054275151968854775 -0.0049934924070440829 -0.006299978261658172 -0.0050040983572534649 -0.0054689169905592153 -0.0044182088691320301 -0.0060680858169933627 -0.0044002952021805347 -0.005499547412869045 -0.0051621186082431957 -0.006463245551294225 -0.005248844686214036 -0.0064295970001749178 -0.0054971890468827004 -0.0059084499076986832 -0.0069461240567344068 -0.0062962475305676328 -0.0074963471814958882 -0.0066478558361145121 -0.0064002515474767957 -0.0067716949989400227 -0.0061491667402351104 -0.006988551358647066 -0.0063093744186078216 -0.0063071841547337956 -0.0053685603458793925 -0.0061895211496647562 -0.0059817376535172377 -0.0050069015363406189 -0.0054957660093878508 -0.0042577720293426741 -0.0043613870635023227 -0.0048526397748361247 -0.003669367600690027 -0.0054870761891723657 -0.0012771874267350838 -0.0036531073456201532 -0.0027999112914589269 -0.0046585755399078665 -0.0031639000066422118 -0.002813082431231833 -0.0049868420994120949 -0.004278970207200597 -0.0047164135776370311 -0.0061686664610578618 -0.0073967646691246447 -0.0060322355879877665 -0.00622648068938296 -0.0070884779777225376 -0.0077276382794649046 -0.0068382944063910545 -0.0068247251092582381 -0.0085671377449819397 -0.0079051705955079932 -0.0092594344815058044 -0.0083940691534736961 -0.0097590497830786493 -0.008117452007176007 -0.0081550930320026804 -0.0074766471770233069 -0.0068639189471249099 -0.0079027717739566308 -0.0077271535657993939 -0.0082866595594580233 -0.0070802594921546697 -0.0068598892369315448 -0.0076341500300120685 -0.0068589840861536175 -0.0081150315721270905 -0.0085333785096946627 -0.008648817000811361 -0.0078996214973994366 -0.0085287160302815745 -0.0088791138955259322 -0.0086364925128545461 -0.0084408498138711305 -0.0081588549326216536 -0.0093212413346052576 -0.0090653923812843706 -0.0095959977230526058 -0.0087399771503744068 -0.010233612750528157 -0.0094965032064902085 -0.0096359910551446631 -0.0095864611631705232 -0.0095510197076419667 -0.010856033332586487 -0.010673113574572221 -0.011194104657758497 -0.010140648698562765 -0.010544717627068094 -0.0096699867061895428 -0.010643849921820339 -0.0095564179896595325 -0.009908978685867556 -0.0093064080029571228 -0.010693782118274417 -0.010705055113073125 -0.011695944810774683 -0.011585285269186688 -0.012583637611169179 -0.011684460803757707 -0.012100373694981084 -0.011279902896664348 -0.011856632247850857 -0.013610756010756397 -0.012419792660133933 -0.013789822760700551 -0.012834547471307856 -0.012155158495562923 -0.011248168737548414 -0.010649981382160001 -0.011421733944435047 -0.010452765939501091 -0.010122989530380821 -0.010274368549653093 -0.010941223184719573 -0.010997089430936094 -0.012211932222055771 -0.014481516201490324 -0.014041590121660702 -0.012737058220561287 -0.013695620467585184 -0.011508200172288435 -0.012476329338058006 -0.01267367205318648 -0.011929646889065532 -0.010896247402563564 -0.010245382623112531 -0.0091003957570881255 -0.010798772100460452 -0.0093039390484266349 -0.010896527481271012 -0.0097584314272170791 -0.0098625239770086248 -0.0084392143924527097 -0.0086042319071392148 -0.0068151371098454649 -0.0086117226194157293 -0.0082062916156860899 -0.0085427429712951614 -0.0073379290740663572 -0.0080801833848399146 -0.0071884268819220054 -0.0054744523330327033 -0.0066416372932471268 -0.0036537150671098742 -0.0043328024568285977 -0.0055276632021236949 -0.0064039830036261014 -0.0060852684237103771 -0.0053882663341999759 -0.0028673278531761298 -0.0049942518307212469 -0.004020423487269123 -0.0062287975457494676 -0.005868922686850922 -0.0042082591562636468 -0.0057442345426124003 -0.0050898824223144373 -0.0071492778356909148 -0.0068248704431080331 -0.0076631161617880528 -0.0072760041926185764 -0.009045478702953913 -0.0085702998004056584 -0.009087589669089069 -0.009009251351340973 -0.0088817632055514656 -0.0074536978898376849 -0.0072033824895694591 -0.0086628175405427353 -0.0081194490795276075 -0.0071338073838567717 -0.0069372093693581827 -0.0064029364065626981 -0.0063634334600426445 -0.0063616718539093453 -0.0063960319146291189 -0.0073920761223105758 -0.0073336648247522632 -0.006779235663568639 -0.0085230354230660943 -0.0088545956645080248 -0.0080367316569727731 -0.0074843598950146417 -0.009831890557214118 -0.0076922740996646088 -0.009539565078891532 -0.0089642861212859571 -0.0096211115783707002 -0.0083423639453450993 -0.010068576422510633 -0.0075348960054367753 -0.0093470051342148808 -0.0083196435471103725 -0.010459016742777244 -0.010044589791731173 -0.011329737156225117 -0.010660306645210105 -0.0091893351542224333 -0.0080051167268094525 -0.0095892040106549878 -0.0085732517346593928 -0.0075681737993770794 -0.0084584914353685314 -0.0073067505725288862 -0.0071226857907172245 -0.0080290544101597819 -0.0064609628332224778 -0.0071656143550127005 -0.0064694397457569219 -0.0096294727118661078 -0.0091305626123456829 -0.0083259957144089514 -0.007679689616114288 -0.0091153732401028642 -0.0096150907971479516 -0.0074029128380336262 -0.01002477485536582 -0.0085720734150580291 -0.010753846508112674 -0.0082734567175112017 -0.0089950584822704738 -0.012398578297865698 -0.013738746000358001 -0.013234096083156649 -0.010648391999867529 -0.010074354909074518 -0.0084286426094134503 -0.010842292170177098 -0.0074625878492513564 -0.017111914042441265 -0.024364890324409451 -0.015634031559703943 -0.018314733913788718 -0.019549683788305613 -0.016150121506689846 -0.012017150536329152 -0.014677349531589112 -0.01416198991389242 -0.010949073150040095 -0.010508884174498717 -0.0099995118183637821 -0.010320183274161593 -0.013356542179625626 -0.012431649332041033 -0.0060817475491819137 -0.0047925754225279574 -0.0040986268546129856 -0.010073041992020637 -0.0070850880840105379 -0.0099710992290029943 -0.0080056013110524349 -0.0078546552576471418 -0.005401644509182707 -0.0078569254410534861 -0.0060235913203620928 -0.0032406927373428845 -0.00512959353539999 -0.0031759983579756484 -0.0057266707715731557 -0.0031019743219641571 -0.00031820265564599937 -0.0039734367727624065 -7.433712580218188e-08 4.7286983975672325e-05 0.0052482533119703606 0.0045897421206945593 -4.6540537424213935e-05 -0.0020241201262819614 0.0055129553866417602 0.013391750538286458 0.013707170179080942 0.014801950491746825 0.0083953578099234469 0.0036433693502760343 0.0055313768782964253 0.0019698811913381534 -0.0022451440318303796 -0.0055387183695761923 -0.0053610873642325196 -0.0092175852880928052 -0.00083238287871187366 -0.0076747399926440363 -0.012698269882633215 -0.015241560226773726 -0.0096087085733684435 -0.013739486821782707 -0.011095590357944666 -0.019183869522073488 -0.012810783680239499 -0.01465194886876748 -0.020485953005829956 -0.020528577628874622 -0.02838193461397984 -0.021022177049147932 -0.026731312220627801 -0.022246967200341874 -0.016292745722311274 -0.018102191677681539 0.00083019948620405987 0.0011167620366363262 0.0027650820662159983 0.0006276688397762395 -0.00019301938228780124 -0.00093665129285229465 -0.0020670371177122365 -0.00076033469540805307 -0.0035613134837539084 -0.0026759223042484015 -0.0053282829695677075 -0.0032262571500015352 -0.0038145351979092662 -0.0020460089417029537 -0.0017900949107868616 -0.0023151885606663009 -0.0037765512091790104 -0.0045940307564250049 -0.00154152916861304 -0.0013785946017024694 -0.00045462373000791645 -0.0030680488488940248 -0.0022529762389130736 0.00045897131016615217 0.0014031300916212547 0.0052439855779301721 0.001495049880418672 0.0028554542153775564 0.0015490611017153627 0.0050813734209078972 0.0060218697040869823 0.010567252777910426 0.010967219508734694 0.0095204196547822792 0.0083786366469146972 0.0089522340073953204 0.012603906079683452 0.012714073334457968 0.026301943800822892 0.03292513055365022 0.031749201072686799 0.019343180586821999 0.0067542561138172821 0.012054767047690701 0.016157683197879316 0.0089870009052301358 0.0075947675931385926 0.0094127711174279548 0.004378602255646076 0.0063109780216671352 0.0019826515804273401 0.0037314926127805376 0.0012651508132431738 0.0043299507344011501 -0.00051629028873369058 0.0012987237244779584 0.0025658552514309443 0.0012323733600576939 -0.00043613273257662143 0.0047918455272060213 -0.00028693390897862985 0.00070116821897697051 0.0021905173812778603 0.0005666551642243417 -0.0016535139023841003 0.00048050549577820885 0.0010094373538257415 -0.0024137934225093999 0.0025726994702642281 0.0011672185084510636 0.00080424155775545708 0.0058333540137255682 0.0047789129625336949 0.0048300297798672606 0.0039929480991488207 0.0083903245176327555 0.010911055965093088 0.012922217970786982 0.03287542847606359 0.0055244540539723733 0.012036669999836866 0.034890663556543619 0.01849150579056287 5.0600882563657468 0.03760134583604885 0.017854173368720971 5.1891241142826265 0.0049544159448854791 0.023389444040591473 9.5054281889314858 0.0043226742433982585 0.01496656181081088 0.003059000140565836 0.0052318761908161718 0.0046825557741496798 0.0026084080469712181 0.002396155657322728 0.0046518006157513919 0.004362976164433971 0.0017830196754167471 0.013181870858068601 0.014789532816959217 0.021653104165144266 12.741601784133627 0.017301969576081849 0.014955195009596967 0.0094450675439921583 0.014969387029813097 0.0047266096730784468 16.519667861527992 0.01085518088826154 0.0018791682159214063 0.00062717490180040636 0.0042610889390154172 0.0010004879752042173 0.001273467120465957 -0.000958763835880172 -0.0019909125800783439 -0.0004219125078661172 -0.0012005802965838475 -0.0016007036073340947 -0.0035077832984374878 -0.0040527654010542868 -0.0030332310268670754 -0.0032564087538996377 -0.0023037463550090592 -0.003804752697086411 -0.0015221466484156843 -0.0020675970099808998 -0.00035457919985201758 0.00039021184110303239 -8.8498450241475402e-05 -0.021479982623098554 -0.02547235012750601 -0.018152085426956788 -0.02891435530116937 -0.027292848255641822 -0.01911941835741976 -0.021259887577464356 -0.014391758541824756 -0.01084861910801339 -0.0057103372950517151 -0.012031159541758707 -0.010638366820411277 -0.015542673694130538 -0.008929773331592783 0.0010059837574458302 -0.0026072931040396485 0.0056713271062848875 -0.0043922604278495841 -0.0083598108996418008 -0.001339942815418875 0.00082243065848634778 0.0091142992394845912 0.016402791062019445 0.014545447703510234 0.017225454205245273 0.005997899040096899 0.009658022397325966 0.012463804993339378 0.0030310764681825142 0.0033408585554464687 0.0080756870487229127 0.0084071886044884692 0.0087997800382113578 0.0046921594416300377 0.0021369677838392054 0.002240019133677329 -0.0035140726703735137 -0.0032543328470156299 -0.0040364136045930588 -0.0076391509862057394 -0.0030764758057021946 -0.0015008526547359985 -0.0055307620227243448 -0.0072929762400353523 -0.011680705165834471 -0.013436599966106046 -0.013924194841679949 -0.012281411853489271 -0.0092276323483364564 -0.0090242900732649678 -0.010895046315790143 -0.01309514113249699 -0.015030497459815551 -0.019391931187379141 -0.013904217195806645 -0.016520190994366496 -0.023470943160109614 -0.01783657841118419 -0.019004665152057176 -0.0079504593958458075 -0.01244281066483921 -0.0090692539252842375 -0.01248626349922477 -0.012726591585873248 -0.01648062947438067 -0.01500983821420887 -0.013285406566417191 -0.011017238372873495 -0.010310285893510573 -0.0093503452218521854 -0.0077414378291134067 -0.0080862850161926847 -0.010007718317738057 -0.0074545975638919404 -0.0050964640910280412 -0.0056014541512619531 -0.0027058880099855021 -0.0081277729991924286 -0.0081677290585440154 -0.005272957396954131 -0.004571889706983856 -0.0028864236020060829 -0.0046759751684017914 0.00083643420511470001 0.001741549688546784 0.00049764368607008169 0.0023055043108495266 0.0065638006459571852 0.00075314049341201894 0.0021732736303137212 -0.0019523850659266817 -0.0024781460656145005 0.0010394104354989331 -0.0041609328805110035 -0.00027064466249082653 -0.0034344531670336131 -0.00058043015838982193 -0.0013837208983612237 -0.0052655035270763317 -0.0070523519118410594 -0.0063868438402694405 -0.0088710337351073365 -0.0081237489525993745 -0.005825253945694886 -0.0043946116432196369 -0.0067378983678543225 -0.00292622458064562 -0.0085355168092536848 -0.010107021377770309 -0.0073822425543239589 -0.0073491274419761332 -0.0092730101945261989 -0.0093284009672081059 -0.0078072931647721333 -0.0064881879980092094 -0.0078173438933797357 -0.0077459462565225845 -0.0065176521413283506 -0.0063746651570948387 -0.0066730097823548551 -0.006045239093064092 -0.0072884207362162723 -0.0081065743243760729 -0.01043581469200161 -0.0047507761358507594 -0.0027424440937771632 -0.0021817367306479762 -0.0047345363424674269 -0.0066182144620751142 -0.0064312665220002674 -0.0070852423869215975 -0.0052861549347813924 -0.005118740801203947 -0.005455165883030362 -0.0032063353442529086 -0.0033339970441882139 -0.00505564716306562 -0.0029848617645270026 -0.0014780363036923511 0.00026508204349103004 0.0044974179838015715 0.0045240650572393876 0.00093765896278565075 0.0079988552388055301 0.013348605808166214 0.0047922018116170473 20.419178371865016 0.005404398583233827 0.0090114763882771509 0.0074894782668560866 24.50273632541213 0.0051175788770791153 0.00962006898159673 28.768302694389519 0.0038912992382192785 -0.00019677316182439841 0.0042441738065311235 -0.0018969938973348033 0.000691389286739022 -0.00046254127674871803 -0.0017732728548448123 0.0053880566141159408 0.0048814435098044617 0.00054624732258751196 0.0084563419895595793 32.923235286815391 0.0070467005890867407 0.0074384262318691078 0.0038153367671536209 0.004064758654465539 37.965879056541866 0.0088933263801378448 0.0042343589545437155 -0.0040984553394805834 0.0044278474559732994 0.0077427118631228364 0.0023420021439593819 -0.0023656748260298399 -0.0099720901906423798 -0.0076792432659669729 -0.010429019902233466 -0.0055884180785514548 -0.0077095747898761058 -0.007112748591753898 -0.0051770210521098533 -0.0048124452763503023 -0.0089383710579629128 -0.0072708650376960907 -0.0099092827318843502 -0.0081547373681079283 -0.0089916259236287877 -0.010250540504274736 -0.013196116112359296 -0.010605495253522917 -0.012553666244461498 -0.010949493611566719 -0.0095261976391484704 -0.011103186865044256 -0.0065207588503741892 -0.009929929809043397 -0.0089068753455083804 -0.0062835371130981199 -0.0089853408794726766 -0.0079630654029414563 -0.0063077467471648607 -0.007162523917174507 -0.0090987840414134061 -0.0078879719401334925 -0.0081765684997715943 -0.0077595611164930356 -0.0063765414498934414 -0.0074664734007665878 -0.0064258626357265869 -0.0073602570932569389 -0.0074790508726895188 -0.0075073618475118564 -0.0072208089526717371 -0.0055058423888689478 -0.0058955216022405776 -0.0057177583332255894 -0.0072787429666438946 -0.0052434058176814985 -0.006012978015436236 -0.0052515962061139287 -0.0053960140303394161 -0.005877158892656012 -0.0063667771076772392 -0.0068073622897410514 -0.0017125997176730759 -1.0050565388714956 -0.00092393155042438252 -0.0043980668346176345 -0.0042570582019464398 -0.00629664100224199 -0.005078778982675905 -0.0058901587693463708 -0.0031791785374490206 -0.0054683887872215009 -0.0039452882076810476 -0.0061745927514992166 -0.0026534367047268692 -0.0018199144824744481 -0.0024116525893031829 -0.0019791110015156335 -0.99637691450068822 -0.0032403415704418681 -0.0011075042951972092 -1.0101149985923294 -0.00069338655558698337 -1.0553088497072296 0.0006379490912810093 0.000618873185760357 -0.0011038487523834239 -0.0045973172002482399 -0.0043726358015938049 -0.0010604636396130962 -0.0025300515807082612 -0.0056171052847775599 0.0001518701047014126 0.0033485216256613111 0.00097283087160419945 -0.0039013416650823551 0.00079215350914035865 -0.81312467824117096 0.0040777583711111148 0.0022678641325834525 -0.0024917943777960569 -0.0055021406781233656 -0.0052432932035684637 -0.0029904453484360079 -0.0066208317637090619 -0.0085600869893819528 -0.0094433072436184221 -0.0088462280163450688 -0.0073106555794718725 -0.0077416107157820824 -0.0083061627514397253 -0.006805977359297187 -0.0049372612808864236 -0.0036345593791103706 -0.0057955657555698713 -0.011708277780831697 -0.015175526207206884 -0.014961999870983587 -0.010507610070237199 -0.01261200837610349 -0.010035430496743498 -0.01062963033302531 -0.011129713208008027 -0.010504056417579221 -0.0095660805699707852 -0.0090266338078701762 -0.010497499434873875 -0.0104603203150194 -0.0099753824994849184 -0.011555753660693733 -0.011443697726828777 -0.011450060852632156 -0.0086625968653764145 -0.0088465047851369449 -0.007736532788240949 -0.0086932930533465819 -0.0087305930374056637 -0.0078153014581838036 -0.0067513151173878121 -0.0075904103197920424 -0.0073558867256597604 -0.0064707679640806474 -0.0059521983034565226 -0.0068448952012850495 -0.0079245801512154452 -0.0071799442842330717 -0.0068114975837544039 -0.007661964352968305 -0.0073898028845295035 -0.0044165482067476114 -0.0059629952399794656 -0.0035565937640782697 -0.0052040379274792131 -0.0073029222591901935 -0.0070313937310383448 -0.0054528924572071619 -0.0048145670775395499 -0.0064726140929138171 -0.0060855216045195247 -0.005778926043963099 -0.0038156997329011969 -0.0054147615036676464 -0.003238861227739212 -0.0034675370134559166 -0.0028155095409646592 -0.0030736909308955798 -0.0029855037289622487 -0.0017866085938922464 -0.0031677217567865415 -0.0045344580467829194 -0.0039203022164052519 -0.0048837739725823143 -0.0051955148152709064 -0.0043777944722298099 -0.0038930532807335411 -0.0037973154492293888 -0.0041282042528576566 -0.0035232444479431982 -0.001835991558283295 -0.00077756077615941457 -0.0020042675297746795 -0.0026445937742201366 -0.0025944355372847817 -0.0057835528399398182 -0.0055202510310987272 -0.0063859780157735557 -0.0061859758907028229 -0.0060005048236210588 -0.005269327397874746 -0.0059788639275235988 -0.0059495469731838139 -0.0048701554768986986 -0.0044500678048689738 -0.0048709888829522171 -0.0039084788975090653 -0.0047031048698299325 -0.0044788962253728224 -0.0052586877863265687 -0.0050242227882718845 -0.0048766569088273728 -0.0050543033569826678 -0.0049768526605565924 -0.0041898506146825516 -0.0044295747266035529 -0.0047455023073182155 -0.0043706331813497638 -0.0045009790918071023 -0.0041321514986102596 -0.0040256014454496374 -0.0037211429257872543 -0.0043563358552686582 -0.004406678212511464 -0.0045059008693339713 -0.0042592993725628775 -0.0046527764562079438 -0.0044679783899223592 -0.0042742523940982576 -0.0021807768927415224 -0.00090605736304538373 -0.0018798240624538273 -0.0033429938534201564 -0.0037790253697951148 -0.0030888151823524508 -0.0027383127291140015 -0.0030480917145290828 -0.0039455435241466559 -0.0040831453623607888 -0.0038892706243890129 -0.0033259625211436604 -0.0015778132281187227 -0.001538844596510232 -0.0018540767855985425 -0.011786398184004614 0.0047300100233535047 -0.16546048903812283 0.0017791808601113068 0.00036644814170991649 -0.95523113088017109 0.0046768410476192186 -0.9870845817939673 0.0019881417971415773 0.00066875922703830623 -0.006663892758578864 -0.0057953385240589808 -0.0048212552306064679 -0.0062268126815128583 -0.0073738063198137867 -0.0055747214213772121 -0.010058217058640665 -0.0051777357630090129 -0.0046983576940044687 -0.0038107173983458406 -0.003831521965569254 -0.0012386696527077745 -0.0017782592204340535 -0.00088763888754680303 -0.0014961705117225253 -0.0027195492772538188 -0.0032321934336027244 -0.0032480709756486162 -0.0038388407158370663 -0.005297749804033032 -0.0045270713999454176 -0.0045786646067733569 -0.0058856689945253476 -0.0043982031666787713 -0.0057202804979821775 -0.0044145169974082743 -0.0035785409770570792 -0.0032913923107525311 -0.0042861105145982972 -0.0047660226023049368 -0.0031478647136026737 -0.0047248010798152593 -0.0046677825023631464 -0.004939941078863655 -0.0060557451921905425 -0.0057598036814305725 -0.0048348288998317484 -0.0056126466741713288 -0.005664137896724715 -0.0054079923517851014 -0.0053601240025150931 -0.0059573027631882047 -0.0048875381792535047 -0.0041983013862855884 -0.00057780588793001492 -1.0039384501967927 -0.0051542560473813864 -0.001563822906954157 -0.00088152361685979799 0.00047314983360963875 -0.005876854347835303 -1.0087194329714977 0.00036805482559942176 -0.0005980712512975335 0.0023087323260259571 -0.0058401918554848095 -0.004507034925143448 -0.0064081829199861846 -0.0044509301185189504 
</DataArray>
</CellData>
</Piece>
</UnstructuredGrid>
</VTKFile>
