<?xml version="1.0"?>
<VTKFile type="UnstructuredGrid" version="0.1" byte_order="LittleEndian">
<UnstructuredGrid>
<Piece NumberOfPoints="3142" NumberOfCells="1054">
<Points>
<DataArray type="Float64" NumberOfComponents="3" format="ascii">
0.02576622439977887 0.024532886826226379 0 0 0 0 0.049999999999899652 0 0 0.02576622439977887 0.024532886826226379 0 0 0 0 0 0.050000000000207989 0 0.02576622439977887 0.024532886826226379 0 0.049999999999899652 0 0 0.053064897599215843 0.048131547304697528 0 0.02576622439977887 0.024532886826226379 0 0.053064897599215843 0.048131547304697528 0 0 0.050000000000207989 0 0 0.050000000000207989 0 0 0.10000000000041601 0 0.044310582753132287 0.101412518374475 0 0 0.10000000000041601 0 0.044310582753132287 0.101412518374475 0 0 0.15000000000062411 0 0.053064897599215843 0.048131547304697528 0 0.044310582753132287 0.101412518374475 0 0.083411279318303222 0.089699755330707398 0 0.053064897599215843 0.048131547304697528 0 0 0.050000000000207989 0 0.044310582753132287 0.101412518374475 0 0.044310582753132287 0.101412518374475 0 0.083411279318303222 0.089699755330707398 0 0.065374659239632718 0.1448908038746782 0 0.083411279318303222 0.089699755330707398 0 0.065374659239632718 0.1448908038746782 0 0.1053400320299198 0.12877248826361379 0 0.083411279318303222 0.089699755330707398 0 0.12372429750337779 0.095814237875728972 0 0.1053400320299198 0.12877248826361379 0 0.12372429750337779 0.095814237875728972 0 0.1053400320299198 0.12877248826361379 0 0.14332333627550789 0.14578431753966009 0 0.12372429750337779 0.095814237875728972 0 0.10266856499169109 0.044518360900210059 0 0.14618258501891079 0.062070108745602003 0 0.083411279318303222 0.089699755330707398 0 0.12372429750337779 0.095814237875728972 0 0.10266856499169109 0.044518360900210059 0 0.10266856499169109 0.044518360900210059 0 0.099999999999814668 0 0 0.14999999999970359 0 0 0.049999999999899652 0 0 0.053064897599215843 0.048131547304697528 0 0.099999999999814668 0 0 0.053064897599215843 0.048131547304697528 0 0.10266856499169109 0.044518360900210059 0 0.099999999999814668 0 0 0.053064897599215843 0.048131547304697528 0 0.083411279318303222 0.089699755330707398 0 0.10266856499169109 0.044518360900210059 0 0.044081577119474857 0.2271058242433576 0 0 0.20000000000083221 0 0 0.25000000000104028 0 0.044081577119474857 0.2271058242433576 0 0 0.20000000000083221 0 0.038512288486115001 0.1844147282893184 0 0.044081577119474857 0.2271058242433576 0 0.038512288486115001 0.1844147282893184 0 0.083105206071467416 0.20007701332709979 0 0.038512288486115001 0.1844147282893184 0 0 0.15000000000062411 0 0.065374659239632718 0.1448908038746782 0 0.044310582753132287 0.101412518374475 0 0 0.15000000000062411 0 0.065374659239632718 0.1448908038746782 0 0.038512288486115001 0.1844147282893184 0 0.065374659239632718 0.1448908038746782 0 0.083105206071467416 0.20007701332709979 0 0 0.20000000000083221 0 0.038512288486115001 0.1844147282893184 0 0 0.15000000000062411 0 0.065374659239632718 0.1448908038746782 0 0.1053400320299198 0.12877248826361379 0 0.106902708054812 0.16453234188234539 0 0.1053400320299198 0.12877248826361379 0 0.106902708054812 0.16453234188234539 0 0.14332333627550789 0.14578431753966009 0 0.065374659239632718 0.1448908038746782 0 0.106902708054812 0.16453234188234539 0 0.083105206071467416 0.20007701332709979 0 0.083105206071467416 0.20007701332709979 0 0.095326043202144745 0.24554465089224409 0 0.13737030665753211 0.20313708640667491 0 0.106902708054812 0.16453234188234539 0 0.083105206071467416 0.20007701332709979 0 0.13737030665753211 0.20313708640667491 0 0.044081577119474857 0.2271058242433576 0 0.083105206071467416 0.20007701332709979 0 0.095326043202144745 0.24554465089224409 0 0.044081577119474857 0.2271058242433576 0 0.095326043202144745 0.24554465089224409 0 0.049706944316556423 0.27522722923869108 0 0.095326043202144745 0.24554465089224409 0 0.14377654328998779 0.2442024734791064 0 0.13737030665753211 0.20313708640667491 0 0.17933913398461551 0.2350063570234002 0 0.14377654328998779 0.2442024734791064 0 0.13737030665753211 0.20313708640667491 0 0.17933913398461551 0.2350063570234002 0 0.13737030665753211 0.20313708640667491 0 0.18124454140915969 0.18790916706335251 0 0.18124454140915969 0.18790916706335251 0 0.14332333627550789 0.14578431753966009 0 0.18652628422869419 0.14162325200928061 0 0.106902708054812 0.16453234188234539 0 0.13737030665753211 0.20313708640667491 0 0.14332333627550789 0.14578431753966009 0 0.13737030665753211 0.20313708640667491 0 0.18124454140915969 0.18790916706335251 0 0.14332333627550789 0.14578431753966009 0 0.14332333627550789 0.14578431753966009 0 0.18652628422869419 0.14162325200928061 0 0.16141998738593399 0.10404039647458049 0 0.18652628422869419 0.14162325200928061 0 0.22985637510995899 0.1298347970200906 0 0.2185883431182947 0.18019736283949719 0 0.22985637510995899 0.1298347970200906 0 0.2185883431182947 0.18019736283949719 0 0.25557216766470708 0.15874861286892261 0 0.2185883431182947 0.18019736283949719 0 0.25557216766470708 0.15874861286892261 0 0.26429849586623999 0.19346700179430079 0 0.18124454140915969 0.18790916706335251 0 0.18652628422869419 0.14162325200928061 0 0.2185883431182947 0.18019736283949719 0 0.17933913398461551 0.2350063570234002 0 0.18124454140915969 0.18790916706335251 0 0.224700362040408 0.22206622194729711 0 0.18124454140915969 0.18790916706335251 0 0.2185883431182947 0.18019736283949719 0 0.224700362040408 0.22206622194729711 0 0.2185883431182947 0.18019736283949719 0 0.224700362040408 0.22206622194729711 0 0.26429849586623999 0.19346700179430079 0 0.224700362040408 0.22206622194729711 0 0.25195515620380449 0.25883339815888678 0 0.21049769590865089 0.26857363548218488 0 0.17933913398461551 0.2350063570234002 0 0.224700362040408 0.22206622194729711 0 0.21049769590865089 0.26857363548218488 0 0.184418230509967 0.038773194583122873 0 0.14999999999970359 0 0 0.14618258501891079 0.062070108745602003 0 0.184418230509967 0.038773194583122873 0 0.14618258501891079 0.062070108745602003 0 0.19922788606653311 0.085920220746880993 0 0.184418230509967 0.038773194583122873 0 0.14999999999970359 0 0 0.19999999999955789 0 0 0.10266856499169109 0.044518360900210059 0 0.14999999999970359 0 0 0.14618258501891079 0.062070108745602003 0 0.12372429750337779 0.095814237875728972 0 0.14618258501891079 0.062070108745602003 0 0.16141998738593399 0.10404039647458049 0 0.12372429750337779 0.095814237875728972 0 0.14332333627550789 0.14578431753966009 0 0.16141998738593399 0.10404039647458049 0 0.18652628422869419 0.14162325200928061 0 0.16141998738593399 0.10404039647458049 0 0.19922788606653311 0.085920220746880993 0 0.14618258501891079 0.062070108745602003 0 0.16141998738593399 0.10404039647458049 0 0.19922788606653311 0.085920220746880993 0 0.18652628422869419 0.14162325200928061 0 0.22985637510995899 0.1298347970200906 0 0.19922788606653311 0.085920220746880993 0 0.22985637510995899 0.1298347970200906 0 0.19922788606653311 0.085920220746880993 0 0.24218496799700481 0.089025544070598317 0 0.22985637510995899 0.1298347970200906 0 0.24218496799700481 0.089025544070598317 0 0.27474541102162192 0.11822029332053539 0 0.19922788606653311 0.085920220746880993 0 0.24218496799700481 0.089025544070598317 0 0.22668068146512929 0.045875643423131329 0 0.24218496799700481 0.089025544070598317 0 0.22668068146512929 0.045875643423131329 0 0.27499999999933927 0.060310814194988557 0 0.184418230509967 0.038773194583122873 0 0.19922788606653311 0.085920220746880993 0 0.22668068146512929 0.045875643423131329 0 0.184418230509967 0.038773194583122873 0 0.22668068146512929 0.045875643423131329 0 0.19999999999955789 0 0 0.22668068146512929 0.045875643423131329 0 0.19999999999955789 0 0 0.24999999999941211 0 0 0.24999999999941211 0 0 0.27499999999933927 0.060310814194988557 0 0.29999999999926641 0 0 0.22668068146512929 0.045875643423131329 0 0.24999999999941211 0 0 0.27499999999933927 0.060310814194988557 0 0.27499999999933927 0.060310814194988557 0 0.29999999999926641 0 0 0.32541448401678508 0.046215317981507749 0 0.29999999999926641 0 0 0.32541448401678508 0.046215317981507749 0 0.34999999999912063 0 0 0.32541448401678508 0.046215317981507749 0 0.3615861437013822 0.03582617922508851 0 0.35312867752657662 0.084946736076730367 0 0.3615861437013822 0.03582617922508851 0 0.35312867752657662 0.084946736076730367 0 0.39591832466117061 0.056982757562006353 0 0.32541448401678508 0.046215317981507749 0 0.3615861437013822 0.03582617922508851 0 0.34999999999912063 0 0 0.3615861437013822 0.03582617922508851 0 0.34999999999912063 0 0 0.3999999999989749 0 0 0.35312867752657662 0.084946736076730367 0 0.36246644853392812 0.1399454205365751 0 0.39823268594401579 0.1116623613130045 0 0.35312867752657662 0.084946736076730367 0 0.32215584939770009 0.1218492143506909 0 0.36246644853392812 0.1399454205365751 0 0.32541448401678508 0.046215317981507749 0 0.35312867752657662 0.084946736076730367 0 0.3096713403101819 0.085471541595262421 0 0.35312867752657662 0.084946736076730367 0 0.32215584939770009 0.1218492143506909 0 0.3096713403101819 0.085471541595262421 0 0.32215584939770009 0.1218492143506909 0 0.3096713403101819 0.085471541595262421 0 0.27474541102162192 0.11822029332053539 0 0.27499999999933927 0.060310814194988557 0 0.32541448401678508 0.046215317981507749 0 0.3096713403101819 0.085471541595262421 0 0.27499999999933927 0.060310814194988557 0 0.3096713403101819 0.085471541595262421 0 0.27474541102162192 0.11822029332053539 0 0.24218496799700481 0.089025544070598317 0 0.27499999999933927 0.060310814194988557 0 0.27474541102162192 0.11822029332053539 0 0.22985637510995899 0.1298347970200906 0 0.27474541102162192 0.11822029332053539 0 0.25557216766470708 0.15874861286892261 0 0.27474541102162192 0.11822029332053539 0 0.25557216766470708 0.15874861286892261 0 0.29336099386129338 0.15892013001050981 0 0.25557216766470708 0.15874861286892261 0 0.29336099386129338 0.15892013001050981 0 0.26429849586623999 0.19346700179430079 0 0.29336099386129338 0.15892013001050981 0 0.31255190597181792 0.19850845631528771 0 0.33084213324567391 0.16272720141332131 0 0.29336099386129338 0.15892013001050981 0 0.26429849586623999 0.19346700179430079 0 0.31255190597181792 0.19850845631528771 0 0.32215584939770009 0.1218492143506909 0 0.27474541102162192 0.11822029332053539 0 0.29336099386129338 0.15892013001050981 0 0.224700362040408 0.22206622194729711 0 0.28040350263641872 0.23054717217092141 0 0.25195515620380449 0.25883339815888678 0 0.224700362040408 0.22206622194729711 0 0.28040350263641872 0.23054717217092141 0 0.26429849586623999 0.19346700179430079 0 0.28040350263641872 0.23054717217092141 0 0.26429849586623999 0.19346700179430079 0 0.31255190597181792 0.19850845631528771 0 0.28040350263641872 0.23054717217092141 0 0.33758650185219202 0.23837101504325639 0 0.29132859388405002 0.27203693976649962 0 0.28040350263641872 0.23054717217092141 0 0.33758650185219202 0.23837101504325639 0 0.31255190597181792 0.19850845631528771 0 0.33758650185219202 0.23837101504325639 0 0.31255190597181792 0.19850845631528771 0 0.3572130504031617 0.1874703368446563 0 0.33758650185219202 0.23837101504325639 0 0.3572130504031617 0.1874703368446563 0 0.38831533174504851 0.2189834941785925 0 0.33758650185219202 0.23837101504325639 0 0.38831533174504851 0.2189834941785925 0 0.3786248352540974 0.27082301512024259 0 0.32215584939770009 0.1218492143506909 0 0.29336099386129338 0.15892013001050981 0 0.33084213324567391 0.16272720141332131 0 0.32215584939770009 0.1218492143506909 0 0.33084213324567391 0.16272720141332131 0 0.36246644853392812 0.1399454205365751 0 0.31255190597181792 0.19850845631528771 0 0.33084213324567391 0.16272720141332131 0 0.3572130504031617 0.1874703368446563 0 0.3572130504031617 0.1874703368446563 0 0.36246644853392812 0.1399454205365751 0 0.39801143831225599 0.16651381068160659 0 0.33084213324567391 0.16272720141332131 0 0.3572130504031617 0.1874703368446563 0 0.36246644853392812 0.1399454205365751 0 0.36246644853392812 0.1399454205365751 0 0.39801143831225599 0.16651381068160659 0 0.39823268594401579 0.1116623613130045 0 0.39801143831225599 0.16651381068160659 0 0.42905200079338551 0.19982395548231649 0 0.44288491854585582 0.14116182884956319 0 0.39801143831225599 0.16651381068160659 0 0.44288491854585582 0.14116182884956319 0 0.39823268594401579 0.1116623613130045 0 0.38831533174504851 0.2189834941785925 0 0.42377727103934271 0.25099357235810238 0 0.3786248352540974 0.27082301512024259 0 0.3572130504031617 0.1874703368446563 0 0.39801143831225599 0.16651381068160659 0 0.38831533174504851 0.2189834941785925 0 0.39801143831225599 0.16651381068160659 0 0.38831533174504851 0.2189834941785925 0 0.42905200079338551 0.19982395548231649 0 0.38831533174504851 0.2189834941785925 0 0.42905200079338551 0.19982395548231649 0 0.42377727103934271 0.25099357235810238 0 0.42905200079338551 0.19982395548231649 0 0.46429753744194407 0.22870891180733599 0 0.42377727103934271 0.25099357235810238 0 0.42905200079338551 0.19982395548231649 0 0.46429753744194407 0.22870891180733599 0 0.47357141910802508 0.1873585799078378 0 0.47357141910802508 0.1873585799078378 0 0.51729576145820033 0.1683240575987815 0 0.50760557329222289 0.20700468884612061 0 0.46429753744194407 0.22870891180733599 0 0.47357141910802508 0.1873585799078378 0 0.50760557329222289 0.20700468884612061 0 0.46429753744194407 0.22870891180733599 0 0.49695729691142171 0.25014895411178018 0 0.50760557329222289 0.20700468884612061 0 0.44288491854585582 0.14116182884956319 0 0.47357141910802508 0.1873585799078378 0 0.48466639505193998 0.1421439844745814 0 0.42905200079338551 0.19982395548231649 0 0.44288491854585582 0.14116182884956319 0 0.47357141910802508 0.1873585799078378 0 0.47357141910802508 0.1873585799078378 0 0.48466639505193998 0.1421439844745814 0 0.51729576145820033 0.1683240575987815 0 0.44288491854585582 0.14116182884956319 0 0.48466639505193998 0.1421439844745814 0 0.47881186583059909 0.093591717165689425 0 0.48466639505193998 0.1421439844745814 0 0.47881186583059909 0.093591717165689425 0 0.51076801031701946 0.1202837388510348 0 0.44288491854585582 0.14116182884956319 0 0.47881186583059909 0.093591717165689425 0 0.43698630808430822 0.080423614171545449 0 0.47881186583059909 0.093591717165689425 0 0.47040171442036788 0.044141676406503738 0 0.43698630808430822 0.080423614171545449 0 0.47881186583059909 0.093591717165689425 0 0.47040171442036788 0.044141676406503738 0 0.52375890611712683 0.059318771819432882 0 0.47040171442036788 0.044141676406503738 0 0.49999999999869432 0 0 0.52375890611712683 0.059318771819432882 0 0.47040171442036788 0.044141676406503738 0 0.49999999999869432 0 0 0.44999999999882923 0 0 0.47040171442036788 0.044141676406503738 0 0.44999999999882923 0 0 0.4320097814748517 0.037406712692169303 0 0.47040171442036788 0.044141676406503738 0 0.4320097814748517 0.037406712692169303 0 0.43698630808430822 0.080423614171545449 0 0.4320097814748517 0.037406712692169303 0 0.3999999999989749 0 0 0.39591832466117061 0.056982757562006353 0 0.4320097814748517 0.037406712692169303 0 0.39591832466117061 0.056982757562006353 0 0.43698630808430822 0.080423614171545449 0 0.44999999999882923 0 0 0.4320097814748517 0.037406712692169303 0 0.3999999999989749 0 0 0.3615861437013822 0.03582617922508851 0 0.3999999999989749 0 0 0.39591832466117061 0.056982757562006353 0 0.35312867752657662 0.084946736076730367 0 0.39591832466117061 0.056982757562006353 0 0.39823268594401579 0.1116623613130045 0 0.44288491854585582 0.14116182884956319 0 0.39823268594401579 0.1116623613130045 0 0.43698630808430822 0.080423614171545449 0 0.39591832466117061 0.056982757562006353 0 0.39823268594401579 0.1116623613130045 0 0.43698630808430822 0.080423614171545449 0 0.42161023666869668 0.39493916313643851 0 0.38707855792647411 0.42299362914874578 0 0.43249999999999988 0.43937499999999979 0 0.42161023666869668 0.39493916313643851 0 0.38083244760691543 0.38531983672244652 0 0.38707855792647411 0.42299362914874578 0 0.42161023666869668 0.39493916313643851 0 0.38083244760691543 0.38531983672244652 0 0.40076539126862748 0.34589349467022118 0 0.38707855792647411 0.42299362914874578 0 0.3908716102680424 0.47010282357248828 0 0.43249999999999988 0.43937499999999979 0 0.3908716102680424 0.47010282357248828 0 0.43507373378304309 0.49699695397193322 0 0.38244435121258652 0.51653317813019495 0 0.3908716102680424 0.47010282357248828 0 0.43507373378304309 0.49699695397193322 0 0.43249999999999988 0.43937499999999979 0 0.43507373378304309 0.49699695397193322 0 0.43249999999999988 0.43937499999999979 0 0.46111841286828259 0.46690301029591341 0 0.43249999999999988 0.43937499999999979 0 0.46111841286828259 0.46690301029591341 0 0.48858720058566618 0.43964267759203868 0 0.43507373378304309 0.49699695397193322 0 0.46111841286828259 0.46690301029591341 0 0.49102375406324739 0.49123754822244059 0 0.46111841286828259 0.46690301029591341 0 0.49102375406324739 0.49123754822244059 0 0.48858720058566618 0.43964267759203868 0 0.48858720058566618 0.43964267759203868 0 0.46655310992796922 0.39650496622958609 0 0.52289427570932567 0.3932284363388488 0 0.43249999999999988 0.43937499999999979 0 0.48858720058566618 0.43964267759203868 0 0.46655310992796922 0.39650496622958609 0 0.42161023666869668 0.39493916313643851 0 0.43249999999999988 0.43937499999999979 0 0.46655310992796922 0.39650496622958609 0 0.42161023666869668 0.39493916313643851 0 0.46655310992796922 0.39650496622958609 0 0.4409427642593301 0.35743108089689513 0 0.46655310992796922 0.39650496622958609 0 0.49077833859261139 0.35229981449445641 0 0.52289427570932567 0.3932284363388488 0 0.49077833859261139 0.35229981449445641 0 0.46226845272279993 0.31901800744800313 0 0.5 0.29999999999999999 0 0.49077833859261139 0.35229981449445641 0 0.46226845272279993 0.31901800744800313 0 0.4409427642593301 0.35743108089689513 0 0.46226845272279993 0.31901800744800313 0 0.4409427642593301 0.35743108089689513 0 0.41914690343363781 0.30688979866601612 0 0.46655310992796922 0.39650496622958609 0 0.49077833859261139 0.35229981449445641 0 0.4409427642593301 0.35743108089689513 0 0.49695729691142171 0.25014895411178018 0 0.4604742573284204 0.27846934318264788 0 0.5 0.29999999999999999 0 0.46429753744194407 0.22870891180733599 0 0.49695729691142171 0.25014895411178018 0 0.4604742573284204 0.27846934318264788 0 0.46226845272279993 0.31901800744800313 0 0.4604742573284204 0.27846934318264788 0 0.5 0.29999999999999999 0 0.46226845272279993 0.31901800744800313 0 0.4604742573284204 0.27846934318264788 0 0.41914690343363781 0.30688979866601612 0 0.46429753744194407 0.22870891180733599 0 0.4604742573284204 0.27846934318264788 0 0.42377727103934271 0.25099357235810238 0 0.4604742573284204 0.27846934318264788 0 0.42377727103934271 0.25099357235810238 0 0.41914690343363781 0.30688979866601612 0 0.42377727103934271 0.25099357235810238 0 0.41914690343363781 0.30688979866601612 0 0.3786248352540974 0.27082301512024259 0 0.41914690343363781 0.30688979866601612 0 0.3786248352540974 0.27082301512024259 0 0.36575549820117997 0.31677992835137742 0 0.42161023666869668 0.39493916313643851 0 0.4409427642593301 0.35743108089689513 0 0.40076539126862748 0.34589349467022118 0 0.4409427642593301 0.35743108089689513 0 0.41914690343363781 0.30688979866601612 0 0.40076539126862748 0.34589349467022118 0 0.41914690343363781 0.30688979866601612 0 0.40076539126862748 0.34589349467022118 0 0.36575549820117997 0.31677992835137742 0 0.40076539126862748 0.34589349467022118 0 0.36575549820117997 0.31677992835137742 0 0.33277555741076909 0.36432196682010132 0 0.38083244760691543 0.38531983672244652 0 0.40076539126862748 0.34589349467022118 0 0.33277555741076909 0.36432196682010132 0 0.36575549820117997 0.31677992835137742 0 0.32752639306529541 0.32610012995269699 0 0.33277555741076909 0.36432196682010132 0 0.32752639306529541 0.32610012995269699 0 0.33277555741076909 0.36432196682010132 0 0.29644548887253103 0.34914008784168082 0 0.33758650185219202 0.23837101504325639 0 0.3786248352540974 0.27082301512024259 0 0.33402499257867951 0.28911035184473982 0 0.3786248352540974 0.27082301512024259 0 0.36575549820117997 0.31677992835137742 0 0.33402499257867951 0.28911035184473982 0 0.36575549820117997 0.31677992835137742 0 0.32752639306529541 0.32610012995269699 0 0.33402499257867951 0.28911035184473982 0 0.32752639306529541 0.32610012995269699 0 0.33402499257867951 0.28911035184473982 0 0.29348325746214782 0.31350119524708198 0 0.33758650185219202 0.23837101504325639 0 0.33402499257867951 0.28911035184473982 0 0.29132859388405002 0.27203693976649962 0 0.33402499257867951 0.28911035184473982 0 0.29132859388405002 0.27203693976649962 0 0.29348325746214782 0.31350119524708198 0 0.29132859388405002 0.27203693976649962 0 0.29348325746214782 0.31350119524708198 0 0.24432083401701241 0.3006253385567515 0 0.29132859388405002 0.27203693976649962 0 0.25195515620380449 0.25883339815888678 0 0.24432083401701241 0.3006253385567515 0 0.28040350263641872 0.23054717217092141 0 0.29132859388405002 0.27203693976649962 0 0.25195515620380449 0.25883339815888678 0 0.33277555741076909 0.36432196682010132 0 0.29644548887253103 0.34914008784168082 0 0.27866744612395528 0.38416094670951489 0 0.32752639306529541 0.32610012995269699 0 0.29644548887253103 0.34914008784168082 0 0.29348325746214782 0.31350119524708198 0 0.29644548887253103 0.34914008784168082 0 0.29348325746214782 0.31350119524708198 0 0.25966125648670141 0.34351016742083729 0 0.29348325746214782 0.31350119524708198 0 0.25966125648670141 0.34351016742083729 0 0.24432083401701241 0.3006253385567515 0 0.29644548887253103 0.34914008784168082 0 0.25966125648670141 0.34351016742083729 0 0.27866744612395528 0.38416094670951489 0 0.25966125648670141 0.34351016742083729 0 0.27866744612395528 0.38416094670951489 0 0.22033343844674469 0.36963382230740238 0 0.27866744612395528 0.38416094670951489 0 0.29124338931648802 0.43334555462578611 0 0.24049127783545701 0.41270748208749802 0 0.29124338931648802 0.43334555462578611 0 0.25982634974572738 0.46097799597715272 0 0.24049127783545701 0.41270748208749802 0 0.27866744612395528 0.38416094670951489 0 0.29124338931648802 0.43334555462578611 0 0.31778888742534622 0.40581751814196781 0 0.33277555741076909 0.36432196682010132 0 0.27866744612395528 0.38416094670951489 0 0.31778888742534622 0.40581751814196781 0 0.33277555741076909 0.36432196682010132 0 0.31778888742534622 0.40581751814196781 0 0.35221190152536241 0.40457127605439203 0 0.31778888742534622 0.40581751814196781 0 0.35221190152536241 0.40457127605439203 0 0.34258405725730701 0.4444034294386992 0 0.29124338931648802 0.43334555462578611 0 0.31778888742534622 0.40581751814196781 0 0.34258405725730701 0.4444034294386992 0 0.38707855792647411 0.42299362914874578 0 0.35221190152536241 0.40457127605439203 0 0.34258405725730701 0.4444034294386992 0 0.38083244760691543 0.38531983672244652 0 0.38707855792647411 0.42299362914874578 0 0.35221190152536241 0.40457127605439203 0 0.38083244760691543 0.38531983672244652 0 0.33277555741076909 0.36432196682010132 0 0.35221190152536241 0.40457127605439203 0 0.3908716102680424 0.47010282357248828 0 0.35024835142131061 0.48654922671676981 0 0.38244435121258652 0.51653317813019495 0 0.3908716102680424 0.47010282357248828 0 0.35024835142131061 0.48654922671676981 0 0.34258405725730701 0.4444034294386992 0 0.38707855792647411 0.42299362914874578 0 0.3908716102680424 0.47010282357248828 0 0.34258405725730701 0.4444034294386992 0 0.29124338931648802 0.43334555462578611 0 0.34258405725730701 0.4444034294386992 0 0.31068898841644388 0.47541502461811092 0 0.35024835142131061 0.48654922671676981 0 0.31068898841644388 0.47541502461811092 0 0.33190227185843768 0.52715113583864037 0 0.35024835142131061 0.48654922671676981 0 0.34258405725730701 0.4444034294386992 0 0.31068898841644388 0.47541502461811092 0 0.31068898841644388 0.47541502461811092 0 0.25982634974572738 0.46097799597715272 0 0.28307294598219601 0.50789252727458634 0 0.29124338931648802 0.43334555462578611 0 0.31068898841644388 0.47541502461811092 0 0.25982634974572738 0.46097799597715272 0 0.25982634974572738 0.46097799597715272 0 0.23975172658309729 0.49475499200540818 0 0.28307294598219601 0.50789252727458634 0 0.23975172658309729 0.49475499200540818 0 0.19604738184454831 0.47787523520405789 0 0.22278230690790279 0.44824268025881547 0 0.19604738184454831 0.47787523520405789 0 0.22278230690790279 0.44824268025881547 0 0.191953871957803 0.42546416763755879 0 0.25982634974572738 0.46097799597715272 0 0.22278230690790279 0.44824268025881547 0 0.24049127783545701 0.41270748208749802 0 0.25982634974572738 0.46097799597715272 0 0.23975172658309729 0.49475499200540818 0 0.22278230690790279 0.44824268025881547 0 0.27866744612395528 0.38416094670951489 0 0.24049127783545701 0.41270748208749802 0 0.22033343844674469 0.36963382230740238 0 0.191953871957803 0.42546416763755879 0 0.1650278706801647 0.38791388161335733 0 0.22033343844674469 0.36963382230740238 0 0.24049127783545701 0.41270748208749802 0 0.191953871957803 0.42546416763755879 0 0.22033343844674469 0.36963382230740238 0 0.22278230690790279 0.44824268025881547 0 0.24049127783545701 0.41270748208749802 0 0.191953871957803 0.42546416763755879 0 0.191953871957803 0.42546416763755879 0 0.13773355295499351 0.42497777642586831 0 0.15801167086041079 0.46008690540259539 0 0.191953871957803 0.42546416763755879 0 0.1650278706801647 0.38791388161335733 0 0.13773355295499351 0.42497777642586831 0 0.1650278706801647 0.38791388161335733 0 0.13773355295499351 0.42497777642586831 0 0.1117088112799664 0.38831403004970022 0 0.13773355295499351 0.42497777642586831 0 0.15801167086041079 0.46008690540259539 0 0.113541300460994 0.46208784312094731 0 0.15801167086041079 0.46008690540259539 0 0.113541300460994 0.46208784312094731 0 0.1216098864341134 0.50637075089503902 0 0.15801167086041079 0.46008690540259539 0 0.1216098864341134 0.50637075089503902 0 0.16618607197337229 0.50652878253548905 0 0.19604738184454831 0.47787523520405789 0 0.15801167086041079 0.46008690540259539 0 0.16618607197337229 0.50652878253548905 0 0.19604738184454831 0.47787523520405789 0 0.191953871957803 0.42546416763755879 0 0.15801167086041079 0.46008690540259539 0 0.25195515620380449 0.25883339815888678 0 0.21049769590865089 0.26857363548218488 0 0.24432083401701241 0.3006253385567515 0 0.21049769590865089 0.26857363548218488 0 0.24432083401701241 0.3006253385567515 0 0.19670163708476801 0.31472518408333222 0 0.21049769590865089 0.26857363548218488 0 0.19670163708476801 0.31472518408333222 0 0.168349569971391 0.28054490850913671 0 0.19670163708476801 0.31472518408333222 0 0.22615676742807109 0.33458786033114157 0 0.18434624290945251 0.35208838264196463 0 0.24432083401701241 0.3006253385567515 0 0.19670163708476801 0.31472518408333222 0 0.22615676742807109 0.33458786033114157 0 0.25966125648670141 0.34351016742083729 0 0.24432083401701241 0.3006253385567515 0 0.22615676742807109 0.33458786033114157 0 0.25966125648670141 0.34351016742083729 0 0.22615676742807109 0.33458786033114157 0 0.22033343844674469 0.36963382230740238 0 0.22615676742807109 0.33458786033114157 0 0.22033343844674469 0.36963382230740238 0 0.18434624290945251 0.35208838264196463 0 0.1650278706801647 0.38791388161335733 0 0.22033343844674469 0.36963382230740238 0 0.18434624290945251 0.35208838264196463 0 0.1650278706801647 0.38791388161335733 0 0.18434624290945251 0.35208838264196463 0 0.14223753364722069 0.3341983344262433 0 0.1650278706801647 0.38791388161335733 0 0.14223753364722069 0.3341983344262433 0 0.1117088112799664 0.38831403004970022 0 0.19670163708476801 0.31472518408333222 0 0.18434624290945251 0.35208838264196463 0 0.14223753364722069 0.3341983344262433 0 0.19670163708476801 0.31472518408333222 0 0.14223753364722069 0.3341983344262433 0 0.168349569971391 0.28054490850913671 0 0.14223753364722069 0.3341983344262433 0 0.168349569971391 0.28054490850913671 0 0.1247745017231483 0.27198077544791172 0 0.14377654328998779 0.2442024734791064 0 0.168349569971391 0.28054490850913671 0 0.1247745017231483 0.27198077544791172 0 0.17933913398461551 0.2350063570234002 0 0.21049769590865089 0.26857363548218488 0 0.168349569971391 0.28054490850913671 0 0.17933913398461551 0.2350063570234002 0 0.14377654328998779 0.2442024734791064 0 0.168349569971391 0.28054490850913671 0 0.095326043202144745 0.24554465089224409 0 0.093851963071650835 0.30582068233324772 0 0.049706944316556423 0.27522722923869108 0 0.095326043202144745 0.24554465089224409 0 0.14377654328998779 0.2442024734791064 0 0.1247745017231483 0.27198077544791172 0 0.095326043202144745 0.24554465089224409 0 0.1247745017231483 0.27198077544791172 0 0.093851963071650835 0.30582068233324772 0 0.14223753364722069 0.3341983344262433 0 0.1247745017231483 0.27198077544791172 0 0.093851963071650835 0.30582068233324772 0 0.093851963071650835 0.30582068233324772 0 0.046389130980076937 0.32668781832131749 0 0.049706944316556423 0.27522722923869108 0 0.093851963071650835 0.30582068233324772 0 0.087545339447545459 0.35122518864182262 0 0.046389130980076937 0.32668781832131749 0 0.14223753364722069 0.3341983344262433 0 0.093851963071650835 0.30582068233324772 0 0.087545339447545459 0.35122518864182262 0 0.14223753364722069 0.3341983344262433 0 0.087545339447545459 0.35122518864182262 0 0.1117088112799664 0.38831403004970022 0 0.087545339447545459 0.35122518864182262 0 0.1117088112799664 0.38831403004970022 0 0.050583896093752537 0.38543522283434112 0 0.087545339447545459 0.35122518864182262 0 0.046389130980076937 0.32668781832131749 0 0.050583896093752537 0.38543522283434112 0 0 0.35000000000145642 0 0.046389130980076937 0.32668781832131749 0 0.050583896093752537 0.38543522283434112 0 0 0.35000000000145642 0 0.046389130980076937 0.32668781832131749 0 0 0.30000000000124832 0 0.046389130980076937 0.32668781832131749 0 0 0.30000000000124832 0 0.049706944316556423 0.27522722923869108 0 0 0.30000000000124832 0 0 0.25000000000104028 0 0.049706944316556423 0.27522722923869108 0 0.044081577119474857 0.2271058242433576 0 0 0.25000000000104028 0 0.049706944316556423 0.27522722923869108 0 0.068743045408989428 0.48853989837882689 0 0.113541300460994 0.46208784312094731 0 0.078358742472063481 0.43365249433908948 0 0.068743045408989428 0.48853989837882689 0 0.113541300460994 0.46208784312094731 0 0.1216098864341134 0.50637075089503902 0 0.13773355295499351 0.42497777642586831 0 0.113541300460994 0.46208784312094731 0 0.078358742472063481 0.43365249433908948 0 0.13773355295499351 0.42497777642586831 0 0.1117088112799664 0.38831403004970022 0 0.078358742472063481 0.43365249433908948 0 0.1117088112799664 0.38831403004970022 0 0.078358742472063481 0.43365249433908948 0 0.050583896093752537 0.38543522283434112 0 0.078358742472063481 0.43365249433908948 0 0.035463093262830522 0.42673416072819947 0 0.050583896093752537 0.38543522283434112 0 0 0.35000000000145642 0 0.050583896093752537 0.38543522283434112 0 0 0.40000000000166441 0 0.035463093262830522 0.42673416072819947 0 0.050583896093752537 0.38543522283434112 0 0 0.40000000000166441 0 0.035463093262830522 0.42673416072819947 0 0 0.40000000000166441 0 0 0.45000000000187229 0 0.035463093262830522 0.42673416072819947 0 0 0.45000000000187229 0 0.033550201249889847 0.46247875832467239 0 0.068743045408989428 0.48853989837882689 0 0.033550201249889847 0.46247875832467239 0 0 0.50000000000205869 0 0.068743045408989428 0.48853989837882689 0 0.078358742472063481 0.43365249433908948 0 0.033550201249889847 0.46247875832467239 0 0.078358742472063481 0.43365249433908948 0 0.035463093262830522 0.42673416072819947 0 0.033550201249889847 0.46247875832467239 0 0 0.45000000000187229 0 0.033550201249889847 0.46247875832467239 0 0 0.50000000000205869 0 0.068743045408989428 0.48853989837882689 0 0 0.50000000000205869 0 0.044576108720083309 0.53509043209532614 0 0 0.50000000000205869 0 0 0.55000000000173355 0 0.044576108720083309 0.53509043209532614 0 0 0.55000000000173355 0 0.044576108720083309 0.53509043209532614 0 0.034381862692950467 0.57372682250960894 0 0.044576108720083309 0.53509043209532614 0 0.077693244765132896 0.56932317963405099 0 0.034381862692950467 0.57372682250960894 0 0.068743045408989428 0.48853989837882689 0 0.044576108720083309 0.53509043209532614 0 0.085622222639554768 0.53333248912060549 0 0.068743045408989428 0.48853989837882689 0 0.085622222639554768 0.53333248912060549 0 0.1216098864341134 0.50637075089503902 0 0.044576108720083309 0.53509043209532614 0 0.085622222639554768 0.53333248912060549 0 0.077693244765132896 0.56932317963405099 0 0.085622222639554768 0.53333248912060549 0 0.1154888278694548 0.56733818459978413 0 0.077693244765132896 0.56932317963405099 0 0.085622222639554768 0.53333248912060549 0 0.1216098864341134 0.50637075089503902 0 0.1154888278694548 0.56733818459978413 0 0.1024350934457823 0.60772393977513839 0 0.1154888278694548 0.56733818459978413 0 0.077693244765132896 0.56932317963405099 0 0.1024350934457823 0.60772393977513839 0 0.050069554451969707 0.61308520079857043 0 0.086179601630648681 0.64647209519980475 0 0.1024350934457823 0.60772393977513839 0 0.077693244765132896 0.56932317963405099 0 0.050069554451969707 0.61308520079857043 0 0.077693244765132896 0.56932317963405099 0 0.050069554451969707 0.61308520079857043 0 0.034381862692950467 0.57372682250960894 0 0 0.55000000000173355 0 0.034381862692950467 0.57372682250960894 0 0 0.60000000000138687 0 0.050069554451969707 0.61308520079857043 0 0 0.60000000000138687 0 0 0.65000000000104008 0 0.050069554451969707 0.61308520079857043 0 0.034381862692950467 0.57372682250960894 0 0 0.60000000000138687 0 0 0.65000000000104008 0 0.046634677244967337 0.671418230738282 0 0 0.7000000000006934 0 0.050069554451969707 0.61308520079857043 0 0.046634677244967337 0.671418230738282 0 0.086179601630648681 0.64647209519980475 0 0.050069554451969707 0.61308520079857043 0 0 0.65000000000104008 0 0.046634677244967337 0.671418230738282 0 0 0.7000000000006934 0 0.049706944316475897 0.72477277076253799 0 0 0.75000000000034661 0 0.046634677244967337 0.671418230738282 0 0 0.7000000000006934 0 0.049706944316475897 0.72477277076253799 0 0.049706944316475897 0.72477277076253799 0 0 0.75000000000034661 0 0.04408157711937423 0.7728941757575627 0 0.049706944316475897 0.72477277076253799 0 0.1020579365089687 0.69352219419301997 0 0.090953281884486245 0.7564451946902494 0 0.1020579365089687 0.69352219419301997 0 0.1215415378367805 0.72939333680004137 0 0.090953281884486245 0.7564451946902494 0 0.046634677244967337 0.671418230738282 0 0.049706944316475897 0.72477277076253799 0 0.1020579365089687 0.69352219419301997 0 0.1215415378367805 0.72939333680004137 0 0.090953281884486245 0.7564451946902494 0 0.14335651144331049 0.75565258250209677 0 0.046634677244967337 0.671418230738282 0 0.1020579365089687 0.69352219419301997 0 0.086179601630648681 0.64647209519980475 0 0.1020579365089687 0.69352219419301997 0 0.086179601630648681 0.64647209519980475 0 0.1241190223511371 0.64391885572885044 0 0.1024350934457823 0.60772393977513839 0 0.086179601630648681 0.64647209519980475 0 0.1241190223511371 0.64391885572885044 0 0.1020579365089687 0.69352219419301997 0 0.1241190223511371 0.64391885572885044 0 0.16500388252850301 0.66612077714085194 0 0.1241190223511371 0.64391885572885044 0 0.16500388252850301 0.66612077714085194 0 0.15720202157091859 0.60665697304410315 0 0.16500388252850301 0.66612077714085194 0 0.19914261668318661 0.62286739485272158 0 0.15720202157091859 0.60665697304410315 0 0.1020579365089687 0.69352219419301997 0 0.16500388252850301 0.66612077714085194 0 0.15332765547575641 0.71200081858233666 0 0.1215415378367805 0.72939333680004137 0 0.15332765547575641 0.71200081858233666 0 0.14335651144331049 0.75565258250209677 0 0.1020579365089687 0.69352219419301997 0 0.1215415378367805 0.72939333680004137 0 0.15332765547575641 0.71200081858233666 0 0.16500388252850301 0.66612077714085194 0 0.15332765547575641 0.71200081858233666 0 0.19068556247388771 0.71028988922845504 0 0.15332765547575641 0.71200081858233666 0 0.14335651144331049 0.75565258250209677 0 0.18269480424590959 0.75905448272264375 0 0.15332765547575641 0.71200081858233666 0 0.19068556247388771 0.71028988922845504 0 0.18269480424590959 0.75905448272264375 0 0.19068556247388771 0.71028988922845504 0 0.2248999640082178 0.72584299459689172 0 0.18269480424590959 0.75905448272264375 0 0.19068556247388771 0.71028988922845504 0 0.2248999640082178 0.72584299459689172 0 0.2236846579037573 0.67380363126050236 0 0.2248999640082178 0.72584299459689172 0 0.2236846579037573 0.67380363126050236 0 0.26439878998046262 0.7048065392091396 0 0.2248999640082178 0.72584299459689172 0 0.22556077506376701 0.77837424984191617 0 0.25676291524611189 0.7436741304886243 0 0.2248999640082178 0.72584299459689172 0 0.25676291524611189 0.7436741304886243 0 0.26439878998046262 0.7048065392091396 0 0.16500388252850301 0.66612077714085194 0 0.2236846579037573 0.67380363126050236 0 0.19914261668318661 0.62286739485272158 0 0.16500388252850301 0.66612077714085194 0 0.19068556247388771 0.71028988922845504 0 0.2236846579037573 0.67380363126050236 0 0.2236846579037573 0.67380363126050236 0 0.2459498854893499 0.63248470766216769 0 0.19914261668318661 0.62286739485272158 0 0.2236846579037573 0.67380363126050236 0 0.2459498854893499 0.63248470766216769 0 0.27820712747429932 0.65530134213254643 0 0.2459498854893499 0.63248470766216769 0 0.19914261668318661 0.62286739485272158 0 0.22549374774072969 0.58452645269293457 0 0.2459498854893499 0.63248470766216769 0 0.22549374774072969 0.58452645269293457 0 0.26573297623774761 0.59828298563722948 0 0.19914261668318661 0.62286739485272158 0 0.22549374774072969 0.58452645269293457 0 0.18381867841758909 0.57774125163628387 0 0.22549374774072969 0.58452645269293457 0 0.20050006573841939 0.53248514016039872 0 0.18381867841758909 0.57774125163628387 0 0.22549374774072969 0.58452645269293457 0 0.25115337790845271 0.54719303014923271 0 0.26573297623774761 0.59828298563722948 0 0.22549374774072969 0.58452645269293457 0 0.20050006573841939 0.53248514016039872 0 0.25115337790845271 0.54719303014923271 0 0.23975172658309729 0.49475499200540818 0 0.20050006573841939 0.53248514016039872 0 0.25115337790845271 0.54719303014923271 0 0.19604738184454831 0.47787523520405789 0 0.20050006573841939 0.53248514016039872 0 0.16618607197337229 0.50652878253548905 0 0.23975172658309729 0.49475499200540818 0 0.19604738184454831 0.47787523520405789 0 0.20050006573841939 0.53248514016039872 0 0.20050006573841939 0.53248514016039872 0 0.14934928745814749 0.55042914607228977 0 0.18381867841758909 0.57774125163628387 0 0.20050006573841939 0.53248514016039872 0 0.16618607197337229 0.50652878253548905 0 0.14934928745814749 0.55042914607228977 0 0.1216098864341134 0.50637075089503902 0 0.16618607197337229 0.50652878253548905 0 0.14934928745814749 0.55042914607228977 0 0.1216098864341134 0.50637075089503902 0 0.1154888278694548 0.56733818459978413 0 0.14934928745814749 0.55042914607228977 0 0.1154888278694548 0.56733818459978413 0 0.14934928745814749 0.55042914607228977 0 0.15720202157091859 0.60665697304410315 0 0.1024350934457823 0.60772393977513839 0 0.1154888278694548 0.56733818459978413 0 0.15720202157091859 0.60665697304410315 0 0.1024350934457823 0.60772393977513839 0 0.1241190223511371 0.64391885572885044 0 0.15720202157091859 0.60665697304410315 0 0.19914261668318661 0.62286739485272158 0 0.15720202157091859 0.60665697304410315 0 0.18381867841758909 0.57774125163628387 0 0.14934928745814749 0.55042914607228977 0 0.15720202157091859 0.60665697304410315 0 0.18381867841758909 0.57774125163628387 0 0.10000000000041601 1 0 0.10266856499240549 0.95548163909968886 0 0.15000000000062411 1 0 0.10266856499240549 0.95548163909968886 0 0.053064897599294662 0.95186845269532028 0 0.083411279318375747 0.91030024466934134 0 0.10000000000041601 1 0 0.050000000000207989 1 0 0.053064897599294662 0.95186845269532028 0 0.10000000000041601 1 0 0.10266856499240549 0.95548163909968886 0 0.053064897599294662 0.95186845269532028 0 0.050000000000207989 1 0 0.025766224399875661 0.97546711317377799 0 0.053064897599294662 0.95186845269532028 0 0.050000000000207989 1 0 0 1 0 0.025766224399875661 0.97546711317377799 0 0 1 0 0.025766224399875661 0.97546711317377799 0 0 0.94999999999979179 0 0.025766224399875661 0.97546711317377799 0 0 0.94999999999979179 0 0.053064897599294662 0.95186845269532028 0 0 0.94999999999979179 0 0.053064897599294662 0.95186845269532028 0 0.0443105827531413 0.89858748162559932 0 0.053064897599294662 0.95186845269532028 0 0.0443105827531413 0.89858748162559932 0 0.083411279318375747 0.91030024466934134 0 0 0.94999999999979179 0 0 0.89999999999958358 0 0.0443105827531413 0.89858748162559932 0 0 0.89999999999958358 0 0.0443105827531413 0.89858748162559932 0 0 0.84999999999965292 0 0.0443105827531413 0.89858748162559932 0 0.083411279318375747 0.91030024466934134 0 0.065374659239661639 0.8551091961254178 0 0.083411279318375747 0.91030024466934134 0 0.10562472963403439 0.87143394428979881 0 0.065374659239661639 0.8551091961254178 0 0.10266856499240549 0.95548163909968886 0 0.083411279318375747 0.91030024466934134 0 0.1241151115713819 0.9045666525468371 0 0.10266856499240549 0.95548163909968886 0 0.1241151115713819 0.9045666525468371 0 0.14617343800780541 0.93808063414349496 0 0.1241151115713819 0.9045666525468371 0 0.10562472963403439 0.87143394428979881 0 0.14474682429600511 0.85524784522713515 0 0.083411279318375747 0.91030024466934134 0 0.1241151115713819 0.9045666525468371 0 0.10562472963403439 0.87143394428979881 0 0.10562472963403439 0.87143394428979881 0 0.1074251789111534 0.83564394292147814 0 0.14474682429600511 0.85524784522713515 0 0.1074251789111534 0.83564394292147814 0 0.065374659239661639 0.8551091961254178 0 0.083105206071452636 0.79992298667296435 0 0.10562472963403439 0.87143394428979881 0 0.1074251789111534 0.83564394292147814 0 0.065374659239661639 0.8551091961254178 0 0.065374659239661639 0.8551091961254178 0 0 0.84999999999965292 0 0.038512288486097702 0.8155852717111195 0 0.0443105827531413 0.89858748162559932 0 0.065374659239661639 0.8551091961254178 0 0 0.84999999999965292 0 0 0.84999999999965292 0 0.038512288486097702 0.8155852717111195 0 0 0.79999999999999982 0 0.065374659239661639 0.8551091961254178 0 0.038512288486097702 0.8155852717111195 0 0.083105206071452636 0.79992298667296435 0 0.038512288486097702 0.8155852717111195 0 0.04408157711937423 0.7728941757575627 0 0.083105206071452636 0.79992298667296435 0 0.038512288486097702 0.8155852717111195 0 0 0.79999999999999982 0 0.04408157711937423 0.7728941757575627 0 0 0.79999999999999982 0 0 0.75000000000034661 0 0.04408157711937423 0.7728941757575627 0 0.049706944316475897 0.72477277076253799 0 0.04408157711937423 0.7728941757575627 0 0.090953281884486245 0.7564451946902494 0 0.04408157711937423 0.7728941757575627 0 0.090953281884486245 0.7564451946902494 0 0.083105206071452636 0.79992298667296435 0 0.1074251789111534 0.83564394292147814 0 0.083105206071452636 0.79992298667296435 0 0.1382744753146134 0.79650574229207483 0 0.090953281884486245 0.7564451946902494 0 0.083105206071452636 0.79992298667296435 0 0.1382744753146134 0.79650574229207483 0 0.090953281884486245 0.7564451946902494 0 0.14335651144331049 0.75565258250209677 0 0.1382744753146134 0.79650574229207483 0 0.14335651144331049 0.75565258250209677 0 0.1382744753146134 0.79650574229207483 0 0.18269480424590959 0.75905448272264375 0 0.1382744753146134 0.79650574229207483 0 0.18269480424590959 0.75905448272264375 0 0.17777405986036951 0.81832336108265358 0 0.2248999640082178 0.72584299459689172 0 0.18269480424590959 0.75905448272264375 0 0.22556077506376701 0.77837424984191617 0 0.22556077506376701 0.77837424984191617 0 0.21858834311891909 0.81980263716112767 0 0.26104540868854792 0.81401944968719064 0 0.22556077506376701 0.77837424984191617 0 0.21858834311891909 0.81980263716112767 0 0.17777405986036951 0.81832336108265358 0 0.18269480424590959 0.75905448272264375 0 0.22556077506376701 0.77837424984191617 0 0.17777405986036951 0.81832336108265358 0 0.21858834311891909 0.81980263716112767 0 0.19741632902693801 0.86755867406447229 0 0.17777405986036951 0.81832336108265358 0 0.21858834311891909 0.81980263716112767 0 0.2401283238295133 0.85648409884788523 0 0.26104540868854792 0.81401944968719064 0 0.21858834311891909 0.81980263716112767 0 0.2401283238295133 0.85648409884788523 0 0.19741632902693801 0.86755867406447229 0 0.19741632902693801 0.86755867406447229 0 0.17777405986036951 0.81832336108265358 0 0.14474682429600511 0.85524784522713515 0 0.19741632902693801 0.86755867406447229 0 0.14474682429600511 0.85524784522713515 0 0.16206583317966519 0.89685560785156404 0 0.1382744753146134 0.79650574229207483 0 0.17777405986036951 0.81832336108265358 0 0.14474682429600511 0.85524784522713515 0 0.1074251789111534 0.83564394292147814 0 0.1382744753146134 0.79650574229207483 0 0.14474682429600511 0.85524784522713515 0 0.1241151115713819 0.9045666525468371 0 0.14474682429600511 0.85524784522713515 0 0.16206583317966519 0.89685560785156404 0 0.1241151115713819 0.9045666525468371 0 0.16206583317966519 0.89685560785156404 0 0.14617343800780541 0.93808063414349496 0 0.16206583317966519 0.89685560785156404 0 0.19901705110390991 0.9175543425573498 0 0.14617343800780541 0.93808063414349496 0 0.19741632902693801 0.86755867406447229 0 0.16206583317966519 0.89685560785156404 0 0.19901705110390991 0.9175543425573498 0 0.19741632902693801 0.86755867406447229 0 0.24536017905392571 0.90704567837671446 0 0.19901705110390991 0.9175543425573498 0 0.2401283238295133 0.85648409884788523 0 0.19741632902693801 0.86755867406447229 0 0.24536017905392571 0.90704567837671446 0 0.24536017905392571 0.90704567837671446 0 0.19901705110390991 0.9175543425573498 0 0.22850979588452081 0.95594428570238643 0 0.19901705110390991 0.9175543425573498 0 0.22850979588452081 0.95594428570238643 0 0.18474005699953849 0.96231585248064622 0 0.24536017905392571 0.90704567837671446 0 0.22850979588452081 0.95594428570238643 0 0.27609987656793722 0.94991445621608572 0 0.22850979588452081 0.95594428570238643 0 0.20000000000083221 1 0 0.25000000000104028 1 0 0.22850979588452081 0.95594428570238643 0 0.20000000000083221 1 0 0.18474005699953849 0.96231585248064622 0 0.20000000000083221 1 0 0.18474005699953849 0.96231585248064622 0 0.15000000000062411 1 0 0.19901705110390991 0.9175543425573498 0 0.18474005699953849 0.96231585248064622 0 0.14617343800780541 0.93808063414349496 0 0.18474005699953849 0.96231585248064622 0 0.14617343800780541 0.93808063414349496 0 0.15000000000062411 1 0 0.10266856499240549 0.95548163909968886 0 0.14617343800780541 0.93808063414349496 0 0.15000000000062411 1 0 0.35000000000145642 1 0 0.36184234618600131 0.96443954459096326 0 0.32544832635163229 0.95485394099568932 0 0.35000000000145642 1 0 0.36184234618600131 0.96443954459096326 0 0.40000000000166441 1 0 0.36184234618600131 0.96443954459096326 0 0.32544832635163229 0.95485394099568932 0 0.35752321586431363 0.9185439911803448 0 0.36184234618600131 0.96443954459096326 0 0.35752321586431363 0.9185439911803448 0 0.39641108128798319 0.94356127926187128 0 0.35000000000145642 1 0 0.32544832635163229 0.95485394099568932 0 0.30000000000124832 1 0 0.30000000000124832 1 0 0.25000000000104028 1 0 0.27609987656793722 0.94991445621608572 0 0.22850979588452081 0.95594428570238643 0 0.25000000000104028 1 0 0.27609987656793722 0.94991445621608572 0 0.32544832635163229 0.95485394099568932 0 0.30000000000124832 1 0 0.27609987656793722 0.94991445621608572 0 0.32544832635163229 0.95485394099568932 0 0.27609987656793722 0.94991445621608572 0 0.30864387279288652 0.89906554525974958 0 0.24536017905392571 0.90704567837671446 0 0.27270076654418179 0.87751467830216623 0 0.30864387279288652 0.89906554525974958 0 0.24536017905392571 0.90704567837671446 0 0.27609987656793722 0.94991445621608572 0 0.30864387279288652 0.89906554525974958 0 0.2401283238295133 0.85648409884788523 0 0.24536017905392571 0.90704567837671446 0 0.27270076654418179 0.87751467830216623 0 0.30864387279288652 0.89906554525974958 0 0.35752321586431363 0.9185439911803448 0 0.35864759629805099 0.87963482415279515 0 0.32544832635163229 0.95485394099568932 0 0.30864387279288652 0.89906554525974958 0 0.35752321586431363 0.9185439911803448 0 0.35752321586431363 0.9185439911803448 0 0.35864759629805099 0.87963482415279515 0 0.39767323751400468 0.89584229130535065 0 0.35864759629805099 0.87963482415279515 0 0.33403534827021109 0.84402799729020661 0 0.39536230704883951 0.84069429572832477 0 0.33403534827021109 0.84402799729020661 0 0.35642984951668422 0.80994399665655703 0 0.39536230704883951 0.84069429572832477 0 0.33403534827021109 0.84402799729020661 0 0.30857225866488791 0.81101973481716805 0 0.35642984951668422 0.80994399665655703 0 0.30864387279288652 0.89906554525974958 0 0.35864759629805099 0.87963482415279515 0 0.33403534827021109 0.84402799729020661 0 0.30864387279288652 0.89906554525974958 0 0.33403534827021109 0.84402799729020661 0 0.29209212897034281 0.84715728365233667 0 0.27270076654418179 0.87751467830216623 0 0.30864387279288652 0.89906554525974958 0 0.29209212897034281 0.84715728365233667 0 0.2401283238295133 0.85648409884788523 0 0.27270076654418179 0.87751467830216623 0 0.29209212897034281 0.84715728365233667 0 0.2401283238295133 0.85648409884788523 0 0.29209212897034281 0.84715728365233667 0 0.26104540868854792 0.81401944968719064 0 0.29209212897034281 0.84715728365233667 0 0.26104540868854792 0.81401944968719064 0 0.30857225866488791 0.81101973481716805 0 0.33403534827021109 0.84402799729020661 0 0.29209212897034281 0.84715728365233667 0 0.30857225866488791 0.81101973481716805 0 0.26104540868854792 0.81401944968719064 0 0.30857225866488791 0.81101973481716805 0 0.2792923945214143 0.77665808831789485 0 0.30857225866488791 0.81101973481716805 0 0.2792923945214143 0.77665808831789485 0 0.33123028043633618 0.77629643437932982 0 0.22556077506376701 0.77837424984191617 0 0.26104540868854792 0.81401944968719064 0 0.2792923945214143 0.77665808831789485 0 0.2792923945214143 0.77665808831789485 0 0.25676291524611189 0.7436741304886243 0 0.29904318922293632 0.74132814928635593 0 0.22556077506376701 0.77837424984191617 0 0.2792923945214143 0.77665808831789485 0 0.25676291524611189 0.7436741304886243 0 0.2792923945214143 0.77665808831789485 0 0.33123028043633618 0.77629643437932982 0 0.29904318922293632 0.74132814928635593 0 0.33123028043633618 0.77629643437932982 0 0.29904318922293632 0.74132814928635593 0 0.35415581127540569 0.73730480045900215 0 0.30857225866488791 0.81101973481716805 0 0.33123028043633618 0.77629643437932982 0 0.35642984951668422 0.80994399665655703 0 0.33123028043633618 0.77629643437932982 0 0.35642984951668422 0.80994399665655703 0 0.38586766253264881 0.78219501014812498 0 0.33123028043633618 0.77629643437932982 0 0.38586766253264881 0.78219501014812498 0 0.35415581127540569 0.73730480045900215 0 0.38586766253264881 0.78219501014812498 0 0.42676259796334498 0.76772545931379299 0 0.40326160981139969 0.73346192995102844 0 0.38586766253264881 0.78219501014812498 0 0.35415581127540569 0.73730480045900215 0 0.40326160981139969 0.73346192995102844 0 0.38586766253264881 0.78219501014812498 0 0.42609163930740518 0.80361684430568059 0 0.39536230704883951 0.84069429572832477 0 0.35642984951668422 0.80994399665655703 0 0.38586766253264881 0.78219501014812498 0 0.39536230704883951 0.84069429572832477 0 0.38586766253264881 0.78219501014812498 0 0.42609163930740518 0.80361684430568059 0 0.42676259796334498 0.76772545931379299 0 0.42676259796334498 0.76772545931379299 0 0.4656888918609538 0.78493261229743638 0 0.45582236402875981 0.73896743678908217 0 0.4656888918609538 0.78493261229743638 0 0.45582236402875981 0.73896743678908217 0 0.50945740445113552 0.75476055527778108 0 0.4656888918609538 0.78493261229743638 0 0.50731287292894423 0.78963574450233831 0 0.50945740445113552 0.75476055527778108 0 0.4656888918609538 0.78493261229743638 0 0.50627822638148745 0.8263979829520941 0 0.50731287292894423 0.78963574450233831 0 0.42609163930740518 0.80361684430568059 0 0.4656888918609538 0.78493261229743638 0 0.45677673713123867 0.84253684404072415 0 0.42609163930740518 0.80361684430568059 0 0.42676259796334498 0.76772545931379299 0 0.4656888918609538 0.78493261229743638 0 0.4656888918609538 0.78493261229743638 0 0.45677673713123867 0.84253684404072415 0 0.50627822638148745 0.8263979829520941 0 0.45677673713123867 0.84253684404072415 0 0.50202631463681879 0.87892870825713787 0 0.50627822638148745 0.8263979829520941 0 0.45677673713123867 0.84253684404072415 0 0.44003836461056539 0.88093474584252718 0 0.50202631463681879 0.87892870825713787 0 0.45677673713123867 0.84253684404072415 0 0.39536230704883951 0.84069429572832477 0 0.44003836461056539 0.88093474584252718 0 0.39536230704883951 0.84069429572832477 0 0.39767323751400468 0.89584229130535065 0 0.44003836461056539 0.88093474584252718 0 0.42609163930740518 0.80361684430568059 0 0.45677673713123867 0.84253684404072415 0 0.39536230704883951 0.84069429572832477 0 0.35864759629805099 0.87963482415279515 0 0.39536230704883951 0.84069429572832477 0 0.39767323751400468 0.89584229130535065 0 0.35752321586431363 0.9185439911803448 0 0.39767323751400468 0.89584229130535065 0 0.39641108128798319 0.94356127926187128 0 0.39767323751400468 0.89584229130535065 0 0.4367309254023824 0.92065556789053882 0 0.39641108128798319 0.94356127926187128 0 0.39767323751400468 0.89584229130535065 0 0.4367309254023824 0.92065556789053882 0 0.44003836461056539 0.88093474584252718 0 0.4367309254023824 0.92065556789053882 0 0.44003836461056539 0.88093474584252718 0 0.47401147028110507 0.91529957330468115 0 0.44003836461056539 0.88093474584252718 0 0.47401147028110507 0.91529957330468115 0 0.50202631463681879 0.87892870825713787 0 0.47401147028110507 0.91529957330468115 0 0.47135117303824892 0.95556877749289892 0 0.52122150208832174 0.94089974453840242 0 0.47401147028110507 0.91529957330468115 0 0.52122150208832174 0.94089974453840242 0 0.50202631463681879 0.87892870825713787 0 0.4367309254023824 0.92065556789053882 0 0.47401147028110507 0.91529957330468115 0 0.47135117303824892 0.95556877749289892 0 0.4367309254023824 0.92065556789053882 0 0.47135117303824892 0.95556877749289892 0 0.4308986359464303 0.96395712492906194 0 0.47135117303824892 0.95556877749289892 0 0.50000000000205869 1 0 0.52122150208832174 0.94089974453840242 0 0.47135117303824892 0.95556877749289892 0 0.45000000000187229 1 0 0.50000000000205869 1 0 0.47135117303824892 0.95556877749289892 0 0.45000000000187229 1 0 0.4308986359464303 0.96395712492906194 0 0.45000000000187229 1 0 0.4308986359464303 0.96395712492906194 0 0.40000000000166441 1 0 0.4308986359464303 0.96395712492906194 0 0.39641108128798319 0.94356127926187128 0 0.40000000000166441 1 0 0.4367309254023824 0.92065556789053882 0 0.4308986359464303 0.96395712492906194 0 0.39641108128798319 0.94356127926187128 0 0.36184234618600131 0.96443954459096326 0 0.39641108128798319 0.94356127926187128 0 0.40000000000166441 1 0 0.33122374654748771 0.57588941099433744 0 0.31502927232353312 0.6134992213375432 0 0.35765792684946668 0.6000687869219653 0 0.31502927232353312 0.6134992213375432 0 0.35765792684946668 0.6000687869219653 0 0.35864735590330371 0.63903383440414463 0 0.35765792684946668 0.6000687869219653 0 0.35864735590330371 0.63903383440414463 0 0.39743091024207589 0.6239520004230239 0 0.33122374654748771 0.57588941099433744 0 0.35765792684946668 0.6000687869219653 0 0.37272913873093971 0.56192925302619479 0 0.37272913873093971 0.56192925302619479 0 0.33190227185843768 0.52715113583864037 0 0.38244435121258652 0.51653317813019495 0 0.33122374654748771 0.57588941099433744 0 0.37272913873093971 0.56192925302619479 0 0.33190227185843768 0.52715113583864037 0 0.35024835142131061 0.48654922671676981 0 0.33190227185843768 0.52715113583864037 0 0.38244435121258652 0.51653317813019495 0 0.33122374654748771 0.57588941099433744 0 0.33190227185843768 0.52715113583864037 0 0.29110487519241501 0.56588143995431495 0 0.33190227185843768 0.52715113583864037 0 0.28307294598219601 0.50789252727458634 0 0.29110487519241501 0.56588143995431495 0 0.31068898841644388 0.47541502461811092 0 0.33190227185843768 0.52715113583864037 0 0.28307294598219601 0.50789252727458634 0 0.23975172658309729 0.49475499200540818 0 0.28307294598219601 0.50789252727458634 0 0.25115337790845271 0.54719303014923271 0 0.28307294598219601 0.50789252727458634 0 0.25115337790845271 0.54719303014923271 0 0.29110487519241501 0.56588143995431495 0 0.25115337790845271 0.54719303014923271 0 0.29110487519241501 0.56588143995431495 0 0.26573297623774761 0.59828298563722948 0 0.33122374654748771 0.57588941099433744 0 0.31502927232353312 0.6134992213375432 0 0.29110487519241501 0.56588143995431495 0 0.31502927232353312 0.6134992213375432 0 0.29110487519241501 0.56588143995431495 0 0.26573297623774761 0.59828298563722948 0 0.31502927232353312 0.6134992213375432 0 0.26573297623774761 0.59828298563722948 0 0.27820712747429932 0.65530134213254643 0 0.2459498854893499 0.63248470766216769 0 0.26573297623774761 0.59828298563722948 0 0.27820712747429932 0.65530134213254643 0 0.2236846579037573 0.67380363126050236 0 0.27820712747429932 0.65530134213254643 0 0.26439878998046262 0.7048065392091396 0 0.27820712747429932 0.65530134213254643 0 0.31378396441836959 0.70157213313026345 0 0.32263089806001177 0.66003674931826484 0 0.27820712747429932 0.65530134213254643 0 0.26439878998046262 0.7048065392091396 0 0.31378396441836959 0.70157213313026345 0 0.31502927232353312 0.6134992213375432 0 0.27820712747429932 0.65530134213254643 0 0.32263089806001177 0.66003674931826484 0 0.25676291524611189 0.7436741304886243 0 0.26439878998046262 0.7048065392091396 0 0.29904318922293632 0.74132814928635593 0 0.26439878998046262 0.7048065392091396 0 0.29904318922293632 0.74132814928635593 0 0.31378396441836959 0.70157213313026345 0 0.29904318922293632 0.74132814928635593 0 0.31378396441836959 0.70157213313026345 0 0.35415581127540569 0.73730480045900215 0 0.31378396441836959 0.70157213313026345 0 0.36622285152418499 0.69092437780804039 0 0.35415581127540569 0.73730480045900215 0 0.36622285152418499 0.69092437780804039 0 0.35415581127540569 0.73730480045900215 0 0.40326160981139969 0.73346192995102844 0 0.31502927232353312 0.6134992213375432 0 0.32263089806001177 0.66003674931826484 0 0.35864735590330371 0.63903383440414463 0 0.31378396441836959 0.70157213313026345 0 0.36622285152418499 0.69092437780804039 0 0.32263089806001177 0.66003674931826484 0 0.36622285152418499 0.69092437780804039 0 0.32263089806001177 0.66003674931826484 0 0.35864735590330371 0.63903383440414463 0 0.36622285152418499 0.69092437780804039 0 0.35864735590330371 0.63903383440414463 0 0.3977710372045391 0.65868194622830212 0 0.35864735590330371 0.63903383440414463 0 0.3977710372045391 0.65868194622830212 0 0.39743091024207589 0.6239520004230239 0 0.36622285152418499 0.69092437780804039 0 0.3977710372045391 0.65868194622830212 0 0.43323420005758778 0.6913544522562407 0 0.3977710372045391 0.65868194622830212 0 0.43323420005758778 0.6913544522562407 0 0.43846182030517877 0.64845797726506715 0 0.43846182030517877 0.64845797726506715 0 0.43545892161006339 0.61093128915313821 0 0.39743091024207589 0.6239520004230239 0 0.3977710372045391 0.65868194622830212 0 0.43846182030517877 0.64845797726506715 0 0.39743091024207589 0.6239520004230239 0 0.36622285152418499 0.69092437780804039 0 0.40326160981139969 0.73346192995102844 0 0.43323420005758778 0.6913544522562407 0 0.40326160981139969 0.73346192995102844 0 0.43323420005758778 0.6913544522562407 0 0.45582236402875981 0.73896743678908217 0 0.42676259796334498 0.76772545931379299 0 0.40326160981139969 0.73346192995102844 0 0.45582236402875981 0.73896743678908217 0 0.43323420005758778 0.6913544522562407 0 0.45582236402875981 0.73896743678908217 0 0.5 0.69999999999999996 0 0.45582236402875981 0.73896743678908217 0 0.5 0.69999999999999996 0 0.50945740445113552 0.75476055527778108 0 0.43323420005758778 0.6913544522562407 0 0.47913475093885149 0.66010775372412711 0 0.5 0.69999999999999996 0 0.43846182030517877 0.64845797726506715 0 0.47913475093885149 0.66010775372412711 0 0.47095389620662098 0.61892551373708504 0 0.43846182030517877 0.64845797726506715 0 0.47095389620662098 0.61892551373708504 0 0.43545892161006339 0.61093128915313821 0 0.43323420005758778 0.6913544522562407 0 0.43846182030517877 0.64845797726506715 0 0.47913475093885149 0.66010775372412711 0 0.47913475093885149 0.66010775372412711 0 0.47095389620662098 0.61892551373708504 0 0.50715858906372158 0.63295939104129484 0 0.47095389620662098 0.61892551373708504 0 0.5166924242153631 0.59825134841919447 0 0.50715858906372158 0.63295939104129484 0 0.47095389620662098 0.61892551373708504 0 0.46666084890304671 0.57634471035397938 0 0.5166924242153631 0.59825134841919447 0 0.47095389620662098 0.61892551373708504 0 0.46666084890304671 0.57634471035397938 0 0.43545892161006339 0.61093128915313821 0 0.43545892161006339 0.61093128915313821 0 0.4089290844030305 0.58728915500154233 0 0.39743091024207589 0.6239520004230239 0 0.46666084890304671 0.57634471035397938 0 0.43545892161006339 0.61093128915313821 0 0.4089290844030305 0.58728915500154233 0 0.46666084890304671 0.57634471035397938 0 0.4089290844030305 0.58728915500154233 0 0.42644501560315817 0.54603747078095544 0 0.37272913873093971 0.56192925302619479 0 0.4089290844030305 0.58728915500154233 0 0.42644501560315817 0.54603747078095544 0 0.35765792684946668 0.6000687869219653 0 0.37272913873093971 0.56192925302619479 0 0.4089290844030305 0.58728915500154233 0 0.35765792684946668 0.6000687869219653 0 0.4089290844030305 0.58728915500154233 0 0.39743091024207589 0.6239520004230239 0 0.37272913873093971 0.56192925302619479 0 0.38244435121258652 0.51653317813019495 0 0.42644501560315817 0.54603747078095544 0 0.43507373378304309 0.49699695397193322 0 0.38244435121258652 0.51653317813019495 0 0.42644501560315817 0.54603747078095544 0 0.46666084890304671 0.57634471035397938 0 0.47793794143994173 0.52940715638744962 0 0.53245488764484505 0.55078124999999989 0 0.43507373378304309 0.49699695397193322 0 0.49102375406324739 0.49123754822244059 0 0.47793794143994173 0.52940715638744962 0 0.43507373378304309 0.49699695397193322 0 0.42644501560315817 0.54603747078095544 0 0.47793794143994173 0.52940715638744962 0 0.46666084890304671 0.57634471035397938 0 0.42644501560315817 0.54603747078095544 0 0.47793794143994173 0.52940715638744962 0 0.49102375406324739 0.49123754822244059 0 0.47793794143994173 0.52940715638744962 0 0.53330375813596242 0.50827942741749099 0 0.47793794143994173 0.52940715638744962 0 0.53245488764484505 0.55078124999999989 0 0.53330375813596242 0.50827942741749099 0 0.53245488764484505 0.55078124999999989 0 0.53330375813596242 0.50827942741749099 0 0.57435499076887508 0.54267261987897775 0 0.53245488764484505 0.55078124999999989 0 0.57435499076887508 0.54267261987897775 0 0.57412547362576272 0.58273804879550706 0 0.53330375813596242 0.50827942741749099 0 0.57611405284611883 0.50165903596042916 0 0.57435499076887508 0.54267261987897775 0 0.57611405284611883 0.50165903596042916 0 0.57435499076887508 0.54267261987897775 0 0.62042975506801734 0.54295974692364424 0 0.57435499076887508 0.54267261987897775 0 0.62042975506801734 0.54295974692364424 0 0.57412547362576272 0.58273804879550706 0 0.57611405284611883 0.50165903596042916 0 0.62042975506801734 0.54295974692364424 0 0.61547661924074692 0.48539576058873962 0 0.5991018319127801 0.62925360607495295 0 0.6405463747586706 0.63290524857395714 0 0.63065402604362242 0.59661356661633302 0 0.57412547362576272 0.58273804879550706 0 0.5991018319127801 0.62925360607495295 0 0.63065402604362242 0.59661356661633302 0 0.62042975506801734 0.54295974692364424 0 0.57412547362576272 0.58273804879550706 0 0.63065402604362242 0.59661356661633302 0 0.57412547362576272 0.58273804879550706 0 0.5498280205245758 0.6290146943450976 0 0.5991018319127801 0.62925360607495295 0 0.46666084890304671 0.57634471035397938 0 0.53245488764484505 0.55078124999999989 0 0.5166924242153631 0.59825134841919447 0 0.57412547362576272 0.58273804879550706 0 0.5166924242153631 0.59825134841919447 0 0.5498280205245758 0.6290146943450976 0 0.53245488764484505 0.55078124999999989 0 0.57412547362576272 0.58273804879550706 0 0.5166924242153631 0.59825134841919447 0 0.5166924242153631 0.59825134841919447 0 0.50715858906372158 0.63295939104129484 0 0.5498280205245758 0.6290146943450976 0 0.47913475093885149 0.66010775372412711 0 0.50715858906372158 0.63295939104129484 0 0.52584555706968406 0.66664215091846768 0 0.50715858906372158 0.63295939104129484 0 0.52584555706968406 0.66664215091846768 0 0.5498280205245758 0.6290146943450976 0 0.47913475093885149 0.66010775372412711 0 0.52584555706968406 0.66664215091846768 0 0.5 0.69999999999999996 0 0.52584555706968406 0.66664215091846768 0 0.54999999999999993 0.69999999999999996 0 0.57484956128872922 0.66573805030881994 0 0.52584555706968406 0.66664215091846768 0 0.5498280205245758 0.6290146943450976 0 0.57484956128872922 0.66573805030881994 0 0.5 0.69999999999999996 0 0.55363780716230748 0.74348740161571747 0 0.50945740445113552 0.75476055527778108 0 0.52584555706968406 0.66664215091846768 0 0.5 0.69999999999999996 0 0.54999999999999993 0.69999999999999996 0 0.5 0.69999999999999996 0 0.54999999999999993 0.69999999999999996 0 0.5 0.69999999999999996 0 0.54999999999999993 0.69999999999999996 0 0.55363780716230748 0.74348740161571747 0 0.55363780716230748 0.74348740161571747 0 0.59999999999999976 0.69999999999999996 0 0.59636844454254345 0.75937156204589151 0 0.54999999999999993 0.69999999999999996 0 0.59999999999999976 0.69999999999999996 0 0.54999999999999993 0.69999999999999996 0 0.59999999999999976 0.69999999999999996 0 0.57484956128872922 0.66573805030881994 0 0.54999999999999993 0.69999999999999996 0 0.55363780716230748 0.74348740161571747 0 0.59999999999999976 0.69999999999999996 0 0.59999999999999976 0.69999999999999996 0 0.6499999999999998 0.69999999999999996 0 0.59999999999999976 0.69999999999999996 0 0.62460753523532009 0.66851202781000296 0 0.6499999999999998 0.69999999999999996 0 0.59999999999999976 0.69999999999999996 0 0.63221990677827677 0.73442891067859706 0 0.59636844454254345 0.75937156204589151 0 0.5498280205245758 0.6290146943450976 0 0.57484956128872922 0.66573805030881994 0 0.5991018319127801 0.62925360607495295 0 0.59999999999999976 0.69999999999999996 0 0.57484956128872922 0.66573805030881994 0 0.62460753523532009 0.66851202781000296 0 0.57484956128872922 0.66573805030881994 0 0.62460753523532009 0.66851202781000296 0 0.5991018319127801 0.62925360607495295 0 0.62460753523532009 0.66851202781000296 0 0.5991018319127801 0.62925360607495295 0 0.6405463747586706 0.63290524857395714 0 0.62460753523532009 0.66851202781000296 0 0.6405463747586706 0.63290524857395714 0 0.675261390228442 0.65996937624687813 0 0.62460753523532009 0.66851202781000296 0 0.675261390228442 0.65996937624687813 0 0.6499999999999998 0.69999999999999996 0 0.675261390228442 0.65996937624687813 0 0.6499999999999998 0.69999999999999996 0 0.69999999999999984 0.69999999999999996 0 0.6405463747586706 0.63290524857395714 0 0.675261390228442 0.65996937624687813 0 0.67529834988829951 0.61613270668143583 0 0.63221990677827677 0.73442891067859706 0 0.66427993341343905 0.73232764502436276 0 0.64753070846764316 0.77332939069435502 0 0.63221990677827677 0.73442891067859706 0 0.6499999999999998 0.69999999999999996 0 0.66427993341343905 0.73232764502436276 0 0.59999999999999976 0.69999999999999996 0 0.63221990677827677 0.73442891067859706 0 0.6499999999999998 0.69999999999999996 0 0.6499999999999998 0.69999999999999996 0 0.69999999999999984 0.69999999999999996 0 0.6499999999999998 0.69999999999999996 0 0.66427993341343905 0.73232764502436276 0 0.69999999999999984 0.69999999999999996 0 0.66427993341343905 0.73232764502436276 0 0.69999999999999984 0.69999999999999996 0 0.6916490518212759 0.75387992374886192 0 0.69999999999999984 0.69999999999999996 0 0.72501250972655151 0.74067302935308721 0 0.6916490518212759 0.75387992374886192 0 0.69999999999999984 0.69999999999999996 0 0.74999999999999989 0.69999999999999996 0 0.72501250972655151 0.74067302935308721 0 0.69999999999999984 0.69999999999999996 0 0.74999999999999989 0.69999999999999996 0 0.72500000000000064 0.67022701834392062 0 0.69999999999999984 0.69999999999999996 0 0.74999999999999989 0.69999999999999996 0 0.74999999999999989 0.69999999999999996 0 0.72501250972655151 0.74067302935308721 0 0.75841349681148107 0.75422312624214749 0 0.675261390228442 0.65996937624687813 0 0.71406021706547751 0.63292083137662503 0 0.72500000000000064 0.67022701834392062 0 0.675261390228442 0.65996937624687813 0 0.71406021706547751 0.63292083137662503 0 0.67529834988829951 0.61613270668143583 0 0.675261390228442 0.65996937624687813 0 0.69999999999999984 0.69999999999999996 0 0.72500000000000064 0.67022701834392062 0 0.71406021706547751 0.63292083137662503 0 0.72500000000000064 0.67022701834392062 0 0.74994237037456724 0.62775548192980357 0 0.72500000000000064 0.67022701834392062 0 0.74994237037456724 0.62775548192980357 0 0.7750489929959945 0.66593931409600093 0 0.71406021706547751 0.63292083137662503 0 0.74994237037456724 0.62775548192980357 0 0.71809016091162536 0.58185040402320831 0 0.74994237037456724 0.62775548192980357 0 0.71809016091162536 0.58185040402320831 0 0.77293540622714185 0.59448302402785813 0 0.71406021706547751 0.63292083137662503 0 0.71809016091162536 0.58185040402320831 0 0.67529834988829951 0.61613270668143583 0 0.71809016091162536 0.58185040402320831 0 0.67569444444444449 0.53500863336860327 0 0.67323294229744413 0.57556450033612505 0 0.71809016091162536 0.58185040402320831 0 0.67529834988829951 0.61613270668143583 0 0.67323294229744413 0.57556450033612505 0 0.71809016091162536 0.58185040402320831 0 0.7152569930854884 0.5237994455134295 0 0.77151014687832564 0.54436834383023036 0 0.7152569930854884 0.5237994455134295 0 0.77151014687832564 0.54436834383023036 0 0.73947346780852752 0.49062440112282169 0 0.7152569930854884 0.5237994455134295 0 0.67569444444444449 0.53500863336860327 0 0.69385896817107129 0.48377516041410151 0 0.71809016091162536 0.58185040402320831 0 0.7152569930854884 0.5237994455134295 0 0.67569444444444449 0.53500863336860327 0 0.62042975506801734 0.54295974692364424 0 0.67569444444444449 0.53500863336860327 0 0.67323294229744413 0.57556450033612505 0 0.67569444444444449 0.53500863336860327 0 0.6541250972820879 0.49999999999999989 0 0.69385896817107129 0.48377516041410151 0 0.62042975506801734 0.54295974692364424 0 0.67569444444444449 0.53500863336860327 0 0.6541250972820879 0.49999999999999989 0 0.62042975506801734 0.54295974692364424 0 0.61547661924074692 0.48539576058873962 0 0.6541250972820879 0.49999999999999989 0 0.62042975506801734 0.54295974692364424 0 0.63065402604362242 0.59661356661633302 0 0.67323294229744413 0.57556450033612505 0 0.6405463747586706 0.63290524857395714 0 0.63065402604362242 0.59661356661633302 0 0.67529834988829951 0.61613270668143583 0 0.63065402604362242 0.59661356661633302 0 0.67529834988829951 0.61613270668143583 0 0.67323294229744413 0.57556450033612505 0 0.60000000000138687 1 0 0.62065498684670595 0.95224934003983619 0 0.57382506491224949 0.9629411906298494 0 0.60000000000138687 1 0 0.62065498684670595 0.95224934003983619 0 0.65000000000104008 1 0 0.62065498684670595 0.95224934003983619 0 0.57382506491224949 0.9629411906298494 0 0.57724883562309992 0.92155686857100794 0 0.60000000000138687 1 0 0.57382506491224949 0.9629411906298494 0 0.55000000000173355 1 0 0.55000000000173355 1 0 0.50000000000205869 1 0 0.52122150208832174 0.94089974453840242 0 0.57382506491224949 0.9629411906298494 0 0.52122150208832174 0.94089974453840242 0 0.57724883562309992 0.92155686857100794 0 0.57382506491224949 0.9629411906298494 0 0.55000000000173355 1 0 0.52122150208832174 0.94089974453840242 0 0.52122150208832174 0.94089974453840242 0 0.54783390826260769 0.89287767010860219 0 0.57724883562309992 0.92155686857100794 0 0.52122150208832174 0.94089974453840242 0 0.50202631463681879 0.87892870825713787 0 0.54783390826260769 0.89287767010860219 0 0.54783390826260769 0.89287767010860219 0 0.5832743223239254 0.88483152652961872 0 0.55899371797446828 0.85003102233514438 0 0.54783390826260769 0.89287767010860219 0 0.5832743223239254 0.88483152652961872 0 0.57724883562309992 0.92155686857100794 0 0.5832743223239254 0.88483152652961872 0 0.57724883562309992 0.92155686857100794 0 0.61885627562261258 0.90282959257498208 0 0.62065498684670595 0.95224934003983619 0 0.57724883562309992 0.92155686857100794 0 0.61885627562261258 0.90282959257498208 0 0.5832743223239254 0.88483152652961872 0 0.61885627562261258 0.90282959257498208 0 0.61343887413683884 0.856862479058357 0 0.61343887413683884 0.856862479058357 0 0.60294066490120068 0.80851322453934582 0 0.65005442820240822 0.82644988530054031 0 0.61343887413683884 0.856862479058357 0 0.55899371797446828 0.85003102233514438 0 0.60294066490120068 0.80851322453934582 0 0.55899371797446828 0.85003102233514438 0 0.54782696902220018 0.79245182748204157 0 0.60294066490120068 0.80851322453934582 0 0.5832743223239254 0.88483152652961872 0 0.61343887413683884 0.856862479058357 0 0.55899371797446828 0.85003102233514438 0 0.50202631463681879 0.87892870825713787 0 0.54783390826260769 0.89287767010860219 0 0.55899371797446828 0.85003102233514438 0 0.50202631463681879 0.87892870825713787 0 0.55899371797446828 0.85003102233514438 0 0.50627822638148745 0.8263979829520941 0 0.55899371797446828 0.85003102233514438 0 0.50627822638148745 0.8263979829520941 0 0.54782696902220018 0.79245182748204157 0 0.50627822638148745 0.8263979829520941 0 0.54782696902220018 0.79245182748204157 0 0.50731287292894423 0.78963574450233831 0 0.54782696902220018 0.79245182748204157 0 0.50731287292894423 0.78963574450233831 0 0.50945740445113552 0.75476055527778108 0 0.55363780716230748 0.74348740161571747 0 0.54782696902220018 0.79245182748204157 0 0.50945740445113552 0.75476055527778108 0 0.55363780716230748 0.74348740161571747 0 0.54782696902220018 0.79245182748204157 0 0.59636844454254345 0.75937156204589151 0 0.54782696902220018 0.79245182748204157 0 0.60294066490120068 0.80851322453934582 0 0.59636844454254345 0.75937156204589151 0 0.60294066490120068 0.80851322453934582 0 0.59636844454254345 0.75937156204589151 0 0.64753070846764316 0.77332939069435502 0 0.63221990677827677 0.73442891067859706 0 0.59636844454254345 0.75937156204589151 0 0.64753070846764316 0.77332939069435502 0 0.60294066490120068 0.80851322453934582 0 0.64753070846764316 0.77332939069435502 0 0.65005442820240822 0.82644988530054031 0 0.64753070846764316 0.77332939069435502 0 0.68024162096458085 0.79868546898116533 0 0.65005442820240822 0.82644988530054031 0 0.64753070846764316 0.77332939069435502 0 0.68024162096458085 0.79868546898116533 0 0.6916490518212759 0.75387992374886192 0 0.66427993341343905 0.73232764502436276 0 0.64753070846764316 0.77332939069435502 0 0.6916490518212759 0.75387992374886192 0 0.72501250972655151 0.74067302935308721 0 0.6916490518212759 0.75387992374886192 0 0.72500000000000064 0.7952620967744265 0 0.72501250972655151 0.74067302935308721 0 0.72500000000000064 0.7952620967744265 0 0.75841349681148107 0.75422312624214749 0 0.68024162096458085 0.79868546898116533 0 0.6916490518212759 0.75387992374886192 0 0.72500000000000064 0.7952620967744265 0 0.68024162096458085 0.79868546898116533 0 0.72500000000000064 0.7952620967744265 0 0.68697391633157634 0.84450604838764298 0 0.72500000000000064 0.7952620967744265 0 0.72863726579783861 0.85390518901155588 0 0.68697391633157634 0.84450604838764298 0 0.72500000000000064 0.7952620967744265 0 0.72863726579783861 0.85390518901155588 0 0.76901770135486491 0.84293557325473656 0 0.72863726579783861 0.85390518901155588 0 0.68697391633157634 0.84450604838764298 0 0.7250000000005199 0.89375000000045834 0 0.68697391633157634 0.84450604838764298 0 0.66412543161245952 0.88015090885499059 0 0.7250000000005199 0.89375000000045834 0 0.68697391633157634 0.84450604838764298 0 0.65005442820240822 0.82644988530054031 0 0.66412543161245952 0.88015090885499059 0 0.68024162096458085 0.79868546898116533 0 0.68697391633157634 0.84450604838764298 0 0.65005442820240822 0.82644988530054031 0 0.61343887413683884 0.856862479058357 0 0.65005442820240822 0.82644988530054031 0 0.66412543161245952 0.88015090885499059 0 0.61885627562261258 0.90282959257498208 0 0.61343887413683884 0.856862479058357 0 0.66412543161245952 0.88015090885499059 0 0.61885627562261258 0.90282959257498208 0 0.65507451745379841 0.92229208810758578 0 0.66412543161245952 0.88015090885499059 0 0.62065498684670595 0.95224934003983619 0 0.61885627562261258 0.90282959257498208 0 0.65507451745379841 0.92229208810758578 0 0.65507451745379841 0.92229208810758578 0 0.68987011941058407 0.92105047536677087 0 0.68015064798562208 0.95924320340003011 0 0.65507451745379841 0.92229208810758578 0 0.66412543161245952 0.88015090885499059 0 0.68987011941058407 0.92105047536677087 0 0.66412543161245952 0.88015090885499059 0 0.7250000000005199 0.89375000000045834 0 0.68987011941058407 0.92105047536677087 0 0.72863726579783861 0.85390518901155588 0 0.7250000000005199 0.89375000000045834 0 0.76891166905518427 0.88835469571185499 0 0.7250000000005199 0.89375000000045834 0 0.7250000000005199 0.94981617647078953 0 0.75729602384198635 0.92353652857884294 0 0.7250000000005199 0.89375000000045834 0 0.68987011941058407 0.92105047536677087 0 0.7250000000005199 0.94981617647078953 0 0.68987011941058407 0.92105047536677087 0 0.7250000000005199 0.94981617647078953 0 0.68015064798562208 0.95924320340003011 0 0.7250000000005199 0.94981617647078953 0 0.7000000000006934 1 0 0.75000000000034661 1 0 0.7250000000005199 0.94981617647078953 0 0.75000000000034661 1 0 0.770759834363826 0.95919399014344442 0 0.7250000000005199 0.94981617647078953 0 0.7000000000006934 1 0 0.68015064798562208 0.95924320340003011 0 0.7000000000006934 1 0 0.68015064798562208 0.95924320340003011 0 0.65000000000104008 1 0 0.62065498684670595 0.95224934003983619 0 0.65507451745379841 0.92229208810758578 0 0.68015064798562208 0.95924320340003011 0 0.62065498684670595 0.95224934003983619 0 0.68015064798562208 0.95924320340003011 0 0.65000000000104008 1 0 0.84999999999965292 1 0 0.85170973911348691 0.93569607295217616 0 0.89898474358632463 0.95391965591118966 0 0.84999999999965292 1 0 0.81486180804382891 0.96321394949790495 0 0.85170973911348691 0.93569607295217616 0 0.81486180804382891 0.96321394949790495 0 0.79680861578988083 0.92656778056766709 0 0.85170973911348691 0.93569607295217616 0 0.84999999999965292 1 0 0.81486180804382891 0.96321394949790495 0 0.79999999999999982 1 0 0.81486180804382891 0.96321394949790495 0 0.79999999999999982 1 0 0.770759834363826 0.95919399014344442 0 0.79999999999999982 1 0 0.75000000000034661 1 0 0.770759834363826 0.95919399014344442 0 0.7250000000005199 0.94981617647078953 0 0.770759834363826 0.95919399014344442 0 0.75729602384198635 0.92353652857884294 0 0.81486180804382891 0.96321394949790495 0 0.770759834363826 0.95919399014344442 0 0.79680861578988083 0.92656778056766709 0 0.79680861578988083 0.92656778056766709 0 0.75729602384198635 0.92353652857884294 0 0.76891166905518427 0.88835469571185499 0 0.770759834363826 0.95919399014344442 0 0.79680861578988083 0.92656778056766709 0 0.75729602384198635 0.92353652857884294 0 0.7250000000005199 0.89375000000045834 0 0.75729602384198635 0.92353652857884294 0 0.76891166905518427 0.88835469571185499 0 0.79680861578988083 0.92656778056766709 0 0.76891166905518427 0.88835469571185499 0 0.81159157511211755 0.88795995483179491 0 0.81159157511211755 0.88795995483179491 0 0.85170973911348691 0.93569607295217616 0 0.85600844944837662 0.88483418979512773 0 0.79680861578988083 0.92656778056766709 0 0.81159157511211755 0.88795995483179491 0 0.85170973911348691 0.93569607295217616 0 0.85170973911348691 0.93569607295217616 0 0.85600844944837662 0.88483418979512773 0 0.90416666666660628 0.9041666666666166 0 0.85600844944837662 0.88483418979512773 0 0.82709327591091286 0.84937141670920724 0 0.88088768115933802 0.84674609810493673 0 0.82709327591091286 0.84937141670920724 0 0.84725310900444062 0.80779732082917555 0 0.88088768115933802 0.84674609810493673 0 0.82709327591091286 0.84937141670920724 0 0.80041942726660109 0.81543261647703358 0 0.84725310900444062 0.80779732082917555 0 0.81159157511211755 0.88795995483179491 0 0.85600844944837662 0.88483418979512773 0 0.82709327591091286 0.84937141670920724 0 0.76891166905518427 0.88835469571185499 0 0.81159157511211755 0.88795995483179491 0 0.76901770135486491 0.84293557325473656 0 0.81159157511211755 0.88795995483179491 0 0.82709327591091286 0.84937141670920724 0 0.76901770135486491 0.84293557325473656 0 0.72863726579783861 0.85390518901155588 0 0.76891166905518427 0.88835469571185499 0 0.76901770135486491 0.84293557325473656 0 0.76901770135486491 0.84293557325473656 0 0.80041942726660109 0.81543261647703358 0 0.77094201086366854 0.79647480515688507 0 0.82709327591091286 0.84937141670920724 0 0.76901770135486491 0.84293557325473656 0 0.80041942726660109 0.81543261647703358 0 0.80041942726660109 0.81543261647703358 0 0.77094201086366854 0.79647480515688507 0 0.80185942888539485 0.77452061303608133 0 0.72500000000000064 0.7952620967744265 0 0.77094201086366854 0.79647480515688507 0 0.75841349681148107 0.75422312624214749 0 0.72500000000000064 0.7952620967744265 0 0.76901770135486491 0.84293557325473656 0 0.77094201086366854 0.79647480515688507 0 0.77094201086366854 0.79647480515688507 0 0.75841349681148107 0.75422312624214749 0 0.80185942888539485 0.77452061303608133 0 0.75841349681148107 0.75422312624214749 0 0.80185942888539485 0.77452061303608133 0 0.78578450296893509 0.73292684821144505 0 0.80185942888539485 0.77452061303608133 0 0.84725310900444062 0.80779732082917555 0 0.85491058998424563 0.76004753345552634 0 0.80185942888539485 0.77452061303608133 0 0.85491058998424563 0.76004753345552634 0 0.81864958914779962 0.73589050177899629 0 0.80041942726660109 0.81543261647703358 0 0.80185942888539485 0.77452061303608133 0 0.84725310900444062 0.80779732082917555 0 0.84725310900444062 0.80779732082917555 0 0.85491058998424563 0.76004753345552634 0 0.90299850604011456 0.79563452813489832 0 0.85491058998424563 0.76004753345552634 0 0.90299850604011456 0.79563452813489832 0 0.89999166460796554 0.74528934923809909 0 0.90299850604011456 0.79563452813489832 0 0.94399509803918602 0.75600490196082126 0 0.95386563387742829 0.80414874155775029 0 0.90299850604011456 0.79563452813489832 0 0.94399509803918602 0.75600490196082126 0 0.89999166460796554 0.74528934923809909 0 0.94399509803918602 0.75600490196082126 0 0.97435614836745565 0.77499999999987745 0 0.95386563387742829 0.80414874155775029 0 0.94399509803918602 0.75600490196082126 0 0.97435614836745565 0.77499999999987745 0 0.97166519676947294 0.73337114490064459 0 0.97435614836745565 0.77499999999987745 0 0.97166519676947294 0.73337114490064459 0 1 0.74999999999993494 0 0.97435614836745565 0.77499999999987745 0 1 0.7999999999998193 0 1 0.74999999999993494 0 0.97435614836745565 0.77499999999987745 0 1 0.7999999999998193 0 0.95386563387742829 0.80414874155775029 0 1 0.84999999999982645 0 0.93677536231884972 0.85000000000000286 0 0.95391631417670719 0.89584263333814784 0 0.95386563387742829 0.80414874155775029 0 1 0.84999999999982645 0 0.93677536231884972 0.85000000000000286 0 1 0.7999999999998193 0 0.95386563387742829 0.80414874155775029 0 1 0.84999999999982645 0 0.93677536231884972 0.85000000000000286 0 0.88088768115933802 0.84674609810493673 0 0.90416666666660628 0.9041666666666166 0 0.90299850604011456 0.79563452813489832 0 0.95386563387742829 0.80414874155775029 0 0.93677536231884972 0.85000000000000286 0 0.90299850604011456 0.79563452813489832 0 0.93677536231884972 0.85000000000000286 0 0.88088768115933802 0.84674609810493673 0 0.84725310900444062 0.80779732082917555 0 0.90299850604011456 0.79563452813489832 0 0.88088768115933802 0.84674609810493673 0 0.85600844944837662 0.88483418979512773 0 0.88088768115933802 0.84674609810493673 0 0.90416666666660628 0.9041666666666166 0 0.85170973911348691 0.93569607295217616 0 0.90416666666660628 0.9041666666666166 0 0.89898474358632463 0.95391965591118966 0 0.90416666666660628 0.9041666666666166 0 0.95391631417670719 0.89584263333814784 0 0.94399509803919068 0.9439950980391687 0 0.90416666666660628 0.9041666666666166 0 0.94399509803919068 0.9439950980391687 0 0.89898474358632463 0.95391965591118966 0 0.93677536231884972 0.85000000000000286 0 0.90416666666660628 0.9041666666666166 0 0.95391631417670719 0.89584263333814784 0 1 0.84999999999982645 0 0.95391631417670719 0.89584263333814784 0 1 0.8999999999998336 0 1 0.8999999999998336 0 0.97435614836744289 0.92499999999990257 0 1 0.94999999999997109 0 0.95391631417670719 0.89584263333814784 0 1 0.8999999999998336 0 0.97435614836744289 0.92499999999990257 0 0.95391631417670719 0.89584263333814784 0 0.97435614836744289 0.92499999999990257 0 0.94399509803919068 0.9439950980391687 0 0.97435614836744289 0.92499999999990257 0 0.94399509803919068 0.9439950980391687 0 0.97166519676946206 0.96662885509935492 0 0.97435614836744289 0.92499999999990257 0 0.97166519676946206 0.96662885509935492 0 1 0.94999999999997109 0 0.97166519676946206 0.96662885509935492 0 1 0.94999999999997109 0 1 1 0 0.97166519676946206 0.96662885509935492 0 1 1 0 0.94999999999979179 1 0 0.94399509803919068 0.9439950980391687 0 0.97166519676946206 0.96662885509935492 0 0.94999999999979179 1 0 0.94999999999979179 1 0 0.89898474358632463 0.95391965591118966 0 0.89999999999958358 1 0 0.94399509803919068 0.9439950980391687 0 0.94999999999979179 1 0 0.89898474358632463 0.95391965591118966 0 0.84999999999965292 1 0 0.89898474358632463 0.95391965591118966 0 0.89999999999958358 1 0 0.81723410853263523 0.59419663659258926 0 0.86956835336234861 0.571283299838105 0 0.82862096804812391 0.55037090955459045 0 0.81723410853263523 0.59419663659258926 0 0.87159648282691515 0.61285406320581504 0 0.83758014339878906 0.63222013025741819 0 0.81723410853263523 0.59419663659258926 0 0.79884539758237771 0.62875045078114233 0 0.83758014339878906 0.63222013025741819 0 0.81723410853263523 0.59419663659258926 0 0.87159648282691515 0.61285406320581504 0 0.86956835336234861 0.571283299838105 0 0.86956835336234861 0.571283299838105 0 0.86907294890112186 0.52008116128001669 0 0.82862096804812391 0.55037090955459045 0 0.86907294890112186 0.52008116128001669 0 0.81441713509985358 0.51161854125224959 0 0.82862096804812391 0.55037090955459045 0 0.86907294890112186 0.52008116128001669 0 0.81441713509985358 0.51161854125224959 0 0.84723782639812573 0.48638347960178252 0 0.81441713509985358 0.51161854125224959 0 0.82862096804812391 0.55037090955459045 0 0.77151014687832564 0.54436834383023036 0 0.81441713509985358 0.51161854125224959 0 0.77151014687832564 0.54436834383023036 0 0.77846603114747959 0.49850927265137401 0 0.77151014687832564 0.54436834383023036 0 0.77846603114747959 0.49850927265137401 0 0.73947346780852752 0.49062440112282169 0 0.71809016091162536 0.58185040402320831 0 0.77151014687832564 0.54436834383023036 0 0.77293540622714185 0.59448302402785813 0 0.81723410853263523 0.59419663659258926 0 0.77151014687832564 0.54436834383023036 0 0.77293540622714185 0.59448302402785813 0 0.81723410853263523 0.59419663659258926 0 0.82862096804812391 0.55037090955459045 0 0.77151014687832564 0.54436834383023036 0 0.81723410853263523 0.59419663659258926 0 0.77293540622714185 0.59448302402785813 0 0.79884539758237771 0.62875045078114233 0 0.74994237037456724 0.62775548192980357 0 0.77293540622714185 0.59448302402785813 0 0.79884539758237771 0.62875045078114233 0 0.74994237037456724 0.62775548192980357 0 0.7750489929959945 0.66593931409600093 0 0.79884539758237771 0.62875045078114233 0 0.74999999999999989 0.69999999999999996 0 0.72500000000000064 0.67022701834392062 0 0.7750489929959945 0.66593931409600093 0 0.7750489929959945 0.66593931409600093 0 0.79999999999999982 0.69999999999999996 0 0.82457059160610424 0.66831947184359608 0 0.7750489929959945 0.66593931409600093 0 0.79884539758237771 0.62875045078114233 0 0.82457059160610424 0.66831947184359608 0 0.74999999999999989 0.69999999999999996 0 0.75841349681148107 0.75422312624214749 0 0.78578450296893509 0.73292684821144505 0 0.74999999999999989 0.69999999999999996 0 0.79999999999999982 0.69999999999999996 0 0.78578450296893509 0.73292684821144505 0 0.74999999999999989 0.69999999999999996 0 0.7750489929959945 0.66593931409600093 0 0.79999999999999982 0.69999999999999996 0 0.74999999999999989 0.69999999999999996 0 0.79999999999999982 0.69999999999999996 0 0.80185942888539485 0.77452061303608133 0 0.78578450296893509 0.73292684821144505 0 0.81864958914779962 0.73589050177899629 0 0.79999999999999982 0.69999999999999996 0 0.78578450296893509 0.73292684821144505 0 0.81864958914779962 0.73589050177899629 0 0.85491058998424563 0.76004753345552634 0 0.81864958914779962 0.73589050177899629 0 0.84999999999999987 0.69999999999999996 0 0.79999999999999982 0.69999999999999996 0 0.84999999999999987 0.69999999999999996 0 0.79999999999999982 0.69999999999999996 0 0.84999999999999987 0.69999999999999996 0 0.82457059160610424 0.66831947184359608 0 0.79999999999999982 0.69999999999999996 0 0.81864958914779962 0.73589050177899629 0 0.84999999999999987 0.69999999999999996 0 0.84999999999999987 0.69999999999999996 0 0.89999999999999991 0.69999999999999996 0 0.85491058998424563 0.76004753345552634 0 0.84999999999999987 0.69999999999999996 0 0.89999166460796554 0.74528934923809909 0 0.79884539758237771 0.62875045078114233 0 0.83758014339878906 0.63222013025741819 0 0.82457059160610424 0.66831947184359608 0 0.84999999999999987 0.69999999999999996 0 0.82457059160610424 0.66831947184359608 0 0.87712158428786946 0.65709029563313581 0 0.87159648282691515 0.61285406320581504 0 0.83758014339878906 0.63222013025741819 0 0.87712158428786946 0.65709029563313581 0 0.83758014339878906 0.63222013025741819 0 0.82457059160610424 0.66831947184359608 0 0.87712158428786946 0.65709029563313581 0 0.87712158428786946 0.65709029563313581 0 0.92057473616084773 0.66770436535372446 0 0.91750694127105259 0.63017627779935648 0 0.87159648282691515 0.61285406320581504 0 0.87712158428786946 0.65709029563313581 0 0.91750694127105259 0.63017627779935648 0 0.84999999999999987 0.69999999999999996 0 0.87712158428786946 0.65709029563313581 0 0.89999999999999991 0.69999999999999996 0 0.87712158428786946 0.65709029563313581 0 0.92057473616084773 0.66770436535372446 0 0.89999999999999991 0.69999999999999996 0 0.92057473616084773 0.66770436535372446 0 0.91750694127105259 0.63017627779935648 0 0.9578014258160763 0.65787212321113708 0 0.84999999999999987 0.69999999999999996 0 0.89999166460796554 0.74528934923809909 0 0.89999999999999991 0.69999999999999996 0 0.89999999999999991 0.69999999999999996 0 0.94999999999999996 0.69999999999999996 0 0.92057473616084773 0.66770436535372446 0 0.89999999999999991 0.69999999999999996 0 0.94999999999999996 0.69999999999999996 0 0.89999166460796554 0.74528934923809909 0 0.89999999999999991 0.69999999999999996 0 0.94999999999999996 0.69999999999999996 0 0.94399509803918602 0.75600490196082126 0 0.89999166460796554 0.74528934923809909 0 0.94999999999999996 0.69999999999999996 0 0.94399509803918602 0.75600490196082126 0 0.94999999999999996 0.69999999999999996 0 0.97166519676947294 0.73337114490064459 0 0.94999999999999996 0.69999999999999996 0 1 0.69999999999999996 0 0.94999999999999996 0.69999999999999996 0 1 0.69999999999999996 0 0.97166519676947294 0.73337114490064459 0 1 0.69999999999999996 0 0.97166519676947294 0.73337114490064459 0 1 0.74999999999993494 0 0.91750694127105259 0.63017627779935648 0 0.9578014258160763 0.65787212321113708 0 0.95867599106212187 0.60011091146651041 0 0.92057473616084773 0.66770436535372446 0 0.94999999999999996 0.69999999999999996 0 0.9578014258160763 0.65787212321113708 0 0.94999999999999996 0.69999999999999996 0 1 0.69999999999999996 0 0.9578014258160763 0.65787212321113708 0 1 0.69999999999999996 0 0.9578014258160763 0.65787212321113708 0 1 0.64999999999986979 0 0.9578014258160763 0.65787212321113708 0 1 0.64999999999986979 0 0.95867599106212187 0.60011091146651041 0 0.95867599106212187 0.60011091146651041 0 0.93732437411268477 0.55911392101136159 0 1 0.54999999999963112 0 1 0.64999999999986979 0 1 0.59999999999973963 0 0.95867599106212187 0.60011091146651041 0 1 0.59999999999973963 0 0.95867599106212187 0.60011091146651041 0 1 0.54999999999963112 0 0.91750694127105259 0.63017627779935648 0 0.95867599106212187 0.60011091146651041 0 0.91143117093204207 0.58709913730335972 0 0.95867599106212187 0.60011091146651041 0 0.91143117093204207 0.58709913730335972 0 0.93732437411268477 0.55911392101136159 0 0.86956835336234861 0.571283299838105 0 0.91143117093204207 0.58709913730335972 0 0.90900154012161016 0.53607784105648792 0 0.87159648282691515 0.61285406320581504 0 0.86956835336234861 0.571283299838105 0 0.91143117093204207 0.58709913730335972 0 0.87159648282691515 0.61285406320581504 0 0.91750694127105259 0.63017627779935648 0 0.91143117093204207 0.58709913730335972 0 0.86907294890112186 0.52008116128001669 0 0.90900154012161016 0.53607784105648792 0 0.91696753777131557 0.497780560203536 0 0.86956835336234861 0.571283299838105 0 0.86907294890112186 0.52008116128001669 0 0.90900154012161016 0.53607784105648792 0 0.90900154012161016 0.53607784105648792 0 0.93732437411268477 0.55911392101136159 0 0.95631871884947484 0.51827533208233789 0 0.91143117093204207 0.58709913730335972 0 0.90900154012161016 0.53607784105648792 0 0.93732437411268477 0.55911392101136159 0 0.90900154012161016 0.53607784105648792 0 0.95631871884947484 0.51827533208233789 0 0.91696753777131557 0.497780560203536 0 0.93732437411268477 0.55911392101136159 0 0.95631871884947484 0.51827533208233789 0 1 0.54999999999963112 0 0.95631871884947484 0.51827533208233789 0 1 0.54999999999963112 0 1 0.49999999999950101 0 0.95631871884947484 0.51827533208233789 0 1 0.49999999999950101 0 0.96228564064454991 0.48206450662049471 0 1 0.49999999999950101 0 1 0.44999999999963131 0 0.96228564064454991 0.48206450662049471 0 1 0.44999999999963131 0 0.93814194660195893 0.44426664081746747 0 0.96228564064454991 0.48206450662049471 0 0.93814194660195893 0.44426664081746747 0 0.96228564064454991 0.48206450662049471 0 0.91696753777131557 0.497780560203536 0 0.95631871884947484 0.51827533208233789 0 0.96228564064454991 0.48206450662049471 0 0.91696753777131557 0.497780560203536 0 1 0.39999999999978308 0 0.95871855522754235 0.40006508612975411 0 1 0.34999999999993492 0 1 0.44999999999963131 0 1 0.39999999999978308 0 0.95871855522754235 0.40006508612975411 0 1 0.44999999999963131 0 0.93814194660195893 0.44426664081746747 0 0.95871855522754235 0.40006508612975411 0 0.95871855522754235 0.40006508612975411 0 0.90594285160987287 0.4141265964174129 0 0.91750694127107502 0.36982372220068471 0 0.93814194660195893 0.44426664081746747 0 0.95871855522754235 0.40006508612975411 0 0.90594285160987287 0.4141265964174129 0 0.90594285160987287 0.4141265964174129 0 0.88594198078881503 0.46167788676578442 0 0.86411095495256451 0.42388805655111889 0 0.90594285160987287 0.4141265964174129 0 0.86411095495256451 0.42388805655111889 0 0.86844634540301924 0.38530937474099819 0 0.90594285160987287 0.4141265964174129 0 0.86844634540301924 0.38530937474099819 0 0.91750694127107502 0.36982372220068471 0 0.93814194660195893 0.44426664081746747 0 0.91696753777131557 0.497780560203536 0 0.88594198078881503 0.46167788676578442 0 0.93814194660195893 0.44426664081746747 0 0.90594285160987287 0.4141265964174129 0 0.88594198078881503 0.46167788676578442 0 0.86907294890112186 0.52008116128001669 0 0.91696753777131557 0.497780560203536 0 0.88594198078881503 0.46167788676578442 0 0.86907294890112186 0.52008116128001669 0 0.88594198078881503 0.46167788676578442 0 0.84723782639812573 0.48638347960178252 0 0.81441713509985358 0.51161854125224959 0 0.84723782639812573 0.48638347960178252 0 0.81400510706333218 0.47357325943904899 0 0.84723782639812573 0.48638347960178252 0 0.81400510706333218 0.47357325943904899 0 0.84925632466077294 0.45359738909549091 0 0.81400510706333218 0.47357325943904899 0 0.84925632466077294 0.45359738909549091 0 0.81973119833356312 0.43505687159469048 0 0.88594198078881503 0.46167788676578442 0 0.84723782639812573 0.48638347960178252 0 0.84925632466077294 0.45359738909549091 0 0.84925632466077294 0.45359738909549091 0 0.86411095495256451 0.42388805655111889 0 0.81973119833356312 0.43505687159469048 0 0.88594198078881503 0.46167788676578442 0 0.84925632466077294 0.45359738909549091 0 0.86411095495256451 0.42388805655111889 0 0.86411095495256451 0.42388805655111889 0 0.86844634540301924 0.38530937474099819 0 0.81308179852519835 0.39754945808726527 0 0.86844634540301924 0.38530937474099819 0 0.81308179852519835 0.39754945808726527 0 0.83573492347052902 0.36590755630746369 0 0.86411095495256451 0.42388805655111889 0 0.81308179852519835 0.39754945808726527 0 0.81973119833356312 0.43505687159469048 0 0.81973119833356312 0.43505687159469048 0 0.77354604466818633 0.40378688774472771 0 0.77972660463949339 0.45529290596363098 0 0.81308179852519835 0.39754945808726527 0 0.81973119833356312 0.43505687159469048 0 0.77354604466818633 0.40378688774472771 0 0.81308179852519835 0.39754945808726527 0 0.77354604466818633 0.40378688774472771 0 0.78145581580700685 0.34881365920033602 0 0.77354604466818633 0.40378688774472771 0 0.77972660463949339 0.45529290596363098 0 0.73483647259922602 0.44789725365921768 0 0.77972660463949339 0.45529290596363098 0 0.73483647259922602 0.44789725365921768 0 0.73947346780852752 0.49062440112282169 0 0.77972660463949339 0.45529290596363098 0 0.77846603114747959 0.49850927265137401 0 0.73947346780852752 0.49062440112282169 0 0.81400510706333218 0.47357325943904899 0 0.77972660463949339 0.45529290596363098 0 0.77846603114747959 0.49850927265137401 0 0.81441713509985358 0.51161854125224959 0 0.81400510706333218 0.47357325943904899 0 0.77846603114747959 0.49850927265137401 0 0.81400510706333218 0.47357325943904899 0 0.81973119833356312 0.43505687159469048 0 0.77972660463949339 0.45529290596363098 0 0.79999999999999982 0.29999999999999999 0 0.77075983436335049 0.25919399014334171 0 0.81486180804364938 0.26321394949780091 0 0.79999999999999982 0.29999999999999999 0 0.74999999999999989 0.29999999999999999 0 0.79999999999999982 0.29999999999999999 0 0.77075983436335049 0.25919399014334171 0 0.74999999999999989 0.29999999999999999 0 0.79999999999999982 0.29999999999999999 0 0.78145581580700685 0.34881365920033602 0 0.74999999999999989 0.29999999999999999 0 0.78145581580700685 0.34881365920033602 0 0.73090396928863699 0.33699297293167962 0 0.74999999999999989 0.29999999999999999 0 0.77354604466818633 0.40378688774472771 0 0.78145581580700685 0.34881365920033602 0 0.74764719760526988 0.3719647154012321 0 0.78145581580700685 0.34881365920033602 0 0.74764719760526988 0.3719647154012321 0 0.73090396928863699 0.33699297293167962 0 0.81308179852519835 0.39754945808726527 0 0.78145581580700685 0.34881365920033602 0 0.83573492347052902 0.36590755630746369 0 0.79999999999999982 0.29999999999999999 0 0.78145581580700685 0.34881365920033602 0 0.82500000000000062 0.33010209762754811 0 0.78145581580700685 0.34881365920033602 0 0.82500000000000062 0.33010209762754811 0 0.83573492347052902 0.36590755630746369 0 0.82500000000000062 0.33010209762754811 0 0.83573492347052902 0.36590755630746369 0 0.87430060258887643 0.34056085888204451 0 0.86844634540301924 0.38530937474099819 0 0.83573492347052902 0.36590755630746369 0 0.87430060258887643 0.34056085888204451 0 0.82500000000000062 0.33010209762754811 0 0.87430060258887643 0.34056085888204451 0 0.84999999999999987 0.29999999999999999 0 0.87430060258887643 0.34056085888204451 0 0.84999999999999987 0.29999999999999999 0 0.89999999999999991 0.29999999999999999 0 0.84999999999999987 0.29999999999999999 0 0.81486180804364938 0.26321394949780091 0 0.8517097391133297 0.2356960729520409 0 0.84999999999999987 0.29999999999999999 0 0.89898474358614167 0.25391965591104898 0 0.8517097391133297 0.2356960729520409 0 0.84999999999999987 0.29999999999999999 0 0.89999999999999991 0.29999999999999999 0 0.79999999999999982 0.29999999999999999 0 0.82500000000000062 0.33010209762754811 0 0.84999999999999987 0.29999999999999999 0 0.79999999999999982 0.29999999999999999 0 0.84999999999999987 0.29999999999999999 0 0.81486180804364938 0.26321394949780091 0 0.79999999999999982 0.29999999999999999 0 0.84999999999999987 0.29999999999999999 0 0.84999999999999987 0.29999999999999999 0 0.89898474358614167 0.25391965591104898 0 0.89999999999999991 0.29999999999999999 0 0.89999999999999991 0.29999999999999999 0 0.94999999999999996 0.29999999999999999 0 0.89999999999999991 0.29999999999999999 0 0.92012390126144183 0.33123581297173937 0 0.94999999999999996 0.29999999999999999 0 0.89898474358614167 0.25391965591104898 0 0.89999999999999991 0.29999999999999999 0 0.94999999999999996 0.29999999999999999 0 0.89898474358614167 0.25391965591104898 0 0.94999999999999996 0.29999999999999999 0 0.94399509803921056 0.24399509803922639 0 0.86844634540301924 0.38530937474099819 0 0.87430060258887643 0.34056085888204451 0 0.91750694127107502 0.36982372220068471 0 0.87430060258887643 0.34056085888204451 0 0.92012390126144183 0.33123581297173937 0 0.91750694127107502 0.36982372220068471 0 0.87430060258887643 0.34056085888204451 0 0.89999999999999991 0.29999999999999999 0 0.92012390126144183 0.33123581297173937 0 0.92012390126144183 0.33123581297173937 0 0.91750694127107502 0.36982372220068471 0 0.95780851984364423 0.34215720972155339 0 0.95871855522754235 0.40006508612975411 0 0.91750694127107502 0.36982372220068471 0 0.95780851984364423 0.34215720972155339 0 0.92012390126144183 0.33123581297173937 0 0.95780851984364423 0.34215720972155339 0 0.94999999999999996 0.29999999999999999 0 0.95780851984364423 0.34215720972155339 0 0.94999999999999996 0.29999999999999999 0 1 0.29999999999999999 0 0.95780851984364423 0.34215720972155339 0 1 0.34999999999993492 0 1 0.29999999999999999 0 0.95871855522754235 0.40006508612975411 0 0.95780851984364423 0.34215720972155339 0 1 0.34999999999993492 0 0.94999999999999996 0.29999999999999999 0 0.97166519676951801 0.26662885509932011 0 0.94399509803921056 0.24399509803922639 0 0.94999999999999996 0.29999999999999999 0 1 0.29999999999999999 0 0.94999999999999996 0.29999999999999999 0 1 0.29999999999999999 0 0.97166519676951801 0.26662885509932011 0 1 0.29999999999999999 0 0.97166519676951801 0.26662885509932011 0 1 0.24999999999987299 0 0.97166519676951801 0.26662885509932011 0 0.97435614836740092 0.22499999999981049 0 1 0.24999999999987299 0 0.97435614836740092 0.22499999999981049 0 1 0.24999999999987299 0 1 0.19999999999974799 0 0.97435614836740092 0.22499999999981049 0 0.94399509803921056 0.24399509803922639 0 0.95391631417672862 0.19584263333809451 0 0.97166519676951801 0.26662885509932011 0 0.97435614836740092 0.22499999999981049 0 0.94399509803921056 0.24399509803922639 0 0.97435614836740092 0.22499999999981049 0 0.95391631417672862 0.19584263333809451 0 1 0.19999999999974799 0 0.95391631417672862 0.19584263333809451 0 1 0.14999999999961891 0 0.93677536231883773 0.14999999999999089 0 1 0.14999999999961891 0 0.93677536231883773 0.14999999999999089 0 0.95386563387744361 0.1041487415577465 0 0.95391631417672862 0.19584263333809451 0 1 0.19999999999974799 0 1 0.14999999999961891 0 0.95391631417672862 0.19584263333809451 0 0.93677536231883773 0.14999999999999089 0 0.90416666666668166 0.20416666666667119 0 0.93677536231883773 0.14999999999999089 0 0.88088768115941807 0.14674609810479519 0 0.90416666666668166 0.20416666666667119 0 0.93677536231883773 0.14999999999999089 0 0.88088768115941807 0.14674609810479519 0 0.90299850604006393 0.09563452813493091 0 0.88088768115941807 0.14674609810479519 0 0.90416666666668166 0.20416666666667119 0 0.85600844944842547 0.1848341897950983 0 0.89898474358614167 0.25391965591104898 0 0.90416666666668166 0.20416666666667119 0 0.8517097391133297 0.2356960729520409 0 0.89898474358614167 0.25391965591104898 0 0.94399509803921056 0.24399509803922639 0 0.90416666666668166 0.20416666666667119 0 0.94399509803921056 0.24399509803922639 0 0.95391631417672862 0.19584263333809451 0 0.90416666666668166 0.20416666666667119 0 0.94999999999986839 0 0 0.97166519676946894 0.033371144900598393 0 0.94399509803922566 0.056004901960802607 0 0.94999999999986839 0 0 1 0 0 0.97166519676946894 0.033371144900598393 0 1 0 0 1 0.049999999999896842 0 0.97166519676946894 0.033371144900598393 0 1 0.049999999999896842 0 0.97166519676946894 0.033371144900598393 0 0.97435614836748241 0.074999999999825387 0 0.97166519676946894 0.033371144900598393 0 0.94399509803922566 0.056004901960802607 0 0.97435614836748241 0.074999999999825387 0 0.94399509803922566 0.056004901960802607 0 0.97435614836748241 0.074999999999825387 0 0.95386563387744361 0.1041487415577465 0 0.97435614836748241 0.074999999999825387 0 1 0.099999999999753911 0 0.95386563387744361 0.1041487415577465 0 1 0.049999999999896842 0 0.97435614836748241 0.074999999999825387 0 1 0.099999999999753911 0 1 0.14999999999961891 0 1 0.099999999999753911 0 0.95386563387744361 0.1041487415577465 0 0.93677536231883773 0.14999999999999089 0 0.95386563387744361 0.1041487415577465 0 0.90299850604006393 0.09563452813493091 0 0.88088768115941807 0.14674609810479519 0 0.90299850604006393 0.09563452813493091 0 0.84725310900442086 0.10779732082922661 0 0.90299850604006393 0.09563452813493091 0 0.899991664607802 0.045289349238254978 0 0.85491058998398861 0.060047533455626502 0 0.94399509803922566 0.056004901960802607 0 0.95386563387744361 0.1041487415577465 0 0.90299850604006393 0.09563452813493091 0 0.94399509803922566 0.056004901960802607 0 0.90299850604006393 0.09563452813493091 0 0.899991664607802 0.045289349238254978 0 0.94999999999986839 0 0 0.94399509803922566 0.056004901960802607 0 0.899991664607802 0.045289349238254978 0 0.899991664607802 0.045289349238254978 0 0.89999999999973679 0 0 0.84999999999960507 0 0 0.94999999999986839 0 0 0.899991664607802 0.045289349238254978 0 0.89999999999973679 0 0 0.84999999999960507 0 0 0.81864958914740749 0.035890501779055867 0 0.79999999999947335 0 0 0.899991664607802 0.045289349238254978 0 0.84999999999960507 0 0 0.85491058998398861 0.060047533455626502 0 0.85491058998398861 0.060047533455626502 0 0.81864958914740749 0.035890501779055867 0 0.80185942888501827 0.074520613036224564 0 0.84999999999960507 0 0 0.85491058998398861 0.060047533455626502 0 0.81864958914740749 0.035890501779055867 0 0.85491058998398861 0.060047533455626502 0 0.84725310900442086 0.10779732082922661 0 0.80185942888501827 0.074520613036224564 0 0.90299850604006393 0.09563452813493091 0 0.85491058998398861 0.060047533455626502 0 0.84725310900442086 0.10779732082922661 0 0.84725310900442086 0.10779732082922661 0 0.80076557130237269 0.1154587552654202 0 0.80185942888501827 0.074520613036224564 0 0.84725310900442086 0.10779732082922661 0 0.80076557130237269 0.1154587552654202 0 0.82709327591102189 0.14937141670914489 0 0.80076557130237269 0.1154587552654202 0 0.76878382444651716 0.097147941686331368 0 0.80185942888501827 0.074520613036224564 0 0.76878382444651716 0.097147941686331368 0 0.77144070960558853 0.14311854477243749 0 0.72525833953073282 0.1032114801687094 0 0.80076557130237269 0.1154587552654202 0 0.76878382444651716 0.097147941686331368 0 0.77144070960558853 0.14311854477243749 0 0.76878382444651716 0.097147941686331368 0 0.80185942888501827 0.074520613036224564 0 0.7527966693318906 0.053051678021508272 0 0.81864958914740749 0.035890501779055867 0 0.80185942888501827 0.074520613036224564 0 0.78393852574753176 0.032039079577822822 0 0.80185942888501827 0.074520613036224564 0 0.78393852574753176 0.032039079577822822 0 0.7527966693318906 0.053051678021508272 0 0.78393852574753176 0.032039079577822822 0 0.7527966693318906 0.053051678021508272 0 0.74999999999934175 0 0 0.78393852574753176 0.032039079577822822 0 0.79999999999947335 0 0 0.74999999999934175 0 0 0.81864958914740749 0.035890501779055867 0 0.78393852574753176 0.032039079577822822 0 0.79999999999947335 0 0 0.81283102246527783 0.1881007222486438 0 0.8517097391133297 0.2356960729520409 0 0.79680861578956375 0.22656778056752541 0 0.81283102246527783 0.1881007222486438 0 0.8517097391133297 0.2356960729520409 0 0.85600844944842547 0.1848341897950983 0 0.81486180804364938 0.26321394949780091 0 0.8517097391133297 0.2356960729520409 0 0.79680861578956375 0.22656778056752541 0 0.90416666666668166 0.20416666666667119 0 0.8517097391133297 0.2356960729520409 0 0.85600844944842547 0.1848341897950983 0 0.88088768115941807 0.14674609810479519 0 0.85600844944842547 0.1848341897950983 0 0.82709327591102189 0.14937141670914489 0 0.88088768115941807 0.14674609810479519 0 0.84725310900442086 0.10779732082922661 0 0.82709327591102189 0.14937141670914489 0 0.81283102246527783 0.1881007222486438 0 0.85600844944842547 0.1848341897950983 0 0.82709327591102189 0.14937141670914489 0 0.81283102246527783 0.1881007222486438 0 0.77144070960558853 0.14311854477243749 0 0.76587607630038135 0.18880039518954719 0 0.81283102246527783 0.1881007222486438 0 0.82709327591102189 0.14937141670914489 0 0.77144070960558853 0.14311854477243749 0 0.80076557130237269 0.1154587552654202 0 0.82709327591102189 0.14937141670914489 0 0.77144070960558853 0.14311854477243749 0 0.77144070960558853 0.14311854477243749 0 0.76587607630038135 0.18880039518954719 0 0.72634814642510737 0.16106886917518889 0 0.76587607630038135 0.18880039518954719 0 0.79680861578956375 0.22656778056752541 0 0.75668890529066124 0.2244279804069782 0 0.81283102246527783 0.1881007222486438 0 0.76587607630038135 0.18880039518954719 0 0.79680861578956375 0.22656778056752541 0 0.77075983436335049 0.25919399014334171 0 0.81486180804364938 0.26321394949780091 0 0.79680861578956375 0.22656778056752541 0 0.77075983436335049 0.25919399014334171 0 0.79680861578956375 0.22656778056752541 0 0.75668890529066124 0.2244279804069782 0 0.77075983436335049 0.25919399014334171 0 0.75668890529066124 0.2244279804069782 0 0.72500000000000064 0.2498161764706 0 0.75668890529066124 0.2244279804069782 0 0.72500000000000064 0.2498161764706 0 0.72500000000001008 0.19776155966387679 0 0.72500000000000064 0.2498161764706 0 0.69397719155551807 0.2245125647000914 0 0.72500000000001008 0.19776155966387679 0 0.72500000000000064 0.2498161764706 0 0.69397719155551807 0.2245125647000914 0 0.67933712972090698 0.25920070958121938 0 0.69397719155551807 0.2245125647000914 0 0.72500000000001008 0.19776155966387679 0 0.6865991819015953 0.189116534044597 0 0.76587607630038135 0.18880039518954719 0 0.75668890529066124 0.2244279804069782 0 0.72500000000001008 0.19776155966387679 0 0.76587607630038135 0.18880039518954719 0 0.72500000000001008 0.19776155966387679 0 0.72634814642510737 0.16106886917518889 0 0.77144070960558853 0.14311854477243749 0 0.72634814642510737 0.16106886917518889 0 0.72525833953073282 0.1032114801687094 0 0.72634814642510737 0.16106886917518889 0 0.68391457121233579 0.14440470121196541 0 0.72525833953073282 0.1032114801687094 0 0.72500000000001008 0.19776155966387679 0 0.72634814642510737 0.16106886917518889 0 0.6865991819015953 0.189116534044597 0 0.72634814642510737 0.16106886917518889 0 0.68391457121233579 0.14440470121196541 0 0.6865991819015953 0.189116534044597 0 0.68391457121233579 0.14440470121196541 0 0.64011864159029941 0.18789607982138171 0 0.6865991819015953 0.189116534044597 0 0.68391457121233579 0.14440470121196541 0 0.65290632656860115 0.11434202593454081 0 0.6236733212988993 0.14864538214901801 0 0.68391457121233579 0.14440470121196541 0 0.64011864159029941 0.18789607982138171 0 0.6236733212988993 0.14864538214901801 0 0.64011864159029941 0.18789607982138171 0 0.65394964615507722 0.22666784374016369 0 0.59814117807200873 0.23398510860739519 0 0.65394964615507722 0.22666784374016369 0 0.59814117807200873 0.23398510860739519 0 0.62657463266645097 0.26524202571255862 0 0.69397719155551807 0.2245125647000914 0 0.65394964615507722 0.22666784374016369 0 0.67933712972090698 0.25920070958121938 0 0.64011864159029941 0.18789607982138171 0 0.65394964615507722 0.22666784374016369 0 0.6865991819015953 0.189116534044597 0 0.69397719155551807 0.2245125647000914 0 0.65394964615507722 0.22666784374016369 0 0.6865991819015953 0.189116534044597 0 0.69999999999921003 0 0 0.72683645290270404 0.027797073151180601 0 0.7010294155333181 0.056779085686491267 0 0.69999999999921003 0 0 0.7010294155333181 0.056779085686491267 0 0.66369801598854572 0.036327466368102787 0 0.7527966693318906 0.053051678021508272 0 0.74999999999934175 0 0 0.72683645290270404 0.027797073151180601 0 0.69999999999921003 0 0 0.74999999999934175 0 0 0.72683645290270404 0.027797073151180601 0 0.7527966693318906 0.053051678021508272 0 0.72683645290270404 0.027797073151180601 0 0.7010294155333181 0.056779085686491267 0 0.7010294155333181 0.056779085686491267 0 0.72525833953073282 0.1032114801687094 0 0.68330259535470161 0.10038702501083881 0 0.7527966693318906 0.053051678021508272 0 0.7010294155333181 0.056779085686491267 0 0.72525833953073282 0.1032114801687094 0 0.76878382444651716 0.097147941686331368 0 0.7527966693318906 0.053051678021508272 0 0.72525833953073282 0.1032114801687094 0 0.68391457121233579 0.14440470121196541 0 0.72525833953073282 0.1032114801687094 0 0.68330259535470161 0.10038702501083881 0 0.68330259535470161 0.10038702501083881 0 0.65290632656860115 0.11434202593454081 0 0.65408113592120842 0.073941773121567966 0 0.68391457121233579 0.14440470121196541 0 0.68330259535470161 0.10038702501083881 0 0.65290632656860115 0.11434202593454081 0 0.65290632656860115 0.11434202593454081 0 0.61956000905586006 0.1043312481793135 0 0.6236733212988993 0.14864538214901801 0 0.65290632656860115 0.11434202593454081 0 0.65408113592120842 0.073941773121567966 0 0.61956000905586006 0.1043312481793135 0 0.65408113592120842 0.073941773121567966 0 0.61940220174112337 0.047251958781050582 0 0.61956000905586006 0.1043312481793135 0 0.7010294155333181 0.056779085686491267 0 0.68330259535470161 0.10038702501083881 0 0.65408113592120842 0.073941773121567966 0 0.7010294155333181 0.056779085686491267 0 0.65408113592120842 0.073941773121567966 0 0.66369801598854572 0.036327466368102787 0 0.65408113592120842 0.073941773121567966 0 0.66369801598854572 0.036327466368102787 0 0.61940220174112337 0.047251958781050582 0 0.66369801598854572 0.036327466368102787 0 0.64999999999907843 0 0 0.61940220174112337 0.047251958781050582 0 0.69999999999921003 0 0 0.66369801598854572 0.036327466368102787 0 0.64999999999907843 0 0 0.59999999999894682 0 0 0.57396793757665954 0.037011367187645222 0 0.5499999999988151 0 0 0.64999999999907843 0 0 0.59999999999894682 0 0 0.61940220174112337 0.047251958781050582 0 0.59999999999894682 0 0 0.61940220174112337 0.047251958781050582 0 0.57396793757665954 0.037011367187645222 0 0.61940220174112337 0.047251958781050582 0 0.57396793757665954 0.037011367187645222 0 0.57667858002728545 0.078486105337742612 0 0.61940220174112337 0.047251958781050582 0 0.57667858002728545 0.078486105337742612 0 0.61956000905586006 0.1043312481793135 0 0.61956000905586006 0.1043312481793135 0 0.58516465772821369 0.11653801664834119 0 0.6236733212988993 0.14864538214901801 0 0.57667858002728545 0.078486105337742612 0 0.61956000905586006 0.1043312481793135 0 0.58516465772821369 0.11653801664834119 0 0.58516465772821369 0.11653801664834119 0 0.54979595918804436 0.1060565713905809 0 0.56202748619534593 0.15054058349222879 0 0.57667858002728545 0.078486105337742612 0 0.58516465772821369 0.11653801664834119 0 0.54979595918804436 0.1060565713905809 0 0.54979595918804436 0.1060565713905809 0 0.51076801031701946 0.1202837388510348 0 0.52375890611712683 0.059318771819432882 0 0.47881186583059909 0.093591717165689425 0 0.51076801031701946 0.1202837388510348 0 0.52375890611712683 0.059318771819432882 0 0.57667858002728545 0.078486105337742612 0 0.54979595918804436 0.1060565713905809 0 0.52375890611712683 0.059318771819432882 0 0.57396793757665954 0.037011367187645222 0 0.52375890611712683 0.059318771819432882 0 0.5499999999988151 0 0 0.57396793757665954 0.037011367187645222 0 0.57667858002728545 0.078486105337742612 0 0.52375890611712683 0.059318771819432882 0 0.49999999999869432 0 0 0.52375890611712683 0.059318771819432882 0 0.5499999999988151 0 0 0.59814117807200873 0.23398510860739519 0 0.59443395090188023 0.18455690917515069 0 0.55306006949600994 0.20198184231352201 0 0.59814117807200873 0.23398510860739519 0 0.55306006949600994 0.20198184231352201 0 0.54248833945060504 0.2520322959927106 0 0.64011864159029941 0.18789607982138171 0 0.59814117807200873 0.23398510860739519 0 0.59443395090188023 0.18455690917515069 0 0.64011864159029941 0.18789607982138171 0 0.59443395090188023 0.18455690917515069 0 0.6236733212988993 0.14864538214901801 0 0.58516465772821369 0.11653801664834119 0 0.6236733212988993 0.14864538214901801 0 0.56202748619534593 0.15054058349222879 0 0.59443395090188023 0.18455690917515069 0 0.6236733212988993 0.14864538214901801 0 0.56202748619534593 0.15054058349222879 0 0.59443395090188023 0.18455690917515069 0 0.56202748619534593 0.15054058349222879 0 0.55306006949600994 0.20198184231352201 0 0.56202748619534593 0.15054058349222879 0 0.51729576145820033 0.1683240575987815 0 0.55306006949600994 0.20198184231352201 0 0.54979595918804436 0.1060565713905809 0 0.51076801031701946 0.1202837388510348 0 0.56202748619534593 0.15054058349222879 0 0.48466639505193998 0.1421439844745814 0 0.51076801031701946 0.1202837388510348 0 0.51729576145820033 0.1683240575987815 0 0.51076801031701946 0.1202837388510348 0 0.56202748619534593 0.15054058349222879 0 0.51729576145820033 0.1683240575987815 0 0.51729576145820033 0.1683240575987815 0 0.50760557329222289 0.20700468884612061 0 0.55306006949600994 0.20198184231352201 0 0.50760557329222289 0.20700468884612061 0 0.55306006949600994 0.20198184231352201 0 0.54248833945060504 0.2520322959927106 0 0.49695729691142171 0.25014895411178018 0 0.50760557329222289 0.20700468884612061 0 0.54248833945060504 0.2520322959927106 0 0.49695729691142171 0.25014895411178018 0 0.5 0.29999999999999999 0 0.54248833945060504 0.2520322959927106 0 0.5 0.29999999999999999 0 0.54999999999999993 0.29999999999999999 0 0.52752007115234678 0.33170632466418198 0 0.5 0.29999999999999999 0 0.54999999999999993 0.29999999999999999 0 0.54248833945060504 0.2520322959927106 0 0.5 0.29999999999999999 0 0.54999999999999993 0.29999999999999999 0 0.54999999999999993 0.29999999999999999 0 0.54248833945060504 0.2520322959927106 0 0.5794309697024993 0.27124795968204829 0 0.59814117807200873 0.23398510860739519 0 0.54248833945060504 0.2520322959927106 0 0.5794309697024993 0.27124795968204829 0 0.54999999999999993 0.29999999999999999 0 0.59999999999999976 0.29999999999999999 0 0.54999999999999993 0.29999999999999999 0 0.5794309697024993 0.27124795968204829 0 0.59999999999999976 0.29999999999999999 0 0.59999999999999976 0.29999999999999999 0 0.6499999999999998 0.29999999999999999 0 0.5794309697024993 0.27124795968204829 0 0.59999999999999976 0.29999999999999999 0 0.62657463266645097 0.26524202571255862 0 0.59814117807200873 0.23398510860739519 0 0.5794309697024993 0.27124795968204829 0 0.62657463266645097 0.26524202571255862 0 0.61959173890754571 0.33832250091341232 0 0.56836770495988642 0.3523062350852913 0 0.6084546825910605 0.37989672713932537 0 0.59999999999999976 0.29999999999999999 0 0.61959173890754571 0.33832250091341232 0 0.6499999999999998 0.29999999999999999 0 0.59999999999999976 0.29999999999999999 0 0.61959173890754571 0.33832250091341232 0 0.56836770495988642 0.3523062350852913 0 0.54999999999999993 0.29999999999999999 0 0.59999999999999976 0.29999999999999999 0 0.56836770495988642 0.3523062350852913 0 0.56836770495988642 0.3523062350852913 0 0.52752007115234678 0.33170632466418198 0 0.52289427570932567 0.3932284363388488 0 0.54999999999999993 0.29999999999999999 0 0.56836770495988642 0.3523062350852913 0 0.52752007115234678 0.33170632466418198 0 0.49077833859261139 0.35229981449445641 0 0.5 0.29999999999999999 0 0.52752007115234678 0.33170632466418198 0 0.49077833859261139 0.35229981449445641 0 0.52752007115234678 0.33170632466418198 0 0.52289427570932567 0.3932284363388488 0 0.56836770495988642 0.3523062350852913 0 0.52289427570932567 0.3932284363388488 0 0.57744073070774993 0.41535148636609359 0 0.52289427570932567 0.3932284363388488 0 0.53823865529665704 0.45873898050322898 0 0.57744073070774993 0.41535148636609359 0 0.48858720058566618 0.43964267759203868 0 0.52289427570932567 0.3932284363388488 0 0.53823865529665704 0.45873898050322898 0 0.49102375406324739 0.49123754822244059 0 0.53330375813596242 0.50827942741749099 0 0.53823865529665704 0.45873898050322898 0 0.49102375406324739 0.49123754822244059 0 0.48858720058566618 0.43964267759203868 0 0.53823865529665704 0.45873898050322898 0 0.53330375813596242 0.50827942741749099 0 0.57611405284611883 0.50165903596042916 0 0.53823865529665704 0.45873898050322898 0 0.57611405284611883 0.50165903596042916 0 0.57975577671020095 0.46172033326338591 0 0.61547661924074692 0.48539576058873962 0 0.57611405284611883 0.50165903596042916 0 0.53823865529665704 0.45873898050322898 0 0.57975577671020095 0.46172033326338591 0 0.57975577671020095 0.46172033326338591 0 0.61209567303293111 0.44669033081290321 0 0.57744073070774993 0.41535148636609359 0 0.53823865529665704 0.45873898050322898 0 0.57975577671020095 0.46172033326338591 0 0.57744073070774993 0.41535148636609359 0 0.57975577671020095 0.46172033326338591 0 0.61209567303293111 0.44669033081290321 0 0.61547661924074692 0.48539576058873962 0 0.56836770495988642 0.3523062350852913 0 0.57744073070774993 0.41535148636609359 0 0.6084546825910605 0.37989672713932537 0 0.61209567303293111 0.44669033081290321 0 0.57744073070774993 0.41535148636609359 0 0.63912439215427275 0.41063340167983359 0 0.57744073070774993 0.41535148636609359 0 0.6084546825910605 0.37989672713932537 0 0.63912439215427275 0.41063340167983359 0 0.6084546825910605 0.37989672713932537 0 0.63912439215427275 0.41063340167983359 0 0.65481233915350323 0.35652751921065562 0 0.63912439215427275 0.41063340167983359 0 0.65178832218679827 0.45929119821019959 0 0.6879972333610942 0.43038561374960838 0 0.63912439215427275 0.41063340167983359 0 0.68128176404677243 0.38629093627004979 0 0.6879972333610942 0.43038561374960838 0 0.63912439215427275 0.41063340167983359 0 0.68128176404677243 0.38629093627004979 0 0.65481233915350323 0.35652751921065562 0 0.61547661924074692 0.48539576058873962 0 0.6541250972820879 0.49999999999999989 0 0.65178832218679827 0.45929119821019959 0 0.61209567303293111 0.44669033081290321 0 0.61547661924074692 0.48539576058873962 0 0.65178832218679827 0.45929119821019959 0 0.61209567303293111 0.44669033081290321 0 0.63912439215427275 0.41063340167983359 0 0.65178832218679827 0.45929119821019959 0 0.65178832218679827 0.45929119821019959 0 0.69385896817107129 0.48377516041410151 0 0.6879972333610942 0.43038561374960838 0 0.6541250972820879 0.49999999999999989 0 0.65178832218679827 0.45929119821019959 0 0.69385896817107129 0.48377516041410151 0 0.7152569930854884 0.5237994455134295 0 0.69385896817107129 0.48377516041410151 0 0.73947346780852752 0.49062440112282169 0 0.69385896817107129 0.48377516041410151 0 0.73483647259922602 0.44789725365921768 0 0.6879972333610942 0.43038561374960838 0 0.69385896817107129 0.48377516041410151 0 0.73483647259922602 0.44789725365921768 0 0.73947346780852752 0.49062440112282169 0 0.68128176404677243 0.38629093627004979 0 0.72622533758026719 0.40265885511101601 0 0.71508799138962864 0.36622814920737751 0 0.73483647259922602 0.44789725365921768 0 0.6879972333610942 0.43038561374960838 0 0.72622533758026719 0.40265885511101601 0 0.68128176404677243 0.38629093627004979 0 0.6879972333610942 0.43038561374960838 0 0.72622533758026719 0.40265885511101601 0 0.77354604466818633 0.40378688774472771 0 0.73483647259922602 0.44789725365921768 0 0.72622533758026719 0.40265885511101601 0 0.72622533758026719 0.40265885511101601 0 0.74764719760526988 0.3719647154012321 0 0.71508799138962864 0.36622814920737751 0 0.77354604466818633 0.40378688774472771 0 0.72622533758026719 0.40265885511101601 0 0.74764719760526988 0.3719647154012321 0 0.74764719760526988 0.3719647154012321 0 0.71508799138962864 0.36622814920737751 0 0.73090396928863699 0.33699297293167962 0 0.71508799138962864 0.36622814920737751 0 0.68887083591306764 0.33632058575757479 0 0.73090396928863699 0.33699297293167962 0 0.68128176404677243 0.38629093627004979 0 0.71508799138962864 0.36622814920737751 0 0.68887083591306764 0.33632058575757479 0 0.68887083591306764 0.33632058575757479 0 0.73090396928863699 0.33699297293167962 0 0.69999999999999984 0.29999999999999999 0 0.72500000000000064 0.2498161764706 0 0.74999999999999989 0.29999999999999999 0 0.69999999999999984 0.29999999999999999 0 0.74999999999999989 0.29999999999999999 0 0.69999999999999984 0.29999999999999999 0 0.73090396928863699 0.33699297293167962 0 0.74999999999999989 0.29999999999999999 0 0.69999999999999984 0.29999999999999999 0 0.77075983436335049 0.25919399014334171 0 0.72500000000000064 0.2498161764706 0 0.74999999999999989 0.29999999999999999 0 0.72500000000000064 0.2498161764706 0 0.69999999999999984 0.29999999999999999 0 0.67933712972090698 0.25920070958121938 0 0.69999999999999984 0.29999999999999999 0 0.67933712972090698 0.25920070958121938 0 0.6499999999999998 0.29999999999999999 0 0.68887083591306764 0.33632058575757479 0 0.69999999999999984 0.29999999999999999 0 0.6499999999999998 0.29999999999999999 0 0.69999999999999984 0.29999999999999999 0 0.6499999999999998 0.29999999999999999 0 0.67933712972090698 0.25920070958121938 0 0.62657463266645097 0.26524202571255862 0 0.6499999999999998 0.29999999999999999 0 0.65394964615507722 0.22666784374016369 0 0.67933712972090698 0.25920070958121938 0 0.62657463266645097 0.26524202571255862 0 0.59999999999999976 0.29999999999999999 0 0.62657463266645097 0.26524202571255862 0 0.6499999999999998 0.29999999999999999 0 0.61959173890754571 0.33832250091341232 0 0.6499999999999998 0.29999999999999999 0 0.65481233915350323 0.35652751921065562 0 0.61959173890754571 0.33832250091341232 0 0.6084546825910605 0.37989672713932537 0 0.65481233915350323 0.35652751921065562 0 0.68128176404677243 0.38629093627004979 0 0.68887083591306764 0.33632058575757479 0 0.65481233915350323 0.35652751921065562 0 0.68887083591306764 0.33632058575757479 0 0.6499999999999998 0.29999999999999999 0 0.65481233915350323 0.35652751921065562 0 
</DataArray>
</Points>
<Cells>
<DataArray type="UInt32" Name="connectivity" format="ascii">
0 1 2 3 4 5 6 7 8 9 10 11 12 13 14 15 16 17 18 19 20 21 22 23 24 25 26 27 28 29 30 31 32 33 34 35 36 37 38 39 40 41 42 43 44 45 46 47 48 49 50 51 52 53 54 55 56 57 58 59 60 61 62 63 64 65 66 67 68 69 70 71 72 73 74 75 76 77 78 79 80 81 82 83 84 85 86 87 88 89 90 91 92 93 94 95 96 97 98 99 100 101 102 103 104 105 106 107 108 109 110 111 112 113 114 115 116 117 118 119 120 121 122 123 124 125 126 127 128 129 130 131 132 133 134 135 136 137 138 139 140 141 142 143 144 145 146 147 148 149 150 151 152 153 154 155 156 157 158 159 160 161 162 163 164 165 166 167 168 169 170 171 172 173 174 175 176 177 178 179 180 181 182 183 184 185 186 187 188 189 190 191 192 193 194 195 196 197 198 199 200 201 202 203 204 205 206 207 208 209 210 211 212 213 214 215 216 217 218 219 220 221 222 223 224 225 226 227 228 229 230 231 232 233 234 235 236 237 238 239 240 241 242 243 244 245 246 247 248 249 250 251 252 253 254 255 256 257 258 259 260 261 262 263 264 265 266 267 268 269 270 271 272 273 274 275 276 277 278 279 280 281 282 283 284 285 286 287 288 289 290 291 292 293 294 295 296 297 298 299 300 301 302 303 304 305 306 307 308 309 310 311 312 313 314 315 316 317 318 319 320 321 322 323 324 325 326 327 328 329 330 331 332 333 334 335 336 337 338 339 340 341 342 343 344 345 346 347 348 349 350 351 352 353 354 355 356 357 358 359 360 361 362 363 364 365 366 367 368 369 370 371 372 373 374 375 376 377 378 379 380 381 382 383 384 385 386 387 388 389 390 391 392 393 394 395 396 397 398 399 400 401 402 403 404 405 406 407 408 409 410 411 412 413 414 415 416 417 418 419 420 421 422 423 424 425 426 427 428 429 430 431 432 433 434 435 436 437 438 439 440 441 442 443 444 445 446 447 448 449 450 451 452 453 454 455 456 457 458 459 460 461 462 463 464 465 466 467 468 469 470 471 472 473 474 475 476 477 478 479 480 481 482 483 484 485 486 487 488 489 490 491 492 493 494 495 496 497 498 499 500 501 502 503 504 505 506 507 508 509 510 511 512 513 514 515 516 517 518 519 520 521 522 523 524 525 526 527 528 529 530 531 532 533 534 535 536 537 538 539 540 541 542 543 544 545 546 547 548 549 550 551 552 553 554 555 556 557 558 559 560 561 562 563 564 565 566 567 568 569 570 571 572 573 574 575 576 577 578 579 580 581 582 583 584 585 586 587 588 589 590 591 592 593 594 595 596 597 598 599 600 601 602 603 604 605 606 607 608 609 610 611 612 613 614 615 616 617 618 619 620 621 622 623 624 625 626 627 628 629 630 631 632 633 634 635 636 637 638 639 640 641 642 643 644 645 646 647 648 649 650 651 652 653 654 655 656 657 658 659 660 661 662 663 664 665 666 667 668 669 670 671 672 673 674 675 676 677 678 679 680 681 682 683 684 685 686 687 688 689 690 691 692 693 694 695 696 697 698 699 700 701 702 703 704 705 706 707 708 709 710 711 712 713 714 715 716 717 718 719 720 721 722 723 724 725 726 727 728 729 730 731 732 733 734 735 736 737 738 739 740 741 742 743 744 745 746 747 748 749 750 751 752 753 754 755 756 757 758 759 760 761 762 763 764 765 766 767 768 769 770 771 772 773 774 775 776 777 778 779 780 781 782 783 784 785 786 787 788 789 790 791 792 793 794 795 796 797 798 799 800 801 802 803 804 805 806 807 808 809 810 811 812 813 814 815 816 817 818 819 820 821 822 823 824 825 826 827 828 829 830 831 832 833 834 835 836 837 838 839 840 841 842 843 844 845 846 847 848 849 850 851 852 853 854 855 856 857 858 859 860 861 862 863 864 865 866 867 868 869 870 871 872 873 874 875 876 877 878 879 880 881 882 883 884 885 886 887 888 889 890 891 892 893 894 895 896 897 898 899 900 901 902 903 904 905 906 907 908 909 910 911 912 913 914 915 916 917 918 919 920 921 922 923 924 925 926 927 928 929 930 931 932 933 934 935 936 937 938 939 940 941 942 943 944 945 946 947 948 949 950 951 952 953 954 955 956 957 958 959 960 961 962 963 964 965 966 967 968 969 970 971 972 973 974 975 976 977 978 979 980 981 982 983 984 985 986 987 988 989 990 991 992 993 994 995 996 997 998 999 1000 1001 1002 1003 1004 1005 1006 1007 1008 1009 1010 1011 1012 1013 1014 1015 1016 1017 1018 1019 1020 1021 1022 1023 1024 1025 1026 1027 1028 1029 1030 1031 1032 1033 1034 1035 1036 1037 1038 1039 1040 1041 1042 1043 1044 1045 1046 1047 1048 1049 1050 1051 1052 1053 1054 1055 1056 1057 1058 1059 1060 1061 1062 1063 1064 1065 1066 1067 1068 1069 1070 1071 1072 1073 1074 1075 1076 1077 1078 1079 1080 1081 1082 1083 1084 1085 1086 1087 1088 1089 1090 1091 1092 1093 1094 1095 1096 1097 1098 1099 1100 1101 1102 1103 1104 1105 1106 1107 1108 1109 1110 1111 1112 1113 1114 1115 1116 1117 1118 1119 1120 1121 1122 1123 1124 1125 1126 1127 1128 1129 1130 1131 1132 1133 1134 1135 1136 1137 1138 1139 1140 1141 1142 1143 1144 1145 1146 1147 1148 1149 1150 1151 1152 1153 1154 1155 1156 1157 1158 1159 1160 1161 1162 1163 1164 1165 1166 1167 1168 1169 1170 1171 1172 1173 1174 1175 1176 1177 1178 1179 1180 1181 1182 1183 1184 1185 1186 1187 1188 1189 1190 1191 1192 1193 1194 1195 1196 1197 1198 1199 1200 1201 1202 1203 1204 1205 1206 1207 1208 1209 1210 1211 1212 1213 1214 1215 1216 1217 1218 1219 1220 1221 1222 1223 1224 1225 1226 1227 1228 1229 1230 1231 1232 1233 1234 1235 1236 1237 1238 1239 1240 1241 1242 1243 1244 1245 1246 1247 1248 1249 1250 1251 1252 1253 1254 1255 1256 1257 1258 1259 1260 1261 1262 1263 1264 1265 1266 1267 1268 1269 1270 1271 1272 1273 1274 1275 1276 1277 1278 1279 1280 1281 1282 1283 1284 1285 1286 1287 1288 1289 1290 1291 1292 1293 1294 1295 1296 1297 1298 1299 1300 1301 1302 1303 1304 1305 1306 1307 1308 1309 1310 1311 1312 1313 1314 1315 1316 1317 1318 1319 1320 1321 1322 1323 1324 1325 1326 1327 1328 1329 1330 1331 1332 1333 1334 1335 1336 1337 1338 1339 1340 1341 1342 1343 1344 1345 1346 1347 1348 1349 1350 1351 1352 1353 1354 1355 1356 1357 1358 1359 1360 1361 1362 1363 1364 1365 1366 1367 1368 1369 1370 1371 1372 1373 1374 1375 1376 1377 1378 1379 1380 1381 1382 1383 1384 1385 1386 1387 1388 1389 1390 1391 1392 1393 1394 1395 1396 1397 1398 1399 1400 1401 1402 1403 1404 1405 1406 1407 1408 1409 1410 1411 1412 1413 1414 1415 1416 1417 1418 1419 1420 1421 1422 1423 1424 1425 1426 1427 1428 1429 1430 1431 1432 1433 1434 1435 1436 1437 1438 1439 1440 1441 1442 1443 1444 1445 1446 1447 1448 1449 1450 1451 1452 1453 1454 1455 1456 1457 1458 1459 1460 1461 1462 1463 1464 1465 1466 1467 1468 1469 1470 1471 1472 1473 1474 1475 1476 1477 1478 1479 1480 1481 1482 1483 1484 1485 1486 1487 1488 1489 1490 1491 1492 1493 1494 1495 1496 1497 1498 1499 1500 1501 1502 1503 1504 1505 1506 1507 1508 1509 1510 1511 1512 1513 1514 1515 1516 1517 1518 1519 1520 1521 1522 1523 1524 1525 1526 1527 1528 1529 1530 1531 1532 1533 1534 1535 1536 1537 1538 1539 1540 1541 1542 1543 1544 1545 1546 1547 1548 1549 1550 1551 1552 1553 1554 1555 1556 1557 1558 1559 1560 1561 1562 1563 1564 1565 1566 1567 1568 1569 1570 1571 1572 1573 1574 1575 1576 1577 1578 1579 1580 1581 1582 1583 1584 1585 1586 1587 1588 1589 1590 1591 1592 1593 1594 1595 1596 1597 1598 1599 1600 1601 1602 1603 1604 1605 1606 1607 1608 1609 1610 1611 1612 1613 1614 1615 1616 1617 1618 1619 1620 1621 1622 1623 1624 1625 1626 1627 1628 1629 1630 1631 1632 1633 1634 1635 1636 1637 1638 1639 1640 1641 1642 1643 1644 1645 1646 1647 1648 1649 1650 1651 1652 1653 1654 1655 1656 1657 1658 1659 1660 1661 1662 1663 1664 1665 1666 1667 1668 1669 1670 1671 1672 1673 1674 1675 1676 1677 1678 1679 1680 1681 1682 1683 1684 1685 1686 1687 1688 1689 1690 1691 1692 1693 1694 1695 1696 1697 1698 1699 1700 1701 1702 1703 1704 1705 1706 1707 1708 1709 1710 1711 1712 1713 1714 1715 1716 1717 1718 1719 1720 1721 1722 1723 1724 1725 1726 1727 1728 1729 1730 1731 1732 1733 1734 1735 1736 1737 1738 1739 1740 1741 1742 1743 1744 1745 1746 1747 1748 1749 1750 1751 1752 1753 1754 1755 1756 1757 1758 1759 1760 1761 1762 1763 1764 1765 1766 1767 1768 1769 1770 1771 1772 1773 1774 1775 1776 1777 1778 1779 1780 1781 1782 1783 1784 1785 1786 1787 1788 1789 1790 1791 1792 1793 1794 1795 1796 1797 1798 1799 1800 1801 1802 1803 1804 1805 1806 1807 1808 1809 1810 1811 1812 1813 1814 1815 1816 1817 1818 1819 1820 1821 1822 1823 1824 1825 1826 1827 1828 1829 1830 1831 1832 1833 1834 1835 1836 1837 1838 1839 1840 1841 1842 1843 1844 1845 1846 1847 1848 1849 1850 1851 1852 1853 1854 1855 1856 1857 1858 1859 1860 1861 1862 1863 1864 1865 1866 1867 1868 1869 1870 1871 1872 1873 1874 1875 1876 1877 1878 1879 1880 1881 1882 1883 1884 1885 1886 1887 1888 1889 1890 1891 1892 1893 1894 1895 1896 1897 1898 1899 1900 1901 1902 1903 1904 1905 1906 1907 1908 1909 1910 1911 1912 1913 1914 1915 1916 1917 1918 1919 1920 1921 1922 1923 1924 1925 1926 1927 1928 1929 1930 1931 1932 1933 1934 1935 1936 1937 1938 1939 1940 1941 1942 1943 1944 1945 1946 1947 1948 1949 1950 1951 1952 1953 1954 1955 1956 1957 1958 1959 1960 1961 1962 1963 1964 1965 1966 1967 1968 1969 1970 1971 1972 1973 1974 1975 1976 1977 1978 1979 1980 1981 1982 1983 1984 1985 1986 1987 1988 1989 1990 1991 1992 1993 1994 1995 1996 1997 1998 1999 2000 2001 2002 2003 2004 2005 2006 2007 2008 2009 2010 2011 2012 2013 2014 2015 2016 2017 2018 2019 2020 2021 2022 2023 2024 2025 2026 2027 2028 2029 2030 2031 2032 2033 2034 2035 2036 2037 2038 2039 2040 2041 2042 2043 2044 2045 2046 2047 2048 2049 2050 2051 2052 2053 2054 2055 2056 2057 2058 2059 2060 2061 2062 2063 2064 2065 2066 2067 2068 2069 2070 2071 2072 2073 2074 2075 2076 2077 2078 2079 2080 2081 2082 2083 2084 2085 2086 2087 2088 2089 2090 2091 2092 2093 2094 2095 2096 2097 2098 2099 2100 2101 2102 2103 2104 2105 2106 2107 2108 2109 2110 2111 2112 2113 2114 2115 2116 2117 2118 2119 2120 2121 2122 2123 2124 2125 2126 2127 2128 2129 2130 2131 2132 2133 2134 2135 2136 2137 2138 2139 2140 2141 2142 2143 2144 2145 2146 2147 2148 2149 2150 2151 2152 2153 2154 2155 2156 2157 2158 2159 2160 2161 2162 2163 2164 2165 2166 2167 2168 2169 2170 2171 2172 2173 2174 2175 2176 2177 2178 2179 2180 2181 2182 2183 2184 2185 2186 2187 2188 2189 2190 2191 2192 2193 2194 2195 2196 2197 2198 2199 2200 2201 2202 2203 2204 2205 2206 2207 2208 2209 2210 2211 2212 2213 2214 2215 2216 2217 2218 2219 2220 2221 2222 2223 2224 2225 2226 2227 2228 2229 2230 2231 2232 2233 2234 2235 2236 2237 2238 2239 2240 2241 2242 2243 2244 2245 2246 2247 2248 2249 2250 2251 2252 2253 2254 2255 2256 2257 2258 2259 2260 2261 2262 2263 2264 2265 2266 2267 2268 2269 2270 2271 2272 2273 2274 2275 2276 2277 2278 2279 2280 2281 2282 2283 2284 2285 2286 2287 2288 2289 2290 2291 2292 2293 2294 2295 2296 2297 2298 2299 2300 2301 2302 2303 2304 2305 2306 2307 2308 2309 2310 2311 2312 2313 2314 2315 2316 2317 2318 2319 2320 2321 2322 2323 2324 2325 2326 2327 2328 2329 2330 2331 2332 2333 2334 2335 2336 2337 2338 2339 2340 2341 2342 2343 2344 2345 2346 2347 2348 2349 2350 2351 2352 2353 2354 2355 2356 2357 2358 2359 2360 2361 2362 2363 2364 2365 2366 2367 2368 2369 2370 2371 2372 2373 2374 2375 2376 2377 2378 2379 2380 2381 2382 2383 2384 2385 2386 2387 2388 2389 2390 2391 2392 2393 2394 2395 2396 2397 2398 2399 2400 2401 2402 2403 2404 2405 2406 2407 2408 2409 2410 2411 2412 2413 2414 2415 2416 2417 2418 2419 2420 2421 2422 2423 2424 2425 2426 2427 2428 2429 2430 2431 2432 2433 2434 2435 2436 2437 2438 2439 2440 2441 2442 2443 2444 2445 2446 2447 2448 2449 2450 2451 2452 2453 2454 2455 2456 2457 2458 2459 2460 2461 2462 2463 2464 2465 2466 2467 2468 2469 2470 2471 2472 2473 2474 2475 2476 2477 2478 2479 2480 2481 2482 2483 2484 2485 2486 2487 2488 2489 2490 2491 2492 2493 2494 2495 2496 2497 2498 2499 2500 2501 2502 2503 2504 2505 2506 2507 2508 2509 2510 2511 2512 2513 2514 2515 2516 2517 2518 2519 2520 2521 2522 2523 2524 2525 2526 2527 2528 2529 2530 2531 2532 2533 2534 2535 2536 2537 2538 2539 2540 2541 2542 2543 2544 2545 2546 2547 2548 2549 2550 2551 2552 2553 2554 2555 2556 2557 2558 2559 2560 2561 2562 2563 2564 2565 2566 2567 2568 2569 2570 2571 2572 2573 2574 2575 2576 2577 2578 2579 2580 2581 2582 2583 2584 2585 2586 2587 2588 2589 2590 2591 2592 2593 2594 2595 2596 2597 2598 2599 2600 2601 2602 2603 2604 2605 2606 2607 2608 2609 2610 2611 2612 2613 2614 2615 2616 2617 2618 2619 2620 2621 2622 2623 2624 2625 2626 2627 2628 2629 2630 2631 2632 2633 2634 2635 2636 2637 2638 2639 2640 2641 2642 2643 2644 2645 2646 2647 2648 2649 2650 2651 2652 2653 2654 2655 2656 2657 2658 2659 2660 2661 2662 2663 2664 2665 2666 2667 2668 2669 2670 2671 2672 2673 2674 2675 2676 2677 2678 2679 2680 2681 2682 2683 2684 2685 2686 2687 2688 2689 2690 2691 2692 2693 2694 2695 2696 2697 2698 2699 2700 2701 2702 2703 2704 2705 2706 2707 2708 2709 2710 2711 2712 2713 2714 2715 2716 2717 2718 2719 2720 2721 2722 2723 2724 2725 2726 2727 2728 2729 2730 2731 2732 2733 2734 2735 2736 2737 2738 2739 2740 2741 2742 2743 2744 2745 2746 2747 2748 2749 2750 2751 2752 2753 2754 2755 2756 2757 2758 2759 2760 2761 2762 2763 2764 2765 2766 2767 2768 2769 2770 2771 2772 2773 2774 2775 2776 2777 2778 2779 2780 2781 2782 2783 2784 2785 2786 2787 2788 2789 2790 2791 2792 2793 2794 2795 2796 2797 2798 2799 2800 2801 2802 2803 2804 2805 2806 2807 2808 2809 2810 2811 2812 2813 2814 2815 2816 2817 2818 2819 2820 2821 2822 2823 2824 2825 2826 2827 2828 2829 2830 2831 2832 2833 2834 2835 2836 2837 2838 2839 2840 2841 2842 2843 2844 2845 2846 2847 2848 2849 2850 2851 2852 2853 2854 2855 2856 2857 2858 2859 2860 2861 2862 2863 2864 2865 2866 2867 2868 2869 2870 2871 2872 2873 2874 2875 2876 2877 2878 2879 2880 2881 2882 2883 2884 2885 2886 2887 2888 2889 2890 2891 2892 2893 2894 2895 2896 2897 2898 2899 2900 2901 2902 2903 2904 2905 2906 2907 2908 2909 2910 2911 2912 2913 2914 2915 2916 2917 2918 2919 2920 2921 2922 2923 2924 2925 2926 2927 2928 2929 2930 2931 2932 2933 2934 2935 2936 2937 2938 2939 2940 2941 2942 2943 2944 2945 2946 2947 2948 2949 2950 2951 2952 2953 2954 2955 2956 2957 2958 2959 2960 2961 2962 2963 2964 2965 2966 2967 2968 2969 2970 2971 2972 2973 2974 2975 2976 2977 2978 2979 2980 2981 2982 2983 2984 2985 2986 2987 2988 2989 2990 2991 2992 2993 2994 2995 2996 2997 2998 2999 3000 3001 3002 3003 3004 3005 3006 3007 3008 3009 3010 3011 3012 3013 3014 3015 3016 3017 3018 3019 3020 3021 3022 3023 3024 3025 3026 3027 3028 3029 3030 3031 3032 3033 3034 3035 3036 3037 3038 3039 3040 3041 3042 3043 3044 3045 3046 3047 3048 3049 3050 3051 3052 3053 3054 3055 3056 3057 3058 3059 3060 3061 3062 3063 3064 3065 3066 3067 3068 3069 3070 3071 3072 3073 3074 3075 3076 3077 3078 3079 3080 3081 3082 3083 3084 3085 3086 3087 3088 3089 3090 3091 3092 3093 3094 3095 3096 3097 3098 3099 3100 3101 3102 3103 3104 3105 3106 3107 3108 3109 3110 3111 3112 3113 3114 3115 3116 3117 3118 3119 3120 3121 3122 3123 3124 3125 3126 3127 3128 3129 3130 3131 3132 3133 3134 3135 3136 3137 3138 3139 3140 3141 
</DataArray>
<DataArray type="UInt32" Name="offsets" format="ascii">
3 6 9 12 15 18 21 24 27 30 33 36 39 42 45 48 51 54 57 60 63 66 69 72 75 78 81 84 87 90 93 96 99 102 105 108 111 114 117 120 123 126 129 132 135 138 141 144 147 150 153 156 159 162 165 168 171 174 177 180 183 186 189 192 195 198 201 204 207 210 213 216 219 222 225 228 231 234 237 240 243 246 249 252 255 258 261 264 267 270 273 276 279 282 285 288 291 294 297 300 303 306 309 312 315 318 321 324 327 330 333 336 339 342 345 348 351 354 357 360 363 366 369 372 375 378 381 384 387 390 393 396 399 402 405 408 411 414 417 420 423 426 429 432 435 438 441 444 447 450 453 456 459 462 465 468 471 474 477 480 483 486 489 492 495 498 501 504 507 510 513 516 519 522 525 528 531 534 537 540 543 546 549 552 555 558 561 564 567 570 573 576 579 582 585 588 591 594 597 600 603 606 609 612 615 618 621 624 627 630 633 636 639 642 645 648 651 654 657 660 663 666 669 672 675 678 681 684 687 690 693 696 699 702 705 708 711 714 717 720 723 726 729 732 735 738 741 744 747 750 753 756 759 762 765 768 771 774 777 780 783 786 789 792 795 798 801 804 807 810 813 816 819 822 825 828 831 834 837 840 843 846 849 852 855 858 861 864 867 870 873 876 879 882 885 888 891 894 897 900 903 906 909 912 915 918 921 924 927 930 933 936 939 942 945 948 951 954 957 960 963 966 969 972 975 978 981 984 987 990 993 996 999 1002 1005 1008 1011 1014 1017 1020 1023 1026 1029 1032 1035 1038 1041 1044 1047 1050 1053 1056 1059 1062 1065 1068 1071 1074 1077 1080 1083 1086 1089 1092 1095 1098 1101 1104 1107 1110 1113 1116 1119 1122 1125 1128 1131 1134 1137 1140 1143 1146 1149 1152 1155 1158 1161 1164 1167 1170 1173 1176 1179 1182 1185 1188 1191 1194 1197 1200 1203 1206 1209 1212 1215 1218 1221 1224 1227 1230 1233 1236 1239 1242 1245 1248 1251 1254 1257 1260 1263 1266 1269 1272 1275 1278 1281 1284 1287 1290 1293 1296 1299 1302 1305 1308 1311 1314 1317 1320 1323 1326 1329 1332 1335 1338 1341 1344 1347 1350 1353 1356 1359 1362 1365 1368 1371 1374 1377 1380 1383 1386 1389 1392 1395 1398 1401 1404 1407 1410 1413 1416 1419 1422 1425 1428 1431 1434 1437 1440 1443 1446 1449 1452 1455 1458 1461 1464 1467 1470 1473 1476 1479 1482 1485 1488 1491 1494 1497 1500 1503 1506 1509 1512 1515 1518 1521 1524 1527 1530 1533 1536 1539 1542 1545 1548 1551 1554 1557 1560 1563 1566 1569 1572 1575 1578 1581 1584 1587 1590 1593 1596 1599 1602 1605 1608 1611 1614 1616 1619 1622 1624 1627 1630 1632 1635 1638 1641 1644 1647 1650 1653 1656 1659 1662 1665 1668 1671 1673 1676 1679 1682 1685 1688 1690 1693 1696 1699 1702 1705 1708 1711 1714 1717 1720 1723 1726 1729 1732 1735 1738 1741 1744 1747 1750 1753 1756 1759 1762 1765 1768 1771 1774 1777 1780 1783 1786 1789 1792 1795 1798 1801 1804 1807 1810 1813 1816 1819 1822 1825 1828 1831 1834 1837 1840 1843 1846 1849 1852 1855 1858 1861 1864 1867 1870 1873 1876 1879 1882 1885 1888 1891 1894 1897 1900 1903 1906 1909 1912 1915 1918 1921 1924 1927 1930 1933 1936 1939 1942 1945 1948 1951 1954 1957 1960 1963 1966 1969 1972 1975 1978 1981 1984 1987 1990 1993 1996 1999 2002 2005 2008 2011 2014 2017 2020 2023 2026 2029 2032 2035 2038 2041 2044 2047 2050 2053 2056 2059 2062 2065 2068 2071 2074 2077 2080 2083 2086 2089 2092 2095 2098 2101 2104 2107 2110 2113 2116 2119 2122 2125 2128 2131 2134 2137 2140 2143 2146 2149 2152 2155 2158 2161 2164 2167 2170 2173 2176 2179 2182 2185 2188 2191 2194 2196 2199 2202 2205 2207 2210 2213 2215 2218 2221 2224 2227 2230 2233 2236 2239 2242 2245 2248 2250 2253 2256 2259 2262 2264 2267 2270 2273 2276 2279 2282 2285 2288 2291 2294 2297 2300 2303 2306 2309 2312 2315 2318 2321 2324 2327 2330 2333 2336 2339 2342 2345 2348 2351 2354 2357 2360 2363 2366 2369 2372 2375 2378 2381 2384 2387 2390 2393 2396 2399 2402 2405 2408 2411 2414 2417 2420 2423 2426 2429 2432 2435 2438 2440 2443 2446 2449 2452 2455 2458 2461 2464 2467 2470 2473 2476 2479 2482 2484 2487 2490 2492 2495 2497 2500 2503 2506 2509 2512 2515 2518 2521 2524 2527 2530 2533 2536 2538 2541 2544 2547 2550 2553 2556 2559 2562 2565 2568 2571 2574 2577 2580 2583 2586 2589 2592 2595 2598 2601 2604 2607 2610 2613 2616 2619 2622 2625 2628 2631 2634 2637 2640 2643 2646 2649 2652 2655 2658 2661 2664 2667 2670 2673 2676 2679 2682 2685 2688 2691 2694 2697 2700 2703 2706 2709 2712 2715 2718 2721 2724 2727 2730 2733 2736 2739 2742 2745 2748 2751 2754 2757 2760 2763 2766 2769 2772 2775 2778 2781 2784 2787 2790 2793 2796 2799 2802 2805 2808 2811 2814 2817 2820 2823 2826 2829 2832 2835 2838 2841 2844 2847 2850 2853 2856 2859 2862 2865 2868 2871 2874 2877 2880 2883 2886 2889 2892 2895 2898 2901 2904 2907 2910 2913 2916 2919 2922 2925 2928 2931 2934 2937 2940 2943 2946 2948 2951 2954 2956 2959 2961 2964 2967 2970 2973 2976 2979 2982 2985 2988 2991 2994 2997 3000 3003 3006 3009 3012 3015 3018 3021 3024 3027 3030 3033 3036 3039 3042 3045 3048 3051 3054 3057 3060 3063 3066 3069 3072 3075 3078 3081 3084 3087 3090 3093 3096 3099 3102 3104 3107 3110 3113 3116 3119 3121 3124 3127 3130 3133 3136 3139 3142 
</DataArray>
<DataArray type="UInt32" Name="types" format="ascii">
5 5 5 5 5 5 5 5 5 5 5 5 5 5 5 5 5 5 5 5 5 5 5 5 5 5 5 5 5 5 5 5 5 5 5 5 5 5 5 5 5 5 5 5 5 5 5 5 5 5 5 5 5 5 5 5 5 5 5 5 5 5 5 5 5 5 5 5 5 5 5 5 5 5 5 5 5 5 5 5 5 5 5 5 5 5 5 5 5 5 5 5 5 5 5 5 5 5 5 5 5 5 5 5 5 5 5 5 5 5 5 5 5 5 5 5 5 5 5 5 5 5 5 5 5 5 5 5 5 5 5 5 5 5 5 5 5 5 5 5 5 5 5 5 5 5 5 5 5 5 5 5 5 5 5 5 5 5 5 5 5 5 5 5 5 5 5 5 5 5 5 5 5 5 5 5 5 5 5 5 5 5 5 5 5 5 5 5 5 5 5 5 5 5 5 5 5 5 5 5 5 5 5 5 5 5 5 5 5 5 5 5 5 5 5 5 5 5 5 5 5 5 5 5 5 5 5 5 5 5 5 5 5 5 5 5 5 5 5 5 5 5 5 5 5 5 5 5 5 5 5 5 5 5 5 5 5 5 5 5 5 5 5 5 5 5 5 5 5 5 5 5 5 5 5 5 5 5 5 5 5 5 5 5 5 5 5 5 5 5 5 5 5 5 5 5 5 5 5 5 5 5 5 5 5 5 5 5 5 5 5 5 5 5 5 5 5 5 5 5 5 5 5 5 5 5 5 5 5 5 5 5 5 5 5 5 5 5 5 5 5 5 5 5 5 5 5 5 5 5 5 5 5 5 5 5 5 5 5 5 5 5 5 5 5 5 5 5 5 5 5 5 5 5 5 5 5 5 5 5 5 5 5 5 5 5 5 5 5 5 5 5 5 5 5 5 5 5 5 5 5 5 5 5 5 5 5 5 5 5 5 5 5 5 5 5 5 5 5 5 5 5 5 5 5 5 5 5 5 5 5 5 5 5 5 5 5 5 5 5 5 5 5 5 5 5 5 5 5 5 5 5 5 5 5 5 5 5 5 5 5 5 5 5 5 5 5 5 5 5 5 5 5 5 5 5 5 5 5 5 5 5 5 5 5 5 5 5 5 5 5 5 5 5 5 5 5 5 5 5 5 5 5 5 5 5 5 5 5 5 5 5 5 5 5 5 5 5 5 5 5 5 5 5 5 5 5 5 5 5 5 5 5 5 5 5 5 5 3 5 5 3 5 5 3 5 5 5 5 5 5 5 5 5 5 5 5 5 3 5 5 5 5 5 3 5 5 5 5 5 5 5 5 5 5 5 5 5 5 5 5 5 5 5 5 5 5 5 5 5 5 5 5 5 5 5 5 5 5 5 5 5 5 5 5 5 5 5 5 5 5 5 5 5 5 5 5 5 5 5 5 5 5 5 5 5 5 5 5 5 5 5 5 5 5 5 5 5 5 5 5 5 5 5 5 5 5 5 5 5 5 5 5 5 5 5 5 5 5 5 5 5 5 5 5 5 5 5 5 5 5 5 5 5 5 5 5 5 5 5 5 5 5 5 5 5 5 5 5 5 5 5 5 5 5 5 5 5 5 5 5 5 5 5 5 5 5 5 5 5 5 5 5 5 5 5 5 5 5 5 5 5 5 5 5 5 5 5 5 5 5 5 5 3 5 5 5 3 5 5 3 5 5 5 5 5 5 5 5 5 5 5 3 5 5 5 5 3 5 5 5 5 5 5 5 5 5 5 5 5 5 5 5 5 5 5 5 5 5 5 5 5 5 5 5 5 5 5 5 5 5 5 5 5 5 5 5 5 5 5 5 5 5 5 5 5 5 5 5 5 5 5 5 5 5 5 3 5 5 5 5 5 5 5 5 5 5 5 5 5 5 3 5 5 3 5 3 5 5 5 5 5 5 5 5 5 5 5 5 5 3 5 5 5 5 5 5 5 5 5 5 5 5 5 5 5 5 5 5 5 5 5 5 5 5 5 5 5 5 5 5 5 5 5 5 5 5 5 5 5 5 5 5 5 5 5 5 5 5 5 5 5 5 5 5 5 5 5 5 5 5 5 5 5 5 5 5 5 5 5 5 5 5 5 5 5 5 5 5 5 5 5 5 5 5 5 5 5 5 5 5 5 5 5 5 5 5 5 5 5 5 5 5 5 5 5 5 5 5 5 5 5 5 5 5 5 5 5 5 5 5 5 5 5 5 5 5 5 5 5 5 5 5 5 5 5 5 3 5 5 3 5 3 5 5 5 5 5 5 5 5 5 5 5 5 5 5 5 5 5 5 5 5 5 5 5 5 5 5 5 5 5 5 5 5 5 5 5 5 5 5 5 5 5 5 5 5 5 5 5 3 5 5 5 5 5 3 5 5 5 5 5 5 5 
</DataArray>
</Cells>
<PointData Scalars="" Vectors="displacement," Tensors="">
<DataArray type="Float64" Name="displacement" NumberOfComponents="3" format="ascii">
-0.0016768330805287763 -0.0025609791326757845 0 -3.4567078393641323e-06 -8.2509086843005703e-06 0 -4.6120746574735326e-07 -3.9747814485575519e-06 0 -0.0016768330805287763 -0.0025609791326757845 0 -3.4567078393641323e-06 -8.2509086843005703e-06 0 -0.0047559651932184933 -0.00655729824265596 0 -0.0016768330805287763 -0.0025609791326757845 0 -4.6120746574735326e-07 -3.9747814485575519e-06 0 -0.0029346537880254454 -0.0043976080381550138 0 -0.0016768330805287763 -0.0025609791326757845 0 -0.0029346537880254454 -0.0043976080381550138 0 -0.0047559651932184933 -0.00655729824265596 0 -0.0047559651932184933 -0.00655729824265596 0 -0.007534795962825384 -0.011596630737115195 0 -0.0062726822925394604 -0.010137107721841995 0 -0.007534795962825384 -0.011596630737115195 0 -0.0062726822925394604 -0.010137107721841995 0 -0.0096432873760219969 -0.016137395674200913 0 -0.0029346537880254454 -0.0043976080381550138 0 -0.0062726822925394604 -0.010137107721841995 0 -0.0046135738062457344 -0.0081337457467652689 0 -0.0029346537880254454 -0.0043976080381550138 0 -0.0047559651932184933 -0.00655729824265596 0 -0.0062726822925394604 -0.010137107721841995 0 -0.0062726822925394604 -0.010137107721841995 0 -0.0046135738062457344 -0.0081337457467652689 0 -0.0074659976871404195 -0.013791166337954106 0 -0.0046135738062457344 -0.0081337457467652689 0 -0.0074659976871404195 -0.013791166337954106 0 -0.0057441743194082146 -0.011579938386296796 0 -0.0046135738062457344 -0.0081337457467652689 0 -0.0041225034981528779 -0.0083542438662972899 0 -0.0057441743194082146 -0.011579938386296796 0 -0.0041225034981528779 -0.0083542438662972899 0 -0.0057441743194082146 -0.011579938386296796 0 -0.0054818311478772594 -0.012793604043201935 0 -0.0041225034981528779 -0.0083542438662972899 0 -0.002149250920914308 -0.0038401224536850783 0 -0.0024375082010460068 -0.0052518084914159064 0 -0.0046135738062457344 -0.0081337457467652689 0 -0.0041225034981528779 -0.0083542438662972899 0 -0.002149250920914308 -0.0038401224536850783 0 -0.002149250920914308 -0.0038401224536850783 0 -8.2481583798812342e-07 -4.203663943120179e-06 0 -5.1542749616060409e-07 -3.9155335523428084e-06 0 -4.6120746574735326e-07 -3.9747814485575519e-06 0 -0.0029346537880254454 -0.0043976080381550138 0 -8.2481583798812342e-07 -4.203663943120179e-06 0 -0.0029346537880254454 -0.0043976080381550138 0 -0.002149250920914308 -0.0038401224536850783 0 -8.2481583798812342e-07 -4.203663943120179e-06 0 -0.0029346537880254454 -0.0043976080381550138 0 -0.0046135738062457344 -0.0081337457467652689 0 -0.002149250920914308 -0.0038401224536850783 0 -0.010457572344484996 -0.021905178668130822 0 -0.01110262303667163 -0.020489670492000751 0 -0.012193910948974221 -0.024762772280579697 0 -0.010457572344484996 -0.021905178668130822 0 -0.01110262303667163 -0.020489670492000751 0 -0.009555000435233477 -0.018173036554664096 0 -0.010457572344484996 -0.021905178668130822 0 -0.009555000435233477 -0.018173036554664096 0 -0.0086629125996279446 -0.018675415604019953 0 -0.009555000435233477 -0.018173036554664096 0 -0.0096432873760219969 -0.016137395674200913 0 -0.0074659976871404195 -0.013791166337954106 0 -0.0062726822925394604 -0.010137107721841995 0 -0.0096432873760219969 -0.016137395674200913 0 -0.0074659976871404195 -0.013791166337954106 0 -0.009555000435233477 -0.018173036554664096 0 -0.0074659976871404195 -0.013791166337954106 0 -0.0086629125996279446 -0.018675415604019953 0 -0.01110262303667163 -0.020489670492000751 0 -0.009555000435233477 -0.018173036554664096 0 -0.0096432873760219969 -0.016137395674200913 0 -0.0074659976871404195 -0.013791166337954106 0 -0.0057441743194082146 -0.011579938386296796 0 -0.0069437979416161642 -0.014954489972600767 0 -0.0057441743194082146 -0.011579938386296796 0 -0.0069437979416161642 -0.014954489972600767 0 -0.0054818311478772594 -0.012793604043201935 0 -0.0074659976871404195 -0.013791166337954106 0 -0.0069437979416161642 -0.014954489972600767 0 -0.0086629125996279446 -0.018675415604019953 0 -0.0086629125996279446 -0.018675415604019953 0 -0.0093235015732949008 -0.022720560586298226 0 -0.0072053152967326475 -0.018204515321218844 0 -0.0069437979416161642 -0.014954489972600767 0 -0.0086629125996279446 -0.018675415604019953 0 -0.0072053152967326475 -0.018204515321218844 0 -0.010457572344484996 -0.021905178668130822 0 -0.0086629125996279446 -0.018675415604019953 0 -0.0093235015732949008 -0.022720560586298226 0 -0.010457572344484996 -0.021905178668130822 0 -0.0093235015732949008 -0.022720560586298226 0 -0.011180062981653823 -0.026128574048675735 0 -0.0093235015732949008 -0.022720560586298226 0 -0.0078902943053992796 -0.021985380566448016 0 -0.0072053152967326475 -0.018204515321218844 0 -0.0067544549378942415 -0.02079727347891942 0 -0.0078902943053992796 -0.021985380566448016 0 -0.0072053152967326475 -0.018204515321218844 0 -0.0067544549378942415 -0.02079727347891942 0 -0.0072053152967326475 -0.018204515321218844 0 -0.0057356590774184715 -0.016394331783523168 0 -0.0057356590774184715 -0.016394331783523168 0 -0.0054818311478772594 -0.012793604043201935 0 -0.0044644351175852645 -0.012127988249307083 0 -0.0069437979416161642 -0.014954489972600767 0 -0.0072053152967326475 -0.018204515321218844 0 -0.0054818311478772594 -0.012793604043201935 0 -0.0072053152967326475 -0.018204515321218844 0 -0.0057356590774184715 -0.016394331783523168 0 -0.0054818311478772594 -0.012793604043201935 0 -0.0054818311478772594 -0.012793604043201935 0 -0.0044644351175852645 -0.012127988249307083 0 -0.0037660087906512597 -0.0088796463607650495 0 -0.0044644351175852645 -0.012127988249307083 0 -0.0034120069186807387 -0.010880230696686964 0 -0.0047421519475702662 -0.015463877821350802 0 -0.0034120069186807387 -0.010880230696686964 0 -0.0047421519475702662 -0.015463877821350802 0 -0.0035887061646763347 -0.013373565109104188 0 -0.0047421519475702662 -0.015463877821350802 0 -0.0035887061646763347 -0.013373565109104188 0 -0.0040390080505902492 -0.016471984046730434 0 -0.0057356590774184715 -0.016394331783523168 0 -0.0044644351175852645 -0.012127988249307083 0 -0.0047421519475702662 -0.015463877821350802 0 -0.0067544549378942415 -0.02079727347891942 0 -0.0057356590774184715 -0.016394331783523168 0 -0.0053849129254545311 -0.019270653676392826 0 -0.0057356590774184715 -0.016394331783523168 0 -0.0047421519475702662 -0.015463877821350802 0 -0.0053849129254545311 -0.019270653676392826 0 -0.0047421519475702662 -0.015463877821350802 0 -0.0053849129254545311 -0.019270653676392826 0 -0.0040390080505902492 -0.016471984046730434 0 -0.0053849129254545311 -0.019270653676392826 0 -0.0052527522704315238 -0.022538476563255666 0 -0.0064502660922515697 -0.023698136645896543 0 -0.0067544549378942415 -0.02079727347891942 0 -0.0053849129254545311 -0.019270653676392826 0 -0.0064502660922515697 -0.023698136645896543 0 -0.0012784524210904947 -0.0031551744522803418 0 -5.1542749616060409e-07 -3.9155335523428084e-06 0 -0.0024375082010460068 -0.0052518084914159064 0 -0.0012784524210904947 -0.0031551744522803418 0 -0.0024375082010460068 -0.0052518084914159064 0 -0.0026467864425990303 -0.0071288171655940879 0 -0.0012784524210904947 -0.0031551744522803418 0 -5.1542749616060409e-07 -3.9155335523428084e-06 0 -5.3134323049410302e-07 -3.9796630966483446e-06 0 -0.002149250920914308 -0.0038401224536850783 0 -5.1542749616060409e-07 -3.9155335523428084e-06 0 -0.0024375082010460068 -0.0052518084914159064 0 -0.0041225034981528779 -0.0083542438662972899 0 -0.0024375082010460068 -0.0052518084914159064 0 -0.0037660087906512597 -0.0088796463607650495 0 -0.0041225034981528779 -0.0083542438662972899 0 -0.0054818311478772594 -0.012793604043201935 0 -0.0037660087906512597 -0.0088796463607650495 0 -0.0044644351175852645 -0.012127988249307083 0 -0.0037660087906512597 -0.0088796463607650495 0 -0.0026467864425990303 -0.0071288171655940879 0 -0.0024375082010460068 -0.0052518084914159064 0 -0.0037660087906512597 -0.0088796463607650495 0 -0.0026467864425990303 -0.0071288171655940879 0 -0.0044644351175852645 -0.012127988249307083 0 -0.0034120069186807387 -0.010880230696686964 0 -0.0026467864425990303 -0.0071288171655940879 0 -0.0034120069186807387 -0.010880230696686964 0 -0.0026467864425990303 -0.0071288171655940879 0 -0.0022440186161343358 -0.0073036213103265125 0 -0.0034120069186807387 -0.010880230696686964 0 -0.0022440186161343358 -0.0073036213103265125 0 -0.0025081991208434308 -0.0097555730237440068 0 -0.0026467864425990303 -0.0071288171655940879 0 -0.0022440186161343358 -0.0073036213103265125 0 -0.0012285481358050433 -0.0036950168325929986 0 -0.0022440186161343358 -0.0073036213103265125 0 -0.0012285481358050433 -0.0036950168325929986 0 -0.0013005399001087545 -0.0048470748333251856 0 -0.0012784524210904947 -0.0031551744522803418 0 -0.0026467864425990303 -0.0071288171655940879 0 -0.0012285481358050433 -0.0036950168325929986 0 -0.0012784524210904947 -0.0031551744522803418 0 -0.0012285481358050433 -0.0036950168325929986 0 -5.3134323049410302e-07 -3.9796630966483446e-06 0 -0.0012285481358050433 -0.0036950168325929986 0 -5.3134323049410302e-07 -3.9796630966483446e-06 0 -4.6772903557259037e-07 -3.9221600768808261e-06 0 -4.6772903557259037e-07 -3.9221600768808261e-06 0 -0.0013005399001087545 -0.0048470748333251856 0 -2.3334575456478078e-07 -3.901692437516889e-06 0 -0.0012285481358050433 -0.0036950168325929986 0 -4.6772903557259037e-07 -3.9221600768808261e-06 0 -0.0013005399001087545 -0.0048470748333251856 0 -0.0013005399001087545 -0.0048470748333251856 0 -2.3334575456478078e-07 -3.901692437516889e-06 0 -0.0007758699765473033 -0.0036726785239786582 0 -2.3334575456478078e-07 -3.901692437516889e-06 0 -0.0007758699765473033 -0.0036726785239786582 0 -2.2918798704592939e-07 -3.9217590138189832e-06 0 -0.0007758699765473033 -0.0036726785239786582 0 -0.00046818766129113156 -0.0028429085592823248 0 -0.001131942458797643 -0.0068631829186170321 0 -0.00046818766129113156 -0.0028429085592823248 0 -0.001131942458797643 -0.0068631829186170321 0 -0.00053664878057858856 -0.0045620523454664398 0 -0.0007758699765473033 -0.0036726785239786582 0 -0.00046818766129113156 -0.0028429085592823248 0 -2.2918798704592939e-07 -3.9217590138189832e-06 0 -0.00046818766129113156 -0.0028429085592823248 0 -2.2918798704592939e-07 -3.9217590138189832e-06 0 -1.5391963512179899e-07 -3.8842955595516242e-06 0 -0.001131942458797643 -0.0068631829186170321 0 -0.0016825857160646482 -0.011549540593604123 0 -0.00098578393754107933 -0.0091087329076622661 0 -0.001131942458797643 -0.0068631829186170321 0 -0.001954006373920673 -0.010009579832041718 0 -0.0016825857160646482 -0.011549540593604123 0 -0.0007758699765473033 -0.0036726785239786582 0 -0.001131942458797643 -0.0068631829186170321 0 -0.0015060256698705952 -0.0069200637347676848 0 -0.001131942458797643 -0.0068631829186170321 0 -0.001954006373920673 -0.010009579832041718 0 -0.0015060256698705952 -0.0069200637347676848 0 -0.001954006373920673 -0.010009579832041718 0 -0.0015060256698705952 -0.0069200637347676848 0 -0.0025081991208434308 -0.0097555730237440068 0 -0.0013005399001087545 -0.0048470748333251856 0 -0.0007758699765473033 -0.0036726785239786582 0 -0.0015060256698705952 -0.0069200637347676848 0 -0.0013005399001087545 -0.0048470748333251856 0 -0.0015060256698705952 -0.0069200637347676848 0 -0.0025081991208434308 -0.0097555730237440068 0 -0.0022440186161343358 -0.0073036213103265125 0 -0.0013005399001087545 -0.0048470748333251856 0 -0.0025081991208434308 -0.0097555730237440068 0 -0.0034120069186807387 -0.010880230696686964 0 -0.0025081991208434308 -0.0097555730237440068 0 -0.0035887061646763347 -0.013373565109104188 0 -0.0025081991208434308 -0.0097555730237440068 0 -0.0035887061646763347 -0.013373565109104188 0 -0.0029527709387102349 -0.013284893030260075 0 -0.0035887061646763347 -0.013373565109104188 0 -0.0029527709387102349 -0.013284893030260075 0 -0.0040390080505902492 -0.016471984046730434 0 -0.0029527709387102349 -0.013284893030260075 0 -0.003173887121651813 -0.016784949493989967 0 -0.0024061238038629407 -0.013569215355173634 0 -0.0029527709387102349 -0.013284893030260075 0 -0.0040390080505902492 -0.016471984046730434 0 -0.003173887121651813 -0.016784949493989967 0 -0.001954006373920673 -0.010009579832041718 0 -0.0025081991208434308 -0.0097555730237440068 0 -0.0029527709387102349 -0.013284893030260075 0 -0.0053849129254545311 -0.019270653676392826 0 -0.004233254952426364 -0.01980018049594065 0 -0.0052527522704315238 -0.022538476563255666 0 -0.0053849129254545311 -0.019270653676392826 0 -0.004233254952426364 -0.01980018049594065 0 -0.0040390080505902492 -0.016471984046730434 0 -0.004233254952426364 -0.01980018049594065 0 -0.0040390080505902492 -0.016471984046730434 0 -0.003173887121651813 -0.016784949493989967 0 -0.004233254952426364 -0.01980018049594065 0 -0.0030678474287523291 -0.020350301202487538 0 -0.0044200528956546423 -0.023586327149731155 0 -0.004233254952426364 -0.01980018049594065 0 -0.0030678474287523291 -0.020350301202487538 0 -0.003173887121651813 -0.016784949493989967 0 -0.0030678474287523291 -0.020350301202487538 0 -0.003173887121651813 -0.016784949493989967 0 -0.002243369159822893 -0.015732100498113133 0 -0.0030678474287523291 -0.020350301202487538 0 -0.002243369159822893 -0.015732100498113133 0 -0.0019201178714735243 -0.018524001854908042 0 -0.0030678474287523291 -0.020350301202487538 0 -0.0019201178714735243 -0.018524001854908042 0 -0.0023748039056483905 -0.023257093026571248 0 -0.001954006373920673 -0.010009579832041718 0 -0.0029527709387102349 -0.013284893030260075 0 -0.0024061238038629407 -0.013569215355173634 0 -0.001954006373920673 -0.010009579832041718 0 -0.0024061238038629407 -0.013569215355173634 0 -0.0016825857160646482 -0.011549540593604123 0 -0.003173887121651813 -0.016784949493989967 0 -0.0024061238038629407 -0.013569215355173634 0 -0.002243369159822893 -0.015732100498113133 0 -0.002243369159822893 -0.015732100498113133 0 -0.0016825857160646482 -0.011549540593604123 0 -0.0014224691705784862 -0.0138472007839998 0 -0.0024061238038629407 -0.013569215355173634 0 -0.002243369159822893 -0.015732100498113133 0 -0.0016825857160646482 -0.011549540593604123 0 -0.0016825857160646482 -0.011549540593604123 0 -0.0014224691705784862 -0.0138472007839998 0 -0.00098578393754107933 -0.0091087329076622661 0 -0.0014224691705784862 -0.0138472007839998 0 -0.0011024952772687442 -0.016784137580827772 0 -0.00066336391087669789 -0.011611828275053566 0 -0.0014224691705784862 -0.0138472007839998 0 -0.00066336391087669789 -0.011611828275053566 0 -0.00098578393754107933 -0.0091087329076622661 0 -0.0019201178714735243 -0.018524001854908042 0 -0.0013542501936117466 -0.021401622377072035 0 -0.0023748039056483905 -0.023257093026571248 0 -0.002243369159822893 -0.015732100498113133 0 -0.0014224691705784862 -0.0138472007839998 0 -0.0019201178714735243 -0.018524001854908042 0 -0.0014224691705784862 -0.0138472007839998 0 -0.0019201178714735243 -0.018524001854908042 0 -0.0011024952772687442 -0.016784137580827772 0 -0.0019201178714735243 -0.018524001854908042 0 -0.0011024952772687442 -0.016784137580827772 0 -0.0013542501936117466 -0.021401622377072035 0 -0.0011024952772687442 -0.016784137580827772 0 -0.00054703244716073729 -0.019367942360592111 0 -0.0013542501936117466 -0.021401622377072035 0 -0.0011024952772687442 -0.016784137580827772 0 -0.00054703244716073729 -0.019367942360592111 0 -0.00035240004428868145 -0.015655800866610888 0 -0.00035240004428868145 -0.015655800866610888 0 0.00028956689726017366 -0.013957602164024405 0 0.00021681373049717065 -0.017384875738852293 0 -0.00054703244716073729 -0.019367942360592111 0 -0.00035240004428868145 -0.015655800866610888 0 0.00021681373049717065 -0.017384875738852293 0 -0.00054703244716073729 -0.019367942360592111 0 8.8610224379446738e-05 -0.021321288045586629 0 0.00021681373049717065 -0.017384875738852293 0 -0.00066336391087669789 -0.011611828275053566 0 -0.00035240004428868145 -0.015655800866610888 0 -0.00014984122219451336 -0.011708331220476268 0 -0.0011024952772687442 -0.016784137580827772 0 -0.00066336391087669789 -0.011611828275053566 0 -0.00035240004428868145 -0.015655800866610888 0 -0.00035240004428868145 -0.015655800866610888 0 -0.00014984122219451336 -0.011708331220476268 0 0.00028956689726017366 -0.013957602164024405 0 -0.00066336391087669789 -0.011611828275053566 0 -0.00014984122219451336 -0.011708331220476268 0 -0.00014672551802805923 -0.0075621161704075915 0 -0.00014984122219451336 -0.011708331220476268 0 -0.00014672551802805923 -0.0075621161704075915 0 0.00014950174261916513 -0.0098134808318783 0 -0.00066336391087669789 -0.011611828275053566 0 -0.00014672551802805923 -0.0075621161704075915 0 -0.00043542590903513316 -0.0064792779852131449 0 -0.00014672551802805923 -0.0075621161704075915 0 -9.6998363996349116e-05 -0.0035028413733624326 0 -0.00043542590903513316 -0.0064792779852131449 0 -0.00014672551802805923 -0.0075621161704075915 0 -9.6998363996349116e-05 -0.0035028413733624326 0 0.00014479078656923257 -0.0047259643016259057 0 -9.6998363996349116e-05 -0.0035028413733624326 0 -7.0909945391769986e-08 -3.8844668729257434e-06 0 0.00014479078656923257 -0.0047259643016259057 0 -9.6998363996349116e-05 -0.0035028413733624326 0 -7.0909945391769986e-08 -3.8844668729257434e-06 0 -6.7906718225903935e-08 -3.924474860749006e-06 0 -9.6998363996349116e-05 -0.0035028413733624326 0 -6.7906718225903935e-08 -3.924474860749006e-06 0 -0.00022471835411431662 -0.0029683258998602444 0 -9.6998363996349116e-05 -0.0035028413733624326 0 -0.00022471835411431662 -0.0029683258998602444 0 -0.00043542590903513316 -0.0064792779852131449 0 -0.00022471835411431662 -0.0029683258998602444 0 -1.5391963512179899e-07 -3.8842955595516242e-06 0 -0.00053664878057858856 -0.0045620523454664398 0 -0.00022471835411431662 -0.0029683258998602444 0 -0.00053664878057858856 -0.0045620523454664398 0 -0.00043542590903513316 -0.0064792779852131449 0 -6.7906718225903935e-08 -3.924474860749006e-06 0 -0.00022471835411431662 -0.0029683258998602444 0 -1.5391963512179899e-07 -3.8842955595516242e-06 0 -0.00046818766129113156 -0.0028429085592823248 0 -1.5391963512179899e-07 -3.8842955595516242e-06 0 -0.00053664878057858856 -0.0045620523454664398 0 -0.001131942458797643 -0.0068631829186170321 0 -0.00053664878057858856 -0.0045620523454664398 0 -0.00098578393754107933 -0.0091087329076622661 0 -0.00066336391087669789 -0.011611828275053566 0 -0.00098578393754107933 -0.0091087329076622661 0 -0.00043542590903513316 -0.0064792779852131449 0 -0.00053664878057858856 -0.0045620523454664398 0 -0.00098578393754107933 -0.0091087329076622661 0 -0.00043542590903513316 -0.0064792779852131449 0 -0.0013302119324533797 -0.034915229595731789 0 -0.0023558429257100268 -0.037625396840549399 0 -0.00095515948006543827 -0.039182946075407135 0 -0.0013302119324533797 -0.034915229595731789 0 -0.002523746184356915 -0.034028395505696314 0 -0.0023558429257100268 -0.037625396840549399 0 -0.0013302119324533797 -0.034915229595731789 0 -0.002523746184356915 -0.034028395505696314 0 -0.0019458185999469716 -0.030243682782307681 0 -0.0023558429257100268 -0.037625396840549399 0 -0.0022484996453389773 -0.042151335716810304 0 -0.00095515948006543827 -0.039182946075407135 0 -0.0022484996453389773 -0.042151335716810304 0 -0.00084218204795175478 -0.044722758987039014 0 -0.0025294660761687438 -0.046633158009492977 0 -0.0022484996453389773 -0.042151335716810304 0 -0.00084218204795175478 -0.044722758987039014 0 -0.00095515948006543827 -0.039182946075407135 0 -0.00084218204795175478 -0.044722758987039014 0 -0.00095515948006543827 -0.039182946075407135 0 -4.1515991130394341e-05 -0.041852902968396166 0 -0.00095515948006543827 -0.039182946075407135 0 -4.1515991130394341e-05 -0.041852902968396166 0 0.00076525403611707931 -0.039295372806309209 0 -0.00084218204795175478 -0.044722758987039014 0 -4.1515991130394341e-05 -0.041852902968396166 0 0.00091858877247109698 -0.044201217793202442 0 -4.1515991130394341e-05 -0.041852902968396166 0 0.00091858877247109698 -0.044201217793202442 0 0.00076525403611707931 -0.039295372806309209 0 0.00076525403611707931 -0.039295372806309209 0 1.5539492823377235e-05 -0.035128375212431499 0 0.0016727355727979112 -0.035025562847090332 0 -0.00095515948006543827 -0.039182946075407135 0 0.00076525403611707931 -0.039295372806309209 0 1.5539492823377235e-05 -0.035128375212431499 0 -0.0013302119324533797 -0.034915229595731789 0 -0.00095515948006543827 -0.039182946075407135 0 1.5539492823377235e-05 -0.035128375212431499 0 -0.0013302119324533797 -0.034915229595731789 0 1.5539492823377235e-05 -0.035128375212431499 0 -0.00082225735753791069 -0.031333907247313039 0 1.5539492823377235e-05 -0.035128375212431499 0 0.00061120427275280489 -0.030993415351238562 0 0.0016727355727979112 -0.035025562847090332 0 0.00061120427275280489 -0.030993415351238562 0 -0.0004151528518777526 -0.027710392273967582 0 0.00036517740588937647 -0.025975080828385982 0 0.00061120427275280489 -0.030993415351238562 0 -0.0004151528518777526 -0.027710392273967582 0 -0.00082225735753791069 -0.031333907247313039 0 -0.0004151528518777526 -0.027710392273967582 0 -0.00082225735753791069 -0.031333907247313039 0 -0.0015085451382416174 -0.02655608599704997 0 1.5539492823377235e-05 -0.035128375212431499 0 0.00061120427275280489 -0.030993415351238562 0 -0.00082225735753791069 -0.031333907247313039 0 8.8610224379446738e-05 -0.021321288045586629 0 -0.00059053612588601918 -0.02391762566998247 0 0.00036517740588937647 -0.025975080828385982 0 -0.00054703244716073729 -0.019367942360592111 0 8.8610224379446738e-05 -0.021321288045586629 0 -0.00059053612588601918 -0.02391762566998247 0 -0.0004151528518777526 -0.027710392273967582 0 -0.00059053612588601918 -0.02391762566998247 0 0.00036517740588937647 -0.025975080828385982 0 -0.0004151528518777526 -0.027710392273967582 0 -0.00059053612588601918 -0.02391762566998247 0 -0.0015085451382416174 -0.02655608599704997 0 -0.00054703244716073729 -0.019367942360592111 0 -0.00059053612588601918 -0.02391762566998247 0 -0.0013542501936117466 -0.021401622377072035 0 -0.00059053612588601918 -0.02391762566998247 0 -0.0013542501936117466 -0.021401622377072035 0 -0.0015085451382416174 -0.02655608599704997 0 -0.0013542501936117466 -0.021401622377072035 0 -0.0015085451382416174 -0.02655608599704997 0 -0.0023748039056483905 -0.023257093026571248 0 -0.0015085451382416174 -0.02655608599704997 0 -0.0023748039056483905 -0.023257093026571248 0 -0.0028369910249993508 -0.027555939951372128 0 -0.0013302119324533797 -0.034915229595731789 0 -0.00082225735753791069 -0.031333907247313039 0 -0.0019458185999469716 -0.030243682782307681 0 -0.00082225735753791069 -0.031333907247313039 0 -0.0015085451382416174 -0.02655608599704997 0 -0.0019458185999469716 -0.030243682782307681 0 -0.0015085451382416174 -0.02655608599704997 0 -0.0019458185999469716 -0.030243682782307681 0 -0.0028369910249993508 -0.027555939951372128 0 -0.0019458185999469716 -0.030243682782307681 0 -0.0028369910249993508 -0.027555939951372128 0 -0.0038644475396867875 -0.032123580559065869 0 -0.002523746184356915 -0.034028395505696314 0 -0.0019458185999469716 -0.030243682782307681 0 -0.0038644475396867875 -0.032123580559065869 0 -0.0028369910249993508 -0.027555939951372128 0 -0.0038763014090608221 -0.028533991180551489 0 -0.0038644475396867875 -0.032123580559065869 0 -0.0038763014090608221 -0.028533991180551489 0 -0.0038644475396867875 -0.032123580559065869 0 -0.0048336853171399123 -0.030812426341592074 0 -0.0030678474287523291 -0.020350301202487538 0 -0.0023748039056483905 -0.023257093026571248 0 -0.0035121333742219466 -0.025045777623610415 0 -0.0023748039056483905 -0.023257093026571248 0 -0.0028369910249993508 -0.027555939951372128 0 -0.0035121333742219466 -0.025045777623610415 0 -0.0028369910249993508 -0.027555939951372128 0 -0.0038763014090608221 -0.028533991180551489 0 -0.0035121333742219466 -0.025045777623610415 0 -0.0038763014090608221 -0.028533991180551489 0 -0.0035121333742219466 -0.025045777623610415 0 -0.0047064657369633861 -0.027459654433817933 0 -0.0030678474287523291 -0.020350301202487538 0 -0.0035121333742219466 -0.025045777623610415 0 -0.0044200528956546423 -0.023586327149731155 0 -0.0035121333742219466 -0.025045777623610415 0 -0.0044200528956546423 -0.023586327149731155 0 -0.0047064657369633861 -0.027459654433817933 0 -0.0044200528956546423 -0.023586327149731155 0 -0.0047064657369633861 -0.027459654433817933 0 -0.0059140340824986289 -0.026479461643161013 0 -0.0044200528956546423 -0.023586327149731155 0 -0.0052527522704315238 -0.022538476563255666 0 -0.0059140340824986289 -0.026479461643161013 0 -0.004233254952426364 -0.01980018049594065 0 -0.0044200528956546423 -0.023586327149731155 0 -0.0052527522704315238 -0.022538476563255666 0 -0.0038644475396867875 -0.032123580559065869 0 -0.0048336853171399123 -0.030812426341592074 0 -0.0055143606043866443 -0.034200942594708919 0 -0.0038763014090608221 -0.028533991180551489 0 -0.0048336853171399123 -0.030812426341592074 0 -0.0047064657369633861 -0.027459654433817933 0 -0.0048336853171399123 -0.030812426341592074 0 -0.0047064657369633861 -0.027459654433817933 0 -0.0058431519669568371 -0.030437971071533995 0 -0.0047064657369633861 -0.027459654433817933 0 -0.0058431519669568371 -0.030437971071533995 0 -0.0059140340824986289 -0.026479461643161013 0 -0.0048336853171399123 -0.030812426341592074 0 -0.0058431519669568371 -0.030437971071533995 0 -0.0055143606043866443 -0.034200942594708919 0 -0.0058431519669568371 -0.030437971071533995 0 -0.0055143606043866443 -0.034200942594708919 0 -0.0071654828821548786 -0.03313410035840083 0 -0.0055143606043866443 -0.034200942594708919 0 -0.0053015472424196531 -0.038844101748219194 0 -0.0067851373799086723 -0.037097059545039321 0 -0.0053015472424196531 -0.038844101748219194 0 -0.0063481070510143763 -0.041602331368960022 0 -0.0067851373799086723 -0.037097059545039321 0 -0.0055143606043866443 -0.034200942594708919 0 -0.0053015472424196531 -0.038844101748219194 0 -0.004420641582337779 -0.036128088240588704 0 -0.0038644475396867875 -0.032123580559065869 0 -0.0055143606043866443 -0.034200942594708919 0 -0.004420641582337779 -0.036128088240588704 0 -0.0038644475396867875 -0.032123580559065869 0 -0.004420641582337779 -0.036128088240588704 0 -0.003389347781020072 -0.035918808088909723 0 -0.004420641582337779 -0.036128088240588704 0 -0.003389347781020072 -0.035918808088909723 0 -0.0037404438389441338 -0.039752129059170686 0 -0.0053015472424196531 -0.038844101748219194 0 -0.004420641582337779 -0.036128088240588704 0 -0.0037404438389441338 -0.039752129059170686 0 -0.0023558429257100268 -0.037625396840549399 0 -0.003389347781020072 -0.035918808088909723 0 -0.0037404438389441338 -0.039752129059170686 0 -0.002523746184356915 -0.034028395505696314 0 -0.0023558429257100268 -0.037625396840549399 0 -0.003389347781020072 -0.035918808088909723 0 -0.002523746184356915 -0.034028395505696314 0 -0.0038644475396867875 -0.032123580559065869 0 -0.003389347781020072 -0.035918808088909723 0 -0.0022484996453389773 -0.042151335716810304 0 -0.0035416330435120462 -0.043791928637655832 0 -0.0025294660761687438 -0.046633158009492977 0 -0.0022484996453389773 -0.042151335716810304 0 -0.0035416330435120462 -0.043791928637655832 0 -0.0037404438389441338 -0.039752129059170686 0 -0.0023558429257100268 -0.037625396840549399 0 -0.0022484996453389773 -0.042151335716810304 0 -0.0037404438389441338 -0.039752129059170686 0 -0.0053015472424196531 -0.038844101748219194 0 -0.0037404438389441338 -0.039752129059170686 0 -0.0047820185957102371 -0.042810270372712088 0 -0.0035416330435120462 -0.043791928637655832 0 -0.0047820185957102371 -0.042810270372712088 0 -0.0041664225075345469 -0.047730078879786253 0 -0.0035416330435120462 -0.043791928637655832 0 -0.0037404438389441338 -0.039752129059170686 0 -0.0047820185957102371 -0.042810270372712088 0 -0.0047820185957102371 -0.042810270372712088 0 -0.0063481070510143763 -0.041602331368960022 0 -0.0057054205333695387 -0.046000326038968718 0 -0.0053015472424196531 -0.038844101748219194 0 -0.0047820185957102371 -0.042810270372712088 0 -0.0063481070510143763 -0.041602331368960022 0 -0.0063481070510143763 -0.041602331368960022 0 -0.007053760138440608 -0.044897158458434179 0 -0.0057054205333695387 -0.046000326038968718 0 -0.007053760138440608 -0.044897158458434179 0 -0.0083860677454831219 -0.043492860572076367 0 -0.0074620527557734224 -0.040561803765314861 0 -0.0083860677454831219 -0.043492860572076367 0 -0.0074620527557734224 -0.040561803765314861 0 -0.0083316063687427326 -0.038578402005261879 0 -0.0063481070510143763 -0.041602331368960022 0 -0.0074620527557734224 -0.040561803765314861 0 -0.0067851373799086723 -0.037097059545039321 0 -0.0063481070510143763 -0.041602331368960022 0 -0.007053760138440608 -0.044897158458434179 0 -0.0074620527557734224 -0.040561803765314861 0 -0.0055143606043866443 -0.034200942594708919 0 -0.0067851373799086723 -0.037097059545039321 0 -0.0071654828821548786 -0.03313410035840083 0 -0.0083316063687427326 -0.038578402005261879 0 -0.0089472812867110573 -0.035230666685757021 0 -0.0071654828821548786 -0.03313410035840083 0 -0.0067851373799086723 -0.037097059545039321 0 -0.0083316063687427326 -0.038578402005261879 0 -0.0071654828821548786 -0.03313410035840083 0 -0.0074620527557734224 -0.040561803765314861 0 -0.0067851373799086723 -0.037097059545039321 0 -0.0083316063687427326 -0.038578402005261879 0 -0.0083316063687427326 -0.038578402005261879 0 -0.0099934649565279199 -0.038889168547498985 0 -0.0095152638693452984 -0.042031682196887916 0 -0.0083316063687427326 -0.038578402005261879 0 -0.0089472812867110573 -0.035230666685757021 0 -0.0099934649565279199 -0.038889168547498985 0 -0.0089472812867110573 -0.035230666685757021 0 -0.0099934649565279199 -0.038889168547498985 0 -0.010571976986473981 -0.035699587029037375 0 -0.0099934649565279199 -0.038889168547498985 0 -0.0095152638693452984 -0.042031682196887916 0 -0.010892314055358279 -0.042482948769158015 0 -0.0095152638693452984 -0.042031682196887916 0 -0.010892314055358279 -0.042482948769158015 0 -0.010771886341708278 -0.046527381686169739 0 -0.0095152638693452984 -0.042031682196887916 0 -0.010771886341708278 -0.046527381686169739 0 -0.0093836292292547429 -0.046327480715776616 0 -0.0083860677454831219 -0.043492860572076367 0 -0.0095152638693452984 -0.042031682196887916 0 -0.0093836292292547429 -0.046327480715776616 0 -0.0083860677454831219 -0.043492860572076367 0 -0.0083316063687427326 -0.038578402005261879 0 -0.0095152638693452984 -0.042031682196887916 0 -0.0052527522704315238 -0.022538476563255666 0 -0.0064502660922515697 -0.023698136645896543 0 -0.0059140340824986289 -0.026479461643161013 0 -0.0064502660922515697 -0.023698136645896543 0 -0.0059140340824986289 -0.026479461643161013 0 -0.0073864699751499622 -0.028124074631708202 0 -0.0064502660922515697 -0.023698136645896543 0 -0.0073864699751499622 -0.028124074631708202 0 -0.0077746752911335504 -0.025156446501059252 0 -0.0073864699751499622 -0.028124074631708202 0 -0.0067276818392754782 -0.029794007022575737 0 -0.008101915712616127 -0.031735282425313475 0 -0.0059140340824986289 -0.026479461643161013 0 -0.0073864699751499622 -0.028124074631708202 0 -0.0067276818392754782 -0.029794007022575737 0 -0.0058431519669568371 -0.030437971071533995 0 -0.0059140340824986289 -0.026479461643161013 0 -0.0067276818392754782 -0.029794007022575737 0 -0.0058431519669568371 -0.030437971071533995 0 -0.0067276818392754782 -0.029794007022575737 0 -0.0071654828821548786 -0.03313410035840083 0 -0.0067276818392754782 -0.029794007022575737 0 -0.0071654828821548786 -0.03313410035840083 0 -0.008101915712616127 -0.031735282425313475 0 -0.0089472812867110573 -0.035230666685757021 0 -0.0071654828821548786 -0.03313410035840083 0 -0.008101915712616127 -0.031735282425313475 0 -0.0089472812867110573 -0.035230666685757021 0 -0.008101915712616127 -0.031735282425313475 0 -0.0092055328562551161 -0.030407282883628907 0 -0.0089472812867110573 -0.035230666685757021 0 -0.0092055328562551161 -0.030407282883628907 0 -0.010571976986473981 -0.035699587029037375 0 -0.0073864699751499622 -0.028124074631708202 0 -0.008101915712616127 -0.031735282425313475 0 -0.0092055328562551161 -0.030407282883628907 0 -0.0073864699751499622 -0.028124074631708202 0 -0.0092055328562551161 -0.030407282883628907 0 -0.0077746752911335504 -0.025156446501059252 0 -0.0092055328562551161 -0.030407282883628907 0 -0.0077746752911335504 -0.025156446501059252 0 -0.0089051828891919503 -0.024801067679366601 0 -0.0078902943053992796 -0.021985380566448016 0 -0.0077746752911335504 -0.025156446501059252 0 -0.0089051828891919503 -0.024801067679366601 0 -0.0067544549378942415 -0.02079727347891942 0 -0.0064502660922515697 -0.023698136645896543 0 -0.0077746752911335504 -0.025156446501059252 0 -0.0067544549378942415 -0.02079727347891942 0 -0.0078902943053992796 -0.021985380566448016 0 -0.0077746752911335504 -0.025156446501059252 0 -0.0093235015732949008 -0.022720560586298226 0 -0.010310731408928315 -0.028298537295317252 0 -0.011180062981653823 -0.026128574048675735 0 -0.0093235015732949008 -0.022720560586298226 0 -0.0078902943053992796 -0.021985380566448016 0 -0.0089051828891919503 -0.024801067679366601 0 -0.0093235015732949008 -0.022720560586298226 0 -0.0089051828891919503 -0.024801067679366601 0 -0.010310731408928315 -0.028298537295317252 0 -0.0092055328562551161 -0.030407282883628907 0 -0.0089051828891919503 -0.024801067679366601 0 -0.010310731408928315 -0.028298537295317252 0 -0.010310731408928315 -0.028298537295317252 0 -0.011975542937592756 -0.030772215585272211 0 -0.011180062981653823 -0.026128574048675735 0 -0.010310731408928315 -0.028298537295317252 0 -0.010997805570378754 -0.032522740769403098 0 -0.011975542937592756 -0.030772215585272211 0 -0.0092055328562551161 -0.030407282883628907 0 -0.010310731408928315 -0.028298537295317252 0 -0.010997805570378754 -0.032522740769403098 0 -0.0092055328562551161 -0.030407282883628907 0 -0.010997805570378754 -0.032522740769403098 0 -0.010571976986473981 -0.035699587029037375 0 -0.010997805570378754 -0.032522740769403098 0 -0.010571976986473981 -0.035699587029037375 0 -0.012395073393588836 -0.035969027617117941 0 -0.010997805570378754 -0.032522740769403098 0 -0.011975542937592756 -0.030772215585272211 0 -0.012395073393588836 -0.035969027617117941 0 -0.013570953055149125 -0.033338914313072711 0 -0.011975542937592756 -0.030772215585272211 0 -0.012395073393588836 -0.035969027617117941 0 -0.013570953055149125 -0.033338914313072711 0 -0.011975542937592756 -0.030772215585272211 0 -0.01299053217148834 -0.029047138348374212 0 -0.011975542937592756 -0.030772215585272211 0 -0.01299053217148834 -0.029047138348374212 0 -0.011180062981653823 -0.026128574048675735 0 -0.01299053217148834 -0.029047138348374212 0 -0.012193910948974221 -0.024762772280579697 0 -0.011180062981653823 -0.026128574048675735 0 -0.010457572344484996 -0.021905178668130822 0 -0.012193910948974221 -0.024762772280579697 0 -0.011180062981653823 -0.026128574048675735 0 -0.012345968946074691 -0.045158578514793352 0 -0.010892314055358279 -0.042482948769158015 0 -0.011852423532000804 -0.040108776646281007 0 -0.012345968946074691 -0.045158578514793352 0 -0.010892314055358279 -0.042482948769158015 0 -0.010771886341708278 -0.046527381686169739 0 -0.0099934649565279199 -0.038889168547498985 0 -0.010892314055358279 -0.042482948769158015 0 -0.011852423532000804 -0.040108776646281007 0 -0.0099934649565279199 -0.038889168547498985 0 -0.010571976986473981 -0.035699587029037375 0 -0.011852423532000804 -0.040108776646281007 0 -0.010571976986473981 -0.035699587029037375 0 -0.011852423532000804 -0.040108776646281007 0 -0.012395073393588836 -0.035969027617117941 0 -0.011852423532000804 -0.040108776646281007 0 -0.013094528872171135 -0.039774105768462964 0 -0.012395073393588836 -0.035969027617117941 0 -0.013570953055149125 -0.033338914313072711 0 -0.012395073393588836 -0.035969027617117941 0 -0.013975381098954243 -0.037681642465372533 0 -0.013094528872171135 -0.039774105768462964 0 -0.012395073393588836 -0.035969027617117941 0 -0.013975381098954243 -0.037681642465372533 0 -0.013094528872171135 -0.039774105768462964 0 -0.013975381098954243 -0.037681642465372533 0 -0.014259105637729414 -0.042048114782997317 0 -0.013094528872171135 -0.039774105768462964 0 -0.014259105637729414 -0.042048114782997317 0 -0.013318310469420646 -0.042978898927013232 0 -0.012345968946074691 -0.045158578514793352 0 -0.013318310469420646 -0.042978898927013232 0 -0.014441469228775955 -0.046472539882210617 0 -0.012345968946074691 -0.045158578514793352 0 -0.011852423532000804 -0.040108776646281007 0 -0.013318310469420646 -0.042978898927013232 0 -0.011852423532000804 -0.040108776646281007 0 -0.013094528872171135 -0.039774105768462964 0 -0.013318310469420646 -0.042978898927013232 0 -0.014259105637729414 -0.042048114782997317 0 -0.013318310469420646 -0.042978898927013232 0 -0.014441469228775955 -0.046472539882210617 0 -0.012345968946074691 -0.045158578514793352 0 -0.014441469228775955 -0.046472539882210617 0 -0.013180071645805945 -0.04947141276028038 0 -0.014441469228775955 -0.046472539882210617 0 -0.014540929722598931 -0.050933998692172619 0 -0.013180071645805945 -0.04947141276028038 0 -0.014540929722598931 -0.050933998692172619 0 -0.013180071645805945 -0.04947141276028038 0 -0.013531995880552669 -0.053003973905161879 0 -0.013180071645805945 -0.04947141276028038 0 -0.012210966465251468 -0.052493899534940124 0 -0.013531995880552669 -0.053003973905161879 0 -0.012345968946074691 -0.045158578514793352 0 -0.013180071645805945 -0.04947141276028038 0 -0.011925930426190397 -0.049170556576307471 0 -0.012345968946074691 -0.045158578514793352 0 -0.011925930426190397 -0.049170556576307471 0 -0.010771886341708278 -0.046527381686169739 0 -0.013180071645805945 -0.04947141276028038 0 -0.011925930426190397 -0.049170556576307471 0 -0.012210966465251468 -0.052493899534940124 0 -0.011925930426190397 -0.049170556576307471 0 -0.011047543524359828 -0.052190580795247923 0 -0.012210966465251468 -0.052493899534940124 0 -0.011925930426190397 -0.049170556576307471 0 -0.010771886341708278 -0.046527381686169739 0 -0.011047543524359828 -0.052190580795247923 0 -0.011463408171064771 -0.055962617270497679 0 -0.011047543524359828 -0.052190580795247923 0 -0.012210966465251468 -0.052493899534940124 0 -0.011463408171064771 -0.055962617270497679 0 -0.013072227112383232 -0.056564337052499185 0 -0.011958928727229685 -0.059569623466397235 0 -0.011463408171064771 -0.055962617270497679 0 -0.012210966465251468 -0.052493899534940124 0 -0.013072227112383232 -0.056564337052499185 0 -0.012210966465251468 -0.052493899534940124 0 -0.013072227112383232 -0.056564337052499185 0 -0.013531995880552669 -0.053003973905161879 0 -0.014540929722598931 -0.050933998692172619 0 -0.013531995880552669 -0.053003973905161879 0 -0.014584543018721788 -0.055428003934886672 0 -0.013072227112383232 -0.056564337052499185 0 -0.014584543018721788 -0.055428003934886672 0 -0.01459145089716069 -0.059967787376112025 0 -0.013072227112383232 -0.056564337052499185 0 -0.013531995880552669 -0.053003973905161879 0 -0.014584543018721788 -0.055428003934886672 0 -0.01459145089716069 -0.059967787376112025 0 -0.013159000509051513 -0.061911706029292329 0 -0.014565741023846926 -0.064536131912655878 0 -0.013072227112383232 -0.056564337052499185 0 -0.013159000509051513 -0.061911706029292329 0 -0.011958928727229685 -0.059569623466397235 0 -0.013072227112383232 -0.056564337052499185 0 -0.01459145089716069 -0.059967787376112025 0 -0.013159000509051513 -0.061911706029292329 0 -0.014565741023846926 -0.064536131912655878 0 -0.013017459245917434 -0.066826434984903607 0 -0.014518194624605638 -0.069134143387646466 0 -0.013159000509051513 -0.061911706029292329 0 -0.014565741023846926 -0.064536131912655878 0 -0.013017459245917434 -0.066826434984903607 0 -0.013017459245917434 -0.066826434984903607 0 -0.014518194624605638 -0.069134143387646466 0 -0.013130083999169009 -0.071276356180097769 0 -0.013017459245917434 -0.066826434984903607 0 -0.011435577834182994 -0.063900406560374975 0 -0.01170261254341253 -0.069743186464627085 0 -0.011435577834182994 -0.063900406560374975 0 -0.010789503663808105 -0.067207320859602182 0 -0.01170261254341253 -0.069743186464627085 0 -0.013159000509051513 -0.061911706029292329 0 -0.013017459245917434 -0.066826434984903607 0 -0.011435577834182994 -0.063900406560374975 0 -0.010789503663808105 -0.067207320859602182 0 -0.01170261254341253 -0.069743186464627085 0 -0.010072527904048853 -0.069633520376417152 0 -0.013159000509051513 -0.061911706029292329 0 -0.011435577834182994 -0.063900406560374975 0 -0.011958928727229685 -0.059569623466397235 0 -0.011435577834182994 -0.063900406560374975 0 -0.011958928727229685 -0.059569623466397235 0 -0.010787573355092049 -0.059262177859929412 0 -0.011463408171064771 -0.055962617270497679 0 -0.011958928727229685 -0.059569623466397235 0 -0.010787573355092049 -0.059262177859929412 0 -0.011435577834182994 -0.063900406560374975 0 -0.010787573355092049 -0.059262177859929412 0 -0.0095030024463636266 -0.061252640474544054 0 -0.010787573355092049 -0.059262177859929412 0 -0.0095030024463636266 -0.061252640474544054 0 -0.0097664917541752244 -0.055717034171242914 0 -0.0095030024463636266 -0.061252640474544054 0 -0.0084507317214644381 -0.057130779795481527 0 -0.0097664917541752244 -0.055717034171242914 0 -0.011435577834182994 -0.063900406560374975 0 -0.0095030024463636266 -0.061252640474544054 0 -0.0098214994510689105 -0.065548776599504407 0 -0.010789503663808105 -0.067207320859602182 0 -0.0098214994510689105 -0.065548776599504407 0 -0.010072527904048853 -0.069633520376417152 0 -0.011435577834182994 -0.063900406560374975 0 -0.010789503663808105 -0.067207320859602182 0 -0.0098214994510689105 -0.065548776599504407 0 -0.0095030024463636266 -0.061252640474544054 0 -0.0098214994510689105 -0.065548776599504407 0 -0.0086573966613960034 -0.065343670166487552 0 -0.0098214994510689105 -0.065548776599504407 0 -0.010072527904048853 -0.069633520376417152 0 -0.0088407975612649781 -0.069914187641064163 0 -0.0098214994510689105 -0.065548776599504407 0 -0.0086573966613960034 -0.065343670166487552 0 -0.0088407975612649781 -0.069914187641064163 0 -0.0086573966613960034 -0.065343670166487552 0 -0.0075668554166296031 -0.066761463121484566 0 -0.0088407975612649781 -0.069914187641064163 0 -0.0086573966613960034 -0.065343670166487552 0 -0.0075668554166296031 -0.066761463121484566 0 -0.0076568296285177105 -0.061871643244133606 0 -0.0075668554166296031 -0.066761463121484566 0 -0.0076568296285177105 -0.061871643244133606 0 -0.0063505659731036609 -0.064745146454023406 0 -0.0075668554166296031 -0.066761463121484566 0 -0.0074654253891834254 -0.071689417908736355 0 -0.0065419188491970129 -0.068411079197293376 0 -0.0075668554166296031 -0.066761463121484566 0 -0.0065419188491970129 -0.068411079197293376 0 -0.0063505659731036609 -0.064745146454023406 0 -0.0095030024463636266 -0.061252640474544054 0 -0.0076568296285177105 -0.061871643244133606 0 -0.0084507317214644381 -0.057130779795481527 0 -0.0095030024463636266 -0.061252640474544054 0 -0.0086573966613960034 -0.065343670166487552 0 -0.0076568296285177105 -0.061871643244133606 0 -0.0076568296285177105 -0.061871643244133606 0 -0.0069719177271782501 -0.057940769653735263 0 -0.0084507317214644381 -0.057130779795481527 0 -0.0076568296285177105 -0.061871643244133606 0 -0.0069719177271782501 -0.057940769653735263 0 -0.005946182002209064 -0.060055059260555217 0 -0.0069719177271782501 -0.057940769653735263 0 -0.0084507317214644381 -0.057130779795481527 0 -0.0076113884056386426 -0.05345268270093529 0 -0.0069719177271782501 -0.057940769653735263 0 -0.0076113884056386426 -0.05345268270093529 0 -0.0063379836137694712 -0.054660241350207549 0 -0.0084507317214644381 -0.057130779795481527 0 -0.0076113884056386426 -0.05345268270093529 0 -0.0089207404716587935 -0.052933758830530454 0 -0.0076113884056386426 -0.05345268270093529 0 -0.0083546708420356927 -0.048620549364851967 0 -0.0089207404716587935 -0.052933758830530454 0 -0.0076113884056386426 -0.05345268270093529 0 -0.0067679399666068117 -0.049840537152795059 0 -0.0063379836137694712 -0.054660241350207549 0 -0.0076113884056386426 -0.05345268270093529 0 -0.0083546708420356927 -0.048620549364851967 0 -0.0067679399666068117 -0.049840537152795059 0 -0.007053760138440608 -0.044897158458434179 0 -0.0083546708420356927 -0.048620549364851967 0 -0.0067679399666068117 -0.049840537152795059 0 -0.0083860677454831219 -0.043492860572076367 0 -0.0083546708420356927 -0.048620549364851967 0 -0.0093836292292547429 -0.046327480715776616 0 -0.007053760138440608 -0.044897158458434179 0 -0.0083860677454831219 -0.043492860572076367 0 -0.0083546708420356927 -0.048620549364851967 0 -0.0083546708420356927 -0.048620549364851967 0 -0.0099788869001235011 -0.050499506515422142 0 -0.0089207404716587935 -0.052933758830530454 0 -0.0083546708420356927 -0.048620549364851967 0 -0.0093836292292547429 -0.046327480715776616 0 -0.0099788869001235011 -0.050499506515422142 0 -0.010771886341708278 -0.046527381686169739 0 -0.0093836292292547429 -0.046327480715776616 0 -0.0099788869001235011 -0.050499506515422142 0 -0.010771886341708278 -0.046527381686169739 0 -0.011047543524359828 -0.052190580795247923 0 -0.0099788869001235011 -0.050499506515422142 0 -0.011047543524359828 -0.052190580795247923 0 -0.0099788869001235011 -0.050499506515422142 0 -0.0097664917541752244 -0.055717034171242914 0 -0.011463408171064771 -0.055962617270497679 0 -0.011047543524359828 -0.052190580795247923 0 -0.0097664917541752244 -0.055717034171242914 0 -0.011463408171064771 -0.055962617270497679 0 -0.010787573355092049 -0.059262177859929412 0 -0.0097664917541752244 -0.055717034171242914 0 -0.0084507317214644381 -0.057130779795481527 0 -0.0097664917541752244 -0.055717034171242914 0 -0.0089207404716587935 -0.052933758830530454 0 -0.0099788869001235011 -0.050499506515422142 0 -0.0097664917541752244 -0.055717034171242914 0 -0.0089207404716587935 -0.052933758830530454 0 -0.011120087292731642 -0.092500329199458373 0 -0.011063396675380553 -0.088324493293205963 0 -0.0095377665690402694 -0.092508146484902645 0 -0.011063396675380553 -0.088324493293205963 0 -0.012624322150836557 -0.087969569688908775 0 -0.011715241115412119 -0.084088086260852346 0 -0.011120087292731642 -0.092500329199458373 0 -0.012687101454307969 -0.092478969251577905 0 -0.012624322150836557 -0.087969569688908775 0 -0.011120087292731642 -0.092500329199458373 0 -0.011063396675380553 -0.088324493293205963 0 -0.012624322150836557 -0.087969569688908775 0 -0.012687101454307969 -0.092478969251577905 0 -0.013461342615967839 -0.090163260640199694 0 -0.012624322150836557 -0.087969569688908775 0 -0.012687101454307969 -0.092478969251577905 0 -0.014249619035777516 -0.09244579830182012 0 -0.013461342615967839 -0.090163260640199694 0 -0.014249619035777516 -0.09244579830182012 0 -0.013461342615967839 -0.090163260640199694 0 -0.014284779199658516 -0.087758328239222222 0 -0.013461342615967839 -0.090163260640199694 0 -0.014284779199658516 -0.087758328239222222 0 -0.012624322150836557 -0.087969569688908775 0 -0.014284779199658516 -0.087758328239222222 0 -0.012624322150836557 -0.087969569688908775 0 -0.012951378989275435 -0.082976999066024057 0 -0.012624322150836557 -0.087969569688908775 0 -0.012951378989275435 -0.082976999066024057 0 -0.011715241115412119 -0.084088086260852346 0 -0.014284779199658516 -0.087758328239222222 0 -0.014332394050667305 -0.083077250161471883 0 -0.012951378989275435 -0.082976999066024057 0 -0.014332394050667305 -0.083077250161471883 0 -0.012951378989275435 -0.082976999066024057 0 -0.01439152455677274 -0.07840907229172174 0 -0.012951378989275435 -0.082976999066024057 0 -0.011715241115412119 -0.084088086260852346 0 -0.012350994583524283 -0.078929064827566481 0 -0.011715241115412119 -0.084088086260852346 0 -0.011070135159406417 -0.080454023089967769 0 -0.012350994583524283 -0.078929064827566481 0 -0.011063396675380553 -0.088324493293205963 0 -0.011715241115412119 -0.084088086260852346 0 -0.01044143922453826 -0.083552787840389539 0 -0.011063396675380553 -0.088324493293205963 0 -0.01044143922453826 -0.083552787840389539 0 -0.0097027186236907127 -0.086694783593527405 0 -0.01044143922453826 -0.083552787840389539 0 -0.011070135159406417 -0.080454023089967769 0 -0.0098669170268732564 -0.078932270975634447 0 -0.011715241115412119 -0.084088086260852346 0 -0.01044143922453826 -0.083552787840389539 0 -0.011070135159406417 -0.080454023089967769 0 -0.011070135159406417 -0.080454023089967769 0 -0.01106880070519644 -0.077110876584682186 0 -0.0098669170268732564 -0.078932270975634447 0 -0.01106880070519644 -0.077110876584682186 0 -0.012350994583524283 -0.078929064827566481 0 -0.011880518197639392 -0.073788190639583695 0 -0.011070135159406417 -0.080454023089967769 0 -0.01106880070519644 -0.077110876584682186 0 -0.012350994583524283 -0.078929064827566481 0 -0.012350994583524283 -0.078929064827566481 0 -0.01439152455677274 -0.07840907229172174 0 -0.013243161844388377 -0.075235775288338844 0 -0.012951378989275435 -0.082976999066024057 0 -0.012350994583524283 -0.078929064827566481 0 -0.01439152455677274 -0.07840907229172174 0 -0.01439152455677274 -0.07840907229172174 0 -0.013243161844388377 -0.075235775288338844 0 -0.014457291792827787 -0.073758403761945132 0 -0.012350994583524283 -0.078929064827566481 0 -0.013243161844388377 -0.075235775288338844 0 -0.011880518197639392 -0.073788190639583695 0 -0.013243161844388377 -0.075235775288338844 0 -0.013130083999169009 -0.071276356180097769 0 -0.011880518197639392 -0.073788190639583695 0 -0.013243161844388377 -0.075235775288338844 0 -0.014457291792827787 -0.073758403761945132 0 -0.013130083999169009 -0.071276356180097769 0 -0.014457291792827787 -0.073758403761945132 0 -0.014518194624605638 -0.069134143387646466 0 -0.013130083999169009 -0.071276356180097769 0 -0.013017459245917434 -0.066826434984903607 0 -0.013130083999169009 -0.071276356180097769 0 -0.01170261254341253 -0.069743186464627085 0 -0.013130083999169009 -0.071276356180097769 0 -0.01170261254341253 -0.069743186464627085 0 -0.011880518197639392 -0.073788190639583695 0 -0.01106880070519644 -0.077110876584682186 0 -0.011880518197639392 -0.073788190639583695 0 -0.010169038014337438 -0.073447132095123741 0 -0.01170261254341253 -0.069743186464627085 0 -0.011880518197639392 -0.073788190639583695 0 -0.010169038014337438 -0.073447132095123741 0 -0.01170261254341253 -0.069743186464627085 0 -0.010072527904048853 -0.069633520376417152 0 -0.010169038014337438 -0.073447132095123741 0 -0.010072527904048853 -0.069633520376417152 0 -0.010169038014337438 -0.073447132095123741 0 -0.0088407975612649781 -0.069914187641064163 0 -0.010169038014337438 -0.073447132095123741 0 -0.0088407975612649781 -0.069914187641064163 0 -0.0088941454890477407 -0.075462653803338026 0 -0.0075668554166296031 -0.066761463121484566 0 -0.0088407975612649781 -0.069914187641064163 0 -0.0074654253891834254 -0.071689417908736355 0 -0.0074654253891834254 -0.071689417908736355 0 -0.0076055847071584103 -0.075579777414617313 0 -0.0062781688440941424 -0.075023337286719713 0 -0.0074654253891834254 -0.071689417908736355 0 -0.0076055847071584103 -0.075579777414617313 0 -0.0088941454890477407 -0.075462653803338026 0 -0.0088407975612649781 -0.069914187641064163 0 -0.0074654253891834254 -0.071689417908736355 0 -0.0088941454890477407 -0.075462653803338026 0 -0.0076055847071584103 -0.075579777414617313 0 -0.0081840786875197677 -0.080066773623727341 0 -0.0088941454890477407 -0.075462653803338026 0 -0.0076055847071584103 -0.075579777414617313 0 -0.0068496291654348476 -0.079017747695263374 0 -0.0062781688440941424 -0.075023337286719713 0 -0.0076055847071584103 -0.075579777414617313 0 -0.0068496291654348476 -0.079017747695263374 0 -0.0081840786875197677 -0.080066773623727341 0 -0.0081840786875197677 -0.080066773623727341 0 -0.0088941454890477407 -0.075462653803338026 0 -0.0098669170268732564 -0.078932270975634447 0 -0.0081840786875197677 -0.080066773623727341 0 -0.0098669170268732564 -0.078932270975634447 0 -0.0092546010914662594 -0.08282464734591409 0 -0.010169038014337438 -0.073447132095123741 0 -0.0088941454890477407 -0.075462653803338026 0 -0.0098669170268732564 -0.078932270975634447 0 -0.01106880070519644 -0.077110876584682186 0 -0.010169038014337438 -0.073447132095123741 0 -0.0098669170268732564 -0.078932270975634447 0 -0.01044143922453826 -0.083552787840389539 0 -0.0098669170268732564 -0.078932270975634447 0 -0.0092546010914662594 -0.08282464734591409 0 -0.01044143922453826 -0.083552787840389539 0 -0.0092546010914662594 -0.08282464734591409 0 -0.0097027186236907127 -0.086694783593527405 0 -0.0092546010914662594 -0.08282464734591409 0 -0.0080477482189259646 -0.084761156552248834 0 -0.0097027186236907127 -0.086694783593527405 0 -0.0081840786875197677 -0.080066773623727341 0 -0.0092546010914662594 -0.08282464734591409 0 -0.0080477482189259646 -0.084761156552248834 0 -0.0081840786875197677 -0.080066773623727341 0 -0.0065824787570526707 -0.083767835732112467 0 -0.0080477482189259646 -0.084761156552248834 0 -0.0068496291654348476 -0.079017747695263374 0 -0.0081840786875197677 -0.080066773623727341 0 -0.0065824787570526707 -0.083767835732112467 0 -0.0065824787570526707 -0.083767835732112467 0 -0.0080477482189259646 -0.084761156552248834 0 -0.0070477634848983648 -0.088368004516897455 0 -0.0080477482189259646 -0.084761156552248834 0 -0.0070477634848983648 -0.088368004516897455 0 -0.0084509173658031123 -0.088967250018873734 0 -0.0065824787570526707 -0.083767835732112467 0 -0.0070477634848983648 -0.088368004516897455 0 -0.0055094484303364636 -0.087813885686539236 0 -0.0070477634848983648 -0.088368004516897455 0 -0.0079361200419133787 -0.092510839658253338 0 -0.006306040495664 -0.092522804657212979 0 -0.0070477634848983648 -0.088368004516897455 0 -0.0079361200419133787 -0.092510839658253338 0 -0.0084509173658031123 -0.088967250018873734 0 -0.0079361200419133787 -0.092510839658253338 0 -0.0084509173658031123 -0.088967250018873734 0 -0.0095377665690402694 -0.092508146484902645 0 -0.0080477482189259646 -0.084761156552248834 0 -0.0084509173658031123 -0.088967250018873734 0 -0.0097027186236907127 -0.086694783593527405 0 -0.0084509173658031123 -0.088967250018873734 0 -0.0097027186236907127 -0.086694783593527405 0 -0.0095377665690402694 -0.092508146484902645 0 -0.011063396675380553 -0.088324493293205963 0 -0.0097027186236907127 -0.086694783593527405 0 -0.0095377665690402694 -0.092508146484902645 0 -0.0029690949549683928 -0.092629328227755076 0 -0.0026512692275317802 -0.089289024671376657 0 -0.003880707132120396 -0.088323663237687894 0 -0.0029690949549683928 -0.092629328227755076 0 -0.0026512692275317802 -0.089289024671376657 0 -0.001265568013931702 -0.09274621354621812 0 -0.0026512692275317802 -0.089289024671376657 0 -0.003880707132120396 -0.088323663237687894 0 -0.0029193694107732689 -0.084944067050578997 0 -0.0026512692275317802 -0.089289024671376657 0 -0.0029193694107732689 -0.084944067050578997 0 -0.0015632315450970998 -0.087400702610186842 0 -0.0029690949549683928 -0.092629328227755076 0 -0.003880707132120396 -0.088323663237687894 0 -0.0046504972901342352 -0.092558236762509696 0 -0.0046504972901342352 -0.092558236762509696 0 -0.006306040495664 -0.092522804657212979 0 -0.0055094484303364636 -0.087813885686539236 0 -0.0070477634848983648 -0.088368004516897455 0 -0.006306040495664 -0.092522804657212979 0 -0.0055094484303364636 -0.087813885686539236 0 -0.003880707132120396 -0.088323663237687894 0 -0.0046504972901342352 -0.092558236762509696 0 -0.0055094484303364636 -0.087813885686539236 0 -0.003880707132120396 -0.088323663237687894 0 -0.0055094484303364636 -0.087813885686539236 0 -0.004559333454237746 -0.083041961473818746 0 -0.0065824787570526707 -0.083767835732112467 0 -0.0057672816828816453 -0.080996135754776544 0 -0.004559333454237746 -0.083041961473818746 0 -0.0065824787570526707 -0.083767835732112467 0 -0.0055094484303364636 -0.087813885686539236 0 -0.004559333454237746 -0.083041961473818746 0 -0.0068496291654348476 -0.079017747695263374 0 -0.0065824787570526707 -0.083767835732112467 0 -0.0057672816828816453 -0.080996135754776544 0 -0.004559333454237746 -0.083041961473818746 0 -0.0029193694107732689 -0.084944067050578997 0 -0.0029960154898635008 -0.081272874048045451 0 -0.003880707132120396 -0.088323663237687894 0 -0.004559333454237746 -0.083041961473818746 0 -0.0029193694107732689 -0.084944067050578997 0 -0.0029193694107732689 -0.084944067050578997 0 -0.0029960154898635008 -0.081272874048045451 0 -0.0016777395192667673 -0.082891983488115772 0 -0.0029960154898635008 -0.081272874048045451 0 -0.0038877569344242047 -0.077874572672289408 0 -0.0019332997661162846 -0.077657298405632416 0 -0.0038877569344242047 -0.077874572672289408 0 -0.0032692105637654838 -0.074680757653450724 0 -0.0019332997661162846 -0.077657298405632416 0 -0.0038877569344242047 -0.077874572672289408 0 -0.0047818431291202501 -0.074743578977370148 0 -0.0032692105637654838 -0.074680757653450724 0 -0.004559333454237746 -0.083041961473818746 0 -0.0029960154898635008 -0.081272874048045451 0 -0.0038877569344242047 -0.077874572672289408 0 -0.004559333454237746 -0.083041961473818746 0 -0.0038877569344242047 -0.077874572672289408 0 -0.005218967945524843 -0.078142872147976633 0 -0.0057672816828816453 -0.080996135754776544 0 -0.004559333454237746 -0.083041961473818746 0 -0.005218967945524843 -0.078142872147976633 0 -0.0068496291654348476 -0.079017747695263374 0 -0.0057672816828816453 -0.080996135754776544 0 -0.005218967945524843 -0.078142872147976633 0 -0.0068496291654348476 -0.079017747695263374 0 -0.005218967945524843 -0.078142872147976633 0 -0.0062781688440941424 -0.075023337286719713 0 -0.005218967945524843 -0.078142872147976633 0 -0.0062781688440941424 -0.075023337286719713 0 -0.0047818431291202501 -0.074743578977370148 0 -0.0038877569344242047 -0.077874572672289408 0 -0.005218967945524843 -0.078142872147976633 0 -0.0047818431291202501 -0.074743578977370148 0 -0.0062781688440941424 -0.075023337286719713 0 -0.0047818431291202501 -0.074743578977370148 0 -0.0057782981665037781 -0.071504477527244203 0 -0.0047818431291202501 -0.074743578977370148 0 -0.0057782981665037781 -0.071504477527244203 0 -0.004146323190724022 -0.071478128543477834 0 -0.0074654253891834254 -0.071689417908736355 0 -0.0062781688440941424 -0.075023337286719713 0 -0.0057782981665037781 -0.071504477527244203 0 -0.0057782981665037781 -0.071504477527244203 0 -0.0065419188491970129 -0.068411079197293376 0 -0.0052191039255337452 -0.068172216138733699 0 -0.0074654253891834254 -0.071689417908736355 0 -0.0057782981665037781 -0.071504477527244203 0 -0.0065419188491970129 -0.068411079197293376 0 -0.0057782981665037781 -0.071504477527244203 0 -0.004146323190724022 -0.071478128543477834 0 -0.0052191039255337452 -0.068172216138733699 0 -0.004146323190724022 -0.071478128543477834 0 -0.0052191039255337452 -0.068172216138733699 0 -0.0034997211580726269 -0.067802876690327335 0 -0.0047818431291202501 -0.074743578977370148 0 -0.004146323190724022 -0.071478128543477834 0 -0.0032692105637654838 -0.074680757653450724 0 -0.004146323190724022 -0.071478128543477834 0 -0.0032692105637654838 -0.074680757653450724 0 -0.0024160571453113629 -0.072091383773853171 0 -0.004146323190724022 -0.071478128543477834 0 -0.0024160571453113629 -0.072091383773853171 0 -0.0034997211580726269 -0.067802876690327335 0 -0.0024160571453113629 -0.072091383773853171 0 -0.0011706255810227616 -0.07080243323996406 0 -0.0019765584007791367 -0.067493148233385244 0 -0.0024160571453113629 -0.072091383773853171 0 -0.0034997211580726269 -0.067802876690327335 0 -0.0019765584007791367 -0.067493148233385244 0 -0.0024160571453113629 -0.072091383773853171 0 -0.0010726680668174341 -0.074226363961426137 0 -0.0019332997661162846 -0.077657298405632416 0 -0.0032692105637654838 -0.074680757653450724 0 -0.0024160571453113629 -0.072091383773853171 0 -0.0019332997661162846 -0.077657298405632416 0 -0.0024160571453113629 -0.072091383773853171 0 -0.0010726680668174341 -0.074226363961426137 0 -0.0011706255810227616 -0.07080243323996406 0 -0.0011706255810227616 -0.07080243323996406 0 0.00012414447525340583 -0.072599737474598455 0 -0.00034770461414092811 -0.068124901447308872 0 0.00012414447525340583 -0.072599737474598455 0 -0.00034770461414092811 -0.068124901447308872 0 0.0014093645635157178 -0.069971547306785578 0 0.00012414447525340583 -0.072599737474598455 0 0.0014616529524911802 -0.073313778688937292 0 0.0014093645635157178 -0.069971547306785578 0 0.00012414447525340583 -0.072599737474598455 0 0.0015890309014827719 -0.076806197989432015 0 0.0014616529524911802 -0.073313778688937292 0 -0.0010726680668174341 -0.074226363961426137 0 0.00012414447525340583 -0.072599737474598455 0 5.4979224168211327e-05 -0.078051276787373308 0 -0.0010726680668174341 -0.074226363961426137 0 -0.0011706255810227616 -0.07080243323996406 0 0.00012414447525340583 -0.072599737474598455 0 0.00012414447525340583 -0.072599737474598455 0 5.4979224168211327e-05 -0.078051276787373308 0 0.0015890309014827719 -0.076806197989432015 0 5.4979224168211327e-05 -0.078051276787373308 0 0.0016518051560636476 -0.081746659062551366 0 0.0015890309014827719 -0.076806197989432015 0 5.4979224168211327e-05 -0.078051276787373308 0 -0.00035099062132519108 -0.081622477075620273 0 0.0016518051560636476 -0.081746659062551366 0 5.4979224168211327e-05 -0.078051276787373308 0 -0.0019332997661162846 -0.077657298405632416 0 -0.00035099062132519108 -0.081622477075620273 0 -0.0019332997661162846 -0.077657298405632416 0 -0.0016777395192667673 -0.082891983488115772 0 -0.00035099062132519108 -0.081622477075620273 0 -0.0010726680668174341 -0.074226363961426137 0 5.4979224168211327e-05 -0.078051276787373308 0 -0.0019332997661162846 -0.077657298405632416 0 -0.0029960154898635008 -0.081272874048045451 0 -0.0019332997661162846 -0.077657298405632416 0 -0.0016777395192667673 -0.082891983488115772 0 -0.0029193694107732689 -0.084944067050578997 0 -0.0016777395192667673 -0.082891983488115772 0 -0.0015632315450970998 -0.087400702610186842 0 -0.0016777395192667673 -0.082891983488115772 0 -0.00031326968423181631 -0.085370828173311458 0 -0.0015632315450970998 -0.087400702610186842 0 -0.0016777395192667673 -0.082891983488115772 0 -0.00031326968423181631 -0.085370828173311458 0 -0.00035099062132519108 -0.081622477075620273 0 -0.00031326968423181631 -0.085370828173311458 0 -0.00035099062132519108 -0.081622477075620273 0 0.00088877569477557915 -0.085038109250579211 0 -0.00035099062132519108 -0.081622477075620273 0 0.00088877569477557915 -0.085038109250579211 0 0.0016518051560636476 -0.081746659062551366 0 0.00088877569477557915 -0.085038109250579211 0 0.00096900917722263582 -0.088827504878521979 0 0.002545294747246748 -0.087717917396344255 0 0.00088877569477557915 -0.085038109250579211 0 0.002545294747246748 -0.087717917396344255 0 0.0016518051560636476 -0.081746659062551366 0 -0.00031326968423181631 -0.085370828173311458 0 0.00088877569477557915 -0.085038109250579211 0 0.00096900917722263582 -0.088827504878521979 0 -0.00031326968423181631 -0.085370828173311458 0 0.00096900917722263582 -0.088827504878521979 0 -0.00034549060785680607 -0.089443527168147324 0 0.00096900917722263582 -0.088827504878521979 0 0.0021438695511751182 -0.093179822184306843 0 0.002545294747246748 -0.087717917396344255 0 0.00096900917722263582 -0.088827504878521979 0 0.00044557660260659699 -0.092932404692190523 0 0.0021438695511751182 -0.093179822184306843 0 0.00096900917722263582 -0.088827504878521979 0 0.00044557660260659699 -0.092932404692190523 0 -0.00034549060785680607 -0.089443527168147324 0 0.00044557660260659699 -0.092932404692190523 0 -0.00034549060785680607 -0.089443527168147324 0 -0.001265568013931702 -0.09274621354621812 0 -0.00034549060785680607 -0.089443527168147324 0 -0.0015632315450970998 -0.087400702610186842 0 -0.001265568013931702 -0.09274621354621812 0 -0.00031326968423181631 -0.085370828173311458 0 -0.00034549060785680607 -0.089443527168147324 0 -0.0015632315450970998 -0.087400702610186842 0 -0.0026512692275317802 -0.089289024671376657 0 -0.0015632315450970998 -0.087400702610186842 0 -0.001265568013931702 -0.09274621354621812 0 -0.0042240688239522824 -0.052415316765460324 0 -0.0047690211191632184 -0.056036922700594106 0 -0.0033847580574412513 -0.054712217516366783 0 -0.0047690211191632184 -0.056036922700594106 0 -0.0033847580574412513 -0.054712217516366783 0 -0.0033811648833025109 -0.058452434158717217 0 -0.0033847580574412513 -0.054712217516366783 0 -0.0033811648833025109 -0.058452434158717217 0 -0.0021111688894927191 -0.056998779883019914 0 -0.0042240688239522824 -0.052415316765460324 0 -0.0033847580574412513 -0.054712217516366783 0 -0.0028692127283663979 -0.051023349128831587 0 -0.0028692127283663979 -0.051023349128831587 0 -0.0041664225075345469 -0.047730078879786253 0 -0.0025294660761687438 -0.046633158009492977 0 -0.0042240688239522824 -0.052415316765460324 0 -0.0028692127283663979 -0.051023349128831587 0 -0.0041664225075345469 -0.047730078879786253 0 -0.0035416330435120462 -0.043791928637655832 0 -0.0041664225075345469 -0.047730078879786253 0 -0.0025294660761687438 -0.046633158009492977 0 -0.0042240688239522824 -0.052415316765460324 0 -0.0041664225075345469 -0.047730078879786253 0 -0.0055088808585276013 -0.051525296246577562 0 -0.0041664225075345469 -0.047730078879786253 0 -0.0057054205333695387 -0.046000326038968718 0 -0.0055088808585276013 -0.051525296246577562 0 -0.0047820185957102371 -0.042810270372712088 0 -0.0041664225075345469 -0.047730078879786253 0 -0.0057054205333695387 -0.046000326038968718 0 -0.007053760138440608 -0.044897158458434179 0 -0.0057054205333695387 -0.046000326038968718 0 -0.0067679399666068117 -0.049840537152795059 0 -0.0057054205333695387 -0.046000326038968718 0 -0.0067679399666068117 -0.049840537152795059 0 -0.0055088808585276013 -0.051525296246577562 0 -0.0067679399666068117 -0.049840537152795059 0 -0.0055088808585276013 -0.051525296246577562 0 -0.0063379836137694712 -0.054660241350207549 0 -0.0042240688239522824 -0.052415316765460324 0 -0.0047690211191632184 -0.056036922700594106 0 -0.0055088808585276013 -0.051525296246577562 0 -0.0047690211191632184 -0.056036922700594106 0 -0.0055088808585276013 -0.051525296246577562 0 -0.0063379836137694712 -0.054660241350207549 0 -0.0047690211191632184 -0.056036922700594106 0 -0.0063379836137694712 -0.054660241350207549 0 -0.005946182002209064 -0.060055059260555217 0 -0.0069719177271782501 -0.057940769653735263 0 -0.0063379836137694712 -0.054660241350207549 0 -0.005946182002209064 -0.060055059260555217 0 -0.0076568296285177105 -0.061871643244133606 0 -0.005946182002209064 -0.060055059260555217 0 -0.0063505659731036609 -0.064745146454023406 0 -0.005946182002209064 -0.060055059260555217 0 -0.0047995493281146476 -0.064412473650581836 0 -0.0045345166395658392 -0.060467869191603588 0 -0.005946182002209064 -0.060055059260555217 0 -0.0063505659731036609 -0.064745146454023406 0 -0.0047995493281146476 -0.064412473650581836 0 -0.0047690211191632184 -0.056036922700594106 0 -0.005946182002209064 -0.060055059260555217 0 -0.0045345166395658392 -0.060467869191603588 0 -0.0065419188491970129 -0.068411079197293376 0 -0.0063505659731036609 -0.064745146454023406 0 -0.0052191039255337452 -0.068172216138733699 0 -0.0063505659731036609 -0.064745146454023406 0 -0.0052191039255337452 -0.068172216138733699 0 -0.0047995493281146476 -0.064412473650581836 0 -0.0052191039255337452 -0.068172216138733699 0 -0.0047995493281146476 -0.064412473650581836 0 -0.0034997211580726269 -0.067802876690327335 0 -0.0047995493281146476 -0.064412473650581836 0 -0.0031572883843536677 -0.063406003402844413 0 -0.0034997211580726269 -0.067802876690327335 0 -0.0031572883843536677 -0.063406003402844413 0 -0.0034997211580726269 -0.067802876690327335 0 -0.0019765584007791367 -0.067493148233385244 0 -0.0047690211191632184 -0.056036922700594106 0 -0.0045345166395658392 -0.060467869191603588 0 -0.0033811648833025109 -0.058452434158717217 0 -0.0047995493281146476 -0.064412473650581836 0 -0.0031572883843536677 -0.063406003402844413 0 -0.0045345166395658392 -0.060467869191603588 0 -0.0031572883843536677 -0.063406003402844413 0 -0.0045345166395658392 -0.060467869191603588 0 -0.0033811648833025109 -0.058452434158717217 0 -0.0031572883843536677 -0.063406003402844413 0 -0.0033811648833025109 -0.058452434158717217 0 -0.0021442030331919925 -0.060349004983686325 0 -0.0033811648833025109 -0.058452434158717217 0 -0.0021442030331919925 -0.060349004983686325 0 -0.0021111688894927191 -0.056998779883019914 0 -0.0031572883843536677 -0.063406003402844413 0 -0.0021442030331919925 -0.060349004983686325 0 -0.0010670775073328004 -0.063515795450759985 0 -0.0021442030331919925 -0.060349004983686325 0 -0.0010670775073328004 -0.063515795450759985 0 -0.00080515301760329932 -0.059364327992807379 0 -0.00080515301760329932 -0.059364327992807379 0 -0.0008368706496046101 -0.05572053243430658 0 -0.0021111688894927191 -0.056998779883019914 0 -0.0021442030331919925 -0.060349004983686325 0 -0.00080515301760329932 -0.059364327992807379 0 -0.0021111688894927191 -0.056998779883019914 0 -0.0031572883843536677 -0.063406003402844413 0 -0.0019765584007791367 -0.067493148233385244 0 -0.0010670775073328004 -0.063515795450759985 0 -0.0019765584007791367 -0.067493148233385244 0 -0.0010670775073328004 -0.063515795450759985 0 -0.00034770461414092811 -0.068124901447308872 0 -0.0011706255810227616 -0.07080243323996406 0 -0.0019765584007791367 -0.067493148233385244 0 -0.00034770461414092811 -0.068124901447308872 0 -0.0010670775073328004 -0.063515795450759985 0 -0.00034770461414092811 -0.068124901447308872 0 0.0009384837044904736 -0.064481297234206147 0 -0.00034770461414092811 -0.068124901447308872 0 0.0009384837044904736 -0.064481297234206147 0 0.0014093645635157178 -0.069971547306785578 0 -0.0010670775073328004 -0.063515795450759985 0 0.00052353532619105864 -0.060529213083059835 0 0.0009384837044904736 -0.064481297234206147 0 -0.00080515301760329932 -0.059364327992807379 0 0.00052353532619105864 -0.060529213083059835 0 0.00034630086841226957 -0.05646599070121102 0 -0.00080515301760329932 -0.059364327992807379 0 0.00034630086841226957 -0.05646599070121102 0 -0.0008368706496046101 -0.05572053243430658 0 -0.0010670775073328004 -0.063515795450759985 0 -0.00080515301760329932 -0.059364327992807379 0 0.00052353532619105864 -0.060529213083059835 0 0.00052353532619105864 -0.060529213083059835 0 0.00034630086841226957 -0.05646599070121102 0 0.0015726663275007792 -0.057674914979387391 0 0.00034630086841226957 -0.05646599070121102 0 0.0018666099358706776 -0.054359135457418661 0 0.0015726663275007792 -0.057674914979387391 0 0.00034630086841226957 -0.05646599070121102 0 0.00021707362762550677 -0.052343974180346746 0 0.0018666099358706776 -0.054359135457418661 0 0.00034630086841226957 -0.05646599070121102 0 0.00021707362762550677 -0.052343974180346746 0 -0.0008368706496046101 -0.05572053243430658 0 -0.0008368706496046101 -0.05572053243430658 0 -0.0016972767716990549 -0.053448397860918276 0 -0.0021111688894927191 -0.056998779883019914 0 0.00021707362762550677 -0.052343974180346746 0 -0.0008368706496046101 -0.05572053243430658 0 -0.0016972767716990549 -0.053448397860918276 0 0.00021707362762550677 -0.052343974180346746 0 -0.0016972767716990549 -0.053448397860918276 0 -0.0011081721132861606 -0.049446823849313863 0 -0.0028692127283663979 -0.051023349128831587 0 -0.0016972767716990549 -0.053448397860918276 0 -0.0011081721132861606 -0.049446823849313863 0 -0.0033847580574412513 -0.054712217516366783 0 -0.0028692127283663979 -0.051023349128831587 0 -0.0016972767716990549 -0.053448397860918276 0 -0.0033847580574412513 -0.054712217516366783 0 -0.0016972767716990549 -0.053448397860918276 0 -0.0021111688894927191 -0.056998779883019914 0 -0.0028692127283663979 -0.051023349128831587 0 -0.0025294660761687438 -0.046633158009492977 0 -0.0011081721132861606 -0.049446823849313863 0 -0.00084218204795175478 -0.044722758987039014 0 -0.0025294660761687438 -0.046633158009492977 0 -0.0011081721132861606 -0.049446823849313863 0 0.00021707362762550677 -0.052343974180346746 0 0.00054861673482978451 -0.047837689904594027 0 0.002309793581533067 -0.049865856693234192 0 -0.00084218204795175478 -0.044722758987039014 0 0.00091858877247109698 -0.044201217793202442 0 0.00054861673482978451 -0.047837689904594027 0 -0.00084218204795175478 -0.044722758987039014 0 -0.0011081721132861606 -0.049446823849313863 0 0.00054861673482978451 -0.047837689904594027 0 0.00021707362762550677 -0.052343974180346746 0 -0.0011081721132861606 -0.049446823849313863 0 0.00054861673482978451 -0.047837689904594027 0 0.00091858877247109698 -0.044201217793202442 0 0.00054861673482978451 -0.047837689904594027 0 0.0022587435499118436 -0.04586036845784143 0 0.00054861673482978451 -0.047837689904594027 0 0.002309793581533067 -0.049865856693234192 0 0.0022587435499118436 -0.04586036845784143 0 0.002309793581533067 -0.049865856693234192 0 0.0022587435499118436 -0.04586036845784143 0 0.0035994349807784301 -0.049154631201935695 0 0.002309793581533067 -0.049865856693234192 0 0.0035994349807784301 -0.049154631201935695 0 0.0036744862566034223 -0.052881627483902821 0 0.0022587435499118436 -0.04586036845784143 0 0.0035531544300349688 -0.045329479520843645 0 0.0035994349807784301 -0.049154631201935695 0 0.0035531544300349688 -0.045329479520843645 0 0.0035994349807784301 -0.049154631201935695 0 0.005024924039074675 -0.04931738980243533 0 0.0035994349807784301 -0.049154631201935695 0 0.005024924039074675 -0.04931738980243533 0 0.0036744862566034223 -0.052881627483902821 0 0.0035531544300349688 -0.045329479520843645 0 0.005024924039074675 -0.04931738980243533 0 0.0046978583434091233 -0.043942334214480711 0 0.0045184270905255135 -0.057236631576056046 0 0.0058945181233173716 -0.057800293560739124 0 0.0054745441257547291 -0.054350009534838449 0 0.0036744862566034223 -0.052881627483902821 0 0.0045184270905255135 -0.057236631576056046 0 0.0054745441257547291 -0.054350009534838449 0 0.005024924039074675 -0.04931738980243533 0 0.0036744862566034223 -0.052881627483902821 0 0.0054745441257547291 -0.054350009534838449 0 0.0036744862566034223 -0.052881627483902821 0 0.0029499395319883283 -0.057191655285788436 0 0.0045184270905255135 -0.057236631576056046 0 0.00021707362762550677 -0.052343974180346746 0 0.002309793581533067 -0.049865856693234192 0 0.0018666099358706776 -0.054359135457418661 0 0.0036744862566034223 -0.052881627483902821 0 0.0018666099358706776 -0.054359135457418661 0 0.0029499395319883283 -0.057191655285788436 0 0.002309793581533067 -0.049865856693234192 0 0.0036744862566034223 -0.052881627483902821 0 0.0018666099358706776 -0.054359135457418661 0 0.0018666099358706776 -0.054359135457418661 0 0.0015726663275007792 -0.057674914979387391 0 0.0029499395319883283 -0.057191655285788436 0 0.00052353532619105864 -0.060529213083059835 0 0.0015726663275007792 -0.057674914979387391 0 0.0021978594398182464 -0.060735386711306669 0 0.0015726663275007792 -0.057674914979387391 0 0.0021978594398182464 -0.060735386711306669 0 0.0029499395319883283 -0.057191655285788436 0 0.00052353532619105864 -0.060529213083059835 0 0.0021978594398182464 -0.060735386711306669 0 0.0009384837044904736 -0.064481297234206147 0 0.0021978594398182464 -0.060735386711306669 0 0.0028343817002737608 -0.063386850941034911 0 0.0037037959769217099 -0.060528483569956416 0 0.0021978594398182464 -0.060735386711306669 0 0.0029499395319883283 -0.057191655285788436 0 0.0037037959769217099 -0.060528483569956416 0 0.0009384837044904736 -0.064481297234206147 0 0.0026675933420285914 -0.069589233326995445 0 0.0014093645635157178 -0.069971547306785578 0 0.0021978594398182464 -0.060735386711306669 0 0.0009384837044904736 -0.064481297234206147 0 0.0028343817002737608 -0.063386850941034911 0 0.00090799674670878692 -0.064483563065011976 0 0.0025176614325592281 -0.064578315365823966 0 0.0009384837044904736 -0.064481297234206147 0 0.0022102317620052636 -0.065766284175090811 0 0.0026675933420285914 -0.069589233326995445 0 0.0026675933420285914 -0.069589233326995445 0 0.0037008762170016338 -0.065677377109744972 0 0.0040227931624682283 -0.071267652209826018 0 0.0025176614325592281 -0.064578315365823966 0 0.0042065132936257863 -0.064869011403977023 0 0.0028343817002737608 -0.063386850941034911 0 0.0047105090236642796 -0.064058810327559612 0 0.0037037959769217099 -0.060528483569956416 0 0.0022102317620052636 -0.065766284175090811 0 0.0026675933420285914 -0.069589233326995445 0 0.0037008762170016338 -0.065677377109744972 0 0.0042065132936257863 -0.064869011403977023 0 0.0058630251277202727 -0.065161229691156675 0 0.0047105090236642796 -0.064058810327559612 0 0.0055068301604448474 -0.061042075809090587 0 0.0064794325104331344 -0.063970819399394738 0 0.0037008762170016338 -0.065677377109744972 0 0.0049504024501258893 -0.069267744626968455 0 0.0040227931624682283 -0.071267652209826018 0 0.0029499395319883283 -0.057191655285788436 0 0.0037037959769217099 -0.060528483569956416 0 0.0045184270905255135 -0.057236631576056046 0 0.0047105090236642796 -0.064058810327559612 0 0.0037037959769217099 -0.060528483569956416 0 0.0055068301604448474 -0.061042075809090587 0 0.0037037959769217099 -0.060528483569956416 0 0.0055068301604448474 -0.061042075809090587 0 0.0045184270905255135 -0.057236631576056046 0 0.0055068301604448474 -0.061042075809090587 0 0.0045184270905255135 -0.057236631576056046 0 0.0058945181233173716 -0.057800293560739124 0 0.0055068301604448474 -0.061042075809090587 0 0.0058945181233173716 -0.057800293560739124 0 0.0071193284004449414 -0.060526829960578343 0 0.0055068301604448474 -0.061042075809090587 0 0.0071193284004449414 -0.060526829960578343 0 0.0064794325104331344 -0.063970819399394738 0 0.0071193284004449414 -0.060526829960578343 0 0.0064794325104331344 -0.063970819399394738 0 0.0081988576100955248 -0.064638730095520361 0 0.0058945181233173716 -0.057800293560739124 0 0.0071193284004449414 -0.060526829960578343 0 0.0069811988658930154 -0.056413273538785336 0 0.0049504024501258893 -0.069267744626968455 0 0.0058522471880551197 -0.069286163372797152 0 0.0056410781417232485 -0.072954265985196887 0 0.0049504024501258893 -0.069267744626968455 0 0.0052441133001277732 -0.066350252639427773 0 0.0058522471880551197 -0.069286163372797152 0 0.0037008762170016338 -0.065677377109744972 0 0.0049504024501258893 -0.069267744626968455 0 0.0052441133001277732 -0.066350252639427773 0 0.0058630251277202727 -0.065161229691156675 0 0.0074707971871732495 -0.065448664143428162 0 0.0052441133001277732 -0.066350252639427773 0 0.0058522471880551197 -0.069286163372797152 0 0.0067547283860484196 -0.066257296882934733 0 0.0058522471880551197 -0.069286163372797152 0 0.0067547283860484196 -0.066257296882934733 0 0.0068545053934812123 -0.071412187088780804 0 0.0067547283860484196 -0.066257296882934733 0 0.0078369257034473505 -0.070424840877051642 0 0.0068545053934812123 -0.071412187088780804 0 0.0067547283860484196 -0.066257296882934733 0 0.0082843241474514339 -0.067001798739070126 0 0.0078369257034473505 -0.070424840877051642 0 0.0081988576100955248 -0.064638730095520361 0 0.0098877817486944814 -0.064622365494312009 0 0.0089168563501652899 -0.061820120703969708 0 0.0074707971871732495 -0.065448664143428162 0 0.0091088497300751761 -0.065812497797327299 0 0.0082843241474514339 -0.067001798739070126 0 0.0078369257034473505 -0.070424840877051642 0 0.0089142345881980944 -0.07194103687699778 0 0.0071193284004449414 -0.060526829960578343 0 0.0083171879707517691 -0.058225422694405997 0 0.0089168563501652899 -0.061820120703969708 0 0.0071193284004449414 -0.060526829960578343 0 0.0083171879707517691 -0.058225422694405997 0 0.0069811988658930154 -0.056413273538785336 0 0.0071193284004449414 -0.060526829960578343 0 0.0081988576100955248 -0.064638730095520361 0 0.0089168563501652899 -0.061820120703969708 0 0.0083171879707517691 -0.058225422694405997 0 0.0089168563501652899 -0.061820120703969708 0 0.0094632960515430489 -0.058006291670889137 0 0.0089168563501652899 -0.061820120703969708 0 0.0094632960515430489 -0.058006291670889137 0 0.010468953800304064 -0.061767225504946517 0 0.0083171879707517691 -0.058225422694405997 0 0.0094632960515430489 -0.058006291670889137 0 0.0082275574058630861 -0.053465496594996199 0 0.0094632960515430489 -0.058006291670889137 0 0.0082275574058630861 -0.053465496594996199 0 0.010051129216599888 -0.055037814829869559 0 0.0083171879707517691 -0.058225422694405997 0 0.0082275574058630861 -0.053465496594996199 0 0.0069811988658930154 -0.056413273538785336 0 0.0082275574058630861 -0.053465496594996199 0 0.006714240569876107 -0.048834332000812948 0 0.0067724414096729949 -0.052607137741702871 0 0.0082275574058630861 -0.053465496594996199 0 0.0069811988658930154 -0.056413273538785336 0 0.0067724414096729949 -0.052607137741702871 0 0.0082275574058630861 -0.053465496594996199 0 0.0079084852513130084 -0.048018353956471797 0 0.0097697229267827198 -0.050323941042803577 0 0.0079084852513130084 -0.048018353956471797 0 0.0097697229267827198 -0.050323941042803577 0 0.0085202168681217522 -0.045067307548885605 0 0.0079084852513130084 -0.048018353956471797 0 0.006714240569876107 -0.048834332000812948 0 0.0070792579465791183 -0.044147359547936263 0 0.0082275574058630861 -0.053465496594996199 0 0.0079084852513130084 -0.048018353956471797 0 0.006714240569876107 -0.048834332000812948 0 0.005024924039074675 -0.04931738980243533 0 0.006714240569876107 -0.048834332000812948 0 0.0067724414096729949 -0.052607137741702871 0 0.006714240569876107 -0.048834332000812948 0 0.0059233375274445809 -0.045464630248200022 0 0.0070792579465791183 -0.044147359547936263 0 0.005024924039074675 -0.04931738980243533 0 0.006714240569876107 -0.048834332000812948 0 0.0059233375274445809 -0.045464630248200022 0 0.005024924039074675 -0.04931738980243533 0 0.0046978583434091233 -0.043942334214480711 0 0.0059233375274445809 -0.045464630248200022 0 0.005024924039074675 -0.04931738980243533 0 0.0054745441257547291 -0.054350009534838449 0 0.0067724414096729949 -0.052607137741702871 0 0.0058945181233173716 -0.057800293560739124 0 0.0054745441257547291 -0.054350009534838449 0 0.0069811988658930154 -0.056413273538785336 0 0.0054745441257547291 -0.054350009534838449 0 0.0069811988658930154 -0.056413273538785336 0 0.0067724414096729949 -0.052607137741702871 0 0.0054679694687957778 -0.093810659999113297 0 0.0058320073417491439 -0.089460176947807057 0 0.0043820248271922314 -0.09013998253414357 0 0.0054679694687957778 -0.093810659999113297 0 0.0058320073417491439 -0.089460176947807057 0 0.0070898866539530776 -0.094158988441851985 0 0.0058320073417491439 -0.089460176947807057 0 0.0043820248271922314 -0.09013998253414357 0 0.0042637618157937984 -0.086268101043882314 0 0.0054679694687957778 -0.093810659999113297 0 0.0043820248271922314 -0.09013998253414357 0 0.0038151875183289295 -0.093475355486460437 0 0.0038151875183289295 -0.093475355486460437 0 0.0021438695511751182 -0.093179822184306843 0 0.002545294747246748 -0.087717917396344255 0 0.0043820248271922314 -0.09013998253414357 0 0.002545294747246748 -0.087717917396344255 0 0.0042637618157937984 -0.086268101043882314 0 0.0043820248271922314 -0.09013998253414357 0 0.0038151875183289295 -0.093475355486460437 0 0.002545294747246748 -0.087717917396344255 0 0.002545294747246748 -0.087717917396344255 0 0.0031818571561463174 -0.083375674634846977 0 0.0042637618157937984 -0.086268101043882314 0 0.002545294747246748 -0.087717917396344255 0 0.0016518051560636476 -0.081746659062551366 0 0.0031818571561463174 -0.083375674634846977 0 0.0031818571561463174 -0.083375674634846977 0 0.0042680327809571606 -0.082864164298502893 0 0.0033409968864445091 -0.079430832338297147 0 0.0031818571561463174 -0.083375674634846977 0 0.0042680327809571606 -0.082864164298502893 0 0.0042637618157937984 -0.086268101043882314 0 0.0042680327809571606 -0.082864164298502893 0 0.0042637618157937984 -0.086268101043882314 0 0.0054875216086804563 -0.084807466160418343 0 0.0058320073417491439 -0.089460176947807057 0 0.0042637618157937984 -0.086268101043882314 0 0.0054875216086804563 -0.084807466160418343 0 0.0042680327809571606 -0.082864164298502893 0 0.0054875216086804563 -0.084807466160418343 0 0.0050683973713911354 -0.080466538852356315 0 0.0050683973713911354 -0.080466538852356315 0 0.0044961181795872846 -0.075879164975800037 0 0.0060336526516079651 -0.0778977351763665 0 0.0050683973713911354 -0.080466538852356315 0 0.0033409968864445091 -0.079430832338297147 0 0.0044961181795872846 -0.075879164975800037 0 0.0033409968864445091 -0.079430832338297147 0 0.0027495065838412519 -0.073984982341531641 0 0.0044961181795872846 -0.075879164975800037 0 0.0042680327809571606 -0.082864164298502893 0 0.0050683973713911354 -0.080466538852356315 0 0.0033409968864445091 -0.079430832338297147 0 0.0016518051560636476 -0.081746659062551366 0 0.0031818571561463174 -0.083375674634846977 0 0.0033409968864445091 -0.079430832338297147 0 0.0016518051560636476 -0.081746659062551366 0 0.0033409968864445091 -0.079430832338297147 0 0.0015890309014827719 -0.076806197989432015 0 0.0033409968864445091 -0.079430832338297147 0 0.0015890309014827719 -0.076806197989432015 0 0.0027495065838412519 -0.073984982341531641 0 0.0015890309014827719 -0.076806197989432015 0 0.0027495065838412519 -0.073984982341531641 0 0.0014616529524911802 -0.073313778688937292 0 0.0027495065838412519 -0.073984982341531641 0 0.0014616529524911802 -0.073313778688937292 0 0.0014093645635157178 -0.069971547306785578 0 0.0026675933420285914 -0.069589233326995445 0 0.0027495065838412519 -0.073984982341531641 0 0.0014093645635157178 -0.069971547306785578 0 0.0026675933420285914 -0.069589233326995445 0 0.0027495065838412519 -0.073984982341531641 0 0.0040227931624682283 -0.071267652209826018 0 0.0027495065838412519 -0.073984982341531641 0 0.0044961181795872846 -0.075879164975800037 0 0.0040227931624682283 -0.071267652209826018 0 0.0044961181795872846 -0.075879164975800037 0 0.0040227931624682283 -0.071267652209826018 0 0.0056410781417232485 -0.072954265985196887 0 0.0049504024501258893 -0.069267744626968455 0 0.0040227931624682283 -0.071267652209826018 0 0.0056410781417232485 -0.072954265985196887 0 0.0044961181795872846 -0.075879164975800037 0 0.0056410781417232485 -0.072954265985196887 0 0.0060336526516079651 -0.0778977351763665 0 0.0056410781417232485 -0.072954265985196887 0 0.006791625649992525 -0.075520104664015306 0 0.0060336526516079651 -0.0778977351763665 0 0.0056410781417232485 -0.072954265985196887 0 0.006791625649992525 -0.075520104664015306 0 0.0068545053934812123 -0.071412187088780804 0 0.0058522471880551197 -0.069286163372797152 0 0.0056410781417232485 -0.072954265985196887 0 0.0068545053934812123 -0.071412187088780804 0 0.0078369257034473505 -0.070424840877051642 0 0.0068545053934812123 -0.071412187088780804 0 0.0081531873463218316 -0.075520999027347713 0 0.0078369257034473505 -0.070424840877051642 0 0.0081531873463218316 -0.075520999027347713 0 0.0089142345881980944 -0.07194103687699778 0 0.006791625649992525 -0.075520104664015306 0 0.0068545053934812123 -0.071412187088780804 0 0.0081531873463218316 -0.075520999027347713 0 0.006791625649992525 -0.075520104664015306 0 0.0081531873463218316 -0.075520999027347713 0 0.0072835334303605033 -0.079845147778418224 0 0.0081531873463218316 -0.075520999027347713 0 0.0086394349032899824 -0.081029128138235262 0 0.0072835334303605033 -0.079845147778418224 0 0.0081531873463218316 -0.075520999027347713 0 0.0086394349032899824 -0.081029128138235262 0 0.0098264535890352587 -0.080295970206556461 0 0.0086394349032899824 -0.081029128138235262 0 0.0072835334303605033 -0.079845147778418224 0 0.0087755182259673624 -0.084731437587677289 0 0.0072835334303605033 -0.079845147778418224 0 0.0067825394894138113 -0.083013498376573444 0 0.0087755182259673624 -0.084731437587677289 0 0.0072835334303605033 -0.079845147778418224 0 0.0060336526516079651 -0.0778977351763665 0 0.0067825394894138113 -0.083013498376573444 0 0.006791625649992525 -0.075520104664015306 0 0.0072835334303605033 -0.079845147778418224 0 0.0060336526516079651 -0.0778977351763665 0 0.0050683973713911354 -0.080466538852356315 0 0.0060336526516079651 -0.0778977351763665 0 0.0067825394894138113 -0.083013498376573444 0 0.0054875216086804563 -0.084807466160418343 0 0.0050683973713911354 -0.080466538852356315 0 0.0067825394894138113 -0.083013498376573444 0 0.0054875216086804563 -0.084807466160418343 0 0.0067500090308253869 -0.086895536449161329 0 0.0067825394894138113 -0.083013498376573444 0 0.0058320073417491439 -0.089460176947807057 0 0.0054875216086804563 -0.084807466160418343 0 0.0067500090308253869 -0.086895536449161329 0 0.0067500090308253869 -0.086895536449161329 0 0.0078430950207708291 -0.087032757898491311 0 0.0077800891212937186 -0.090546097618713753 0 0.0067500090308253869 -0.086895536449161329 0 0.0067825394894138113 -0.083013498376573444 0 0.0078430950207708291 -0.087032757898491311 0 0.0067825394894138113 -0.083013498376573444 0 0.0087755182259673624 -0.084731437587677289 0 0.0078430950207708291 -0.087032757898491311 0 0.0086394349032899824 -0.081029128138235262 0 0.0087755182259673624 -0.084731437587677289 0 0.010117669348497147 -0.084545919807961917 0 0.0087755182259673624 -0.084731437587677289 0 0.0091399910927324295 -0.089987991215561156 0 0.0099850115633096561 -0.087757925710806525 0 0.0087755182259673624 -0.084731437587677289 0 0.0078430950207708291 -0.087032757898491311 0 0.0091399910927324295 -0.089987991215561156 0 0.0078430950207708291 -0.087032757898491311 0 0.0091399910927324295 -0.089987991215561156 0 0.0077800891212937186 -0.090546097618713753 0 0.0091399910927324295 -0.089987991215561156 0 0.0086927490378505973 -0.094519255981809908 0 0.010279025472526392 -0.094879319955326655 0 0.0091399910927324295 -0.089987991215561156 0 0.010279025472526392 -0.094879319955326655 0 0.010649306219781671 -0.0912001579360225 0 0.0091399910927324295 -0.089987991215561156 0 0.0086927490378505973 -0.094519255981809908 0 0.0077800891212937186 -0.090546097618713753 0 0.0086927490378505973 -0.094519255981809908 0 0.0077800891212937186 -0.090546097618713753 0 0.0070898866539530776 -0.094158988441851985 0 0.0058320073417491439 -0.089460176947807057 0 0.0067500090308253869 -0.086895536449161329 0 0.0077800891212937186 -0.090546097618713753 0 0.0058320073417491439 -0.089460176947807057 0 0.0077800891212937186 -0.090546097618713753 0 0.0070898866539530776 -0.094158988441851985 0 0.013424195689808386 -0.095594445996653149 0 0.013028681096054073 -0.089576957609210001 0 0.014635786738555742 -0.091620791452538999 0 0.013424195689808386 -0.095594445996653149 0 0.012064063570722955 -0.091893890233360934 0 0.013028681096054073 -0.089576957609210001 0 0.012064063570722955 -0.091893890233360934 0 0.01124659802846607 -0.088328843510934812 0 0.013028681096054073 -0.089576957609210001 0 0.013424195689808386 -0.095594445996653149 0 0.012064063570722955 -0.091893890233360934 0 0.011855174352490538 -0.095238000787965127 0 0.012064063570722955 -0.091893890233360934 0 0.011855174352490538 -0.095238000787965127 0 0.010649306219781671 -0.0912001579360225 0 0.011855174352490538 -0.095238000787965127 0 0.010279025472526392 -0.094879319955326655 0 0.010649306219781671 -0.0912001579360225 0 0.0091399910927324295 -0.089987991215561156 0 0.010649306219781671 -0.0912001579360225 0 0.0099850115633096561 -0.087757925710806525 0 0.012064063570722955 -0.091893890233360934 0 0.010649306219781671 -0.0912001579360225 0 0.01124659802846607 -0.088328843510934812 0 0.01124659802846607 -0.088328843510934812 0 0.0099850115633096561 -0.087757925710806525 0 0.010117669348497147 -0.084545919807961917 0 0.010649306219781671 -0.0912001579360225 0 0.01124659802846607 -0.088328843510934812 0 0.0099850115633096561 -0.087757925710806525 0 0.0087755182259673624 -0.084731437587677289 0 0.0099850115633096561 -0.087757925710806525 0 0.010117669348497147 -0.084545919807961917 0 0.01124659802846607 -0.088328843510934812 0 0.010117669348497147 -0.084545919807961917 0 0.011450481084501868 -0.084818331838838745 0 0.011450481084501868 -0.084818331838838745 0 0.013028681096054073 -0.089576957609210001 0 0.012817141618090985 -0.084841807725354157 0 0.01124659802846607 -0.088328843510934812 0 0.011450481084501868 -0.084818331838838745 0 0.013028681096054073 -0.089576957609210001 0 0.013028681096054073 -0.089576957609210001 0 0.012817141618090985 -0.084841807725354157 0 0.014453507260856414 -0.086993432193222045 0 0.012817141618090985 -0.084841807725354157 0 0.011680544572435154 -0.081319417680519396 0 0.01333438114687849 -0.081450460591689477 0 0.011680544572435154 -0.081319417680519396 0 0.012034972653232815 -0.077582222218722741 0 0.01333438114687849 -0.081450460591689477 0 0.011680544572435154 -0.081319417680519396 0 0.010625380761024593 -0.077947405147836324 0 0.012034972653232815 -0.077582222218722741 0 0.011450481084501868 -0.084818331838838745 0 0.012817141618090985 -0.084841807725354157 0 0.011680544572435154 -0.081319417680519396 0 0.010117669348497147 -0.084545919807961917 0 0.011450481084501868 -0.084818331838838745 0 0.0098264535890352587 -0.080295970206556461 0 0.011450481084501868 -0.084818331838838745 0 0.011680544572435154 -0.081319417680519396 0 0.0098264535890352587 -0.080295970206556461 0 0.0086394349032899824 -0.081029128138235262 0 0.010117669348497147 -0.084545919807961917 0 0.0098264535890352587 -0.080295970206556461 0 0.0098264535890352587 -0.080295970206556461 0 0.010625380761024593 -0.077947405147836324 0 0.0095845467838339554 -0.075969625049010545 0 0.011680544572435154 -0.081319417680519396 0 0.0098264535890352587 -0.080295970206556461 0 0.010625380761024593 -0.077947405147836324 0 0.010625380761024593 -0.077947405147836324 0 0.0095845467838339554 -0.075969625049010545 0 0.010407570565153864 -0.07412166066861052 0 0.0081531873463218316 -0.075520999027347713 0 0.0095845467838339554 -0.075969625049010545 0 0.0089142345881980944 -0.07194103687699778 0 0.0081531873463218316 -0.075520999027347713 0 0.0098264535890352587 -0.080295970206556461 0 0.0095845467838339554 -0.075969625049010545 0 0.0095845467838339554 -0.075969625049010545 0 0.0089142345881980944 -0.07194103687699778 0 0.010407570565153864 -0.07412166066861052 0 0.0089142345881980944 -0.07194103687699778 0 0.010407570565153864 -0.07412166066861052 0 0.0095917459307280524 -0.0700836058558231 0 0.010407570565153864 -0.07412166066861052 0 0.012034972653232815 -0.077582222218722741 0 0.011961982477578719 -0.073193208234274415 0 0.010407570565153864 -0.07412166066861052 0 0.011961982477578719 -0.073193208234274415 0 0.01069272668276758 -0.070617408068711723 0 0.010625380761024593 -0.077947405147836324 0 0.010407570565153864 -0.07412166066861052 0 0.012034972653232815 -0.077582222218722741 0 0.012034972653232815 -0.077582222218722741 0 0.011961982477578719 -0.073193208234274415 0 0.013680489625490597 -0.076813002183492615 0 0.011961982477578719 -0.073193208234274415 0 0.013680489625490597 -0.076813002183492615 0 0.013251854518445207 -0.072054973850514376 0 0.013680489625490597 -0.076813002183492615 0 0.014673641268903153 -0.073447622707473528 0 0.015306416678226919 -0.077985242681935865 0 0.013680489625490597 -0.076813002183492615 0 0.014673641268903153 -0.073447622707473528 0 0.013251854518445207 -0.072054973850514376 0 0.014673641268903153 -0.073447622707473528 0 0.015732108101456088 -0.075392544723354854 0 0.015306416678226919 -0.077985242681935865 0 0.014673641268903153 -0.073447622707473528 0 0.015732108101456088 -0.075392544723354854 0 0.015372967016529474 -0.071497141924058233 0 0.015732108101456088 -0.075392544723354854 0 0.015372967016529474 -0.071497141924058233 0 0.016359721948417515 -0.073170781918437372 0 0.015732108101456088 -0.075392544723354854 0 0.016714128508978559 -0.077906996149415306 0 0.016359721948417515 -0.073170781918437372 0 0.015732108101456088 -0.075392544723354854 0 0.016714128508978559 -0.077906996149415306 0 0.015306416678226919 -0.077985242681935865 0 0.017066970213800738 -0.082593648255637198 0 0.015099344954118658 -0.082149090725738366 0 0.015950124127029196 -0.086563724922654794 0 0.015306416678226919 -0.077985242681935865 0 0.017066970213800738 -0.082593648255637198 0 0.015099344954118658 -0.082149090725738366 0 0.016714128508978559 -0.077906996149415306 0 0.015306416678226919 -0.077985242681935865 0 0.017066970213800738 -0.082593648255637198 0 0.015099344954118658 -0.082149090725738366 0 0.01333438114687849 -0.081450460591689477 0 0.014453507260856414 -0.086993432193222045 0 0.013680489625490597 -0.076813002183492615 0 0.015306416678226919 -0.077985242681935865 0 0.015099344954118658 -0.082149090725738366 0 0.013680489625490597 -0.076813002183492615 0 0.015099344954118658 -0.082149090725738366 0 0.01333438114687849 -0.081450460591689477 0 0.012034972653232815 -0.077582222218722741 0 0.013680489625490597 -0.076813002183492615 0 0.01333438114687849 -0.081450460591689477 0 0.012817141618090985 -0.084841807725354157 0 0.01333438114687849 -0.081450460591689477 0 0.014453507260856414 -0.086993432193222045 0 0.013028681096054073 -0.089576957609210001 0 0.014453507260856414 -0.086993432193222045 0 0.014635786738555742 -0.091620791452538999 0 0.014453507260856414 -0.086993432193222045 0 0.015950124127029196 -0.086563724922654794 0 0.015974524617650126 -0.091007190259410786 0 0.014453507260856414 -0.086993432193222045 0 0.015974524617650126 -0.091007190259410786 0 0.014635786738555742 -0.091620791452538999 0 0.015099344954118658 -0.082149090725738366 0 0.014453507260856414 -0.086993432193222045 0 0.015950124127029196 -0.086563724922654794 0 0.017066970213800738 -0.082593648255637198 0 0.015950124127029196 -0.086563724922654794 0 0.017418005834598758 -0.087277566916815708 0 0.017418005834598758 -0.087277566916815708 0 0.016791359622637947 -0.089440090986528775 0 0.017767044399140414 -0.091963063266575135 0 0.015950124127029196 -0.086563724922654794 0 0.017418005834598758 -0.087277566916815708 0 0.016791359622637947 -0.089440090986528775 0 0.015950124127029196 -0.086563724922654794 0 0.016791359622637947 -0.089440090986528775 0 0.015974524617650126 -0.091007190259410786 0 0.016791359622637947 -0.089440090986528775 0 0.015974524617650126 -0.091007190259410786 0 0.016997697092478021 -0.093323526361632464 0 0.016791359622637947 -0.089440090986528775 0 0.016997697092478021 -0.093323526361632464 0 0.017767044399140414 -0.091963063266575135 0 0.016997697092478021 -0.093323526361632464 0 0.017767044399140414 -0.091963063266575135 0 0.01811653128158576 -0.096650414656887285 0 0.016997697092478021 -0.093323526361632464 0 0.01811653128158576 -0.096650414656887285 0 0.016553878119374921 -0.09630017029466148 0 0.015974524617650126 -0.091007190259410786 0 0.016997697092478021 -0.093323526361632464 0 0.016553878119374921 -0.09630017029466148 0 0.016553878119374921 -0.09630017029466148 0 0.014635786738555742 -0.091620791452538999 0 0.014990075059937123 -0.095948388563855333 0 0.015974524617650126 -0.091007190259410786 0 0.016553878119374921 -0.09630017029466148 0 0.014635786738555742 -0.091620791452538999 0 0.013424195689808386 -0.095594445996653149 0 0.014635786738555742 -0.091620791452538999 0 0.014990075059937123 -0.095948388563855333 0 0.011464973565089282 -0.05534339422994361 0 0.013008765318628285 -0.053611152931257192 0 0.011609375108237787 -0.051328867865667281 0 0.011464973565089282 -0.05534339422994361 0 0.013297582011492956 -0.057516579148227526 0 0.012323164996061139 -0.059073546408495201 0 0.011464973565089282 -0.05534339422994361 0 0.01105844030500089 -0.058433788223330965 0 0.012323164996061139 -0.059073546408495201 0 0.011464973565089282 -0.05534339422994361 0 0.013297582011492956 -0.057516579148227526 0 0.013008765318628285 -0.053611152931257192 0 0.013008765318628285 -0.053611152931257192 0 0.012730493825932864 -0.048826810406786207 0 0.011609375108237787 -0.051328867865667281 0 0.012730493825932864 -0.048826810406786207 0 0.010968248772077001 -0.047586143668000076 0 0.011609375108237787 -0.051328867865667281 0 0.012730493825932864 -0.048826810406786207 0 0.010968248772077001 -0.047586143668000076 0 0.01186706993967537 -0.045496232046542046 0 0.010968248772077001 -0.047586143668000076 0 0.011609375108237787 -0.051328867865667281 0 0.0097697229267827198 -0.050323941042803577 0 0.010968248772077001 -0.047586143668000076 0 0.0097697229267827198 -0.050323941042803577 0 0.0097751277216631752 -0.046080551981726094 0 0.0097697229267827198 -0.050323941042803577 0 0.0097751277216631752 -0.046080551981726094 0 0.0085202168681217522 -0.045067307548885605 0 0.0082275574058630861 -0.053465496594996199 0 0.0097697229267827198 -0.050323941042803577 0 0.010051129216599888 -0.055037814829869559 0 0.011464973565089282 -0.05534339422994361 0 0.0097697229267827198 -0.050323941042803577 0 0.010051129216599888 -0.055037814829869559 0 0.011464973565089282 -0.05534339422994361 0 0.011609375108237787 -0.051328867865667281 0 0.0097697229267827198 -0.050323941042803577 0 0.011464973565089282 -0.05534339422994361 0 0.010051129216599888 -0.055037814829869559 0 0.01105844030500089 -0.058433788223330965 0 0.0094632960515430489 -0.058006291670889137 0 0.010051129216599888 -0.055037814829869559 0 0.01105844030500089 -0.058433788223330965 0 0.0094632960515430489 -0.058006291670889137 0 0.010468953800304064 -0.061767225504946517 0 0.01105844030500089 -0.058433788223330965 0 0.0098877817486944814 -0.064622365494312009 0 0.0089168563501652899 -0.061820120703969708 0 0.010468953800304064 -0.061767225504946517 0 0.010468953800304064 -0.061767225504946517 0 0.011536981098137897 -0.065329267899523924 0 0.012173796350757228 -0.062347714769048442 0 0.010468953800304064 -0.061767225504946517 0 0.01105844030500089 -0.058433788223330965 0 0.012173796350757228 -0.062347714769048442 0 0.0082843241474514339 -0.067001798739070126 0 0.0089142345881980944 -0.07194103687699778 0 0.0095917459307280524 -0.0700836058558231 0 0.0082843241474514339 -0.067001798739070126 0 0.0098327563102682709 -0.066947834691183622 0 0.0095917459307280524 -0.0700836058558231 0 0.0098877817486944814 -0.064622365494312009 0 0.010468953800304064 -0.061767225504946517 0 0.011536981098137897 -0.065329267899523924 0 0.0091088497300751761 -0.065812497797327299 0 0.010599310633999397 -0.066138823858961943 0 0.010407570565153864 -0.07412166066861052 0 0.0095917459307280524 -0.0700836058558231 0 0.01069272668276758 -0.070617408068711723 0 0.0098327563102682709 -0.066947834691183622 0 0.0095917459307280524 -0.0700836058558231 0 0.01069272668276758 -0.070617408068711723 0 0.011961982477578719 -0.073193208234274415 0 0.01069272668276758 -0.070617408068711723 0 0.011365708462468569 -0.067701649135155001 0 0.010599310633999397 -0.066138823858961943 0 0.012578752881648836 -0.066512260137065446 0 0.011536981098137897 -0.065329267899523924 0 0.013150640417024032 -0.065322215886722254 0 0.012173796350757228 -0.062347714769048442 0 0.0098327563102682709 -0.066947834691183622 0 0.01069272668276758 -0.070617408068711723 0 0.011365708462468569 -0.067701649135155001 0 0.012578752881648836 -0.066512260137065446 0 0.012649582638143758 -0.066899710444968674 0 0.011961982477578719 -0.073193208234274415 0 0.011365708462468569 -0.067701649135155001 0 0.013251854518445207 -0.072054973850514376 0 0.01105844030500089 -0.058433788223330965 0 0.012323164996061139 -0.059073546408495201 0 0.012173796350757228 -0.062347714769048442 0 0.013150640417024032 -0.065322215886722254 0 0.012173796350757228 -0.062347714769048442 0 0.013702441077479685 -0.061697398468712396 0 0.013297582011492956 -0.057516579148227526 0 0.012323164996061139 -0.059073546408495201 0 0.013702441077479685 -0.061697398468712396 0 0.012323164996061139 -0.059073546408495201 0 0.012173796350757228 -0.062347714769048442 0 0.013702441077479685 -0.061697398468712396 0 0.013702441077479685 -0.061697398468712396 0 0.015219511441136353 -0.063023831736657709 0 0.01484623434516252 -0.059474496661289795 0 0.013297582011492956 -0.057516579148227526 0 0.013702441077479685 -0.061697398468712396 0 0.01484623434516252 -0.059474496661289795 0 0.013150640417024032 -0.065322215886722254 0 0.013702441077479685 -0.061697398468712396 0 0.014743496720649649 -0.066091194584307122 0 0.013702441077479685 -0.061697398468712396 0 0.015219511441136353 -0.063023831736657709 0 0.014743496720649649 -0.066091194584307122 0 0.015219511441136353 -0.063023831736657709 0 0.01484623434516252 -0.059474496661289795 0 0.016264175022905079 -0.06228608438380779 0 0.011365708462468569 -0.067701649135155001 0 0.013251854518445207 -0.072054973850514376 0 0.012958294693321487 -0.067709761379121172 0 0.012649582638143758 -0.066899710444968674 0 0.019954747756749495 -0.067221730417395403 0 0.015219511441136353 -0.063023831736657709 0 0.014743496720649649 -0.066091194584307122 0 0.016336234500625164 -0.066029476671537399 0 0.013251854518445207 -0.072054973850514376 0 0.012958294693321487 -0.067709761379121172 0 0.014569166735635977 -0.068408909922888353 0 0.014673641268903153 -0.073447622707473528 0 0.013251854518445207 -0.072054973850514376 0 0.014569166735635977 -0.068408909922888353 0 0.014673641268903153 -0.073447622707473528 0 0.014569166735635977 -0.068408909922888353 0 0.015372967016529474 -0.071497141924058233 0 0.019954747756749495 -0.067221730417395403 0 0.00016310444100309262 -0.067491262625092127 0 0.014569166735635977 -0.068408909922888353 0 0.016180376919314458 -0.068310704675770578 0 0.015372967016529474 -0.071497141924058233 0 0.016180376919314458 -0.068310704675770578 0 0.015372967016529474 -0.071497141924058233 0 0.016359721948417515 -0.073170781918437372 0 0.01484623434516252 -0.059474496661289795 0 0.016264175022905079 -0.06228608438380779 0 0.015947605704308077 -0.056943801690853738 0 0.015219511441136353 -0.063023831736657709 0 0.016336234500625164 -0.066029476671537399 0 0.016264175022905079 -0.06228608438380779 0 0.016336234500625164 -0.066029476671537399 0 0.017889694342384251 -0.066692137877898766 0 0.016264175022905079 -0.06228608438380779 0 0.017889694342384251 -0.066692137877898766 0 0.016264175022905079 -0.06228608438380779 0 0.017529449215104177 -0.06191263861968356 0 0.016264175022905079 -0.06228608438380779 0 0.017529449215104177 -0.06191263861968356 0 0.015947605704308077 -0.056943801690853738 0 0.015947605704308077 -0.056943801690853738 0 0.015065523184194756 -0.052996915371322069 0 0.016949389943678131 -0.052576007809948651 0 0.017529449215104177 -0.06191263861968356 0 0.017234210048923303 -0.057220975463890156 0 0.015947605704308077 -0.056943801690853738 0 0.017234210048923303 -0.057220975463890156 0 0.015947605704308077 -0.056943801690853738 0 0.016949389943678131 -0.052576007809948651 0 0.01484623434516252 -0.059474496661289795 0 0.015947605704308077 -0.056943801690853738 0 0.014408293086875038 -0.055412402201854248 0 0.015947605704308077 -0.056943801690853738 0 0.014408293086875038 -0.055412402201854248 0 0.015065523184194756 -0.052996915371322069 0 0.013008765318628285 -0.053611152931257192 0 0.014408293086875038 -0.055412402201854248 0 0.014061354054584738 -0.05064320601082653 0 0.013297582011492956 -0.057516579148227526 0 0.013008765318628285 -0.053611152931257192 0 0.014408293086875038 -0.055412402201854248 0 0.013297582011492956 -0.057516579148227526 0 0.01484623434516252 -0.059474496661289795 0 0.014408293086875038 -0.055412402201854248 0 0.012730493825932864 -0.048826810406786207 0 0.014061354054584738 -0.05064320601082653 0 0.0141065875519362 -0.047155353111322316 0 0.013008765318628285 -0.053611152931257192 0 0.012730493825932864 -0.048826810406786207 0 0.014061354054584738 -0.05064320601082653 0 0.014061354054584738 -0.05064320601082653 0 0.015065523184194756 -0.052996915371322069 0 0.015432256180044113 -0.049356464763237642 0 0.014408293086875038 -0.055412402201854248 0 0.014061354054584738 -0.05064320601082653 0 0.015065523184194756 -0.052996915371322069 0 0.014061354054584738 -0.05064320601082653 0 0.015432256180044113 -0.049356464763237642 0 0.0141065875519362 -0.047155353111322316 0 0.015065523184194756 -0.052996915371322069 0 0.015432256180044113 -0.049356464763237642 0 0.016949389943678131 -0.052576007809948651 0 0.015432256180044113 -0.049356464763237642 0 0.016949389943678131 -0.052576007809948651 0 0.016664552110863796 -0.047980120303424627 0 0.015432256180044113 -0.049356464763237642 0 0.016664552110863796 -0.047980120303424627 0 0.015409231989381907 -0.046071104702800882 0 0.016664552110863796 -0.047980120303424627 0 0.016354967913244766 -0.043443828434130853 0 0.015409231989381907 -0.046071104702800882 0 0.016354967913244766 -0.043443828434130853 0 0.014442590406731773 -0.04240969417278239 0 0.015409231989381907 -0.046071104702800882 0 0.014442590406731773 -0.04240969417278239 0 0.015409231989381907 -0.046071104702800882 0 0.0141065875519362 -0.047155353111322316 0 0.015432256180044113 -0.049356464763237642 0 0.015409231989381907 -0.046071104702800882 0 0.0141065875519362 -0.047155353111322316 0 0.015972565475250181 -0.038952145530636605 0 0.014750352893864132 -0.038577788891868491 0 0.015508912886009824 -0.034490617162993696 0 0.016354967913244766 -0.043443828434130853 0 0.015972565475250181 -0.038952145530636605 0 0.014750352893864132 -0.038577788891868491 0 0.016354967913244766 -0.043443828434130853 0 0.014442590406731773 -0.04240969417278239 0 0.014750352893864132 -0.038577788891868491 0 0.014750352893864132 -0.038577788891868491 0 0.013248550703784844 -0.039314007931189492 0 0.013255222108880985 -0.035349942500287834 0 0.014442590406731773 -0.04240969417278239 0 0.014750352893864132 -0.038577788891868491 0 0.013248550703784844 -0.039314007931189492 0 0.013248550703784844 -0.039314007931189492 0 0.012938545877298088 -0.043532663071627786 0 0.012021384130614316 -0.039809022117487422 0 0.013248550703784844 -0.039314007931189492 0 0.012021384130614316 -0.039809022117487422 0 0.011884687224253537 -0.036248755553991929 0 0.013248550703784844 -0.039314007931189492 0 0.011884687224253537 -0.036248755553991929 0 0.013255222108880985 -0.035349942500287834 0 0.014442590406731773 -0.04240969417278239 0 0.0141065875519362 -0.047155353111322316 0 0.012938545877298088 -0.043532663071627786 0 0.014442590406731773 -0.04240969417278239 0 0.013248550703784844 -0.039314007931189492 0 0.012938545877298088 -0.043532663071627786 0 0.012730493825932864 -0.048826810406786207 0 0.0141065875519362 -0.047155353111322316 0 0.012938545877298088 -0.043532663071627786 0 0.012730493825932864 -0.048826810406786207 0 0.012938545877298088 -0.043532663071627786 0 0.01186706993967537 -0.045496232046542046 0 0.010968248772077001 -0.047586143668000076 0 0.01186706993967537 -0.045496232046542046 0 0.010759197195946967 -0.044018390744288462 0 0.01186706993967537 -0.045496232046542046 0 0.010759197195946967 -0.044018390744288462 0 0.011745693301336256 -0.042449546963781615 0 0.010759197195946967 -0.044018390744288462 0 0.011745693301336256 -0.042449546963781615 0 0.010718642248710351 -0.040454421676146782 0 0.012938545877298088 -0.043532663071627786 0 0.01186706993967537 -0.045496232046542046 0 0.011745693301336256 -0.042449546963781615 0 0.011745693301336256 -0.042449546963781615 0 0.012021384130614316 -0.039809022117487422 0 0.010718642248710351 -0.040454421676146782 0 0.012938545877298088 -0.043532663071627786 0 0.011745693301336256 -0.042449546963781615 0 0.012021384130614316 -0.039809022117487422 0 0.012021384130614316 -0.039809022117487422 0 0.011884687224253537 -0.036248755553991929 0 0.010274940245812209 -0.036880173437928758 0 0.011884687224253537 -0.036248755553991929 0 0.010274940245812209 -0.036880173437928758 0 0.010731003742031236 -0.034112550893457404 0 0.012021384130614316 -0.039809022117487422 0 0.010274940245812209 -0.036880173437928758 0 0.010718642248710351 -0.040454421676146782 0 0.010718642248710351 -0.040454421676146782 0 0.0091092169646115901 -0.037148601726743738 0 0.0095945410009649849 -0.042035668778189317 0 0.010274940245812209 -0.036880173437928758 0 0.010718642248710351 -0.040454421676146782 0 0.0091092169646115901 -0.037148601726743738 0 0.010274940245812209 -0.036880173437928758 0 0.0091092169646115901 -0.037148601726743738 0 0.008959757920812661 -0.032032683346193698 0 0.0091092169646115901 -0.037148601726743738 0 0.0095945410009649849 -0.042035668778189317 0 0.0081684318702676551 -0.041031265498509439 0 0.0095945410009649849 -0.042035668778189317 0 0.0081684318702676551 -0.041031265498509439 0 0.0085202168681217522 -0.045067307548885605 0 0.0095945410009649849 -0.042035668778189317 0 0.0097751277216631752 -0.046080551981726094 0 0.0085202168681217522 -0.045067307548885605 0 0.010759197195946967 -0.044018390744288462 0 0.0095945410009649849 -0.042035668778189317 0 0.0097751277216631752 -0.046080551981726094 0 0.010968248772077001 -0.047586143668000076 0 0.010759197195946967 -0.044018390744288462 0 0.0097751277216631752 -0.046080551981726094 0 0.010759197195946967 -0.044018390744288462 0 0.010718642248710351 -0.040454421676146782 0 0.0095945410009649849 -0.042035668778189317 0 0.0068348232416161362 -0.026832633387007164 0 0.0056138255114323967 -0.022576543405354168 0 0.0068894403187242442 -0.023346619906723511 0 0.0079191001476971931 -0.027118290119880116 0 0.0066309161837709149 -0.0267524573013595 0 0.0068348232416161362 -0.026832633387007164 0 0.0056138255114323967 -0.022576543405354168 0 0.0055029581539037418 -0.026039300473449711 0 0.0091441036368788645 -0.027403863223034619 0 0.008959757920812661 -0.032032683346193698 0 0.0077211579920002694 -0.027466070770012382 0 0.008959757920812661 -0.032032683346193698 0 0.0074737982032529009 -0.030634058344792946 0 0.0077211579920002694 -0.027466070770012382 0 0.0091092169646115901 -0.037148601726743738 0 0.008959757920812661 -0.032032683346193698 0 0.008124931964239402 -0.03398952878663701 0 0.008959757920812661 -0.032032683346193698 0 0.008124931964239402 -0.03398952878663701 0 0.0074737982032529009 -0.030634058344792946 0 0.010274940245812209 -0.036880173437928758 0 0.008959757920812661 -0.032032683346193698 0 0.010731003742031236 -0.034112550893457404 0 0.0091441036368788645 -0.027403863223034619 0 0.008959757920812661 -0.032032683346193698 0 0.010175915568248536 -0.030661943243227529 0 0.008959757920812661 -0.032032683346193698 0 0.010175915568248536 -0.030661943243227529 0 0.010731003742031236 -0.034112550893457404 0 0.010175915568248536 -0.030661943243227529 0 0.010731003742031236 -0.034112550893457404 0 0.011643572153130402 -0.032142289894372907 0 0.011884687224253537 -0.036248755553991929 0 0.010731003742031236 -0.034112550893457404 0 0.011643572153130402 -0.032142289894372907 0 0.010175915568248536 -0.030661943243227529 0 0.011643572153130402 -0.032142289894372907 0 0.010539081662860158 -0.028310251286337344 0 0.011643572153130402 -0.032142289894372907 0 0.010539081662860158 -0.028310251286337344 0 0.011963410997388985 -0.02845567549470945 0 0.0083271780743905156 -0.026883480973192837 0 0.0068894403187242442 -0.023346619906723511 0 0.00745813314183804 -0.021063580505869532 0 0.0083271780743905156 -0.026883480973192837 0 0.0091214815314180821 -0.023454810815353791 0 0.00745813314183804 -0.021063580505869532 0 0.0096960380544435648 -0.02759696996358765 0 0.0099337185459917512 -0.028170684197086324 0 0.0091441036368788645 -0.027403863223034619 0 0.010175915568248536 -0.030661943243227529 0 0.010539081662860158 -0.028310251286337344 0 0.0068348232416161362 -0.026832633387007164 0 0.0083271780743905156 -0.026883480973192837 0 0.0068894403187242442 -0.023346619906723511 0 0.0079191001476971931 -0.027118290119880116 0 0.0096960380544435648 -0.02759696996358765 0 0.0083271780743905156 -0.026883480973192837 0 0.0091214815314180821 -0.023454810815353791 0 0.0098683886452953541 -0.027884445642970709 0 0.0099337185459917512 -0.028170684197086324 0 0.016135958176935361 -0.028928947629732752 0 0.011963410997388985 -0.02845567549470945 0 0.012995348846504801 -0.031811329097614013 0 0.013442415164782007 -0.029643611817067317 0 0.0091214815314180821 -0.023454810815353791 0 0.0098683886452953541 -0.027884445642970709 0 0.01149066916397413 -0.028216841488800309 0 0.0091214815314180821 -0.023454810815353791 0 0.01149066916397413 -0.028216841488800309 0 0.010264419807320792 -0.023191564380537141 0 0.011884687224253537 -0.036248755553991929 0 0.011643572153130402 -0.032142289894372907 0 0.013255222108880985 -0.035349942500287834 0 0.011643572153130402 -0.032142289894372907 0 0.012995348846504801 -0.031811329097614013 0 0.013255222108880985 -0.035349942500287834 0 0.011643572153130402 -0.032142289894372907 0 0.011963410997388985 -0.02845567549470945 0 0.012995348846504801 -0.031811329097614013 0 0.012995348846504801 -0.031811329097614013 0 0.013255222108880985 -0.035349942500287834 0 0.014179683839654249 -0.03338483228380023 0 0.014750352893864132 -0.038577788891868491 0 0.013255222108880985 -0.035349942500287834 0 0.014179683839654249 -0.03338483228380023 0 0.012995348846504801 -0.031811329097614013 0 0.014179683839654249 -0.03338483228380023 0 0.013442415164782007 -0.029643611817067317 0 0.014179683839654249 -0.03338483228380023 0 0.013442415164782007 -0.029643611817067317 0 0.014922071708463915 -0.030000955899739962 0 0.014179683839654249 -0.03338483228380023 0 0.015508912886009824 -0.034490617162993696 0 0.014922071708463915 -0.030000955899739962 0 0.014750352893864132 -0.038577788891868491 0 0.014179683839654249 -0.03338483228380023 0 0.015508912886009824 -0.034490617162993696 0 0.01149066916397413 -0.028216841488800309 0 0.011489674412894441 -0.025762174831808083 0 0.010264419807320792 -0.023191564380537141 0 0.016135958176935361 -0.028928947629732752 0 0.00026420597284084927 -0.029720820362027067 0 0.01149066916397413 -0.028216841488800309 0 0.01302382112048008 -0.029429726033101584 0 0.011489674412894441 -0.025762174831808083 0 0.01302382112048008 -0.029429726033101584 0 0.011489674412894441 -0.025762174831808083 0 0.012011711639861561 -0.024900220971689684 0 0.011489674412894441 -0.025762174831808083 0 0.010753509037390616 -0.022124944512784881 0 0.012011711639861561 -0.024900220971689684 0 0.010753509037390616 -0.022124944512784881 0 0.012011711639861561 -0.024900220971689684 0 0.010933344148590542 -0.020534484604163676 0 0.010753509037390616 -0.022124944512784881 0 0.010264419807320792 -0.023191564380537141 0 0.0094906722613677091 -0.019017285534674504 0 0.011489674412894441 -0.025762174831808083 0 0.010753509037390616 -0.022124944512784881 0 0.010264419807320792 -0.023191564380537141 0 0.010753509037390616 -0.022124944512784881 0 0.0094906722613677091 -0.019017285534674504 0 0.010933344148590542 -0.020534484604163676 0 0.0094906722613677091 -0.019017285534674504 0 0.0095413380003703824 -0.016112331190239085 0 0.007609872578018529 -0.014327480582133015 0 0.0095413380003703824 -0.016112331190239085 0 0.007609872578018529 -0.014327480582133015 0 0.0063163147118311764 -0.010336844246127278 0 0.0094906722613677091 -0.019017285534674504 0 0.010933344148590542 -0.020534484604163676 0 0.0095413380003703824 -0.016112331190239085 0 0.0094906722613677091 -0.019017285534674504 0 0.007609872578018529 -0.014327480582133015 0 0.0082534328034162587 -0.018862118752581165 0 0.007609872578018529 -0.014327480582133015 0 0.0059913907702070085 -0.013096170097524765 0 0.0082534328034162587 -0.018862118752581165 0 0.007609872578018529 -0.014327480582133015 0 0.0059913907702070085 -0.013096170097524765 0 0.0045770793806674554 -0.008522231988872777 0 0.0059913907702070085 -0.013096170097524765 0 0.0082534328034162587 -0.018862118752581165 0 0.0064465770353623036 -0.016378075331500857 0 0.0091214815314180821 -0.023454810815353791 0 0.0082534328034162587 -0.018862118752581165 0 0.00745813314183804 -0.021063580505869532 0 0.0091214815314180821 -0.023454810815353791 0 0.010264419807320792 -0.023191564380537141 0 0.0082534328034162587 -0.018862118752581165 0 0.010264419807320792 -0.023191564380537141 0 0.0094906722613677091 -0.019017285534674504 0 0.0082534328034162587 -0.018862118752581165 0 2.3081818586608341e-07 -3.6326526612188679e-06 0 0.0023516395926740374 -0.0034291860829120452 0 0.0033657882088773744 -0.005292211932338739 0 2.3081818586608341e-07 -3.6326526612188679e-06 0 3.5809272310621685e-06 -8.4530536352987952e-06 0 0.0023516395926740374 -0.0034291860829120452 0 3.5809272310621685e-06 -8.4530536352987952e-06 0 0.0047111708606430141 -0.0066933199626217233 0 0.0023516395926740374 -0.0034291860829120452 0 0.0047111708606430141 -0.0066933199626217233 0 0.0023516395926740374 -0.0034291860829120452 0 0.0053906152477743675 -0.0080680264728325984 0 0.0023516395926740374 -0.0034291860829120452 0 0.0033657882088773744 -0.005292211932338739 0 0.0053906152477743675 -0.0080680264728325984 0 0.0033657882088773744 -0.005292211932338739 0 0.0053906152477743675 -0.0080680264728325984 0 0.0063163147118311764 -0.010336844246127278 0 0.0053906152477743675 -0.0080680264728325984 0 0.0075471207405419646 -0.011549617262637075 0 0.0063163147118311764 -0.010336844246127278 0 0.0047111708606430141 -0.0066933199626217233 0 0.0053906152477743675 -0.0080680264728325984 0 0.0075471207405419646 -0.011549617262637075 0 0.0095413380003703824 -0.016112331190239085 0 0.0075471207405419646 -0.011549617262637075 0 0.0063163147118311764 -0.010336844246127278 0 0.007609872578018529 -0.014327480582133015 0 0.0063163147118311764 -0.010336844246127278 0 0.0045770793806674554 -0.008522231988872777 0 0.0059913907702070085 -0.013096170097524765 0 0.0045770793806674554 -0.008522231988872777 0 0.003979683774153882 -0.0092351881370525864 0 0.0045770793806674554 -0.008522231988872777 0 0.0021485454793312157 -0.0038650339922693226 0 0.0023353475332963188 -0.0050308351853223321 0 0.0033657882088773744 -0.005292211932338739 0 0.0063163147118311764 -0.010336844246127278 0 0.0045770793806674554 -0.008522231988872777 0 0.0033657882088773744 -0.005292211932338739 0 0.0045770793806674554 -0.008522231988872777 0 0.0021485454793312157 -0.0038650339922693226 0 2.3081818586608341e-07 -3.6326526612188679e-06 0 0.0033657882088773744 -0.005292211932338739 0 0.0021485454793312157 -0.0038650339922693226 0 0.0021485454793312157 -0.0038650339922693226 0 1.0174649382392369e-06 -4.5402566087452227e-06 0 4.3754850892995153e-07 -3.7772108733685474e-06 0 2.3081818586608341e-07 -3.6326526612188679e-06 0 0.0021485454793312157 -0.0038650339922693226 0 1.0174649382392369e-06 -4.5402566087452227e-06 0 4.3754850892995153e-07 -3.7772108733685474e-06 0 0.0011987299737984698 -0.0028922118792127412 0 5.4442600331355213e-07 -4.0085601792712645e-06 0 0.0021485454793312157 -0.0038650339922693226 0 4.3754850892995153e-07 -3.7772108733685474e-06 0 0.0023353475332963188 -0.0050308351853223321 0 0.0023353475332963188 -0.0050308351853223321 0 0.0011987299737984698 -0.0028922118792127412 0 0.0022680623482875441 -0.0061208265725859988 0 4.3754850892995153e-07 -3.7772108733685474e-06 0 0.0023353475332963188 -0.0050308351853223321 0 0.0011987299737984698 -0.0028922118792127412 0 0.0023353475332963188 -0.0050308351853223321 0 0.003979683774153882 -0.0092351881370525864 0 0.0022680623482875441 -0.0061208265725859988 0 0.0045770793806674554 -0.008522231988872777 0 0.0023353475332963188 -0.0050308351853223321 0 0.003979683774153882 -0.0092351881370525864 0 0.003979683774153882 -0.0092351881370525864 0 0.0034544511006134927 -0.0097061527593879978 0 0.0022680623482875441 -0.0061208265725859988 0 0.003979683774153882 -0.0092351881370525864 0 0.0034544511006134927 -0.0097061527593879978 0 0.0048750990176124123 -0.012872536296554883 0 0.0034544511006134927 -0.0097061527593879978 0 0.0025288190551696244 -0.0080243465294479194 0 0.0022680623482875441 -0.0061208265725859988 0 0.0025288190551696244 -0.0080243465294479194 0 0.0036649885693947931 -0.012031493083025998 0 0.0021749364623053699 -0.0084330548209886665 0 0.0034544511006134927 -0.0097061527593879978 0 0.0025288190551696244 -0.0080243465294479194 0 0.0036649885693947931 -0.012031493083025998 0 0.0025288190551696244 -0.0080243465294479194 0 0.0022680623482875441 -0.0061208265725859988 0 0.0013072522223145748 -0.004268526889031646 0 0.0011987299737984698 -0.0028922118792127412 0 0.0022680623482875441 -0.0061208265725859988 0 0.00090719741943090049 -0.002564225955734935 0 0.0022680623482875441 -0.0061208265725859988 0 0.00090719741943090049 -0.002564225955734935 0 0.0013072522223145748 -0.004268526889031646 0 0.00090719741943090049 -0.002564225955734935 0 0.0013072522223145748 -0.004268526889031646 0 3.6438716568306996e-07 -3.8952016049700118e-06 0 0.00090719741943090049 -0.002564225955734935 0 5.4442600331355213e-07 -4.0085601792712645e-06 0 3.6438716568306996e-07 -3.8952016049700118e-06 0 0.0011987299737984698 -0.0028922118792127412 0 0.00090719741943090049 -0.002564225955734935 0 5.4442600331355213e-07 -4.0085601792712645e-06 0 0.0054839572973582676 -0.016312036403388307 0 0.00745813314183804 -0.021063580505869532 0 0.0058412065586023543 -0.019746196509399964 0 0.0054839572973582676 -0.016312036403388307 0 0.00745813314183804 -0.021063580505869532 0 0.0064465770353623036 -0.016378075331500857 0 0.0068894403187242442 -0.023346619906723511 0 0.00745813314183804 -0.021063580505869532 0 0.0058412065586023543 -0.019746196509399964 0 0.0082534328034162587 -0.018862118752581165 0 0.00745813314183804 -0.021063580505869532 0 0.0064465770353623036 -0.016378075331500857 0 0.0059913907702070085 -0.013096170097524765 0 0.0064465770353623036 -0.016378075331500857 0 0.0048750990176124123 -0.012872536296554883 0 0.0059913907702070085 -0.013096170097524765 0 0.003979683774153882 -0.0092351881370525864 0 0.0048750990176124123 -0.012872536296554883 0 0.0054839572973582676 -0.016312036403388307 0 0.0064465770353623036 -0.016378075331500857 0 0.0048750990176124123 -0.012872536296554883 0 0.0054839572973582676 -0.016312036403388307 0 0.0036649885693947931 -0.012031493083025998 0 0.0045068418039886267 -0.016120881619627065 0 0.0054839572973582676 -0.016312036403388307 0 0.0048750990176124123 -0.012872536296554883 0 0.0036649885693947931 -0.012031493083025998 0 0.0034544511006134927 -0.0097061527593879978 0 0.0048750990176124123 -0.012872536296554883 0 0.0036649885693947931 -0.012031493083025998 0 0.0036649885693947931 -0.012031493083025998 0 0.0045068418039886267 -0.016120881619627065 0 0.0032792451685550272 -0.013492409387047839 0 0.0045068418039886267 -0.016120881619627065 0 0.0058412065586023543 -0.019746196509399964 0 0.0048799793357330624 -0.019326433185957174 0 0.0054839572973582676 -0.016312036403388307 0 0.0045068418039886267 -0.016120881619627065 0 0.0058412065586023543 -0.019746196509399964 0 0.0056138255114323967 -0.022576543405354168 0 0.0068894403187242442 -0.023346619906723511 0 0.0058412065586023543 -0.019746196509399964 0 0.0056138255114323967 -0.022576543405354168 0 0.0058412065586023543 -0.019746196509399964 0 0.0048799793357330624 -0.019326433185957174 0 0.0056138255114323967 -0.022576543405354168 0 0.0048799793357330624 -0.019326433185957174 0 0.0045117414386640527 -0.021497714302167129 0 0.0048799793357330624 -0.019326433185957174 0 0.0045117414386640527 -0.021497714302167129 0 0.0038411284481045193 -0.016774997137801295 0 0.0045117414386640527 -0.021497714302167129 0 0.003550732998465258 -0.019078356540602297 0 0.0038411284481045193 -0.016774997137801295 0 0.0045117414386640527 -0.021497714302167129 0 0.003550732998465258 -0.019078356540602297 0 0.0035118635583099448 -0.02219176796285828 0 0.003550732998465258 -0.019078356540602297 0 0.0038411284481045193 -0.016774997137801295 0 0.0030133424854257595 -0.015885596261055065 0 0.0045068418039886267 -0.016120881619627065 0 0.0048799793357330624 -0.019326433185957174 0 0.0038411284481045193 -0.016774997137801295 0 0.0045068418039886267 -0.016120881619627065 0 0.0038411284481045193 -0.016774997137801295 0 0.0032792451685550272 -0.013492409387047839 0 0.0036649885693947931 -0.012031493083025998 0 0.0032792451685550272 -0.013492409387047839 0 0.0021749364623053699 -0.0084330548209886665 0 0.0032792451685550272 -0.013492409387047839 0 0.0023715797662846182 -0.011932382340739043 0 0.0021749364623053699 -0.0084330548209886665 0 0.0038411284481045193 -0.016774997137801295 0 0.0032792451685550272 -0.013492409387047839 0 0.0030133424854257595 -0.015885596261055065 0 0.0032792451685550272 -0.013492409387047839 0 0.0023715797662846182 -0.011932382340739043 0 0.0030133424854257595 -0.015885596261055065 0 0.0023715797662846182 -0.011932382340739043 0 0.0022217666112487973 -0.0156977021060981 0 0.0030133424854257595 -0.015885596261055065 0 0.0023715797662846182 -0.011932382340739043 0 0.0015756111579238472 -0.0093244497915528027 0 0.0015991042629116227 -0.012258486460453707 0 0.0023715797662846182 -0.011932382340739043 0 0.0022217666112487973 -0.0156977021060981 0 0.0015991042629116227 -0.012258486460453707 0 0.0022217666112487973 -0.0156977021060981 0 0.0027931087101912464 -0.019183340065861323 0 0.0018434174994925738 -0.019731269839857003 0 0.0027931087101912464 -0.019183340065861323 0 0.0018434174994925738 -0.019731269839857003 0 0.0025623701379138817 -0.022571890076917699 0 0.003550732998465258 -0.019078356540602297 0 0.0027931087101912464 -0.019183340065861323 0 0.0035118635583099448 -0.02219176796285828 0 0.0022217666112487973 -0.0156977021060981 0 0.0027931087101912464 -0.019183340065861323 0 0.0030133424854257595 -0.015885596261055065 0 0.003550732998465258 -0.019078356540602297 0 0.0027931087101912464 -0.019183340065861323 0 0.0030133424854257595 -0.015885596261055065 0 3.266778841530964e-07 -3.8971595430628253e-06 0 0.00060029539241117152 -0.0021911678114114926 0 0.0010479563607417612 -0.0045513770564282229 0 3.266778841530964e-07 -3.8971595430628253e-06 0 0.0010479563607417612 -0.0045513770564282229 0 0.00053673266518631678 -0.0028792255713418142 0 0.0013072522223145748 -0.004268526889031646 0 3.6438716568306996e-07 -3.8952016049700118e-06 0 0.00060029539241117152 -0.0021911678114114926 0 3.266778841530964e-07 -3.8971595430628253e-06 0 3.6438716568306996e-07 -3.8952016049700118e-06 0 0.00060029539241117152 -0.0021911678114114926 0 0.0013072522223145748 -0.004268526889031646 0 0.00060029539241117152 -0.0021911678114114926 0 0.0010479563607417612 -0.0045513770564282229 0 0.0010479563607417612 -0.0045513770564282229 0 0.0021749364623053699 -0.0084330548209886665 0 0.0016916699479663339 -0.0081727538838051381 0 0.0013072522223145748 -0.004268526889031646 0 0.0010479563607417612 -0.0045513770564282229 0 0.0021749364623053699 -0.0084330548209886665 0 0.0025288190551696244 -0.0080243465294479194 0 0.0013072522223145748 -0.004268526889031646 0 0.0021749364623053699 -0.0084330548209886665 0 0.0023715797662846182 -0.011932382340739043 0 0.0021749364623053699 -0.0084330548209886665 0 0.0016916699479663339 -0.0081727538838051381 0 0.0016916699479663339 -0.0081727538838051381 0 0.0015756111579238472 -0.0093244497915528027 0 0.0010343415308485169 -0.005934098100493424 0 0.0023715797662846182 -0.011932382340739043 0 0.0016916699479663339 -0.0081727538838051381 0 0.0015756111579238472 -0.0093244497915528027 0 0.0015756111579238472 -0.0093244497915528027 0 0.0011192446544763378 -0.0084707173299834043 0 0.0015991042629116227 -0.012258486460453707 0 0.0015756111579238472 -0.0093244497915528027 0 0.0010343415308485169 -0.005934098100493424 0 0.0011192446544763378 -0.0084707173299834043 0 0.0010343415308485169 -0.005934098100493424 0 0.0005125076585698196 -0.0037495521414753919 0 0.0011192446544763378 -0.0084707173299834043 0 0.0010479563607417612 -0.0045513770564282229 0 0.0016916699479663339 -0.0081727538838051381 0 0.0010343415308485169 -0.005934098100493424 0 0.0010479563607417612 -0.0045513770564282229 0 0.0010343415308485169 -0.005934098100493424 0 0.00053673266518631678 -0.0028792255713418142 0 0.0010343415308485169 -0.005934098100493424 0 0.00053673266518631678 -0.0028792255713418142 0 0.0005125076585698196 -0.0037495521414753919 0 0.00053673266518631678 -0.0028792255713418142 0 2.6479315014739074e-07 -3.9044575118093681e-06 0 0.0005125076585698196 -0.0037495521414753919 0 3.266778841530964e-07 -3.8971595430628253e-06 0 0.00053673266518631678 -0.0028792255713418142 0 2.6479315014739074e-07 -3.9044575118093681e-06 0 8.6310460836109396e-08 -3.9020464387835311e-06 0 0.00024433872556982707 -0.0029347859668247588 0 1.7852607191125833e-07 -3.9113158901910508e-06 0 2.6479315014739074e-07 -3.9044575118093681e-06 0 8.6310460836109396e-08 -3.9020464387835311e-06 0 0.0005125076585698196 -0.0037495521414753919 0 8.6310460836109396e-08 -3.9020464387835311e-06 0 0.0005125076585698196 -0.0037495521414753919 0 0.00024433872556982707 -0.0029347859668247588 0 0.0005125076585698196 -0.0037495521414753919 0 0.00024433872556982707 -0.0029347859668247588 0 0.00054895283813392946 -0.0063024179360394051 0 0.0005125076585698196 -0.0037495521414753919 0 0.00054895283813392946 -0.0063024179360394051 0 0.0011192446544763378 -0.0084707173299834043 0 0.0011192446544763378 -0.0084707173299834043 0 0.00088255773007147014 -0.0094918864769685061 0 0.0015991042629116227 -0.012258486460453707 0 0.00054895283813392946 -0.0063024179360394051 0 0.0011192446544763378 -0.0084707173299834043 0 0.00088255773007147014 -0.0094918864769685061 0 0.00088255773007147014 -0.0094918864769685061 0 0.00047211315195075685 -0.0086070878528985359 0 0.00082789563872307079 -0.012395843650159805 0 0.00054895283813392946 -0.0063024179360394051 0 0.00088255773007147014 -0.0094918864769685061 0 0.00047211315195075685 -0.0086070878528985359 0 0.00047211315195075685 -0.0086070878528985359 0 0.00014950174261916513 -0.0098134808318783 0 0.00014479078656923257 -0.0047259643016259057 0 -0.00014672551802805923 -0.0075621161704075915 0 0.00014950174261916513 -0.0098134808318783 0 0.00014479078656923257 -0.0047259643016259057 0 0.00054895283813392946 -0.0063024179360394051 0 0.00047211315195075685 -0.0086070878528985359 0 0.00014479078656923257 -0.0047259643016259057 0 0.00024433872556982707 -0.0029347859668247588 0 0.00014479078656923257 -0.0047259643016259057 0 1.7852607191125833e-07 -3.9113158901910508e-06 0 0.00024433872556982707 -0.0029347859668247588 0 0.00054895283813392946 -0.0063024179360394051 0 0.00014479078656923257 -0.0047259643016259057 0 -7.0909945391769986e-08 -3.8844668729257434e-06 0 0.00014479078656923257 -0.0047259643016259057 0 1.7852607191125833e-07 -3.9113158901910508e-06 0 0.0018434174994925738 -0.019731269839857003 0 0.0014782801832611766 -0.015365603915012096 0 0.00093543926860989966 -0.016887205884265122 0 0.0018434174994925738 -0.019731269839857003 0 0.00093543926860989966 -0.016887205884265122 0 0.00095532638526255606 -0.021319443262630411 0 0.0022217666112487973 -0.0156977021060981 0 0.0018434174994925738 -0.019731269839857003 0 0.0014782801832611766 -0.015365603915012096 0 0.0022217666112487973 -0.0156977021060981 0 0.0014782801832611766 -0.015365603915012096 0 0.0015991042629116227 -0.012258486460453707 0 0.00088255773007147014 -0.0094918864769685061 0 0.0015991042629116227 -0.012258486460453707 0 0.00082789563872307079 -0.012395843650159805 0 0.0014782801832611766 -0.015365603915012096 0 0.0015991042629116227 -0.012258486460453707 0 0.00082789563872307079 -0.012395843650159805 0 0.0014782801832611766 -0.015365603915012096 0 0.00082789563872307079 -0.012395843650159805 0 0.00093543926860989966 -0.016887205884265122 0 0.00082789563872307079 -0.012395843650159805 0 0.00028956689726017366 -0.013957602164024405 0 0.00093543926860989966 -0.016887205884265122 0 0.00047211315195075685 -0.0086070878528985359 0 0.00014950174261916513 -0.0098134808318783 0 0.00082789563872307079 -0.012395843650159805 0 -0.00014984122219451336 -0.011708331220476268 0 0.00014950174261916513 -0.0098134808318783 0 0.00028956689726017366 -0.013957602164024405 0 0.00014950174261916513 -0.0098134808318783 0 0.00082789563872307079 -0.012395843650159805 0 0.00028956689726017366 -0.013957602164024405 0 0.00028956689726017366 -0.013957602164024405 0 0.00021681373049717065 -0.017384875738852293 0 0.00093543926860989966 -0.016887205884265122 0 0.00021681373049717065 -0.017384875738852293 0 0.00093543926860989966 -0.016887205884265122 0 0.00095532638526255606 -0.021319443262630411 0 8.8610224379446738e-05 -0.021321288045586629 0 0.00021681373049717065 -0.017384875738852293 0 0.00095532638526255606 -0.021319443262630411 0 8.8610224379446738e-05 -0.021321288045586629 0 0.00036517740588937647 -0.025975080828385982 0 0.00095532638526255606 -0.021319443262630411 0 0.00036517740588937647 -0.025975080828385982 0 0.0019782046419595787 -0.02678857005373508 0 0.0015563106249415924 -0.029388537990012963 0 0.00036517740588937647 -0.025975080828385982 0 0.0011374219565857221 -0.02536179979869025 0 0.00095532638526255606 -0.021319443262630411 0 0.00035471503954617354 -0.02597353304630351 0 0.0015584164897715341 -0.026074086617325406 0 0.0011374219565857221 -0.02536179979869025 0 0.00095532638526255606 -0.021319443262630411 0 0.0015886874705170319 -0.023068338458933781 0 0.0018434174994925738 -0.019731269839857003 0 0.00095532638526255606 -0.021319443262630411 0 0.0015886874705170319 -0.023068338458933781 0 0.0015584164897715341 -0.026074086617325406 0 0.0027838735988000105 -0.026156424695560211 0 0.0011374219565857221 -0.02536179979869025 0 0.0015886874705170319 -0.023068338458933781 0 0.0021193299137209159 -0.025871520991179998 0 0.0027838735988000105 -0.026156424695560211 0 0.004031001245862826 -0.026298096878294045 0 0.0015886874705170319 -0.023068338458933781 0 0.0021193299137209159 -0.025871520991179998 0 0.0025623701379138817 -0.022571890076917699 0 0.0018434174994925738 -0.019731269839857003 0 0.0015886874705170319 -0.023068338458933781 0 0.0025623701379138817 -0.022571890076917699 0 0.0042524328436475889 -0.030247971444001962 0 0.0027571209542550136 -0.031445004074549171 0 0.0040600303807504139 -0.034102405020046661 0 0.0034494085103337515 -0.026442750789584888 0 0.0042524328436475889 -0.030247971444001962 0 0.0049099057762486565 -0.027012132095403769 0 0.0034494085103337515 -0.026442750789584888 0 0.0042524328436475889 -0.030247971444001962 0 0.0027571209542550136 -0.031445004074549171 0 0.0019782046419595787 -0.02678857005373508 0 0.0034494085103337515 -0.026442750789584888 0 0.0027571209542550136 -0.031445004074549171 0 0.0027571209542550136 -0.031445004074549171 0 0.0015563106249415924 -0.029388537990012963 0 0.0016727355727979112 -0.035025562847090332 0 0.0019782046419595787 -0.02678857005373508 0 0.0027571209542550136 -0.031445004074549171 0 0.0015563106249415924 -0.029388537990012963 0 0.00061120427275280489 -0.030993415351238562 0 0.00036517740588937647 -0.025975080828385982 0 0.0015563106249415924 -0.029388537990012963 0 0.00061120427275280489 -0.030993415351238562 0 0.0015563106249415924 -0.029388537990012963 0 0.0016727355727979112 -0.035025562847090332 0 0.0027571209542550136 -0.031445004074549171 0 0.0016727355727979112 -0.035025562847090332 0 0.0033258649795944503 -0.037293722392932695 0 0.0016727355727979112 -0.035025562847090332 0 0.0023026806527121336 -0.041211477929417137 0 0.0033258649795944503 -0.037293722392932695 0 0.00076525403611707931 -0.039295372806309209 0 0.0016727355727979112 -0.035025562847090332 0 0.0023026806527121336 -0.041211477929417137 0 0.00091858877247109698 -0.044201217793202442 0 0.0022587435499118436 -0.04586036845784143 0 0.0023026806527121336 -0.041211477929417137 0 0.00091858877247109698 -0.044201217793202442 0 0.00076525403611707931 -0.039295372806309209 0 0.0023026806527121336 -0.041211477929417137 0 0.0022587435499118436 -0.04586036845784143 0 0.0035531544300349688 -0.045329479520843645 0 0.0023026806527121336 -0.041211477929417137 0 0.0035531544300349688 -0.045329479520843645 0 0.0035473267189892192 -0.04161797700252591 0 0.0046978583434091233 -0.043942334214480711 0 0.0035531544300349688 -0.045329479520843645 0 0.0023026806527121336 -0.041211477929417137 0 0.0035473267189892192 -0.04161797700252591 0 0.0035473267189892192 -0.04161797700252591 0 0.0044583538050695735 -0.040326150109798002 0 0.0033258649795944503 -0.037293722392932695 0 0.0023026806527121336 -0.041211477929417137 0 0.0035473267189892192 -0.04161797700252591 0 0.0033258649795944503 -0.037293722392932695 0 0.0035473267189892192 -0.04161797700252591 0 0.0044583538050695735 -0.040326150109798002 0 0.0046978583434091233 -0.043942334214480711 0 0.0027571209542550136 -0.031445004074549171 0 0.0033258649795944503 -0.037293722392932695 0 0.0040600303807504139 -0.034102405020046661 0 0.0044583538050695735 -0.040326150109798002 0 0.0033258649795944503 -0.037293722392932695 0 0.0051079884532952112 -0.037074133128290096 0 0.0033258649795944503 -0.037293722392932695 0 0.0040600303807504139 -0.034102405020046661 0 0.0051079884532952112 -0.037074133128290096 0 0.0040600303807504139 -0.034102405020046661 0 0.0051079884532952112 -0.037074133128290096 0 0.0053096996569599467 -0.03210774912032921 0 0.0051079884532952112 -0.037074133128290096 0 0.0056948989719841792 -0.041658054344862312 0 0.0066576492097595984 -0.039124504297152057 0 0.0051079884532952112 -0.037074133128290096 0 0.0062380908131049479 -0.034967892090200688 0 0.0066576492097595984 -0.039124504297152057 0 0.0051079884532952112 -0.037074133128290096 0 0.0062380908131049479 -0.034967892090200688 0 0.0053096996569599467 -0.03210774912032921 0 0.0046978583434091233 -0.043942334214480711 0 0.0059233375274445809 -0.045464630248200022 0 0.0056948989719841792 -0.041658054344862312 0 0.0044583538050695735 -0.040326150109798002 0 0.0046978583434091233 -0.043942334214480711 0 0.0056948989719841792 -0.041658054344862312 0 0.0044583538050695735 -0.040326150109798002 0 0.0051079884532952112 -0.037074133128290096 0 0.0056948989719841792 -0.041658054344862312 0 0.0056948989719841792 -0.041658054344862312 0 0.0070792579465791183 -0.044147359547936263 0 0.0066576492097595984 -0.039124504297152057 0 0.0059233375274445809 -0.045464630248200022 0 0.0056948989719841792 -0.041658054344862312 0 0.0070792579465791183 -0.044147359547936263 0 0.0079084852513130084 -0.048018353956471797 0 0.0070792579465791183 -0.044147359547936263 0 0.0085202168681217522 -0.045067307548885605 0 0.0070792579465791183 -0.044147359547936263 0 0.0081684318702676551 -0.041031265498509439 0 0.0066576492097595984 -0.039124504297152057 0 0.0070792579465791183 -0.044147359547936263 0 0.0081684318702676551 -0.041031265498509439 0 0.0085202168681217522 -0.045067307548885605 0 0.0062380908131049479 -0.034967892090200688 0 0.0076660629587693473 -0.036738995845802716 0 0.0071415505960084596 -0.033271834670544051 0 0.0081684318702676551 -0.041031265498509439 0 0.0066576492097595984 -0.039124504297152057 0 0.0076660629587693473 -0.036738995845802716 0 0.0062380908131049479 -0.034967892090200688 0 0.0066576492097595984 -0.039124504297152057 0 0.0076660629587693473 -0.036738995845802716 0 0.0091092169646115901 -0.037148601726743738 0 0.0081684318702676551 -0.041031265498509439 0 0.0076660629587693473 -0.036738995845802716 0 0.0076660629587693473 -0.036738995845802716 0 0.008124931964239402 -0.03398952878663701 0 0.0071415505960084596 -0.033271834670544051 0 0.0091092169646115901 -0.037148601726743738 0 0.0076660629587693473 -0.036738995845802716 0 0.008124931964239402 -0.03398952878663701 0 0.008124931964239402 -0.03398952878663701 0 0.0071415505960084596 -0.033271834670544051 0 0.0074737982032529009 -0.030634058344792946 0 0.0071415505960084596 -0.033271834670544051 0 0.006168712064739742 -0.030272410693714731 0 0.0074737982032529009 -0.030634058344792946 0 0.0062380908131049479 -0.034967892090200688 0 0.0071415505960084596 -0.033271834670544051 0 0.006168712064739742 -0.030272410693714731 0 0.006168712064739742 -0.030272410693714731 0 0.0074737982032529009 -0.030634058344792946 0 0.006352433771400599 -0.026764063990935671 0 0.0045117414386640527 -0.021497714302167129 0 0.0055029581539037418 -0.026039300473449711 0 0.0042892819624162325 -0.026192834172419664 0 0.0066309161837709149 -0.0267524573013595 0 0.0053157984161863511 -0.026478099047882359 0 0.0074737982032529009 -0.030634058344792946 0 0.0077211579920002694 -0.027466070770012382 0 0.006352433771400599 -0.026764063990935671 0 0.0056138255114323967 -0.022576543405354168 0 0.0045117414386640527 -0.021497714302167129 0 0.0055029581539037418 -0.026039300473449711 0 0.0045117414386640527 -0.021497714302167129 0 0.0042892819624162325 -0.026192834172419664 0 0.0035118635583099448 -0.02219176796285828 0 0.0042892819624162325 -0.026192834172419664 0 0.0035118635583099448 -0.02219176796285828 0 0.0031493009797477138 -0.025585361817389272 0 0.006168712064739742 -0.030272410693714731 0 0.006352433771400599 -0.026764063990935671 0 0.0049099057762486565 -0.027012132095403769 0 0.0053157984161863511 -0.026478099047882359 0 0.004031001245862826 -0.026298096878294045 0 0.0035118635583099448 -0.02219176796285828 0 0.0025623701379138817 -0.022571890076917699 0 0.0031493009797477138 -0.025585361817389272 0 0.0027931087101912464 -0.019183340065861323 0 0.0035118635583099448 -0.02219176796285828 0 0.0025623701379138817 -0.022571890076917699 0 0.0021193299137209159 -0.025871520991179998 0 0.0025623701379138817 -0.022571890076917699 0 0.0031493009797477138 -0.025585361817389272 0 0.0042524328436475889 -0.030247971444001962 0 0.0049099057762486565 -0.027012132095403769 0 0.0053096996569599467 -0.03210774912032921 0 0.0042524328436475889 -0.030247971444001962 0 0.0040600303807504139 -0.034102405020046661 0 0.0053096996569599467 -0.03210774912032921 0 0.0062380908131049479 -0.034967892090200688 0 0.006168712064739742 -0.030272410693714731 0 0.0053096996569599467 -0.03210774912032921 0 0.006168712064739742 -0.030272410693714731 0 0.0049099057762486565 -0.027012132095403769 0 0.0053096996569599467 -0.03210774912032921 0 
</DataArray>
</PointData>
<CellData Scalars="region_id,cross_section_updated,displacement_divergence," Vectors="" Tensors="stress,">
<DataArray type="Float64" Name="region_id" format="ascii">
1 1 1 1 1 1 1 1 1 1 1 1 1 1 1 1 1 1 1 1 1 1 1 1 1 1 1 1 1 1 1 1 1 1 1 1 1 1 1 1 1 1 1 1 1 1 1 1 1 1 1 1 1 1 1 1 1 1 1 1 1 1 1 1 1 1 1 1 1 1 1 1 1 1 1 1 1 1 1 1 1 1 1 1 1 1 1 1 1 1 1 1 1 1 1 1 1 1 1 1 1 1 1 1 1 1 1 1 1 1 1 1 1 1 1 1 1 1 1 1 1 1 1 1 1 1 1 1 1 1 1 1 1 1 1 1 1 1 1 1 1 1 1 1 1 1 1 1 1 1 1 1 1 1 1 1 1 1 1 1 1 1 1 1 1 1 1 1 1 1 1 1 1 1 1 1 1 1 1 1 1 1 1 1 1 1 1 1 1 1 1 1 1 1 1 1 1 1 1 1 1 1 1 1 1 1 1 1 1 1 1 1 1 1 1 1 1 1 1 1 1 1 1 1 1 1 1 1 1 1 1 1 1 1 1 1 1 1 1 1 1 1 1 1 1 1 1 1 1 1 1 1 1 1 1 1 1 1 1 1 1 1 1 1 1 1 1 1 1 1 1 1 1 1 1 1 1 1 1 1 1 1 1 1 1 1 1 1 1 1 1 1 1 1 1 1 1 1 1 1 1 1 1 1 1 1 1 1 1 1 1 1 1 1 1 1 1 1 1 1 1 1 1 1 1 1 1 1 1 1 1 1 1 1 1 1 1 1 1 1 1 1 1 1 1 1 1 1 1 1 1 1 1 1 1 1 1 1 1 1 1 1 1 1 1 1 1 1 1 1 1 1 1 1 1 1 1 1 1 1 1 1 1 1 1 1 1 1 1 1 1 1 1 1 1 1 1 1 1 1 1 1 1 1 1 1 1 1 1 1 1 1 1 1 1 1 1 1 1 1 1 1 1 1 1 1 1 1 1 1 1 1 1 1 1 1 1 1 1 1 1 1 1 1 1 1 1 1 1 1 1 1 1 1 1 1 1 1 1 1 1 1 1 1 1 1 1 1 1 1 1 1 1 1 1 1 1 1 1 1 1 1 1 1 1 1 1 1 1 1 1 1 1 1 1 1 1 1 1 1 1 1 1 1 1 1 1 1 1 1 1 1 1 1 1 1 1 1 1 1 1 1 1 1 1 1 1 1 1 1 1 1 1 1 1 1 1 1 3 1 1 3 1 1 3 1 1 1 1 1 1 1 1 1 1 1 1 1 3 1 1 1 1 1 3 1 1 1 1 1 1 1 1 1 1 1 1 1 1 1 1 1 1 1 1 1 1 1 1 1 1 1 1 1 1 1 1 1 1 1 1 1 1 1 1 1 1 1 1 1 1 1 1 1 1 1 1 1 1 1 1 1 1 1 1 1 1 1 1 1 1 1 1 1 1 1 1 1 1 1 1 1 1 1 1 1 1 1 1 1 1 1 1 1 1 1 1 1 1 1 1 1 1 1 1 1 1 1 1 1 1 1 1 1 1 1 1 1 1 1 1 1 1 1 1 1 1 1 1 1 1 1 1 1 1 1 1 1 1 1 1 1 1 1 1 1 1 1 1 1 1 1 1 1 1 1 1 1 1 1 1 1 1 1 1 1 1 1 1 1 1 1 1 3 1 1 1 3 1 1 3 1 1 1 1 1 1 1 1 1 1 1 3 1 1 1 1 3 1 1 1 1 1 1 1 1 1 1 1 1 1 1 1 1 1 1 1 1 1 1 1 1 1 1 1 1 1 1 1 1 1 1 1 1 1 1 1 1 1 1 1 1 1 1 1 1 1 1 1 1 1 1 1 1 1 1 2 1 1 1 1 1 1 1 1 1 1 1 1 1 1 2 1 1 2 1 2 1 1 1 1 1 1 1 1 1 1 1 1 1 2 1 1 1 1 1 1 1 1 1 1 1 1 1 1 1 1 1 1 1 1 1 1 1 1 1 1 1 1 1 1 1 1 1 1 1 1 1 1 1 1 1 1 1 1 1 1 1 1 1 1 1 1 1 1 1 1 1 1 1 1 1 1 1 1 1 1 1 1 1 1 1 1 1 1 1 1 1 1 1 1 1 1 1 1 1 1 1 1 1 1 1 1 1 1 1 1 1 1 1 1 1 1 1 1 1 1 1 1 1 1 1 1 1 1 1 1 1 1 1 1 1 1 1 1 1 1 1 1 1 1 1 1 1 1 1 1 2 1 1 2 1 2 1 1 1 1 1 1 1 1 1 1 1 1 1 1 1 1 1 1 1 1 1 1 1 1 1 1 1 1 1 1 1 1 1 1 1 1 1 1 1 1 1 1 1 1 1 1 1 2 1 1 1 1 1 2 1 1 1 1 1 1 1 
</DataArray>
<DataArray type="Float64" Name="stress" NumberOfComponents="9" format="ascii">
-4158.5363171268164 -2727.476671333859 0 -2727.476671333859 -12494.780153771637 0 0 0 -4163.3291177246128 -2172.5315930786523 -2776.4587576193308 0 -2776.4587576193308 -14695.47817677431 0 0 0 -4217.0024424632411 -2841.6499039495975 -1963.9307032633321 0 -1963.9307032633321 -10767.774012360784 0 0 0 -3402.3559790775953 -1059.6820065190659 -2115.6488059125977 0 -2115.6488059125977 -13155.288874772539 0 0 0 -3553.7427203229022 -400.86605107057807 -777.01185755703591 0 -777.01185755703591 -10884.198005158498 0 0 0 -2821.2660140572702 -53.297270170580305 -253.45491224055763 0 -253.45491224055763 -9704.7309557994122 0 0 0 -2439.507056492499 -1190.9667169503584 -1544.4215600893622 0 -1544.4215600893622 -11537.637811334636 0 0 0 -3182.1511320712489 -188.4954206587372 -808.84462969041056 0 -808.84462969041056 -10902.538387167733 0 0 0 -2772.7584519566171 -217.81311939907937 -766.47610897321329 0 -766.47610897321329 -10213.278623976177 0 0 0 -2607.7729358438137 -815.84785720452692 -1088.0441752808711 0 -1088.0441752808711 -10644.337662012764 0 0 0 -2865.0463798043229 -1548.5770948690806 -1218.2797307516666 0 -1218.2797307516666 -10441.587944067171 0 0 0 -2997.5412597340619 -923.75572082140752 -1071.159589145449 0 -1071.159589145449 -10181.959230236338 0 0 0 -2776.4287377644359 -2301.4053725701415 -1567.2839835584655 0 -1567.2839835584655 -10314.23168657034 0 0 0 -3153.9092647851176 -1352.5373217005176 -1518.1262859507237 0 -1518.1262859507237 -10205.520269244018 0 0 0 -2889.5143977361327 -3445.8660942350662 -1930.157384271246 0 -1930.157384271246 -10339.578368092893 0 0 0 -3446.3611155819895 -3652.2152598767739 -2438.6422509189097 0 -2438.6422509189097 -10954.318686047976 0 0 0 -3651.6334864811879 -1986.6717031309215 -1762.1453320443743 0 -1762.1453320443743 -9884.7349884184387 0 0 0 -2967.8516728873401 -2256.4037980641374 -1794.8275356717272 0 -1794.8275356717272 -10686.212765625463 0 0 0 -3235.6541409224005 -52.025128771238087 -55.445475783786605 0 -55.445475783786605 -9133.2921918542415 0 0 0 -2296.3293301563681 -14.482548744170344 -61.148004077971564 0 -61.148004077971564 -9657.3049112173976 0 0 0 -2417.9468649903902 -153.42916407017492 -180.78460444710799 0 -180.78460444710799 -9659.6497263481415 0 0 0 -2453.2697226045793 44.269029659195439 -126.48191801850498 0 -126.48191801850498 -9726.6033165979497 0 0 0 -2420.5835717346908 -306.44313026181499 -549.62001765431341 0 -549.62001765431341 -10526.703757660409 0 0 0 -2708.2867219805566 -90.936857409435106 -374.07293670805484 0 -374.07293670805484 -10236.454003439718 0 0 0 -2581.8477152122869 -76.964556539825935 -170.37771609364154 0 -170.37771609364154 -9310.5077967809702 0 0 0 -2346.868088330195 -319.37230987887051 -713.80538291654648 0 -713.80538291654648 -10251.379365159075 0 0 0 -2642.6879187594877 -1108.7421700858806 -960.24615400915536 0 -960.24615400915536 -10484.425579338393 0 0 0 -2898.2919373560699 -519.1518452839282 -560.41978778936482 0 -560.41978778936482 -10173.157151447267 0 0 0 -2673.0772491828011 -335.48784712876341 -327.10396108479108 0 -327.10396108479108 -10000.373854566451 0 0 0 -2583.9654254238017 -389.65416163430928 -609.02444088406264 0 -609.02444088406264 -10292.671670971133 0 0 0 -2670.5814581513623 -115.8330167689237 -193.79369926676918 0 -193.79369926676918 -10039.516797161006 0 0 0 -2538.8374534824798 -138.07192904753538 -80.704734166607523 0 -80.704734166607523 -9611.6189995686145 0 0 0 -2437.4227321540347 -281.98870472552881 -345.36807398352067 0 -345.36807398352067 -10123.880967347643 0 0 0 -2601.4674180182919 -553.80748034420685 -463.77243703329441 0 -463.77243703329441 -10158.899751149016 0 0 0 -2678.1768078733076 -561.88914495690733 -465.14973030889996 0 -465.14973030889996 -10120.602480736212 0 0 0 -2670.6229064232775 -1120.4598790452474 -738.04332823589357 0 -738.04332823589357 -10124.992691911153 0 0 0 -2811.363142739101 -598.76518568093616 -638.84459087674259 0 -638.84459087674259 -10137.059505153684 0 0 0 -2683.956172708652 -865.61614825705692 -749.41397382051855 0 -749.41397382051855 -10254.16001508672 0 0 0 -2779.9440408359442 -1181.7833755820884 -1023.4692925228293 0 -1023.4692925228293 -10087.423778128588 0 0 0 -2817.3017884276724 -1416.6649321140922 -721.59038646380213 0 -721.59038646380213 -10077.723479490945 0 0 0 -2873.5971029012599 -1413.6574480965619 -721.48815236362134 0 -721.48815236362134 -10076.795047321844 0 0 0 -2872.6131238546013 -1132.9632170690784 -560.20470197253417 0 -560.20470197253417 -10008.486628821789 0 0 0 -2785.3624614727141 -1086.9126470165302 -759.80410232396025 0 -759.80410232396025 -10120.850864854683 0 0 0 -2801.9408779678033 -811.83359433185228 -543.24087480983872 0 -543.24087480983872 -10211.982926764798 0 0 0 -2755.9541302741618 -941.86342028486251 -508.49515617353609 0 -508.49515617353609 -10105.04588844446 0 0 0 -2761.7273271823269 -1177.2534685109881 -553.75489033289159 0 -553.75489033289159 -10161.273724315464 0 0 0 -2834.6317982066143 -695.7986667626592 -365.43573918864058 0 -365.43573918864058 -10189.834021972121 0 0 0 -2721.4081721836938 -611.26007701618437 -315.03340953267616 0 -315.03340953267616 -10126.524849215886 0 0 0 -2684.4462315580131 -2576.6191942008686 -1416.1852108359226 0 -1416.1852108359226 -9854.6825817504832 0 0 0 -3107.8254439878374 -2135.8687971411723 -1177.2114618912792 0 -1177.2114618912792 -9799.9461994746634 0 0 0 -2983.9537491539604 -3250.9591580805745 -1318.411631182277 0 -1318.411631182277 -9752.7756135419895 0 0 0 -3250.9336929056408 -2299.2256274119286 -1483.5324452594439 0 -1483.5324452594439 -9774.2110734523485 0 0 0 -3018.3591752160692 -1402.4651496550882 -1310.2812084468987 0 -1310.2812084468987 -9894.7025448334534 0 0 0 -2824.2919236221355 -1626.9792120805801 -1113.850081958637 0 -1113.850081958637 -10267.947020648477 0 0 0 -2973.7315581822645 -1674.8788391641583 -1014.2535811920925 0 -1014.2535811920925 -10041.296599013207 0 0 0 -2929.043859544342 -2042.7098094193525 -1278.3445738576684 0 -1278.3445738576684 -10061.998136938008 0 0 0 -3026.1769865893384 -1575.6542088611077 -968.60008618957295 0 -968.60008618957295 -9984.6387201619873 0 0 0 -2890.0732322557724 -2134.8349772536658 -920.76592890280517 0 -920.76592890280517 -9988.635642240306 0 0 0 -3030.8676548734929 -1817.5131861545051 -874.7876568904976 0 -874.7876568904976 -9871.2096620455904 0 0 0 -2922.1807120500234 -2009.6206000691682 -1023.6389941680138 0 -1023.6389941680138 -9668.1147141829024 0 0 0 -2919.4338285630174 -2618.7296455394144 -979.40770861923102 0 -979.40770861923102 -9842.3928606351401 0 0 0 -3115.2806265436393 -2622.2162457418153 -1182.5505143785226 0 -1182.5505143785226 -9913.3315213155311 0 0 0 -3133.8869417643364 -2482.2222733154272 -1184.019496007209 0 -1184.019496007209 -9460.9487980140002 0 0 0 -2985.7927678323567 -3218.1719779459595 -1070.7189145133048 0 -1070.7189145133048 -9654.9230646853757 0 0 0 -3218.2737606578339 -3211.5731289064065 -862.30948241572719 0 -862.30948241572719 -9636.2194397176754 0 0 0 -3211.9481421560199 -2536.9812703928064 -949.18216759348752 0 -949.18216759348752 -9418.7868011527426 0 0 0 -2988.9420178863875 -2601.9631105309481 -742.15568646584597 0 -742.15568646584597 -9390.8959242817145 0 0 0 -2998.2147587031659 -3175.3585287220967 -671.3421659178191 0 -671.3421659178191 -9526.1021958784131 0 0 0 -3175.3651811501272 -2694.0319483016233 -530.88381807703558 0 -530.88381807703558 -9639.1150509810723 0 0 0 -3083.2867498206742 -2584.4971040099645 -487.99948537895762 0 -487.99948537895762 -9585.6321732068136 0 0 0 -3042.5323193041945 -2649.8058132388569 -572.17719652474602 0 -572.17719652474602 -9341.5653770659428 0 0 0 -2997.8427975762002 -3169.563428937292 -522.46606406376827 0 -522.46606406376827 -9509.17200426419 0 0 0 -3169.683858300371 -2189.9847124646212 -439.30384865362976 0 -439.30384865362976 -9832.6774892760332 0 0 0 -3005.6655504351656 -1950.2063534213012 -480.88131574421004 0 -480.88131574421004 -9739.9479279684183 0 0 0 -2922.5385703474294 -2293.008426580011 -596.39663058135375 0 -596.39663058135375 -9574.7816218484659 0 0 0 -2966.9475121071196 -2390.0978581976769 -596.95271186988612 0 -596.95271186988612 -9866.1094939522663 0 0 0 -3064.051838037486 -1856.5555286531676 -623.71620813381014 0 -623.71620813381014 -9720.908951984009 0 0 0 -2894.3661201592936 -2602.1907106321214 -642.43147052174845 0 -642.43147052174845 -9683.1577190464832 0 0 0 -3071.3371074196511 -2288.8225431730743 -763.93023966925102 0 -763.93023966925102 -9803.3701118764038 0 0 0 -3023.0481637623689 -2125.1207155557486 -804.61133224703008 0 -804.61133224703008 -9749.2825778269544 0 0 0 -2968.600823345676 -1718.7653421131636 -691.84194917862806 0 -691.84194917862806 -9982.6353498681929 0 0 0 -2925.3501729953405 -1489.2671015602837 -636.53312354254376 0 -636.53312354254376 -9880.0728265529833 0 0 0 -2842.3349820283174 -1568.6505066010686 -578.59451982044482 0 -578.59451982044482 -10116.132206667244 0 0 0 -2921.1956783170826 -1652.498791901583 -473.76704703706491 0 -473.76704703706491 -10057.213279140662 0 0 0 -2927.4280177605606 -1252.6623572052431 -485.60705142760162 0 -485.60705142760162 -9997.9455957894024 0 0 0 -2812.6519882486627 -1935.3265499698427 -621.34727717240935 0 -621.34727717240935 -9959.5035383829818 0 0 0 -2973.707522088207 -967.11424626607186 -347.43562317732449 0 -347.43562317732449 -10161.594698038156 0 0 0 -2782.1772360760551 -908.49358570303229 -430.84326437325717 0 -430.84326437325717 -10083.234490198818 0 0 0 -2747.9320189754653 -1320.3851440222597 -424.61739598630447 0 -424.61739598630447 -10154.525318795073 0 0 0 -2868.7276157043298 -1067.7800100664426 -290.61255936596717 0 -290.61255936596717 -10173.27346454731 0 0 0 -2810.2633686534355 -1021.8112078517916 -329.16790496321028 0 -329.16790496321028 -10072.785683452646 0 0 0 -2773.6492228261086 -1377.0098536569394 -310.1134284057116 0 -310.1134284057116 -10084.547831254018 0 0 0 -2865.3894212277364 -1292.2309885238183 -288.4134892785587 0 -288.4134892785587 -10044.600588513284 0 0 0 -2834.2078942592752 -1152.534625056076 -147.95204881346581 0 -147.95204881346581 -10099.364097965168 0 0 0 -2812.9746807553129 -1567.5772221653042 -527.38721236025049 0 -527.38721236025049 -9840.1780929734705 0 0 0 -2851.9388287846923 -1939.7009571016888 -513.00169316923893 0 -513.00169316923893 -9957.3315514162059 0 0 0 -2974.2581271294739 -1429.659879969211 -432.42598183908558 0 -432.42598183908558 -9977.8991328619595 0 0 0 -2851.8897532077899 -1726.9062282514542 -363.91827087206002 0 -363.91827087206002 -9950.6976613872539 0 0 0 -2919.4009724096768 -1643.3371818144624 -382.70858160797798 0 -382.70858160797798 -9929.3142289391035 0 0 0 -2893.1628526883906 -1868.0518211536237 -319.10759923279875 0 -319.10759923279875 -9837.3578808457569 0 0 0 -2926.3524254998447 -1770.3459884960293 -161.30729570753465 0 -161.30729570753465 -9995.0042546200893 0 0 0 -2941.3375607790294 -1961.6753882123712 -275.98334605342416 0 -275.98334605342416 -9868.1005265197127 0 0 0 -2957.4439786830217 -1192.7005501846361 -154.68037840661236 0 -154.68037840661236 -10114.883948300034 0 0 0 -2826.8961246211693 -1540.1359097333625 -236.45421812554014 0 -236.45421812554014 -10011.880271672577 0 0 0 -2888.0040453514848 -1507.4363155055894 -218.48023914885198 0 -218.48023914885198 -9993.0251259355409 0 0 0 -2875.1153603602838 -1368.9871390738062 -108.57232960068541 0 -108.57232960068541 -10078.700325338395 0 0 0 -2861.9218661030518 -1417.0813485664003 -97.752855399867258 0 -97.752855399867258 -10091.291118804002 0 0 0 -2877.0931168425996 -1600.351108857054 -30.714070759340757 0 -30.714070759340757 -10103.909686763087 0 0 0 -2926.0651989050311 -1673.9387560860123 92.659748337689962 0 92.659748337689962 -10001.118226400671 0 0 0 -2918.7642456216672 -1517.2383122873562 2.1638824367364577 0 2.1638824367364577 -10059.986238047108 0 0 0 -2894.3061375836169 -1437.4901463753722 66.022152737759825 0 66.022152737759825 -10209.307479726886 0 0 0 -2911.6994065255658 -2015.7331435246024 -68.462028013198506 0 -68.462028013198506 -9991.1658646220712 0 0 0 -3001.72475203667 -1624.7367737565928 -122.30406918208064 0 -122.30406918208064 -9928.811622928295 0 0 0 -2888.3870991712201 -1772.5098901699953 -2.0155331376809045 0 -2.0155331376809045 -9879.0057312009649 0 0 0 -2912.8789053427395 -1935.1600549785016 -74.14979498595946 0 -74.14979498595946 -9750.1612177695133 0 0 0 -2921.3303181870042 -2176.4715926625768 -13.526629315047103 0 -13.526629315047103 -9847.0528241820866 0 0 0 -3005.8811042111656 -2382.3025126295579 -153.00497938376429 0 -153.00497938376429 -9815.3745803578604 0 0 0 -3049.4192732468546 -2367.9113227480425 -94.023064137617439 0 -94.023064137617439 -9544.5339476880727 0 0 0 -2978.1113176090298 -2679.0876430479302 -56.749369811601355 0 -56.749369811601355 -9657.2501005616759 0 0 0 -3084.0844359024022 -2659.514752515176 15.661644731366778 0 15.661644731366778 -9364.2133763299262 0 0 0 -3005.9320322112753 -3170.6463931813018 -87.802656675852006 0 -87.802656675852006 -9511.9199588900465 0 0 0 -3170.6415880178365 -2685.5387196760739 -163.26896231224782 0 -163.26896231224782 -9349.2494088618278 0 0 0 -3008.6970321344752 -2753.8576685656808 -199.56020512704163 0 -199.56020512704163 -9628.8489318881111 0 0 0 -3095.676650113448 -2755.9078348350067 -334.00637219368627 0 -334.00637219368627 -9444.9993673351601 0 0 0 -3050.2268005425422 -2588.3294436256588 -226.19786671466636 0 -226.19786671466636 -9567.3963415404614 0 0 0 -3038.9314462915308 -3169.7228873896615 -240.22379184495821 0 -240.22379184495821 -9509.7191448371195 0 0 0 -3169.8605080566949 -2764.2080298574851 -396.04097043482034 0 -396.04097043482034 -9459.5979161740543 0 0 0 -3055.9514865078841 -2327.4287936877636 -364.56608441542085 0 -364.56608441542085 -9642.8069596279311 0 0 0 -2992.5589383289239 -2135.3567583392069 -200.24205340852859 0 -200.24205340852859 -9722.8643544391307 0 0 0 -2964.5552781945853 -2447.7737941014684 -309.11618381828521 0 -309.11618381828521 -9688.9925171251252 0 0 0 -3034.1915778066486 -186.8417832521518 53.965682187397761 0 53.965682187397761 -10316.729830935859 0 0 0 -2625.8929035470137 -300.47914512691932 15.773341875585174 0 15.773341875585174 -10298.691828287541 0 0 0 -2649.792743353617 -314.79522692696264 37.028980991965 0 37.028980991965 -10301.138951906163 0 0 0 -2653.9835447082769 -134.51637587071355 6.3344114299543435 0 6.3344114299543435 -10295.831740068783 0 0 0 -2607.5870289848722 -21.406131326642935 10.087194397452549 0 10.087194397452549 -10293.732538530938 0 0 0 -2578.7846674643879 -68.840601346299081 35.392328238533082 0 35.392328238533082 -10279.523921461834 0 0 0 -2587.091130702036 -77.588623897985144 -11.819716344529297 0 -11.819716344529297 -10276.797286315978 0 0 0 -2588.5964775534899 -135.07536603805056 -9.6854310139206063 0 -9.6854310139206063 -10218.879698847304 0 0 0 -2588.4887662213368 -48.341435115282366 5.9460583720720024 0 5.9460583720720024 -10238.355946473166 0 0 0 -2571.6743453971212 -96.34812747509568 12.581028872031311 0 12.581028872031311 -10168.364084020504 0 0 0 -2566.1780528739 -243.04973564186912 -55.832900147350301 0 -55.832900147350301 -10184.070032260235 0 0 0 -2606.7799419755265 -152.40376180219755 6.7488688514247031 0 6.7488688514247031 -10270.240536073659 0 0 0 -2605.6610744689606 -239.2969832808285 -11.876223461724294 0 -11.876223461724294 -10287.449884776688 0 0 0 -2631.686717014376 -262.46799582184758 18.666772486356649 0 18.666772486356649 -10348.644726898114 0 0 0 -2652.7781806799903 -274.77052954399551 -40.112515360895486 0 -40.112515360895486 -10287.488194224672 0 0 0 -2640.5646809421687 -820.40873914313488 262.44318612133429 0 262.44318612133429 -10557.456427711229 0 0 0 -2844.4662917135902 -319.01007215927893 105.65378724686525 0 105.65378724686525 -10349.137111671196 0 0 0 -2667.0367959576142 -836.60355942625392 112.13481228262026 0 112.13481228262026 -10352.935765311144 0 0 0 -2797.3848311843485 -325.0131490814947 -21.656891601563984 0 -21.656891601563984 -10259.360110037109 0 0 0 -2646.0933147796513 -1104.9142351098271 118.77850841307554 0 118.77850841307554 -10317.970836093577 0 0 0 -2855.7212678008509 -1367.7190677338258 31.760792467230203 0 31.760792467230203 -10206.964878447528 0 0 0 -2893.6709865453377 -1055.9540503792757 88.258965803113824 0 88.258965803113824 -10323.845765961889 0 0 0 -2844.9499540852903 -807.37030341218156 111.07332314199448 0 111.07332314199448 -10244.111147116837 0 0 0 -2762.8703626322522 -1221.7859177283335 23.449483820335445 0 23.449483820335445 -10160.794048856596 0 0 0 -2845.6449916462316 -1102.0512982971086 -20.897665771417451 0 -20.897665771417451 -10199.597394639452 0 0 0 -2825.4121732341409 -1022.8235704944691 -12.131211585943674 0 -12.131211585943674 -10171.731554617172 0 0 0 -2798.6387812779067 -811.77738404241245 -71.294874995928694 0 -71.294874995928694 -10204.187800097432 0 0 0 -2753.9912960349575 -484.50868831746448 40.244109334751556 0 40.244109334751556 -10332.592033750807 0 0 0 -2704.2751805170719 -485.48195277146806 69.863650822728232 0 69.863650822728232 -10245.951375464276 0 0 0 -2682.8583320589369 -758.43542117483776 75.750031836811104 0 75.750031836811104 -10270.750941457492 0 0 0 -2757.2965906580848 -483.28754749455038 -21.0438372251283 0 -21.0438372251283 -10262.594978625981 0 0 0 -2686.4706315301319 -429.99978168893176 57.438360373333126 0 57.438360373333126 -10280.848941934157 0 0 0 -2677.7121809057735 -605.41936232581065 -28.478201340962187 0 -28.478201340962187 -10257.462567693728 0 0 0 -2715.7204825048866 -395.11696847959138 -8.4053945829509757 0 -8.4053945829509757 -10198.307465956139 0 0 0 -2648.3561086089339 -988.23544718959602 -197.93219174110163 0 -197.93219174110163 -10183.81285764309 0 0 0 -2793.0120762081679 -821.47943292234777 -52.666081151823164 0 -52.666081151823164 -10192.442998220969 0 0 0 -2753.4806077858302 -645.60940817298615 -103.45520736440631 0 -103.45520736440631 -10223.321856797411 0 0 0 -2717.2328162425947 -591.86916681139792 -83.339659735967871 0 -83.339659735967871 -10197.37615602072 0 0 0 -2697.3113307080284 -803.15669144128196 -172.76610958240053 0 -172.76610958240053 -10118.213506844379 0 0 0 -2730.3425495714168 -798.89266256991323 -197.72120665765033 0 -197.72120665765033 -10248.375687099731 0 0 0 -2761.8170874174066 -537.79144282215611 -148.26799370821391 0 -148.26799370821391 -10168.828209342499 0 0 0 -2676.6549130411663 -746.16610102178311 -261.9628040809348 0 -261.9628040809348 -10215.422814068297 0 0 0 -2740.3972287725192 -713.89917852377039 -266.87509065772974 0 -266.87509065772974 -10094.702570420541 0 0 0 -2702.150437236076 -352.28244826972877 -51.135107081432579 0 -51.135107081432579 -10244.150427337881 0 0 0 -2649.1082189019107 -591.51141945727068 -96.49856278975858 0 -96.49856278975858 -10261.770861895464 0 0 0 -2713.3205703381791 -375.26539308981137 -66.115321741039224 0 -66.115321741039224 -10197.769802915924 0 0 0 -2643.2587990014354 -564.20868723307649 -127.82224555623543 0 -127.82224555623543 -10212.394339734368 0 0 0 -2694.150756741863 -396.09298944852344 -32.512899209023089 0 -32.512899209023089 -10220.197311975266 0 0 0 -2654.0725753559454 -232.97935503313056 -17.270532794394967 0 -17.270532794394967 -10220.509791964505 0 0 0 -2613.3722867494143 -142.10713169972223 36.508616333721875 0 36.508616333721875 -10237.685764032583 0 0 0 -2594.9482239330719 -138.29364459546923 41.825633627526258 0 41.825633627526258 -10181.909196363427 0 0 0 -2580.0507102397278 -238.65549566331902 8.2338718547543976 0 8.2338718547543976 -10244.424652434602 0 0 0 -2620.7700370244856 -272.17503781288542 28.502710904054766 0 28.502710904054766 -10250.926990469408 0 0 0 -2630.775507070568 -238.57007377353511 0.096295317729527596 0 0.096295317729527596 -10272.400678382175 0 0 0 -2627.7426880389321 -235.92018553851085 41.266696605436209 0 41.266696605436209 -10276.394372937735 0 0 0 -2628.0786396190597 -126.56845482623248 29.319854774483247 0 29.319854774483247 -10262.748116127972 0 0 0 -2597.3291427385484 -183.41775145717111 8.9533860269257275 0 8.9533860269257275 -10282.915860886176 0 0 0 -2616.5834030858314 -241.21147080400169 45.737449069907598 0 45.737449069907598 -10293.767655862612 0 0 0 -2633.7447816666527 -351.35906100511784 -5.3024899497104343 0 -5.3024899497104343 -10277.109434551967 0 0 0 -2657.1171238892712 -45.349337043779087 44.570928512683167 0 44.570928512683167 -10284.128953899388 0 0 0 -2582.369572735799 -73.426643662358401 18.917105905215067 0 18.917105905215067 -10277.325522107974 0 0 0 -2587.6880414425759 -126.19803380945405 51.687961261974124 0 51.687961261974124 -10302.865938676792 0 0 0 -2607.2659931215635 -127.08205729773908 40.589815572766383 0 40.589815572766383 -10241.952142052251 0 0 0 -2592.2585498374974 -40.755172206139832 44.870494462871648 0 44.870494462871648 -10253.387813909721 0 0 0 -2573.5357465289708 -53.045872480672188 49.694474139585509 0 49.694474139585509 -10286.229204262749 0 0 0 -2584.8187691858529 -59.137793299647456 60.599074564484908 0 60.599074564484908 -10195.053379109508 0 0 0 -2563.5477931022833 -66.4545295258431 51.928351387607108 0 51.928351387607108 -10249.187390581799 0 0 0 -2578.9104800269124 -10.223309258501104 58.41087290730502 0 58.41087290730502 -10187.226534829671 0 0 0 -2549.3624610220431 -9.4651302974016289 70.965508884284645 0 70.965508884284645 -10120.633600342859 0 0 0 -2532.5246826600633 -77.284224940620334 72.337724380820873 0 72.337724380820873 -10071.366815898917 0 0 0 -2537.1627602098815 -56.028893625974888 46.706288531408063 0 46.706288531408063 -10172.390844489884 0 0 0 -2557.1049345289648 -82.40934326864226 80.60461433884484 0 80.60461433884484 -10145.730404399954 0 0 0 -2557.034936917149 -232.20579823437947 9.3993289036407077 0 9.3993289036407077 -10152.438745324805 0 0 0 -2596.1611358897935 -110.79565293772794 56.107149757954176 0 56.107149757954176 -10068.554728509815 0 0 0 -2544.837595361887 -133.23516018339069 9.2021528730092541 0 9.2021528730092541 -10139.967612270964 0 0 0 -2568.3006931135897 -79.525848806817521 79.307382142149436 0 79.307382142149436 -10127.332840052753 0 0 0 -2551.7146722148864 -49.602964512625476 98.599024903691145 0 98.599024903691145 -9968.6228453464573 0 0 0 -2504.5564524647707 -70.62281367538526 38.213916755241371 0 38.213916755241371 -10036.030521454144 0 0 0 -2526.6633337823805 -58.45959896959539 91.172322772159532 0 91.172322772159532 -9912.1874704157381 0 0 0 -2492.6617673463297 -24.669170503304485 72.349372992524877 0 72.349372992524877 -9923.142341146784 0 0 0 -2486.9528779125285 3.2990711687016301 123.60807312336237 0 123.60807312336237 -9857.3456361949793 0 0 0 -2463.5116412565694 4.5049595988202782 86.659124382531445 0 86.659124382531445 -9955.4007517969294 0 0 0 -2487.7239480495373 -28.332685171430057 106.88266756666053 0 106.88266756666053 -9975.0242634463939 0 0 0 -2500.8392371544687 -10.207320052880277 86.307937383462559 0 86.307937383462559 -10052.287912232701 0 0 0 -2515.6238080713929 -572.02908307064354 -197.66992275610482 0 -197.66992275610482 -10130.9291172917 0 0 0 -2675.7395500905841 -475.36150573514533 -215.07971501973952 0 -215.07971501973952 -10172.967063099313 0 0 0 -2662.0821422086119 -374.77961267357114 -154.34365354412876 0 -154.34365354412876 -10097.772411561917 0 0 0 -2618.1380060588754 -312.81933053640387 -106.9795178503482 0 -106.9795178503482 -10169.142776194538 0 0 0 -2620.4905266827409 -363.13635608064214 -84.61041756071063 0 -84.61041756071063 -10148.834789785207 0 0 0 -2627.9927864664642 -333.78551090250039 -107.43216503354051 0 -107.43216503354051 -10183.27933617463 0 0 0 -2629.2662117692798 -356.95167505069548 -74.522184172621564 0 -74.522184172621564 -10180.413305681606 0 0 0 -2634.3412451830736 -200.89987527988887 -21.170618594725966 0 -21.170618594725966 -10108.401789330694 0 0 0 -2577.3254161526438 -188.44048034579464 -27.447957775595569 0 -27.447957775595569 -10073.780725987031 0 0 0 -2565.555301583212 -191.0742099329982 14.651937118542264 0 14.651937118542264 -10006.869452304221 0 0 0 -2549.485915559304 -79.923481652687769 0.0085138124777586199 0 0.0085138124777586199 -9971.1145430316392 0 0 0 -2512.7595061710854 -141.98266089473145 -33.538536655294592 0 -33.538536655294592 -10062.219131388778 0 0 0 -2551.0504480708787 -284.30891644851727 -168.6922306455117 0 -168.6922306455117 -10098.230077639921 0 0 0 -2595.6347485221122 -302.25482575226306 -108.18782251290031 0 -108.18782251290031 -10014.855411717464 0 0 0 -2579.2775593674287 -266.85595641820328 -247.59475241571272 0 -247.59475241571272 -10144.204740253968 0 0 0 -2602.765174168042 -523.76532712172047 -318.18288973411109 0 -318.18288973411109 -10180.436381108404 0 0 0 -2676.0504270575311 -393.55610368791167 -257.69330097678358 0 -257.69330097678358 -10104.209640241708 0 0 0 -2624.4414359824041 -24.105178108176688 -36.171973186301329 0 -36.171973186301329 -9840.608008940053 0 0 0 -2466.1782967620566 -215.14648808999482 -160.41262263633257 0 -160.41262263633257 -9964.0267326157191 0 0 0 -2544.7933051764194 -295.26457616160042 -141.13268452781631 0 -141.13268452781631 -9937.6966337850827 0 0 0 -2558.2403024866744 -40.986270968545796 -94.517731955154886 0 -94.517731955154886 -9957.0625513871564 0 0 0 -2499.5122055889296 -83.848439027737186 -30.924158816647832 0 -30.924158816647832 -9565.1284795106985 0 0 0 -2412.2442296346089 -22.418924822176905 40.682843245933327 0 40.682843245933327 -9754.2248689939534 0 0 0 -2444.1609484540345 -145.69565301769762 -36.162949185241814 0 -36.162949185241814 -9821.8369647726067 0 0 0 -2491.8831544475761 -60.559589746058919 71.316951993776456 0 71.316951993776456 -9850.7831389284984 0 0 0 -2477.8356821686393 -27.724589089340952 20.298875752683671 0 20.298875752683671 -9751.0251138799649 0 0 0 -2444.6874257423206 -57.660005772409932 57.188479061022008 0 57.188479061022008 -9536.1757512737386 0 0 0 -2398.4589392615344 -0.059401641581644071 49.363102709588929 0 49.363102709588929 -9515.7444780943624 0 0 0 -2378.9509699339869 -6.4303166497047641 23.437472470350258 0 23.437472470350258 -9157.9321635352535 0 0 0 -2291.090620046245 -12.170408895177388 26.191450316357077 0 26.191450316357077 -9531.6676309512331 0 0 0 -2385.9595099615981 -9.5908028188842227 3.1382299429205887 0 3.1382299429205887 -9143.1778788632128 0 0 0 -2288.1921704205251 -21.444196564418235 -14.147305145446808 0 -14.147305145446808 -9595.0092805080931 0 0 0 -2404.1133692681324 -5.4090821633326414 93.420783784720697 0 93.420783784720697 -9702.872149310293 0 0 0 -2427.0703078684055 -1.8060577308933716 94.066068364318198 0 94.066068364318198 -9844.3804830278386 0 0 0 -2461.546635189683 -6.190177189251699 114.13068716192356 0 114.13068716192356 -9840.4947834135237 0 0 0 -2461.6712401506993 -26.576219557220611 50.224453707567591 0 50.224453707567591 -9825.567781615493 0 0 0 -2463.0360002931811 -20.89518948417026 103.82431195436948 0 103.82431195436948 -9698.7336372317441 0 0 0 -2429.9072066789849 2.7354447551333578 27.31716765011879 0 27.31716765011879 -9566.5560676380992 0 0 0 -2390.9551557207451 -4.6997855240479112 30.402220149571804 0 30.402220149571804 -9266.0533200424252 0 0 0 -2317.6882763916219 -28.824806290866036 81.835088869323954 0 81.835088869323954 -9517.4214551204786 0 0 0 -2386.5615653528348 0.78123480758949881 46.224006409331196 0 46.224006409331196 -9314.8805326249421 0 0 0 -2328.5248244543327 -1.2872588319296483 33.130541780785279 0 33.130541780785279 -9532.5922153043211 0 0 0 -2383.46986853407 21.558361679446534 42.993363794019388 0 42.993363794019388 -9522.0847997109231 0 0 0 -2375.1316095078691 0.34727334780109231 72.349776845854649 0 72.349776845854649 -9711.0575596471317 0 0 0 -2427.6775715748263 -7.0252735775211477 77.229017164594552 0 77.229017164594552 -9528.1910403656075 0 0 0 -2383.8040784857876 -11.780882135499269 60.894756014115046 0 60.894756014115046 -9442.7005056650087 0 0 0 -2363.620346950127 -10.395572424102284 69.01165236268389 0 69.01165236268389 -9663.5535412768659 0 0 0 -2418.4872784252366 14.456167085718212 39.075850842862565 0 39.075850842862565 -9512.9600722855721 0 0 0 -2374.625976299958 -14.342819125820824 51.598573584677069 0 51.598573584677069 -9688.5873699222575 0 0 0 -2425.7325472620214 16.454294133007352 58.357097811545827 0 58.357097811545827 -9675.4044435659453 0 0 0 -2414.7375373582254 21.187941528776719 53.427477295015706 0 53.427477295015706 -9685.0437789245188 0 0 0 -2415.9639593489337 1.09224849581733 113.42879972071387 0 113.42879972071387 -9752.3695874354235 0 0 0 -2437.819334734897 -3.1663871601049323 88.296970329623491 0 88.296970329623491 -9770.4794923983573 0 0 0 -2443.4114698896155 21.334190818561183 82.450864824808377 0 82.450864824808377 -9766.877990982146 0 0 0 -2436.3859500408944 22.758553037689126 110.42874044812197 0 110.42874044812197 -9855.924858912651 0 0 0 -2458.291576468735 -3.3642683252437564 112.80169931938872 0 112.80169931938872 -9854.381337300867 0 0 0 -2464.436401406525 -1.1353429967421107 86.128699507840793 0 86.128699507840793 -9838.1608212985448 0 0 0 -2459.8240410738072 15.567684342804569 71.861738088140555 0 71.861738088140555 -9774.540852572376 0 0 0 -2439.7432920573847 -3.4151246782494127 80.87843823323783 0 80.87843823323783 -9755.613491025113 0 0 0 -2439.7571539258352 -1.5771125104874955 37.931574569513032 0 37.931574569513032 -9587.7368886932527 0 0 0 -2397.3285003009441 -2.9778628397689317 35.813342504618049 0 35.813342504618049 -9685.8639622944756 0 0 0 -2422.2104562835739 1.7911580085710739 26.272183153618244 0 26.272183153618244 -9693.3681232128438 0 0 0 -2422.8942413010664 2.9558298323245253 31.717107797197968 0 31.717107797197968 -9744.8164014169597 0 0 0 -2435.4651428961733 1.8180448510097449 70.510167701140745 0 70.510167701140745 -9768.3722716578286 0 0 0 -2441.6385567017064 2.9086654153361451 28.779147440298402 0 28.779147440298402 -9774.5724413010757 0 0 0 -2442.9159439714349 2.5042486793390708 28.224898751577712 0 28.224898751577712 -9808.2563971548516 0 0 0 -2451.4380371188745 0.69476647891860921 28.451052613272623 0 28.451052613272623 -9824.2545428187004 0 0 0 -2455.8899440849491 -1.4475104304801789 29.064949880012136 0 29.064949880012136 -9870.9481933101197 0 0 0 -2468.0989259351554 2.6116735209798208 69.370440677499573 0 69.370440677499573 -9894.0361958109133 0 0 0 -2472.856130572487 3.3186159722899902 85.645427640127309 0 85.645427640127309 -9886.0807465426042 0 0 0 -2470.690532642584 2.6433246424339814 70.312856104348612 0 70.312856104348612 -9830.0458611155518 0 0 0 -2456.8506341182738 16.827733341378917 85.212872160431289 0 85.212872160431289 -9910.6062742569775 0 0 0 -2473.4446352289015 1.9209343805196113 67.348809953902673 0 67.348809953902673 -9852.0594511171221 0 0 0 -2462.5346291841415 3.4345623486333352 102.19742113722168 0 102.19742113722168 -9884.3134032100934 0 0 0 -2470.2197102153696 14.503538692639268 82.448239331963123 0 82.448239331963123 -9839.9208329209068 0 0 0 -2456.354323557076 12.27650142379207 96.741547722536779 0 96.741547722536779 -9889.9578786802231 0 0 0 -2469.420344314105 14.408355335741362 93.73617600792204 0 93.73617600792204 -9953.1571193819109 0 0 0 -2484.6871910115442 13.004502147083258 109.03328590327874 0 109.03328590327874 -9958.9864462038968 0 0 0 -2486.4954860141988 4.823553912632633 97.764037297063624 0 97.764037297063624 -9946.7538351415424 0 0 0 -2485.4825703072202 12.080116266384721 99.738058203016408 0 99.738058203016408 -9950.1988113280095 0 0 0 -2484.5296737654135 12.235762558404531 98.826529361642315 0 98.826529361642315 -9906.8757377784787 0 0 0 -2473.6599938050131 11.633743997866986 88.638533575023757 0 88.638533575023757 -9951.2141926147597 0 0 0 -2484.8951121542195 8.6369885808053368 92.535753160773311 0 92.535753160773311 -9955.6488149569777 0 0 0 -2486.7529565940386 5.6110433081994415 102.48907606971034 0 102.48907606971034 -9974.4907816592313 0 0 0 -2492.2199345877671 8.7018273450084962 97.882805987512256 0 97.882805987512256 -9975.5659394426038 0 0 0 -2491.7160280243988 10.80550374690938 91.369832081894856 0 91.369832081894856 -10022.421943146182 0 0 0 -2502.9041098498201 -0.56867227253360397 79.556970463534526 0 79.556970463534526 -10025.472025586974 0 0 0 -2506.510174464875 4.0595700689393652 90.713803911872674 0 90.713803911872674 -10006.022815417216 0 0 0 -2500.4908113370675 9.9772472348922747 86.727125979472476 0 86.727125979472476 -10038.240212214179 0 0 0 -2507.0657412448127 11.527275975684461 88.152791447273557 0 88.152791447273557 -10013.911640188016 0 0 0 -2500.5960910530775 16.264826888193056 105.20415025884722 0 105.20415025884722 -9980.1860947991372 0 0 0 -2490.9803169777406 19.402263760704955 96.898039065228659 0 96.898039065228659 -10025.226752158473 0 0 0 -2501.4561220994437 3.3628286518869572 66.795275758755452 0 66.795275758755452 -10073.881874776736 0 0 0 -2517.6297615312142 15.785047044395469 78.09703897282634 0 78.09703897282634 -10072.862483533914 0 0 0 -2514.269359122387 22.444738610163768 85.197242363312398 0 85.197242363312398 -10080.386598402634 0 0 0 -2514.4854649481167 16.469847743683204 103.20077938835311 0 103.20077938835311 -10018.368312689665 0 0 0 -2500.4746162364863 17.638006168326683 80.677427929753321 0 80.677427929753321 -10046.465777709644 0 0 0 -2507.206942885332 23.608558189363976 72.09105548284424 0 72.09105548284424 -10130.418097202593 0 0 0 -2526.7023847533092 11.615838245583291 98.255007015890442 0 98.255007015890442 -10071.522379815651 0 0 0 -2514.9766353925224 8.2797797444327443 82.288283318535832 0 82.288283318535832 -10134.189063075624 0 0 0 -2531.4773208328006 8.825300185987544 99.358897808328038 0 99.358897808328038 -10051.641066524882 0 0 0 -2510.7039415847221 -20.206964038610749 91.807631984445834 0 91.807631984445834 -10059.501024480633 0 0 0 -2519.9269971298054 15.162667782038625 114.65457092508586 0 114.65457092508586 -10011.996266374306 0 0 0 -2499.2083996480651 2.0651186959366896 93.088117283554311 0 93.088117283554311 -9975.7816751884384 0 0 0 -2493.4291391231309 10.40794563646341 128.07916103600076 0 128.07916103600076 -9936.5164162262372 0 0 0 -2481.5271176474416 1.4096098034833631 92.787492873445444 0 92.787492873445444 -9867.5882609727814 0 0 0 -2466.5446627923257 21.436262270246516 111.20000264510963 0 111.20000264510963 -9940.9259635151102 0 0 0 -2479.8724253112086 16.116246049939946 95.890557644444925 0 95.890557644444925 -9864.8644695744297 0 0 0 -2462.1870558811206 7.7892287022004894 111.41644184351753 0 111.41644184351753 -9892.2933891744324 0 0 0 -2471.1260401180589 22.065321389243763 92.163757965681725 0 92.163757965681725 -10006.705559785856 0 0 0 -2496.1600595991549 8.3422862349252682 107.69468390419206 0 107.69468390419206 -9943.7481097132295 0 0 0 -2483.8514558695788 45.182595466421844 18.68859618496208 0 18.68859618496208 -9991.3048451833802 0 0 0 -2486.5305624292396 22.144258373824414 28.470883171277819 0 28.470883171277819 -9978.8937637691561 0 0 0 -2489.1873763488402 12.183353143074783 10.565800797645352 0 10.565800797645352 -9992.3405746175558 0 0 0 -2495.039305368613 18.037115662479664 11.557245083822636 0 11.557245083822636 -10001.407833404985 0 0 0 -2495.8426794356301 1.2745193367009051 0.693971626154962 0 0.693971626154962 -9997.6160524558218 0 0 0 -2499.085383279802 0.57482852751854807 1.0623612672142881 0 1.0623612672142881 -9998.3880357810995 0 0 0 -2499.4533018133661 1.5772100533067714 1.107037070512888 0 1.107037070512888 -9999.4103968161216 0 0 0 -2499.4582966906892 2.1757276590360561 0.78760812724067364 0 0.78760812724067364 -9998.7293587232416 0 0 0 -2499.1384077660769 7.0871279940693057 12.69738563350711 0 12.69738563350711 -9980.5789247115026 0 0 0 -2493.3729491793565 12.307827198192172 25.113306398226996 0 25.113306398226996 -9984.4544897265368 0 0 0 -2493.0366656320857 -1.2144777789071668 9.2129282303358195 0 9.2129282303358195 -9986.7047250854375 0 0 0 -2496.9798007161007 9.9867101570707746 18.754435221831955 0 18.754435221831955 -9955.4505520951061 0 0 0 -2486.3659604845088 13.373531768127577 34.251603226141015 0 34.251603226141015 -9950.2444557823183 0 0 0 -2484.2177310035477 16.491852836545149 52.774817151555908 0 52.774817151555908 -9966.2503967372613 0 0 0 -2487.4396359751772 23.027222765274928 38.950065048731631 0 38.950065048731631 -9991.4294888329314 0 0 0 -2492.1005665169214 59.241579343593912 44.907737182802521 0 44.907737182802521 -9978.3159047899826 0 0 0 -2479.7685813615899 19.005466665155836 65.45362371574447 0 65.45362371574447 -9979.5626595948561 0 0 0 -2490.1392982324178 38.44525909004733 55.163543242437299 0 55.163543242437299 -9962.0003164234804 0 0 0 -2480.8887643333583 31.324610596709135 71.920313888098462 0 71.920313888098462 -9951.9253985488376 0 0 0 -2480.1501969880364 17.524344854995434 65.213979884982109 0 65.213979884982109 -9926.00477969856 0 0 0 -2477.1201087108784 7.7212119422797514 61.231724622761249 0 61.231724622761249 -9961.1751331318137 0 0 0 -2488.3634802973797 13.000344826476066 29.90663738438343 0 29.90663738438343 -9913.2181812753552 0 0 0 -2475.0544591122307 -3.075319780731661 24.4781063926348 0 24.4781063926348 -9965.702714343468 0 0 0 -2492.1945085310399 -1.3169103294494562 23.809608178555209 0 23.809608178555209 -9921.8651670354593 0 0 0 -2480.7955193412199 -1.6288698859934811 46.708677419825108 0 46.708677419825108 -9946.9887667842268 0 0 0 -2487.1544091675532 15.52544477443189 51.349706486202194 0 51.349706486202194 -9889.3520961399554 0 0 0 -2468.4566628414013 1.6282993028507917 24.148085529504897 0 24.148085529504897 -9903.289972136321 0 0 0 -2475.415418208373 3.4289716871666602 26.182057985955907 0 26.182057985955907 -9863.9458080098411 0 0 0 -2465.1292090806724 10.492071504328123 61.631939124570636 0 61.631939124570636 -9856.9154003148033 0 0 0 -2461.6058322026201 -3.2059858195716515 62.590583722718293 0 62.590583722718293 -9923.6822073202056 0 0 0 -2481.722048284937 2.4140018911057268 77.655165466334438 0 77.655165466334438 -9950.3933466372982 0 0 0 -2486.9948361865609 15.634004025228933 77.958824491841369 0 77.958824491841369 -9910.4750700324294 0 0 0 -2473.7102665017992 4.953106920918799 87.685847936883192 0 87.685847936883192 -9946.551341844257 0 0 0 -2485.3995587308309 12.25936223876306 97.773472407177906 0 97.773472407177906 -9940.853256382532 0 0 0 -2482.1484735359281 17.907600688595267 94.146029301424278 0 94.146029301424278 -9973.87417353419 0 0 0 -2488.9916432114042 14.341740818999824 96.307495137531077 0 96.307495137531077 -10002.784521987982 0 0 0 -2497.1106952922419 29.160512694155841 89.800796998490114 0 89.800796998490114 -10001.097943665605 0 0 0 -2492.9843577428564 27.560031812039597 97.96879026008537 0 97.96879026008537 -9997.890001459069 0 0 0 -2492.5824924117496 16.184988628374413 98.042215576992021 0 98.042215576992021 -9973.5732059354486 0 0 0 -2489.3470543267758 31.581721481852583 95.22607593187422 0 95.22607593187422 -9986.5809046824434 0 0 0 -2488.7497958001477 29.449528083467158 95.882416906577419 0 95.882416906577419 -10007.20323664532 0 0 0 -2494.4384271404706 55.963910367623612 87.52295962440985 0 87.52295962440985 -9992.7572897175414 0 0 0 -2484.1983448374885 36.202976667413168 87.89776203907968 0 87.89776203907968 -9977.4978297264315 0 0 0 -2485.3237132647519 42.097639937099302 77.230874255663366 0 77.230874255663366 -9980.5884293089621 0 0 0 -2484.622697342973 23.484712641242368 91.025487472561508 0 91.025487472561508 -9959.2300707062241 0 0 0 -2483.9363395162363 21.487912263422913 78.12719361307245 0 78.12719361307245 -9956.0688617122942 0 0 0 -2483.645237362216 46.261118935406557 69.25127891964803 0 69.25127891964803 -9970.4809916972299 0 0 0 -2481.0549681904449 30.884636158094509 56.315479301545565 0 56.315479301545565 -9998.4074577978463 0 0 0 -2491.8807054099452 71.307296255545225 62.530381771801331 0 62.530381771801331 -9983.8294303653238 0 0 0 -2478.1305335274519 48.136004684653017 76.206062205943454 0 76.206062205943454 -10000.166078008042 0 0 0 -2488.0075183308436 84.44530278230377 73.743732412418467 0 73.743732412418467 -9987.8857713418256 0 0 0 -2475.8601171398768 52.622080836568784 87.738853520877456 0 87.738853520877456 -10005.595152729074 0 0 0 -2488.243267973121 73.37288355336932 64.297073678106244 0 64.297073678106244 -10006.225979663664 0 0 0 -2483.2132740275847 110.71882388831 51.598269992115092 0 51.598269992115092 -9985.7812693783781 0 0 0 -2468.7656113725243 137.71998521067144 56.359272179906839 0 56.359272179906839 -9999.4438629490032 0 0 0 -2465.4309694345866 144.54569076398911 27.751781768733053 0 27.751781768733053 -9998.8720236606896 0 0 0 -2463.5815832241642 96.727162755618338 25.748279947860283 0 25.748279947860283 -9998.1416414327978 0 0 0 -2475.3536196692876 83.465711016062414 25.418466265269672 0 25.418466265269672 -10000.140640521247 0 0 0 -2479.168732376289 53.108489457146788 49.020813674782403 0 49.020813674782403 -10001.861366841185 0 0 0 -2487.1882193459969 87.714759804301139 30.497099762491416 0 30.497099762491416 -9985.7831328732136 0 0 0 -2474.5170932672263 32.200800338039699 24.949228954865248 0 24.949228954865248 -10003.183646568184 0 0 0 -2492.7457115575235 207.38881796372516 19.396322945292923 0 19.396322945292923 -10008.687690135543 0 0 0 -2450.3247180429498 300.00082049107004 2.8340299230039818 0 2.8340299230039818 -10002.569961116358 0 0 0 -2425.6422851562966 186.7870857501257 43.964898850994359 0 43.964898850994359 -10019.558270740439 0 0 0 -2458.1927962475893 196.69453685365261 12.379250295154634 0 12.379250295154634 -10008.383992239676 0 0 0 -2452.9223638465064 251.41919118073565 19.31274605327053 0 19.31274605327053 -10006.717371474369 0 0 0 -2438.8245450734103 197.83150306421157 25.639873967202472 0 25.639873967202472 -10001.982006153732 0 0 0 -2451.0376257723838 127.51240920154669 28.736300979900989 0 28.736300979900989 -10002.027748550056 0 0 0 -2468.6288348371236 170.94276643783087 23.163820650850539 0 23.163820650850539 -10001.645897489507 0 0 0 -2457.6757827629117 156.71732438120671 56.451996132312161 0 56.451996132312161 -10018.016154506942 0 0 0 -2465.3247075314284 100.87630564416759 73.729950780543732 0 73.729950780543732 -10018.667064036388 0 0 0 -2479.4476895980479 101.62840957046137 61.439669186496758 0 61.439669186496758 -10003.290662456246 0 0 0 -2475.4155632214461 76.759948127477401 75.62659058481222 0 75.62659058481222 -9994.4256037897139 0 0 0 -2479.4164139155509 111.57076906171278 64.252321425883565 0 64.252321425883565 -10031.12583250954 0 0 0 -2479.8887658619642 143.60645258995646 39.607551307271933 0 39.607551307271933 -10007.343839856665 0 0 0 -2465.9343468166771 131.74355630747641 25.404049522039713 0 25.404049522039713 -10027.41103697218 0 0 0 -2473.9168701661761 69.547470508012339 52.817581598945253 0 52.817581598945253 -10040.135767053856 0 0 0 -2492.6470741364465 52.783939523738809 51.475709843172808 0 51.475709843172808 -10090.23742105905 0 0 0 -2509.3633703838204 30.666305432801892 74.12181407254684 0 74.12181407254684 -10041.34836165249 0 0 0 -2502.6705140549238 97.524321917182533 54.43407512153135 0 54.43407512153135 -10048.486808195943 0 0 0 -2487.7406215696974 64.077347200152872 75.902134130345075 0 75.902134130345075 -10024.396383204003 0 0 0 -2490.0797590009533 85.720408030800172 82.17221995019645 0 82.17221995019645 -10024.725235933525 0 0 0 -2484.7512069756922 53.397559750272194 88.079534789110767 0 88.079534789110767 -10010.284467483085 0 0 0 -2489.2217269332032 49.350120448376401 85.697377851654892 0 85.697377851654892 -10019.795032808121 0 0 0 -2492.6112280899251 32.124299422641343 91.059721336612711 0 91.059721336612711 -10025.476014198386 0 0 0 -2498.3379286939235 56.298823772318428 72.736380420706155 0 72.736380420706155 -10046.162611961045 0 0 0 -2497.4659470471815 25.109993143516476 80.020143567391642 0 80.020143567391642 -10041.10354368898 0 0 0 -2503.9983876363549 6.8977413869288284 82.522246517735766 0 82.522246517735766 -10039.167490384192 0 0 0 -2508.0674372493377 16.741542565599957 97.09314748847828 0 97.09314748847828 -10017.809320251952 0 0 0 -2500.2669444215862 2.7122668735173647 85.817394122313999 0 85.817394122313999 -10034.111046050311 0 0 0 -2507.8496947941967 10.955080840198207 84.194080361911347 0 84.194080361911347 -10031.910037331632 0 0 0 -2505.2387391228549 -4.0304568451974774 63.796643435728015 0 63.796643435728015 -10070.913051772834 0 0 0 -2518.7358771545114 -14.88504902368004 66.050815860013245 0 66.050815860013245 -10070.849796345778 0 0 0 -2521.433711342368 16.28538567275973 61.741868447134038 0 61.741868447134038 -10082.319756538694 0 0 0 -2516.508592716491 -9.3017257112078369 61.016140817446285 0 61.016140817446285 -10073.375577801053 0 0 0 -2520.6693258780724 -18.106188924655726 37.17384527104241 0 37.17384527104241 -10121.977577218146 0 0 0 -2535.0209415357021 -60.221149071265245 -0.69317816873081028 0 -0.69317816873081028 -10165.996866572386 0 0 0 -2556.5545039109129 -48.046745781110076 40.158879013812111 0 40.158879013812111 -10122.77137420373 0 0 0 -2542.7045299962119 20.931765081266349 18.620516112529003 0 18.620516112529003 -10096.218451866269 0 0 0 -2518.8216716962488 29.838299781644309 63.235934566277137 0 63.235934566277137 -10112.941046208492 0 0 0 -2520.7756866067066 -22.045573361756396 42.825990766279574 0 42.825990766279574 -10187.515732908272 0 0 0 -2552.3903265675035 -56.071606733421504 -0.5375791846345237 0 -0.5375791846345237 -10323.609431432706 0 0 0 -2594.9202595415336 -32.075134801258173 -108.04513886648783 0 -108.04513886648783 -10254.11089467867 0 0 0 -2571.5465073699761 -39.636139579262817 -113.25171560513627 0 -113.25171560513627 -10276.720804892655 0 0 0 -2579.0892361179722 -10.292372743642773 -81.785060734575382 0 -81.785060734575382 -10155.996728157363 0 0 0 -2541.5722752252477 29.856810988618236 -4.3478218163254496 0 -4.3478218163254496 -10148.414628386032 0 0 0 -2529.6394543493516 -3.6996329489365962 -25.833794598976965 0 -25.833794598976965 -10184.829279980047 0 0 0 -2547.132228232239 44.198702632636923 -88.813188065061695 0 -88.813188065061695 -10179.069708212086 0 0 0 -2533.7177513948645 87.333882876606367 -74.233108746404469 0 -74.233108746404469 -10051.643209262722 0 0 0 -2491.0773315965271 82.097412992599857 -60.921190402339562 0 -60.921190402339562 -10129.613134664731 0 0 0 -2511.8789304180282 89.802169466231135 -3.3433940674522091 0 -3.3433940674522091 -10056.976724293228 0 0 0 -2491.7936387067602 105.11404684918398 -4.4669090495153796 0 -4.4669090495153796 -10074.703249351769 0 0 0 -2492.397300625652 53.179568157247559 -0.73310622810095083 0 -0.73310622810095083 -10166.480753346157 0 0 0 -2528.3252962972256 97.025774626905331 46.858045468012278 0 46.858045468012278 -10083.125344740547 0 0 0 -2496.5248925284104 150.72437687516504 36.717487592701218 0 36.717487592701218 -10034.763242208835 0 0 0 -2471.009716333414 160.00263827103481 -4.5859937368004466 0 -4.5859937368004466 -10034.590185849986 0 0 0 -2468.6468868947268 126.9711489064648 13.059729455460911 0 13.059729455460911 -10053.182773923269 0 0 0 -2481.55290625419 142.29157540302458 -40.416395427295356 0 -40.416395427295356 -10060.072254321207 0 0 0 -2479.4451697295308 116.97936293930252 -42.031384348993015 0 -42.031384348993015 -10029.579982456577 0 0 0 -2478.150154879324 161.1112447250689 -55.04542378160113 0 -55.04542378160113 -10022.819070173584 0 0 0 -2465.4269563621292 145.98754745637416 -46.351335942606966 0 -46.351335942606966 -10050.040546848846 0 0 0 -2476.013249848118 164.62089477201516 -19.064043839418446 0 -19.064043839418446 -10015.31483647594 0 0 0 -2462.6734854259703 206.50627885077847 -26.436644927191082 0 -26.436644927191082 -10026.811235567846 0 0 0 -2455.0762391792523 196.82789057351329 -16.873984396355809 0 -16.873984396355809 -10003.591723053309 0 0 0 -2451.6909581199507 285.27779116734018 -16.279430776863592 0 -16.279430776863592 -10013.241497295967 0 0 0 -2431.9909265321548 225.95902637292602 -4.2209842191805365 0 -4.2209842191805365 -10003.082025362208 0 0 0 -2444.2807497473113 313.76727986203332 3.4913982287544059 0 3.4913982287544059 -10010.023706213426 0 0 0 -2424.0641065878663 233.77435817822698 -7.9621559489241918 0 -7.9621559489241918 -10002.155803261208 0 0 0 -2442.0953612707381 193.26151180169472 14.876775300857844 0 14.876775300857844 -10016.082314038751 0 0 0 -2455.7052005592595 223.14268372750666 26.742254137861892 0 26.742254137861892 -10011.55428253478 0 0 0 -2447.1028997018147 37.452205228615639 10.651193581616099 0 10.651193581616099 -10219.713322170923 0 0 0 -2545.5652792355722 28.842740542553656 4.0137745749707392 0 4.0137745749707392 -10231.453999936522 0 0 0 -2550.652814848494 55.611533661046451 -23.191630894820264 0 -23.191630894820264 -10220.703833029289 0 0 0 -2541.2730748420645 37.889187420907547 17.870428167989303 0 17.870428167989303 -10255.323676377317 0 0 0 -2554.3586222391095 16.052433859127632 34.919067020971852 0 34.919067020971852 -10277.094897156989 0 0 0 -2565.2606158244671 43.063688020512927 19.113897892591922 0 19.113897892591922 -10237.776032107678 0 0 0 -2548.6780860217914 12.288759600804042 25.317150467511965 0 25.317150467511965 -10271.317369272721 0 0 0 -2564.7571524179912 20.773049600752415 42.21428811345686 0 42.21428811345686 -10244.344750618926 0 0 0 -2555.8929252545468 7.3504503261647187 49.797287232529925 0 49.797287232529925 -10194.006467900996 0 0 0 -2546.6640043937005 -4.5039166536516859 50.43056425438408 0 50.43056425438408 -10253.483545336712 0 0 0 -2564.4968654975892 -13.710940148244845 77.377211809325672 0 77.377211809325672 -10137.687275684104 0 0 0 -2537.8495539580908 15.072141984837799 60.830414481177286 0 60.830414481177286 -10195.666460093096 0 0 0 -2545.1485795270673 19.878012476037838 63.758526201418135 0 63.758526201418135 -10124.86612909782 0 0 0 -2526.2470291554491 38.734058127050957 41.064595006188028 0 41.064595006188028 -10182.28872319511 0 0 0 -2535.8886662670157 17.903053744910721 40.967698927823221 0 40.967698927823221 -10183.987071972457 0 0 0 -2541.5210045568929 26.282369606036809 50.906155451233644 0 50.906155451233644 -10115.542432682923 0 0 0 -2522.3150157692289 25.48594687318473 61.275447248837736 0 61.275447248837736 -10121.920977689137 0 0 0 -2524.1087577039798 16.05173723763437 77.362420630546694 0 77.362420630546694 -10061.785014530033 0 0 0 -2511.4333193230996 16.554824427556014 47.656292968917114 0 47.656292968917114 -10106.128866544546 0 0 0 -2522.393510529233 -10.012456848737202 45.759838472673437 0 45.759838472673437 -10092.754596418948 0 0 0 -2525.6917633169214 1.0535234742492321 28.705740768331452 0 28.705740768331452 -10170.82238435933 0 0 0 -2542.4422152212719 -6.7811139115965489 66.302160921892209 0 66.302160921892209 -10054.083789563781 0 0 0 -2515.2162258688495 3.0070773484912934 66.997032148450671 0 66.997032148450671 -10064.515634473268 0 0 0 -2515.3771392811832 -33.053264135967765 33.380829732188431 0 33.380829732188431 -10106.751741739572 0 0 0 -2534.9512514688831 -14.83169365690992 29.937173313788662 0 29.937173313788662 -10118.607292156346 0 0 0 -2533.3597464533159 -75.071547521054526 -17.329813696225756 0 -17.329813696225756 -10168.5298483878 0 0 0 -2560.9003489772167 19.407004310312914 8.9171016005639103 0 8.9171016005639103 -10156.44678403627 0 0 0 -2534.2599449314876 -34.103601347647782 8.3287232422226225 0 8.3287232422226225 -10143.621527477459 0 0 0 -2544.4312822062784 -0.5446065662545152 -2.5906436369550647 0 -2.5906436369550647 -10186.949502541713 0 0 0 -2546.8735272769991 -1.5050016348577628 -36.092704791619326 0 -36.092704791619326 -10174.115419980695 0 0 0 -2543.9051054038828 11.773424882630934 -51.930220652298885 0 -51.930220652298885 -10285.645615505171 0 0 0 -2568.4680476556387 -88.857103253656533 -76.738565435996861 0 -76.738565435996861 -10249.815439036087 0 0 0 -2584.6681355724359 12.030618822471297 -91.325517591372773 0 -91.325517591372773 -10320.634254973062 0 0 0 -2577.1509090376494 62.606579379586947 -57.206285044987453 0 -57.206285044987453 -10339.382248877087 0 0 0 -2569.1939173743731 52.065481949168316 -52.360992026908207 0 -52.360992026908207 -10272.207114677847 0 0 0 -2555.0354081821861 -64.977328047280025 -17.061010175028059 0 -17.061010175028059 -10175.103811787907 0 0 0 -2560.0202849587949 -121.1952443080736 -61.999875972011068 0 -61.999875972011068 -10266.014247587329 0 0 0 -2596.8023729738488 -118.98206200586719 15.64934956466459 0 15.64934956466459 -10191.8919468276 0 0 0 -2577.7185022083504 -242.75902377059174 -45.509827290494286 0 -45.509827290494286 -10302.79658447831 0 0 0 -2636.3889020622191 -152.97200059804891 -82.888914578114054 0 -82.888914578114054 -10650.048088235955 0 0 0 -2700.7550222085047 -232.97137442522217 -297.86439393287947 0 -297.86439393287947 -10547.318546079012 0 0 0 -2695.0724801260658 56.402070340875071 -108.83367376369642 0 -108.83367376369642 -10496.861869302491 0 0 0 -2610.1149497403967 163.39280239857908 -38.910844104793796 0 -38.910844104793796 -10310.274092432752 0 0 0 -2536.7203225085468 115.20214007120649 -117.70222434073366 0 -117.70222434073366 -10296.226947665069 0 0 0 -2545.2562018984581 198.63330227329789 105.23486162543122 0 105.23486162543122 -10569.417840725975 0 0 0 -2592.6961346131684 244.45720326072478 161.78691895780503 0 161.78691895780503 -10012.365008300578 0 0 0 -2441.9769512599596 91.205726240298645 76.141428255563369 0 76.141428255563369 -10319.144113976681 0 0 0 -2556.984596934094 133.54363900478893 19.433418421511305 0 19.433418421511305 -10290.117167896013 0 0 0 -2539.1433822228082 118.09500085045147 -14.518325351913518 0 -14.518325351913518 -10273.007948705519 0 0 0 -2538.7282369637614 85.871160953589424 3.1183303197685746 0 3.1183303197685746 -10312.542398037156 0 0 0 -2556.6678092708971 107.68587919881247 23.488762196726384 0 23.488762196726384 -10274.69539742684 0 0 0 -2541.7523795570014 51.987454017049458 13.298982362750394 0 13.298982362750394 -10296.040035745173 0 0 0 -2561.013145432029 73.257407992707158 1.3363470443800907 0 1.3363470443800907 -10267.092585756909 0 0 0 -2548.4587944410596 51.589266672119265 -19.739681375183864 0 -19.739681375183864 -10293.679670397396 0 0 0 -2560.5226009313192 54.792186409484202 11.544037579828 0 11.544037579828 -10279.330031929399 0 0 0 -2556.1344613799793 8.3932277861749753 32.445218240876784 0 32.445218240876784 -10261.519535475978 0 0 0 -2563.2815769224471 10.209086034750726 41.526619133401255 0 41.526619133401255 -10226.974913906939 0 0 0 -2554.1914569680466 -27.270016037393361 25.323047224667789 0 25.323047224667789 -10189.777811322361 0 0 0 -2554.2619568399459 18.603036430777138 15.945202713912295 0 15.945202713912295 -10266.22272552564 0 0 0 -2561.9049222737194 51.321909773469088 39.463773014958861 0 39.463773014958861 -10216.769084172687 0 0 0 -2541.3617935998191 -67.22028698284339 11.711180972633883 0 11.711180972633883 -10211.702256516415 0 0 0 -2569.730635874821 20.513680897915037 63.223315713141346 0 63.223315713141346 -10046.256703871652 0 0 0 -2506.4357557434341 -34.91567637056005 22.16744677486713 0 22.16744677486713 -10066.900433179715 0 0 0 -2525.4540273875741 19.977676552160119 40.918048300509327 0 40.918048300509327 -9916.3958673566522 0 0 0 -2474.1045477011285 -60.488336975409766 16.234529030585691 0 16.234529030585691 -9977.7933905083919 0 0 0 -2509.5704318709468 -24.883858807449997 -19.831163950322662 0 -19.831163950322662 -9970.1109447466642 0 0 0 -2498.7487008885287 -10.486860870645614 -36.092384432414178 0 -36.092384432414178 -9927.7262607007287 0 0 0 -2484.5532803928436 -81.964200028429332 -6.1732245740422513 0 -6.1732245740422513 -9957.7588631469989 0 0 0 -2509.9307657938552 212.58452210870746 -110.74294198232747 0 -110.74294198232747 -9914.4187498445099 0 0 0 -2425.4585569339542 114.84521648498412 -89.829872097761836 0 -89.829872097761836 -9750.7875621309795 0 0 0 -2408.9855864115052 21.448321410949575 -26.868720894166472 0 -26.868720894166472 -9935.0147877517593 0 0 0 -2478.3916165852097 84.128847935418889 23.751877575836261 0 23.751877575836261 -9932.2417186878884 0 0 0 -2462.0282176881155 109.79973545688699 97.05240974744811 0 97.05240974744811 -10023.824543921655 0 0 0 -2478.5062021161939 98.710613743009162 67.083414124897899 0 67.083414124897899 -9864.5070224137162 0 0 0 -2441.4491021676731 33.216571723001834 56.008232035288529 0 56.008232035288529 -10079.29019250079 0 0 0 -2511.5184051944452 84.627482846575731 118.65451807597856 0 118.65451807597856 -10087.054893066655 0 0 0 -2500.6068525550145 491.37122343200463 302.33643491243856 0 302.33643491243856 -10060.423589679078 0 0 0 -2392.2630915617628 184.00303264115428 136.19247578204522 0 136.19247578204522 -9795.2669503096258 0 0 0 -2402.8159794171261 276.5435888539505 47.413417448931796 0 47.413417448931796 -11043.720311940095 0 0 0 -2691.7941807715397 422.5968369766706 -16.378212371484551 0 -16.378212371484551 -8547.6213563023048 0 0 0 -2031.2561298314104 -16.269574604386435 84.34755248856527 0 84.34755248856527 -9880.2988179602398 0 0 0 -2474.1420981411502 -372.90088075659878 -507.57102606292756 0 -507.57102606292756 -10519.918555080803 0 0 0 -2723.2048589593469 736.74499963728158 540.56548555717018 0 540.56548555717018 -9923.5121741011535 0 0 0 -2296.6917936159807 -1.9931137094517908 -0.6317301223334435 0 -0.6317301223334435 -7.009526527299613 0 0 0 -2.2506600591878794 -378.18524981389055 -692.41273494182212 0 -692.41273494182212 -9273.7433175363694 0 0 0 -2412.9821418375577 -291.83592519917875 120.61153961905075 0 120.61153961905075 -10168.032135900517 0 0 0 -2614.9670152749241 -3.5926755695852677 -1.6570384279834043 0 -1.6570384279834043 -11.858891899838454 0 0 0 -3.8628918673559269 775.74278618261451 -464.01122642675182 0 -464.01122642675182 -9679.9865111515101 0 0 0 -2226.0609312422312 55.222943218523142 392.05357674519473 0 392.05357674519473 -9374.4556823212133 0 0 0 -2329.8081847756803 -3.6004371820357051 -2.2683294799423876 0 -2.2683294799423876 -11.861479119927651 0 0 0 -3.8654790754908106 468.19031732858275 164.721844903288 0 164.721844903288 -9916.5393633349304 0 0 0 -2362.0872615015833 -75.516816358431242 -113.61833455209853 0 -113.61833455209853 -10134.899212800112 0 0 0 -2552.6040072896358 198.88185572756629 -65.539946169723407 0 -65.539946169723407 -9591.4249180777115 0 0 0 -2348.1357655875399 347.48454388388927 -74.829399615256989 0 -74.829399615256989 -10501.322295171485 0 0 0 -2538.4594378218972 592.26061018965993 -136.26039769058025 0 -136.26039769058025 -9788.5065061936912 0 0 0 -2299.0614740010133 206.09561331588338 -61.714568320610852 0 -61.714568320610852 -9898.915252600229 0 0 0 -2423.2049098210919 151.50246235181112 -78.771517086548556 0 -78.771517086548556 -9928.5113091424864 0 0 0 -2444.2522116976761 349.09518743911758 -10.473730091625839 0 -10.473730091625839 -9387.321554140799 0 0 0 -2259.5565916754131 348.0765754297172 -305.69811674319499 0 -305.69811674319499 -9960.0909115501418 0 0 0 -2403.0035840301025 182.73808302595717 -88.049421201838413 0 -88.049421201838413 -9948.9846249593829 0 0 0 -2441.5616354833473 -259.74711809605651 -3.9941027259856128 0 -3.9941027259856128 -9917.4498497202876 0 0 0 -2544.2992419540824 -96.218335722092888 -5.4783559056231752 0 -5.4783559056231752 -9420.3819640144502 0 0 0 -2379.1500749341358 36.191120089148171 -241.95978560838557 0 -241.95978560838557 -9768.1439717398316 0 0 0 -2432.9882129126709 -3.6121347331786922 -2.702443190534181 0 -2.702443190534181 -11.865378317585964 0 0 0 -3.869378262691157 -40.06611386867371 293.00624270128174 0 293.00624270128174 -9788.1348914981209 0 0 0 -2457.050251341705 -79.42795405000652 184.9418717372464 0 184.9418717372464 -10266.142609588249 0 0 0 -2586.3926409095657 -23.427727572918229 -79.389424378008698 0 -79.389424378008698 -10358.814378726107 0 0 0 -2595.5605265747581 -61.278147837379947 -283.83051997607481 0 -283.83051997607481 -9973.2473164914118 0 0 0 -2508.6313660821907 277.60921665339265 182.99516015539407 0 182.99516015539407 -9976.2868370731012 0 0 0 -2424.6694051049271 -3.6048674218760084 -3.0766935176020809 0 -3.0766935176020809 -11.862955893085314 0 0 0 -3.8669558287403163 -60.804694274207577 -78.01618721729028 0 -78.01618721729028 -9587.5672973220935 0 0 0 -2412.0929978990825 414.74900835239532 -27.820475134300068 0 -27.820475134300068 -9935.7046233729634 0 0 0 -2380.2389037551402 217.03645112933009 -117.09883795899077 0 -117.09883795899077 -9937.6171698176768 0 0 0 -2430.1451796720794 233.0557958172285 -8.4474528110367828 0 -8.4474528110367828 -10515.009742489026 0 0 0 -2570.4884866679422 177.20178234942432 -40.532571542978985 0 -40.532571542978985 -9985.9598641842967 0 0 0 -2452.1895204587199 23.222800264436955 -54.327665130018431 0 -54.327665130018431 -10008.359605776699 0 0 0 -2496.2842013780719 156.14709770131594 -122.77253815837867 0 -122.77253815837867 -9951.8579540888022 0 0 0 -2448.927714096877 101.02702873427188 -96.92541666640318 0 -96.92541666640318 -9999.1006634568912 0 0 0 -2474.5184086806694 163.49685202584351 -73.831874963259907 0 -73.831874963259907 -9939.129020620916 0 0 0 -2443.9080421487715 100.12586743739666 -106.90587622301973 0 -106.90587622301973 -9928.6985435119132 0 0 0 -2457.1431690186364 92.93468245062104 -100.46978112529177 0 -100.46978112529177 -9943.8056622947333 0 0 0 -2462.7177449610317 56.922697455674552 -113.79383171910013 0 -113.79383171910013 -9954.5814335170799 0 0 0 -2474.4146840153467 19.439183367539954 -86.746735920502033 0 -86.746735920502033 -10001.869781193192 0 0 0 -2495.6076494564186 14.798075130907819 -76.342119427272337 0 -76.342119427272337 -9975.8048307890422 0 0 0 -2490.2516889145336 15.394531050324531 -76.446020412971848 0 -76.446020412971848 -9973.2006997042772 0 0 0 -2489.451542163491 -7.0308201729058055 -54.596436766734769 0 -54.596436766734769 -9955.5893855882459 0 0 0 -2490.6550514402843 -55.268763744013995 -47.417516287147009 0 -47.417516287147009 -9962.4464232534519 0 0 0 -2504.4287967493619 -6.7816182275055326 -49.569462309868868 0 -49.569462309868868 -9960.9668505424343 0 0 0 -2491.9371171924868 -53.833546279577604 -47.578047867238638 0 -47.578047867238638 -9939.0435090970059 0 0 0 -2498.219263844142 83.218523952427859 -104.74615124035336 0 -104.74615124035336 -9876.383906901181 0 0 0 -2448.2913457371887 163.10917883264483 -103.35847041253874 0 -103.35847041253874 -9933.0639267902588 0 0 0 -2442.4886869893962 123.82171242067852 -72.337864913224621 0 -72.337864913224621 -9937.4038517619774 0 0 0 -2453.3955348353265 125.93027912691468 -22.865748312062351 0 -22.865748312062351 -9997.9938464779989 0 0 0 -2468.0158918377856 127.72976986653157 -22.35158297221642 0 -22.35158297221642 -9997.080675479112 0 0 0 -2467.3377264031406 101.4100347753556 -58.096213121465553 0 -58.096213121465553 -10007.398751395609 0 0 0 -2476.4971791550633 194.13671313908708 -30.010984792155796 0 -30.010984792155796 -9995.3943436438276 0 0 0 -2450.314407626196 229.56322380850179 -28.013086782433675 0 -28.013086782433675 -10007.74531842841 0 0 0 -2444.5455236549824 146.4742673974979 -42.33757610511384 0 -42.33757610511384 -9989.1675738332851 0 0 0 -2460.6733266089723 137.79350032787625 -37.17592982298811 0 -37.17592982298811 -10004.413912003773 0 0 0 -2466.6551029189723 109.07376213688258 -79.063300854075351 0 -79.063300854075351 -9998.9900201409764 0 0 0 -2472.4790645010289 74.792190878852125 -94.904338782638661 0 -94.904338782638661 -10026.071108481279 0 0 0 -2487.8197294005986 46.953800099858199 -93.587364910028555 0 -93.587364910028555 -9996.0680345688888 0 0 0 -2487.278558617254 64.244633061534842 -70.539814909821871 0 -70.539814909821871 -9985.2788583582733 0 0 0 -2480.2585563241882 49.773158448120739 -82.195856335296412 0 -82.195856335296412 -9994.8991703501451 0 0 0 -2486.281502975502 87.523072840253008 -53.90485511674342 0 -53.90485511674342 -9985.381634441088 0 0 0 -2474.4646404001978 41.813766714883968 -75.23277306457021 0 -75.23277306457021 -9967.6454519463296 0 0 0 -2481.4579213078541 -51.980379432763584 -86.012647017312702 0 -86.012647017312702 -9968.1132716769644 0 0 0 -2505.0234127774347 -0.93956670714396751 -89.257662093120416 0 -89.257662093120416 -9951.3639143611363 0 0 0 -2488.0758702670646 -77.274257935778223 -113.58944939464709 0 -113.58944939464709 -9965.0865472507721 0 0 0 -2510.590201296638 -10.0994005991015 -93.892956324132683 0 -93.892956324132683 -9984.9378180225613 0 0 0 -2498.759304655403 84.009189490971039 -94.150155649229418 0 -94.150155649229418 -9986.4023621033994 0 0 0 -2475.598293153118 0.65435609105770709 -144.37143628793274 0 -144.37143628793274 -10095.202552335773 0 0 0 -2523.637049061188 42.176413458466413 -155.95530296369179 0 -155.95530296369179 -9907.1255479514948 0 0 0 -2466.237283623268 -32.959629580713226 -223.73293164400093 0 -223.73293164400093 -10174.192716473772 0 0 0 -2551.7880865136103 -71.776518722166657 -256.97670163390376 0 -256.97670163390376 -10310.923526107392 0 0 0 -2595.6750112073787 -83.685126678345114 -379.52541345501959 0 -379.52541345501959 -9789.888901746348 0 0 0 -2468.3935071061678 -44.306948661164824 -18.035172533011064 0 -18.035172533011064 -9662.3192342915136 0 0 0 -2426.6565457381739 -107.90016990761796 -67.747628553042887 0 -67.747628553042887 -9941.4718196265458 0 0 0 -2512.3429973835518 -100.6373595926616 -81.497918756344006 0 -81.497918756344006 -9934.2337199350623 0 0 0 -2508.7177698819341 -64.219108053082891 -80.943372233727132 0 -80.943372233727132 -9795.5028106548416 0 0 0 -2464.9304796769793 -63.672530012772768 -64.176740914765105 0 -64.176740914765105 -9909.5066766456584 0 0 0 -2493.2948016646114 -41.572490568425565 -24.230396699043922 0 -24.230396699043922 -9907.2490464551665 0 0 0 -2487.2053842559035 -95.903723200652166 6.0361122487884131 0 6.0361122487884131 -9978.694633678504 0 0 0 -2518.6495892198 25.204099916612904 78.017551412573084 0 78.017551412573084 -9772.6226448709785 0 0 0 -2436.8546362385896 74.80300309426093 -62.428611670929968 0 -62.428611670929968 -9933.1039932797139 0 0 0 -2464.5752475463596 -146.17936617779642 -68.820709607418394 0 -68.820709607418394 -10006.768678920036 0 0 0 -2538.2370112744511 -30.577617749222554 -28.183436119637918 0 -28.183436119637918 -9984.5120986923575 0 0 0 -2503.7724291104023 -26.256017705192789 -38.510078870444886 0 -38.510078870444886 -9964.9098405082477 0 0 0 -2497.7914645533456 -5.7917344246225184 -38.747755347474595 0 -38.747755347474595 -9972.2368119084585 0 0 0 -2494.5071365832691 -4.2220021191296837 -35.051240851418697 0 -35.051240851418697 -9972.3311188123571 0 0 0 -2494.138280232879 -7.4923489092761884 -41.917773709061294 0 -41.917773709061294 -9984.9079456188192 0 0 0 -2498.1000736320275 23.111504170628905 -50.153680988900305 0 -50.153680988900305 -9973.785320889685 0 0 0 -2487.6684541797658 -15.637341463356279 -49.649899389216444 0 -49.649899389216444 -9969.3055672908376 0 0 0 -2496.2357271885558 -35.741072456881739 -35.448993317389977 0 -35.448993317389977 -9969.0962426593615 0 0 0 -2501.209328779054 6.1851039498578757 -63.443321155304147 0 -63.443321155304147 -9953.5307470889238 0 0 0 -2486.8364107847665 15.818488939513372 -73.06136226237868 0 -73.06136226237868 -9976.673706080157 0 0 0 -2490.2138042851648 47.178586982787238 -51.48224164142448 0 -51.48224164142448 -9977.7867035300587 0 0 0 -2482.6520291368215 52.529901825985689 -55.450258441254846 0 -55.450258441254846 -9996.8547418829039 0 0 0 -2486.081210014233 43.333947095350595 -35.574597114513381 0 -35.574597114513381 -9995.7468431377201 0 0 0 -2488.1032240105851 48.128875897687976 -50.612706831045216 0 -50.612706831045216 -9977.0037229789814 0 0 0 -2482.2187117703215 15.427745324806892 -43.978399661285948 0 -43.978399661285948 -9987.4649742398178 0 0 0 -2493.0093072287418 17.019294128196634 -39.901295989475329 0 -39.901295989475329 -9976.427230206169 0 0 0 -2489.8519840194822 24.301455667797462 -29.559776279289508 0 -29.559776279289508 -9992.5646027142448 0 0 0 -2492.0657867616078 41.043057847833552 -34.043369443141273 0 -34.043369443141273 -9986.9840686541575 0 0 0 -2486.4852527015828 46.548339803674025 -34.860747854065266 0 -34.860747854065266 -9994.3693782241608 0 0 0 -2486.9552596051071 51.83203863856761 -12.347863977513043 0 -12.347863977513043 -9996.6730660798348 0 0 0 -2486.2102568603223 32.249549022038991 -11.097119266152731 0 -11.097119266152731 -10000.302534861723 0 0 0 -2492.0132464599228 55.882357706061157 -15.273348684670054 0 -15.273348684670054 -10000.533874424873 0 0 0 -2486.1628791796975 87.853176205600903 -17.001036039495375 0 -17.001036039495375 -9994.7597283984069 0 0 0 -2476.7266380482106 86.538621237654297 -42.698079524940113 0 -42.698079524940113 -9987.0103097193351 0 0 0 -2475.1179221204293 75.603172421848285 -20.012842833806644 0 -20.012842833806644 -9998.821537984215 0 0 0 -2480.8045913905953 5.6698403258974395 -4.176422052187263 0 -4.176422052187263 -9999.9560481453882 0 0 0 -2498.5715519548708 16.648219643851917 -6.5017972903151531 0 -6.5017972903151531 -9996.4684023516311 0 0 0 -2494.955045676943 7.3786607428628486 -10.574790073122131 0 -10.574790073122131 -9998.985875071623 0 0 0 -2497.9018035822082 14.165075135126244 -5.1797553569922457 0 -5.1797553569922457 -9999.2413334985322 0 0 0 -2496.2690645908588 20.384096388617763 -6.2555227375851246 0 -6.2555227375851246 -9999.3481966421677 0 0 0 -2494.7410250633911 30.285432174874586 -8.4258426817622194 0 -8.4258426817622194 -9996.4965353158768 0 0 0 -2491.5527757852396 41.73060214718862 -22.991488398365618 0 -22.991488398365618 -9990.5264475557487 0 0 0 -2487.1989613521437 25.298384953770437 -15.038415006583818 0 -15.038415006583818 -9990.8386423134943 0 0 0 -2491.3850643399201 22.868241668809787 -26.296898933943339 0 -26.296898933943339 -9986.4702658685856 0 0 0 -2490.9005060499621 17.226464393665083 -19.324918131242157 0 -19.324918131242157 -9999.310191095894 0 0 0 -2495.5209316755499 16.763754176674411 -28.016490335838171 0 -28.016490335838171 -9989.4623646007676 0 0 0 -2493.174652606016 6.677027366051334 -21.96877037876402 0 -21.96877037876402 -9992.7860222566233 0 0 0 -2496.5272487226321 1.6917719445700641 -12.899266827851534 0 -12.899266827851534 -9994.1219029612839 0 0 0 -2498.1075327541766 14.344567313444713 -17.581144505515113 0 -17.581144505515113 -9986.5705122368672 0 0 0 -2493.0564862308638 2.0782627972275804 -10.611880974189262 0 -10.611880974189262 -9993.4787721581015 0 0 0 -2497.8501273402089 -16.032733748965256 -11.553692888999649 0 -11.553692888999649 -9990.9479005313769 0 0 0 -2501.7451585700837 -3.7222212542474153 -18.034995343368792 0 -18.034995343368792 -9951.23145679156 0 0 0 -2488.73841951145 0.54518695455044508 -34.229906167041918 0 -34.229906167041918 -9973.4994790967612 0 0 0 -2493.2385730355454 6.7288331910531269 -21.034104636949451 0 -21.034104636949451 -9974.1592678345623 0 0 0 -2491.8576086608809 11.018094525119523 -30.539203482082485 0 -30.539203482082485 -9979.1255519697152 0 0 0 -2492.0268643611489 0.26166877019932144 -27.244896796553803 0 -27.244896796553803 -9982.3660961684727 0 0 0 -2495.5261068495711 -4.6584913952974603 -31.330846914526774 0 -31.330846914526774 -9984.3559329812706 0 0 0 -2497.2536060941493 -0.55678546530543827 -20.980379163433099 0 -20.980379163433099 -9963.8147814288386 0 0 0 -2491.0928917235433 -2.8459011235245271 -26.883808591384877 0 -26.883808591384877 -9991.6734229376307 0 0 0 -2498.6298310152924 -8.4611361441056943 -15.176439159520669 0 -15.176439159520669 -10002.917427837296 0 0 0 -2502.8446409953613 -9.7092795469216071 -25.068706229750205 0 -25.068706229750205 -9942.5652463466395 0 0 0 -2488.0686314733903 -18.685621076700045 -32.362837181179202 0 -32.362837181179202 -9971.0879545390198 0 0 0 -2497.4433939039227 19.353026353466703 1.2206227711576503 0 1.2206227711576503 -9956.6329829960305 0 0 0 -2484.3199891606455 -100.50956087854865 72.960800500492041 0 72.960800500492041 -10145.785341561947 0 0 0 -2561.5737256101274 1.7340434758807532 -56.375718220355338 0 -56.375718220355338 -9939.401593101793 0 0 0 -2484.4168874064781 -56.594265491236001 -85.921500434167683 0 -85.921500434167683 -10076.078932794713 0 0 0 -2533.16829957148 -13.66913185785188 -42.825982658046996 0 -42.825982658046996 -10007.243949694281 0 0 0 -2505.2282703880187 -6.1430365992255247 0.26172266418871004 0 0.26172266418871004 -9917.4155235983926 0 0 0 -2480.8896400493959 -71.311916901417135 43.72785130795819 0 43.72785130795819 -10069.080251480453 0 0 0 -2535.0980420954729 -9.686577733962622 -28.131387285524397 0 -28.131387285524397 -9892.0820785959368 0 0 0 -2475.442164082473 -77.337570855524973 -83.218148426327389 0 -83.218148426327389 -10050.827504249581 0 0 0 -2532.0412687762728 -55.011729849953554 41.456851743256266 0 41.456851743256266 -9944.0591480783478 0 0 0 -2499.7677194820717 -43.282430105551612 35.762398889797623 0 35.762398889797623 -9956.0819979271619 0 0 0 -2499.8411070081929 -19.586519099415455 92.536439504838199 0 92.536439504838199 -9958.071703770147 0 0 0 -2494.4145557173979 -22.842308203100401 55.253282648853201 0 55.253282648853201 -10111.537795510667 0 0 0 -2533.5950259284436 -6.615008156906697 23.182076914032223 0 23.182076914032223 -9994.390447696409 0 0 0 -2500.2513639633398 -12.284616983990418 -4.3672991705150679 0 -4.3672991705150679 -9995.6310965253215 0 0 0 -2501.978928377328 -2.7749548426945694 2.0930912840121891 0 2.0930912840121891 -9967.1021101015504 0 0 0 -2492.4692662360612 -11.573193146512494 12.949074136620766 0 12.949074136620766 -10002.048890987411 0 0 0 -2503.4055210334845 -5.2254868401432759 -7.9232284685335799 0 -7.9232284685335799 -9993.8578860909329 0 0 0 -2499.7708432327636 -46.739828519435832 -16.827938661732333 0 -16.827938661732333 -9995.7839299891784 0 0 0 -2510.6309396271536 -8.4039299620853853 -12.793686325705494 0 -12.793686325705494 -10005.772151655197 0 0 0 -2503.5440204043334 -28.259292910559452 0.021415450928543578 0 0.021415450928543578 -9993.100917237025 0 0 0 -2505.3400525368925 2.154462258091371 -10.123281654538005 0 -10.123281654538005 -9990.022248379697 0 0 0 -2496.9669465304105 9.1584364440932404 -6.77892369980691 0 -6.77892369980691 -9996.4886286480469 0 0 0 -2496.8325480509957 0.15717240089725237 -4.0452369187096338 0 -4.0452369187096338 -9997.890902224317 0 0 0 -2499.433432455844 2.6749402428686153 -4.6490660415001912 0 -4.6490660415001912 -9997.9933535751479 0 0 0 -2498.8296033330626 1.3242977225963841 -6.2083495313272579 0 -6.2083495313272579 -9990.943264540736 0 0 0 -2497.4047417045294 -0.83554478235600982 -0.73461412858159747 0 -0.73461412858159747 -9992.6383254401735 0 0 0 -2498.3684675556287 0.64423760530189611 -1.8877693126123631 0 -1.8877693126123631 -9995.510800257558 0 0 0 -2498.7166406630713 -1.7801092301524477 -2.913183172879144 0 -2.913183172879144 -9997.1466942453408 0 0 0 -2499.7317008688842 0.86630968748067971 -3.126682149086264 0 -3.126682149086264 -9997.1697374705982 0 0 0 -2499.075856945783 2.6956565339496592 -2.2098420240799896 0 -2.2098420240799896 -9998.2203004650655 0 0 0 -2498.8811609827681 -0.029135025388313807 -0.9078309073811397 0 -0.9078309073811397 -9998.8936794217625 0 0 0 -2499.7307036117909 0.61032686407270376 -0.55028497889725259 0 -0.55028497889725259 -9999.479523705435 0 0 0 -2499.7172992103442 0.53376987030787859 -0.57093098231416661 0 -0.57093098231416661 -9999.3789284967934 0 0 0 -2499.711289656625 0.60192478571843822 -1.1157260765612591 0 -1.1157260765612591 -10000.483268680429 0 0 0 -2499.9703359736886 2.7611302437871927 -1.4490901468816446 0 -1.4490901468816446 -10000.0561896289 0 0 0 -2499.3237648462818 3.9313427016477362 -1.982567571933032 0 -1.982567571933032 -9999.1588137324943 0 0 0 -2498.806867757723 7.7823624963057227 -3.2143560015974799 0 -3.2143560015974799 -9998.28088134891 0 0 0 -2497.6246297131584 52.636188535449037 -119.00898927628805 0 -119.00898927628805 -9972.4369489850069 0 0 0 -2479.9501901123804 58.013541490057833 -86.996350477649685 0 -86.996350477649685 -10003.82782299025 0 0 0 -2486.4535703750589 110.24825225349923 -110.50106171463267 0 -110.50106171463267 -9964.03529388686 0 0 0 -2463.4467604083402 80.688277368528361 -98.859513653973409 0 -98.859513653973409 -9953.1321638710215 0 0 0 -2468.1109716256251 52.183715949687837 -117.04561063232541 0 -117.04561063232541 -9941.2556145248927 0 0 0 -2472.2679746438066 33.181198483536718 -128.03572822704518 0 -128.03572822704518 -9969.818096249568 0 0 0 -2484.1592244415078 31.017008990747854 -118.52502736354654 0 -118.52502736354654 -9964.0642598476843 0 0 0 -2483.2618127142341 53.595773069659117 -112.63969938142691 0 -112.63969938142691 -9981.3190198458033 0 0 0 -2481.9308116940319 30.613433758837346 -122.13333895206597 0 -122.13333895206597 -9984.5449360758648 0 0 0 -2488.4828755792551 5.7809606137070659 -97.440720846891054 0 -97.440720846891054 -9982.2458405638936 0 0 0 -2494.1162199875489 105.55913869174401 -93.943295355031296 0 -93.943295355031296 -9976.6815548596642 0 0 0 -2467.7806040419746 79.658392097284377 -111.92765016292833 0 -111.92765016292833 -9983.9322111739166 0 0 0 -2476.0684547691562 58.442079977670801 -112.67910108846991 0 -112.67910108846991 -9966.3713946302159 0 0 0 -2476.9823286631436 96.818057679003687 -90.574352476810759 0 -90.574352476810759 -9933.5519930570445 0 0 0 -2459.1834838445066 144.9887333782317 -80.967969418612483 0 -80.967969418612483 -9971.6673914300773 0 0 0 -2456.6696645129668 141.91444201909326 -74.914507466775831 0 -74.914507466775831 -9979.913935994904 0 0 0 -2459.4998734939509 239.12646614199184 -16.251092193822842 0 -16.251092193822842 -9374.3701533377462 0 0 0 -2283.8109217989331 114.63670365376311 -23.123670796885563 0 -23.123670796885563 -10574.64194561998 0 0 0 -2615.0013104915633 327.07273278446883 -47.976208521635272 0 -47.976208521635272 -9943.0031421395688 0 0 0 -2403.9826023387723 -8.7731802919806796 170.00651598100376 0 170.00651598100376 -9674.8010069318843 0 0 0 -2420.893546805979 -74.503580236967537 285.19170191020885 0 285.19170191020885 -10133.476582738687 0 0 0 -2551.9950407439173 189.177405548151 -277.74896722414269 0 -277.74896722414269 -9987.3436197934207 0 0 0 -2449.5415535613211 -3.6402894194760336 -3.3337884740434163 0 -3.3337884740434163 -11.874763236939486 0 0 0 -3.8787631641038729 181.85275916668616 -34.001347043376882 0 -34.001347043376882 -9975.106193820553 0 0 0 -2448.3133586634722 8.9885172395224799 -19.672199518929119 0 -19.672199518929119 -10494.629975165517 0 0 0 -2621.4103644814968 -20.32918492693716 -128.6597163162478 0 -128.6597163162478 -9668.5599697371363 0 0 0 -2422.2222886660165 -3.5229339006565965 -3.5190316446733974 0 -3.5190316446733974 -11.835644740465341 0 0 0 -3.8396446602804986 112.63332583858573 202.80502737182542 0 202.80502737182542 -9989.5196633554879 0 0 0 -2469.2215843792219 -97.297572322782798 -281.86148897129169 0 -281.86148897129169 -10102.786491050239 0 0 0 -2550.0210158432565 -3.9810009016880201 -3.6011300065158913 0 -3.6011300065158913 -11.988333749220828 0 0 0 -3.9923336627272192 80.675284748735066 112.96171443982166 0 112.96171443982166 -9688.3030706606587 0 0 0 -2401.9069464779841 93.524596190138254 -29.56246917511271 0 -29.56246917511271 -9955.8748026852263 0 0 0 -2465.5875516237793 109.5600728031859 -6.9163236602034885 0 -6.9163236602034885 -9416.618159945021 0 0 0 -2326.7645217854588 50.047954619141819 -91.914541076228488 0 -91.914541076228488 -9964.562895909854 0 0 0 -2478.6287353226799 -70.432516149125149 -28.617538037899067 0 -28.617538037899067 -9989.7935199725543 0 0 0 -2515.0565090304117 219.04576311371056 -13.505805802516988 0 -13.505805802516988 -9949.2658371165453 0 0 0 -2432.5550185007087 69.343330719439109 -85.966172759217443 0 -85.966172759217443 -9960.3916226846668 0 0 0 -2472.7620729913142 55.002714995629503 -324.13917289525853 0 -324.13917289525853 -10029.272198217077 0 0 0 -2493.5673708053546 38.57643012329936 6.1214044044245384 0 6.1214044044245384 -10548.880691412895 0 0 0 -2627.5760653223988 -161.71754267764845 97.515653968170227 0 97.515653968170227 -10098.17586334467 0 0 0 -2564.9733515055668 -15.528758094798832 253.01962739849114 0 253.01962739849114 -10239.1381517431 0 0 0 -2563.6667274594729 -2.2447604176996094 -3.5780313901115477 0 -3.5780313901115477 -11.409586929006593 0 0 0 -3.4135868366765578 54.92060339859745 271.55726410922944 0 271.55726410922944 -10028.759981647527 0 0 0 -2493.4598445622396 28.255442603797064 -299.80672007583053 0 -299.80672007583053 -10224.814743001363 0 0 0 -2549.1398250993952 86.037527412649069 -171.90510053709295 0 -171.90510053709295 -9676.586429132265 0 0 0 -2397.6372254299131 -88.227085501735928 64.55712667782791 0 64.55712667782791 -9665.0169772786612 0 0 0 -2438.3110156951025 -8.7479944450019502 -3.4979477646746986 0 -3.4979477646746986 -13.577331612928049 0 0 0 -5.581331514482514 114.21962220058776 205.20842027706385 0 205.20842027706385 -9969.0863089405175 0 0 0 -2463.7166716849897 38.313304261224403 62.600798397324979 0 62.600798397324979 -10355.393682948925 0 0 0 -2579.2700946719197 28.566915312032506 -7.5792454888869543 0 -7.5792454888869543 -9865.9000703471393 0 0 0 -2459.3332887587749 14.890907594119199 136.93413704202248 0 136.93413704202248 -9549.0387917640619 0 0 0 -2383.536971042493 75.818258226099715 -231.56797795863088 0 -231.56797795863088 -9714.6882125798729 0 0 0 -2409.7174885884378 -64.25322486092773 -71.105494669798645 0 -71.105494669798645 -10217.682825786207 0 0 0 -2570.4840126617855 26.618102671272936 -99.056985973466908 0 -99.056985973466908 -9870.2430764902529 0 0 0 -2460.9062434547377 -7.8771639261958626 -52.880610713305941 0 -52.880610713305941 -9895.5545899361605 0 0 0 -2475.8579384655877 -15.282975376583636 -42.175616702814295 0 -42.175616702814295 -10013.975724125397 0 0 0 -2507.3146748754953 22.006311995348369 -50.41060283425341 0 -50.41060283425341 -9901.9288910552423 0 0 0 -2469.9806447649753 -15.870457470831752 -36.302752987896383 0 -36.302752987896383 -9962.9035675511695 0 0 0 -2494.6935062555058 26.933099359855987 -63.162021957639809 0 -63.162021957639809 -9877.4798999414197 0 0 0 -2462.6367001453909 47.297952084525605 -102.02262471409631 0 -102.02262471409631 -9914.9665610692609 0 0 0 -2466.9171522461838 23.315891280723008 -90.375374024137272 0 -90.375374024137272 -9973.2394717297757 0 0 0 -2487.480895112265 59.375686472274538 -70.07280884273132 0 -70.07280884273132 -9926.3746937783435 0 0 0 -2466.7497518265154 32.386737845401512 -120.08859334341105 0 -120.08859334341105 -9888.0820476119115 0 0 0 -2463.9238274416275 18.506282816744999 -118.20390674599184 0 -118.20390674599184 -9952.4487366756875 0 0 0 -2483.4856134647393 13.944815038375964 -89.669965176843107 0 -89.669965176843107 -9885.4170585060201 0 0 0 -2467.8680608669092 10.573155242834218 -81.756084366803407 0 -81.756084366803407 -9929.7096016787091 0 0 0 -2479.7841116089685 7.2916203971180948 -96.594600010444992 0 -96.594600010444992 -9882.2455515985785 0 0 0 -2468.7384828003633 10.116976927554788 -53.500144347563037 0 -53.500144347563037 -9837.5525403972715 0 0 0 -2456.8588908674246 -5.3724931904653204 -50.036370304565935 0 -50.036370304565935 -9806.3508449558867 0 0 0 -2452.9308345365862 -4.5227218852742226 -50.078164575759729 0 -50.078164575759729 -9801.0011310781119 0 0 0 -2451.3809632408447 11.815988427537377 -51.213969543190615 0 -51.213969543190615 -9673.4839917094214 0 0 0 -2415.4170008204746 -23.546210437627451 -81.342401305461863 0 -81.342401305461863 -9779.941472661274 0 0 0 -2450.8719207747272 22.576696772652213 -80.386011370894266 0 -80.386011370894266 -9785.8135672926801 0 0 0 -2440.8092176300124 4.6115874417919258 -91.910730975527258 0 -91.910730975527258 -9816.7288437399147 0 0 0 -2453.0293140745307 -14.649054040975898 2.558693447017383 0 2.558693447017383 -9522.8102023474348 0 0 0 -2384.3648140971054 -39.080128816602127 -62.479461917049775 0 -62.479461917049775 -9595.2835704223526 0 0 0 -2408.5909248097432 8.001387968477502 -48.075217645243356 0 -48.075217645243356 -9657.7535244959145 0 0 0 -2412.4380341318611 -25.219113876992196 -112.32767058960053 0 -112.32767058960053 -9848.5111811371025 0 0 0 -2468.4325737535182 -17.998123033057709 -130.7749314059256 0 -130.7749314059256 -9771.6769086350469 0 0 0 -2447.4187579170375 -13.197183401342045 -135.24238362838514 0 -135.24238362838514 -9908.8678544940485 0 0 0 -2480.5162594738431 -19.246143461205065 -117.54041742615118 0 -117.54041742615118 -9969.6625325455389 0 0 0 -2497.227169001686 -44.914418569074769 -121.22558761521941 0 -121.22558761521941 -9860.193195798056 0 0 0 -2476.2769035917809 -0.55698421093620709 -135.69143352285028 0 -135.69143352285028 -9851.6965871805078 0 0 0 -2463.0633928478601 11.467361431525205 -115.34486644382923 0 -115.34486644382923 -9881.0516045984841 0 0 0 -2467.3960607917397 30.08557476309943 -118.88068596177072 0 -118.88068596177072 -9919.2720702921943 0 0 0 -2472.2966238822701 11.519810800557025 -132.21111637118884 0 -132.21111637118884 -9934.6057147186511 0 0 0 -2480.7714759795272 14.511745261348551 -128.04087611484283 0 -128.04087611484283 -9988.3350048569846 0 0 0 -2493.455814898909 2.5537596844224026 -113.10514192602932 0 -113.10514192602932 -9966.7538926462294 0 0 0 -2491.0500332404554 -7.4554254283357295 -118.67175876152032 0 -118.67175876152032 -10009.807389742229 0 0 0 -2504.315703792643 14.064833966251172 -132.29079098456714 0 -132.29079098456714 -9966.1094917638693 0 0 0 -2488.0111644494027 -25.172039892029716 -111.07166101826442 0 -111.07166101826442 -9966.18036002796 0 0 0 -2497.8380999799992 1.3568624111721874 -106.99436184488331 0 -106.99436184488331 -9957.8380076467001 0 0 0 -2489.1202863088838 -58.570584812347533 -89.717461940894282 0 -89.717461940894282 -9973.954300286432 0 0 0 -2508.131221274693 -77.717326257552486 -72.716230487261782 0 -72.716230487261782 -10075.40360209177 0 0 0 -2538.2802320873234 -33.61960736218316 -107.74827823595479 0 -107.74827823595479 -10005.067894201784 0 0 0 -2509.6718753909881 -38.82019959808531 -91.208255878489581 0 -91.208255878489581 -10031.635475395116 0 0 0 -2517.6139187482986 -95.069730453653392 -63.904580951719254 0 -63.904580951719254 -10044.76304028236 0 0 0 -2534.9581926839983 -95.873342995495477 -38.119830408464168 0 -38.119830408464168 -10082.51681348338 0 0 0 -2544.5975391197171 -63.211457090767908 -46.199342617910588 0 -46.199342617910588 -10053.924133064951 0 0 0 -2529.2838975389304 -32.390153374479269 -82.544779732075767 0 -82.544779732075767 -10006.324136829586 0 0 0 -2509.6785725510126 -13.481086529379809 -77.21069556758448 0 -77.21069556758448 -10009.911703259097 0 0 0 -2505.8481974471247 -1.5645769250331796 -108.63253919770796 0 -108.63253919770796 -10008.393349185193 0 0 0 -2502.4894815275547 9.1613909938937468 -102.35095754682698 0 -102.35095754682698 -9990.8598480491291 0 0 0 -2495.4246142638181 -32.83733513012794 -88.636465111805592 0 -88.636465111805592 -10005.769997960739 0 0 0 -2509.6518332727146 -564.81542260129572 53.14323255643103 0 53.14323255643103 -10663.218806179641 0 0 0 -2807.0085571952368 -3.6868361138379129 9.0256938412368157 0 9.0256938412368157 -11.884946078426708 0 0 0 -3.8929455480661375 -520.76669466562998 -201.28054641942435 0 -201.28054641942435 -10086.236645356221 0 0 0 -2651.7508350054613 -359.07763520968911 331.16400058216095 0 331.16400058216095 -10184.085032852097 0 0 0 -2635.7906670154425 -251.43185906150757 30.154314497603082 0 30.154314497603082 -9593.9590574269678 0 0 0 -2461.3477291221207 -224.99738994868039 18.896033765755419 0 18.896033765755419 -10101.136988062477 0 0 0 -2581.5335945027882 -341.36890681030854 -30.883114471002045 0 -30.883114471002045 -10047.41511339703 0 0 0 -2597.1960050518319 -110.51547063988619 -59.522783769771195 0 -59.522783769771195 -10037.936759646444 0 0 0 -2537.1130575715906 -188.73271428558292 -116.41201779374387 0 -116.41201779374387 -10626.597308736869 0 0 0 -2703.8325057556176 -72.130964424948615 -99.336592941101117 0 -99.336592941101117 -10022.221516714533 0 0 0 -2523.5881202848723 -338.59038141332894 -128.3617158540219 0 -128.3617158540219 -10065.17124193547 0 0 0 -2600.9404058371965 -151.93799585937086 -32.406085923959836 0 -32.406085923959836 -9980.027770211047 0 0 0 -2532.9914415176099 -206.58751545389532 -27.009647148143813 0 -27.009647148143813 -9415.3614721435151 0 0 0 -2405.4872468993526 -290.95973795004466 290.20948788927853 0 290.20948788927853 -9988.5869548346018 0 0 0 -2569.8866731961643 -501.15917175043069 338.47340597219954 0 338.47340597219954 -9837.3358501437979 0 0 0 -2584.623755473558 -76.27218635995996 -49.207561112825715 0 -49.207561112825715 -9723.4679136870691 0 0 0 -2449.9350250117568 -3.9389570117949404 8.5679547424466449 0 8.5679547424466449 -11.968986549975568 0 0 0 -3.9769858904426343 -379.21623734016976 -280.85846193951511 0 -280.85846193951511 -10065.508078300831 0 0 0 -2611.1810789102419 -225.36456512547011 382.27002005356752 0 382.27002005356752 -10227.164625132442 0 0 0 -2613.1322975644798 -3.5695352007247863 9.0040735799681286 0 9.0040735799681286 -11.845845862492013 0 0 0 -3.8538452658042388 -128.59218764582329 -179.58485045395355 0 -179.58485045395355 -10249.524216728416 0 0 0 -2594.529101093558 -2.5074628485850496 8.0328756311913239 0 8.0328756311913239 -11.491821909558951 0 0 0 -3.4998211895360072 -135.30812782528301 -391.15609189775932 0 -391.15609189775932 -9871.5510547911981 0 0 0 -2501.7147956541194 54.191594682648827 353.84128214474549 0 353.84128214474549 -10220.020535496193 0 0 0 -2541.4572352033897 11.937909349293477 204.621627134562 0 204.621627134562 -9411.4325971943254 0 0 0 -2349.8736719612571 -19.272586931557271 -66.85958424167984 0 -66.85958424167984 -9949.9245866145975 0 0 0 -2492.2992933865416 56.700090576108778 -109.66375158081155 0 -109.66375158081155 -9846.6222406286251 0 0 0 -2447.4805375131327 -120.74741755680952 -21.495422686861275 0 -21.495422686861275 -10609.993187551612 0 0 0 -2682.6851512771063 -239.57068053062676 -247.62113256621524 0 -247.62113256621524 -9969.1537450615542 0 0 0 -2552.1811063980508 -52.676754850726866 -130.87259472913502 0 -130.87259472913502 -9561.7872859493364 0 0 0 -2403.6160102000104 -81.707429866179154 -184.63143619269249 0 -184.63143619269249 -9158.5289850560657 0 0 0 -2310.0591037305676 54.34664630660609 194.41280658134565 0 194.41280658134565 -9306.7619406443737 0 0 0 -2313.1038235844471 -72.972343736284529 88.774807218661408 0 88.774807218661408 -9602.2681428658689 0 0 0 -2418.8101216505383 -9.862418291612471 -7.2026794045377756 0 -7.2026794045377756 -9552.7083353686648 0 0 0 -2390.6426884150701 -28.767450549506975 -103.35587198531357 0 -103.35587198531357 -9336.186984628941 0 0 0 -2341.2386087946161 -7.8052209187934523 7.6366433589998906 0 7.6366433589998906 -13.257741345759882 0 0 0 -5.2657405661383336 107.35965190732168 -172.83361485793282 0 -172.83361485793282 -9490.0935659161041 0 0 0 -2345.6834785022002 12.807291130804515 -100.08517998241223 0 -100.08517998241223 -9658.6750339439095 0 0 0 -2411.4669357032726 41.574590732162051 -82.373979404757847 0 -82.373979404757847 -9455.3848207886258 0 0 0 -2353.4525575141192 -127.95167306520671 -61.361072705205515 0 -61.361072705205515 -9356.2214750539351 0 0 0 -2371.0432870297846 -44.241265344466228 12.993675844400059 0 12.993675844400059 -9743.5573809280468 0 0 0 -2446.9496615681273 -149.36369512256488 -33.658615200551139 0 -33.658615200551139 -9509.9115986649631 0 0 0 -2414.8188234468848 -55.859706181865477 -82.931480701172404 0 -82.931480701172404 -9526.9114530052684 0 0 0 -2395.6927897967798 -3.9580275883563445 54.975060296008451 0 54.975060296008451 -9787.6348909645203 0 0 0 -2447.8982296382164 -236.35978792663809 454.73824532810369 0 454.73824532810369 -10484.84017199821 0 0 0 -2680.2999899812112 -82.451484182200147 115.84722151483311 0 115.84722151483311 -9461.4111110754966 0 0 0 -2385.9656488144246 -223.39404512374585 432.63179445335845 0 432.63179445335845 -10227.141044118776 0 0 0 -2612.6337723106308 -470.56007497579958 469.82169319920308 0 469.82169319920308 -10151.060032974856 0 0 0 -2655.4050269876625 -662.31185647177244 912.11943598082041 0 912.11943598082041 -10523.440013727151 0 0 0 -2796.4379675497303 -687.48825829829184 616.9408409867101 0 616.9408409867101 -10358.109108999488 0 0 0 -2761.3993418244445 -469.20661255971913 235.12388502463727 0 235.12388502463727 -10162.975818843082 0 0 0 -2658.0456078507013 -162.99642980896533 228.71703204181858 0 228.71703204181858 -10065.655020083155 0 0 0 -2557.1628624730311 -192.96038686870679 147.86250057494544 0 147.86250057494544 -9712.2729371564237 0 0 0 -2476.3083310062816 -2179.0162711084868 2027.9037058781778 0 2027.9037058781778 -10923.215285016369 0 0 0 -3275.5578890312136 -4095.4626198809769 2812.8970942499814 0 2812.8970942499814 -12307.828557532132 0 0 0 -4100.8227943532775 -1985.6906103949498 2296.6419916622876 0 2296.6419916622876 -14922.946275998773 0 0 0 -4227.159221598431 719.51820140666405 740.77823998959047 0 740.77823998959047 -11289.449510198028 0 0 0 -2642.4828271978413 -1770.2690525942307 1958.442095087521 0 1958.442095087521 -12320.308428469187 0 0 0 -3522.6443702658548 -45.497667197352712 997.63704263221734 0 997.63704263221734 -10542.952592044767 0 0 0 -2647.1125648105308 -329.27225860181534 735.47550862667595 0 735.47550862667595 -11076.668164240516 0 0 0 -2851.4851057105825 -429.0957448899153 625.5712676897565 0 625.5712676897565 -10503.132821692339 0 0 0 -2733.0571416455623 -18.320996976632511 215.6098114945089 0 215.6098114945089 -9739.8967112361206 0 0 0 -2439.5544270531886 -448.89115435538497 747.4025762903666 0 747.4025762903666 -10223.142852474059 0 0 0 -2668.0085017073625 -1488.266269370743 1129.458662343538 0 1129.458662343538 -10384.817908556834 0 0 0 -2968.2710444818936 -2318.9097538433289 1728.6725259045561 0 1728.6725259045561 -10612.567303368955 0 0 0 -3232.8692643030708 -1063.1929444048242 1496.9992217350709 0 1496.9992217350709 -11120.512655860544 0 0 0 -3045.9264000663411 -1738.1150353821649 1488.8036068279869 0 1488.8036068279869 -10382.564480796653 0 0 0 -3030.1698790447044 -2293.0259577150546 2090.3038066465019 0 2090.3038066465019 -10942.138731796023 0 0 0 -3308.7911723777688 -3408.2344617528574 1896.1075752091574 0 1896.1075752091574 -10228.41485040614 0 0 0 -3409.1623280397494 -3411.513967405755 1897.4438937454356 0 1897.4438937454356 -10229.507363002089 0 0 0 -3410.2553326019615 -3219.2581551738767 1335.6084954768448 0 1335.6084954768448 -9657.090449557576 0 0 0 -3219.0871511828632 -2340.3504892771484 1467.768715122588 0 1467.768715122588 -9696.8946886280828 0 0 0 -3009.3112944763079 -2186.7833450883973 1178.8866014321852 0 1178.8866014321852 -9762.4931104017342 0 0 0 -2987.3191138725329 -2647.1196028269032 1400.9308699299449 0 1400.9308699299449 -9782.7150842933279 0 0 0 -3107.4586717800576 -2207.1887353196144 1303.6260296191717 0 1303.6260296191717 -10189.858385892569 0 0 0 -3099.2617803030471 -1297.7514352350718 1232.4634659719313 0 1232.4634659719313 -9938.3775662347416 0 0 0 -2809.0322503674524 -1570.3184122227349 1003.5925690971141 0 1003.5925690971141 -9877.5286297545354 0 0 0 -2861.9617604943178 -1653.5165611900011 988.10665295857689 0 988.10665295857689 -10124.576160738019 0 0 0 -2944.523180482005 -2046.0324236262222 1075.9177883109642 0 1075.9177883109642 -10030.643403546474 0 0 0 -3019.1689567931744 -2102.6578718705123 852.81350079406093 0 852.81350079406093 -9981.9242832406799 0 0 0 -3021.1455387777978 -1644.4954832433468 842.38820123247115 0 842.38820123247115 -9828.9568110763612 0 0 0 -2868.363073579927 -2334.4103513409887 956.49718382296351 0 956.49718382296351 -9841.0538074181022 0 0 0 -3043.8660396897744 -2736.1408247966069 1188.9131777285199 0 1188.9131777285199 -9834.7621022389503 0 0 0 -3142.7257317588897 -2506.6076951436667 1111.3053149648481 0 1111.3053149648481 -9704.0401150068756 0 0 0 -3052.6619525376364 -2778.9539078577327 996.50334161379294 0 996.50334161379294 -9503.5096606870356 0 0 0 -3070.6158921361925 -3195.9815908385876 1131.9153996553591 0 1131.9153996553591 -9589.0970210765954 0 0 0 -3196.2696529787954 -2609.6138538426035 1209.7563626362494 0 1209.7563626362494 -9423.0304520411464 0 0 0 -3008.1610764709376 -581.62702477928178 463.96679069208585 0 463.96679069208585 -10096.856871523607 0 0 0 -2669.6209740757222 -839.52757204036425 534.36507803665518 0 534.36507803665518 -10183.315209982626 0 0 0 -2755.7106955057479 -537.64882084139026 280.37503357337846 0 280.37503357337846 -10220.604302276945 0 0 0 -2689.5632807795846 -304.69469985700562 327.2813377325956 0 327.2813377325956 -10055.225440174727 0 0 0 -2589.9800350079331 -1027.9172626825657 708.30693853895536 0 708.30693853895536 -10135.528995349629 0 0 0 -2790.8615645080499 -987.36896593184701 949.39969279915204 0 949.39969279915204 -10107.911395558813 0 0 0 -2773.8200903726656 -778.50470707376189 645.28730074965597 0 645.28730074965597 -10065.709962950881 0 0 0 -2711.0536675061612 -1072.4291416445303 623.4738335655893 0 623.4738335655893 -9976.5140389274457 0 0 0 -2762.2357951429949 -1322.8985815421474 714.2079938445695 0 714.2079938445695 -10107.559197476194 0 0 0 -2857.6144447545848 -1337.6612758551537 893.48545353453665 0 893.48545353453665 -9985.9114965674125 0 0 0 -2830.8931931056404 -1593.2964993275789 682.42709533652305 0 682.42709533652305 -10123.987067337246 0 0 0 -2929.3208916662088 -886.63470278608656 433.53818973853049 0 433.53818973853049 -10046.435875818759 0 0 0 -2733.2676446512123 -1132.1043196803948 505.27703249826112 0 505.27703249826112 -10141.546303564872 0 0 0 -2818.4126558113167 -447.93666298899552 244.97251657679772 0 244.97251657679772 -10161.155146497622 0 0 0 -2652.2729523716553 -848.35968089535527 242.61647091869236 0 242.61647091869236 -10012.89653058281 0 0 0 -2715.3140528695403 -1075.9868406864989 302.84277363037836 0 302.84277363037836 -10122.469442795697 0 0 0 -2799.6140708705425 -996.03483685695574 348.57737929999166 0 348.57737929999166 -10009.472103499873 0 0 0 -2751.3767350892085 -1172.6927574978235 355.87424869131064 0 355.87424869131064 -10068.358077046825 0 0 0 -2810.2627086361645 -803.24904833990149 213.49549725848556 0 213.49549725848556 -10001.583724639357 0 0 0 -2701.2081932448182 -1299.2778930825662 328.81324179048897 0 328.81324179048897 -9987.95324758059 0 0 0 -2821.8077851657908 -1276.1793100169043 464.2689913251379 0 464.2689913251379 -10131.12650070597 0 0 0 -2851.826452680717 -1207.4868561943167 496.0574402827765 0 496.0574402827765 -9959.3320936497475 0 0 0 -2791.7047374610174 -1572.1354615797172 655.6357713417292 0 655.6357713417292 -9846.7301193305393 0 0 0 -2854.7163952275641 -1816.1842524440262 655.27273868610519 0 655.27273868610519 -9927.9845028703312 0 0 0 -2936.0421888285891 -1427.6080555658423 519.08227859316685 0 519.08227859316685 -10030.184642757024 0 0 0 -2864.4481745807184 -1595.5145893413264 451.72231710995675 0 451.72231710995675 -9949.4173634789258 0 0 0 -2886.2329882050635 -1530.9141164299672 465.12901789139505 0 465.12901789139505 -9930.2403107111604 0 0 0 -2865.2886067852814 -1800.2003825392258 468.2847691180732 0 468.2847691180732 -9782.2541615928712 0 0 0 -2895.6136360330229 -1867.7353731231924 378.29384581061095 0 378.29384581061095 -9936.1328154171642 0 0 0 -2950.967047135091 -1396.9273935638475 255.883886771775 0 255.883886771775 -9983.5455734125098 0 0 0 -2845.1182417440896 -1419.2309385807275 193.84138522691364 0 193.84138522691364 -9985.074580849323 0 0 0 -2851.0763798575135 -1311.6343996965188 190.64333826429242 0 190.64333826429242 -10112.813063200534 0 0 0 -2856.111865724266 -1555.7482310590713 281.79933520018312 0 281.79933520018312 -10043.469692568322 0 0 0 -2899.8044809068469 -1246.5139041636321 356.11685092244898 0 356.11685092244898 -9987.8325542156163 0 0 0 -2808.5866145948166 -2807.8466499319748 794.91044362663342 0 794.91044362663342 -9481.8283765034939 0 0 0 -3072.4187566088667 -2768.3199075408088 698.43703265005479 0 698.43703265005479 -9463.9996184628926 0 0 0 -3058.0798815009257 -2798.0972349197536 901.39518529678026 0 901.39518529678026 -9496.4611315469501 0 0 0 -3073.6395916166757 -3147.3944014114636 863.32767496185022 0 863.32767496185022 -9442.4245436361834 0 0 0 -3147.4547362619114 -2487.852030744918 833.71279083171157 0 833.71279083171157 -9556.480930889069 0 0 0 -3011.0832404084972 -2102.1435542745062 733.13827793043674 0 733.13827793043674 -9584.639215813022 0 0 0 -2921.6956925218824 -2551.3448699384717 813.52448488029108 0 813.52448488029108 -9737.8217549415931 0 0 0 -3072.2916562200162 -2003.1682903192191 848.32068927687851 0 848.32068927687851 -9661.7373213181891 0 0 0 -2916.2264029093517 -2157.6038308769785 593.8310413898962 0 593.8310413898962 -9829.1177641566792 0 0 0 -2996.6803987584153 -2145.0361486877264 521.79186723611383 0 521.79186723611383 -9668.3855640302609 0 0 0 -2953.3554281794977 -2114.8888520951905 559.22377292507917 0 559.22377292507917 -9813.6036458123017 0 0 0 -2982.1231244768742 -2131.1639391692097 395.68728988306975 0 395.68728988306975 -9828.359339976334 0 0 0 -2989.8808197863855 -2207.6387098014052 530.83349049930257 0 530.83349049930257 -9688.5046885650281 0 0 0 -2974.0358495916093 -2482.8131205938043 451.0513661597297 0 451.0513661597297 -9650.4569777435099 0 0 0 -3033.317524584329 -2537.6136803417089 656.48587905400382 0 656.48587905400382 -9750.0389387462637 0 0 0 -3071.913154771993 -2572.749593711902 576.51163281338722 0 576.51163281338722 -9527.7422296863697 0 0 0 -3025.1229558495679 -2764.8828881739719 554.45011533600109 0 554.45011533600109 -9595.7505175452206 0 0 0 -3090.1583514297981 -2707.8580129883617 537.56655350734673 0 537.56655350734673 -9349.9880077465132 0 0 0 -3014.4615051837186 -3165.8560463471345 590.68938634263611 0 590.68938634263611 -9497.9642013390385 0 0 0 -3165.9550619215433 -3167.7661200866569 263.93109351661928 0 263.93109351661928 -9502.7081803490892 0 0 0 -3167.618575108937 -3170.3601176722505 433.71730918640867 0 433.71730918640867 -9512.2226422283402 0 0 0 -3170.6456899751474 -2712.3035074924419 368.28024599369928 0 368.28024599369928 -9356.3552185779899 0 0 0 -3017.1646815176082 -2731.6137214051519 297.47326588412898 0 297.47326588412898 -9574.1780504599628 0 0 0 -3076.4479429662792 -2479.9229319506567 395.8474378978126 0 395.8474378978126 -9649.0866068033611 0 0 0 -3032.2523846885042 -2170.8113923778237 369.59048711134801 0 369.59048711134801 -9834.7924388769025 0 0 0 -3001.4009578136829 -2241.091146493085 265.93801387018175 0 265.93801387018175 -9686.4363872493996 0 0 0 -2981.8818834356225 -2203.073431563671 219.09176615002661 0 219.09176615002661 -9826.432572587204 0 0 0 -3007.3765010377192 -2193.7863476565722 257.07903551759046 0 257.07903551759046 -9667.4373981014614 0 0 0 -2965.3059364395081 -2254.3152417203996 101.00876634416136 0 101.00876634416136 -9640.6697658608446 0 0 0 -2973.7462518953121 -2405.6806651637526 44.280200815724129 0 44.280200815724129 -9717.6522276477863 0 0 0 -3030.8332232028843 -2562.8343352388629 152.14434173222708 0 152.14434173222708 -9733.3104954596893 0 0 0 -3074.0362076746378 -2719.540137215768 180.30902918044538 0 180.30902918044538 -9379.6631400956794 0 0 0 -3024.800819327862 -2635.1371060753927 264.87913412650641 0 264.87913412650641 -9536.6972764987786 0 0 0 -3042.9585956435435 -3183.5988221516554 97.582139699183202 0 97.582139699183202 -9552.3928569657019 0 0 0 -3183.9979197793396 -1643.5649952107622 231.95148403730127 0 231.95148403730127 -9965.7495410334086 0 0 0 -2902.3286340610439 -1471.5153134791308 154.08287016409849 0 154.08287016409849 -9940.7602617955854 0 0 0 -2853.0688938186813 -1631.9503275061361 215.2989778287083 0 215.2989778287083 -9958.599312047445 0 0 0 -2897.6374098883953 -1618.8419370492684 337.54343657199308 0 337.54343657199308 -9846.0600643663201 0 0 0 -2866.2255003538958 -1899.9550326751641 265.86812036357696 0 265.86812036357696 -9772.5479201171765 0 0 0 -2918.1257381980822 -1948.2325708299941 262.14913466396592 0 262.14913466396592 -9916.829336364608 0 0 0 -2966.2654767986533 -1679.1545086062997 189.2188831869953 0 189.2188831869953 -9872.7307849287099 0 0 0 -2887.9713233837538 -1832.0457884630086 188.73559401525381 0 188.73559401525381 -9919.7493237845265 0 0 0 -2937.9487780618856 -2185.911605913946 203.15513156610859 0 203.15513156610859 -9809.9076754511589 0 0 0 -2998.9548203412769 -1953.5679991340639 61.278925684116984 0 61.278925684116984 -9857.1613215424295 0 0 0 -2952.6823301691238 -1951.6268802281393 72.084060651352047 0 72.084060651352047 -9860.4858066887027 0 0 0 -2953.028171729211 -1606.7069339980671 133.18636526337832 0 133.18636526337832 -9954.8861633202632 0 0 0 -2890.398274329581 -1584.2459376367005 200.67757716698679 0 200.67757716698679 -9947.1580543427262 0 0 0 -2882.8509979948576 -1336.4550473060972 219.40494426262376 0 219.40494426262376 -10078.171961279546 0 0 0 -2853.6567521464094 -1481.2486340045489 332.35954071536253 0 332.35954071536253 -10476.974053415923 0 0 0 -2989.5556718551179 129.78909548015508 -268.12863255517368 0 -268.12863255517368 -9934.0070244088274 0 0 0 -2451.0544822321681 -1594.3425871338586 545.72755937562249 0 545.72755937562249 -9725.392885858193 0 0 0 -2829.933868248012 -2.5646521620355713 1.6735210850659525 0 1.6735210850659525 -8.4643254142508795 0 0 0 -2.757244394071634 -1365.1756497160459 -104.30416532211166 0 -104.30416532211166 -9380.3530107913284 0 0 0 -2686.3821651268445 -1624.6682602376495 32.142714139217787 0 32.142714139217787 -10126.305104985237 0 0 0 -2937.7433413057188 -3.7018904007325943 4.3351355177145887 0 4.3351355177145887 -11.88996375197604 0 0 0 -3.8979635381771516 -1251.5030988300787 -231.50486838072902 0 -231.50486838072902 -10038.720222155498 0 0 0 -2822.5558302463978 -3.6966895175437031 6.1700330116088349 0 6.1700330116088349 -11.888230246751277 0 0 0 -3.8962299410737558 -1320.2497258284802 65.635537928166741 0 65.635537928166741 -10707.383015032363 0 0 0 -3006.9081852152103 -1064.8945300981704 113.49918992687162 0 113.49918992687162 -9957.74345913867 0 0 0 -2755.6594973092051 -115.11295282237552 53.987024090663908 0 53.987024090663908 -9987.5013462376664 0 0 0 -2525.6535747650123 -233.72460878854326 -214.653632942267 0 -214.653632942267 -10048.356328221023 0 0 0 -2570.520234252388 -228.35225153257124 80.473456781041023 0 80.473456781041023 -10488.673477136937 0 0 0 -2679.2564321673744 -127.16191173452171 459.01496375498897 0 459.01496375498897 -9797.1904927982832 0 0 0 -2481.0881011332058 -388.56815051980811 -1.3118375847097923 0 -1.3118375847097923 -9934.9282733761938 0 0 0 -2580.8741059740023 -276.16601722566338 -42.841600022591592 0 -42.841600022591592 -9339.7334659202024 0 0 0 -2403.9748707864674 -140.81942760451057 -38.236370233644266 0 -38.236370233644266 -10492.762460172653 0 0 0 -2658.39547194429 -333.69464652560055 -160.74592027553626 0 -160.74592027553626 -9948.9409704174323 0 0 0 -2570.6589042357555 -290.64499242520833 29.879625690562534 0 29.879625690562534 -9927.8697431102046 0 0 0 -2554.6286838838532 -241.60196873674795 -33.916057975180593 0 -33.916057975180593 -10061.990030830981 0 0 0 -2575.8979998919312 -157.77610594684666 3.9173371829165262 0 3.9173371829165262 -10062.283348082601 0 0 0 -2555.0148635073638 -60.971800702944165 32.802219585895728 0 32.802219585895728 -10044.437254855744 0 0 0 -2526.3522638896757 -154.70617677536188 -20.839809516561218 0 -20.839809516561218 -10183.489089388382 0 0 0 -2584.5488165409406 -93.786479988026258 0.57130054394474428 0 0.57130054394474428 -10063.675190044727 0 0 0 -2539.3654175081901 -95.299102958610092 -14.867548752074072 0 -14.867548752074072 -9976.1870334942814 0 0 0 -2517.8715341132174 -155.65595205500722 -9.4701243013623753 0 -9.4701243013623753 -9994.5426226227428 0 0 0 -2537.5496436694375 -159.57275077231679 -1.0441858320609754 0 -1.0441858320609754 -9983.0077623670804 0 0 0 -2535.6451282848466 -154.9765656845193 7.4293884908393011 0 7.4293884908393011 -9982.6149859616125 0 0 0 -2534.3978879115311 -145.26237089997448 9.6696064667048631 0 9.6696064667048631 -9982.9901067052851 0 0 0 -2532.0631194013185 -193.16594479324431 84.505569191838731 0 84.505569191838731 -9918.293171776535 0 0 0 -2527.8647791424455 -211.43745878840855 12.803477235062019 0 12.803477235062019 -9974.0631341242406 0 0 0 -2546.3751482281587 -213.24737843147523 53.184164258756937 0 53.184164258756937 -10004.729781316812 0 0 0 -2554.494289937069 -191.18324294291961 39.522541465561517 0 39.522541465561517 -9972.1932370975483 0 0 0 -2540.8441200101151 -124.67867055121678 -3.0973195531478268 0 -3.0973195531478268 -9970.0016642057672 0 0 0 -2523.6700836892524 -182.80359027953818 35.406521469114523 0 35.406521469114523 -10049.198246256798 0 0 0 -2558.0004591340839 -160.54075541835846 48.262793302546925 0 48.262793302546925 -9957.3822054127522 0 0 0 -2529.4807402077749 -101.51330434402189 -10.74757518401384 0 -10.74757518401384 -9982.5906425257854 0 0 0 -2521.0259867174464 -120.60343964791491 -17.647037774426281 0 -17.647037774426281 -9968.5589024385408 0 0 0 -2522.2905855216154 -152.72525275784574 13.328288044765941 0 13.328288044765941 -9989.2861742031673 0 0 0 -2535.5028567402551 -113.38610698519915 -5.7237597412458854 0 -5.7237597412458854 -10017.657120439195 0 0 0 -2532.7608068560949 -49.30720949588067 -42.549605450520176 0 -42.549605450520176 -9960.4683149148441 0 0 0 -2502.4438811026885 -21.60843540039059 -78.988042630029668 0 -78.988042630029668 -9973.5471291041613 0 0 0 -2498.7888911261398 -71.039704636037641 -49.217073415216873 0 -49.217073415216873 -9991.2119559138955 0 0 0 -2515.5629151374887 -49.247025882788876 -47.947679874501773 0 -47.947679874501773 -10021.817853119908 0 0 0 -2517.7662197506725 -159.18960801848152 -2.8235141857385315 0 -2.8235141857385315 -10030.489040708882 0 0 0 -2547.419662181841 -121.5974872335064 -11.64793772478879 0 -11.64793772478879 -10046.733475469344 0 0 0 -2542.0827406757089 -141.532250542984 -16.971559778314258 0 -16.971559778314258 -10014.860905212694 0 0 0 -2539.0982889389206 -101.89023706772423 -43.976282171479397 0 -43.976282171479397 -10024.196372554768 0 0 0 -2531.5216524056268 -229.73813676519057 -4.6711345082803746 0 -4.6711345082803746 -10046.401188019969 0 0 0 -2569.0348311962953 -120.25400148349581 -7.3132394637561902 0 -7.3132394637561902 -10072.367551720934 0 0 0 -2548.1553883011002 -202.15060918033851 -42.766625341942017 0 -42.766625341942017 -10015.294040082808 0 0 0 -2554.3611623157922 -47.127754274439212 -68.526137641256355 0 -68.526137641256355 -10049.488238224309 0 0 0 -2524.1539981246788 -162.66500695320428 -6.5060870037323184 0 -6.5060870037323184 -10176.80928031537 0 0 0 -2584.8685718171473 -232.48206371384367 -103.6186939402487 0 -103.6186939402487 -10610.425244873724 0 0 0 -2710.7268271468893 -768.32592181920336 429.20347053984005 0 429.20347053984005 -10072.505390977643 0 0 0 -2710.2078281992144 -3.6803719659370842 8.5407546338836262 0 8.5407546338836262 -11.882791269065308 0 0 0 -3.8907908087505945 -430.46851428547416 -263.83621525489434 0 -263.83621525489434 -10051.24055469429 0 0 0 -2620.4272672449461 -830.6175042493378 121.36406489409819 0 121.36406489409819 -9632.4587892179698 0 0 0 -2615.7690733668242 -1026.2169192755719 109.04762816269795 0 109.04762816269795 -10560.115629402622 0 0 0 -2896.5831371695476 -940.60346568224304 -185.66597403576452 0 -185.66597403576452 -10117.68868612525 0 0 0 -2764.5730379518736 -340.87906700701024 349.73057743128811 0 349.73057743128811 -10254.816369993438 0 0 0 -2648.9238592501151 -3.6876488721833596 7.633113037403561 0 7.633113037403561 -11.88521680555715 0 0 0 -3.8932164194351202 -1179.6451993392875 75.581105766980272 0 75.581105766980272 -9459.3742156483495 0 0 0 -2659.7548537469083 -1340.9696140709075 171.33957113312317 0 171.33957113312317 -10052.266322019612 0 0 0 -2848.308984022633 -1150.3051790735681 349.05152081431879 0 349.05152081431879 -10042.730359792215 0 0 0 -2798.2588847164461 -274.4999962039401 -70.818471477159619 0 -70.818471477159619 -9647.8772486443922 0 0 0 -2480.594311212084 -338.20102593626143 -51.600457883745548 0 -51.600457883745548 -10124.560496643044 0 0 0 -2615.6903806448281 -336.08636789522097 147.57595511591353 0 147.57595511591353 -10168.148068125218 0 0 0 -2626.0586090051092 -246.66647323266807 202.97512931550955 0 202.97512931550955 -9701.0864329804754 0 0 0 -2486.938226553284 
</DataArray>
<DataArray type="Float64" Name="cross_section_updated" format="ascii">
1 1 1 1 1 1 1 1 1 1 1 1 1 1 1 1 1 1 1 1 1 1 1 1 1 1 1 1 1 1 1 1 1 1 1 1 1 1 1 1 1 1 1 1 1 1 1 1 1 1 1 1 1 1 1 1 1 1 1 1 1 1 1 1 1 1 1 1 1 1 1 1 1 1 1 1 1 1 1 1 1 1 1 1 1 1 1 1 1 1 1 1 1 1 1 1 1 1 1 1 1 1 1 1 1 1 1 1 1 1 1 1 1 1 1 1 1 1 1 1 1 1 1 1 1 1 1 1 1 1 1 1 1 1 1 1 1 1 1 1 1 1 1 1 1 1 1 1 1 1 1 1 1 1 1 1 1 1 1 1 1 1 1 1 1 1 1 1 1 1 1 1 1 1 1 1 1 1 1 1 1 1 1 1 1 1 1 1 1 1 1 1 1 1 1 1 1 1 1 1 1 1 1 1 1 1 1 1 1 1 1 1 1 1 1 1 1 1 1 1 1 1 1 1 1 1 1 1 1 1 1 1 1 1 1 1 1 1 1 1 1 1 1 1 1 1 1 1 1 1 1 1 1 1 1 1 1 1 1 1 1 1 1 1 1 1 1 1 1 1 1 1 1 1 1 1 1 1 1 1 1 1 1 1 1 1 1 1 1 1 1 1 1 1 1 1 1 1 1 1 1 1 1 1 1 1 1 1 1 1 1 1 1 1 1 1 1 1 1 1 1 1 1 1 1 1 1 1 1 1 1 1 1 1 1 1 1 1 1 1 1 1 1 1 1 1 1 1 1 1 1 1 1 1 1 1 1 1 1 1 1 1 1 1 1 1 1 1 1 1 1 1 1 1 1 1 1 1 1 1 1 1 1 1 1 1 1 1 1 1 1 1 1 1 1 1 1 1 1 1 1 1 1 1 1 1 1 1 1 1 1 1 1 1 1 1 1 1 1 1 1 1 1 1 1 1 1 1 1 1 1 1 1 1 1 1 1 1 1 1 1 1 1 1 1 1 1 1 1 1 1 1 1 1 1 1 1 1 1 1 1 1 1 1 1 1 1 1 1 1 1 1 1 1 1 1 1 1 1 1 1 1 1 1 1 1 1 1 1 1 1 1 1 1 1 1 1 1 1 1 1 1 1 1 1 1 1 1 1 1 1 1 1 1 1 1 1 1 1 1 1 1 1 1 1 1 1 1 1 1 1 1 1 1 1 1 1 1 0.00081028338297205182 1 1 9.9999187937183098e-07 1 1 9.9998889080410436e-07 1 1 1 1 1 1 1 1 1 1 1 1 1 9.999862762982703e-07 1 1 1 1 1 9.9998391375755169e-07 1 1 1 1 1 1 1 1 1 1 1 1 1 1 1 1 1 1 1 1 1 1 1 1 1 1 1 1 1 1 1 1 1 1 1 1 1 1 1 1 1 1 1 1 1 1 1 1 1 1 1 1 1 1 1 1 1 1 1 1 1 1 1 1 1 1 1 1 1 1 1 1 1 1 1 1 1 1 1 1 1 1 1 1 1 1 1 1 1 1 1 1 1 1 1 1 1 1 1 1 1 1 1 1 1 1 1 1 1 1 1 1 1 1 1 1 1 1 1 1 1 1 1 1 1 1 1 1 1 1 1 1 1 1 1 1 1 1 1 1 1 1 1 1 1 1 1 1 1 1 1 1 1 1 1 1 1 1 1 1 1 1 1 1 1 1 1 1 9.9998179109439533e-07 1 1 1 9.9997995378631188e-07 1 1 9.999783766034831e-07 1 1 1 1 1 1 1 1 1 1 1 9.9997691752062856e-07 1 1 1 1 9.9997538860474577e-07 1 1 1 1 1 1 1 1 1 1 1 1 1 1 1 1 1 1 1 1 1 1 1 1 1 1 1 1 1 1 1 1 1 1 1 1 1 1 1 1 1 1 1 1 1 1 1 1 1 1 1 1 1 1 1 1 1 1 9.9993370494128042e-07 1 1 1 1 1 1 1 1 1 1 1 1 1 1 9.9991755837802732e-07 1 1 9.9992541402124657e-07 1 9.9990999712085138e-07 1 1 1 1 1 1 1 1 1 1 1 1 1 9.9990254730925043e-07 1 1 1 1 1 1 1 1 1 1 1 1 1 1 1 1 1 1 1 1 1 1 1 1 1 1 1 1 1 1 1 1 1 1 1 1 1 1 1 1 1 1 1 1 1 1 1 1 1 1 1 1 1 1 1 1 1 1 1 1 1 1 1 1 1 1 1 1 1 1 1 1 1 1 1 1 1 1 1 1 1 1 1 1 1 1 1 1 1 1 1 1 1 1 1 1 1 1 1 1 1 1 1 1 1 1 1 1 1 1 1 1 1 1 1 1 1 1 1 1 1 1 1 1 1 1 1 1 1 1 1 1 1 1 1 1 0.00028661487247758424 1 1 9.9997327514256273e-07 1 9.9996179030517607e-07 1 1 1 1 1 1 1 1 1 1 1 1 1 1 1 1 1 1 1 1 1 1 1 1 1 1 1 1 1 1 1 1 1 1 1 1 1 1 1 1 1 1 1 1 1 1 1 9.9994246065965298e-07 1 1 1 1 1 9.9995173474809462e-07 1 1 1 1 1 1 1 
</DataArray>
<DataArray type="Float64" Name="displacement_divergence" format="ascii">
-0.10408322794311532 -0.10542506106158103 -0.085058899476939898 -0.08884356800807254 -0.07053165035143176 -0.060987676412312397 -0.079553778301781217 -0.069318961298915446 -0.065194323396095377 -0.071626159495108116 -0.074938531493351529 -0.069410718444110925 -0.078847731619627964 -0.072237859943403357 -0.086159027889549752 -0.091290837162029695 -0.074196291822183486 -0.080891353523059983 -0.057408233253909091 -0.060448671624759809 -0.061331743065114477 -0.060514589293367199 -0.067707168049513849 -0.06454619288030719 -0.058671702208254961 -0.06606719796898719 -0.072457298433901737 -0.066826931229570063 -0.064599135635594981 -0.066764536453784024 -0.063470936337062023 -0.06093556830385094 -0.065036685450457377 -0.066954420196832565 -0.066765572660581973 -0.070284078568477543 -0.067098904317716312 -0.069498601020898609 -0.070432544710691797 -0.071839927572531437 -0.07181532809636508 -0.069634061536817893 -0.070048521949195058 -0.068898853256854131 -0.069043183179558265 -0.070865794955165345 -0.068035204304592423 -0.067111155788950438 -0.077695636099695944 -0.074598843728848979 -0.08127334232264101 -0.075458979380401747 -0.070607298090553355 -0.074343288954556636 -0.073226096488608519 -0.075654424664733474 -0.072251830806394357 -0.075771691371837327 -0.073054517801250649 -0.072985845714075445 -0.077882015663590987 -0.078347173544108417 -0.074644819195808926 -0.080456844016445844 -0.080298703553900508 -0.074723550447159684 -0.07495536896757915 -0.079384129528753192 -0.077082168745516849 -0.076063307982604828 -0.074946069939404988 -0.079242096457509278 -0.07514163876087912 -0.073063464258685762 -0.074173687802677968 -0.076601295950937204 -0.07235915300398231 -0.076783427685491262 -0.075576204094059227 -0.074215020583641891 -0.073133754324883449 -0.071058374550707903 -0.073029891957926973 -0.07318570044401404 -0.070316299706216501 -0.074342688052205119 -0.069554430901901276 -0.068698300474386687 -0.071718190392608183 -0.07025658421633596 -0.069341230570652668 -0.07163473553069355 -0.070855197356481825 -0.070324367018882838 -0.071298470719617285 -0.0743564531782369 -0.071297243830194756 -0.072985024310241939 -0.072329071317209753 -0.07315881063749613 -0.073533439019475705 -0.073936099467075495 -0.070672403115529192 -0.072200101133787109 -0.071877884009007104 -0.071548046652576247 -0.071927327921064987 -0.073151629972625865 -0.072969106140541695 -0.072357653439590386 -0.072792485163139131 -0.075043118800916769 -0.072209677479280532 -0.072821972633568474 -0.073033257954675135 -0.075147027605279221 -0.076235481831171376 -0.074452782940225726 -0.077102110897560056 -0.075148300805281884 -0.079266039700445906 -0.075217425803361881 -0.077391916252836174 -0.076255670013563537 -0.075973286157288267 -0.079246512701417388 -0.076398787162697102 -0.074813973458223076 -0.074113881954864638 -0.075854789445166215 -0.065647322588675117 -0.066244818583840459 -0.066349588617706901 -0.065189675724621879 -0.064469616686609776 -0.064677278267550986 -0.064714911938837355 -0.064712219155533157 -0.064291858634927701 -0.064154451321847494 -0.065169498549388138 -0.065141526861724031 -0.065792167925359524 -0.066319454516999832 -0.066014117023554197 -0.071111657292839858 -0.066675919898940506 -0.069934620779608769 -0.066152332869491126 -0.071393031695021369 -0.072341774663633451 -0.071123748852132185 -0.069071759065806426 -0.071141124791155724 -0.070635304330853577 -0.069965969531947697 -0.068849782400873971 -0.067606879512926876 -0.067071458301473375 -0.068932414766451955 -0.067161765788253336 -0.066942804522644228 -0.067893012062622105 -0.066208902715223394 -0.069825301905204196 -0.068837015194645773 -0.067930820406064907 -0.06743278326770058 -0.068258563739285433 -0.06904542718543516 -0.06691637282602915 -0.068509930719312884 -0.067553760930901735 -0.066227705472547638 -0.06783301425845456 -0.066081469975035931 -0.067353768918546553 -0.0663518143838987 -0.065334307168735173 -0.064873705598326892 -0.064501267755993297 -0.065519250925612171 -0.065769387676764213 -0.065693567200973302 -0.065701965990476507 -0.06493322856846373 -0.065414585077145815 -0.065843619541666315 -0.066427928097231748 -0.064559239318394912 -0.064692201036064656 -0.065181649828039118 -0.064806463745937348 -0.064338393663224025 -0.064620469229646427 -0.064088694827557413 -0.064472762000672701 -0.063734061525551056 -0.063313117066501778 -0.063429069005246808 -0.063927623363223995 -0.06392587342292877 -0.064904028397244851 -0.063620939884047156 -0.064207517327839581 -0.06379286680537205 -0.062613911311619308 -0.063166583344559546 -0.062316544183658173 -0.062173821947812846 -0.061587791031414429 -0.062193098701238236 -0.06252098092886138 -0.062890595201784846 -0.06689348875226464 -0.066552053555215207 -0.06545345015147197 -0.065512263167068263 -0.065699819661661385 -0.065731655294232083 -0.065858531129576847 -0.064433135403816177 -0.064138882539580111 -0.063737147888982659 -0.062818987654277181 -0.063776261201771683 -0.064890868713052829 -0.064481938984185805 -0.065069129354201172 -0.066901260676438312 -0.065611035899559966 -0.061654457419051484 -0.063619832629410622 -0.063956007562166739 -0.06248780513972324 -0.060306105740865257 -0.061104023711350833 -0.062297078861189403 -0.061945892054215856 -0.061117185643558058 -0.059961473481538463 -0.059473774248349542 -0.057277265501155972 -0.059648987749039928 -0.057204804260513102 -0.060102834231703317 -0.060676757696710104 -0.061538665879742216 -0.061541781003767448 -0.061575900007329432 -0.06074768016697446 -0.059773878893018439 -0.057942206909790461 -0.059664039133821012 -0.058213120611358415 -0.059586746713351957 -0.059378290237696696 -0.060691939289370778 -0.059595101962144792 -0.059090508673753206 -0.060462181960631023 -0.05936564940749902 -0.060643313681550293 -0.060368438433955784 -0.060399098983723198 -0.060945483368372466 -0.061085286747240675 -0.060909648751022116 -0.061457289411718463 -0.061610910035163058 -0.061495601026845259 -0.060993582301434701 -0.060993928848145917 -0.05993321250752337 -0.060555261407089223 -0.060572356032526586 -0.060886628572404122 -0.061040963917542712 -0.061072898599285663 -0.061285950927971955 -0.0613972486021237 -0.061702473148378845 -0.061821403264312069 -0.061767263316064747 -0.061421265852956833 -0.061836115880722575 -0.061563365729603747 -0.061755492755384167 -0.061408858088926932 -0.061735508607852374 -0.062117179775288633 -0.062162387150355047 -0.062137064257680841 -0.062113241844135469 -0.061841499845125547 -0.0621223778038556 -0.062168823914851234 -0.062305498364694234 -0.06229290070061011 -0.062572602746245432 -0.06266275436162172 -0.062512270283426791 -0.062676643531120346 -0.062514902276326945 -0.062274507924443445 -0.0625364030524862 -0.062940744038280316 -0.062856733978059687 -0.062862136623703213 -0.062511865405912137 -0.06268017357213318 -0.063167559618832692 -0.062874415884812906 -0.063286933020819891 -0.062767598539618011 -0.062998174928245221 -0.06248020999120163 -0.062335728478078445 -0.062038177941186046 -0.061663616569808177 -0.061996810632780508 -0.061554676397028163 -0.061778151002951698 -0.062404001489978933 -0.062096286396739281 -0.062163264060731013 -0.062229684408720676 -0.062375982634215621 -0.062396066985890855 -0.062477134581994109 -0.062486332545335532 -0.062486457417267438 -0.062478460194151708 -0.062334323729483998 -0.062325916640802337 -0.062424495017902037 -0.062159149012112724 -0.062105443275088712 -0.062185990899379373 -0.062302514162922762 -0.061994214534039971 -0.062253482455810749 -0.062022219108334387 -0.062003754924700838 -0.061928002717771991 -0.062209087007434272 -0.06187636147780573 -0.06230486271327651 -0.062019887983530309 -0.062178860229188837 -0.06171141657103496 -0.061885385455209274 -0.061628230227016481 -0.061540145805065366 -0.062043051207123501 -0.062174870904663893 -0.061842756662544823 -0.062134988968270743 -0.062053711838398501 -0.062224791080284891 -0.062427767382306154 -0.062324608943571724 -0.062314562310293642 -0.062233676358169454 -0.062218744895003786 -0.062360960678511379 -0.062104958620937234 -0.062133092831618608 -0.062115567433573826 -0.062098408487905932 -0.062091130934055494 -0.062026374204761425 -0.062297017635247975 -0.061953263338186071 -0.06220018795827098 -0.061896502928496799 -0.062206081699327953 -0.062080331850689507 -0.061719140284312912 -0.061635774235864638 -0.061589539580604313 -0.061883840491732567 -0.061979218309407447 -0.062179705483649816 -0.061862927331680417 -0.062318642788938172 -0.061258117951073832 -0.060641057128907883 -0.061454819906189506 -0.061323059096162508 -0.060970613626835535 -0.061275940644309745 -0.061715720870928137 -0.061441894569072897 -0.06163311768828561 -0.061986192239951166 -0.061885389080536424 -0.061985410347888847 -0.061997219146548765 -0.061648358670416736 -0.061847921754154267 -0.062316176853411398 -0.06273408425959548 -0.062566762851372859 -0.06219351553924235 -0.062251993975024122 -0.062118780174392318 -0.062230543173329878 -0.062315280702248455 -0.062458448217348472 -0.06243664867617893 -0.062599959690909257 -0.062701685931233264 -0.06250667361053952 -0.062696242369854938 -0.06263096847807148 -0.062968396928862358 -0.063035842783559115 -0.062912714817912052 -0.063016733146951776 -0.063375523538392375 -0.063913862597773097 -0.06356761324990523 -0.062970541792406243 -0.063019392165167609 -0.063809758164187214 -0.064873006488538332 -0.064288662684249598 -0.064477230902949323 -0.063539306880631585 -0.063240986358733986 -0.063678305705806654 -0.063342943784871708 -0.06227693328991335 -0.062796973260450972 -0.062294840967668907 -0.062309932515641112 -0.063208132407430728 -0.062413122313210279 -0.061775242908335581 -0.061716172172368466 -0.062038822656354853 -0.061986129243238181 -0.061953753871983208 -0.061635673909052904 -0.061900331246202978 -0.061566837135649255 -0.061376905979481755 -0.061292273952998744 -0.060799773163304205 -0.06110701874368285 -0.060601602664696719 -0.061052384031768492 -0.061392630013981098 -0.061177572492545185 -0.063639131980889441 -0.063766320371212437 -0.06353182687105173 -0.06385896555597792 -0.06413151539561146 -0.063716952150544737 -0.064118928810449394 -0.063897323131363509 -0.063666600109842486 -0.064112421637439687 -0.063446238848952063 -0.06362871448817653 -0.063156175728886321 -0.06339721665667547 -0.063538025113922258 -0.063057875394230356 -0.063102718942599556 -0.062785832983077494 -0.063059837763230986 -0.063142294082923212 -0.063561055380531695 -0.062880405646721094 -0.062884428482029575 -0.063373781286722164 -0.063333993661332855 -0.064022508724430494 -0.063356498623287016 -0.0636107820551568 -0.063671838181925011 -0.063597627635097187 -0.064211701191390969 -0.064616703389310914 -0.064428772725941164 -0.064229847934359457 -0.06387588520455445 -0.064000507123969874 -0.064920059324346191 -0.064442962555208871 -0.065909722551555527 -0.067518875555212299 -0.067376812003151931 -0.065252873743510076 -0.06341800806271336 -0.063631405047461481 -0.064817403365329429 -0.061049423781499357 -0.063924614923352399 -0.06347858455557015 -0.063468205924094079 -0.06391669523177268 -0.063543809488925129 -0.064025328635800682 -0.06371146986102616 -0.064013065023283078 -0.063903361534499437 -0.064082039423061232 -0.063854786424200893 -0.063856548920998346 -0.064047623056842945 -0.063534044839995363 -0.064243265896870294 -0.062660893893585756 -0.063136350684689035 -0.061852613692528369 -0.06273926079677361 -0.062468717522213307 -0.062113832009821124 -0.062748269144846547 -0.06063646392334876 -0.060224639660287571 -0.061959790414630289 -0.06155070544220298 -0.06196265505290488 -0.061036227554191802 -0.062787960129861209 -0.062515171313875517 -0.059806577289043927 -0.06007039948542825 -0.067294854519288405 -0.050781403245784951 -0.06185355245352897 -0.068080121473983679 -0.05741729484039948 -0.56266501479696984 -0.060324553545938908 -0.065374175381873068 -0.96572296683898173 -0.055651523281055493 -0.058245204619391783 -0.96636976887270265 -0.059052181537539772 -0.06381510018224068 -0.058703394139688614 -0.063461485945547902 -0.057476536850025406 -0.060580122745527487 -0.061106305292442209 -0.056488914791885447 -0.060075089600752474 -0.061039040887084228 -0.063607481048852277 -0.059478751873353497 -0.060824705322816586 -0.96734456567278926 -0.061426256283542813 -0.06465981602273918 -0.064889013164368681 -0.062715784152054921 -0.060616735127623222 -0.96673895718507907 -0.060302324947477004 -0.059505972593878242 -0.060753629491802075 -0.064262212166698807 -0.061304738011467907 -0.062407105034451793 -0.061223192852421615 -0.06186296021701676 -0.061097701053719158 -0.061428579225465851 -0.061567943624025734 -0.061860367100383687 -0.062390191236410208 -0.062256292222863108 -0.062236288554087263 -0.062266376286007175 -0.062610719918734015 -0.062298427929811995 -0.062455481596103535 -0.061207283643429838 -0.061062217174735089 -0.0613348883708833 -0.061700397295944343 -0.061683443160078455 -0.06191242947887643 -0.061257860190654601 -0.061113638091374378 -0.061516833165224494 -0.061666377572974329 -0.061811976612525354 -0.062195493235014943 -0.062181963965431297 -0.062006463908104603 -0.062157037574387786 -0.061861616010004949 -0.062036448032696478 -0.06262558531943585 -0.062201896756676645 -0.062764755032415964 -0.062468982616385116 -0.061889957328827849 -0.063090926226529565 -0.061655932090581622 -0.063794702162840444 -0.064891875280184586 -0.061709837677654478 -0.060666413643454375 -0.062808574934588801 -0.062717944247048185 -0.061623261991924361 -0.062332370041615404 -0.062180134606397486 -0.062966239730494644 -0.060921365905965086 -0.061614381188658918 -0.063455925281861544 -0.062594310727760172 -0.062444786613834014 -0.062362678414581957 -0.062353457005822011 -0.062452501840800867 -0.062191711354494084 -0.062405893179714012 -0.062530233219476594 -0.062170910269619295 -0.06225534510712874 -0.062066300728420343 -0.062152030250356094 -0.062202580600265289 -0.062055467794257857 -0.0623252326807191 -0.062246299600487831 -0.062301644669039959 -0.062162131317540004 -0.062173881490127814 -0.062155256421507987 -0.06230033116149758 -0.062154071979492631 -0.061918165951205473 -0.061877948053010945 -0.062020114784764768 -0.062464288798871836 -0.062373876141923468 -0.06244754508955519 -0.062406726614771424 -0.062368525626584792 -0.062288819394631378 -0.06217997403380382 -0.062284626608497984 -0.062272512651248668 -0.062388023291888306 -0.062329366315150514 -0.062413181218065494 -0.062452688318854532 -0.062326412155771838 -0.062446253183505274 -0.062543628964252473 -0.062218460487786231 -0.062330964325888916 -0.062296440216521809 -0.062300671609028857 -0.062388152671239316 -0.062431340152353965 -0.062277322293088577 -0.062465745775382331 -0.062571116024883855 -0.062201715786834422 -0.062436084847598217 -0.062107999729015595 -0.064039343140253724 -0.062110422185162051 -0.063329207489287054 -0.062630706759700727 -0.06202224100123474 -0.063377451052387235 -0.061886054102061827 -0.063301031719406931 -0.062494192987051722 -0.062496027675204679 -0.062360363892934922 -0.063339875648211086 -0.062506284099083986 -0.062549473209432938 -0.062311731655901426 -0.062585138025837095 -0.062494271080819397 -0.062765773490679022 -0.062588600510108061 -0.062633501313422268 -0.062424173663260141 -0.062420813701274502 -0.062485835811396218 -0.062470740083326204 -0.062435118542613521 -0.062459211688890903 -0.062467916016576641 -0.062493292521721866 -0.062476896423645067 -0.062472029024569498 -0.062493267590294721 -0.062492932480258556 -0.062492782241415634 -0.062499258399342006 -0.062483094121157379 -0.062470171693942728 -0.062440615742828554 -0.061998754752809582 -0.062161339259376502 -0.061586169010208303 -0.061702774290640638 -0.06180669936609505 -0.062103980611037723 -0.062081545317855591 -0.062048270292350827 -0.062212071889481413 -0.062352905499688832 -0.061694515101049285 -0.06190171136922884 -0.061924558216578357 -0.06147958709611312 -0.061416741612823955 -0.061487496837348554 -0.057095273044973083 -0.065375032762289176 -0.060099565058469473 -0.0605223386701495 -0.063799876018598045 -0.061238538839033185 -0.96969079102596822 -0.061207833966586578 -0.065535259112037059 -0.060555557216650291 -0.95991116507011753 -0.061730539609480717 -0.063750525396081503 -0.99808341568180481 -0.060047673661949547 -0.061639688790594338 -0.058169113044636567 -0.061965718383067081 -0.06287641272576 -0.060813875462517597 -0.061819051824782756 -0.062339184270134074 -0.065689401633059585 -0.064124333787639293 -0.064091668186486705 -0.85339670916912524 -0.062336496114056339 -0.06372849562748524 -0.05994093063574768 -0.060957775392377456 -1.3953328786206285 -0.061592916792124086 -0.064481752366797984 -0.061483332218969622 -0.059588424276062257 -0.060242937214711079 -0.064262100316544668 -0.061522656086368421 -0.061896448461639664 -0.06268286687188751 -0.061749516119124381 -0.0623673376563878 -0.061565917503634715 -0.061672928806154381 -0.062187022377806697 -0.061668743795662895 -0.061598095686040688 -0.062087140336618489 -0.061696701521672614 -0.061994602790224104 -0.061718462070009306 -0.061421472271685651 -0.061323270863414714 -0.061284524081021141 -0.060385425020511918 -0.061271798019368218 -0.061020230440750278 -0.06132573285186349 -0.059609120352427492 -0.060214773120243453 -0.060310950853296408 -0.061710814343837961 -0.061185468947925925 -0.06201290648684632 -0.062430679225042085 -0.061906922589794577 -0.061576584821196656 -0.061684901519793445 -0.061807415597056936 -0.062019286899488157 -0.062336395372472486 -0.062276250831011071 -0.062607892594815917 -0.062200279111235046 -0.062445952499499802 -0.062228007157722143 -0.062703280531867203 -0.063457005802183053 -0.06274179688477477 -0.062940347968707511 -0.063373954817100064 -0.063614938477992822 -0.063232097438473231 -0.062741964313775211 -0.062646204936177952 -0.062562237038188862 -0.062385615356595411 -0.062741295831817701 -0.07017521392988102 -0.97323638701653081 -0.066293770875136493 -0.065894766675386157 -0.061533693228053132 -0.06453833986256971 -0.064929900126295959 -0.063427826439289681 -0.067595812643890418 -0.063089703007121911 -0.065023510145930025 -0.063324786037940117 -0.060137181172484011 -0.064247166829904057 -0.064615593886838962 -0.061248375625293949 -0.99424647261065857 -0.06527952697275613 -0.065328307439111888 -0.9634613164510526 -0.064863227527339085 -0.8749552973840089 -0.06254286989135277 -0.063536430880084552 -0.058746841799031446 -0.062307482334663725 -0.061187013437828175 -0.067067128781927665 -0.063804527659951149 -0.060090400255000231 -0.057751477593264156 -0.057827595589611092 -0.060470253041263411 -0.059766067210376715 -0.058530965219865394 -1.3164351415345799 -0.058642086962554907 -0.06028667339258198 -0.058836313937852894 -0.059276082175744649 -0.06117374153920313 -0.060370470586172072 -0.059892319744919487 -0.06119745574095542 -0.067007499749530297 -0.059649141220360635 -0.065315844307765797 -0.06638512567469157 -0.069910949188743271 -0.069034983545611134 -0.066451140196267439 -0.063929071561825701 -0.061907708275157097 -0.081888947225780356 -0.10252056985883193 -0.10567898053996076 -0.066062070679945989 -0.088066109256646374 -0.066177814120263245 -0.071287127642764597 -0.068326428541139073 -0.060988860676329658 -0.066700212542684045 -0.074206776112047332 -0.080821731607576761 -0.076148160001658499 -0.075754246976117573 -0.082719779309444241 -0.085229058200993732 -0.08525638331504902 -0.080477178779571584 -0.075232782361907696 -0.074682977846813325 -0.077686466794501446 -0.077481544507576161 -0.070225806259186313 -0.071549044012357954 -0.07361307951205015 -0.075479223919829364 -0.075528638469444964 -0.07170907683949812 -0.076096650992244302 -0.078568143293972256 -0.076316548813440896 -0.076765397303404814 -0.079906741324469857 -0.075204026911773442 -0.066740524351893038 -0.068892767387643716 -0.067239082019489749 -0.064749500875198374 -0.069771539112701231 -0.069345502259316599 -0.067776341687654063 -0.069055894878574803 -0.071440361118864579 -0.070772329827641006 -0.073233022291655153 -0.068331691116280346 -0.070460316395282885 -0.066306823809291426 -0.067882851321738436 -0.069990351771763604 -0.068784418377230205 -0.07025656771590405 -0.067530204831120322 -0.070545194629144825 -0.071295661317017922 -0.069792618436525455 -0.071367909880689112 -0.073401054720714731 -0.071611204364517983 -0.072155824705126603 -0.07163221516963203 -0.072390340900825578 -0.073774176178377227 -0.071127956043602239 -0.071276909496437724 -0.071402796643106559 -0.072495112022671185 -0.070214665364870366 -0.076810468915221669 -0.076451997037523145 -0.076840989790416897 -0.078686368406547774 -0.075277081010212438 -0.073042392313047044 -0.076807291405500383 -0.072905660072733788 -0.074917009968960335 -0.073833885704487401 -0.074553078111921828 -0.074747020494659644 -0.074350896239790215 -0.075832938114608228 -0.076797828869299839 -0.075628073896239198 -0.077253958785744925 -0.075361537629592967 -0.07914887654803858 -0.07919046437772341 -0.079266142249378682 -0.075429117037940197 -0.076911198574156972 -0.075806309617212617 -0.075035023945342005 -0.07454704708589055 -0.07518441252594299 -0.074132648410987698 -0.074343656297382793 -0.075770830580072127 -0.076850905191865979 -0.075620020483196562 -0.076073964891088586 -0.079599947994483486 -0.072558215851525998 -0.071326722345466942 -0.072440935247209848 -0.071655637508847347 -0.072953143454952019 -0.07415663691996624 -0.072199283084593835 -0.073448719451547129 -0.074973870508531937 -0.073817058254228074 -0.073825704293230321 -0.072259956858239535 -0.072071274949871478 -0.071341418803660281 -0.07473889179637791 -0.061276362055804112 -0.070748346706200282 -0.6893110985179085 -0.067159554128170956 -0.07344358353264302 -0.97449088454429145 -0.070563895756159789 -0.97405748526844249 -0.075172704630380172 -0.068891487432730159 -0.063141339369125249 -0.06426300585630973 -0.066981410804184405 -0.062027202528330161 -0.064521852649349953 -0.06009937176966168 -0.066459886798607204 -0.064266472605894021 -0.063865717097096264 -0.064397449997298267 -0.063875371587684082 -0.063158806597241934 -0.064613720413523423 -0.063484135437704814 -0.062946788352830491 -0.063438741091736084 -0.063391128207121228 -0.063359947197788147 -0.063301577985033219 -0.063196619478561145 -0.063659378705703706 -0.063862357248426704 -0.063521103000252988 -0.06309175209223114 -0.063950011478352109 -0.063237018505194476 -0.063025649667936223 -0.063057264638040428 -0.063387571418506483 -0.063319020171402451 -0.062561097027567208 -0.062469722278153061 -0.062889072878437036 -0.062944155493766973 -0.063685491554545948 -0.063552068516892546 -0.063477457223472949 -0.063288041310140764 -0.064225870779907157 -0.063703884707527303 -0.063859029057894867 -0.063103849953117241 -0.064621714295428623 -0.067768170678672135 -0.067755195704980287 -0.97269770218764862 -0.065510681681123506 -0.065394226834170621 -0.072414578429238763 -0.069114325948796795 -0.066223096481252769 -0.97330410485878005 -0.066493871343672795 -0.071207724600565681 -0.069956472117911117 -0.062014857780302024 -0.065392259516120627 -0.06565146522512777 -0.062173455663832033 
</DataArray>
</CellData>
</Piece>
</UnstructuredGrid>
</VTKFile>
