<?xml version="1.0"?>
<VTKFile type="UnstructuredGrid" version="0.1" byte_order="LittleEndian">
<UnstructuredGrid>
<Piece NumberOfPoints="3142" NumberOfCells="1054">
<Points>
<DataArray type="Float64" NumberOfComponents="3" format="ascii">
0.02576622439977887 0.024532886826226379 0 0 0 0 0.049999999999899652 0 0 0.02576622439977887 0.024532886826226379 0 0 0 0 0 0.050000000000207989 0 0.02576622439977887 0.024532886826226379 0 0.049999999999899652 0 0 0.053064897599215843 0.048131547304697528 0 0.02576622439977887 0.024532886826226379 0 0.053064897599215843 0.048131547304697528 0 0 0.050000000000207989 0 0 0.050000000000207989 0 0 0.10000000000041601 0 0.044310582753132287 0.101412518374475 0 0 0.10000000000041601 0 0.044310582753132287 0.101412518374475 0 0 0.15000000000062411 0 0.053064897599215843 0.048131547304697528 0 0.044310582753132287 0.101412518374475 0 0.083411279318303222 0.089699755330707398 0 0.053064897599215843 0.048131547304697528 0 0 0.050000000000207989 0 0.044310582753132287 0.101412518374475 0 0.044310582753132287 0.101412518374475 0 0.083411279318303222 0.089699755330707398 0 0.065374659239632718 0.1448908038746782 0 0.083411279318303222 0.089699755330707398 0 0.065374659239632718 0.1448908038746782 0 0.1053400320299198 0.12877248826361379 0 0.083411279318303222 0.089699755330707398 0 0.12372429750337779 0.095814237875728972 0 0.1053400320299198 0.12877248826361379 0 0.12372429750337779 0.095814237875728972 0 0.1053400320299198 0.12877248826361379 0 0.14332333627550789 0.14578431753966009 0 0.12372429750337779 0.095814237875728972 0 0.10266856499169109 0.044518360900210059 0 0.14618258501891079 0.062070108745602003 0 0.083411279318303222 0.089699755330707398 0 0.12372429750337779 0.095814237875728972 0 0.10266856499169109 0.044518360900210059 0 0.10266856499169109 0.044518360900210059 0 0.099999999999814668 0 0 0.14999999999970359 0 0 0.049999999999899652 0 0 0.053064897599215843 0.048131547304697528 0 0.099999999999814668 0 0 0.053064897599215843 0.048131547304697528 0 0.10266856499169109 0.044518360900210059 0 0.099999999999814668 0 0 0.053064897599215843 0.048131547304697528 0 0.083411279318303222 0.089699755330707398 0 0.10266856499169109 0.044518360900210059 0 0.044081577119474857 0.2271058242433576 0 0 0.20000000000083221 0 0 0.25000000000104028 0 0.044081577119474857 0.2271058242433576 0 0 0.20000000000083221 0 0.038512288486115001 0.1844147282893184 0 0.044081577119474857 0.2271058242433576 0 0.038512288486115001 0.1844147282893184 0 0.083105206071467416 0.20007701332709979 0 0.038512288486115001 0.1844147282893184 0 0 0.15000000000062411 0 0.065374659239632718 0.1448908038746782 0 0.044310582753132287 0.101412518374475 0 0 0.15000000000062411 0 0.065374659239632718 0.1448908038746782 0 0.038512288486115001 0.1844147282893184 0 0.065374659239632718 0.1448908038746782 0 0.083105206071467416 0.20007701332709979 0 0 0.20000000000083221 0 0.038512288486115001 0.1844147282893184 0 0 0.15000000000062411 0 0.065374659239632718 0.1448908038746782 0 0.1053400320299198 0.12877248826361379 0 0.106902708054812 0.16453234188234539 0 0.1053400320299198 0.12877248826361379 0 0.106902708054812 0.16453234188234539 0 0.14332333627550789 0.14578431753966009 0 0.065374659239632718 0.1448908038746782 0 0.106902708054812 0.16453234188234539 0 0.083105206071467416 0.20007701332709979 0 0.083105206071467416 0.20007701332709979 0 0.095326043202144745 0.24554465089224409 0 0.13737030665753211 0.20313708640667491 0 0.106902708054812 0.16453234188234539 0 0.083105206071467416 0.20007701332709979 0 0.13737030665753211 0.20313708640667491 0 0.044081577119474857 0.2271058242433576 0 0.083105206071467416 0.20007701332709979 0 0.095326043202144745 0.24554465089224409 0 0.044081577119474857 0.2271058242433576 0 0.095326043202144745 0.24554465089224409 0 0.049706944316556423 0.27522722923869108 0 0.095326043202144745 0.24554465089224409 0 0.14377654328998779 0.2442024734791064 0 0.13737030665753211 0.20313708640667491 0 0.17933913398461551 0.2350063570234002 0 0.14377654328998779 0.2442024734791064 0 0.13737030665753211 0.20313708640667491 0 0.17933913398461551 0.2350063570234002 0 0.13737030665753211 0.20313708640667491 0 0.18124454140915969 0.18790916706335251 0 0.18124454140915969 0.18790916706335251 0 0.14332333627550789 0.14578431753966009 0 0.18652628422869419 0.14162325200928061 0 0.106902708054812 0.16453234188234539 0 0.13737030665753211 0.20313708640667491 0 0.14332333627550789 0.14578431753966009 0 0.13737030665753211 0.20313708640667491 0 0.18124454140915969 0.18790916706335251 0 0.14332333627550789 0.14578431753966009 0 0.14332333627550789 0.14578431753966009 0 0.18652628422869419 0.14162325200928061 0 0.16141998738593399 0.10404039647458049 0 0.18652628422869419 0.14162325200928061 0 0.22985637510995899 0.1298347970200906 0 0.2185883431182947 0.18019736283949719 0 0.22985637510995899 0.1298347970200906 0 0.2185883431182947 0.18019736283949719 0 0.25557216766470708 0.15874861286892261 0 0.2185883431182947 0.18019736283949719 0 0.25557216766470708 0.15874861286892261 0 0.26429849586623999 0.19346700179430079 0 0.18124454140915969 0.18790916706335251 0 0.18652628422869419 0.14162325200928061 0 0.2185883431182947 0.18019736283949719 0 0.17933913398461551 0.2350063570234002 0 0.18124454140915969 0.18790916706335251 0 0.224700362040408 0.22206622194729711 0 0.18124454140915969 0.18790916706335251 0 0.2185883431182947 0.18019736283949719 0 0.224700362040408 0.22206622194729711 0 0.2185883431182947 0.18019736283949719 0 0.224700362040408 0.22206622194729711 0 0.26429849586623999 0.19346700179430079 0 0.224700362040408 0.22206622194729711 0 0.25195515620380449 0.25883339815888678 0 0.21049769590865089 0.26857363548218488 0 0.17933913398461551 0.2350063570234002 0 0.224700362040408 0.22206622194729711 0 0.21049769590865089 0.26857363548218488 0 0.184418230509967 0.038773194583122873 0 0.14999999999970359 0 0 0.14618258501891079 0.062070108745602003 0 0.184418230509967 0.038773194583122873 0 0.14618258501891079 0.062070108745602003 0 0.19922788606653311 0.085920220746880993 0 0.184418230509967 0.038773194583122873 0 0.14999999999970359 0 0 0.19999999999955789 0 0 0.10266856499169109 0.044518360900210059 0 0.14999999999970359 0 0 0.14618258501891079 0.062070108745602003 0 0.12372429750337779 0.095814237875728972 0 0.14618258501891079 0.062070108745602003 0 0.16141998738593399 0.10404039647458049 0 0.12372429750337779 0.095814237875728972 0 0.14332333627550789 0.14578431753966009 0 0.16141998738593399 0.10404039647458049 0 0.18652628422869419 0.14162325200928061 0 0.16141998738593399 0.10404039647458049 0 0.19922788606653311 0.085920220746880993 0 0.14618258501891079 0.062070108745602003 0 0.16141998738593399 0.10404039647458049 0 0.19922788606653311 0.085920220746880993 0 0.18652628422869419 0.14162325200928061 0 0.22985637510995899 0.1298347970200906 0 0.19922788606653311 0.085920220746880993 0 0.22985637510995899 0.1298347970200906 0 0.19922788606653311 0.085920220746880993 0 0.24218496799700481 0.089025544070598317 0 0.22985637510995899 0.1298347970200906 0 0.24218496799700481 0.089025544070598317 0 0.27474541102162192 0.11822029332053539 0 0.19922788606653311 0.085920220746880993 0 0.24218496799700481 0.089025544070598317 0 0.22668068146512929 0.045875643423131329 0 0.24218496799700481 0.089025544070598317 0 0.22668068146512929 0.045875643423131329 0 0.27499999999933927 0.060310814194988557 0 0.184418230509967 0.038773194583122873 0 0.19922788606653311 0.085920220746880993 0 0.22668068146512929 0.045875643423131329 0 0.184418230509967 0.038773194583122873 0 0.22668068146512929 0.045875643423131329 0 0.19999999999955789 0 0 0.22668068146512929 0.045875643423131329 0 0.19999999999955789 0 0 0.24999999999941211 0 0 0.24999999999941211 0 0 0.27499999999933927 0.060310814194988557 0 0.29999999999926641 0 0 0.22668068146512929 0.045875643423131329 0 0.24999999999941211 0 0 0.27499999999933927 0.060310814194988557 0 0.27499999999933927 0.060310814194988557 0 0.29999999999926641 0 0 0.32541448401678508 0.046215317981507749 0 0.29999999999926641 0 0 0.32541448401678508 0.046215317981507749 0 0.34999999999912063 0 0 0.32541448401678508 0.046215317981507749 0 0.3615861437013822 0.03582617922508851 0 0.35312867752657662 0.084946736076730367 0 0.3615861437013822 0.03582617922508851 0 0.35312867752657662 0.084946736076730367 0 0.39591832466117061 0.056982757562006353 0 0.32541448401678508 0.046215317981507749 0 0.3615861437013822 0.03582617922508851 0 0.34999999999912063 0 0 0.3615861437013822 0.03582617922508851 0 0.34999999999912063 0 0 0.3999999999989749 0 0 0.35312867752657662 0.084946736076730367 0 0.36246644853392812 0.1399454205365751 0 0.39823268594401579 0.1116623613130045 0 0.35312867752657662 0.084946736076730367 0 0.32215584939770009 0.1218492143506909 0 0.36246644853392812 0.1399454205365751 0 0.32541448401678508 0.046215317981507749 0 0.35312867752657662 0.084946736076730367 0 0.3096713403101819 0.085471541595262421 0 0.35312867752657662 0.084946736076730367 0 0.32215584939770009 0.1218492143506909 0 0.3096713403101819 0.085471541595262421 0 0.32215584939770009 0.1218492143506909 0 0.3096713403101819 0.085471541595262421 0 0.27474541102162192 0.11822029332053539 0 0.27499999999933927 0.060310814194988557 0 0.32541448401678508 0.046215317981507749 0 0.3096713403101819 0.085471541595262421 0 0.27499999999933927 0.060310814194988557 0 0.3096713403101819 0.085471541595262421 0 0.27474541102162192 0.11822029332053539 0 0.24218496799700481 0.089025544070598317 0 0.27499999999933927 0.060310814194988557 0 0.27474541102162192 0.11822029332053539 0 0.22985637510995899 0.1298347970200906 0 0.27474541102162192 0.11822029332053539 0 0.25557216766470708 0.15874861286892261 0 0.27474541102162192 0.11822029332053539 0 0.25557216766470708 0.15874861286892261 0 0.29336099386129338 0.15892013001050981 0 0.25557216766470708 0.15874861286892261 0 0.29336099386129338 0.15892013001050981 0 0.26429849586623999 0.19346700179430079 0 0.29336099386129338 0.15892013001050981 0 0.31255190597181792 0.19850845631528771 0 0.33084213324567391 0.16272720141332131 0 0.29336099386129338 0.15892013001050981 0 0.26429849586623999 0.19346700179430079 0 0.31255190597181792 0.19850845631528771 0 0.32215584939770009 0.1218492143506909 0 0.27474541102162192 0.11822029332053539 0 0.29336099386129338 0.15892013001050981 0 0.224700362040408 0.22206622194729711 0 0.28040350263641872 0.23054717217092141 0 0.25195515620380449 0.25883339815888678 0 0.224700362040408 0.22206622194729711 0 0.28040350263641872 0.23054717217092141 0 0.26429849586623999 0.19346700179430079 0 0.28040350263641872 0.23054717217092141 0 0.26429849586623999 0.19346700179430079 0 0.31255190597181792 0.19850845631528771 0 0.28040350263641872 0.23054717217092141 0 0.33758650185219202 0.23837101504325639 0 0.29132859388405002 0.27203693976649962 0 0.28040350263641872 0.23054717217092141 0 0.33758650185219202 0.23837101504325639 0 0.31255190597181792 0.19850845631528771 0 0.33758650185219202 0.23837101504325639 0 0.31255190597181792 0.19850845631528771 0 0.3572130504031617 0.1874703368446563 0 0.33758650185219202 0.23837101504325639 0 0.3572130504031617 0.1874703368446563 0 0.38831533174504851 0.2189834941785925 0 0.33758650185219202 0.23837101504325639 0 0.38831533174504851 0.2189834941785925 0 0.3786248352540974 0.27082301512024259 0 0.32215584939770009 0.1218492143506909 0 0.29336099386129338 0.15892013001050981 0 0.33084213324567391 0.16272720141332131 0 0.32215584939770009 0.1218492143506909 0 0.33084213324567391 0.16272720141332131 0 0.36246644853392812 0.1399454205365751 0 0.31255190597181792 0.19850845631528771 0 0.33084213324567391 0.16272720141332131 0 0.3572130504031617 0.1874703368446563 0 0.3572130504031617 0.1874703368446563 0 0.36246644853392812 0.1399454205365751 0 0.39801143831225599 0.16651381068160659 0 0.33084213324567391 0.16272720141332131 0 0.3572130504031617 0.1874703368446563 0 0.36246644853392812 0.1399454205365751 0 0.36246644853392812 0.1399454205365751 0 0.39801143831225599 0.16651381068160659 0 0.39823268594401579 0.1116623613130045 0 0.39801143831225599 0.16651381068160659 0 0.42905200079338551 0.19982395548231649 0 0.44288491854585582 0.14116182884956319 0 0.39801143831225599 0.16651381068160659 0 0.44288491854585582 0.14116182884956319 0 0.39823268594401579 0.1116623613130045 0 0.38831533174504851 0.2189834941785925 0 0.42377727103934271 0.25099357235810238 0 0.3786248352540974 0.27082301512024259 0 0.3572130504031617 0.1874703368446563 0 0.39801143831225599 0.16651381068160659 0 0.38831533174504851 0.2189834941785925 0 0.39801143831225599 0.16651381068160659 0 0.38831533174504851 0.2189834941785925 0 0.42905200079338551 0.19982395548231649 0 0.38831533174504851 0.2189834941785925 0 0.42905200079338551 0.19982395548231649 0 0.42377727103934271 0.25099357235810238 0 0.42905200079338551 0.19982395548231649 0 0.46429753744194407 0.22870891180733599 0 0.42377727103934271 0.25099357235810238 0 0.42905200079338551 0.19982395548231649 0 0.46429753744194407 0.22870891180733599 0 0.47357141910802508 0.1873585799078378 0 0.47357141910802508 0.1873585799078378 0 0.51729576145820033 0.1683240575987815 0 0.50760557329222289 0.20700468884612061 0 0.46429753744194407 0.22870891180733599 0 0.47357141910802508 0.1873585799078378 0 0.50760557329222289 0.20700468884612061 0 0.46429753744194407 0.22870891180733599 0 0.49695729691142171 0.25014895411178018 0 0.50760557329222289 0.20700468884612061 0 0.44288491854585582 0.14116182884956319 0 0.47357141910802508 0.1873585799078378 0 0.48466639505193998 0.1421439844745814 0 0.42905200079338551 0.19982395548231649 0 0.44288491854585582 0.14116182884956319 0 0.47357141910802508 0.1873585799078378 0 0.47357141910802508 0.1873585799078378 0 0.48466639505193998 0.1421439844745814 0 0.51729576145820033 0.1683240575987815 0 0.44288491854585582 0.14116182884956319 0 0.48466639505193998 0.1421439844745814 0 0.47881186583059909 0.093591717165689425 0 0.48466639505193998 0.1421439844745814 0 0.47881186583059909 0.093591717165689425 0 0.51076801031701946 0.1202837388510348 0 0.44288491854585582 0.14116182884956319 0 0.47881186583059909 0.093591717165689425 0 0.43698630808430822 0.080423614171545449 0 0.47881186583059909 0.093591717165689425 0 0.47040171442036788 0.044141676406503738 0 0.43698630808430822 0.080423614171545449 0 0.47881186583059909 0.093591717165689425 0 0.47040171442036788 0.044141676406503738 0 0.52375890611712683 0.059318771819432882 0 0.47040171442036788 0.044141676406503738 0 0.49999999999869432 0 0 0.52375890611712683 0.059318771819432882 0 0.47040171442036788 0.044141676406503738 0 0.49999999999869432 0 0 0.44999999999882923 0 0 0.47040171442036788 0.044141676406503738 0 0.44999999999882923 0 0 0.4320097814748517 0.037406712692169303 0 0.47040171442036788 0.044141676406503738 0 0.4320097814748517 0.037406712692169303 0 0.43698630808430822 0.080423614171545449 0 0.4320097814748517 0.037406712692169303 0 0.3999999999989749 0 0 0.39591832466117061 0.056982757562006353 0 0.4320097814748517 0.037406712692169303 0 0.39591832466117061 0.056982757562006353 0 0.43698630808430822 0.080423614171545449 0 0.44999999999882923 0 0 0.4320097814748517 0.037406712692169303 0 0.3999999999989749 0 0 0.3615861437013822 0.03582617922508851 0 0.3999999999989749 0 0 0.39591832466117061 0.056982757562006353 0 0.35312867752657662 0.084946736076730367 0 0.39591832466117061 0.056982757562006353 0 0.39823268594401579 0.1116623613130045 0 0.44288491854585582 0.14116182884956319 0 0.39823268594401579 0.1116623613130045 0 0.43698630808430822 0.080423614171545449 0 0.39591832466117061 0.056982757562006353 0 0.39823268594401579 0.1116623613130045 0 0.43698630808430822 0.080423614171545449 0 0.42161023666869668 0.39493916313643851 0 0.38707855792647411 0.42299362914874578 0 0.43249999999999988 0.43937499999999979 0 0.42161023666869668 0.39493916313643851 0 0.38083244760691543 0.38531983672244652 0 0.38707855792647411 0.42299362914874578 0 0.42161023666869668 0.39493916313643851 0 0.38083244760691543 0.38531983672244652 0 0.40076539126862748 0.34589349467022118 0 0.38707855792647411 0.42299362914874578 0 0.3908716102680424 0.47010282357248828 0 0.43249999999999988 0.43937499999999979 0 0.3908716102680424 0.47010282357248828 0 0.43507373378304309 0.49699695397193322 0 0.38244435121258652 0.51653317813019495 0 0.3908716102680424 0.47010282357248828 0 0.43507373378304309 0.49699695397193322 0 0.43249999999999988 0.43937499999999979 0 0.43507373378304309 0.49699695397193322 0 0.43249999999999988 0.43937499999999979 0 0.46111841286828259 0.46690301029591341 0 0.43249999999999988 0.43937499999999979 0 0.46111841286828259 0.46690301029591341 0 0.48858720058566618 0.43964267759203868 0 0.43507373378304309 0.49699695397193322 0 0.46111841286828259 0.46690301029591341 0 0.49102375406324739 0.49123754822244059 0 0.46111841286828259 0.46690301029591341 0 0.49102375406324739 0.49123754822244059 0 0.48858720058566618 0.43964267759203868 0 0.48858720058566618 0.43964267759203868 0 0.46655310992796922 0.39650496622958609 0 0.52289427570932567 0.3932284363388488 0 0.43249999999999988 0.43937499999999979 0 0.48858720058566618 0.43964267759203868 0 0.46655310992796922 0.39650496622958609 0 0.42161023666869668 0.39493916313643851 0 0.43249999999999988 0.43937499999999979 0 0.46655310992796922 0.39650496622958609 0 0.42161023666869668 0.39493916313643851 0 0.46655310992796922 0.39650496622958609 0 0.4409427642593301 0.35743108089689513 0 0.46655310992796922 0.39650496622958609 0 0.49077833859261139 0.35229981449445641 0 0.52289427570932567 0.3932284363388488 0 0.49077833859261139 0.35229981449445641 0 0.46226845272279993 0.31901800744800313 0 0.5 0.29999999999999999 0 0.49077833859261139 0.35229981449445641 0 0.46226845272279993 0.31901800744800313 0 0.4409427642593301 0.35743108089689513 0 0.46226845272279993 0.31901800744800313 0 0.4409427642593301 0.35743108089689513 0 0.41914690343363781 0.30688979866601612 0 0.46655310992796922 0.39650496622958609 0 0.49077833859261139 0.35229981449445641 0 0.4409427642593301 0.35743108089689513 0 0.49695729691142171 0.25014895411178018 0 0.4604742573284204 0.27846934318264788 0 0.5 0.29999999999999999 0 0.46429753744194407 0.22870891180733599 0 0.49695729691142171 0.25014895411178018 0 0.4604742573284204 0.27846934318264788 0 0.46226845272279993 0.31901800744800313 0 0.4604742573284204 0.27846934318264788 0 0.5 0.29999999999999999 0 0.46226845272279993 0.31901800744800313 0 0.4604742573284204 0.27846934318264788 0 0.41914690343363781 0.30688979866601612 0 0.46429753744194407 0.22870891180733599 0 0.4604742573284204 0.27846934318264788 0 0.42377727103934271 0.25099357235810238 0 0.4604742573284204 0.27846934318264788 0 0.42377727103934271 0.25099357235810238 0 0.41914690343363781 0.30688979866601612 0 0.42377727103934271 0.25099357235810238 0 0.41914690343363781 0.30688979866601612 0 0.3786248352540974 0.27082301512024259 0 0.41914690343363781 0.30688979866601612 0 0.3786248352540974 0.27082301512024259 0 0.36575549820117997 0.31677992835137742 0 0.42161023666869668 0.39493916313643851 0 0.4409427642593301 0.35743108089689513 0 0.40076539126862748 0.34589349467022118 0 0.4409427642593301 0.35743108089689513 0 0.41914690343363781 0.30688979866601612 0 0.40076539126862748 0.34589349467022118 0 0.41914690343363781 0.30688979866601612 0 0.40076539126862748 0.34589349467022118 0 0.36575549820117997 0.31677992835137742 0 0.40076539126862748 0.34589349467022118 0 0.36575549820117997 0.31677992835137742 0 0.33277555741076909 0.36432196682010132 0 0.38083244760691543 0.38531983672244652 0 0.40076539126862748 0.34589349467022118 0 0.33277555741076909 0.36432196682010132 0 0.36575549820117997 0.31677992835137742 0 0.32752639306529541 0.32610012995269699 0 0.33277555741076909 0.36432196682010132 0 0.32752639306529541 0.32610012995269699 0 0.33277555741076909 0.36432196682010132 0 0.29644548887253103 0.34914008784168082 0 0.33758650185219202 0.23837101504325639 0 0.3786248352540974 0.27082301512024259 0 0.33402499257867951 0.28911035184473982 0 0.3786248352540974 0.27082301512024259 0 0.36575549820117997 0.31677992835137742 0 0.33402499257867951 0.28911035184473982 0 0.36575549820117997 0.31677992835137742 0 0.32752639306529541 0.32610012995269699 0 0.33402499257867951 0.28911035184473982 0 0.32752639306529541 0.32610012995269699 0 0.33402499257867951 0.28911035184473982 0 0.29348325746214782 0.31350119524708198 0 0.33758650185219202 0.23837101504325639 0 0.33402499257867951 0.28911035184473982 0 0.29132859388405002 0.27203693976649962 0 0.33402499257867951 0.28911035184473982 0 0.29132859388405002 0.27203693976649962 0 0.29348325746214782 0.31350119524708198 0 0.29132859388405002 0.27203693976649962 0 0.29348325746214782 0.31350119524708198 0 0.24432083401701241 0.3006253385567515 0 0.29132859388405002 0.27203693976649962 0 0.25195515620380449 0.25883339815888678 0 0.24432083401701241 0.3006253385567515 0 0.28040350263641872 0.23054717217092141 0 0.29132859388405002 0.27203693976649962 0 0.25195515620380449 0.25883339815888678 0 0.33277555741076909 0.36432196682010132 0 0.29644548887253103 0.34914008784168082 0 0.27866744612395528 0.38416094670951489 0 0.32752639306529541 0.32610012995269699 0 0.29644548887253103 0.34914008784168082 0 0.29348325746214782 0.31350119524708198 0 0.29644548887253103 0.34914008784168082 0 0.29348325746214782 0.31350119524708198 0 0.25966125648670141 0.34351016742083729 0 0.29348325746214782 0.31350119524708198 0 0.25966125648670141 0.34351016742083729 0 0.24432083401701241 0.3006253385567515 0 0.29644548887253103 0.34914008784168082 0 0.25966125648670141 0.34351016742083729 0 0.27866744612395528 0.38416094670951489 0 0.25966125648670141 0.34351016742083729 0 0.27866744612395528 0.38416094670951489 0 0.22033343844674469 0.36963382230740238 0 0.27866744612395528 0.38416094670951489 0 0.29124338931648802 0.43334555462578611 0 0.24049127783545701 0.41270748208749802 0 0.29124338931648802 0.43334555462578611 0 0.25982634974572738 0.46097799597715272 0 0.24049127783545701 0.41270748208749802 0 0.27866744612395528 0.38416094670951489 0 0.29124338931648802 0.43334555462578611 0 0.31778888742534622 0.40581751814196781 0 0.33277555741076909 0.36432196682010132 0 0.27866744612395528 0.38416094670951489 0 0.31778888742534622 0.40581751814196781 0 0.33277555741076909 0.36432196682010132 0 0.31778888742534622 0.40581751814196781 0 0.35221190152536241 0.40457127605439203 0 0.31778888742534622 0.40581751814196781 0 0.35221190152536241 0.40457127605439203 0 0.34258405725730701 0.4444034294386992 0 0.29124338931648802 0.43334555462578611 0 0.31778888742534622 0.40581751814196781 0 0.34258405725730701 0.4444034294386992 0 0.38707855792647411 0.42299362914874578 0 0.35221190152536241 0.40457127605439203 0 0.34258405725730701 0.4444034294386992 0 0.38083244760691543 0.38531983672244652 0 0.38707855792647411 0.42299362914874578 0 0.35221190152536241 0.40457127605439203 0 0.38083244760691543 0.38531983672244652 0 0.33277555741076909 0.36432196682010132 0 0.35221190152536241 0.40457127605439203 0 0.3908716102680424 0.47010282357248828 0 0.35024835142131061 0.48654922671676981 0 0.38244435121258652 0.51653317813019495 0 0.3908716102680424 0.47010282357248828 0 0.35024835142131061 0.48654922671676981 0 0.34258405725730701 0.4444034294386992 0 0.38707855792647411 0.42299362914874578 0 0.3908716102680424 0.47010282357248828 0 0.34258405725730701 0.4444034294386992 0 0.29124338931648802 0.43334555462578611 0 0.34258405725730701 0.4444034294386992 0 0.31068898841644388 0.47541502461811092 0 0.35024835142131061 0.48654922671676981 0 0.31068898841644388 0.47541502461811092 0 0.33190227185843768 0.52715113583864037 0 0.35024835142131061 0.48654922671676981 0 0.34258405725730701 0.4444034294386992 0 0.31068898841644388 0.47541502461811092 0 0.31068898841644388 0.47541502461811092 0 0.25982634974572738 0.46097799597715272 0 0.28307294598219601 0.50789252727458634 0 0.29124338931648802 0.43334555462578611 0 0.31068898841644388 0.47541502461811092 0 0.25982634974572738 0.46097799597715272 0 0.25982634974572738 0.46097799597715272 0 0.23975172658309729 0.49475499200540818 0 0.28307294598219601 0.50789252727458634 0 0.23975172658309729 0.49475499200540818 0 0.19604738184454831 0.47787523520405789 0 0.22278230690790279 0.44824268025881547 0 0.19604738184454831 0.47787523520405789 0 0.22278230690790279 0.44824268025881547 0 0.191953871957803 0.42546416763755879 0 0.25982634974572738 0.46097799597715272 0 0.22278230690790279 0.44824268025881547 0 0.24049127783545701 0.41270748208749802 0 0.25982634974572738 0.46097799597715272 0 0.23975172658309729 0.49475499200540818 0 0.22278230690790279 0.44824268025881547 0 0.27866744612395528 0.38416094670951489 0 0.24049127783545701 0.41270748208749802 0 0.22033343844674469 0.36963382230740238 0 0.191953871957803 0.42546416763755879 0 0.1650278706801647 0.38791388161335733 0 0.22033343844674469 0.36963382230740238 0 0.24049127783545701 0.41270748208749802 0 0.191953871957803 0.42546416763755879 0 0.22033343844674469 0.36963382230740238 0 0.22278230690790279 0.44824268025881547 0 0.24049127783545701 0.41270748208749802 0 0.191953871957803 0.42546416763755879 0 0.191953871957803 0.42546416763755879 0 0.13773355295499351 0.42497777642586831 0 0.15801167086041079 0.46008690540259539 0 0.191953871957803 0.42546416763755879 0 0.1650278706801647 0.38791388161335733 0 0.13773355295499351 0.42497777642586831 0 0.1650278706801647 0.38791388161335733 0 0.13773355295499351 0.42497777642586831 0 0.1117088112799664 0.38831403004970022 0 0.13773355295499351 0.42497777642586831 0 0.15801167086041079 0.46008690540259539 0 0.113541300460994 0.46208784312094731 0 0.15801167086041079 0.46008690540259539 0 0.113541300460994 0.46208784312094731 0 0.1216098864341134 0.50637075089503902 0 0.15801167086041079 0.46008690540259539 0 0.1216098864341134 0.50637075089503902 0 0.16618607197337229 0.50652878253548905 0 0.19604738184454831 0.47787523520405789 0 0.15801167086041079 0.46008690540259539 0 0.16618607197337229 0.50652878253548905 0 0.19604738184454831 0.47787523520405789 0 0.191953871957803 0.42546416763755879 0 0.15801167086041079 0.46008690540259539 0 0.25195515620380449 0.25883339815888678 0 0.21049769590865089 0.26857363548218488 0 0.24432083401701241 0.3006253385567515 0 0.21049769590865089 0.26857363548218488 0 0.24432083401701241 0.3006253385567515 0 0.19670163708476801 0.31472518408333222 0 0.21049769590865089 0.26857363548218488 0 0.19670163708476801 0.31472518408333222 0 0.168349569971391 0.28054490850913671 0 0.19670163708476801 0.31472518408333222 0 0.22615676742807109 0.33458786033114157 0 0.18434624290945251 0.35208838264196463 0 0.24432083401701241 0.3006253385567515 0 0.19670163708476801 0.31472518408333222 0 0.22615676742807109 0.33458786033114157 0 0.25966125648670141 0.34351016742083729 0 0.24432083401701241 0.3006253385567515 0 0.22615676742807109 0.33458786033114157 0 0.25966125648670141 0.34351016742083729 0 0.22615676742807109 0.33458786033114157 0 0.22033343844674469 0.36963382230740238 0 0.22615676742807109 0.33458786033114157 0 0.22033343844674469 0.36963382230740238 0 0.18434624290945251 0.35208838264196463 0 0.1650278706801647 0.38791388161335733 0 0.22033343844674469 0.36963382230740238 0 0.18434624290945251 0.35208838264196463 0 0.1650278706801647 0.38791388161335733 0 0.18434624290945251 0.35208838264196463 0 0.14223753364722069 0.3341983344262433 0 0.1650278706801647 0.38791388161335733 0 0.14223753364722069 0.3341983344262433 0 0.1117088112799664 0.38831403004970022 0 0.19670163708476801 0.31472518408333222 0 0.18434624290945251 0.35208838264196463 0 0.14223753364722069 0.3341983344262433 0 0.19670163708476801 0.31472518408333222 0 0.14223753364722069 0.3341983344262433 0 0.168349569971391 0.28054490850913671 0 0.14223753364722069 0.3341983344262433 0 0.168349569971391 0.28054490850913671 0 0.1247745017231483 0.27198077544791172 0 0.14377654328998779 0.2442024734791064 0 0.168349569971391 0.28054490850913671 0 0.1247745017231483 0.27198077544791172 0 0.17933913398461551 0.2350063570234002 0 0.21049769590865089 0.26857363548218488 0 0.168349569971391 0.28054490850913671 0 0.17933913398461551 0.2350063570234002 0 0.14377654328998779 0.2442024734791064 0 0.168349569971391 0.28054490850913671 0 0.095326043202144745 0.24554465089224409 0 0.093851963071650835 0.30582068233324772 0 0.049706944316556423 0.27522722923869108 0 0.095326043202144745 0.24554465089224409 0 0.14377654328998779 0.2442024734791064 0 0.1247745017231483 0.27198077544791172 0 0.095326043202144745 0.24554465089224409 0 0.1247745017231483 0.27198077544791172 0 0.093851963071650835 0.30582068233324772 0 0.14223753364722069 0.3341983344262433 0 0.1247745017231483 0.27198077544791172 0 0.093851963071650835 0.30582068233324772 0 0.093851963071650835 0.30582068233324772 0 0.046389130980076937 0.32668781832131749 0 0.049706944316556423 0.27522722923869108 0 0.093851963071650835 0.30582068233324772 0 0.087545339447545459 0.35122518864182262 0 0.046389130980076937 0.32668781832131749 0 0.14223753364722069 0.3341983344262433 0 0.093851963071650835 0.30582068233324772 0 0.087545339447545459 0.35122518864182262 0 0.14223753364722069 0.3341983344262433 0 0.087545339447545459 0.35122518864182262 0 0.1117088112799664 0.38831403004970022 0 0.087545339447545459 0.35122518864182262 0 0.1117088112799664 0.38831403004970022 0 0.050583896093752537 0.38543522283434112 0 0.087545339447545459 0.35122518864182262 0 0.046389130980076937 0.32668781832131749 0 0.050583896093752537 0.38543522283434112 0 0 0.35000000000145642 0 0.046389130980076937 0.32668781832131749 0 0.050583896093752537 0.38543522283434112 0 0 0.35000000000145642 0 0.046389130980076937 0.32668781832131749 0 0 0.30000000000124832 0 0.046389130980076937 0.32668781832131749 0 0 0.30000000000124832 0 0.049706944316556423 0.27522722923869108 0 0 0.30000000000124832 0 0 0.25000000000104028 0 0.049706944316556423 0.27522722923869108 0 0.044081577119474857 0.2271058242433576 0 0 0.25000000000104028 0 0.049706944316556423 0.27522722923869108 0 0.068743045408989428 0.48853989837882689 0 0.113541300460994 0.46208784312094731 0 0.078358742472063481 0.43365249433908948 0 0.068743045408989428 0.48853989837882689 0 0.113541300460994 0.46208784312094731 0 0.1216098864341134 0.50637075089503902 0 0.13773355295499351 0.42497777642586831 0 0.113541300460994 0.46208784312094731 0 0.078358742472063481 0.43365249433908948 0 0.13773355295499351 0.42497777642586831 0 0.1117088112799664 0.38831403004970022 0 0.078358742472063481 0.43365249433908948 0 0.1117088112799664 0.38831403004970022 0 0.078358742472063481 0.43365249433908948 0 0.050583896093752537 0.38543522283434112 0 0.078358742472063481 0.43365249433908948 0 0.035463093262830522 0.42673416072819947 0 0.050583896093752537 0.38543522283434112 0 0 0.35000000000145642 0 0.050583896093752537 0.38543522283434112 0 0 0.40000000000166441 0 0.035463093262830522 0.42673416072819947 0 0.050583896093752537 0.38543522283434112 0 0 0.40000000000166441 0 0.035463093262830522 0.42673416072819947 0 0 0.40000000000166441 0 0 0.45000000000187229 0 0.035463093262830522 0.42673416072819947 0 0 0.45000000000187229 0 0.033550201249889847 0.46247875832467239 0 0.068743045408989428 0.48853989837882689 0 0.033550201249889847 0.46247875832467239 0 0 0.50000000000205869 0 0.068743045408989428 0.48853989837882689 0 0.078358742472063481 0.43365249433908948 0 0.033550201249889847 0.46247875832467239 0 0.078358742472063481 0.43365249433908948 0 0.035463093262830522 0.42673416072819947 0 0.033550201249889847 0.46247875832467239 0 0 0.45000000000187229 0 0.033550201249889847 0.46247875832467239 0 0 0.50000000000205869 0 0.068743045408989428 0.48853989837882689 0 0 0.50000000000205869 0 0.044576108720083309 0.53509043209532614 0 0 0.50000000000205869 0 0 0.55000000000173355 0 0.044576108720083309 0.53509043209532614 0 0 0.55000000000173355 0 0.044576108720083309 0.53509043209532614 0 0.034381862692950467 0.57372682250960894 0 0.044576108720083309 0.53509043209532614 0 0.077693244765132896 0.56932317963405099 0 0.034381862692950467 0.57372682250960894 0 0.068743045408989428 0.48853989837882689 0 0.044576108720083309 0.53509043209532614 0 0.085622222639554768 0.53333248912060549 0 0.068743045408989428 0.48853989837882689 0 0.085622222639554768 0.53333248912060549 0 0.1216098864341134 0.50637075089503902 0 0.044576108720083309 0.53509043209532614 0 0.085622222639554768 0.53333248912060549 0 0.077693244765132896 0.56932317963405099 0 0.085622222639554768 0.53333248912060549 0 0.1154888278694548 0.56733818459978413 0 0.077693244765132896 0.56932317963405099 0 0.085622222639554768 0.53333248912060549 0 0.1216098864341134 0.50637075089503902 0 0.1154888278694548 0.56733818459978413 0 0.1024350934457823 0.60772393977513839 0 0.1154888278694548 0.56733818459978413 0 0.077693244765132896 0.56932317963405099 0 0.1024350934457823 0.60772393977513839 0 0.050069554451969707 0.61308520079857043 0 0.086179601630648681 0.64647209519980475 0 0.1024350934457823 0.60772393977513839 0 0.077693244765132896 0.56932317963405099 0 0.050069554451969707 0.61308520079857043 0 0.077693244765132896 0.56932317963405099 0 0.050069554451969707 0.61308520079857043 0 0.034381862692950467 0.57372682250960894 0 0 0.55000000000173355 0 0.034381862692950467 0.57372682250960894 0 0 0.60000000000138687 0 0.050069554451969707 0.61308520079857043 0 0 0.60000000000138687 0 0 0.65000000000104008 0 0.050069554451969707 0.61308520079857043 0 0.034381862692950467 0.57372682250960894 0 0 0.60000000000138687 0 0 0.65000000000104008 0 0.046634677244967337 0.671418230738282 0 0 0.7000000000006934 0 0.050069554451969707 0.61308520079857043 0 0.046634677244967337 0.671418230738282 0 0.086179601630648681 0.64647209519980475 0 0.050069554451969707 0.61308520079857043 0 0 0.65000000000104008 0 0.046634677244967337 0.671418230738282 0 0 0.7000000000006934 0 0.049706944316475897 0.72477277076253799 0 0 0.75000000000034661 0 0.046634677244967337 0.671418230738282 0 0 0.7000000000006934 0 0.049706944316475897 0.72477277076253799 0 0.049706944316475897 0.72477277076253799 0 0 0.75000000000034661 0 0.04408157711937423 0.7728941757575627 0 0.049706944316475897 0.72477277076253799 0 0.1020579365089687 0.69352219419301997 0 0.090953281884486245 0.7564451946902494 0 0.1020579365089687 0.69352219419301997 0 0.1215415378367805 0.72939333680004137 0 0.090953281884486245 0.7564451946902494 0 0.046634677244967337 0.671418230738282 0 0.049706944316475897 0.72477277076253799 0 0.1020579365089687 0.69352219419301997 0 0.1215415378367805 0.72939333680004137 0 0.090953281884486245 0.7564451946902494 0 0.14335651144331049 0.75565258250209677 0 0.046634677244967337 0.671418230738282 0 0.1020579365089687 0.69352219419301997 0 0.086179601630648681 0.64647209519980475 0 0.1020579365089687 0.69352219419301997 0 0.086179601630648681 0.64647209519980475 0 0.1241190223511371 0.64391885572885044 0 0.1024350934457823 0.60772393977513839 0 0.086179601630648681 0.64647209519980475 0 0.1241190223511371 0.64391885572885044 0 0.1020579365089687 0.69352219419301997 0 0.1241190223511371 0.64391885572885044 0 0.16500388252850301 0.66612077714085194 0 0.1241190223511371 0.64391885572885044 0 0.16500388252850301 0.66612077714085194 0 0.15720202157091859 0.60665697304410315 0 0.16500388252850301 0.66612077714085194 0 0.19914261668318661 0.62286739485272158 0 0.15720202157091859 0.60665697304410315 0 0.1020579365089687 0.69352219419301997 0 0.16500388252850301 0.66612077714085194 0 0.15332765547575641 0.71200081858233666 0 0.1215415378367805 0.72939333680004137 0 0.15332765547575641 0.71200081858233666 0 0.14335651144331049 0.75565258250209677 0 0.1020579365089687 0.69352219419301997 0 0.1215415378367805 0.72939333680004137 0 0.15332765547575641 0.71200081858233666 0 0.16500388252850301 0.66612077714085194 0 0.15332765547575641 0.71200081858233666 0 0.19068556247388771 0.71028988922845504 0 0.15332765547575641 0.71200081858233666 0 0.14335651144331049 0.75565258250209677 0 0.18269480424590959 0.75905448272264375 0 0.15332765547575641 0.71200081858233666 0 0.19068556247388771 0.71028988922845504 0 0.18269480424590959 0.75905448272264375 0 0.19068556247388771 0.71028988922845504 0 0.2248999640082178 0.72584299459689172 0 0.18269480424590959 0.75905448272264375 0 0.19068556247388771 0.71028988922845504 0 0.2248999640082178 0.72584299459689172 0 0.2236846579037573 0.67380363126050236 0 0.2248999640082178 0.72584299459689172 0 0.2236846579037573 0.67380363126050236 0 0.26439878998046262 0.7048065392091396 0 0.2248999640082178 0.72584299459689172 0 0.22556077506376701 0.77837424984191617 0 0.25676291524611189 0.7436741304886243 0 0.2248999640082178 0.72584299459689172 0 0.25676291524611189 0.7436741304886243 0 0.26439878998046262 0.7048065392091396 0 0.16500388252850301 0.66612077714085194 0 0.2236846579037573 0.67380363126050236 0 0.19914261668318661 0.62286739485272158 0 0.16500388252850301 0.66612077714085194 0 0.19068556247388771 0.71028988922845504 0 0.2236846579037573 0.67380363126050236 0 0.2236846579037573 0.67380363126050236 0 0.2459498854893499 0.63248470766216769 0 0.19914261668318661 0.62286739485272158 0 0.2236846579037573 0.67380363126050236 0 0.2459498854893499 0.63248470766216769 0 0.27820712747429932 0.65530134213254643 0 0.2459498854893499 0.63248470766216769 0 0.19914261668318661 0.62286739485272158 0 0.22549374774072969 0.58452645269293457 0 0.2459498854893499 0.63248470766216769 0 0.22549374774072969 0.58452645269293457 0 0.26573297623774761 0.59828298563722948 0 0.19914261668318661 0.62286739485272158 0 0.22549374774072969 0.58452645269293457 0 0.18381867841758909 0.57774125163628387 0 0.22549374774072969 0.58452645269293457 0 0.20050006573841939 0.53248514016039872 0 0.18381867841758909 0.57774125163628387 0 0.22549374774072969 0.58452645269293457 0 0.25115337790845271 0.54719303014923271 0 0.26573297623774761 0.59828298563722948 0 0.22549374774072969 0.58452645269293457 0 0.20050006573841939 0.53248514016039872 0 0.25115337790845271 0.54719303014923271 0 0.23975172658309729 0.49475499200540818 0 0.20050006573841939 0.53248514016039872 0 0.25115337790845271 0.54719303014923271 0 0.19604738184454831 0.47787523520405789 0 0.20050006573841939 0.53248514016039872 0 0.16618607197337229 0.50652878253548905 0 0.23975172658309729 0.49475499200540818 0 0.19604738184454831 0.47787523520405789 0 0.20050006573841939 0.53248514016039872 0 0.20050006573841939 0.53248514016039872 0 0.14934928745814749 0.55042914607228977 0 0.18381867841758909 0.57774125163628387 0 0.20050006573841939 0.53248514016039872 0 0.16618607197337229 0.50652878253548905 0 0.14934928745814749 0.55042914607228977 0 0.1216098864341134 0.50637075089503902 0 0.16618607197337229 0.50652878253548905 0 0.14934928745814749 0.55042914607228977 0 0.1216098864341134 0.50637075089503902 0 0.1154888278694548 0.56733818459978413 0 0.14934928745814749 0.55042914607228977 0 0.1154888278694548 0.56733818459978413 0 0.14934928745814749 0.55042914607228977 0 0.15720202157091859 0.60665697304410315 0 0.1024350934457823 0.60772393977513839 0 0.1154888278694548 0.56733818459978413 0 0.15720202157091859 0.60665697304410315 0 0.1024350934457823 0.60772393977513839 0 0.1241190223511371 0.64391885572885044 0 0.15720202157091859 0.60665697304410315 0 0.19914261668318661 0.62286739485272158 0 0.15720202157091859 0.60665697304410315 0 0.18381867841758909 0.57774125163628387 0 0.14934928745814749 0.55042914607228977 0 0.15720202157091859 0.60665697304410315 0 0.18381867841758909 0.57774125163628387 0 0.10000000000041601 1 0 0.10266856499240549 0.95548163909968886 0 0.15000000000062411 1 0 0.10266856499240549 0.95548163909968886 0 0.053064897599294662 0.95186845269532028 0 0.083411279318375747 0.91030024466934134 0 0.10000000000041601 1 0 0.050000000000207989 1 0 0.053064897599294662 0.95186845269532028 0 0.10000000000041601 1 0 0.10266856499240549 0.95548163909968886 0 0.053064897599294662 0.95186845269532028 0 0.050000000000207989 1 0 0.025766224399875661 0.97546711317377799 0 0.053064897599294662 0.95186845269532028 0 0.050000000000207989 1 0 0 1 0 0.025766224399875661 0.97546711317377799 0 0 1 0 0.025766224399875661 0.97546711317377799 0 0 0.94999999999979179 0 0.025766224399875661 0.97546711317377799 0 0 0.94999999999979179 0 0.053064897599294662 0.95186845269532028 0 0 0.94999999999979179 0 0.053064897599294662 0.95186845269532028 0 0.0443105827531413 0.89858748162559932 0 0.053064897599294662 0.95186845269532028 0 0.0443105827531413 0.89858748162559932 0 0.083411279318375747 0.91030024466934134 0 0 0.94999999999979179 0 0 0.89999999999958358 0 0.0443105827531413 0.89858748162559932 0 0 0.89999999999958358 0 0.0443105827531413 0.89858748162559932 0 0 0.84999999999965292 0 0.0443105827531413 0.89858748162559932 0 0.083411279318375747 0.91030024466934134 0 0.065374659239661639 0.8551091961254178 0 0.083411279318375747 0.91030024466934134 0 0.10562472963403439 0.87143394428979881 0 0.065374659239661639 0.8551091961254178 0 0.10266856499240549 0.95548163909968886 0 0.083411279318375747 0.91030024466934134 0 0.1241151115713819 0.9045666525468371 0 0.10266856499240549 0.95548163909968886 0 0.1241151115713819 0.9045666525468371 0 0.14617343800780541 0.93808063414349496 0 0.1241151115713819 0.9045666525468371 0 0.10562472963403439 0.87143394428979881 0 0.14474682429600511 0.85524784522713515 0 0.083411279318375747 0.91030024466934134 0 0.1241151115713819 0.9045666525468371 0 0.10562472963403439 0.87143394428979881 0 0.10562472963403439 0.87143394428979881 0 0.1074251789111534 0.83564394292147814 0 0.14474682429600511 0.85524784522713515 0 0.1074251789111534 0.83564394292147814 0 0.065374659239661639 0.8551091961254178 0 0.083105206071452636 0.79992298667296435 0 0.10562472963403439 0.87143394428979881 0 0.1074251789111534 0.83564394292147814 0 0.065374659239661639 0.8551091961254178 0 0.065374659239661639 0.8551091961254178 0 0 0.84999999999965292 0 0.038512288486097702 0.8155852717111195 0 0.0443105827531413 0.89858748162559932 0 0.065374659239661639 0.8551091961254178 0 0 0.84999999999965292 0 0 0.84999999999965292 0 0.038512288486097702 0.8155852717111195 0 0 0.79999999999999982 0 0.065374659239661639 0.8551091961254178 0 0.038512288486097702 0.8155852717111195 0 0.083105206071452636 0.79992298667296435 0 0.038512288486097702 0.8155852717111195 0 0.04408157711937423 0.7728941757575627 0 0.083105206071452636 0.79992298667296435 0 0.038512288486097702 0.8155852717111195 0 0 0.79999999999999982 0 0.04408157711937423 0.7728941757575627 0 0 0.79999999999999982 0 0 0.75000000000034661 0 0.04408157711937423 0.7728941757575627 0 0.049706944316475897 0.72477277076253799 0 0.04408157711937423 0.7728941757575627 0 0.090953281884486245 0.7564451946902494 0 0.04408157711937423 0.7728941757575627 0 0.090953281884486245 0.7564451946902494 0 0.083105206071452636 0.79992298667296435 0 0.1074251789111534 0.83564394292147814 0 0.083105206071452636 0.79992298667296435 0 0.1382744753146134 0.79650574229207483 0 0.090953281884486245 0.7564451946902494 0 0.083105206071452636 0.79992298667296435 0 0.1382744753146134 0.79650574229207483 0 0.090953281884486245 0.7564451946902494 0 0.14335651144331049 0.75565258250209677 0 0.1382744753146134 0.79650574229207483 0 0.14335651144331049 0.75565258250209677 0 0.1382744753146134 0.79650574229207483 0 0.18269480424590959 0.75905448272264375 0 0.1382744753146134 0.79650574229207483 0 0.18269480424590959 0.75905448272264375 0 0.17777405986036951 0.81832336108265358 0 0.2248999640082178 0.72584299459689172 0 0.18269480424590959 0.75905448272264375 0 0.22556077506376701 0.77837424984191617 0 0.22556077506376701 0.77837424984191617 0 0.21858834311891909 0.81980263716112767 0 0.26104540868854792 0.81401944968719064 0 0.22556077506376701 0.77837424984191617 0 0.21858834311891909 0.81980263716112767 0 0.17777405986036951 0.81832336108265358 0 0.18269480424590959 0.75905448272264375 0 0.22556077506376701 0.77837424984191617 0 0.17777405986036951 0.81832336108265358 0 0.21858834311891909 0.81980263716112767 0 0.19741632902693801 0.86755867406447229 0 0.17777405986036951 0.81832336108265358 0 0.21858834311891909 0.81980263716112767 0 0.2401283238295133 0.85648409884788523 0 0.26104540868854792 0.81401944968719064 0 0.21858834311891909 0.81980263716112767 0 0.2401283238295133 0.85648409884788523 0 0.19741632902693801 0.86755867406447229 0 0.19741632902693801 0.86755867406447229 0 0.17777405986036951 0.81832336108265358 0 0.14474682429600511 0.85524784522713515 0 0.19741632902693801 0.86755867406447229 0 0.14474682429600511 0.85524784522713515 0 0.16206583317966519 0.89685560785156404 0 0.1382744753146134 0.79650574229207483 0 0.17777405986036951 0.81832336108265358 0 0.14474682429600511 0.85524784522713515 0 0.1074251789111534 0.83564394292147814 0 0.1382744753146134 0.79650574229207483 0 0.14474682429600511 0.85524784522713515 0 0.1241151115713819 0.9045666525468371 0 0.14474682429600511 0.85524784522713515 0 0.16206583317966519 0.89685560785156404 0 0.1241151115713819 0.9045666525468371 0 0.16206583317966519 0.89685560785156404 0 0.14617343800780541 0.93808063414349496 0 0.16206583317966519 0.89685560785156404 0 0.19901705110390991 0.9175543425573498 0 0.14617343800780541 0.93808063414349496 0 0.19741632902693801 0.86755867406447229 0 0.16206583317966519 0.89685560785156404 0 0.19901705110390991 0.9175543425573498 0 0.19741632902693801 0.86755867406447229 0 0.24536017905392571 0.90704567837671446 0 0.19901705110390991 0.9175543425573498 0 0.2401283238295133 0.85648409884788523 0 0.19741632902693801 0.86755867406447229 0 0.24536017905392571 0.90704567837671446 0 0.24536017905392571 0.90704567837671446 0 0.19901705110390991 0.9175543425573498 0 0.22850979588452081 0.95594428570238643 0 0.19901705110390991 0.9175543425573498 0 0.22850979588452081 0.95594428570238643 0 0.18474005699953849 0.96231585248064622 0 0.24536017905392571 0.90704567837671446 0 0.22850979588452081 0.95594428570238643 0 0.27609987656793722 0.94991445621608572 0 0.22850979588452081 0.95594428570238643 0 0.20000000000083221 1 0 0.25000000000104028 1 0 0.22850979588452081 0.95594428570238643 0 0.20000000000083221 1 0 0.18474005699953849 0.96231585248064622 0 0.20000000000083221 1 0 0.18474005699953849 0.96231585248064622 0 0.15000000000062411 1 0 0.19901705110390991 0.9175543425573498 0 0.18474005699953849 0.96231585248064622 0 0.14617343800780541 0.93808063414349496 0 0.18474005699953849 0.96231585248064622 0 0.14617343800780541 0.93808063414349496 0 0.15000000000062411 1 0 0.10266856499240549 0.95548163909968886 0 0.14617343800780541 0.93808063414349496 0 0.15000000000062411 1 0 0.35000000000145642 1 0 0.36184234618600131 0.96443954459096326 0 0.32544832635163229 0.95485394099568932 0 0.35000000000145642 1 0 0.36184234618600131 0.96443954459096326 0 0.40000000000166441 1 0 0.36184234618600131 0.96443954459096326 0 0.32544832635163229 0.95485394099568932 0 0.35752321586431363 0.9185439911803448 0 0.36184234618600131 0.96443954459096326 0 0.35752321586431363 0.9185439911803448 0 0.39641108128798319 0.94356127926187128 0 0.35000000000145642 1 0 0.32544832635163229 0.95485394099568932 0 0.30000000000124832 1 0 0.30000000000124832 1 0 0.25000000000104028 1 0 0.27609987656793722 0.94991445621608572 0 0.22850979588452081 0.95594428570238643 0 0.25000000000104028 1 0 0.27609987656793722 0.94991445621608572 0 0.32544832635163229 0.95485394099568932 0 0.30000000000124832 1 0 0.27609987656793722 0.94991445621608572 0 0.32544832635163229 0.95485394099568932 0 0.27609987656793722 0.94991445621608572 0 0.30864387279288652 0.89906554525974958 0 0.24536017905392571 0.90704567837671446 0 0.27270076654418179 0.87751467830216623 0 0.30864387279288652 0.89906554525974958 0 0.24536017905392571 0.90704567837671446 0 0.27609987656793722 0.94991445621608572 0 0.30864387279288652 0.89906554525974958 0 0.2401283238295133 0.85648409884788523 0 0.24536017905392571 0.90704567837671446 0 0.27270076654418179 0.87751467830216623 0 0.30864387279288652 0.89906554525974958 0 0.35752321586431363 0.9185439911803448 0 0.35864759629805099 0.87963482415279515 0 0.32544832635163229 0.95485394099568932 0 0.30864387279288652 0.89906554525974958 0 0.35752321586431363 0.9185439911803448 0 0.35752321586431363 0.9185439911803448 0 0.35864759629805099 0.87963482415279515 0 0.39767323751400468 0.89584229130535065 0 0.35864759629805099 0.87963482415279515 0 0.33403534827021109 0.84402799729020661 0 0.39536230704883951 0.84069429572832477 0 0.33403534827021109 0.84402799729020661 0 0.35642984951668422 0.80994399665655703 0 0.39536230704883951 0.84069429572832477 0 0.33403534827021109 0.84402799729020661 0 0.30857225866488791 0.81101973481716805 0 0.35642984951668422 0.80994399665655703 0 0.30864387279288652 0.89906554525974958 0 0.35864759629805099 0.87963482415279515 0 0.33403534827021109 0.84402799729020661 0 0.30864387279288652 0.89906554525974958 0 0.33403534827021109 0.84402799729020661 0 0.29209212897034281 0.84715728365233667 0 0.27270076654418179 0.87751467830216623 0 0.30864387279288652 0.89906554525974958 0 0.29209212897034281 0.84715728365233667 0 0.2401283238295133 0.85648409884788523 0 0.27270076654418179 0.87751467830216623 0 0.29209212897034281 0.84715728365233667 0 0.2401283238295133 0.85648409884788523 0 0.29209212897034281 0.84715728365233667 0 0.26104540868854792 0.81401944968719064 0 0.29209212897034281 0.84715728365233667 0 0.26104540868854792 0.81401944968719064 0 0.30857225866488791 0.81101973481716805 0 0.33403534827021109 0.84402799729020661 0 0.29209212897034281 0.84715728365233667 0 0.30857225866488791 0.81101973481716805 0 0.26104540868854792 0.81401944968719064 0 0.30857225866488791 0.81101973481716805 0 0.2792923945214143 0.77665808831789485 0 0.30857225866488791 0.81101973481716805 0 0.2792923945214143 0.77665808831789485 0 0.33123028043633618 0.77629643437932982 0 0.22556077506376701 0.77837424984191617 0 0.26104540868854792 0.81401944968719064 0 0.2792923945214143 0.77665808831789485 0 0.2792923945214143 0.77665808831789485 0 0.25676291524611189 0.7436741304886243 0 0.29904318922293632 0.74132814928635593 0 0.22556077506376701 0.77837424984191617 0 0.2792923945214143 0.77665808831789485 0 0.25676291524611189 0.7436741304886243 0 0.2792923945214143 0.77665808831789485 0 0.33123028043633618 0.77629643437932982 0 0.29904318922293632 0.74132814928635593 0 0.33123028043633618 0.77629643437932982 0 0.29904318922293632 0.74132814928635593 0 0.35415581127540569 0.73730480045900215 0 0.30857225866488791 0.81101973481716805 0 0.33123028043633618 0.77629643437932982 0 0.35642984951668422 0.80994399665655703 0 0.33123028043633618 0.77629643437932982 0 0.35642984951668422 0.80994399665655703 0 0.38586766253264881 0.78219501014812498 0 0.33123028043633618 0.77629643437932982 0 0.38586766253264881 0.78219501014812498 0 0.35415581127540569 0.73730480045900215 0 0.38586766253264881 0.78219501014812498 0 0.42676259796334498 0.76772545931379299 0 0.40326160981139969 0.73346192995102844 0 0.38586766253264881 0.78219501014812498 0 0.35415581127540569 0.73730480045900215 0 0.40326160981139969 0.73346192995102844 0 0.38586766253264881 0.78219501014812498 0 0.42609163930740518 0.80361684430568059 0 0.39536230704883951 0.84069429572832477 0 0.35642984951668422 0.80994399665655703 0 0.38586766253264881 0.78219501014812498 0 0.39536230704883951 0.84069429572832477 0 0.38586766253264881 0.78219501014812498 0 0.42609163930740518 0.80361684430568059 0 0.42676259796334498 0.76772545931379299 0 0.42676259796334498 0.76772545931379299 0 0.4656888918609538 0.78493261229743638 0 0.45582236402875981 0.73896743678908217 0 0.4656888918609538 0.78493261229743638 0 0.45582236402875981 0.73896743678908217 0 0.50945740445113552 0.75476055527778108 0 0.4656888918609538 0.78493261229743638 0 0.50731287292894423 0.78963574450233831 0 0.50945740445113552 0.75476055527778108 0 0.4656888918609538 0.78493261229743638 0 0.50627822638148745 0.8263979829520941 0 0.50731287292894423 0.78963574450233831 0 0.42609163930740518 0.80361684430568059 0 0.4656888918609538 0.78493261229743638 0 0.45677673713123867 0.84253684404072415 0 0.42609163930740518 0.80361684430568059 0 0.42676259796334498 0.76772545931379299 0 0.4656888918609538 0.78493261229743638 0 0.4656888918609538 0.78493261229743638 0 0.45677673713123867 0.84253684404072415 0 0.50627822638148745 0.8263979829520941 0 0.45677673713123867 0.84253684404072415 0 0.50202631463681879 0.87892870825713787 0 0.50627822638148745 0.8263979829520941 0 0.45677673713123867 0.84253684404072415 0 0.44003836461056539 0.88093474584252718 0 0.50202631463681879 0.87892870825713787 0 0.45677673713123867 0.84253684404072415 0 0.39536230704883951 0.84069429572832477 0 0.44003836461056539 0.88093474584252718 0 0.39536230704883951 0.84069429572832477 0 0.39767323751400468 0.89584229130535065 0 0.44003836461056539 0.88093474584252718 0 0.42609163930740518 0.80361684430568059 0 0.45677673713123867 0.84253684404072415 0 0.39536230704883951 0.84069429572832477 0 0.35864759629805099 0.87963482415279515 0 0.39536230704883951 0.84069429572832477 0 0.39767323751400468 0.89584229130535065 0 0.35752321586431363 0.9185439911803448 0 0.39767323751400468 0.89584229130535065 0 0.39641108128798319 0.94356127926187128 0 0.39767323751400468 0.89584229130535065 0 0.4367309254023824 0.92065556789053882 0 0.39641108128798319 0.94356127926187128 0 0.39767323751400468 0.89584229130535065 0 0.4367309254023824 0.92065556789053882 0 0.44003836461056539 0.88093474584252718 0 0.4367309254023824 0.92065556789053882 0 0.44003836461056539 0.88093474584252718 0 0.47401147028110507 0.91529957330468115 0 0.44003836461056539 0.88093474584252718 0 0.47401147028110507 0.91529957330468115 0 0.50202631463681879 0.87892870825713787 0 0.47401147028110507 0.91529957330468115 0 0.47135117303824892 0.95556877749289892 0 0.52122150208832174 0.94089974453840242 0 0.47401147028110507 0.91529957330468115 0 0.52122150208832174 0.94089974453840242 0 0.50202631463681879 0.87892870825713787 0 0.4367309254023824 0.92065556789053882 0 0.47401147028110507 0.91529957330468115 0 0.47135117303824892 0.95556877749289892 0 0.4367309254023824 0.92065556789053882 0 0.47135117303824892 0.95556877749289892 0 0.4308986359464303 0.96395712492906194 0 0.47135117303824892 0.95556877749289892 0 0.50000000000205869 1 0 0.52122150208832174 0.94089974453840242 0 0.47135117303824892 0.95556877749289892 0 0.45000000000187229 1 0 0.50000000000205869 1 0 0.47135117303824892 0.95556877749289892 0 0.45000000000187229 1 0 0.4308986359464303 0.96395712492906194 0 0.45000000000187229 1 0 0.4308986359464303 0.96395712492906194 0 0.40000000000166441 1 0 0.4308986359464303 0.96395712492906194 0 0.39641108128798319 0.94356127926187128 0 0.40000000000166441 1 0 0.4367309254023824 0.92065556789053882 0 0.4308986359464303 0.96395712492906194 0 0.39641108128798319 0.94356127926187128 0 0.36184234618600131 0.96443954459096326 0 0.39641108128798319 0.94356127926187128 0 0.40000000000166441 1 0 0.33122374654748771 0.57588941099433744 0 0.31502927232353312 0.6134992213375432 0 0.35765792684946668 0.6000687869219653 0 0.31502927232353312 0.6134992213375432 0 0.35765792684946668 0.6000687869219653 0 0.35864735590330371 0.63903383440414463 0 0.35765792684946668 0.6000687869219653 0 0.35864735590330371 0.63903383440414463 0 0.39743091024207589 0.6239520004230239 0 0.33122374654748771 0.57588941099433744 0 0.35765792684946668 0.6000687869219653 0 0.37272913873093971 0.56192925302619479 0 0.37272913873093971 0.56192925302619479 0 0.33190227185843768 0.52715113583864037 0 0.38244435121258652 0.51653317813019495 0 0.33122374654748771 0.57588941099433744 0 0.37272913873093971 0.56192925302619479 0 0.33190227185843768 0.52715113583864037 0 0.35024835142131061 0.48654922671676981 0 0.33190227185843768 0.52715113583864037 0 0.38244435121258652 0.51653317813019495 0 0.33122374654748771 0.57588941099433744 0 0.33190227185843768 0.52715113583864037 0 0.29110487519241501 0.56588143995431495 0 0.33190227185843768 0.52715113583864037 0 0.28307294598219601 0.50789252727458634 0 0.29110487519241501 0.56588143995431495 0 0.31068898841644388 0.47541502461811092 0 0.33190227185843768 0.52715113583864037 0 0.28307294598219601 0.50789252727458634 0 0.23975172658309729 0.49475499200540818 0 0.28307294598219601 0.50789252727458634 0 0.25115337790845271 0.54719303014923271 0 0.28307294598219601 0.50789252727458634 0 0.25115337790845271 0.54719303014923271 0 0.29110487519241501 0.56588143995431495 0 0.25115337790845271 0.54719303014923271 0 0.29110487519241501 0.56588143995431495 0 0.26573297623774761 0.59828298563722948 0 0.33122374654748771 0.57588941099433744 0 0.31502927232353312 0.6134992213375432 0 0.29110487519241501 0.56588143995431495 0 0.31502927232353312 0.6134992213375432 0 0.29110487519241501 0.56588143995431495 0 0.26573297623774761 0.59828298563722948 0 0.31502927232353312 0.6134992213375432 0 0.26573297623774761 0.59828298563722948 0 0.27820712747429932 0.65530134213254643 0 0.2459498854893499 0.63248470766216769 0 0.26573297623774761 0.59828298563722948 0 0.27820712747429932 0.65530134213254643 0 0.2236846579037573 0.67380363126050236 0 0.27820712747429932 0.65530134213254643 0 0.26439878998046262 0.7048065392091396 0 0.27820712747429932 0.65530134213254643 0 0.31378396441836959 0.70157213313026345 0 0.32263089806001177 0.66003674931826484 0 0.27820712747429932 0.65530134213254643 0 0.26439878998046262 0.7048065392091396 0 0.31378396441836959 0.70157213313026345 0 0.31502927232353312 0.6134992213375432 0 0.27820712747429932 0.65530134213254643 0 0.32263089806001177 0.66003674931826484 0 0.25676291524611189 0.7436741304886243 0 0.26439878998046262 0.7048065392091396 0 0.29904318922293632 0.74132814928635593 0 0.26439878998046262 0.7048065392091396 0 0.29904318922293632 0.74132814928635593 0 0.31378396441836959 0.70157213313026345 0 0.29904318922293632 0.74132814928635593 0 0.31378396441836959 0.70157213313026345 0 0.35415581127540569 0.73730480045900215 0 0.31378396441836959 0.70157213313026345 0 0.36622285152418499 0.69092437780804039 0 0.35415581127540569 0.73730480045900215 0 0.36622285152418499 0.69092437780804039 0 0.35415581127540569 0.73730480045900215 0 0.40326160981139969 0.73346192995102844 0 0.31502927232353312 0.6134992213375432 0 0.32263089806001177 0.66003674931826484 0 0.35864735590330371 0.63903383440414463 0 0.31378396441836959 0.70157213313026345 0 0.36622285152418499 0.69092437780804039 0 0.32263089806001177 0.66003674931826484 0 0.36622285152418499 0.69092437780804039 0 0.32263089806001177 0.66003674931826484 0 0.35864735590330371 0.63903383440414463 0 0.36622285152418499 0.69092437780804039 0 0.35864735590330371 0.63903383440414463 0 0.3977710372045391 0.65868194622830212 0 0.35864735590330371 0.63903383440414463 0 0.3977710372045391 0.65868194622830212 0 0.39743091024207589 0.6239520004230239 0 0.36622285152418499 0.69092437780804039 0 0.3977710372045391 0.65868194622830212 0 0.43323420005758778 0.6913544522562407 0 0.3977710372045391 0.65868194622830212 0 0.43323420005758778 0.6913544522562407 0 0.43846182030517877 0.64845797726506715 0 0.43846182030517877 0.64845797726506715 0 0.43545892161006339 0.61093128915313821 0 0.39743091024207589 0.6239520004230239 0 0.3977710372045391 0.65868194622830212 0 0.43846182030517877 0.64845797726506715 0 0.39743091024207589 0.6239520004230239 0 0.36622285152418499 0.69092437780804039 0 0.40326160981139969 0.73346192995102844 0 0.43323420005758778 0.6913544522562407 0 0.40326160981139969 0.73346192995102844 0 0.43323420005758778 0.6913544522562407 0 0.45582236402875981 0.73896743678908217 0 0.42676259796334498 0.76772545931379299 0 0.40326160981139969 0.73346192995102844 0 0.45582236402875981 0.73896743678908217 0 0.43323420005758778 0.6913544522562407 0 0.45582236402875981 0.73896743678908217 0 0.5 0.69999999999999996 0 0.45582236402875981 0.73896743678908217 0 0.5 0.69999999999999996 0 0.50945740445113552 0.75476055527778108 0 0.43323420005758778 0.6913544522562407 0 0.47913475093885149 0.66010775372412711 0 0.5 0.69999999999999996 0 0.43846182030517877 0.64845797726506715 0 0.47913475093885149 0.66010775372412711 0 0.47095389620662098 0.61892551373708504 0 0.43846182030517877 0.64845797726506715 0 0.47095389620662098 0.61892551373708504 0 0.43545892161006339 0.61093128915313821 0 0.43323420005758778 0.6913544522562407 0 0.43846182030517877 0.64845797726506715 0 0.47913475093885149 0.66010775372412711 0 0.47913475093885149 0.66010775372412711 0 0.47095389620662098 0.61892551373708504 0 0.50715858906372158 0.63295939104129484 0 0.47095389620662098 0.61892551373708504 0 0.5166924242153631 0.59825134841919447 0 0.50715858906372158 0.63295939104129484 0 0.47095389620662098 0.61892551373708504 0 0.46666084890304671 0.57634471035397938 0 0.5166924242153631 0.59825134841919447 0 0.47095389620662098 0.61892551373708504 0 0.46666084890304671 0.57634471035397938 0 0.43545892161006339 0.61093128915313821 0 0.43545892161006339 0.61093128915313821 0 0.4089290844030305 0.58728915500154233 0 0.39743091024207589 0.6239520004230239 0 0.46666084890304671 0.57634471035397938 0 0.43545892161006339 0.61093128915313821 0 0.4089290844030305 0.58728915500154233 0 0.46666084890304671 0.57634471035397938 0 0.4089290844030305 0.58728915500154233 0 0.42644501560315817 0.54603747078095544 0 0.37272913873093971 0.56192925302619479 0 0.4089290844030305 0.58728915500154233 0 0.42644501560315817 0.54603747078095544 0 0.35765792684946668 0.6000687869219653 0 0.37272913873093971 0.56192925302619479 0 0.4089290844030305 0.58728915500154233 0 0.35765792684946668 0.6000687869219653 0 0.4089290844030305 0.58728915500154233 0 0.39743091024207589 0.6239520004230239 0 0.37272913873093971 0.56192925302619479 0 0.38244435121258652 0.51653317813019495 0 0.42644501560315817 0.54603747078095544 0 0.43507373378304309 0.49699695397193322 0 0.38244435121258652 0.51653317813019495 0 0.42644501560315817 0.54603747078095544 0 0.46666084890304671 0.57634471035397938 0 0.47793794143994173 0.52940715638744962 0 0.53245488764484505 0.55078124999999989 0 0.43507373378304309 0.49699695397193322 0 0.49102375406324739 0.49123754822244059 0 0.47793794143994173 0.52940715638744962 0 0.43507373378304309 0.49699695397193322 0 0.42644501560315817 0.54603747078095544 0 0.47793794143994173 0.52940715638744962 0 0.46666084890304671 0.57634471035397938 0 0.42644501560315817 0.54603747078095544 0 0.47793794143994173 0.52940715638744962 0 0.49102375406324739 0.49123754822244059 0 0.47793794143994173 0.52940715638744962 0 0.53330375813596242 0.50827942741749099 0 0.47793794143994173 0.52940715638744962 0 0.53245488764484505 0.55078124999999989 0 0.53330375813596242 0.50827942741749099 0 0.53245488764484505 0.55078124999999989 0 0.53330375813596242 0.50827942741749099 0 0.57435499076887508 0.54267261987897775 0 0.53245488764484505 0.55078124999999989 0 0.57435499076887508 0.54267261987897775 0 0.57412547362576272 0.58273804879550706 0 0.53330375813596242 0.50827942741749099 0 0.57611405284611883 0.50165903596042916 0 0.57435499076887508 0.54267261987897775 0 0.57611405284611883 0.50165903596042916 0 0.57435499076887508 0.54267261987897775 0 0.62042975506801734 0.54295974692364424 0 0.57435499076887508 0.54267261987897775 0 0.62042975506801734 0.54295974692364424 0 0.57412547362576272 0.58273804879550706 0 0.57611405284611883 0.50165903596042916 0 0.62042975506801734 0.54295974692364424 0 0.61547661924074692 0.48539576058873962 0 0.5991018319127801 0.62925360607495295 0 0.6405463747586706 0.63290524857395714 0 0.63065402604362242 0.59661356661633302 0 0.57412547362576272 0.58273804879550706 0 0.5991018319127801 0.62925360607495295 0 0.63065402604362242 0.59661356661633302 0 0.62042975506801734 0.54295974692364424 0 0.57412547362576272 0.58273804879550706 0 0.63065402604362242 0.59661356661633302 0 0.57412547362576272 0.58273804879550706 0 0.5498280205245758 0.6290146943450976 0 0.5991018319127801 0.62925360607495295 0 0.46666084890304671 0.57634471035397938 0 0.53245488764484505 0.55078124999999989 0 0.5166924242153631 0.59825134841919447 0 0.57412547362576272 0.58273804879550706 0 0.5166924242153631 0.59825134841919447 0 0.5498280205245758 0.6290146943450976 0 0.53245488764484505 0.55078124999999989 0 0.57412547362576272 0.58273804879550706 0 0.5166924242153631 0.59825134841919447 0 0.5166924242153631 0.59825134841919447 0 0.50715858906372158 0.63295939104129484 0 0.5498280205245758 0.6290146943450976 0 0.47913475093885149 0.66010775372412711 0 0.50715858906372158 0.63295939104129484 0 0.52584555706968406 0.66664215091846768 0 0.50715858906372158 0.63295939104129484 0 0.52584555706968406 0.66664215091846768 0 0.5498280205245758 0.6290146943450976 0 0.47913475093885149 0.66010775372412711 0 0.52584555706968406 0.66664215091846768 0 0.5 0.69999999999999996 0 0.52584555706968406 0.66664215091846768 0 0.54999999999999993 0.69999999999999996 0 0.57484956128872922 0.66573805030881994 0 0.52584555706968406 0.66664215091846768 0 0.5498280205245758 0.6290146943450976 0 0.57484956128872922 0.66573805030881994 0 0.5 0.69999999999999996 0 0.55363780716230748 0.74348740161571747 0 0.50945740445113552 0.75476055527778108 0 0.52584555706968406 0.66664215091846768 0 0.5 0.69999999999999996 0 0.54999999999999993 0.69999999999999996 0 0.5 0.69999999999999996 0 0.54999999999999993 0.69999999999999996 0 0.5 0.69999999999999996 0 0.54999999999999993 0.69999999999999996 0 0.55363780716230748 0.74348740161571747 0 0.55363780716230748 0.74348740161571747 0 0.59999999999999976 0.69999999999999996 0 0.59636844454254345 0.75937156204589151 0 0.54999999999999993 0.69999999999999996 0 0.59999999999999976 0.69999999999999996 0 0.54999999999999993 0.69999999999999996 0 0.59999999999999976 0.69999999999999996 0 0.57484956128872922 0.66573805030881994 0 0.54999999999999993 0.69999999999999996 0 0.55363780716230748 0.74348740161571747 0 0.59999999999999976 0.69999999999999996 0 0.59999999999999976 0.69999999999999996 0 0.6499999999999998 0.69999999999999996 0 0.59999999999999976 0.69999999999999996 0 0.62460753523532009 0.66851202781000296 0 0.6499999999999998 0.69999999999999996 0 0.59999999999999976 0.69999999999999996 0 0.63221990677827677 0.73442891067859706 0 0.59636844454254345 0.75937156204589151 0 0.5498280205245758 0.6290146943450976 0 0.57484956128872922 0.66573805030881994 0 0.5991018319127801 0.62925360607495295 0 0.59999999999999976 0.69999999999999996 0 0.57484956128872922 0.66573805030881994 0 0.62460753523532009 0.66851202781000296 0 0.57484956128872922 0.66573805030881994 0 0.62460753523532009 0.66851202781000296 0 0.5991018319127801 0.62925360607495295 0 0.62460753523532009 0.66851202781000296 0 0.5991018319127801 0.62925360607495295 0 0.6405463747586706 0.63290524857395714 0 0.62460753523532009 0.66851202781000296 0 0.6405463747586706 0.63290524857395714 0 0.675261390228442 0.65996937624687813 0 0.62460753523532009 0.66851202781000296 0 0.675261390228442 0.65996937624687813 0 0.6499999999999998 0.69999999999999996 0 0.675261390228442 0.65996937624687813 0 0.6499999999999998 0.69999999999999996 0 0.69999999999999984 0.69999999999999996 0 0.6405463747586706 0.63290524857395714 0 0.675261390228442 0.65996937624687813 0 0.67529834988829951 0.61613270668143583 0 0.63221990677827677 0.73442891067859706 0 0.66427993341343905 0.73232764502436276 0 0.64753070846764316 0.77332939069435502 0 0.63221990677827677 0.73442891067859706 0 0.6499999999999998 0.69999999999999996 0 0.66427993341343905 0.73232764502436276 0 0.59999999999999976 0.69999999999999996 0 0.63221990677827677 0.73442891067859706 0 0.6499999999999998 0.69999999999999996 0 0.6499999999999998 0.69999999999999996 0 0.69999999999999984 0.69999999999999996 0 0.6499999999999998 0.69999999999999996 0 0.66427993341343905 0.73232764502436276 0 0.69999999999999984 0.69999999999999996 0 0.66427993341343905 0.73232764502436276 0 0.69999999999999984 0.69999999999999996 0 0.6916490518212759 0.75387992374886192 0 0.69999999999999984 0.69999999999999996 0 0.72501250972655151 0.74067302935308721 0 0.6916490518212759 0.75387992374886192 0 0.69999999999999984 0.69999999999999996 0 0.74999999999999989 0.69999999999999996 0 0.72501250972655151 0.74067302935308721 0 0.69999999999999984 0.69999999999999996 0 0.74999999999999989 0.69999999999999996 0 0.72500000000000064 0.67022701834392062 0 0.69999999999999984 0.69999999999999996 0 0.74999999999999989 0.69999999999999996 0 0.74999999999999989 0.69999999999999996 0 0.72501250972655151 0.74067302935308721 0 0.75841349681148107 0.75422312624214749 0 0.675261390228442 0.65996937624687813 0 0.71406021706547751 0.63292083137662503 0 0.72500000000000064 0.67022701834392062 0 0.675261390228442 0.65996937624687813 0 0.71406021706547751 0.63292083137662503 0 0.67529834988829951 0.61613270668143583 0 0.675261390228442 0.65996937624687813 0 0.69999999999999984 0.69999999999999996 0 0.72500000000000064 0.67022701834392062 0 0.71406021706547751 0.63292083137662503 0 0.72500000000000064 0.67022701834392062 0 0.74994237037456724 0.62775548192980357 0 0.72500000000000064 0.67022701834392062 0 0.74994237037456724 0.62775548192980357 0 0.7750489929959945 0.66593931409600093 0 0.71406021706547751 0.63292083137662503 0 0.74994237037456724 0.62775548192980357 0 0.71809016091162536 0.58185040402320831 0 0.74994237037456724 0.62775548192980357 0 0.71809016091162536 0.58185040402320831 0 0.77293540622714185 0.59448302402785813 0 0.71406021706547751 0.63292083137662503 0 0.71809016091162536 0.58185040402320831 0 0.67529834988829951 0.61613270668143583 0 0.71809016091162536 0.58185040402320831 0 0.67569444444444449 0.53500863336860327 0 0.67323294229744413 0.57556450033612505 0 0.71809016091162536 0.58185040402320831 0 0.67529834988829951 0.61613270668143583 0 0.67323294229744413 0.57556450033612505 0 0.71809016091162536 0.58185040402320831 0 0.7152569930854884 0.5237994455134295 0 0.77151014687832564 0.54436834383023036 0 0.7152569930854884 0.5237994455134295 0 0.77151014687832564 0.54436834383023036 0 0.73947346780852752 0.49062440112282169 0 0.7152569930854884 0.5237994455134295 0 0.67569444444444449 0.53500863336860327 0 0.69385896817107129 0.48377516041410151 0 0.71809016091162536 0.58185040402320831 0 0.7152569930854884 0.5237994455134295 0 0.67569444444444449 0.53500863336860327 0 0.62042975506801734 0.54295974692364424 0 0.67569444444444449 0.53500863336860327 0 0.67323294229744413 0.57556450033612505 0 0.67569444444444449 0.53500863336860327 0 0.6541250972820879 0.49999999999999989 0 0.69385896817107129 0.48377516041410151 0 0.62042975506801734 0.54295974692364424 0 0.67569444444444449 0.53500863336860327 0 0.6541250972820879 0.49999999999999989 0 0.62042975506801734 0.54295974692364424 0 0.61547661924074692 0.48539576058873962 0 0.6541250972820879 0.49999999999999989 0 0.62042975506801734 0.54295974692364424 0 0.63065402604362242 0.59661356661633302 0 0.67323294229744413 0.57556450033612505 0 0.6405463747586706 0.63290524857395714 0 0.63065402604362242 0.59661356661633302 0 0.67529834988829951 0.61613270668143583 0 0.63065402604362242 0.59661356661633302 0 0.67529834988829951 0.61613270668143583 0 0.67323294229744413 0.57556450033612505 0 0.60000000000138687 1 0 0.62065498684670595 0.95224934003983619 0 0.57382506491224949 0.9629411906298494 0 0.60000000000138687 1 0 0.62065498684670595 0.95224934003983619 0 0.65000000000104008 1 0 0.62065498684670595 0.95224934003983619 0 0.57382506491224949 0.9629411906298494 0 0.57724883562309992 0.92155686857100794 0 0.60000000000138687 1 0 0.57382506491224949 0.9629411906298494 0 0.55000000000173355 1 0 0.55000000000173355 1 0 0.50000000000205869 1 0 0.52122150208832174 0.94089974453840242 0 0.57382506491224949 0.9629411906298494 0 0.52122150208832174 0.94089974453840242 0 0.57724883562309992 0.92155686857100794 0 0.57382506491224949 0.9629411906298494 0 0.55000000000173355 1 0 0.52122150208832174 0.94089974453840242 0 0.52122150208832174 0.94089974453840242 0 0.54783390826260769 0.89287767010860219 0 0.57724883562309992 0.92155686857100794 0 0.52122150208832174 0.94089974453840242 0 0.50202631463681879 0.87892870825713787 0 0.54783390826260769 0.89287767010860219 0 0.54783390826260769 0.89287767010860219 0 0.5832743223239254 0.88483152652961872 0 0.55899371797446828 0.85003102233514438 0 0.54783390826260769 0.89287767010860219 0 0.5832743223239254 0.88483152652961872 0 0.57724883562309992 0.92155686857100794 0 0.5832743223239254 0.88483152652961872 0 0.57724883562309992 0.92155686857100794 0 0.61885627562261258 0.90282959257498208 0 0.62065498684670595 0.95224934003983619 0 0.57724883562309992 0.92155686857100794 0 0.61885627562261258 0.90282959257498208 0 0.5832743223239254 0.88483152652961872 0 0.61885627562261258 0.90282959257498208 0 0.61343887413683884 0.856862479058357 0 0.61343887413683884 0.856862479058357 0 0.60294066490120068 0.80851322453934582 0 0.65005442820240822 0.82644988530054031 0 0.61343887413683884 0.856862479058357 0 0.55899371797446828 0.85003102233514438 0 0.60294066490120068 0.80851322453934582 0 0.55899371797446828 0.85003102233514438 0 0.54782696902220018 0.79245182748204157 0 0.60294066490120068 0.80851322453934582 0 0.5832743223239254 0.88483152652961872 0 0.61343887413683884 0.856862479058357 0 0.55899371797446828 0.85003102233514438 0 0.50202631463681879 0.87892870825713787 0 0.54783390826260769 0.89287767010860219 0 0.55899371797446828 0.85003102233514438 0 0.50202631463681879 0.87892870825713787 0 0.55899371797446828 0.85003102233514438 0 0.50627822638148745 0.8263979829520941 0 0.55899371797446828 0.85003102233514438 0 0.50627822638148745 0.8263979829520941 0 0.54782696902220018 0.79245182748204157 0 0.50627822638148745 0.8263979829520941 0 0.54782696902220018 0.79245182748204157 0 0.50731287292894423 0.78963574450233831 0 0.54782696902220018 0.79245182748204157 0 0.50731287292894423 0.78963574450233831 0 0.50945740445113552 0.75476055527778108 0 0.55363780716230748 0.74348740161571747 0 0.54782696902220018 0.79245182748204157 0 0.50945740445113552 0.75476055527778108 0 0.55363780716230748 0.74348740161571747 0 0.54782696902220018 0.79245182748204157 0 0.59636844454254345 0.75937156204589151 0 0.54782696902220018 0.79245182748204157 0 0.60294066490120068 0.80851322453934582 0 0.59636844454254345 0.75937156204589151 0 0.60294066490120068 0.80851322453934582 0 0.59636844454254345 0.75937156204589151 0 0.64753070846764316 0.77332939069435502 0 0.63221990677827677 0.73442891067859706 0 0.59636844454254345 0.75937156204589151 0 0.64753070846764316 0.77332939069435502 0 0.60294066490120068 0.80851322453934582 0 0.64753070846764316 0.77332939069435502 0 0.65005442820240822 0.82644988530054031 0 0.64753070846764316 0.77332939069435502 0 0.68024162096458085 0.79868546898116533 0 0.65005442820240822 0.82644988530054031 0 0.64753070846764316 0.77332939069435502 0 0.68024162096458085 0.79868546898116533 0 0.6916490518212759 0.75387992374886192 0 0.66427993341343905 0.73232764502436276 0 0.64753070846764316 0.77332939069435502 0 0.6916490518212759 0.75387992374886192 0 0.72501250972655151 0.74067302935308721 0 0.6916490518212759 0.75387992374886192 0 0.72500000000000064 0.7952620967744265 0 0.72501250972655151 0.74067302935308721 0 0.72500000000000064 0.7952620967744265 0 0.75841349681148107 0.75422312624214749 0 0.68024162096458085 0.79868546898116533 0 0.6916490518212759 0.75387992374886192 0 0.72500000000000064 0.7952620967744265 0 0.68024162096458085 0.79868546898116533 0 0.72500000000000064 0.7952620967744265 0 0.68697391633157634 0.84450604838764298 0 0.72500000000000064 0.7952620967744265 0 0.72863726579783861 0.85390518901155588 0 0.68697391633157634 0.84450604838764298 0 0.72500000000000064 0.7952620967744265 0 0.72863726579783861 0.85390518901155588 0 0.76901770135486491 0.84293557325473656 0 0.72863726579783861 0.85390518901155588 0 0.68697391633157634 0.84450604838764298 0 0.7250000000005199 0.89375000000045834 0 0.68697391633157634 0.84450604838764298 0 0.66412543161245952 0.88015090885499059 0 0.7250000000005199 0.89375000000045834 0 0.68697391633157634 0.84450604838764298 0 0.65005442820240822 0.82644988530054031 0 0.66412543161245952 0.88015090885499059 0 0.68024162096458085 0.79868546898116533 0 0.68697391633157634 0.84450604838764298 0 0.65005442820240822 0.82644988530054031 0 0.61343887413683884 0.856862479058357 0 0.65005442820240822 0.82644988530054031 0 0.66412543161245952 0.88015090885499059 0 0.61885627562261258 0.90282959257498208 0 0.61343887413683884 0.856862479058357 0 0.66412543161245952 0.88015090885499059 0 0.61885627562261258 0.90282959257498208 0 0.65507451745379841 0.92229208810758578 0 0.66412543161245952 0.88015090885499059 0 0.62065498684670595 0.95224934003983619 0 0.61885627562261258 0.90282959257498208 0 0.65507451745379841 0.92229208810758578 0 0.65507451745379841 0.92229208810758578 0 0.68987011941058407 0.92105047536677087 0 0.68015064798562208 0.95924320340003011 0 0.65507451745379841 0.92229208810758578 0 0.66412543161245952 0.88015090885499059 0 0.68987011941058407 0.92105047536677087 0 0.66412543161245952 0.88015090885499059 0 0.7250000000005199 0.89375000000045834 0 0.68987011941058407 0.92105047536677087 0 0.72863726579783861 0.85390518901155588 0 0.7250000000005199 0.89375000000045834 0 0.76891166905518427 0.88835469571185499 0 0.7250000000005199 0.89375000000045834 0 0.7250000000005199 0.94981617647078953 0 0.75729602384198635 0.92353652857884294 0 0.7250000000005199 0.89375000000045834 0 0.68987011941058407 0.92105047536677087 0 0.7250000000005199 0.94981617647078953 0 0.68987011941058407 0.92105047536677087 0 0.7250000000005199 0.94981617647078953 0 0.68015064798562208 0.95924320340003011 0 0.7250000000005199 0.94981617647078953 0 0.7000000000006934 1 0 0.75000000000034661 1 0 0.7250000000005199 0.94981617647078953 0 0.75000000000034661 1 0 0.770759834363826 0.95919399014344442 0 0.7250000000005199 0.94981617647078953 0 0.7000000000006934 1 0 0.68015064798562208 0.95924320340003011 0 0.7000000000006934 1 0 0.68015064798562208 0.95924320340003011 0 0.65000000000104008 1 0 0.62065498684670595 0.95224934003983619 0 0.65507451745379841 0.92229208810758578 0 0.68015064798562208 0.95924320340003011 0 0.62065498684670595 0.95224934003983619 0 0.68015064798562208 0.95924320340003011 0 0.65000000000104008 1 0 0.84999999999965292 1 0 0.85170973911348691 0.93569607295217616 0 0.89898474358632463 0.95391965591118966 0 0.84999999999965292 1 0 0.81486180804382891 0.96321394949790495 0 0.85170973911348691 0.93569607295217616 0 0.81486180804382891 0.96321394949790495 0 0.79680861578988083 0.92656778056766709 0 0.85170973911348691 0.93569607295217616 0 0.84999999999965292 1 0 0.81486180804382891 0.96321394949790495 0 0.79999999999999982 1 0 0.81486180804382891 0.96321394949790495 0 0.79999999999999982 1 0 0.770759834363826 0.95919399014344442 0 0.79999999999999982 1 0 0.75000000000034661 1 0 0.770759834363826 0.95919399014344442 0 0.7250000000005199 0.94981617647078953 0 0.770759834363826 0.95919399014344442 0 0.75729602384198635 0.92353652857884294 0 0.81486180804382891 0.96321394949790495 0 0.770759834363826 0.95919399014344442 0 0.79680861578988083 0.92656778056766709 0 0.79680861578988083 0.92656778056766709 0 0.75729602384198635 0.92353652857884294 0 0.76891166905518427 0.88835469571185499 0 0.770759834363826 0.95919399014344442 0 0.79680861578988083 0.92656778056766709 0 0.75729602384198635 0.92353652857884294 0 0.7250000000005199 0.89375000000045834 0 0.75729602384198635 0.92353652857884294 0 0.76891166905518427 0.88835469571185499 0 0.79680861578988083 0.92656778056766709 0 0.76891166905518427 0.88835469571185499 0 0.81159157511211755 0.88795995483179491 0 0.81159157511211755 0.88795995483179491 0 0.85170973911348691 0.93569607295217616 0 0.85600844944837662 0.88483418979512773 0 0.79680861578988083 0.92656778056766709 0 0.81159157511211755 0.88795995483179491 0 0.85170973911348691 0.93569607295217616 0 0.85170973911348691 0.93569607295217616 0 0.85600844944837662 0.88483418979512773 0 0.90416666666660628 0.9041666666666166 0 0.85600844944837662 0.88483418979512773 0 0.82709327591091286 0.84937141670920724 0 0.88088768115933802 0.84674609810493673 0 0.82709327591091286 0.84937141670920724 0 0.84725310900444062 0.80779732082917555 0 0.88088768115933802 0.84674609810493673 0 0.82709327591091286 0.84937141670920724 0 0.80041942726660109 0.81543261647703358 0 0.84725310900444062 0.80779732082917555 0 0.81159157511211755 0.88795995483179491 0 0.85600844944837662 0.88483418979512773 0 0.82709327591091286 0.84937141670920724 0 0.76891166905518427 0.88835469571185499 0 0.81159157511211755 0.88795995483179491 0 0.76901770135486491 0.84293557325473656 0 0.81159157511211755 0.88795995483179491 0 0.82709327591091286 0.84937141670920724 0 0.76901770135486491 0.84293557325473656 0 0.72863726579783861 0.85390518901155588 0 0.76891166905518427 0.88835469571185499 0 0.76901770135486491 0.84293557325473656 0 0.76901770135486491 0.84293557325473656 0 0.80041942726660109 0.81543261647703358 0 0.77094201086366854 0.79647480515688507 0 0.82709327591091286 0.84937141670920724 0 0.76901770135486491 0.84293557325473656 0 0.80041942726660109 0.81543261647703358 0 0.80041942726660109 0.81543261647703358 0 0.77094201086366854 0.79647480515688507 0 0.80185942888539485 0.77452061303608133 0 0.72500000000000064 0.7952620967744265 0 0.77094201086366854 0.79647480515688507 0 0.75841349681148107 0.75422312624214749 0 0.72500000000000064 0.7952620967744265 0 0.76901770135486491 0.84293557325473656 0 0.77094201086366854 0.79647480515688507 0 0.77094201086366854 0.79647480515688507 0 0.75841349681148107 0.75422312624214749 0 0.80185942888539485 0.77452061303608133 0 0.75841349681148107 0.75422312624214749 0 0.80185942888539485 0.77452061303608133 0 0.78578450296893509 0.73292684821144505 0 0.80185942888539485 0.77452061303608133 0 0.84725310900444062 0.80779732082917555 0 0.85491058998424563 0.76004753345552634 0 0.80185942888539485 0.77452061303608133 0 0.85491058998424563 0.76004753345552634 0 0.81864958914779962 0.73589050177899629 0 0.80041942726660109 0.81543261647703358 0 0.80185942888539485 0.77452061303608133 0 0.84725310900444062 0.80779732082917555 0 0.84725310900444062 0.80779732082917555 0 0.85491058998424563 0.76004753345552634 0 0.90299850604011456 0.79563452813489832 0 0.85491058998424563 0.76004753345552634 0 0.90299850604011456 0.79563452813489832 0 0.89999166460796554 0.74528934923809909 0 0.90299850604011456 0.79563452813489832 0 0.94399509803918602 0.75600490196082126 0 0.95386563387742829 0.80414874155775029 0 0.90299850604011456 0.79563452813489832 0 0.94399509803918602 0.75600490196082126 0 0.89999166460796554 0.74528934923809909 0 0.94399509803918602 0.75600490196082126 0 0.97435614836745565 0.77499999999987745 0 0.95386563387742829 0.80414874155775029 0 0.94399509803918602 0.75600490196082126 0 0.97435614836745565 0.77499999999987745 0 0.97166519676947294 0.73337114490064459 0 0.97435614836745565 0.77499999999987745 0 0.97166519676947294 0.73337114490064459 0 1 0.74999999999993494 0 0.97435614836745565 0.77499999999987745 0 1 0.7999999999998193 0 1 0.74999999999993494 0 0.97435614836745565 0.77499999999987745 0 1 0.7999999999998193 0 0.95386563387742829 0.80414874155775029 0 1 0.84999999999982645 0 0.93677536231884972 0.85000000000000286 0 0.95391631417670719 0.89584263333814784 0 0.95386563387742829 0.80414874155775029 0 1 0.84999999999982645 0 0.93677536231884972 0.85000000000000286 0 1 0.7999999999998193 0 0.95386563387742829 0.80414874155775029 0 1 0.84999999999982645 0 0.93677536231884972 0.85000000000000286 0 0.88088768115933802 0.84674609810493673 0 0.90416666666660628 0.9041666666666166 0 0.90299850604011456 0.79563452813489832 0 0.95386563387742829 0.80414874155775029 0 0.93677536231884972 0.85000000000000286 0 0.90299850604011456 0.79563452813489832 0 0.93677536231884972 0.85000000000000286 0 0.88088768115933802 0.84674609810493673 0 0.84725310900444062 0.80779732082917555 0 0.90299850604011456 0.79563452813489832 0 0.88088768115933802 0.84674609810493673 0 0.85600844944837662 0.88483418979512773 0 0.88088768115933802 0.84674609810493673 0 0.90416666666660628 0.9041666666666166 0 0.85170973911348691 0.93569607295217616 0 0.90416666666660628 0.9041666666666166 0 0.89898474358632463 0.95391965591118966 0 0.90416666666660628 0.9041666666666166 0 0.95391631417670719 0.89584263333814784 0 0.94399509803919068 0.9439950980391687 0 0.90416666666660628 0.9041666666666166 0 0.94399509803919068 0.9439950980391687 0 0.89898474358632463 0.95391965591118966 0 0.93677536231884972 0.85000000000000286 0 0.90416666666660628 0.9041666666666166 0 0.95391631417670719 0.89584263333814784 0 1 0.84999999999982645 0 0.95391631417670719 0.89584263333814784 0 1 0.8999999999998336 0 1 0.8999999999998336 0 0.97435614836744289 0.92499999999990257 0 1 0.94999999999997109 0 0.95391631417670719 0.89584263333814784 0 1 0.8999999999998336 0 0.97435614836744289 0.92499999999990257 0 0.95391631417670719 0.89584263333814784 0 0.97435614836744289 0.92499999999990257 0 0.94399509803919068 0.9439950980391687 0 0.97435614836744289 0.92499999999990257 0 0.94399509803919068 0.9439950980391687 0 0.97166519676946206 0.96662885509935492 0 0.97435614836744289 0.92499999999990257 0 0.97166519676946206 0.96662885509935492 0 1 0.94999999999997109 0 0.97166519676946206 0.96662885509935492 0 1 0.94999999999997109 0 1 1 0 0.97166519676946206 0.96662885509935492 0 1 1 0 0.94999999999979179 1 0 0.94399509803919068 0.9439950980391687 0 0.97166519676946206 0.96662885509935492 0 0.94999999999979179 1 0 0.94999999999979179 1 0 0.89898474358632463 0.95391965591118966 0 0.89999999999958358 1 0 0.94399509803919068 0.9439950980391687 0 0.94999999999979179 1 0 0.89898474358632463 0.95391965591118966 0 0.84999999999965292 1 0 0.89898474358632463 0.95391965591118966 0 0.89999999999958358 1 0 0.81723410853263523 0.59419663659258926 0 0.86956835336234861 0.571283299838105 0 0.82862096804812391 0.55037090955459045 0 0.81723410853263523 0.59419663659258926 0 0.87159648282691515 0.61285406320581504 0 0.83758014339878906 0.63222013025741819 0 0.81723410853263523 0.59419663659258926 0 0.79884539758237771 0.62875045078114233 0 0.83758014339878906 0.63222013025741819 0 0.81723410853263523 0.59419663659258926 0 0.87159648282691515 0.61285406320581504 0 0.86956835336234861 0.571283299838105 0 0.86956835336234861 0.571283299838105 0 0.86907294890112186 0.52008116128001669 0 0.82862096804812391 0.55037090955459045 0 0.86907294890112186 0.52008116128001669 0 0.81441713509985358 0.51161854125224959 0 0.82862096804812391 0.55037090955459045 0 0.86907294890112186 0.52008116128001669 0 0.81441713509985358 0.51161854125224959 0 0.84723782639812573 0.48638347960178252 0 0.81441713509985358 0.51161854125224959 0 0.82862096804812391 0.55037090955459045 0 0.77151014687832564 0.54436834383023036 0 0.81441713509985358 0.51161854125224959 0 0.77151014687832564 0.54436834383023036 0 0.77846603114747959 0.49850927265137401 0 0.77151014687832564 0.54436834383023036 0 0.77846603114747959 0.49850927265137401 0 0.73947346780852752 0.49062440112282169 0 0.71809016091162536 0.58185040402320831 0 0.77151014687832564 0.54436834383023036 0 0.77293540622714185 0.59448302402785813 0 0.81723410853263523 0.59419663659258926 0 0.77151014687832564 0.54436834383023036 0 0.77293540622714185 0.59448302402785813 0 0.81723410853263523 0.59419663659258926 0 0.82862096804812391 0.55037090955459045 0 0.77151014687832564 0.54436834383023036 0 0.81723410853263523 0.59419663659258926 0 0.77293540622714185 0.59448302402785813 0 0.79884539758237771 0.62875045078114233 0 0.74994237037456724 0.62775548192980357 0 0.77293540622714185 0.59448302402785813 0 0.79884539758237771 0.62875045078114233 0 0.74994237037456724 0.62775548192980357 0 0.7750489929959945 0.66593931409600093 0 0.79884539758237771 0.62875045078114233 0 0.74999999999999989 0.69999999999999996 0 0.72500000000000064 0.67022701834392062 0 0.7750489929959945 0.66593931409600093 0 0.7750489929959945 0.66593931409600093 0 0.79999999999999982 0.69999999999999996 0 0.82457059160610424 0.66831947184359608 0 0.7750489929959945 0.66593931409600093 0 0.79884539758237771 0.62875045078114233 0 0.82457059160610424 0.66831947184359608 0 0.74999999999999989 0.69999999999999996 0 0.75841349681148107 0.75422312624214749 0 0.78578450296893509 0.73292684821144505 0 0.74999999999999989 0.69999999999999996 0 0.79999999999999982 0.69999999999999996 0 0.78578450296893509 0.73292684821144505 0 0.74999999999999989 0.69999999999999996 0 0.7750489929959945 0.66593931409600093 0 0.79999999999999982 0.69999999999999996 0 0.74999999999999989 0.69999999999999996 0 0.79999999999999982 0.69999999999999996 0 0.80185942888539485 0.77452061303608133 0 0.78578450296893509 0.73292684821144505 0 0.81864958914779962 0.73589050177899629 0 0.79999999999999982 0.69999999999999996 0 0.78578450296893509 0.73292684821144505 0 0.81864958914779962 0.73589050177899629 0 0.85491058998424563 0.76004753345552634 0 0.81864958914779962 0.73589050177899629 0 0.84999999999999987 0.69999999999999996 0 0.79999999999999982 0.69999999999999996 0 0.84999999999999987 0.69999999999999996 0 0.79999999999999982 0.69999999999999996 0 0.84999999999999987 0.69999999999999996 0 0.82457059160610424 0.66831947184359608 0 0.79999999999999982 0.69999999999999996 0 0.81864958914779962 0.73589050177899629 0 0.84999999999999987 0.69999999999999996 0 0.84999999999999987 0.69999999999999996 0 0.89999999999999991 0.69999999999999996 0 0.85491058998424563 0.76004753345552634 0 0.84999999999999987 0.69999999999999996 0 0.89999166460796554 0.74528934923809909 0 0.79884539758237771 0.62875045078114233 0 0.83758014339878906 0.63222013025741819 0 0.82457059160610424 0.66831947184359608 0 0.84999999999999987 0.69999999999999996 0 0.82457059160610424 0.66831947184359608 0 0.87712158428786946 0.65709029563313581 0 0.87159648282691515 0.61285406320581504 0 0.83758014339878906 0.63222013025741819 0 0.87712158428786946 0.65709029563313581 0 0.83758014339878906 0.63222013025741819 0 0.82457059160610424 0.66831947184359608 0 0.87712158428786946 0.65709029563313581 0 0.87712158428786946 0.65709029563313581 0 0.92057473616084773 0.66770436535372446 0 0.91750694127105259 0.63017627779935648 0 0.87159648282691515 0.61285406320581504 0 0.87712158428786946 0.65709029563313581 0 0.91750694127105259 0.63017627779935648 0 0.84999999999999987 0.69999999999999996 0 0.87712158428786946 0.65709029563313581 0 0.89999999999999991 0.69999999999999996 0 0.87712158428786946 0.65709029563313581 0 0.92057473616084773 0.66770436535372446 0 0.89999999999999991 0.69999999999999996 0 0.92057473616084773 0.66770436535372446 0 0.91750694127105259 0.63017627779935648 0 0.9578014258160763 0.65787212321113708 0 0.84999999999999987 0.69999999999999996 0 0.89999166460796554 0.74528934923809909 0 0.89999999999999991 0.69999999999999996 0 0.89999999999999991 0.69999999999999996 0 0.94999999999999996 0.69999999999999996 0 0.92057473616084773 0.66770436535372446 0 0.89999999999999991 0.69999999999999996 0 0.94999999999999996 0.69999999999999996 0 0.89999166460796554 0.74528934923809909 0 0.89999999999999991 0.69999999999999996 0 0.94999999999999996 0.69999999999999996 0 0.94399509803918602 0.75600490196082126 0 0.89999166460796554 0.74528934923809909 0 0.94999999999999996 0.69999999999999996 0 0.94399509803918602 0.75600490196082126 0 0.94999999999999996 0.69999999999999996 0 0.97166519676947294 0.73337114490064459 0 0.94999999999999996 0.69999999999999996 0 1 0.69999999999999996 0 0.94999999999999996 0.69999999999999996 0 1 0.69999999999999996 0 0.97166519676947294 0.73337114490064459 0 1 0.69999999999999996 0 0.97166519676947294 0.73337114490064459 0 1 0.74999999999993494 0 0.91750694127105259 0.63017627779935648 0 0.9578014258160763 0.65787212321113708 0 0.95867599106212187 0.60011091146651041 0 0.92057473616084773 0.66770436535372446 0 0.94999999999999996 0.69999999999999996 0 0.9578014258160763 0.65787212321113708 0 0.94999999999999996 0.69999999999999996 0 1 0.69999999999999996 0 0.9578014258160763 0.65787212321113708 0 1 0.69999999999999996 0 0.9578014258160763 0.65787212321113708 0 1 0.64999999999986979 0 0.9578014258160763 0.65787212321113708 0 1 0.64999999999986979 0 0.95867599106212187 0.60011091146651041 0 0.95867599106212187 0.60011091146651041 0 0.93732437411268477 0.55911392101136159 0 1 0.54999999999963112 0 1 0.64999999999986979 0 1 0.59999999999973963 0 0.95867599106212187 0.60011091146651041 0 1 0.59999999999973963 0 0.95867599106212187 0.60011091146651041 0 1 0.54999999999963112 0 0.91750694127105259 0.63017627779935648 0 0.95867599106212187 0.60011091146651041 0 0.91143117093204207 0.58709913730335972 0 0.95867599106212187 0.60011091146651041 0 0.91143117093204207 0.58709913730335972 0 0.93732437411268477 0.55911392101136159 0 0.86956835336234861 0.571283299838105 0 0.91143117093204207 0.58709913730335972 0 0.90900154012161016 0.53607784105648792 0 0.87159648282691515 0.61285406320581504 0 0.86956835336234861 0.571283299838105 0 0.91143117093204207 0.58709913730335972 0 0.87159648282691515 0.61285406320581504 0 0.91750694127105259 0.63017627779935648 0 0.91143117093204207 0.58709913730335972 0 0.86907294890112186 0.52008116128001669 0 0.90900154012161016 0.53607784105648792 0 0.91696753777131557 0.497780560203536 0 0.86956835336234861 0.571283299838105 0 0.86907294890112186 0.52008116128001669 0 0.90900154012161016 0.53607784105648792 0 0.90900154012161016 0.53607784105648792 0 0.93732437411268477 0.55911392101136159 0 0.95631871884947484 0.51827533208233789 0 0.91143117093204207 0.58709913730335972 0 0.90900154012161016 0.53607784105648792 0 0.93732437411268477 0.55911392101136159 0 0.90900154012161016 0.53607784105648792 0 0.95631871884947484 0.51827533208233789 0 0.91696753777131557 0.497780560203536 0 0.93732437411268477 0.55911392101136159 0 0.95631871884947484 0.51827533208233789 0 1 0.54999999999963112 0 0.95631871884947484 0.51827533208233789 0 1 0.54999999999963112 0 1 0.49999999999950101 0 0.95631871884947484 0.51827533208233789 0 1 0.49999999999950101 0 0.96228564064454991 0.48206450662049471 0 1 0.49999999999950101 0 1 0.44999999999963131 0 0.96228564064454991 0.48206450662049471 0 1 0.44999999999963131 0 0.93814194660195893 0.44426664081746747 0 0.96228564064454991 0.48206450662049471 0 0.93814194660195893 0.44426664081746747 0 0.96228564064454991 0.48206450662049471 0 0.91696753777131557 0.497780560203536 0 0.95631871884947484 0.51827533208233789 0 0.96228564064454991 0.48206450662049471 0 0.91696753777131557 0.497780560203536 0 1 0.39999999999978308 0 0.95871855522754235 0.40006508612975411 0 1 0.34999999999993492 0 1 0.44999999999963131 0 1 0.39999999999978308 0 0.95871855522754235 0.40006508612975411 0 1 0.44999999999963131 0 0.93814194660195893 0.44426664081746747 0 0.95871855522754235 0.40006508612975411 0 0.95871855522754235 0.40006508612975411 0 0.90594285160987287 0.4141265964174129 0 0.91750694127107502 0.36982372220068471 0 0.93814194660195893 0.44426664081746747 0 0.95871855522754235 0.40006508612975411 0 0.90594285160987287 0.4141265964174129 0 0.90594285160987287 0.4141265964174129 0 0.88594198078881503 0.46167788676578442 0 0.86411095495256451 0.42388805655111889 0 0.90594285160987287 0.4141265964174129 0 0.86411095495256451 0.42388805655111889 0 0.86844634540301924 0.38530937474099819 0 0.90594285160987287 0.4141265964174129 0 0.86844634540301924 0.38530937474099819 0 0.91750694127107502 0.36982372220068471 0 0.93814194660195893 0.44426664081746747 0 0.91696753777131557 0.497780560203536 0 0.88594198078881503 0.46167788676578442 0 0.93814194660195893 0.44426664081746747 0 0.90594285160987287 0.4141265964174129 0 0.88594198078881503 0.46167788676578442 0 0.86907294890112186 0.52008116128001669 0 0.91696753777131557 0.497780560203536 0 0.88594198078881503 0.46167788676578442 0 0.86907294890112186 0.52008116128001669 0 0.88594198078881503 0.46167788676578442 0 0.84723782639812573 0.48638347960178252 0 0.81441713509985358 0.51161854125224959 0 0.84723782639812573 0.48638347960178252 0 0.81400510706333218 0.47357325943904899 0 0.84723782639812573 0.48638347960178252 0 0.81400510706333218 0.47357325943904899 0 0.84925632466077294 0.45359738909549091 0 0.81400510706333218 0.47357325943904899 0 0.84925632466077294 0.45359738909549091 0 0.81973119833356312 0.43505687159469048 0 0.88594198078881503 0.46167788676578442 0 0.84723782639812573 0.48638347960178252 0 0.84925632466077294 0.45359738909549091 0 0.84925632466077294 0.45359738909549091 0 0.86411095495256451 0.42388805655111889 0 0.81973119833356312 0.43505687159469048 0 0.88594198078881503 0.46167788676578442 0 0.84925632466077294 0.45359738909549091 0 0.86411095495256451 0.42388805655111889 0 0.86411095495256451 0.42388805655111889 0 0.86844634540301924 0.38530937474099819 0 0.81308179852519835 0.39754945808726527 0 0.86844634540301924 0.38530937474099819 0 0.81308179852519835 0.39754945808726527 0 0.83573492347052902 0.36590755630746369 0 0.86411095495256451 0.42388805655111889 0 0.81308179852519835 0.39754945808726527 0 0.81973119833356312 0.43505687159469048 0 0.81973119833356312 0.43505687159469048 0 0.77354604466818633 0.40378688774472771 0 0.77972660463949339 0.45529290596363098 0 0.81308179852519835 0.39754945808726527 0 0.81973119833356312 0.43505687159469048 0 0.77354604466818633 0.40378688774472771 0 0.81308179852519835 0.39754945808726527 0 0.77354604466818633 0.40378688774472771 0 0.78145581580700685 0.34881365920033602 0 0.77354604466818633 0.40378688774472771 0 0.77972660463949339 0.45529290596363098 0 0.73483647259922602 0.44789725365921768 0 0.77972660463949339 0.45529290596363098 0 0.73483647259922602 0.44789725365921768 0 0.73947346780852752 0.49062440112282169 0 0.77972660463949339 0.45529290596363098 0 0.77846603114747959 0.49850927265137401 0 0.73947346780852752 0.49062440112282169 0 0.81400510706333218 0.47357325943904899 0 0.77972660463949339 0.45529290596363098 0 0.77846603114747959 0.49850927265137401 0 0.81441713509985358 0.51161854125224959 0 0.81400510706333218 0.47357325943904899 0 0.77846603114747959 0.49850927265137401 0 0.81400510706333218 0.47357325943904899 0 0.81973119833356312 0.43505687159469048 0 0.77972660463949339 0.45529290596363098 0 0.79999999999999982 0.29999999999999999 0 0.77075983436335049 0.25919399014334171 0 0.81486180804364938 0.26321394949780091 0 0.79999999999999982 0.29999999999999999 0 0.74999999999999989 0.29999999999999999 0 0.79999999999999982 0.29999999999999999 0 0.77075983436335049 0.25919399014334171 0 0.74999999999999989 0.29999999999999999 0 0.79999999999999982 0.29999999999999999 0 0.78145581580700685 0.34881365920033602 0 0.74999999999999989 0.29999999999999999 0 0.78145581580700685 0.34881365920033602 0 0.73090396928863699 0.33699297293167962 0 0.74999999999999989 0.29999999999999999 0 0.77354604466818633 0.40378688774472771 0 0.78145581580700685 0.34881365920033602 0 0.74764719760526988 0.3719647154012321 0 0.78145581580700685 0.34881365920033602 0 0.74764719760526988 0.3719647154012321 0 0.73090396928863699 0.33699297293167962 0 0.81308179852519835 0.39754945808726527 0 0.78145581580700685 0.34881365920033602 0 0.83573492347052902 0.36590755630746369 0 0.79999999999999982 0.29999999999999999 0 0.78145581580700685 0.34881365920033602 0 0.82500000000000062 0.33010209762754811 0 0.78145581580700685 0.34881365920033602 0 0.82500000000000062 0.33010209762754811 0 0.83573492347052902 0.36590755630746369 0 0.82500000000000062 0.33010209762754811 0 0.83573492347052902 0.36590755630746369 0 0.87430060258887643 0.34056085888204451 0 0.86844634540301924 0.38530937474099819 0 0.83573492347052902 0.36590755630746369 0 0.87430060258887643 0.34056085888204451 0 0.82500000000000062 0.33010209762754811 0 0.87430060258887643 0.34056085888204451 0 0.84999999999999987 0.29999999999999999 0 0.87430060258887643 0.34056085888204451 0 0.84999999999999987 0.29999999999999999 0 0.89999999999999991 0.29999999999999999 0 0.84999999999999987 0.29999999999999999 0 0.81486180804364938 0.26321394949780091 0 0.8517097391133297 0.2356960729520409 0 0.84999999999999987 0.29999999999999999 0 0.89898474358614167 0.25391965591104898 0 0.8517097391133297 0.2356960729520409 0 0.84999999999999987 0.29999999999999999 0 0.89999999999999991 0.29999999999999999 0 0.79999999999999982 0.29999999999999999 0 0.82500000000000062 0.33010209762754811 0 0.84999999999999987 0.29999999999999999 0 0.79999999999999982 0.29999999999999999 0 0.84999999999999987 0.29999999999999999 0 0.81486180804364938 0.26321394949780091 0 0.79999999999999982 0.29999999999999999 0 0.84999999999999987 0.29999999999999999 0 0.84999999999999987 0.29999999999999999 0 0.89898474358614167 0.25391965591104898 0 0.89999999999999991 0.29999999999999999 0 0.89999999999999991 0.29999999999999999 0 0.94999999999999996 0.29999999999999999 0 0.89999999999999991 0.29999999999999999 0 0.92012390126144183 0.33123581297173937 0 0.94999999999999996 0.29999999999999999 0 0.89898474358614167 0.25391965591104898 0 0.89999999999999991 0.29999999999999999 0 0.94999999999999996 0.29999999999999999 0 0.89898474358614167 0.25391965591104898 0 0.94999999999999996 0.29999999999999999 0 0.94399509803921056 0.24399509803922639 0 0.86844634540301924 0.38530937474099819 0 0.87430060258887643 0.34056085888204451 0 0.91750694127107502 0.36982372220068471 0 0.87430060258887643 0.34056085888204451 0 0.92012390126144183 0.33123581297173937 0 0.91750694127107502 0.36982372220068471 0 0.87430060258887643 0.34056085888204451 0 0.89999999999999991 0.29999999999999999 0 0.92012390126144183 0.33123581297173937 0 0.92012390126144183 0.33123581297173937 0 0.91750694127107502 0.36982372220068471 0 0.95780851984364423 0.34215720972155339 0 0.95871855522754235 0.40006508612975411 0 0.91750694127107502 0.36982372220068471 0 0.95780851984364423 0.34215720972155339 0 0.92012390126144183 0.33123581297173937 0 0.95780851984364423 0.34215720972155339 0 0.94999999999999996 0.29999999999999999 0 0.95780851984364423 0.34215720972155339 0 0.94999999999999996 0.29999999999999999 0 1 0.29999999999999999 0 0.95780851984364423 0.34215720972155339 0 1 0.34999999999993492 0 1 0.29999999999999999 0 0.95871855522754235 0.40006508612975411 0 0.95780851984364423 0.34215720972155339 0 1 0.34999999999993492 0 0.94999999999999996 0.29999999999999999 0 0.97166519676951801 0.26662885509932011 0 0.94399509803921056 0.24399509803922639 0 0.94999999999999996 0.29999999999999999 0 1 0.29999999999999999 0 0.94999999999999996 0.29999999999999999 0 1 0.29999999999999999 0 0.97166519676951801 0.26662885509932011 0 1 0.29999999999999999 0 0.97166519676951801 0.26662885509932011 0 1 0.24999999999987299 0 0.97166519676951801 0.26662885509932011 0 0.97435614836740092 0.22499999999981049 0 1 0.24999999999987299 0 0.97435614836740092 0.22499999999981049 0 1 0.24999999999987299 0 1 0.19999999999974799 0 0.97435614836740092 0.22499999999981049 0 0.94399509803921056 0.24399509803922639 0 0.95391631417672862 0.19584263333809451 0 0.97166519676951801 0.26662885509932011 0 0.97435614836740092 0.22499999999981049 0 0.94399509803921056 0.24399509803922639 0 0.97435614836740092 0.22499999999981049 0 0.95391631417672862 0.19584263333809451 0 1 0.19999999999974799 0 0.95391631417672862 0.19584263333809451 0 1 0.14999999999961891 0 0.93677536231883773 0.14999999999999089 0 1 0.14999999999961891 0 0.93677536231883773 0.14999999999999089 0 0.95386563387744361 0.1041487415577465 0 0.95391631417672862 0.19584263333809451 0 1 0.19999999999974799 0 1 0.14999999999961891 0 0.95391631417672862 0.19584263333809451 0 0.93677536231883773 0.14999999999999089 0 0.90416666666668166 0.20416666666667119 0 0.93677536231883773 0.14999999999999089 0 0.88088768115941807 0.14674609810479519 0 0.90416666666668166 0.20416666666667119 0 0.93677536231883773 0.14999999999999089 0 0.88088768115941807 0.14674609810479519 0 0.90299850604006393 0.09563452813493091 0 0.88088768115941807 0.14674609810479519 0 0.90416666666668166 0.20416666666667119 0 0.85600844944842547 0.1848341897950983 0 0.89898474358614167 0.25391965591104898 0 0.90416666666668166 0.20416666666667119 0 0.8517097391133297 0.2356960729520409 0 0.89898474358614167 0.25391965591104898 0 0.94399509803921056 0.24399509803922639 0 0.90416666666668166 0.20416666666667119 0 0.94399509803921056 0.24399509803922639 0 0.95391631417672862 0.19584263333809451 0 0.90416666666668166 0.20416666666667119 0 0.94999999999986839 0 0 0.97166519676946894 0.033371144900598393 0 0.94399509803922566 0.056004901960802607 0 0.94999999999986839 0 0 1 0 0 0.97166519676946894 0.033371144900598393 0 1 0 0 1 0.049999999999896842 0 0.97166519676946894 0.033371144900598393 0 1 0.049999999999896842 0 0.97166519676946894 0.033371144900598393 0 0.97435614836748241 0.074999999999825387 0 0.97166519676946894 0.033371144900598393 0 0.94399509803922566 0.056004901960802607 0 0.97435614836748241 0.074999999999825387 0 0.94399509803922566 0.056004901960802607 0 0.97435614836748241 0.074999999999825387 0 0.95386563387744361 0.1041487415577465 0 0.97435614836748241 0.074999999999825387 0 1 0.099999999999753911 0 0.95386563387744361 0.1041487415577465 0 1 0.049999999999896842 0 0.97435614836748241 0.074999999999825387 0 1 0.099999999999753911 0 1 0.14999999999961891 0 1 0.099999999999753911 0 0.95386563387744361 0.1041487415577465 0 0.93677536231883773 0.14999999999999089 0 0.95386563387744361 0.1041487415577465 0 0.90299850604006393 0.09563452813493091 0 0.88088768115941807 0.14674609810479519 0 0.90299850604006393 0.09563452813493091 0 0.84725310900442086 0.10779732082922661 0 0.90299850604006393 0.09563452813493091 0 0.899991664607802 0.045289349238254978 0 0.85491058998398861 0.060047533455626502 0 0.94399509803922566 0.056004901960802607 0 0.95386563387744361 0.1041487415577465 0 0.90299850604006393 0.09563452813493091 0 0.94399509803922566 0.056004901960802607 0 0.90299850604006393 0.09563452813493091 0 0.899991664607802 0.045289349238254978 0 0.94999999999986839 0 0 0.94399509803922566 0.056004901960802607 0 0.899991664607802 0.045289349238254978 0 0.899991664607802 0.045289349238254978 0 0.89999999999973679 0 0 0.84999999999960507 0 0 0.94999999999986839 0 0 0.899991664607802 0.045289349238254978 0 0.89999999999973679 0 0 0.84999999999960507 0 0 0.81864958914740749 0.035890501779055867 0 0.79999999999947335 0 0 0.899991664607802 0.045289349238254978 0 0.84999999999960507 0 0 0.85491058998398861 0.060047533455626502 0 0.85491058998398861 0.060047533455626502 0 0.81864958914740749 0.035890501779055867 0 0.80185942888501827 0.074520613036224564 0 0.84999999999960507 0 0 0.85491058998398861 0.060047533455626502 0 0.81864958914740749 0.035890501779055867 0 0.85491058998398861 0.060047533455626502 0 0.84725310900442086 0.10779732082922661 0 0.80185942888501827 0.074520613036224564 0 0.90299850604006393 0.09563452813493091 0 0.85491058998398861 0.060047533455626502 0 0.84725310900442086 0.10779732082922661 0 0.84725310900442086 0.10779732082922661 0 0.80076557130237269 0.1154587552654202 0 0.80185942888501827 0.074520613036224564 0 0.84725310900442086 0.10779732082922661 0 0.80076557130237269 0.1154587552654202 0 0.82709327591102189 0.14937141670914489 0 0.80076557130237269 0.1154587552654202 0 0.76878382444651716 0.097147941686331368 0 0.80185942888501827 0.074520613036224564 0 0.76878382444651716 0.097147941686331368 0 0.77144070960558853 0.14311854477243749 0 0.72525833953073282 0.1032114801687094 0 0.80076557130237269 0.1154587552654202 0 0.76878382444651716 0.097147941686331368 0 0.77144070960558853 0.14311854477243749 0 0.76878382444651716 0.097147941686331368 0 0.80185942888501827 0.074520613036224564 0 0.7527966693318906 0.053051678021508272 0 0.81864958914740749 0.035890501779055867 0 0.80185942888501827 0.074520613036224564 0 0.78393852574753176 0.032039079577822822 0 0.80185942888501827 0.074520613036224564 0 0.78393852574753176 0.032039079577822822 0 0.7527966693318906 0.053051678021508272 0 0.78393852574753176 0.032039079577822822 0 0.7527966693318906 0.053051678021508272 0 0.74999999999934175 0 0 0.78393852574753176 0.032039079577822822 0 0.79999999999947335 0 0 0.74999999999934175 0 0 0.81864958914740749 0.035890501779055867 0 0.78393852574753176 0.032039079577822822 0 0.79999999999947335 0 0 0.81283102246527783 0.1881007222486438 0 0.8517097391133297 0.2356960729520409 0 0.79680861578956375 0.22656778056752541 0 0.81283102246527783 0.1881007222486438 0 0.8517097391133297 0.2356960729520409 0 0.85600844944842547 0.1848341897950983 0 0.81486180804364938 0.26321394949780091 0 0.8517097391133297 0.2356960729520409 0 0.79680861578956375 0.22656778056752541 0 0.90416666666668166 0.20416666666667119 0 0.8517097391133297 0.2356960729520409 0 0.85600844944842547 0.1848341897950983 0 0.88088768115941807 0.14674609810479519 0 0.85600844944842547 0.1848341897950983 0 0.82709327591102189 0.14937141670914489 0 0.88088768115941807 0.14674609810479519 0 0.84725310900442086 0.10779732082922661 0 0.82709327591102189 0.14937141670914489 0 0.81283102246527783 0.1881007222486438 0 0.85600844944842547 0.1848341897950983 0 0.82709327591102189 0.14937141670914489 0 0.81283102246527783 0.1881007222486438 0 0.77144070960558853 0.14311854477243749 0 0.76587607630038135 0.18880039518954719 0 0.81283102246527783 0.1881007222486438 0 0.82709327591102189 0.14937141670914489 0 0.77144070960558853 0.14311854477243749 0 0.80076557130237269 0.1154587552654202 0 0.82709327591102189 0.14937141670914489 0 0.77144070960558853 0.14311854477243749 0 0.77144070960558853 0.14311854477243749 0 0.76587607630038135 0.18880039518954719 0 0.72634814642510737 0.16106886917518889 0 0.76587607630038135 0.18880039518954719 0 0.79680861578956375 0.22656778056752541 0 0.75668890529066124 0.2244279804069782 0 0.81283102246527783 0.1881007222486438 0 0.76587607630038135 0.18880039518954719 0 0.79680861578956375 0.22656778056752541 0 0.77075983436335049 0.25919399014334171 0 0.81486180804364938 0.26321394949780091 0 0.79680861578956375 0.22656778056752541 0 0.77075983436335049 0.25919399014334171 0 0.79680861578956375 0.22656778056752541 0 0.75668890529066124 0.2244279804069782 0 0.77075983436335049 0.25919399014334171 0 0.75668890529066124 0.2244279804069782 0 0.72500000000000064 0.2498161764706 0 0.75668890529066124 0.2244279804069782 0 0.72500000000000064 0.2498161764706 0 0.72500000000001008 0.19776155966387679 0 0.72500000000000064 0.2498161764706 0 0.69397719155551807 0.2245125647000914 0 0.72500000000001008 0.19776155966387679 0 0.72500000000000064 0.2498161764706 0 0.69397719155551807 0.2245125647000914 0 0.67933712972090698 0.25920070958121938 0 0.69397719155551807 0.2245125647000914 0 0.72500000000001008 0.19776155966387679 0 0.6865991819015953 0.189116534044597 0 0.76587607630038135 0.18880039518954719 0 0.75668890529066124 0.2244279804069782 0 0.72500000000001008 0.19776155966387679 0 0.76587607630038135 0.18880039518954719 0 0.72500000000001008 0.19776155966387679 0 0.72634814642510737 0.16106886917518889 0 0.77144070960558853 0.14311854477243749 0 0.72634814642510737 0.16106886917518889 0 0.72525833953073282 0.1032114801687094 0 0.72634814642510737 0.16106886917518889 0 0.68391457121233579 0.14440470121196541 0 0.72525833953073282 0.1032114801687094 0 0.72500000000001008 0.19776155966387679 0 0.72634814642510737 0.16106886917518889 0 0.6865991819015953 0.189116534044597 0 0.72634814642510737 0.16106886917518889 0 0.68391457121233579 0.14440470121196541 0 0.6865991819015953 0.189116534044597 0 0.68391457121233579 0.14440470121196541 0 0.64011864159029941 0.18789607982138171 0 0.6865991819015953 0.189116534044597 0 0.68391457121233579 0.14440470121196541 0 0.65290632656860115 0.11434202593454081 0 0.6236733212988993 0.14864538214901801 0 0.68391457121233579 0.14440470121196541 0 0.64011864159029941 0.18789607982138171 0 0.6236733212988993 0.14864538214901801 0 0.64011864159029941 0.18789607982138171 0 0.65394964615507722 0.22666784374016369 0 0.59814117807200873 0.23398510860739519 0 0.65394964615507722 0.22666784374016369 0 0.59814117807200873 0.23398510860739519 0 0.62657463266645097 0.26524202571255862 0 0.69397719155551807 0.2245125647000914 0 0.65394964615507722 0.22666784374016369 0 0.67933712972090698 0.25920070958121938 0 0.64011864159029941 0.18789607982138171 0 0.65394964615507722 0.22666784374016369 0 0.6865991819015953 0.189116534044597 0 0.69397719155551807 0.2245125647000914 0 0.65394964615507722 0.22666784374016369 0 0.6865991819015953 0.189116534044597 0 0.69999999999921003 0 0 0.72683645290270404 0.027797073151180601 0 0.7010294155333181 0.056779085686491267 0 0.69999999999921003 0 0 0.7010294155333181 0.056779085686491267 0 0.66369801598854572 0.036327466368102787 0 0.7527966693318906 0.053051678021508272 0 0.74999999999934175 0 0 0.72683645290270404 0.027797073151180601 0 0.69999999999921003 0 0 0.74999999999934175 0 0 0.72683645290270404 0.027797073151180601 0 0.7527966693318906 0.053051678021508272 0 0.72683645290270404 0.027797073151180601 0 0.7010294155333181 0.056779085686491267 0 0.7010294155333181 0.056779085686491267 0 0.72525833953073282 0.1032114801687094 0 0.68330259535470161 0.10038702501083881 0 0.7527966693318906 0.053051678021508272 0 0.7010294155333181 0.056779085686491267 0 0.72525833953073282 0.1032114801687094 0 0.76878382444651716 0.097147941686331368 0 0.7527966693318906 0.053051678021508272 0 0.72525833953073282 0.1032114801687094 0 0.68391457121233579 0.14440470121196541 0 0.72525833953073282 0.1032114801687094 0 0.68330259535470161 0.10038702501083881 0 0.68330259535470161 0.10038702501083881 0 0.65290632656860115 0.11434202593454081 0 0.65408113592120842 0.073941773121567966 0 0.68391457121233579 0.14440470121196541 0 0.68330259535470161 0.10038702501083881 0 0.65290632656860115 0.11434202593454081 0 0.65290632656860115 0.11434202593454081 0 0.61956000905586006 0.1043312481793135 0 0.6236733212988993 0.14864538214901801 0 0.65290632656860115 0.11434202593454081 0 0.65408113592120842 0.073941773121567966 0 0.61956000905586006 0.1043312481793135 0 0.65408113592120842 0.073941773121567966 0 0.61940220174112337 0.047251958781050582 0 0.61956000905586006 0.1043312481793135 0 0.7010294155333181 0.056779085686491267 0 0.68330259535470161 0.10038702501083881 0 0.65408113592120842 0.073941773121567966 0 0.7010294155333181 0.056779085686491267 0 0.65408113592120842 0.073941773121567966 0 0.66369801598854572 0.036327466368102787 0 0.65408113592120842 0.073941773121567966 0 0.66369801598854572 0.036327466368102787 0 0.61940220174112337 0.047251958781050582 0 0.66369801598854572 0.036327466368102787 0 0.64999999999907843 0 0 0.61940220174112337 0.047251958781050582 0 0.69999999999921003 0 0 0.66369801598854572 0.036327466368102787 0 0.64999999999907843 0 0 0.59999999999894682 0 0 0.57396793757665954 0.037011367187645222 0 0.5499999999988151 0 0 0.64999999999907843 0 0 0.59999999999894682 0 0 0.61940220174112337 0.047251958781050582 0 0.59999999999894682 0 0 0.61940220174112337 0.047251958781050582 0 0.57396793757665954 0.037011367187645222 0 0.61940220174112337 0.047251958781050582 0 0.57396793757665954 0.037011367187645222 0 0.57667858002728545 0.078486105337742612 0 0.61940220174112337 0.047251958781050582 0 0.57667858002728545 0.078486105337742612 0 0.61956000905586006 0.1043312481793135 0 0.61956000905586006 0.1043312481793135 0 0.58516465772821369 0.11653801664834119 0 0.6236733212988993 0.14864538214901801 0 0.57667858002728545 0.078486105337742612 0 0.61956000905586006 0.1043312481793135 0 0.58516465772821369 0.11653801664834119 0 0.58516465772821369 0.11653801664834119 0 0.54979595918804436 0.1060565713905809 0 0.56202748619534593 0.15054058349222879 0 0.57667858002728545 0.078486105337742612 0 0.58516465772821369 0.11653801664834119 0 0.54979595918804436 0.1060565713905809 0 0.54979595918804436 0.1060565713905809 0 0.51076801031701946 0.1202837388510348 0 0.52375890611712683 0.059318771819432882 0 0.47881186583059909 0.093591717165689425 0 0.51076801031701946 0.1202837388510348 0 0.52375890611712683 0.059318771819432882 0 0.57667858002728545 0.078486105337742612 0 0.54979595918804436 0.1060565713905809 0 0.52375890611712683 0.059318771819432882 0 0.57396793757665954 0.037011367187645222 0 0.52375890611712683 0.059318771819432882 0 0.5499999999988151 0 0 0.57396793757665954 0.037011367187645222 0 0.57667858002728545 0.078486105337742612 0 0.52375890611712683 0.059318771819432882 0 0.49999999999869432 0 0 0.52375890611712683 0.059318771819432882 0 0.5499999999988151 0 0 0.59814117807200873 0.23398510860739519 0 0.59443395090188023 0.18455690917515069 0 0.55306006949600994 0.20198184231352201 0 0.59814117807200873 0.23398510860739519 0 0.55306006949600994 0.20198184231352201 0 0.54248833945060504 0.2520322959927106 0 0.64011864159029941 0.18789607982138171 0 0.59814117807200873 0.23398510860739519 0 0.59443395090188023 0.18455690917515069 0 0.64011864159029941 0.18789607982138171 0 0.59443395090188023 0.18455690917515069 0 0.6236733212988993 0.14864538214901801 0 0.58516465772821369 0.11653801664834119 0 0.6236733212988993 0.14864538214901801 0 0.56202748619534593 0.15054058349222879 0 0.59443395090188023 0.18455690917515069 0 0.6236733212988993 0.14864538214901801 0 0.56202748619534593 0.15054058349222879 0 0.59443395090188023 0.18455690917515069 0 0.56202748619534593 0.15054058349222879 0 0.55306006949600994 0.20198184231352201 0 0.56202748619534593 0.15054058349222879 0 0.51729576145820033 0.1683240575987815 0 0.55306006949600994 0.20198184231352201 0 0.54979595918804436 0.1060565713905809 0 0.51076801031701946 0.1202837388510348 0 0.56202748619534593 0.15054058349222879 0 0.48466639505193998 0.1421439844745814 0 0.51076801031701946 0.1202837388510348 0 0.51729576145820033 0.1683240575987815 0 0.51076801031701946 0.1202837388510348 0 0.56202748619534593 0.15054058349222879 0 0.51729576145820033 0.1683240575987815 0 0.51729576145820033 0.1683240575987815 0 0.50760557329222289 0.20700468884612061 0 0.55306006949600994 0.20198184231352201 0 0.50760557329222289 0.20700468884612061 0 0.55306006949600994 0.20198184231352201 0 0.54248833945060504 0.2520322959927106 0 0.49695729691142171 0.25014895411178018 0 0.50760557329222289 0.20700468884612061 0 0.54248833945060504 0.2520322959927106 0 0.49695729691142171 0.25014895411178018 0 0.5 0.29999999999999999 0 0.54248833945060504 0.2520322959927106 0 0.5 0.29999999999999999 0 0.54999999999999993 0.29999999999999999 0 0.52752007115234678 0.33170632466418198 0 0.5 0.29999999999999999 0 0.54999999999999993 0.29999999999999999 0 0.54248833945060504 0.2520322959927106 0 0.5 0.29999999999999999 0 0.54999999999999993 0.29999999999999999 0 0.54999999999999993 0.29999999999999999 0 0.54248833945060504 0.2520322959927106 0 0.5794309697024993 0.27124795968204829 0 0.59814117807200873 0.23398510860739519 0 0.54248833945060504 0.2520322959927106 0 0.5794309697024993 0.27124795968204829 0 0.54999999999999993 0.29999999999999999 0 0.59999999999999976 0.29999999999999999 0 0.54999999999999993 0.29999999999999999 0 0.5794309697024993 0.27124795968204829 0 0.59999999999999976 0.29999999999999999 0 0.59999999999999976 0.29999999999999999 0 0.6499999999999998 0.29999999999999999 0 0.5794309697024993 0.27124795968204829 0 0.59999999999999976 0.29999999999999999 0 0.62657463266645097 0.26524202571255862 0 0.59814117807200873 0.23398510860739519 0 0.5794309697024993 0.27124795968204829 0 0.62657463266645097 0.26524202571255862 0 0.61959173890754571 0.33832250091341232 0 0.56836770495988642 0.3523062350852913 0 0.6084546825910605 0.37989672713932537 0 0.59999999999999976 0.29999999999999999 0 0.61959173890754571 0.33832250091341232 0 0.6499999999999998 0.29999999999999999 0 0.59999999999999976 0.29999999999999999 0 0.61959173890754571 0.33832250091341232 0 0.56836770495988642 0.3523062350852913 0 0.54999999999999993 0.29999999999999999 0 0.59999999999999976 0.29999999999999999 0 0.56836770495988642 0.3523062350852913 0 0.56836770495988642 0.3523062350852913 0 0.52752007115234678 0.33170632466418198 0 0.52289427570932567 0.3932284363388488 0 0.54999999999999993 0.29999999999999999 0 0.56836770495988642 0.3523062350852913 0 0.52752007115234678 0.33170632466418198 0 0.49077833859261139 0.35229981449445641 0 0.5 0.29999999999999999 0 0.52752007115234678 0.33170632466418198 0 0.49077833859261139 0.35229981449445641 0 0.52752007115234678 0.33170632466418198 0 0.52289427570932567 0.3932284363388488 0 0.56836770495988642 0.3523062350852913 0 0.52289427570932567 0.3932284363388488 0 0.57744073070774993 0.41535148636609359 0 0.52289427570932567 0.3932284363388488 0 0.53823865529665704 0.45873898050322898 0 0.57744073070774993 0.41535148636609359 0 0.48858720058566618 0.43964267759203868 0 0.52289427570932567 0.3932284363388488 0 0.53823865529665704 0.45873898050322898 0 0.49102375406324739 0.49123754822244059 0 0.53330375813596242 0.50827942741749099 0 0.53823865529665704 0.45873898050322898 0 0.49102375406324739 0.49123754822244059 0 0.48858720058566618 0.43964267759203868 0 0.53823865529665704 0.45873898050322898 0 0.53330375813596242 0.50827942741749099 0 0.57611405284611883 0.50165903596042916 0 0.53823865529665704 0.45873898050322898 0 0.57611405284611883 0.50165903596042916 0 0.57975577671020095 0.46172033326338591 0 0.61547661924074692 0.48539576058873962 0 0.57611405284611883 0.50165903596042916 0 0.53823865529665704 0.45873898050322898 0 0.57975577671020095 0.46172033326338591 0 0.57975577671020095 0.46172033326338591 0 0.61209567303293111 0.44669033081290321 0 0.57744073070774993 0.41535148636609359 0 0.53823865529665704 0.45873898050322898 0 0.57975577671020095 0.46172033326338591 0 0.57744073070774993 0.41535148636609359 0 0.57975577671020095 0.46172033326338591 0 0.61209567303293111 0.44669033081290321 0 0.61547661924074692 0.48539576058873962 0 0.56836770495988642 0.3523062350852913 0 0.57744073070774993 0.41535148636609359 0 0.6084546825910605 0.37989672713932537 0 0.61209567303293111 0.44669033081290321 0 0.57744073070774993 0.41535148636609359 0 0.63912439215427275 0.41063340167983359 0 0.57744073070774993 0.41535148636609359 0 0.6084546825910605 0.37989672713932537 0 0.63912439215427275 0.41063340167983359 0 0.6084546825910605 0.37989672713932537 0 0.63912439215427275 0.41063340167983359 0 0.65481233915350323 0.35652751921065562 0 0.63912439215427275 0.41063340167983359 0 0.65178832218679827 0.45929119821019959 0 0.6879972333610942 0.43038561374960838 0 0.63912439215427275 0.41063340167983359 0 0.68128176404677243 0.38629093627004979 0 0.6879972333610942 0.43038561374960838 0 0.63912439215427275 0.41063340167983359 0 0.68128176404677243 0.38629093627004979 0 0.65481233915350323 0.35652751921065562 0 0.61547661924074692 0.48539576058873962 0 0.6541250972820879 0.49999999999999989 0 0.65178832218679827 0.45929119821019959 0 0.61209567303293111 0.44669033081290321 0 0.61547661924074692 0.48539576058873962 0 0.65178832218679827 0.45929119821019959 0 0.61209567303293111 0.44669033081290321 0 0.63912439215427275 0.41063340167983359 0 0.65178832218679827 0.45929119821019959 0 0.65178832218679827 0.45929119821019959 0 0.69385896817107129 0.48377516041410151 0 0.6879972333610942 0.43038561374960838 0 0.6541250972820879 0.49999999999999989 0 0.65178832218679827 0.45929119821019959 0 0.69385896817107129 0.48377516041410151 0 0.7152569930854884 0.5237994455134295 0 0.69385896817107129 0.48377516041410151 0 0.73947346780852752 0.49062440112282169 0 0.69385896817107129 0.48377516041410151 0 0.73483647259922602 0.44789725365921768 0 0.6879972333610942 0.43038561374960838 0 0.69385896817107129 0.48377516041410151 0 0.73483647259922602 0.44789725365921768 0 0.73947346780852752 0.49062440112282169 0 0.68128176404677243 0.38629093627004979 0 0.72622533758026719 0.40265885511101601 0 0.71508799138962864 0.36622814920737751 0 0.73483647259922602 0.44789725365921768 0 0.6879972333610942 0.43038561374960838 0 0.72622533758026719 0.40265885511101601 0 0.68128176404677243 0.38629093627004979 0 0.6879972333610942 0.43038561374960838 0 0.72622533758026719 0.40265885511101601 0 0.77354604466818633 0.40378688774472771 0 0.73483647259922602 0.44789725365921768 0 0.72622533758026719 0.40265885511101601 0 0.72622533758026719 0.40265885511101601 0 0.74764719760526988 0.3719647154012321 0 0.71508799138962864 0.36622814920737751 0 0.77354604466818633 0.40378688774472771 0 0.72622533758026719 0.40265885511101601 0 0.74764719760526988 0.3719647154012321 0 0.74764719760526988 0.3719647154012321 0 0.71508799138962864 0.36622814920737751 0 0.73090396928863699 0.33699297293167962 0 0.71508799138962864 0.36622814920737751 0 0.68887083591306764 0.33632058575757479 0 0.73090396928863699 0.33699297293167962 0 0.68128176404677243 0.38629093627004979 0 0.71508799138962864 0.36622814920737751 0 0.68887083591306764 0.33632058575757479 0 0.68887083591306764 0.33632058575757479 0 0.73090396928863699 0.33699297293167962 0 0.69999999999999984 0.29999999999999999 0 0.72500000000000064 0.2498161764706 0 0.74999999999999989 0.29999999999999999 0 0.69999999999999984 0.29999999999999999 0 0.74999999999999989 0.29999999999999999 0 0.69999999999999984 0.29999999999999999 0 0.73090396928863699 0.33699297293167962 0 0.74999999999999989 0.29999999999999999 0 0.69999999999999984 0.29999999999999999 0 0.77075983436335049 0.25919399014334171 0 0.72500000000000064 0.2498161764706 0 0.74999999999999989 0.29999999999999999 0 0.72500000000000064 0.2498161764706 0 0.69999999999999984 0.29999999999999999 0 0.67933712972090698 0.25920070958121938 0 0.69999999999999984 0.29999999999999999 0 0.67933712972090698 0.25920070958121938 0 0.6499999999999998 0.29999999999999999 0 0.68887083591306764 0.33632058575757479 0 0.69999999999999984 0.29999999999999999 0 0.6499999999999998 0.29999999999999999 0 0.69999999999999984 0.29999999999999999 0 0.6499999999999998 0.29999999999999999 0 0.67933712972090698 0.25920070958121938 0 0.62657463266645097 0.26524202571255862 0 0.6499999999999998 0.29999999999999999 0 0.65394964615507722 0.22666784374016369 0 0.67933712972090698 0.25920070958121938 0 0.62657463266645097 0.26524202571255862 0 0.59999999999999976 0.29999999999999999 0 0.62657463266645097 0.26524202571255862 0 0.6499999999999998 0.29999999999999999 0 0.61959173890754571 0.33832250091341232 0 0.6499999999999998 0.29999999999999999 0 0.65481233915350323 0.35652751921065562 0 0.61959173890754571 0.33832250091341232 0 0.6084546825910605 0.37989672713932537 0 0.65481233915350323 0.35652751921065562 0 0.68128176404677243 0.38629093627004979 0 0.68887083591306764 0.33632058575757479 0 0.65481233915350323 0.35652751921065562 0 0.68887083591306764 0.33632058575757479 0 0.6499999999999998 0.29999999999999999 0 0.65481233915350323 0.35652751921065562 0 
</DataArray>
</Points>
<Cells>
<DataArray type="UInt32" Name="connectivity" format="ascii">
0 1 2 3 4 5 6 7 8 9 10 11 12 13 14 15 16 17 18 19 20 21 22 23 24 25 26 27 28 29 30 31 32 33 34 35 36 37 38 39 40 41 42 43 44 45 46 47 48 49 50 51 52 53 54 55 56 57 58 59 60 61 62 63 64 65 66 67 68 69 70 71 72 73 74 75 76 77 78 79 80 81 82 83 84 85 86 87 88 89 90 91 92 93 94 95 96 97 98 99 100 101 102 103 104 105 106 107 108 109 110 111 112 113 114 115 116 117 118 119 120 121 122 123 124 125 126 127 128 129 130 131 132 133 134 135 136 137 138 139 140 141 142 143 144 145 146 147 148 149 150 151 152 153 154 155 156 157 158 159 160 161 162 163 164 165 166 167 168 169 170 171 172 173 174 175 176 177 178 179 180 181 182 183 184 185 186 187 188 189 190 191 192 193 194 195 196 197 198 199 200 201 202 203 204 205 206 207 208 209 210 211 212 213 214 215 216 217 218 219 220 221 222 223 224 225 226 227 228 229 230 231 232 233 234 235 236 237 238 239 240 241 242 243 244 245 246 247 248 249 250 251 252 253 254 255 256 257 258 259 260 261 262 263 264 265 266 267 268 269 270 271 272 273 274 275 276 277 278 279 280 281 282 283 284 285 286 287 288 289 290 291 292 293 294 295 296 297 298 299 300 301 302 303 304 305 306 307 308 309 310 311 312 313 314 315 316 317 318 319 320 321 322 323 324 325 326 327 328 329 330 331 332 333 334 335 336 337 338 339 340 341 342 343 344 345 346 347 348 349 350 351 352 353 354 355 356 357 358 359 360 361 362 363 364 365 366 367 368 369 370 371 372 373 374 375 376 377 378 379 380 381 382 383 384 385 386 387 388 389 390 391 392 393 394 395 396 397 398 399 400 401 402 403 404 405 406 407 408 409 410 411 412 413 414 415 416 417 418 419 420 421 422 423 424 425 426 427 428 429 430 431 432 433 434 435 436 437 438 439 440 441 442 443 444 445 446 447 448 449 450 451 452 453 454 455 456 457 458 459 460 461 462 463 464 465 466 467 468 469 470 471 472 473 474 475 476 477 478 479 480 481 482 483 484 485 486 487 488 489 490 491 492 493 494 495 496 497 498 499 500 501 502 503 504 505 506 507 508 509 510 511 512 513 514 515 516 517 518 519 520 521 522 523 524 525 526 527 528 529 530 531 532 533 534 535 536 537 538 539 540 541 542 543 544 545 546 547 548 549 550 551 552 553 554 555 556 557 558 559 560 561 562 563 564 565 566 567 568 569 570 571 572 573 574 575 576 577 578 579 580 581 582 583 584 585 586 587 588 589 590 591 592 593 594 595 596 597 598 599 600 601 602 603 604 605 606 607 608 609 610 611 612 613 614 615 616 617 618 619 620 621 622 623 624 625 626 627 628 629 630 631 632 633 634 635 636 637 638 639 640 641 642 643 644 645 646 647 648 649 650 651 652 653 654 655 656 657 658 659 660 661 662 663 664 665 666 667 668 669 670 671 672 673 674 675 676 677 678 679 680 681 682 683 684 685 686 687 688 689 690 691 692 693 694 695 696 697 698 699 700 701 702 703 704 705 706 707 708 709 710 711 712 713 714 715 716 717 718 719 720 721 722 723 724 725 726 727 728 729 730 731 732 733 734 735 736 737 738 739 740 741 742 743 744 745 746 747 748 749 750 751 752 753 754 755 756 757 758 759 760 761 762 763 764 765 766 767 768 769 770 771 772 773 774 775 776 777 778 779 780 781 782 783 784 785 786 787 788 789 790 791 792 793 794 795 796 797 798 799 800 801 802 803 804 805 806 807 808 809 810 811 812 813 814 815 816 817 818 819 820 821 822 823 824 825 826 827 828 829 830 831 832 833 834 835 836 837 838 839 840 841 842 843 844 845 846 847 848 849 850 851 852 853 854 855 856 857 858 859 860 861 862 863 864 865 866 867 868 869 870 871 872 873 874 875 876 877 878 879 880 881 882 883 884 885 886 887 888 889 890 891 892 893 894 895 896 897 898 899 900 901 902 903 904 905 906 907 908 909 910 911 912 913 914 915 916 917 918 919 920 921 922 923 924 925 926 927 928 929 930 931 932 933 934 935 936 937 938 939 940 941 942 943 944 945 946 947 948 949 950 951 952 953 954 955 956 957 958 959 960 961 962 963 964 965 966 967 968 969 970 971 972 973 974 975 976 977 978 979 980 981 982 983 984 985 986 987 988 989 990 991 992 993 994 995 996 997 998 999 1000 1001 1002 1003 1004 1005 1006 1007 1008 1009 1010 1011 1012 1013 1014 1015 1016 1017 1018 1019 1020 1021 1022 1023 1024 1025 1026 1027 1028 1029 1030 1031 1032 1033 1034 1035 1036 1037 1038 1039 1040 1041 1042 1043 1044 1045 1046 1047 1048 1049 1050 1051 1052 1053 1054 1055 1056 1057 1058 1059 1060 1061 1062 1063 1064 1065 1066 1067 1068 1069 1070 1071 1072 1073 1074 1075 1076 1077 1078 1079 1080 1081 1082 1083 1084 1085 1086 1087 1088 1089 1090 1091 1092 1093 1094 1095 1096 1097 1098 1099 1100 1101 1102 1103 1104 1105 1106 1107 1108 1109 1110 1111 1112 1113 1114 1115 1116 1117 1118 1119 1120 1121 1122 1123 1124 1125 1126 1127 1128 1129 1130 1131 1132 1133 1134 1135 1136 1137 1138 1139 1140 1141 1142 1143 1144 1145 1146 1147 1148 1149 1150 1151 1152 1153 1154 1155 1156 1157 1158 1159 1160 1161 1162 1163 1164 1165 1166 1167 1168 1169 1170 1171 1172 1173 1174 1175 1176 1177 1178 1179 1180 1181 1182 1183 1184 1185 1186 1187 1188 1189 1190 1191 1192 1193 1194 1195 1196 1197 1198 1199 1200 1201 1202 1203 1204 1205 1206 1207 1208 1209 1210 1211 1212 1213 1214 1215 1216 1217 1218 1219 1220 1221 1222 1223 1224 1225 1226 1227 1228 1229 1230 1231 1232 1233 1234 1235 1236 1237 1238 1239 1240 1241 1242 1243 1244 1245 1246 1247 1248 1249 1250 1251 1252 1253 1254 1255 1256 1257 1258 1259 1260 1261 1262 1263 1264 1265 1266 1267 1268 1269 1270 1271 1272 1273 1274 1275 1276 1277 1278 1279 1280 1281 1282 1283 1284 1285 1286 1287 1288 1289 1290 1291 1292 1293 1294 1295 1296 1297 1298 1299 1300 1301 1302 1303 1304 1305 1306 1307 1308 1309 1310 1311 1312 1313 1314 1315 1316 1317 1318 1319 1320 1321 1322 1323 1324 1325 1326 1327 1328 1329 1330 1331 1332 1333 1334 1335 1336 1337 1338 1339 1340 1341 1342 1343 1344 1345 1346 1347 1348 1349 1350 1351 1352 1353 1354 1355 1356 1357 1358 1359 1360 1361 1362 1363 1364 1365 1366 1367 1368 1369 1370 1371 1372 1373 1374 1375 1376 1377 1378 1379 1380 1381 1382 1383 1384 1385 1386 1387 1388 1389 1390 1391 1392 1393 1394 1395 1396 1397 1398 1399 1400 1401 1402 1403 1404 1405 1406 1407 1408 1409 1410 1411 1412 1413 1414 1415 1416 1417 1418 1419 1420 1421 1422 1423 1424 1425 1426 1427 1428 1429 1430 1431 1432 1433 1434 1435 1436 1437 1438 1439 1440 1441 1442 1443 1444 1445 1446 1447 1448 1449 1450 1451 1452 1453 1454 1455 1456 1457 1458 1459 1460 1461 1462 1463 1464 1465 1466 1467 1468 1469 1470 1471 1472 1473 1474 1475 1476 1477 1478 1479 1480 1481 1482 1483 1484 1485 1486 1487 1488 1489 1490 1491 1492 1493 1494 1495 1496 1497 1498 1499 1500 1501 1502 1503 1504 1505 1506 1507 1508 1509 1510 1511 1512 1513 1514 1515 1516 1517 1518 1519 1520 1521 1522 1523 1524 1525 1526 1527 1528 1529 1530 1531 1532 1533 1534 1535 1536 1537 1538 1539 1540 1541 1542 1543 1544 1545 1546 1547 1548 1549 1550 1551 1552 1553 1554 1555 1556 1557 1558 1559 1560 1561 1562 1563 1564 1565 1566 1567 1568 1569 1570 1571 1572 1573 1574 1575 1576 1577 1578 1579 1580 1581 1582 1583 1584 1585 1586 1587 1588 1589 1590 1591 1592 1593 1594 1595 1596 1597 1598 1599 1600 1601 1602 1603 1604 1605 1606 1607 1608 1609 1610 1611 1612 1613 1614 1615 1616 1617 1618 1619 1620 1621 1622 1623 1624 1625 1626 1627 1628 1629 1630 1631 1632 1633 1634 1635 1636 1637 1638 1639 1640 1641 1642 1643 1644 1645 1646 1647 1648 1649 1650 1651 1652 1653 1654 1655 1656 1657 1658 1659 1660 1661 1662 1663 1664 1665 1666 1667 1668 1669 1670 1671 1672 1673 1674 1675 1676 1677 1678 1679 1680 1681 1682 1683 1684 1685 1686 1687 1688 1689 1690 1691 1692 1693 1694 1695 1696 1697 1698 1699 1700 1701 1702 1703 1704 1705 1706 1707 1708 1709 1710 1711 1712 1713 1714 1715 1716 1717 1718 1719 1720 1721 1722 1723 1724 1725 1726 1727 1728 1729 1730 1731 1732 1733 1734 1735 1736 1737 1738 1739 1740 1741 1742 1743 1744 1745 1746 1747 1748 1749 1750 1751 1752 1753 1754 1755 1756 1757 1758 1759 1760 1761 1762 1763 1764 1765 1766 1767 1768 1769 1770 1771 1772 1773 1774 1775 1776 1777 1778 1779 1780 1781 1782 1783 1784 1785 1786 1787 1788 1789 1790 1791 1792 1793 1794 1795 1796 1797 1798 1799 1800 1801 1802 1803 1804 1805 1806 1807 1808 1809 1810 1811 1812 1813 1814 1815 1816 1817 1818 1819 1820 1821 1822 1823 1824 1825 1826 1827 1828 1829 1830 1831 1832 1833 1834 1835 1836 1837 1838 1839 1840 1841 1842 1843 1844 1845 1846 1847 1848 1849 1850 1851 1852 1853 1854 1855 1856 1857 1858 1859 1860 1861 1862 1863 1864 1865 1866 1867 1868 1869 1870 1871 1872 1873 1874 1875 1876 1877 1878 1879 1880 1881 1882 1883 1884 1885 1886 1887 1888 1889 1890 1891 1892 1893 1894 1895 1896 1897 1898 1899 1900 1901 1902 1903 1904 1905 1906 1907 1908 1909 1910 1911 1912 1913 1914 1915 1916 1917 1918 1919 1920 1921 1922 1923 1924 1925 1926 1927 1928 1929 1930 1931 1932 1933 1934 1935 1936 1937 1938 1939 1940 1941 1942 1943 1944 1945 1946 1947 1948 1949 1950 1951 1952 1953 1954 1955 1956 1957 1958 1959 1960 1961 1962 1963 1964 1965 1966 1967 1968 1969 1970 1971 1972 1973 1974 1975 1976 1977 1978 1979 1980 1981 1982 1983 1984 1985 1986 1987 1988 1989 1990 1991 1992 1993 1994 1995 1996 1997 1998 1999 2000 2001 2002 2003 2004 2005 2006 2007 2008 2009 2010 2011 2012 2013 2014 2015 2016 2017 2018 2019 2020 2021 2022 2023 2024 2025 2026 2027 2028 2029 2030 2031 2032 2033 2034 2035 2036 2037 2038 2039 2040 2041 2042 2043 2044 2045 2046 2047 2048 2049 2050 2051 2052 2053 2054 2055 2056 2057 2058 2059 2060 2061 2062 2063 2064 2065 2066 2067 2068 2069 2070 2071 2072 2073 2074 2075 2076 2077 2078 2079 2080 2081 2082 2083 2084 2085 2086 2087 2088 2089 2090 2091 2092 2093 2094 2095 2096 2097 2098 2099 2100 2101 2102 2103 2104 2105 2106 2107 2108 2109 2110 2111 2112 2113 2114 2115 2116 2117 2118 2119 2120 2121 2122 2123 2124 2125 2126 2127 2128 2129 2130 2131 2132 2133 2134 2135 2136 2137 2138 2139 2140 2141 2142 2143 2144 2145 2146 2147 2148 2149 2150 2151 2152 2153 2154 2155 2156 2157 2158 2159 2160 2161 2162 2163 2164 2165 2166 2167 2168 2169 2170 2171 2172 2173 2174 2175 2176 2177 2178 2179 2180 2181 2182 2183 2184 2185 2186 2187 2188 2189 2190 2191 2192 2193 2194 2195 2196 2197 2198 2199 2200 2201 2202 2203 2204 2205 2206 2207 2208 2209 2210 2211 2212 2213 2214 2215 2216 2217 2218 2219 2220 2221 2222 2223 2224 2225 2226 2227 2228 2229 2230 2231 2232 2233 2234 2235 2236 2237 2238 2239 2240 2241 2242 2243 2244 2245 2246 2247 2248 2249 2250 2251 2252 2253 2254 2255 2256 2257 2258 2259 2260 2261 2262 2263 2264 2265 2266 2267 2268 2269 2270 2271 2272 2273 2274 2275 2276 2277 2278 2279 2280 2281 2282 2283 2284 2285 2286 2287 2288 2289 2290 2291 2292 2293 2294 2295 2296 2297 2298 2299 2300 2301 2302 2303 2304 2305 2306 2307 2308 2309 2310 2311 2312 2313 2314 2315 2316 2317 2318 2319 2320 2321 2322 2323 2324 2325 2326 2327 2328 2329 2330 2331 2332 2333 2334 2335 2336 2337 2338 2339 2340 2341 2342 2343 2344 2345 2346 2347 2348 2349 2350 2351 2352 2353 2354 2355 2356 2357 2358 2359 2360 2361 2362 2363 2364 2365 2366 2367 2368 2369 2370 2371 2372 2373 2374 2375 2376 2377 2378 2379 2380 2381 2382 2383 2384 2385 2386 2387 2388 2389 2390 2391 2392 2393 2394 2395 2396 2397 2398 2399 2400 2401 2402 2403 2404 2405 2406 2407 2408 2409 2410 2411 2412 2413 2414 2415 2416 2417 2418 2419 2420 2421 2422 2423 2424 2425 2426 2427 2428 2429 2430 2431 2432 2433 2434 2435 2436 2437 2438 2439 2440 2441 2442 2443 2444 2445 2446 2447 2448 2449 2450 2451 2452 2453 2454 2455 2456 2457 2458 2459 2460 2461 2462 2463 2464 2465 2466 2467 2468 2469 2470 2471 2472 2473 2474 2475 2476 2477 2478 2479 2480 2481 2482 2483 2484 2485 2486 2487 2488 2489 2490 2491 2492 2493 2494 2495 2496 2497 2498 2499 2500 2501 2502 2503 2504 2505 2506 2507 2508 2509 2510 2511 2512 2513 2514 2515 2516 2517 2518 2519 2520 2521 2522 2523 2524 2525 2526 2527 2528 2529 2530 2531 2532 2533 2534 2535 2536 2537 2538 2539 2540 2541 2542 2543 2544 2545 2546 2547 2548 2549 2550 2551 2552 2553 2554 2555 2556 2557 2558 2559 2560 2561 2562 2563 2564 2565 2566 2567 2568 2569 2570 2571 2572 2573 2574 2575 2576 2577 2578 2579 2580 2581 2582 2583 2584 2585 2586 2587 2588 2589 2590 2591 2592 2593 2594 2595 2596 2597 2598 2599 2600 2601 2602 2603 2604 2605 2606 2607 2608 2609 2610 2611 2612 2613 2614 2615 2616 2617 2618 2619 2620 2621 2622 2623 2624 2625 2626 2627 2628 2629 2630 2631 2632 2633 2634 2635 2636 2637 2638 2639 2640 2641 2642 2643 2644 2645 2646 2647 2648 2649 2650 2651 2652 2653 2654 2655 2656 2657 2658 2659 2660 2661 2662 2663 2664 2665 2666 2667 2668 2669 2670 2671 2672 2673 2674 2675 2676 2677 2678 2679 2680 2681 2682 2683 2684 2685 2686 2687 2688 2689 2690 2691 2692 2693 2694 2695 2696 2697 2698 2699 2700 2701 2702 2703 2704 2705 2706 2707 2708 2709 2710 2711 2712 2713 2714 2715 2716 2717 2718 2719 2720 2721 2722 2723 2724 2725 2726 2727 2728 2729 2730 2731 2732 2733 2734 2735 2736 2737 2738 2739 2740 2741 2742 2743 2744 2745 2746 2747 2748 2749 2750 2751 2752 2753 2754 2755 2756 2757 2758 2759 2760 2761 2762 2763 2764 2765 2766 2767 2768 2769 2770 2771 2772 2773 2774 2775 2776 2777 2778 2779 2780 2781 2782 2783 2784 2785 2786 2787 2788 2789 2790 2791 2792 2793 2794 2795 2796 2797 2798 2799 2800 2801 2802 2803 2804 2805 2806 2807 2808 2809 2810 2811 2812 2813 2814 2815 2816 2817 2818 2819 2820 2821 2822 2823 2824 2825 2826 2827 2828 2829 2830 2831 2832 2833 2834 2835 2836 2837 2838 2839 2840 2841 2842 2843 2844 2845 2846 2847 2848 2849 2850 2851 2852 2853 2854 2855 2856 2857 2858 2859 2860 2861 2862 2863 2864 2865 2866 2867 2868 2869 2870 2871 2872 2873 2874 2875 2876 2877 2878 2879 2880 2881 2882 2883 2884 2885 2886 2887 2888 2889 2890 2891 2892 2893 2894 2895 2896 2897 2898 2899 2900 2901 2902 2903 2904 2905 2906 2907 2908 2909 2910 2911 2912 2913 2914 2915 2916 2917 2918 2919 2920 2921 2922 2923 2924 2925 2926 2927 2928 2929 2930 2931 2932 2933 2934 2935 2936 2937 2938 2939 2940 2941 2942 2943 2944 2945 2946 2947 2948 2949 2950 2951 2952 2953 2954 2955 2956 2957 2958 2959 2960 2961 2962 2963 2964 2965 2966 2967 2968 2969 2970 2971 2972 2973 2974 2975 2976 2977 2978 2979 2980 2981 2982 2983 2984 2985 2986 2987 2988 2989 2990 2991 2992 2993 2994 2995 2996 2997 2998 2999 3000 3001 3002 3003 3004 3005 3006 3007 3008 3009 3010 3011 3012 3013 3014 3015 3016 3017 3018 3019 3020 3021 3022 3023 3024 3025 3026 3027 3028 3029 3030 3031 3032 3033 3034 3035 3036 3037 3038 3039 3040 3041 3042 3043 3044 3045 3046 3047 3048 3049 3050 3051 3052 3053 3054 3055 3056 3057 3058 3059 3060 3061 3062 3063 3064 3065 3066 3067 3068 3069 3070 3071 3072 3073 3074 3075 3076 3077 3078 3079 3080 3081 3082 3083 3084 3085 3086 3087 3088 3089 3090 3091 3092 3093 3094 3095 3096 3097 3098 3099 3100 3101 3102 3103 3104 3105 3106 3107 3108 3109 3110 3111 3112 3113 3114 3115 3116 3117 3118 3119 3120 3121 3122 3123 3124 3125 3126 3127 3128 3129 3130 3131 3132 3133 3134 3135 3136 3137 3138 3139 3140 3141 
</DataArray>
<DataArray type="UInt32" Name="offsets" format="ascii">
3 6 9 12 15 18 21 24 27 30 33 36 39 42 45 48 51 54 57 60 63 66 69 72 75 78 81 84 87 90 93 96 99 102 105 108 111 114 117 120 123 126 129 132 135 138 141 144 147 150 153 156 159 162 165 168 171 174 177 180 183 186 189 192 195 198 201 204 207 210 213 216 219 222 225 228 231 234 237 240 243 246 249 252 255 258 261 264 267 270 273 276 279 282 285 288 291 294 297 300 303 306 309 312 315 318 321 324 327 330 333 336 339 342 345 348 351 354 357 360 363 366 369 372 375 378 381 384 387 390 393 396 399 402 405 408 411 414 417 420 423 426 429 432 435 438 441 444 447 450 453 456 459 462 465 468 471 474 477 480 483 486 489 492 495 498 501 504 507 510 513 516 519 522 525 528 531 534 537 540 543 546 549 552 555 558 561 564 567 570 573 576 579 582 585 588 591 594 597 600 603 606 609 612 615 618 621 624 627 630 633 636 639 642 645 648 651 654 657 660 663 666 669 672 675 678 681 684 687 690 693 696 699 702 705 708 711 714 717 720 723 726 729 732 735 738 741 744 747 750 753 756 759 762 765 768 771 774 777 780 783 786 789 792 795 798 801 804 807 810 813 816 819 822 825 828 831 834 837 840 843 846 849 852 855 858 861 864 867 870 873 876 879 882 885 888 891 894 897 900 903 906 909 912 915 918 921 924 927 930 933 936 939 942 945 948 951 954 957 960 963 966 969 972 975 978 981 984 987 990 993 996 999 1002 1005 1008 1011 1014 1017 1020 1023 1026 1029 1032 1035 1038 1041 1044 1047 1050 1053 1056 1059 1062 1065 1068 1071 1074 1077 1080 1083 1086 1089 1092 1095 1098 1101 1104 1107 1110 1113 1116 1119 1122 1125 1128 1131 1134 1137 1140 1143 1146 1149 1152 1155 1158 1161 1164 1167 1170 1173 1176 1179 1182 1185 1188 1191 1194 1197 1200 1203 1206 1209 1212 1215 1218 1221 1224 1227 1230 1233 1236 1239 1242 1245 1248 1251 1254 1257 1260 1263 1266 1269 1272 1275 1278 1281 1284 1287 1290 1293 1296 1299 1302 1305 1308 1311 1314 1317 1320 1323 1326 1329 1332 1335 1338 1341 1344 1347 1350 1353 1356 1359 1362 1365 1368 1371 1374 1377 1380 1383 1386 1389 1392 1395 1398 1401 1404 1407 1410 1413 1416 1419 1422 1425 1428 1431 1434 1437 1440 1443 1446 1449 1452 1455 1458 1461 1464 1467 1470 1473 1476 1479 1482 1485 1488 1491 1494 1497 1500 1503 1506 1509 1512 1515 1518 1521 1524 1527 1530 1533 1536 1539 1542 1545 1548 1551 1554 1557 1560 1563 1566 1569 1572 1575 1578 1581 1584 1587 1590 1593 1596 1599 1602 1605 1608 1611 1614 1616 1619 1622 1624 1627 1630 1632 1635 1638 1641 1644 1647 1650 1653 1656 1659 1662 1665 1668 1671 1673 1676 1679 1682 1685 1688 1690 1693 1696 1699 1702 1705 1708 1711 1714 1717 1720 1723 1726 1729 1732 1735 1738 1741 1744 1747 1750 1753 1756 1759 1762 1765 1768 1771 1774 1777 1780 1783 1786 1789 1792 1795 1798 1801 1804 1807 1810 1813 1816 1819 1822 1825 1828 1831 1834 1837 1840 1843 1846 1849 1852 1855 1858 1861 1864 1867 1870 1873 1876 1879 1882 1885 1888 1891 1894 1897 1900 1903 1906 1909 1912 1915 1918 1921 1924 1927 1930 1933 1936 1939 1942 1945 1948 1951 1954 1957 1960 1963 1966 1969 1972 1975 1978 1981 1984 1987 1990 1993 1996 1999 2002 2005 2008 2011 2014 2017 2020 2023 2026 2029 2032 2035 2038 2041 2044 2047 2050 2053 2056 2059 2062 2065 2068 2071 2074 2077 2080 2083 2086 2089 2092 2095 2098 2101 2104 2107 2110 2113 2116 2119 2122 2125 2128 2131 2134 2137 2140 2143 2146 2149 2152 2155 2158 2161 2164 2167 2170 2173 2176 2179 2182 2185 2188 2191 2194 2196 2199 2202 2205 2207 2210 2213 2215 2218 2221 2224 2227 2230 2233 2236 2239 2242 2245 2248 2250 2253 2256 2259 2262 2264 2267 2270 2273 2276 2279 2282 2285 2288 2291 2294 2297 2300 2303 2306 2309 2312 2315 2318 2321 2324 2327 2330 2333 2336 2339 2342 2345 2348 2351 2354 2357 2360 2363 2366 2369 2372 2375 2378 2381 2384 2387 2390 2393 2396 2399 2402 2405 2408 2411 2414 2417 2420 2423 2426 2429 2432 2435 2438 2440 2443 2446 2449 2452 2455 2458 2461 2464 2467 2470 2473 2476 2479 2482 2484 2487 2490 2492 2495 2497 2500 2503 2506 2509 2512 2515 2518 2521 2524 2527 2530 2533 2536 2538 2541 2544 2547 2550 2553 2556 2559 2562 2565 2568 2571 2574 2577 2580 2583 2586 2589 2592 2595 2598 2601 2604 2607 2610 2613 2616 2619 2622 2625 2628 2631 2634 2637 2640 2643 2646 2649 2652 2655 2658 2661 2664 2667 2670 2673 2676 2679 2682 2685 2688 2691 2694 2697 2700 2703 2706 2709 2712 2715 2718 2721 2724 2727 2730 2733 2736 2739 2742 2745 2748 2751 2754 2757 2760 2763 2766 2769 2772 2775 2778 2781 2784 2787 2790 2793 2796 2799 2802 2805 2808 2811 2814 2817 2820 2823 2826 2829 2832 2835 2838 2841 2844 2847 2850 2853 2856 2859 2862 2865 2868 2871 2874 2877 2880 2883 2886 2889 2892 2895 2898 2901 2904 2907 2910 2913 2916 2919 2922 2925 2928 2931 2934 2937 2940 2943 2946 2948 2951 2954 2956 2959 2961 2964 2967 2970 2973 2976 2979 2982 2985 2988 2991 2994 2997 3000 3003 3006 3009 3012 3015 3018 3021 3024 3027 3030 3033 3036 3039 3042 3045 3048 3051 3054 3057 3060 3063 3066 3069 3072 3075 3078 3081 3084 3087 3090 3093 3096 3099 3102 3104 3107 3110 3113 3116 3119 3121 3124 3127 3130 3133 3136 3139 3142 
</DataArray>
<DataArray type="UInt32" Name="types" format="ascii">
5 5 5 5 5 5 5 5 5 5 5 5 5 5 5 5 5 5 5 5 5 5 5 5 5 5 5 5 5 5 5 5 5 5 5 5 5 5 5 5 5 5 5 5 5 5 5 5 5 5 5 5 5 5 5 5 5 5 5 5 5 5 5 5 5 5 5 5 5 5 5 5 5 5 5 5 5 5 5 5 5 5 5 5 5 5 5 5 5 5 5 5 5 5 5 5 5 5 5 5 5 5 5 5 5 5 5 5 5 5 5 5 5 5 5 5 5 5 5 5 5 5 5 5 5 5 5 5 5 5 5 5 5 5 5 5 5 5 5 5 5 5 5 5 5 5 5 5 5 5 5 5 5 5 5 5 5 5 5 5 5 5 5 5 5 5 5 5 5 5 5 5 5 5 5 5 5 5 5 5 5 5 5 5 5 5 5 5 5 5 5 5 5 5 5 5 5 5 5 5 5 5 5 5 5 5 5 5 5 5 5 5 5 5 5 5 5 5 5 5 5 5 5 5 5 5 5 5 5 5 5 5 5 5 5 5 5 5 5 5 5 5 5 5 5 5 5 5 5 5 5 5 5 5 5 5 5 5 5 5 5 5 5 5 5 5 5 5 5 5 5 5 5 5 5 5 5 5 5 5 5 5 5 5 5 5 5 5 5 5 5 5 5 5 5 5 5 5 5 5 5 5 5 5 5 5 5 5 5 5 5 5 5 5 5 5 5 5 5 5 5 5 5 5 5 5 5 5 5 5 5 5 5 5 5 5 5 5 5 5 5 5 5 5 5 5 5 5 5 5 5 5 5 5 5 5 5 5 5 5 5 5 5 5 5 5 5 5 5 5 5 5 5 5 5 5 5 5 5 5 5 5 5 5 5 5 5 5 5 5 5 5 5 5 5 5 5 5 5 5 5 5 5 5 5 5 5 5 5 5 5 5 5 5 5 5 5 5 5 5 5 5 5 5 5 5 5 5 5 5 5 5 5 5 5 5 5 5 5 5 5 5 5 5 5 5 5 5 5 5 5 5 5 5 5 5 5 5 5 5 5 5 5 5 5 5 5 5 5 5 5 5 5 5 5 5 5 5 5 5 5 5 5 5 5 5 5 5 5 5 5 5 5 5 5 5 5 5 5 5 5 5 5 5 5 5 5 5 5 5 5 5 5 5 5 5 5 5 5 5 5 5 5 5 5 5 5 5 5 5 5 5 5 5 5 5 5 5 3 5 5 3 5 5 3 5 5 5 5 5 5 5 5 5 5 5 5 5 3 5 5 5 5 5 3 5 5 5 5 5 5 5 5 5 5 5 5 5 5 5 5 5 5 5 5 5 5 5 5 5 5 5 5 5 5 5 5 5 5 5 5 5 5 5 5 5 5 5 5 5 5 5 5 5 5 5 5 5 5 5 5 5 5 5 5 5 5 5 5 5 5 5 5 5 5 5 5 5 5 5 5 5 5 5 5 5 5 5 5 5 5 5 5 5 5 5 5 5 5 5 5 5 5 5 5 5 5 5 5 5 5 5 5 5 5 5 5 5 5 5 5 5 5 5 5 5 5 5 5 5 5 5 5 5 5 5 5 5 5 5 5 5 5 5 5 5 5 5 5 5 5 5 5 5 5 5 5 5 5 5 5 5 5 5 5 5 5 5 5 5 5 5 5 3 5 5 5 3 5 5 3 5 5 5 5 5 5 5 5 5 5 5 3 5 5 5 5 3 5 5 5 5 5 5 5 5 5 5 5 5 5 5 5 5 5 5 5 5 5 5 5 5 5 5 5 5 5 5 5 5 5 5 5 5 5 5 5 5 5 5 5 5 5 5 5 5 5 5 5 5 5 5 5 5 5 5 3 5 5 5 5 5 5 5 5 5 5 5 5 5 5 3 5 5 3 5 3 5 5 5 5 5 5 5 5 5 5 5 5 5 3 5 5 5 5 5 5 5 5 5 5 5 5 5 5 5 5 5 5 5 5 5 5 5 5 5 5 5 5 5 5 5 5 5 5 5 5 5 5 5 5 5 5 5 5 5 5 5 5 5 5 5 5 5 5 5 5 5 5 5 5 5 5 5 5 5 5 5 5 5 5 5 5 5 5 5 5 5 5 5 5 5 5 5 5 5 5 5 5 5 5 5 5 5 5 5 5 5 5 5 5 5 5 5 5 5 5 5 5 5 5 5 5 5 5 5 5 5 5 5 5 5 5 5 5 5 5 5 5 5 5 5 5 5 5 5 5 3 5 5 3 5 3 5 5 5 5 5 5 5 5 5 5 5 5 5 5 5 5 5 5 5 5 5 5 5 5 5 5 5 5 5 5 5 5 5 5 5 5 5 5 5 5 5 5 5 5 5 5 5 3 5 5 5 5 5 3 5 5 5 5 5 5 5 
</DataArray>
</Cells>
<PointData Scalars="" Vectors="displacement," Tensors="">
<DataArray type="Float64" Name="displacement" NumberOfComponents="3" format="ascii">
-0.0018805354572063472 -0.0026384561111004435 0 -3.6848965886015314e-06 -8.7878385501880162e-06 0 -5.5913185064718515e-07 -4.0132396256319002e-06 0 -0.0018805354572063472 -0.0026384561111004435 0 -3.6848965886015314e-06 -8.7878385501880162e-06 0 -0.0052534109962510773 -0.0068729750885830115 0 -0.0018805354572063472 -0.0026384561111004435 0 -5.5913185064718515e-07 -4.0132396256319002e-06 0 -0.0033750197927920767 -0.0043991827938805184 0 -0.0018805354572063472 -0.0026384561111004435 0 -0.0033750197927920767 -0.0043991827938805184 0 -0.0052534109962510773 -0.0068729750885830115 0 -0.0052534109962510773 -0.0068729750885830115 0 -0.0085302210329492225 -0.011994415208476173 0 -0.0072596127049216535 -0.010216777382163625 0 -0.0085302210329492225 -0.011994415208476173 0 -0.0072596127049216535 -0.010216777382163625 0 -0.011102898329130669 -0.016525551195431344 0 -0.0033750197927920767 -0.0043991827938805184 0 -0.0072596127049216535 -0.010216777382163625 0 -0.0054599058796359545 -0.0080261204873501787 0 -0.0033750197927920767 -0.0043991827938805184 0 -0.0052534109962510773 -0.0068729750885830115 0 -0.0072596127049216535 -0.010216777382163625 0 -0.0072596127049216535 -0.010216777382163625 0 -0.0054599058796359545 -0.0080261204873501787 0 -0.0088555975752756446 -0.013707651815468139 0 -0.0054599058796359545 -0.0080261204873501787 0 -0.0088555975752756446 -0.013707651815468139 0 -0.0069518225546832532 -0.011320255760699838 0 -0.0054599058796359545 -0.0080261204873501787 0 -0.0050148041666673903 -0.0081054618265792178 0 -0.0069518225546832532 -0.011320255760699838 0 -0.0050148041666673903 -0.0081054618265792178 0 -0.0069518225546832532 -0.011320255760699838 0 -0.0068162683868814604 -0.012332812536718522 0 -0.0050148041666673903 -0.0081054618265792178 0 -0.002562663061419133 -0.003755885127360904 0 -0.00301309071626002 -0.005051549675345688 0 -0.0054599058796359545 -0.0080261204873501787 0 -0.0050148041666673903 -0.0081054618265792178 0 -0.002562663061419133 -0.003755885127360904 0 -0.002562663061419133 -0.003755885127360904 0 -9.886699439043094e-07 -4.2358843422622894e-06 0 -6.6202430145331703e-07 -3.9054215951043083e-06 0 -5.5913185064718515e-07 -4.0132396256319002e-06 0 -0.0033750197927920767 -0.0043991827938805184 0 -9.886699439043094e-07 -4.2358843422622894e-06 0 -0.0033750197927920767 -0.0043991827938805184 0 -0.002562663061419133 -0.003755885127360904 0 -9.886699439043094e-07 -4.2358843422622894e-06 0 -0.0033750197927920767 -0.0043991827938805184 0 -0.0054599058796359545 -0.0080261204873501787 0 -0.002562663061419133 -0.003755885127360904 0 -0.012581093190139194 -0.02184514253265157 0 -0.012992421690672197 -0.020819614418222554 0 -0.014497190920367475 -0.024999721344653818 0 -0.012581093190139194 -0.02184514253265157 0 -0.012992421690672197 -0.020819614418222554 0 -0.011315272397152104 -0.018229174176286295 0 -0.012581093190139194 -0.02184514253265157 0 -0.011315272397152104 -0.018229174176286295 0 -0.010533414194360676 -0.018395371416015001 0 -0.011315272397152104 -0.018229174176286295 0 -0.011102898329130669 -0.016525551195431344 0 -0.0088555975752756446 -0.013707651815468139 0 -0.0072596127049216535 -0.010216777382163625 0 -0.011102898329130669 -0.016525551195431344 0 -0.0088555975752756446 -0.013707651815468139 0 -0.011315272397152104 -0.018229174176286295 0 -0.0088555975752756446 -0.013707651815468139 0 -0.010533414194360676 -0.018395371416015001 0 -0.012992421690672197 -0.020819614418222554 0 -0.011315272397152104 -0.018229174176286295 0 -0.011102898329130669 -0.016525551195431344 0 -0.0088555975752756446 -0.013707651815468139 0 -0.0069518225546832532 -0.011320255760699838 0 -0.0084775366459973259 -0.014612354418957481 0 -0.0069518225546832532 -0.011320255760699838 0 -0.0084775366459973259 -0.014612354418957481 0 -0.0068162683868814604 -0.012332812536718522 0 -0.0088555975752756446 -0.013707651815468139 0 -0.0084775366459973259 -0.014612354418957481 0 -0.010533414194360676 -0.018395371416015001 0 -0.010533414194360676 -0.018395371416015001 0 -0.011564594880351038 -0.022258788127137837 0 -0.0090410231789483306 -0.017599632335658311 0 -0.0084775366459973259 -0.014612354418957481 0 -0.010533414194360676 -0.018395371416015001 0 -0.0090410231789483306 -0.017599632335658311 0 -0.012581093190139194 -0.02184514253265157 0 -0.010533414194360676 -0.018395371416015001 0 -0.011564594880351038 -0.022258788127137837 0 -0.012581093190139194 -0.02184514253265157 0 -0.011564594880351038 -0.022258788127137837 0 -0.013695137426188863 -0.025926288494579241 0 -0.011564594880351038 -0.022258788127137837 0 -0.010053797826159682 -0.021222122908410409 0 -0.0090410231789483306 -0.017599632335658311 0 -0.0087803577677014969 -0.019863121451769827 0 -0.010053797826159682 -0.021222122908410409 0 -0.0090410231789483306 -0.017599632335658311 0 -0.0087803577677014969 -0.019863121451769827 0 -0.0090410231789483306 -0.017599632335658311 0 -0.0073804594028438327 -0.015626547645137705 0 -0.0073804594028438327 -0.015626547645137705 0 -0.0068162683868814604 -0.012332812536718522 0 -0.0057187648118625792 -0.011519099835005932 0 -0.0084775366459973259 -0.014612354418957481 0 -0.0090410231789483306 -0.017599632335658311 0 -0.0068162683868814604 -0.012332812536718522 0 -0.0090410231789483306 -0.017599632335658311 0 -0.0073804594028438327 -0.015626547645137705 0 -0.0068162683868814604 -0.012332812536718522 0 -0.0068162683868814604 -0.012332812536718522 0 -0.0057187648118625792 -0.011519099835005932 0 -0.0047142266820477483 -0.0084943825111064748 0 -0.0057187648118625792 -0.011519099835005932 0 -0.004517862488107636 -0.010184119840756225 0 -0.0062633605046865442 -0.01456845438216039 0 -0.004517862488107636 -0.010184119840756225 0 -0.0062633605046865442 -0.01456845438216039 0 -0.0048774823621445633 -0.012445369986816677 0 -0.0062633605046865442 -0.01456845438216039 0 -0.0048774823621445633 -0.012445369986816677 0 -0.0055664900357739484 -0.015324918227708598 0 -0.0073804594028438327 -0.015626547645137705 0 -0.0057187648118625792 -0.011519099835005932 0 -0.0062633605046865442 -0.01456845438216039 0 -0.0087803577677014969 -0.019863121451769827 0 -0.0073804594028438327 -0.015626547645137705 0 -0.0072149920099033827 -0.018156740395728004 0 -0.0073804594028438327 -0.015626547645137705 0 -0.0062633605046865442 -0.01456845438216039 0 -0.0072149920099033827 -0.018156740395728004 0 -0.0062633605046865442 -0.01456845438216039 0 -0.0072149920099033827 -0.018156740395728004 0 -0.0055664900357739484 -0.015324918227708598 0 -0.0072149920099033827 -0.018156740395728004 0 -0.0072804456372591014 -0.021113610251646684 0 -0.00866211947323689 -0.022457614697042327 0 -0.0087803577677014969 -0.019863121451769827 0 -0.0072149920099033827 -0.018156740395728004 0 -0.00866211947323689 -0.022457614697042327 0 -0.0016313373520861535 -0.0029847468860787658 0 -6.6202430145331703e-07 -3.9054215951043083e-06 0 -0.00301309071626002 -0.005051549675345688 0 -0.0016313373520861535 -0.0029847468860787658 0 -0.00301309071626002 -0.005051549675345688 0 -0.0034127775125371352 -0.0067254361728521124 0 -0.0016313373520861535 -0.0029847468860787658 0 -6.6202430145331703e-07 -3.9054215951043083e-06 0 -6.9084967708663486e-07 -3.9609260691335712e-06 0 -0.002562663061419133 -0.003755885127360904 0 -6.6202430145331703e-07 -3.9054215951043083e-06 0 -0.00301309071626002 -0.005051549675345688 0 -0.0050148041666673903 -0.0081054618265792178 0 -0.00301309071626002 -0.005051549675345688 0 -0.0047142266820477483 -0.0084943825111064748 0 -0.0050148041666673903 -0.0081054618265792178 0 -0.0068162683868814604 -0.012332812536718522 0 -0.0047142266820477483 -0.0084943825111064748 0 -0.0057187648118625792 -0.011519099835005932 0 -0.0047142266820477483 -0.0084943825111064748 0 -0.0034127775125371352 -0.0067254361728521124 0 -0.00301309071626002 -0.005051549675345688 0 -0.0047142266820477483 -0.0084943825111064748 0 -0.0034127775125371352 -0.0067254361728521124 0 -0.0057187648118625792 -0.011519099835005932 0 -0.004517862488107636 -0.010184119840756225 0 -0.0034127775125371352 -0.0067254361728521124 0 -0.004517862488107636 -0.010184119840756225 0 -0.0034127775125371352 -0.0067254361728521124 0 -0.0030042114255436738 -0.006790545018551951 0 -0.004517862488107636 -0.010184119840756225 0 -0.0030042114255436738 -0.006790545018551951 0 -0.0034624826472344043 -0.0089996532075568379 0 -0.0034127775125371352 -0.0067254361728521124 0 -0.0030042114255436738 -0.006790545018551951 0 -0.0016317743829098758 -0.0034435545789089461 0 -0.0030042114255436738 -0.006790545018551951 0 -0.0016317743829098758 -0.0034435545789089461 0 -0.0018046957406117794 -0.0044487483175539872 0 -0.0016313373520861535 -0.0029847468860787658 0 -0.0034127775125371352 -0.0067254361728521124 0 -0.0016317743829098758 -0.0034435545789089461 0 -0.0016313373520861535 -0.0029847468860787658 0 -0.0016317743829098758 -0.0034435545789089461 0 -6.9084967708663486e-07 -3.9609260691335712e-06 0 -0.0016317743829098758 -0.0034435545789089461 0 -6.9084967708663486e-07 -3.9609260691335712e-06 0 -6.2672747761797799e-07 -3.8979845129977747e-06 0 -6.2672747761797799e-07 -3.8979845129977747e-06 0 -0.0018046957406117794 -0.0044487483175539872 0 -3.6895128839899079e-07 -3.8640506457422944e-06 0 -0.0016317743829098758 -0.0034435545789089461 0 -6.2672747761797799e-07 -3.8979845129977747e-06 0 -0.0018046957406117794 -0.0044487483175539872 0 -0.0018046957406117794 -0.0044487483175539872 0 -3.6895128839899079e-07 -3.8640506457422944e-06 0 -0.0011361675142550025 -0.0033127174562604797 0 -3.6895128839899079e-07 -3.8640506457422944e-06 0 -0.0011361675142550025 -0.0033127174562604797 0 -3.6005154567631895e-07 -3.8920722638095105e-06 0 -0.0011361675142550025 -0.0033127174562604797 0 -0.00072821482550584405 -0.0025364760838491353 0 -0.0017345637061411156 -0.0061723142932501585 0 -0.00072821482550584405 -0.0025364760838491353 0 -0.0017345637061411156 -0.0061723142932501585 0 -0.00090573984239689705 -0.0040462736215367201 0 -0.0011361675142550025 -0.0033127174562604797 0 -0.00072821482550584405 -0.0025364760838491353 0 -3.6005154567631895e-07 -3.8920722638095105e-06 0 -0.00072821482550584405 -0.0025364760838491353 0 -3.6005154567631895e-07 -3.8920722638095105e-06 0 -2.7107073137950735e-07 -3.8409121369957185e-06 0 -0.0017345637061411156 -0.0061723142932501585 0 -0.0026183918488813084 -0.01042525032135141 0 -0.0016700844726050316 -0.0081261349813620352 0 -0.0017345637061411156 -0.0061723142932501585 0 -0.0028548985763687893 -0.0091140573846801784 0 -0.0026183918488813084 -0.01042525032135141 0 -0.0011361675142550025 -0.0033127174562604797 0 -0.0017345637061411156 -0.0061723142932501585 0 -0.0021683137673156822 -0.0063007882031419511 0 -0.0017345637061411156 -0.0061723142932501585 0 -0.0028548985763687893 -0.0091140573846801784 0 -0.0021683137673156822 -0.0063007882031419511 0 -0.0028548985763687893 -0.0091140573846801784 0 -0.0021683137673156822 -0.0063007882031419511 0 -0.0034624826472344043 -0.0089996532075568379 0 -0.0018046957406117794 -0.0044487483175539872 0 -0.0011361675142550025 -0.0033127174562604797 0 -0.0021683137673156822 -0.0063007882031419511 0 -0.0018046957406117794 -0.0044487483175539872 0 -0.0021683137673156822 -0.0063007882031419511 0 -0.0034624826472344043 -0.0089996532075568379 0 -0.0030042114255436738 -0.006790545018551951 0 -0.0018046957406117794 -0.0044487483175539872 0 -0.0034624826472344043 -0.0089996532075568379 0 -0.004517862488107636 -0.010184119840756225 0 -0.0034624826472344043 -0.0089996532075568379 0 -0.0048774823621445633 -0.012445369986816677 0 -0.0034624826472344043 -0.0089996532075568379 0 -0.0048774823621445633 -0.012445369986816677 0 -0.0041683826671271296 -0.012229021464103974 0 -0.0048774823621445633 -0.012445369986816677 0 -0.0041683826671271296 -0.012229021464103974 0 -0.0055664900357739484 -0.015324918227708598 0 -0.0041683826671271296 -0.012229021464103974 0 -0.0046145123354258549 -0.01541799715346847 0 -0.0035625964631364991 -0.012372118432741056 0 -0.0041683826671271296 -0.012229021464103974 0 -0.0055664900357739484 -0.015324918227708598 0 -0.0046145123354258549 -0.01541799715346847 0 -0.0028548985763687893 -0.0091140573846801784 0 -0.0034624826472344043 -0.0089996532075568379 0 -0.0041683826671271296 -0.012229021464103974 0 -0.0072149920099033827 -0.018156740395728004 0 -0.0059826987054525235 -0.018382433143209774 0 -0.0072804456372591014 -0.021113610251646684 0 -0.0072149920099033827 -0.018156740395728004 0 -0.0059826987054525235 -0.018382433143209774 0 -0.0055664900357739484 -0.015324918227708598 0 -0.0059826987054525235 -0.018382433143209774 0 -0.0055664900357739484 -0.015324918227708598 0 -0.0046145123354258549 -0.01541799715346847 0 -0.0059826987054525235 -0.018382433143209774 0 -0.0046806600249463537 -0.018627704150273247 0 -0.0064122448968228869 -0.021882314091563722 0 -0.0059826987054525235 -0.018382433143209774 0 -0.0046806600249463537 -0.018627704150273247 0 -0.0046145123354258549 -0.01541799715346847 0 -0.0046806600249463537 -0.018627704150273247 0 -0.0046145123354258549 -0.01541799715346847 0 -0.0034817351047370937 -0.014278430208436405 0 -0.0046806600249463537 -0.018627704150273247 0 -0.0034817351047370937 -0.014278430208436405 0 -0.0032291144242311944 -0.016732859985689928 0 -0.0046806600249463537 -0.018627704150273247 0 -0.0032291144242311944 -0.016732859985689928 0 -0.0040070805981917918 -0.021133528243041984 0 -0.0028548985763687893 -0.0091140573846801784 0 -0.0041683826671271296 -0.012229021464103974 0 -0.0035625964631364991 -0.012372118432741056 0 -0.0028548985763687893 -0.0091140573846801784 0 -0.0035625964631364991 -0.012372118432741056 0 -0.0026183918488813084 -0.01042525032135141 0 -0.0046145123354258549 -0.01541799715346847 0 -0.0035625964631364991 -0.012372118432741056 0 -0.0034817351047370937 -0.014278430208436405 0 -0.0034817351047370937 -0.014278430208436405 0 -0.0026183918488813084 -0.01042525032135141 0 -0.0024143048964776355 -0.012423932149400624 0 -0.0035625964631364991 -0.012372118432741056 0 -0.0034817351047370937 -0.014278430208436405 0 -0.0026183918488813084 -0.01042525032135141 0 -0.0026183918488813084 -0.01042525032135141 0 -0.0024143048964776355 -0.012423932149400624 0 -0.0016700844726050316 -0.0081261349813620352 0 -0.0024143048964776355 -0.012423932149400624 0 -0.0021510018749949663 -0.015004359274719591 0 -0.0013828689331821388 -0.010282417752193136 0 -0.0024143048964776355 -0.012423932149400624 0 -0.0013828689331821388 -0.010282417752193136 0 -0.0016700844726050316 -0.0081261349813620352 0 -0.0032291144242311944 -0.016732859985689928 0 -0.0026706998534304161 -0.019231070639503051 0 -0.0040070805981917918 -0.021133528243041984 0 -0.0034817351047370937 -0.014278430208436405 0 -0.0024143048964776355 -0.012423932149400624 0 -0.0032291144242311944 -0.016732859985689928 0 -0.0024143048964776355 -0.012423932149400624 0 -0.0032291144242311944 -0.016732859985689928 0 -0.0021510018749949663 -0.015004359274719591 0 -0.0032291144242311944 -0.016732859985689928 0 -0.0021510018749949663 -0.015004359274719591 0 -0.0026706998534304161 -0.019231070639503051 0 -0.0021510018749949663 -0.015004359274719591 0 -0.0015658095922678218 -0.017236115168361855 0 -0.0026706998534304161 -0.019231070639503051 0 -0.0021510018749949663 -0.015004359274719591 0 -0.0015658095922678218 -0.017236115168361855 0 -0.0011589064513395971 -0.013853259946229352 0 -0.0011589064513395971 -0.013853259946229352 0 -0.00025026743617076512 -0.012216346218953237 0 -0.0004966196626604015 -0.015318080014893751 0 -0.0015658095922678218 -0.017236115168361855 0 -0.0011589064513395971 -0.013853259946229352 0 -0.0004966196626604015 -0.015318080014893751 0 -0.0015658095922678218 -0.017236115168361855 0 -0.00083470665407147249 -0.018901282926158159 0 -0.0004966196626604015 -0.015318080014893751 0 -0.0013828689331821388 -0.010282417752193136 0 -0.0011589064513395971 -0.013853259946229352 0 -0.00073125226122467595 -0.010284173151402105 0 -0.0021510018749949663 -0.015004359274719591 0 -0.0013828689331821388 -0.010282417752193136 0 -0.0011589064513395971 -0.013853259946229352 0 -0.0011589064513395971 -0.013853259946229352 0 -0.00073125226122467595 -0.010284173151402105 0 -0.00025026743617076512 -0.012216346218953237 0 -0.0013828689331821388 -0.010282417752193136 0 -0.00073125226122467595 -0.010284173151402105 0 -0.00055179769424915385 -0.0065950823551016603 0 -0.00073125226122467595 -0.010284173151402105 0 -0.00055179769424915385 -0.0065950823551016603 0 -0.00026004799318789121 -0.0085406532920134677 0 -0.0013828689331821388 -0.010282417752193136 0 -0.00055179769424915385 -0.0065950823551016603 0 -0.00087110552223796549 -0.0057016159872560011 0 -0.00055179769424915385 -0.0065950823551016603 0 -0.00030246364360396726 -0.0030366718822161434 0 -0.00087110552223796549 -0.0057016159872560011 0 -0.00055179769424915385 -0.0065950823551016603 0 -0.00030246364360396726 -0.0030366718822161434 0 -4.1815060795064335e-05 -0.0040522506472891861 0 -0.00030246364360396726 -0.0030366718822161434 0 -1.6858647172061046e-07 -3.8376383292785255e-06 0 -4.1815060795064335e-05 -0.0040522506472891861 0 -0.00030246364360396726 -0.0030366718822161434 0 -1.6858647172061046e-07 -3.8376383292785255e-06 0 -1.61542993145746e-07 -3.8903844265863036e-06 0 -0.00030246364360396726 -0.0030366718822161434 0 -1.61542993145746e-07 -3.8903844265863036e-06 0 -0.00043871046862147992 -0.0025990663655927962 0 -0.00030246364360396726 -0.0030366718822161434 0 -0.00043871046862147992 -0.0025990663655927962 0 -0.00087110552223796549 -0.0057016159872560011 0 -0.00043871046862147992 -0.0025990663655927962 0 -2.7107073137950735e-07 -3.8409121369957185e-06 0 -0.00090573984239689705 -0.0040462736215367201 0 -0.00043871046862147992 -0.0025990663655927962 0 -0.00090573984239689705 -0.0040462736215367201 0 -0.00087110552223796549 -0.0057016159872560011 0 -1.61542993145746e-07 -3.8903844265863036e-06 0 -0.00043871046862147992 -0.0025990663655927962 0 -2.7107073137950735e-07 -3.8409121369957185e-06 0 -0.00072821482550584405 -0.0025364760838491353 0 -2.7107073137950735e-07 -3.8409121369957185e-06 0 -0.00090573984239689705 -0.0040462736215367201 0 -0.0017345637061411156 -0.0061723142932501585 0 -0.00090573984239689705 -0.0040462736215367201 0 -0.0016700844726050316 -0.0081261349813620352 0 -0.0013828689331821388 -0.010282417752193136 0 -0.0016700844726050316 -0.0081261349813620352 0 -0.00087110552223796549 -0.0057016159872560011 0 -0.00090573984239689705 -0.0040462736215367201 0 -0.0016700844726050316 -0.0081261349813620352 0 -0.00087110552223796549 -0.0057016159872560011 0 -0.0033863166827313635 -0.031685978132277033 0 -0.0048235489977523204 -0.034432199627305371 0 -0.003198795851092783 -0.035568507730894788 0 -0.0033863166827313635 -0.031685978132277033 0 -0.0047940451689574082 -0.031123454053878584 0 -0.0048235489977523204 -0.034432199627305371 0 -0.0033863166827313635 -0.031685978132277033 0 -0.0047940451689574082 -0.031123454053878584 0 -0.0038664669160109141 -0.027479683136570277 0 -0.0048235489977523204 -0.034432199627305371 0 -0.0050140391543196288 -0.038625105711406572 0 -0.003198795851092783 -0.035568507730894788 0 -0.0050140391543196288 -0.038625105711406572 0 -0.0034605544455789151 -0.040681462598930886 0 -0.0057060679049811408 -0.042871179764723891 0 -0.0050140391543196288 -0.038625105711406572 0 -0.0034605544455789151 -0.040681462598930886 0 -0.003198795851092783 -0.035568507730894788 0 -0.0034605544455789151 -0.040681462598930886 0 -0.003198795851092783 -0.035568507730894788 0 -0.0022338521060271104 -0.037846542155573377 0 -0.003198795851092783 -0.035568507730894788 0 -0.0022338521060271104 -0.037846542155573377 0 -0.0010168568532880529 -0.035318722629818201 0 -0.0034605544455789151 -0.040681462598930886 0 -0.0022338521060271104 -0.037846542155573377 0 -0.0011698008278622533 -0.039801252266032511 0 -0.0022338521060271104 -0.037846542155573377 0 -0.0011698008278622533 -0.039801252266032511 0 -0.0010168568532880529 -0.035318722629818201 0 -0.0010168568532880529 -0.035318722629818201 0 -0.0017069078194944822 -0.031617097280002178 0 0.00045197535875075504 -0.031230345490624277 0 -0.003198795851092783 -0.035568507730894788 0 -0.0010168568532880529 -0.035318722629818201 0 -0.0017069078194944822 -0.031617097280002178 0 -0.0033863166827313635 -0.031685978132277033 0 -0.003198795851092783 -0.035568507730894788 0 -0.0017069078194944822 -0.031617097280002178 0 -0.0033863166827313635 -0.031685978132277033 0 -0.0017069078194944822 -0.031617097280002178 0 -0.0025397302661316077 -0.028261836166644631 0 -0.0017069078194944822 -0.031617097280002178 0 -0.00070248829481258464 -0.027701049978826893 0 0.00045197535875075504 -0.031230345490624277 0 -0.00070248829481258464 -0.027701049978826893 0 -0.0018129099309733556 -0.024827651531172185 0 -0.00070311054145385913 -0.023090424383910648 0 -0.00070248829481258464 -0.027701049978826893 0 -0.0018129099309733556 -0.024827651531172185 0 -0.0025397302661316077 -0.028261836166644631 0 -0.0018129099309733556 -0.024827651531172185 0 -0.0025397302661316077 -0.028261836166644631 0 -0.0031205173075307406 -0.023975990219363436 0 -0.0017069078194944822 -0.031617097280002178 0 -0.00070248829481258464 -0.027701049978826893 0 -0.0025397302661316077 -0.028261836166644631 0 -0.00083470665407147249 -0.018901282926158159 0 -0.0018326835257855029 -0.021376638177134668 0 -0.00070311054145385913 -0.023090424383910648 0 -0.0015658095922678218 -0.017236115168361855 0 -0.00083470665407147249 -0.018901282926158159 0 -0.0018326835257855029 -0.021376638177134668 0 -0.0018129099309733556 -0.024827651531172185 0 -0.0018326835257855029 -0.021376638177134668 0 -0.00070311054145385913 -0.023090424383910648 0 -0.0018129099309733556 -0.024827651531172185 0 -0.0018326835257855029 -0.021376638177134668 0 -0.0031205173075307406 -0.023975990219363436 0 -0.0015658095922678218 -0.017236115168361855 0 -0.0018326835257855029 -0.021376638177134668 0 -0.0026706998534304161 -0.019231070639503051 0 -0.0018326835257855029 -0.021376638177134668 0 -0.0026706998534304161 -0.019231070639503051 0 -0.0031205173075307406 -0.023975990219363436 0 -0.0026706998534304161 -0.019231070639503051 0 -0.0031205173075307406 -0.023975990219363436 0 -0.0040070805981917918 -0.021133528243041984 0 -0.0031205173075307406 -0.023975990219363436 0 -0.0040070805981917918 -0.021133528243041984 0 -0.0047879137837144956 -0.025185131193439372 0 -0.0033863166827313635 -0.031685978132277033 0 -0.0025397302661316077 -0.028261836166644631 0 -0.0038664669160109141 -0.027479683136570277 0 -0.0025397302661316077 -0.028261836166644631 0 -0.0031205173075307406 -0.023975990219363436 0 -0.0038664669160109141 -0.027479683136570277 0 -0.0031205173075307406 -0.023975990219363436 0 -0.0038664669160109141 -0.027479683136570277 0 -0.0047879137837144956 -0.025185131193439372 0 -0.0038664669160109141 -0.027479683136570277 0 -0.0047879137837144956 -0.025185131193439372 0 -0.0062778484588684388 -0.029651861005144227 0 -0.0047940451689574082 -0.031123454053878584 0 -0.0038664669160109141 -0.027479683136570277 0 -0.0062778484588684388 -0.029651861005144227 0 -0.0047879137837144956 -0.025185131193439372 0 -0.0060728194306460545 -0.02632478804559038 0 -0.0062778484588684388 -0.029651861005144227 0 -0.0060728194306460545 -0.02632478804559038 0 -0.0062778484588684388 -0.029651861005144227 0 -0.0073190969425128852 -0.0286632457313661 0 -0.0046806600249463537 -0.018627704150273247 0 -0.0040070805981917918 -0.021133528243041984 0 -0.0054484885534179777 -0.023021437257062315 0 -0.0040070805981917918 -0.021133528243041984 0 -0.0047879137837144956 -0.025185131193439372 0 -0.0054484885534179777 -0.023021437257062315 0 -0.0047879137837144956 -0.025185131193439372 0 -0.0060728194306460545 -0.02632478804559038 0 -0.0054484885534179777 -0.023021437257062315 0 -0.0060728194306460545 -0.02632478804559038 0 -0.0054484885534179777 -0.023021437257062315 0 -0.0069681956587396903 -0.025519341036489215 0 -0.0046806600249463537 -0.018627704150273247 0 -0.0054484885534179777 -0.023021437257062315 0 -0.0064122448968228869 -0.021882314091563722 0 -0.0054484885534179777 -0.023021437257062315 0 -0.0064122448968228869 -0.021882314091563722 0 -0.0069681956587396903 -0.025519341036489215 0 -0.0064122448968228869 -0.021882314091563722 0 -0.0069681956587396903 -0.025519341036489215 0 -0.0082639971502457745 -0.024895556421316335 0 -0.0064122448968228869 -0.021882314091563722 0 -0.0072804456372591014 -0.021113610251646684 0 -0.0082639971502457745 -0.024895556421316335 0 -0.0059826987054525235 -0.018382433143209774 0 -0.0064122448968228869 -0.021882314091563722 0 -0.0072804456372591014 -0.021113610251646684 0 -0.0062778484588684388 -0.029651861005144227 0 -0.0073190969425128852 -0.0286632457313661 0 -0.0083223086949191522 -0.031987675630122142 0 -0.0060728194306460545 -0.02632478804559038 0 -0.0073190969425128852 -0.0286632457313661 0 -0.0069681956587396903 -0.025519341036489215 0 -0.0073190969425128852 -0.0286632457313661 0 -0.0069681956587396903 -0.025519341036489215 0 -0.0084403375829752124 -0.02855316765483247 0 -0.0069681956587396903 -0.025519341036489215 0 -0.0084403375829752124 -0.02855316765483247 0 -0.0082639971502457745 -0.024895556421316335 0 -0.0073190969425128852 -0.0286632457313661 0 -0.0084403375829752124 -0.02855316765483247 0 -0.0083223086949191522 -0.031987675630122142 0 -0.0084403375829752124 -0.02855316765483247 0 -0.0083223086949191522 -0.031987675630122142 0 -0.010096288905422014 -0.031404988481595696 0 -0.0083223086949191522 -0.031987675630122142 0 -0.0084042104250392751 -0.03629055247765587 0 -0.0099624831236016041 -0.035031851371804736 0 -0.0084042104250392751 -0.03629055247765587 0 -0.0098094987381862116 -0.039162025730206468 0 -0.0099624831236016041 -0.035031851371804736 0 -0.0083223086949191522 -0.031987675630122142 0 -0.0084042104250392751 -0.03629055247765587 0 -0.0071882214442455551 -0.033524996159755197 0 -0.0062778484588684388 -0.029651861005144227 0 -0.0083223086949191522 -0.031987675630122142 0 -0.0071882214442455551 -0.033524996159755197 0 -0.0062778484588684388 -0.029651861005144227 0 -0.0071882214442455551 -0.033524996159755197 0 -0.0059553593573808397 -0.033081777070881044 0 -0.0071882214442455551 -0.033524996159755197 0 -0.0059553593573808397 -0.033081777070881044 0 -0.0066410185979851573 -0.036746734390969933 0 -0.0084042104250392751 -0.03629055247765587 0 -0.0071882214442455551 -0.033524996159755197 0 -0.0066410185979851573 -0.036746734390969933 0 -0.0048235489977523204 -0.034432199627305371 0 -0.0059553593573808397 -0.033081777070881044 0 -0.0066410185979851573 -0.036746734390969933 0 -0.0047940451689574082 -0.031123454053878584 0 -0.0048235489977523204 -0.034432199627305371 0 -0.0059553593573808397 -0.033081777070881044 0 -0.0047940451689574082 -0.031123454053878584 0 -0.0062778484588684388 -0.029651861005144227 0 -0.0059553593573808397 -0.033081777070881044 0 -0.0050140391543196288 -0.038625105711406572 0 -0.0067053749300467263 -0.040477781795089721 0 -0.0057060679049811408 -0.042871179764723891 0 -0.0050140391543196288 -0.038625105711406572 0 -0.0067053749300467263 -0.040477781795089721 0 -0.0066410185979851573 -0.036746734390969933 0 -0.0048235489977523204 -0.034432199627305371 0 -0.0050140391543196288 -0.038625105711406572 0 -0.0066410185979851573 -0.036746734390969933 0 -0.0084042104250392751 -0.03629055247765587 0 -0.0066410185979851573 -0.036746734390969933 0 -0.0080974777876779702 -0.039880249465481132 0 -0.0067053749300467263 -0.040477781795089721 0 -0.0080974777876779702 -0.039880249465481132 0 -0.0077718137654726495 -0.044330790411166311 0 -0.0067053749300467263 -0.040477781795089721 0 -0.0066410185979851573 -0.036746734390969933 0 -0.0080974777876779702 -0.039880249465481132 0 -0.0080974777876779702 -0.039880249465481132 0 -0.0098094987381862116 -0.039162025730206468 0 -0.0094294568427394712 -0.043132974652085029 0 -0.0084042104250392751 -0.03629055247765587 0 -0.0080974777876779702 -0.039880249465481132 0 -0.0098094987381862116 -0.039162025730206468 0 -0.0098094987381862116 -0.039162025730206468 0 -0.010874587185946036 -0.042471834721722994 0 -0.0094294568427394712 -0.043132974652085029 0 -0.010874587185946036 -0.042471834721722994 0 -0.012235796077490368 -0.041522123293551289 0 -0.010978684871995919 -0.038483599953774102 0 -0.012235796077490368 -0.041522123293551289 0 -0.010978684871995919 -0.038483599953774102 0 -0.011778002536329865 -0.036843020232396897 0 -0.0098094987381862116 -0.039162025730206468 0 -0.010978684871995919 -0.038483599953774102 0 -0.0099624831236016041 -0.035031851371804736 0 -0.0098094987381862116 -0.039162025730206468 0 -0.010874587185946036 -0.042471834721722994 0 -0.010978684871995919 -0.038483599953774102 0 -0.0083223086949191522 -0.031987675630122142 0 -0.0099624831236016041 -0.035031851371804736 0 -0.010096288905422014 -0.031404988481595696 0 -0.011778002536329865 -0.036843020232396897 0 -0.012181487042415569 -0.033846328340116805 0 -0.010096288905422014 -0.031404988481595696 0 -0.0099624831236016041 -0.035031851371804736 0 -0.011778002536329865 -0.036843020232396897 0 -0.010096288905422014 -0.031404988481595696 0 -0.010978684871995919 -0.038483599953774102 0 -0.0099624831236016041 -0.035031851371804736 0 -0.011778002536329865 -0.036843020232396897 0 -0.011778002536329865 -0.036843020232396897 0 -0.013581270905284879 -0.037599922365885503 0 -0.013335135292024292 -0.040454896305816807 0 -0.011778002536329865 -0.036843020232396897 0 -0.012181487042415569 -0.033846328340116805 0 -0.013581270905284879 -0.037599922365885503 0 -0.012181487042415569 -0.033846328340116805 0 -0.013581270905284879 -0.037599922365885503 0 -0.013919703829968546 -0.034732420046694849 0 -0.013581270905284879 -0.037599922365885503 0 -0.013335135292024292 -0.040454896305816807 0 -0.01482642197181374 -0.041287120258350303 0 -0.013335135292024292 -0.040454896305816807 0 -0.01482642197181374 -0.041287120258350303 0 -0.015061214076057367 -0.045127768643636941 0 -0.013335135292024292 -0.040454896305816807 0 -0.015061214076057367 -0.045127768643636941 0 -0.013566397935791692 -0.044518035531331615 0 -0.012235796077490368 -0.041522123293551289 0 -0.013335135292024292 -0.040454896305816807 0 -0.013566397935791692 -0.044518035531331615 0 -0.012235796077490368 -0.041522123293551289 0 -0.011778002536329865 -0.036843020232396897 0 -0.013335135292024292 -0.040454896305816807 0 -0.0072804456372591014 -0.021113610251646684 0 -0.00866211947323689 -0.022457614697042327 0 -0.0082639971502457745 -0.024895556421316335 0 -0.00866211947323689 -0.022457614697042327 0 -0.0082639971502457745 -0.024895556421316335 0 -0.0099803672908592225 -0.026780730315205007 0 -0.00866211947323689 -0.022457614697042327 0 -0.0099803672908592225 -0.026780730315205007 0 -0.010175993899360155 -0.024122529460419189 0 -0.0099803672908592225 -0.026780730315205007 0 -0.009379325810877772 -0.028174569156977605 0 -0.011010026683776413 -0.030337090495374117 0 -0.0082639971502457745 -0.024895556421316335 0 -0.0099803672908592225 -0.026780730315205007 0 -0.009379325810877772 -0.028174569156977605 0 -0.0084403375829752124 -0.02855316765483247 0 -0.0082639971502457745 -0.024895556421316335 0 -0.009379325810877772 -0.028174569156977605 0 -0.0084403375829752124 -0.02855316765483247 0 -0.009379325810877772 -0.028174569156977605 0 -0.010096288905422014 -0.031404988481595696 0 -0.009379325810877772 -0.028174569156977605 0 -0.010096288905422014 -0.031404988481595696 0 -0.011010026683776413 -0.030337090495374117 0 -0.012181487042415569 -0.033846328340116805 0 -0.010096288905422014 -0.031404988481595696 0 -0.011010026683776413 -0.030337090495374117 0 -0.012181487042415569 -0.033846328340116805 0 -0.011010026683776413 -0.030337090495374117 0 -0.012077416978512924 -0.029371218273814496 0 -0.012181487042415569 -0.033846328340116805 0 -0.012077416978512924 -0.029371218273814496 0 -0.013919703829968546 -0.034732420046694849 0 -0.0099803672908592225 -0.026780730315205007 0 -0.011010026683776413 -0.030337090495374117 0 -0.012077416978512924 -0.029371218273814496 0 -0.0099803672908592225 -0.026780730315205007 0 -0.012077416978512924 -0.029371218273814496 0 -0.010175993899360155 -0.024122529460419189 0 -0.012077416978512924 -0.029371218273814496 0 -0.010175993899360155 -0.024122529460419189 0 -0.011319669171402844 -0.024076520940560932 0 -0.010053797826159682 -0.021222122908410409 0 -0.010175993899360155 -0.024122529460419189 0 -0.011319669171402844 -0.024076520940560932 0 -0.0087803577677014969 -0.019863121451769827 0 -0.00866211947323689 -0.022457614697042327 0 -0.010175993899360155 -0.024122529460419189 0 -0.0087803577677014969 -0.019863121451769827 0 -0.010053797826159682 -0.021222122908410409 0 -0.010175993899360155 -0.024122529460419189 0 -0.011564594880351038 -0.022258788127137837 0 -0.013036304040286762 -0.027696969510952206 0 -0.013695137426188863 -0.025926288494579241 0 -0.011564594880351038 -0.022258788127137837 0 -0.010053797826159682 -0.021222122908410409 0 -0.011319669171402844 -0.024076520940560932 0 -0.011564594880351038 -0.022258788127137837 0 -0.011319669171402844 -0.024076520940560932 0 -0.013036304040286762 -0.027696969510952206 0 -0.012077416978512924 -0.029371218273814496 0 -0.011319669171402844 -0.024076520940560932 0 -0.013036304040286762 -0.027696969510952206 0 -0.013036304040286762 -0.027696969510952206 0 -0.014899698841467978 -0.030478020894997952 0 -0.013695137426188863 -0.025926288494579241 0 -0.013036304040286762 -0.027696969510952206 0 -0.014087068965871688 -0.031848369995635603 0 -0.014899698841467978 -0.030478020894997952 0 -0.012077416978512924 -0.029371218273814496 0 -0.013036304040286762 -0.027696969510952206 0 -0.014087068965871688 -0.031848369995635603 0 -0.012077416978512924 -0.029371218273814496 0 -0.014087068965871688 -0.031848369995635603 0 -0.013919703829968546 -0.034732420046694849 0 -0.014087068965871688 -0.031848369995635603 0 -0.013919703829968546 -0.034732420046694849 0 -0.015782623335291152 -0.035502721636113989 0 -0.014087068965871688 -0.031848369995635603 0 -0.014899698841467978 -0.030478020894997952 0 -0.015782623335291152 -0.035502721636113989 0 -0.016670187448985418 -0.033358408239238094 0 -0.014899698841467978 -0.030478020894997952 0 -0.015782623335291152 -0.035502721636113989 0 -0.016670187448985418 -0.033358408239238094 0 -0.014899698841467978 -0.030478020894997952 0 -0.015693469296081033 -0.029177637589491115 0 -0.014899698841467978 -0.030478020894997952 0 -0.015693469296081033 -0.029177637589491115 0 -0.013695137426188863 -0.025926288494579241 0 -0.015693469296081033 -0.029177637589491115 0 -0.014497190920367475 -0.024999721344653818 0 -0.013695137426188863 -0.025926288494579241 0 -0.012581093190139194 -0.02184514253265157 0 -0.014497190920367475 -0.024999721344653818 0 -0.013695137426188863 -0.025926288494579241 0 -0.016560376345301955 -0.044288193743977466 0 -0.01482642197181374 -0.041287120258350303 0 -0.015603545018483987 -0.039292899623119819 0 -0.016560376345301955 -0.044288193743977466 0 -0.01482642197181374 -0.041287120258350303 0 -0.015061214076057367 -0.045127768643636941 0 -0.013581270905284879 -0.037599922365885503 0 -0.01482642197181374 -0.041287120258350303 0 -0.015603545018483987 -0.039292899623119819 0 -0.013581270905284879 -0.037599922365885503 0 -0.013919703829968546 -0.034732420046694849 0 -0.015603545018483987 -0.039292899623119819 0 -0.013919703829968546 -0.034732420046694849 0 -0.015603545018483987 -0.039292899623119819 0 -0.015782623335291152 -0.035502721636113989 0 -0.015603545018483987 -0.039292899623119819 0 -0.016812897960127332 -0.039334096308283988 0 -0.015782623335291152 -0.035502721636113989 0 -0.016670187448985418 -0.033358408239238094 0 -0.015782623335291152 -0.035502721636113989 0 -0.017468080228927492 -0.03759163750005546 0 -0.016812897960127332 -0.039334096308283988 0 -0.015782623335291152 -0.035502721636113989 0 -0.017468080228927492 -0.03759163750005546 0 -0.016812897960127332 -0.039334096308283988 0 -0.017468080228927492 -0.03759163750005546 0 -0.018156610406687299 -0.041855740194576878 0 -0.016812897960127332 -0.039334096308283988 0 -0.018156610406687299 -0.041855740194576878 0 -0.017330231585314704 -0.042474793538599745 0 -0.016560376345301955 -0.044288193743977466 0 -0.017330231585314704 -0.042474793538599745 0 -0.018766455095348578 -0.046186530324288079 0 -0.016560376345301955 -0.044288193743977466 0 -0.015603545018483987 -0.039292899623119819 0 -0.017330231585314704 -0.042474793538599745 0 -0.015603545018483987 -0.039292899623119819 0 -0.016812897960127332 -0.039334096308283988 0 -0.017330231585314704 -0.042474793538599745 0 -0.018156610406687299 -0.041855740194576878 0 -0.017330231585314704 -0.042474793538599745 0 -0.018766455095348578 -0.046186530324288079 0 -0.016560376345301955 -0.044288193743977466 0 -0.018766455095348578 -0.046186530324288079 0 -0.017812099590923856 -0.048715058234682238 0 -0.018766455095348578 -0.046186530324288079 0 -0.019303008650027612 -0.05056215162620932 0 -0.017812099590923856 -0.048715058234682238 0 -0.019303008650027612 -0.05056215162620932 0 -0.017812099590923856 -0.048715058234682238 0 -0.018518474626648736 -0.052266921210424172 0 -0.017812099590923856 -0.048715058234682238 0 -0.017126844764565888 -0.05134241153829245 0 -0.018518474626648736 -0.052266921210424172 0 -0.016560376345301955 -0.044288193743977466 0 -0.017812099590923856 -0.048715058234682238 0 -0.016509292422928559 -0.048033186591310569 0 -0.016560376345301955 -0.044288193743977466 0 -0.016509292422928559 -0.048033186591310569 0 -0.015061214076057367 -0.045127768643636941 0 -0.017812099590923856 -0.048715058234682238 0 -0.016509292422928559 -0.048033186591310569 0 -0.017126844764565888 -0.05134241153829245 0 -0.016509292422928559 -0.048033186591310569 0 -0.015887505194235187 -0.050670113065800396 0 -0.017126844764565888 -0.05134241153829245 0 -0.016509292422928559 -0.048033186591310569 0 -0.015061214076057367 -0.045127768643636941 0 -0.015887505194235187 -0.050670113065800396 0 -0.016709442916648953 -0.054462435865648362 0 -0.015887505194235187 -0.050670113065800396 0 -0.017126844764565888 -0.05134241153829245 0 -0.016709442916648953 -0.054462435865648362 0 -0.01842911245928008 -0.055594263662739576 0 -0.017613921871320822 -0.058144239040964295 0 -0.016709442916648953 -0.054462435865648362 0 -0.017126844764565888 -0.05134241153829245 0 -0.01842911245928008 -0.055594263662739576 0 -0.017126844764565888 -0.05134241153829245 0 -0.01842911245928008 -0.055594263662739576 0 -0.018518474626648736 -0.052266921210424172 0 -0.019303008650027612 -0.05056215162620932 0 -0.018518474626648736 -0.052266921210424172 0 -0.019816118923057176 -0.054984072353053033 0 -0.01842911245928008 -0.055594263662739576 0 -0.019816118923057176 -0.054984072353053033 0 -0.020326708784124493 -0.059457907595845905 0 -0.01842911245928008 -0.055594263662739576 0 -0.018518474626648736 -0.052266921210424172 0 -0.019816118923057176 -0.054984072353053033 0 -0.020326708784124493 -0.059457907595845905 0 -0.019111269856651278 -0.060870990537435603 0 -0.020834847526182042 -0.063973689918978158 0 -0.01842911245928008 -0.055594263662739576 0 -0.019111269856651278 -0.060870990537435603 0 -0.017613921871320822 -0.058144239040964295 0 -0.01842911245928008 -0.055594263662739576 0 -0.020326708784124493 -0.059457907595845905 0 -0.019111269856651278 -0.060870990537435603 0 -0.020834847526182042 -0.063973689918978158 0 -0.019555561693040322 -0.06565860038874162 0 -0.021359924991764017 -0.06852794982224486 0 -0.019111269856651278 -0.060870990537435603 0 -0.020834847526182042 -0.063973689918978158 0 -0.019555561693040322 -0.06565860038874162 0 -0.019555561693040322 -0.06565860038874162 0 -0.021359924991764017 -0.06852794982224486 0 -0.020236342150512059 -0.070104775655511764 0 -0.019555561693040322 -0.06565860038874162 0 -0.017560854360163133 -0.062178468257801628 0 -0.018557122172168115 -0.068008011056130135 0 -0.017560854360163133 -0.062178468257801628 0 -0.017276402015654058 -0.065156991777470502 0 -0.018557122172168115 -0.068008011056130135 0 -0.019111269856651278 -0.060870990537435603 0 -0.019555561693040322 -0.06565860038874162 0 -0.017560854360163133 -0.062178468257801628 0 -0.017276402015654058 -0.065156991777470502 0 -0.018557122172168115 -0.068008011056130135 0 -0.016809947714827321 -0.067230559086039879 0 -0.019111269856651278 -0.060870990537435603 0 -0.017560854360163133 -0.062178468257801628 0 -0.017613921871320822 -0.058144239040964295 0 -0.017560854360163133 -0.062178468257801628 0 -0.017613921871320822 -0.058144239040964295 0 -0.016349086322708539 -0.057427083055504001 0 -0.016709442916648953 -0.054462435865648362 0 -0.017613921871320822 -0.058144239040964295 0 -0.016349086322708539 -0.057427083055504001 0 -0.017560854360163133 -0.062178468257801628 0 -0.016349086322708539 -0.057427083055504001 0 -0.015188810617616403 -0.058886556876433127 0 -0.016349086322708539 -0.057427083055504001 0 -0.015188810617616403 -0.058886556876433127 0 -0.01487784282866907 -0.053646191655099783 0 -0.015188810617616403 -0.058886556876433127 0 -0.013585953087641163 -0.054552202014703982 0 -0.01487784282866907 -0.053646191655099783 0 -0.017560854360163133 -0.062178468257801628 0 -0.015188810617616403 -0.058886556876433127 0 -0.016031497052424796 -0.063163935362115217 0 -0.017276402015654058 -0.065156991777470502 0 -0.016031497052424796 -0.063163935362115217 0 -0.016809947714827321 -0.067230559086039879 0 -0.017560854360163133 -0.062178468257801628 0 -0.017276402015654058 -0.065156991777470502 0 -0.016031497052424796 -0.063163935362115217 0 -0.015188810617616403 -0.058886556876433127 0 -0.016031497052424796 -0.063163935362115217 0 -0.014729812675477799 -0.062509719393958593 0 -0.016031497052424796 -0.063163935362115217 0 -0.016809947714827321 -0.067230559086039879 0 -0.01549753693645734 -0.066991622017092745 0 -0.016031497052424796 -0.063163935362115217 0 -0.014729812675477799 -0.062509719393958593 0 -0.01549753693645734 -0.066991622017092745 0 -0.014729812675477799 -0.062509719393958593 0 -0.013679975639769602 -0.063440928196553281 0 -0.01549753693645734 -0.066991622017092745 0 -0.014729812675477799 -0.062509719393958593 0 -0.013679975639769602 -0.063440928196553281 0 -0.013212648853123246 -0.058803876906128615 0 -0.013679975639769602 -0.063440928196553281 0 -0.013212648853123246 -0.058803876906128615 0 -0.012053056797172133 -0.061050287331271443 0 -0.013679975639769602 -0.063440928196553281 0 -0.014188862930306021 -0.068120659142307791 0 -0.012715741665924055 -0.064605445550030505 0 -0.013679975639769602 -0.063440928196553281 0 -0.012715741665924055 -0.064605445550030505 0 -0.012053056797172133 -0.061050287331271443 0 -0.015188810617616403 -0.058886556876433127 0 -0.013212648853123246 -0.058803876906128615 0 -0.013585953087641163 -0.054552202014703982 0 -0.015188810617616403 -0.058886556876433127 0 -0.014729812675477799 -0.062509719393958593 0 -0.013212648853123246 -0.058803876906128615 0 -0.013212648853123246 -0.058803876906128615 0 -0.012010068676474091 -0.054818654327037059 0 -0.013585953087641163 -0.054552202014703982 0 -0.013212648853123246 -0.058803876906128615 0 -0.012010068676474091 -0.054818654327037059 0 -0.01105376128350416 -0.056466872859597277 0 -0.012010068676474091 -0.054818654327037059 0 -0.013585953087641163 -0.054552202014703982 0 -0.012277037805154857 -0.050763882610193746 0 -0.012010068676474091 -0.054818654327037059 0 -0.012277037805154857 -0.050763882610193746 0 -0.010948770288149393 -0.05150053097040299 0 -0.013585953087641163 -0.054552202014703982 0 -0.012277037805154857 -0.050763882610193746 0 -0.01367961065753699 -0.050692708644481242 0 -0.012277037805154857 -0.050763882610193746 0 -0.012649691275341324 -0.046393388530547947 0 -0.01367961065753699 -0.050692708644481242 0 -0.012277037805154857 -0.050763882610193746 0 -0.010983739285749836 -0.047070810039794644 0 -0.010948770288149393 -0.05150053097040299 0 -0.012277037805154857 -0.050763882610193746 0 -0.012649691275341324 -0.046393388530547947 0 -0.010983739285749836 -0.047070810039794644 0 -0.010874587185946036 -0.042471834721722994 0 -0.012649691275341324 -0.046393388530547947 0 -0.010983739285749836 -0.047070810039794644 0 -0.012235796077490368 -0.041522123293551289 0 -0.012649691275341324 -0.046393388530547947 0 -0.013566397935791692 -0.044518035531331615 0 -0.010874587185946036 -0.042471834721722994 0 -0.012235796077490368 -0.041522123293551289 0 -0.012649691275341324 -0.046393388530547947 0 -0.012649691275341324 -0.046393388530547947 0 -0.014590300345224461 -0.048698579230628612 0 -0.01367961065753699 -0.050692708644481242 0 -0.012649691275341324 -0.046393388530547947 0 -0.013566397935791692 -0.044518035531331615 0 -0.014590300345224461 -0.048698579230628612 0 -0.015061214076057367 -0.045127768643636941 0 -0.013566397935791692 -0.044518035531331615 0 -0.014590300345224461 -0.048698579230628612 0 -0.015061214076057367 -0.045127768643636941 0 -0.015887505194235187 -0.050670113065800396 0 -0.014590300345224461 -0.048698579230628612 0 -0.015887505194235187 -0.050670113065800396 0 -0.014590300345224461 -0.048698579230628612 0 -0.01487784282866907 -0.053646191655099783 0 -0.016709442916648953 -0.054462435865648362 0 -0.015887505194235187 -0.050670113065800396 0 -0.01487784282866907 -0.053646191655099783 0 -0.016709442916648953 -0.054462435865648362 0 -0.016349086322708539 -0.057427083055504001 0 -0.01487784282866907 -0.053646191655099783 0 -0.013585953087641163 -0.054552202014703982 0 -0.01487784282866907 -0.053646191655099783 0 -0.01367961065753699 -0.050692708644481242 0 -0.014590300345224461 -0.048698579230628612 0 -0.01487784282866907 -0.053646191655099783 0 -0.01367961065753699 -0.050692708644481242 0 -0.021438287196735181 -0.090140141181674224 0 -0.020645566192811663 -0.086005099308229568 0 -0.019727832742613798 -0.089293711905058484 0 -0.020645566192811663 -0.086005099308229568 0 -0.022223588524845798 -0.086456875582415493 0 -0.020634010086957623 -0.082156454461113401 0 -0.021438287196735181 -0.090140141181674224 0 -0.02307472400740216 -0.090959896695757006 0 -0.022223588524845798 -0.086456875582415493 0 -0.021438287196735181 -0.090140141181674224 0 -0.020645566192811663 -0.086005099308229568 0 -0.022223588524845798 -0.086456875582415493 0 -0.02307472400740216 -0.090959896695757006 0 -0.023459832065859106 -0.089063469220282299 0 -0.022223588524845798 -0.086456875582415493 0 -0.02307472400740216 -0.090959896695757006 0 -0.024654882586033895 -0.091758921807564217 0 -0.023459832065859106 -0.089063469220282299 0 -0.024654882586033895 -0.091758921807564217 0 -0.023459832065859106 -0.089063469220282299 0 -0.023880485280551721 -0.087075970409266748 0 -0.023459832065859106 -0.089063469220282299 0 -0.023880485280551721 -0.087075970409266748 0 -0.022223588524845798 -0.086456875582415493 0 -0.023880485280551721 -0.087075970409266748 0 -0.022223588524845798 -0.086456875582415493 0 -0.021746019641647893 -0.081651153165785612 0 -0.022223588524845798 -0.086456875582415493 0 -0.021746019641647893 -0.081651153165785612 0 -0.020634010086957623 -0.082156454461113401 0 -0.023880485280551721 -0.087075970409266748 0 -0.023166483008129686 -0.08240862143788244 0 -0.021746019641647893 -0.081651153165785612 0 -0.023166483008129686 -0.08240862143788244 0 -0.021746019641647893 -0.081651153165785612 0 -0.022511864818824612 -0.077756470425472707 0 -0.021746019641647893 -0.081651153165785612 0 -0.020634010086957623 -0.082156454461113401 0 -0.020505874467167149 -0.077351191671802752 0 -0.020634010086957623 -0.082156454461113401 0 -0.019387903157860709 -0.078261082905614732 0 -0.020505874467167149 -0.077351191671802752 0 -0.020645566192811663 -0.086005099308229568 0 -0.020634010086957623 -0.082156454461113401 0 -0.019189679944749426 -0.08100384595291206 0 -0.020645566192811663 -0.086005099308229568 0 -0.019189679944749426 -0.08100384595291206 0 -0.018899227181165039 -0.083712448244622567 0 -0.019189679944749426 -0.08100384595291206 0 -0.019387903157860709 -0.078261082905614732 0 -0.01786164523275512 -0.076207624318867323 0 -0.020634010086957623 -0.082156454461113401 0 -0.019189679944749426 -0.08100384595291206 0 -0.019387903157860709 -0.078261082905614732 0 -0.019387903157860709 -0.078261082905614732 0 -0.018894134339710749 -0.074972094451817892 0 -0.01786164523275512 -0.076207624318867323 0 -0.018894134339710749 -0.074972094451817892 0 -0.020505874467167149 -0.077351191671802752 0 -0.019281056871323993 -0.072061585894721975 0 -0.019387903157860709 -0.078261082905614732 0 -0.018894134339710749 -0.074972094451817892 0 -0.020505874467167149 -0.077351191671802752 0 -0.020505874467167149 -0.077351191671802752 0 -0.022511864818824612 -0.077756470425472707 0 -0.020892569560547858 -0.074082090236718717 0 -0.021746019641647893 -0.081651153165785612 0 -0.020505874467167149 -0.077351191671802752 0 -0.022511864818824612 -0.077756470425472707 0 -0.022511864818824612 -0.077756470425472707 0 -0.020892569560547858 -0.074082090236718717 0 -0.021913278822857186 -0.073123302804003407 0 -0.020505874467167149 -0.077351191671802752 0 -0.020892569560547858 -0.074082090236718717 0 -0.019281056871323993 -0.072061585894721975 0 -0.020892569560547858 -0.074082090236718717 0 -0.020236342150512059 -0.070104775655511764 0 -0.019281056871323993 -0.072061585894721975 0 -0.020892569560547858 -0.074082090236718717 0 -0.021913278822857186 -0.073123302804003407 0 -0.020236342150512059 -0.070104775655511764 0 -0.021913278822857186 -0.073123302804003407 0 -0.021359924991764017 -0.06852794982224486 0 -0.020236342150512059 -0.070104775655511764 0 -0.019555561693040322 -0.06565860038874162 0 -0.020236342150512059 -0.070104775655511764 0 -0.018557122172168115 -0.068008011056130135 0 -0.020236342150512059 -0.070104775655511764 0 -0.018557122172168115 -0.068008011056130135 0 -0.019281056871323993 -0.072061585894721975 0 -0.018894134339710749 -0.074972094451817892 0 -0.019281056871323993 -0.072061585894721975 0 -0.017414723865459447 -0.070986478214673812 0 -0.018557122172168115 -0.068008011056130135 0 -0.019281056871323993 -0.072061585894721975 0 -0.017414723865459447 -0.070986478214673812 0 -0.018557122172168115 -0.068008011056130135 0 -0.016809947714827321 -0.067230559086039879 0 -0.017414723865459447 -0.070986478214673812 0 -0.016809947714827321 -0.067230559086039879 0 -0.017414723865459447 -0.070986478214673812 0 -0.01549753693645734 -0.066991622017092745 0 -0.017414723865459447 -0.070986478214673812 0 -0.01549753693645734 -0.066991622017092745 0 -0.01629724724288607 -0.072385509591921887 0 -0.013679975639769602 -0.063440928196553281 0 -0.01549753693645734 -0.066991622017092745 0 -0.014188862930306021 -0.068120659142307791 0 -0.014188862930306021 -0.068120659142307791 0 -0.014870829547481526 -0.071924447057732058 0 -0.013271767743334054 -0.070800389687026163 0 -0.014188862930306021 -0.068120659142307791 0 -0.014870829547481526 -0.071924447057732058 0 -0.01629724724288607 -0.072385509591921887 0 -0.01549753693645734 -0.066991622017092745 0 -0.014188862930306021 -0.068120659142307791 0 -0.01629724724288607 -0.072385509591921887 0 -0.014870829547481526 -0.071924447057732058 0 -0.016168274155005911 -0.076524011451943832 0 -0.01629724724288607 -0.072385509591921887 0 -0.014870829547481526 -0.071924447057732058 0 -0.014496567743272527 -0.074885888680852428 0 -0.013271767743334054 -0.070800389687026163 0 -0.014870829547481526 -0.071924447057732058 0 -0.014496567743272527 -0.074885888680852428 0 -0.016168274155005911 -0.076524011451943832 0 -0.016168274155005911 -0.076524011451943832 0 -0.01629724724288607 -0.072385509591921887 0 -0.01786164523275512 -0.076207624318867323 0 -0.016168274155005911 -0.076524011451943832 0 -0.01786164523275512 -0.076207624318867323 0 -0.017781774424289638 -0.079714829737546442 0 -0.017414723865459447 -0.070986478214673812 0 -0.01629724724288607 -0.072385509591921887 0 -0.01786164523275512 -0.076207624318867323 0 -0.018894134339710749 -0.074972094451817892 0 -0.017414723865459447 -0.070986478214673812 0 -0.01786164523275512 -0.076207624318867323 0 -0.019189679944749426 -0.08100384595291206 0 -0.01786164523275512 -0.076207624318867323 0 -0.017781774424289638 -0.079714829737546442 0 -0.019189679944749426 -0.08100384595291206 0 -0.017781774424289638 -0.079714829737546442 0 -0.018899227181165039 -0.083712448244622567 0 -0.017781774424289638 -0.079714829737546442 0 -0.01674353177565405 -0.081002076998915581 0 -0.018899227181165039 -0.083712448244622567 0 -0.016168274155005911 -0.076524011451943832 0 -0.017781774424289638 -0.079714829737546442 0 -0.01674353177565405 -0.081002076998915581 0 -0.016168274155005911 -0.076524011451943832 0 -0.014910220665159206 -0.079324051676881349 0 -0.01674353177565405 -0.081002076998915581 0 -0.014496567743272527 -0.074885888680852428 0 -0.016168274155005911 -0.076524011451943832 0 -0.014910220665159206 -0.079324051676881349 0 -0.014910220665159206 -0.079324051676881349 0 -0.01674353177565405 -0.081002076998915581 0 -0.016199957873791242 -0.08397915412568184 0 -0.01674353177565405 -0.081002076998915581 0 -0.016199957873791242 -0.08397915412568184 0 -0.017898922006817249 -0.085280097557164605 0 -0.014910220665159206 -0.079324051676881349 0 -0.016199957873791242 -0.08397915412568184 0 -0.014307638534651602 -0.082669213326324265 0 -0.016199957873791242 -0.08397915412568184 0 -0.01794834467923492 -0.088430497811242126 0 -0.016074266293022704 -0.087577373723066523 0 -0.016199957873791242 -0.08397915412568184 0 -0.01794834467923492 -0.088430497811242126 0 -0.017898922006817249 -0.085280097557164605 0 -0.01794834467923492 -0.088430497811242126 0 -0.017898922006817249 -0.085280097557164605 0 -0.019727832742613798 -0.089293711905058484 0 -0.01674353177565405 -0.081002076998915581 0 -0.017898922006817249 -0.085280097557164605 0 -0.018899227181165039 -0.083712448244622567 0 -0.017898922006817249 -0.085280097557164605 0 -0.018899227181165039 -0.083712448244622567 0 -0.019727832742613798 -0.089293711905058484 0 -0.020645566192811663 -0.086005099308229568 0 -0.018899227181165039 -0.083712448244622567 0 -0.019727832742613798 -0.089293711905058484 0 -0.012057657961793141 -0.085981652796774735 0 -0.011073760365402448 -0.08266647550649335 0 -0.012431915762997748 -0.08234849374095099 0 -0.012057657961793141 -0.085981652796774735 0 -0.011073760365402448 -0.08266647550649335 0 -0.0099085748579263895 -0.085268301561265358 0 -0.011073760365402448 -0.08266647550649335 0 -0.012431915762997748 -0.08234849374095099 0 -0.010699447738064792 -0.078683729607262443 0 -0.011073760365402448 -0.08266647550649335 0 -0.010699447738064792 -0.078683729607262443 0 -0.0093807305933418083 -0.080372112962078787 0 -0.012057657961793141 -0.085981652796774735 0 -0.012431915762997748 -0.08234849374095099 0 -0.014111321770769536 -0.086756257224551825 0 -0.014111321770769536 -0.086756257224551825 0 -0.016074266293022704 -0.087577373723066523 0 -0.014307638534651602 -0.082669213326324265 0 -0.016199957873791242 -0.08397915412568184 0 -0.016074266293022704 -0.087577373723066523 0 -0.014307638534651602 -0.082669213326324265 0 -0.012431915762997748 -0.08234849374095099 0 -0.014111321770769536 -0.086756257224551825 0 -0.014307638534651602 -0.082669213326324265 0 -0.012431915762997748 -0.08234849374095099 0 -0.014307638534651602 -0.082669213326324265 0 -0.012404934794699431 -0.077653534240651162 0 -0.014910220665159206 -0.079324051676881349 0 -0.013531495126805819 -0.076275500086644354 0 -0.012404934794699431 -0.077653534240651162 0 -0.014910220665159206 -0.079324051676881349 0 -0.014307638534651602 -0.082669213326324265 0 -0.012404934794699431 -0.077653534240651162 0 -0.014496567743272527 -0.074885888680852428 0 -0.014910220665159206 -0.079324051676881349 0 -0.013531495126805819 -0.076275500086644354 0 -0.012404934794699431 -0.077653534240651162 0 -0.010699447738064792 -0.078683729607262443 0 -0.01023705867465262 -0.07525271287974325 0 -0.012431915762997748 -0.08234849374095099 0 -0.012404934794699431 -0.077653534240651162 0 -0.010699447738064792 -0.078683729607262443 0 -0.010699447738064792 -0.078683729607262443 0 -0.01023705867465262 -0.07525271287974325 0 -0.0088273420997656751 -0.076185169204382286 0 -0.01023705867465262 -0.07525271287974325 0 -0.010836590580493652 -0.072445787157839087 0 -0.0084024474693702254 -0.07138989464280146 0 -0.010836590580493652 -0.072445787157839087 0 -0.0096454823971420123 -0.069171646958515548 0 -0.0084024474693702254 -0.07138989464280146 0 -0.010836590580493652 -0.072445787157839087 0 -0.011476633843563372 -0.069878977432532172 0 -0.0096454823971420123 -0.069171646958515548 0 -0.012404934794699431 -0.077653534240651162 0 -0.01023705867465262 -0.07525271287974325 0 -0.010836590580493652 -0.072445787157839087 0 -0.012404934794699431 -0.077653534240651162 0 -0.010836590580493652 -0.072445787157839087 0 -0.012469324317389615 -0.073301565152588247 0 -0.013531495126805819 -0.076275500086644354 0 -0.012404934794699431 -0.077653534240651162 0 -0.012469324317389615 -0.073301565152588247 0 -0.014496567743272527 -0.074885888680852428 0 -0.013531495126805819 -0.076275500086644354 0 -0.012469324317389615 -0.073301565152588247 0 -0.014496567743272527 -0.074885888680852428 0 -0.012469324317389615 -0.073301565152588247 0 -0.013271767743334054 -0.070800389687026163 0 -0.012469324317389615 -0.073301565152588247 0 -0.013271767743334054 -0.070800389687026163 0 -0.011476633843563372 -0.069878977432532172 0 -0.010836590580493652 -0.072445787157839087 0 -0.012469324317389615 -0.073301565152588247 0 -0.011476633843563372 -0.069878977432532172 0 -0.013271767743334054 -0.070800389687026163 0 -0.011476633843563372 -0.069878977432532172 0 -0.012223825822716526 -0.067232853759962338 0 -0.011476633843563372 -0.069878977432532172 0 -0.012223825822716526 -0.067232853759962338 0 -0.010287439353075696 -0.066529937320114196 0 -0.014188862930306021 -0.068120659142307791 0 -0.013271767743334054 -0.070800389687026163 0 -0.012223825822716526 -0.067232853759962338 0 -0.012223825822716526 -0.067232853759962338 0 -0.012715741665924055 -0.064605445550030505 0 -0.011146070564002856 -0.06385173434529956 0 -0.014188862930306021 -0.068120659142307791 0 -0.012223825822716526 -0.067232853759962338 0 -0.012715741665924055 -0.064605445550030505 0 -0.012223825822716526 -0.067232853759962338 0 -0.010287439353075696 -0.066529937320114196 0 -0.011146070564002856 -0.06385173434529956 0 -0.010287439353075696 -0.066529937320114196 0 -0.011146070564002856 -0.06385173434529956 0 -0.0090458040039559165 -0.062833103322619141 0 -0.011476633843563372 -0.069878977432532172 0 -0.010287439353075696 -0.066529937320114196 0 -0.0096454823971420123 -0.069171646958515548 0 -0.010287439353075696 -0.066529937320114196 0 -0.0096454823971420123 -0.069171646958515548 0 -0.0082575361342350946 -0.066398699854601714 0 -0.010287439353075696 -0.066529937320114196 0 -0.0082575361342350946 -0.066398699854601714 0 -0.0090458040039559165 -0.062833103322619141 0 -0.0082575361342350946 -0.066398699854601714 0 -0.0065378832043819137 -0.064712396178119316 0 -0.0071347250952929677 -0.061970583223692782 0 -0.0082575361342350946 -0.066398699854601714 0 -0.0090458040039559165 -0.062833103322619141 0 -0.0071347250952929677 -0.061970583223692782 0 -0.0082575361342350946 -0.066398699854601714 0 -0.0068597497598160738 -0.067842944330217037 0 -0.0084024474693702254 -0.07138989464280146 0 -0.0096454823971420123 -0.069171646958515548 0 -0.0082575361342350946 -0.066398699854601714 0 -0.0084024474693702254 -0.07138989464280146 0 -0.0082575361342350946 -0.066398699854601714 0 -0.0068597497598160738 -0.067842944330217037 0 -0.0065378832043819137 -0.064712396178119316 0 -0.0065378832043819137 -0.064712396178119316 0 -0.0051183535901815434 -0.065875289980909191 0 -0.0051571179960679895 -0.061943180025525624 0 -0.0051183535901815434 -0.065875289980909191 0 -0.0051571179960679895 -0.061943180025525624 0 -0.0031118337583877546 -0.063014104309190536 0 -0.0051183535901815434 -0.065875289980909191 0 -0.0034541902942831718 -0.066047784204215046 0 -0.0031118337583877546 -0.063014104309190536 0 -0.0051183535901815434 -0.065875289980909191 0 -0.0037442555095081593 -0.069207410188650023 0 -0.0034541902942831718 -0.066047784204215046 0 -0.0068597497598160738 -0.067842944330217037 0 -0.0051183535901815434 -0.065875289980909191 0 -0.0059254501665685928 -0.070938667005313413 0 -0.0068597497598160738 -0.067842944330217037 0 -0.0065378832043819137 -0.064712396178119316 0 -0.0051183535901815434 -0.065875289980909191 0 -0.0051183535901815434 -0.065875289980909191 0 -0.0059254501665685928 -0.070938667005313413 0 -0.0037442555095081593 -0.069207410188650023 0 -0.0059254501665685928 -0.070938667005313413 0 -0.0043243275092202625 -0.073728531518517743 0 -0.0037442555095081593 -0.069207410188650023 0 -0.0059254501665685928 -0.070938667005313413 0 -0.0069464142105855574 -0.074421220215937875 0 -0.0043243275092202625 -0.073728531518517743 0 -0.0059254501665685928 -0.070938667005313413 0 -0.0084024474693702254 -0.07138989464280146 0 -0.0069464142105855574 -0.074421220215937875 0 -0.0084024474693702254 -0.07138989464280146 0 -0.0088273420997656751 -0.076185169204382286 0 -0.0069464142105855574 -0.074421220215937875 0 -0.0068597497598160738 -0.067842944330217037 0 -0.0059254501665685928 -0.070938667005313413 0 -0.0084024474693702254 -0.07138989464280146 0 -0.01023705867465262 -0.07525271287974325 0 -0.0084024474693702254 -0.07138989464280146 0 -0.0088273420997656751 -0.076185169204382286 0 -0.010699447738064792 -0.078683729607262443 0 -0.0088273420997656751 -0.076185169204382286 0 -0.0093807305933418083 -0.080372112962078787 0 -0.0088273420997656751 -0.076185169204382286 0 -0.0074513493793568249 -0.077904857733597538 0 -0.0093807305933418083 -0.080372112962078787 0 -0.0088273420997656751 -0.076185169204382286 0 -0.0074513493793568249 -0.077904857733597538 0 -0.0069464142105855574 -0.074421220215937875 0 -0.0074513493793568249 -0.077904857733597538 0 -0.0069464142105855574 -0.074421220215937875 0 -0.0058189185055864097 -0.07708578522470666 0 -0.0069464142105855574 -0.074421220215937875 0 -0.0058189185055864097 -0.07708578522470666 0 -0.0043243275092202625 -0.073728531518517743 0 -0.0058189185055864097 -0.07708578522470666 0 -0.0063011806075619079 -0.080583231273724146 0 -0.0039850611113795504 -0.078905397072948094 0 -0.0058189185055864097 -0.07708578522470666 0 -0.0039850611113795504 -0.078905397072948094 0 -0.0043243275092202625 -0.073728531518517743 0 -0.0074513493793568249 -0.077904857733597538 0 -0.0058189185055864097 -0.07708578522470666 0 -0.0063011806075619079 -0.080583231273724146 0 -0.0074513493793568249 -0.077904857733597538 0 -0.0063011806075619079 -0.080583231273724146 0 -0.0081436750163644996 -0.081735959600664099 0 -0.0063011806075619079 -0.080583231273724146 0 -0.0054252949685700737 -0.084159498762086074 0 -0.0039850611113795504 -0.078905397072948094 0 -0.0063011806075619079 -0.080583231273724146 0 -0.0076916382608971812 -0.084660425710372814 0 -0.0054252949685700737 -0.084159498762086074 0 -0.0063011806075619079 -0.080583231273724146 0 -0.0076916382608971812 -0.084660425710372814 0 -0.0081436750163644996 -0.081735959600664099 0 -0.0076916382608971812 -0.084660425710372814 0 -0.0081436750163644996 -0.081735959600664099 0 -0.0099085748579263895 -0.085268301561265358 0 -0.0081436750163644996 -0.081735959600664099 0 -0.0093807305933418083 -0.080372112962078787 0 -0.0099085748579263895 -0.085268301561265358 0 -0.0074513493793568249 -0.077904857733597538 0 -0.0081436750163644996 -0.081735959600664099 0 -0.0093807305933418083 -0.080372112962078787 0 -0.011073760365402448 -0.08266647550649335 0 -0.0093807305933418083 -0.080372112962078787 0 -0.0099085748579263895 -0.085268301561265358 0 -0.008256991968809092 -0.048737054372060745 0 -0.0092551772341808222 -0.052296031396321691 0 -0.007466722335958304 -0.050633529389528087 0 -0.0092551772341808222 -0.052296031396321691 0 -0.007466722335958304 -0.050633529389528087 0 -0.0078369095224249431 -0.054110460310560604 0 -0.007466722335958304 -0.050633529389528087 0 -0.0078369095224249431 -0.054110460310560604 0 -0.0061296120940067238 -0.052379107975724738 0 -0.008256991968809092 -0.048737054372060745 0 -0.007466722335958304 -0.050633529389528087 0 -0.00649632102367386 -0.047051757019288896 0 -0.00649632102367386 -0.047051757019288896 0 -0.0077718137654726495 -0.044330790411166311 0 -0.0057060679049811408 -0.042871179764723891 0 -0.008256991968809092 -0.048737054372060745 0 -0.00649632102367386 -0.047051757019288896 0 -0.0077718137654726495 -0.044330790411166311 0 -0.0067053749300467263 -0.040477781795089721 0 -0.0077718137654726495 -0.044330790411166311 0 -0.0057060679049811408 -0.042871179764723891 0 -0.008256991968809092 -0.048737054372060745 0 -0.0077718137654726495 -0.044330790411166311 0 -0.0096874432957094313 -0.048283892464588786 0 -0.0077718137654726495 -0.044330790411166311 0 -0.0094294568427394712 -0.043132974652085029 0 -0.0096874432957094313 -0.048283892464588786 0 -0.0080974777876779702 -0.039880249465481132 0 -0.0077718137654726495 -0.044330790411166311 0 -0.0094294568427394712 -0.043132974652085029 0 -0.010874587185946036 -0.042471834721722994 0 -0.0094294568427394712 -0.043132974652085029 0 -0.010983739285749836 -0.047070810039794644 0 -0.0094294568427394712 -0.043132974652085029 0 -0.010983739285749836 -0.047070810039794644 0 -0.0096874432957094313 -0.048283892464588786 0 -0.010983739285749836 -0.047070810039794644 0 -0.0096874432957094313 -0.048283892464588786 0 -0.010948770288149393 -0.05150053097040299 0 -0.008256991968809092 -0.048737054372060745 0 -0.0092551772341808222 -0.052296031396321691 0 -0.0096874432957094313 -0.048283892464588786 0 -0.0092551772341808222 -0.052296031396321691 0 -0.0096874432957094313 -0.048283892464588786 0 -0.010948770288149393 -0.05150053097040299 0 -0.0092551772341808222 -0.052296031396321691 0 -0.010948770288149393 -0.05150053097040299 0 -0.01105376128350416 -0.056466872859597277 0 -0.012010068676474091 -0.054818654327037059 0 -0.010948770288149393 -0.05150053097040299 0 -0.01105376128350416 -0.056466872859597277 0 -0.013212648853123246 -0.058803876906128615 0 -0.01105376128350416 -0.056466872859597277 0 -0.012053056797172133 -0.061050287331271443 0 -0.01105376128350416 -0.056466872859597277 0 -0.010199714579882609 -0.060156824121874654 0 -0.0094408692336223204 -0.056369848821083389 0 -0.01105376128350416 -0.056466872859597277 0 -0.012053056797172133 -0.061050287331271443 0 -0.010199714579882609 -0.060156824121874654 0 -0.0092551772341808222 -0.052296031396321691 0 -0.01105376128350416 -0.056466872859597277 0 -0.0094408692336223204 -0.056369848821083389 0 -0.012715741665924055 -0.064605445550030505 0 -0.012053056797172133 -0.061050287331271443 0 -0.011146070564002856 -0.06385173434529956 0 -0.012053056797172133 -0.061050287331271443 0 -0.011146070564002856 -0.06385173434529956 0 -0.010199714579882609 -0.060156824121874654 0 -0.011146070564002856 -0.06385173434529956 0 -0.010199714579882609 -0.060156824121874654 0 -0.0090458040039559165 -0.062833103322619141 0 -0.010199714579882609 -0.060156824121874654 0 -0.0081084640193999878 -0.058625633021851392 0 -0.0090458040039559165 -0.062833103322619141 0 -0.0081084640193999878 -0.058625633021851392 0 -0.0090458040039559165 -0.062833103322619141 0 -0.0071347250952929677 -0.061970583223692782 0 -0.0092551772341808222 -0.052296031396321691 0 -0.0094408692336223204 -0.056369848821083389 0 -0.0078369095224249431 -0.054110460310560604 0 -0.010199714579882609 -0.060156824121874654 0 -0.0081084640193999878 -0.058625633021851392 0 -0.0094408692336223204 -0.056369848821083389 0 -0.0081084640193999878 -0.058625633021851392 0 -0.0094408692336223204 -0.056369848821083389 0 -0.0078369095224249431 -0.054110460310560604 0 -0.0081084640193999878 -0.058625633021851392 0 -0.0078369095224249431 -0.054110460310560604 0 -0.0065179512052264271 -0.055473426456015072 0 -0.0078369095224249431 -0.054110460310560604 0 -0.0065179512052264271 -0.055473426456015072 0 -0.0061296120940067238 -0.052379107975724738 0 -0.0081084640193999878 -0.058625633021851392 0 -0.0065179512052264271 -0.055473426456015072 0 -0.0055213896777780011 -0.058010190379224648 0 -0.0065179512052264271 -0.055473426456015072 0 -0.0055213896777780011 -0.058010190379224648 0 -0.0047331781250526533 -0.054158474182287954 0 -0.0047331781250526533 -0.054158474182287954 0 -0.0044093655353430643 -0.050837228805085934 0 -0.0061296120940067238 -0.052379107975724738 0 -0.0065179512052264271 -0.055473426456015072 0 -0.0047331781250526533 -0.054158474182287954 0 -0.0061296120940067238 -0.052379107975724738 0 -0.0081084640193999878 -0.058625633021851392 0 -0.0071347250952929677 -0.061970583223692782 0 -0.0055213896777780011 -0.058010190379224648 0 -0.0071347250952929677 -0.061970583223692782 0 -0.0055213896777780011 -0.058010190379224648 0 -0.0051571179960679895 -0.061943180025525624 0 -0.0065378832043819137 -0.064712396178119316 0 -0.0071347250952929677 -0.061970583223692782 0 -0.0051571179960679895 -0.061943180025525624 0 -0.0055213896777780011 -0.058010190379224648 0 -0.0051571179960679895 -0.061943180025525624 0 -0.0030344786446706716 -0.058190095120612954 0 -0.0051571179960679895 -0.061943180025525624 0 -0.0030344786446706716 -0.058190095120612954 0 -0.0031118337583877546 -0.063014104309190536 0 -0.0055213896777780011 -0.058010190379224648 0 -0.0031467878812082239 -0.054832864211359647 0 -0.0030344786446706716 -0.058190095120612954 0 -0.0047331781250526533 -0.054158474182287954 0 -0.0031467878812082239 -0.054832864211359647 0 -0.0029740695697512169 -0.051196446667261107 0 -0.0047331781250526533 -0.054158474182287954 0 -0.0029740695697512169 -0.051196446667261107 0 -0.0044093655353430643 -0.050837228805085934 0 -0.0055213896777780011 -0.058010190379224648 0 -0.0047331781250526533 -0.054158474182287954 0 -0.0031467878812082239 -0.054832864211359647 0 -0.0031467878812082239 -0.054832864211359647 0 -0.0029740695697512169 -0.051196446667261107 0 -0.0015139128367583437 -0.051960264348758209 0 -0.0029740695697512169 -0.051196446667261107 0 -0.00079531337979353925 -0.048871535268889627 0 -0.0015139128367583437 -0.051960264348758209 0 -0.0029740695697512169 -0.051196446667261107 0 -0.0027560946706684706 -0.047454302575714667 0 -0.00079531337979353925 -0.048871535268889627 0 -0.0029740695697512169 -0.051196446667261107 0 -0.0027560946706684706 -0.047454302575714667 0 -0.0044093655353430643 -0.050837228805085934 0 -0.0044093655353430643 -0.050837228805085934 0 -0.0052742543189290792 -0.048980026010890826 0 -0.0061296120940067238 -0.052379107975724738 0 -0.0027560946706684706 -0.047454302575714667 0 -0.0044093655353430643 -0.050837228805085934 0 -0.0052742543189290792 -0.048980026010890826 0 -0.0027560946706684706 -0.047454302575714667 0 -0.0052742543189290792 -0.048980026010890826 0 -0.0041803995726530209 -0.045122026605620258 0 -0.00649632102367386 -0.047051757019288896 0 -0.0052742543189290792 -0.048980026010890826 0 -0.0041803995726530209 -0.045122026605620258 0 -0.007466722335958304 -0.050633529389528087 0 -0.00649632102367386 -0.047051757019288896 0 -0.0052742543189290792 -0.048980026010890826 0 -0.007466722335958304 -0.050633529389528087 0 -0.0052742543189290792 -0.048980026010890826 0 -0.0061296120940067238 -0.052379107975724738 0 -0.00649632102367386 -0.047051757019288896 0 -0.0057060679049811408 -0.042871179764723891 0 -0.0041803995726530209 -0.045122026605620258 0 -0.0034605544455789151 -0.040681462598930886 0 -0.0057060679049811408 -0.042871179764723891 0 -0.0041803995726530209 -0.045122026605620258 0 -0.0027560946706684706 -0.047454302575714667 0 -0.0019376526657570968 -0.043231051644150587 0 0.00019875273026921116 -0.044673830662678583 0 -0.0034605544455789151 -0.040681462598930886 0 -0.0011698008278622533 -0.039801252266032511 0 -0.0019376526657570968 -0.043231051644150587 0 -0.0034605544455789151 -0.040681462598930886 0 -0.0041803995726530209 -0.045122026605620258 0 -0.0019376526657570968 -0.043231051644150587 0 -0.0027560946706684706 -0.047454302575714667 0 -0.0041803995726530209 -0.045122026605620258 0 -0.0019376526657570968 -0.043231051644150587 0 -0.0011698008278622533 -0.039801252266032511 0 -0.0019376526657570968 -0.043231051644150587 0 0.00046189766583031521 -0.041031636330964155 0 -0.0019376526657570968 -0.043231051644150587 0 0.00019875273026921116 -0.044673830662678583 0 0.00046189766583031521 -0.041031636330964155 0 0.00019875273026921116 -0.044673830662678583 0 0.00046189766583031521 -0.041031636330964155 0 0.0019937044591499704 -0.043744715021143646 0 0.00019875273026921116 -0.044673830662678583 0 0.0019937044591499704 -0.043744715021143646 0 0.0017741462557937062 -0.047089839111270834 0 0.00046189766583031521 -0.041031636330964155 0 0.0022392621555940404 -0.040288998552273247 0 0.0019937044591499704 -0.043744715021143646 0 0.0022392621555940404 -0.040288998552273247 0 0.0019937044591499704 -0.043744715021143646 0 0.0039348199265518231 -0.043611303151473192 0 0.0019937044591499704 -0.043744715021143646 0 0.0039348199265518231 -0.043611303151473192 0 0.0017741462557937062 -0.047089839111270834 0 0.0022392621555940404 -0.040288998552273247 0 0.0039348199265518231 -0.043611303151473192 0 0.0039054505601603716 -0.03882958430231221 0 0.0025510682141876512 -0.050802267548186675 0 0.0044155223008684845 -0.05102835335750585 0 0.0041367267744428825 -0.048032644238014802 0 0.0017741462557937062 -0.047089839111270834 0 0.0025510682141876512 -0.050802267548186675 0 0.0041367267744428825 -0.048032644238014802 0 0.0039348199265518231 -0.043611303151473192 0 0.0017741462557937062 -0.047089839111270834 0 0.0041367267744428825 -0.048032644238014802 0 0.0017741462557937062 -0.047089839111270834 0 0.00038888437344354707 -0.051140566298585606 0 0.0025510682141876512 -0.050802267548186675 0 -0.0027560946706684706 -0.047454302575714667 0 0.00019875273026921116 -0.044673830662678583 0 -0.00079531337979353925 -0.048871535268889627 0 0.0017741462557937062 -0.047089839111270834 0 -0.00079531337979353925 -0.048871535268889627 0 0.00038888437344354707 -0.051140566298585606 0 0.00019875273026921116 -0.044673830662678583 0 0.0017741462557937062 -0.047089839111270834 0 -0.00079531337979353925 -0.048871535268889627 0 -0.00079531337979353925 -0.048871535268889627 0 -0.0015139128367583437 -0.051960264348758209 0 0.00038888437344354707 -0.051140566298585606 0 -0.0031467878812082239 -0.054832864211359647 0 -0.0015139128367583437 -0.051960264348758209 0 -0.001027951935466738 -0.054531988279923657 0 -0.0015139128367583437 -0.051960264348758209 0 -0.001027951935466738 -0.054531988279923657 0 0.00038888437344354707 -0.051140566298585606 0 -0.0031467878812082239 -0.054832864211359647 0 -0.001027951935466738 -0.054531988279923657 0 -0.0030344786446706716 -0.058190095120612954 0 -0.001027951935466738 -0.054531988279923657 0 -0.00040341438556085044 -0.05666354167809369 0 0.0011302063052198458 -0.053903404530487059 0 -0.001027951935466738 -0.054531988279923657 0 0.00038888437344354707 -0.051140566298585606 0 0.0011302063052198458 -0.053903404530487059 0 -0.0030344786446706716 -0.058190095120612954 0 -0.0013066445665080827 -0.062265518540709386 0 -0.0031118337583877546 -0.063014104309190536 0 -0.001027951935466738 -0.054531988279923657 0 -0.0030344786446706716 -0.058190095120612954 0 -0.00040341438556085044 -0.05666354167809369 0 -0.036780477319415215 -0.05975180062963735 0 0.0080347729746179548 -0.056668569233454522 0 -0.0030344786446706716 -0.058190095120612954 0 -0.0013639802654859261 -0.058969065033555951 0 -0.0013066445665080827 -0.062265518540709386 0 -0.0013066445665080827 -0.062265518540709386 0 0.00057407682739473527 -0.058509083986835235 0 0.00031269359863733844 -0.06340064398897477 0 0.0080347729746179548 -0.056668569233454522 0 -0.0011416757842931423 -0.058123934899801812 0 -0.00040341438556085044 -0.05666354167809369 0 0.0021697983998409686 -0.056816607358054765 0 0.0011302063052198458 -0.053903404530487059 0 -0.0013639802654859261 -0.058969065033555951 0 -0.0013066445665080827 -0.062265518540709386 0 0.00057407682739473527 -0.058509083986835235 0 -0.0011416757842931423 -0.058123934899801812 0 0.0041106194400871172 -0.05746723673885086 0 0.0021697983998409686 -0.056816607358054765 0 0.0035422213130529984 -0.053993428933191936 0 0.0046276175363082631 -0.05641807354185939 0 0.00057407682739473527 -0.058509083986835235 0 0.001825614992681288 -0.061381153087893672 0 0.00031269359863733844 -0.06340064398897477 0 0.00038888437344354707 -0.051140566298585606 0 0.0011302063052198458 -0.053903404530487059 0 0.0025510682141876512 -0.050802267548186675 0 0.0021697983998409686 -0.056816607358054765 0 0.0011302063052198458 -0.053903404530487059 0 0.0035422213130529984 -0.053993428933191936 0 0.0011302063052198458 -0.053903404530487059 0 0.0035422213130529984 -0.053993428933191936 0 0.0025510682141876512 -0.050802267548186675 0 0.0035422213130529984 -0.053993428933191936 0 0.0025510682141876512 -0.050802267548186675 0 0.0044155223008684845 -0.05102835335750585 0 0.0035422213130529984 -0.053993428933191936 0 0.0044155223008684845 -0.05102835335750585 0 0.0058993120156645568 -0.053221435296429989 0 0.0035422213130529984 -0.053993428933191936 0 0.0058993120156645568 -0.053221435296429989 0 0.0046276175363082631 -0.05641807354185939 0 0.0058993120156645568 -0.053221435296429989 0 0.0046276175363082631 -0.05641807354185939 0 0.0070266387499469431 -0.056665006617037689 0 0.0044155223008684845 -0.05102835335750585 0 0.0058993120156645568 -0.053221435296429989 0 0.0060582946147964027 -0.049602785029980681 0 0.001825614992681288 -0.061381153087893672 0 0.0030859867075426644 -0.061178987397092793 0 0.0023353933449882279 -0.064488665800946393 0 0.001825614992681288 -0.061381153087893672 0 0.0025824664875010494 -0.058723596891308037 0 0.0030859867075426644 -0.061178987397092793 0 0.00057407682739473527 -0.058509083986835235 0 0.001825614992681288 -0.061381153087893672 0 0.0025824664875010494 -0.058723596891308037 0 0.0041106194400871172 -0.05746723673885086 0 0.0054829853085843188 -0.057528493942820509 0 0.0025824664875010494 -0.058723596891308037 0 0.0030859867075426644 -0.061178987397092793 0 0.0046013541180396789 -0.058357483239892399 0 0.0030859867075426644 -0.061178987397092793 0 0.0046013541180396789 -0.058357483239892399 0 0.0041994829881824283 -0.062852270815126676 0 0.0046013541180396789 -0.058357483239892399 0 0.0056445262347312669 -0.061796092228413195 0 0.0041994829881824283 -0.062852270815126676 0 0.0046013541180396789 -0.058357483239892399 0 0.0066655202122380018 -0.058702406836952187 0 0.0056445262347312669 -0.061796092228413195 0 0.0070266387499469431 -0.056665006617037689 0 0.0093915958829104938 -0.056396883493317417 0 0.0082678600569668324 -0.054079272401962065 0 0.0054829853085843188 -0.057528493942820509 0 0.0079317801233605607 -0.057549580000607919 0 0.0066655202122380018 -0.058702406836952187 0 0.0056445262347312669 -0.061796092228413195 0 0.0070041932134573825 -0.062915186049009003 0 0.0058993120156645568 -0.053221435296429989 0 0.0077771615099163595 -0.050994192532918113 0 0.0082678600569668324 -0.054079272401962065 0 0.0058993120156645568 -0.053221435296429989 0 0.0077771615099163595 -0.050994192532918113 0 0.0060582946147964027 -0.049602785029980681 0 0.0058993120156645568 -0.053221435296429989 0 0.0070266387499469431 -0.056665006617037689 0 0.0082678600569668324 -0.054079272401962065 0 0.0077771615099163595 -0.050994192532918113 0 0.0082678600569668324 -0.054079272401962065 0 0.0094196328857194186 -0.050631081447665531 0 0.0082678600569668324 -0.054079272401962065 0 0.0094196328857194186 -0.050631081447665531 0 0.010522753051353631 -0.053787017589038637 0 0.0077771615099163595 -0.050994192532918113 0 0.0094196328857194186 -0.050631081447665531 0 0.0080623527015896198 -0.046795383881777154 0 0.0094196328857194186 -0.050631081447665531 0 0.0080623527015896198 -0.046795383881777154 0 0.010497497513320037 -0.047946231116305076 0 0.0077771615099163595 -0.050994192532918113 0 0.0080623527015896198 -0.046795383881777154 0 0.0060582946147964027 -0.049602785029980681 0 0.0080623527015896198 -0.046795383881777154 0 0.0063139062877528547 -0.0428999967650718 0 0.0060915821484049306 -0.04625357793808673 0 0.0080623527015896198 -0.046795383881777154 0 0.0060582946147964027 -0.049602785029980681 0 0.0060915821484049306 -0.04625357793808673 0 0.0080623527015896198 -0.046795383881777154 0 0.0080404978456194119 -0.042011587148787659 0 0.010477368707611616 -0.043832891013730495 0 0.0080404978456194119 -0.042011587148787659 0 0.010477368707611616 -0.043832891013730495 0 0.0091121395121465144 -0.039322909244005402 0 0.0080404978456194119 -0.042011587148787659 0 0.0063139062877528547 -0.0428999967650718 0 0.0071746314143558082 -0.03866689891303296 0 0.0080623527015896198 -0.046795383881777154 0 0.0080404978456194119 -0.042011587148787659 0 0.0063139062877528547 -0.0428999967650718 0 0.0039348199265518231 -0.043611303151473192 0 0.0063139062877528547 -0.0428999967650718 0 0.0060915821484049306 -0.04625357793808673 0 0.0063139062877528547 -0.0428999967650718 0 0.0054761739940943814 -0.040004939999206471 0 0.0071746314143558082 -0.03866689891303296 0 0.0039348199265518231 -0.043611303151473192 0 0.0063139062877528547 -0.0428999967650718 0 0.0054761739940943814 -0.040004939999206471 0 0.0039348199265518231 -0.043611303151473192 0 0.0039054505601603716 -0.03882958430231221 0 0.0054761739940943814 -0.040004939999206471 0 0.0039348199265518231 -0.043611303151473192 0 0.0041367267744428825 -0.048032644238014802 0 0.0060915821484049306 -0.04625357793808673 0 0.0044155223008684845 -0.05102835335750585 0 0.0041367267744428825 -0.048032644238014802 0 0.0060582946147964027 -0.049602785029980681 0 0.0041367267744428825 -0.048032644238014802 0 0.0060582946147964027 -0.049602785029980681 0 0.0060915821484049306 -0.04625357793808673 0 -0.0008300381527825716 -0.083468951392370552 0 0.00035321231947392864 -0.07934619401333895 0 -0.0018067402355240777 -0.080462818203561853 0 -0.0008300381527825716 -0.083468951392370552 0 0.00035321231947392864 -0.07934619401333895 0 0.0014699228082864703 -0.083252157929561144 0 0.00035321231947392864 -0.07934619401333895 0 -0.0018067402355240777 -0.080462818203561853 0 -0.0013908145739684435 -0.076940915888527708 0 -0.0008300381527825716 -0.083468951392370552 0 -0.0018067402355240777 -0.080462818203561853 0 -0.0031437795819802047 -0.083766799774106712 0 -0.0031437795819802047 -0.083766799774106712 0 -0.0054252949685700737 -0.084159498762086074 0 -0.0039850611113795504 -0.078905397072948094 0 -0.0018067402355240777 -0.080462818203561853 0 -0.0039850611113795504 -0.078905397072948094 0 -0.0013908145739684435 -0.076940915888527708 0 -0.0018067402355240777 -0.080462818203561853 0 -0.0031437795819802047 -0.083766799774106712 0 -0.0039850611113795504 -0.078905397072948094 0 -0.0039850611113795504 -0.078905397072948094 0 -0.0024726916939994178 -0.074667613634895755 0 -0.0013908145739684435 -0.076940915888527708 0 -0.0039850611113795504 -0.078905397072948094 0 -0.0043243275092202625 -0.073728531518517743 0 -0.0024726916939994178 -0.074667613634895755 0 -0.0024726916939994178 -0.074667613634895755 0 -0.00089683616526917923 -0.073827346668170576 0 -0.001707787215205981 -0.070992723949041645 0 -0.0024726916939994178 -0.074667613634895755 0 -0.00089683616526917923 -0.073827346668170576 0 -0.0013908145739684435 -0.076940915888527708 0 -0.00089683616526917923 -0.073827346668170576 0 -0.0013908145739684435 -0.076940915888527708 0 0.00053818983183361675 -0.0752119723201915 0 0.00035321231947392864 -0.07934619401333895 0 -0.0013908145739684435 -0.076940915888527708 0 0.00053818983183361675 -0.0752119723201915 0 -0.00089683616526917923 -0.073827346668170576 0 0.00053818983183361675 -0.0752119723201915 0 0.0005485882497911664 -0.071398924593534294 0 0.0005485882497911664 -0.071398924593534294 0 0.00036415142937297593 -0.067415874394012767 0 0.00224594110876416 -0.068816591140143837 0 0.0005485882497911664 -0.071398924593534294 0 -0.001707787215205981 -0.070992723949041645 0 0.00036415142937297593 -0.067415874394012767 0 -0.001707787215205981 -0.070992723949041645 0 -0.0017952156986105396 -0.066226786886707953 0 0.00036415142937297593 -0.067415874394012767 0 -0.00089683616526917923 -0.073827346668170576 0 0.0005485882497911664 -0.071398924593534294 0 -0.001707787215205981 -0.070992723949041645 0 -0.0043243275092202625 -0.073728531518517743 0 -0.0024726916939994178 -0.074667613634895755 0 -0.001707787215205981 -0.070992723949041645 0 -0.0043243275092202625 -0.073728531518517743 0 -0.001707787215205981 -0.070992723949041645 0 -0.0037442555095081593 -0.069207410188650023 0 -0.001707787215205981 -0.070992723949041645 0 -0.0037442555095081593 -0.069207410188650023 0 -0.0017952156986105396 -0.066226786886707953 0 -0.0037442555095081593 -0.069207410188650023 0 -0.0017952156986105396 -0.066226786886707953 0 -0.0034541902942831718 -0.066047784204215046 0 -0.0017952156986105396 -0.066226786886707953 0 -0.0034541902942831718 -0.066047784204215046 0 -0.0031118337583877546 -0.063014104309190536 0 -0.0013066445665080827 -0.062265518540709386 0 -0.0017952156986105396 -0.066226786886707953 0 -0.0031118337583877546 -0.063014104309190536 0 -0.0013066445665080827 -0.062265518540709386 0 -0.0017952156986105396 -0.066226786886707953 0 0.00031269359863733844 -0.06340064398897477 0 -0.0017952156986105396 -0.066226786886707953 0 0.00036415142937297593 -0.067415874394012767 0 0.00031269359863733844 -0.06340064398897477 0 0.00036415142937297593 -0.067415874394012767 0 0.00031269359863733844 -0.06340064398897477 0 0.0023353933449882279 -0.064488665800946393 0 0.001825614992681288 -0.061381153087893672 0 0.00031269359863733844 -0.06340064398897477 0 0.0023353933449882279 -0.064488665800946393 0 0.00036415142937297593 -0.067415874394012767 0 0.0023353933449882279 -0.064488665800946393 0 0.00224594110876416 -0.068816591140143837 0 0.0023353933449882279 -0.064488665800946393 0 0.003612451367918143 -0.0665086655129105 0 0.00224594110876416 -0.068816591140143837 0 0.0023353933449882279 -0.064488665800946393 0 0.003612451367918143 -0.0665086655129105 0 0.0041994829881824283 -0.062852270815126676 0 0.0030859867075426644 -0.061178987397092793 0 0.0023353933449882279 -0.064488665800946393 0 0.0041994829881824283 -0.062852270815126676 0 0.0056445262347312669 -0.061796092228413195 0 0.0041994829881824283 -0.062852270815126676 0 0.0055191100928807559 -0.066210420939512557 0 0.0056445262347312669 -0.061796092228413195 0 0.0055191100928807559 -0.066210420939512557 0 0.0070041932134573825 -0.062915186049009003 0 0.003612451367918143 -0.0665086655129105 0 0.0041994829881824283 -0.062852270815126676 0 0.0055191100928807559 -0.066210420939512557 0 0.003612451367918143 -0.0665086655129105 0 0.0055191100928807559 -0.066210420939512557 0 0.0037457060773023105 -0.070249429576878297 0 0.0055191100928807559 -0.066210420939512557 0 0.0055086398651503395 -0.070997194067806052 0 0.0037457060773023105 -0.070249429576878297 0 0.0055191100928807559 -0.066210420939512557 0 0.0055086398651503395 -0.070997194067806052 0 0.007288137328123505 -0.070095137652453343 0 0.0055086398651503395 -0.070997194067806052 0 0.0037457060773023105 -0.070249429576878297 0 0.0052160971373373197 -0.074265820606261412 0 0.0037457060773023105 -0.070249429576878297 0 0.0026133142775118419 -0.073218841702212836 0 0.0052160971373373197 -0.074265820606261412 0 0.0037457060773023105 -0.070249429576878297 0 0.00224594110876416 -0.068816591140143837 0 0.0026133142775118419 -0.073218841702212836 0 0.003612451367918143 -0.0665086655129105 0 0.0037457060773023105 -0.070249429576878297 0 0.00224594110876416 -0.068816591140143837 0 0.0005485882497911664 -0.071398924593534294 0 0.00224594110876416 -0.068816591140143837 0 0.0026133142775118419 -0.073218841702212836 0 0.00053818983183361675 -0.0752119723201915 0 0.0005485882497911664 -0.071398924593534294 0 0.0026133142775118419 -0.073218841702212836 0 0.00053818983183361675 -0.0752119723201915 0 0.002031563613537582 -0.076738576420334242 0 0.0026133142775118419 -0.073218841702212836 0 0.00035321231947392864 -0.07934619401333895 0 0.00053818983183361675 -0.0752119723201915 0 0.002031563613537582 -0.076738576420334242 0 0.002031563613537582 -0.076738576420334242 0 0.0035731626090813942 -0.076563893748790121 0 0.0029923381290153147 -0.079753782168941731 0 0.002031563613537582 -0.076738576420334242 0 0.0026133142775118419 -0.073218841702212836 0 0.0035731626090813942 -0.076563893748790121 0 0.0026133142775118419 -0.073218841702212836 0 0.0052160971373373197 -0.074265820606261412 0 0.0035731626090813942 -0.076563893748790121 0 0.0055086398651503395 -0.070997194067806052 0 0.0052160971373373197 -0.074265820606261412 0 0.0071592558831012855 -0.073800622694390181 0 0.0052160971373373197 -0.074265820606261412 0 0.0050334003937804288 -0.078890585230543916 0 0.0065488180751715743 -0.076691010625548464 0 0.0052160971373373197 -0.074265820606261412 0 0.0035731626090813942 -0.076563893748790121 0 0.0050334003937804288 -0.078890585230543916 0 0.0035731626090813942 -0.076563893748790121 0 0.0050334003937804288 -0.078890585230543916 0 0.0029923381290153147 -0.079753782168941731 0 0.0050334003937804288 -0.078890585230543916 0 0.0037642635561715224 -0.083104736707735508 0 0.0060365494139877005 -0.08300600241312657 0 0.0050334003937804288 -0.078890585230543916 0 0.0060365494139877005 -0.08300600241312657 0 0.0070574257981696146 -0.079613694880296335 0 0.0050334003937804288 -0.078890585230543916 0 0.0037642635561715224 -0.083104736707735508 0 0.0029923381290153147 -0.079753782168941731 0 0.0037642635561715224 -0.083104736707735508 0 0.0029923381290153147 -0.079753782168941731 0 0.0014699228082864703 -0.083252157929561144 0 0.00035321231947392864 -0.07934619401333895 0 0.002031563613537582 -0.076738576420334242 0 0.0029923381290153147 -0.079753782168941731 0 0.00035321231947392864 -0.07934619401333895 0 0.0029923381290153147 -0.079753782168941731 0 0.0014699228082864703 -0.083252157929561144 0 0.010528273055255544 -0.082894163982894356 0 0.010698494535114039 -0.077645645209559744 0 0.012760305347466062 -0.079108644920287297 0 0.010528273055255544 -0.082894163982894356 0 0.0090174958500978033 -0.079909580664386928 0 0.010698494535114039 -0.077645645209559744 0 0.0090174958500978033 -0.079909580664386928 0 0.0082909733953526726 -0.076919383046175877 0 0.010698494535114039 -0.077645645209559744 0 0.010528273055255544 -0.082894163982894356 0 0.0090174958500978033 -0.079909580664386928 0 0.0082938231726101021 -0.082940057672382064 0 0.0090174958500978033 -0.079909580664386928 0 0.0082938231726101021 -0.082940057672382064 0 0.0070574257981696146 -0.079613694880296335 0 0.0082938231726101021 -0.082940057672382064 0 0.0060365494139877005 -0.08300600241312657 0 0.0070574257981696146 -0.079613694880296335 0 0.0050334003937804288 -0.078890585230543916 0 0.0070574257981696146 -0.079613694880296335 0 0.0065488180751715743 -0.076691010625548464 0 0.0090174958500978033 -0.079909580664386928 0 0.0070574257981696146 -0.079613694880296335 0 0.0082909733953526726 -0.076919383046175877 0 0.0082909733953526726 -0.076919383046175877 0 0.0065488180751715743 -0.076691010625548464 0 0.0071592558831012855 -0.073800622694390181 0 0.0070574257981696146 -0.079613694880296335 0 0.0082909733953526726 -0.076919383046175877 0 0.0065488180751715743 -0.076691010625548464 0 0.0052160971373373197 -0.074265820606261412 0 0.0065488180751715743 -0.076691010625548464 0 0.0071592558831012855 -0.073800622694390181 0 0.0082909733953526726 -0.076919383046175877 0 0.0071592558831012855 -0.073800622694390181 0 0.0090345517479600099 -0.073764791931913903 0 0.0090345517479600099 -0.073764791931913903 0 0.010698494535114039 -0.077645645209559744 0 0.010994549223831208 -0.07351070918732254 0 0.0082909733953526726 -0.076919383046175877 0 0.0090345517479600099 -0.073764791931913903 0 0.010698494535114039 -0.077645645209559744 0 0.010698494535114039 -0.077645645209559744 0 0.010994549223831208 -0.07351070918732254 0 0.013075404187458731 -0.075067225178528874 0 0.010994549223831208 -0.07351070918732254 0 0.0098051034748827728 -0.070634234048193953 0 0.012161003497634264 -0.070432002122773021 0 0.0098051034748827728 -0.070634234048193953 0 0.010766309878492229 -0.067293218080547529 0 0.012161003497634264 -0.070432002122773021 0 0.0098051034748827728 -0.070634234048193953 0 0.0087139605020339229 -0.067871280884153534 0 0.010766309878492229 -0.067293218080547529 0 0.0090345517479600099 -0.073764791931913903 0 0.010994549223831208 -0.07351070918732254 0 0.0098051034748827728 -0.070634234048193953 0 0.0071592558831012855 -0.073800622694390181 0 0.0090345517479600099 -0.073764791931913903 0 0.007288137328123505 -0.070095137652453343 0 0.0090345517479600099 -0.073764791931913903 0 0.0098051034748827728 -0.070634234048193953 0 0.007288137328123505 -0.070095137652453343 0 0.0055086398651503395 -0.070997194067806052 0 0.0071592558831012855 -0.073800622694390181 0 0.007288137328123505 -0.070095137652453343 0 0.007288137328123505 -0.070095137652453343 0 0.0087139605020339229 -0.067871280884153534 0 0.0074789982158627397 -0.066329440195985953 0 0.0098051034748827728 -0.070634234048193953 0 0.007288137328123505 -0.070095137652453343 0 0.0087139605020339229 -0.067871280884153534 0 0.0087139605020339229 -0.067871280884153534 0 0.0074789982158627397 -0.066329440195985953 0 0.0088492962338027874 -0.064561398080743751 0 0.0055191100928807559 -0.066210420939512557 0 0.0074789982158627397 -0.066329440195985953 0 0.0070041932134573825 -0.062915186049009003 0 0.0055191100928807559 -0.066210420939512557 0 0.007288137328123505 -0.070095137652453343 0 0.0074789982158627397 -0.066329440195985953 0 0.0074789982158627397 -0.066329440195985953 0 0.0070041932134573825 -0.062915186049009003 0 0.0088492962338027874 -0.064561398080743751 0 0.0070041932134573825 -0.062915186049009003 0 0.0088492962338027874 -0.064561398080743751 0 0.0081571603032580629 -0.061175625327437741 0 0.0088492962338027874 -0.064561398080743751 0 0.010766309878492229 -0.067293218080547529 0 0.011162730477572623 -0.06348518560038259 0 0.0088492962338027874 -0.064561398080743751 0 0.011162730477572623 -0.06348518560038259 0 0.0096146093467548745 -0.061465789068765042 0 0.0087139605020339229 -0.067871280884153534 0 0.0088492962338027874 -0.064561398080743751 0 0.010766309878492229 -0.067293218080547529 0 0.010766309878492229 -0.067293218080547529 0 0.011162730477572623 -0.06348518560038259 0 0.013215474384209981 -0.066326540528096181 0 0.011162730477572623 -0.06348518560038259 0 0.013215474384209981 -0.066326540528096181 0 0.01312410469565257 -0.06228923180984889 0 0.013215474384209981 -0.066326540528096181 0 0.015040079797213491 -0.063234279700828955 0 0.015424922795926712 -0.06702922000919305 0 0.013215474384209981 -0.066326540528096181 0 0.015040079797213491 -0.063234279700828955 0 0.01312410469565257 -0.06228923180984889 0 0.015040079797213491 -0.063234279700828955 0 0.016349206679738888 -0.064702635927801594 0 0.015424922795926712 -0.06702922000919305 0 0.015040079797213491 -0.063234279700828955 0 0.016349206679738888 -0.064702635927801594 0 0.016258622524656541 -0.061439214325569182 0 0.016349206679738888 -0.064702635927801594 0 0.016258622524656541 -0.061439214325569182 0 0.017499202312191608 -0.062679955055980452 0 0.016349206679738888 -0.064702635927801594 0 0.017454915716545647 -0.066654994497313574 0 0.017499202312191608 -0.062679955055980452 0 0.016349206679738888 -0.064702635927801594 0 0.017454915716545647 -0.066654994497313574 0 0.015424922795926712 -0.06702922000919305 0 0.0173803862658614 -0.070636813621914665 0 0.014608668471835444 -0.070693850849090828 0 0.015275572338692278 -0.074367885960219371 0 0.015424922795926712 -0.06702922000919305 0 0.0173803862658614 -0.070636813621914665 0 0.014608668471835444 -0.070693850849090828 0 0.017454915716545647 -0.066654994497313574 0 0.015424922795926712 -0.06702922000919305 0 0.0173803862658614 -0.070636813621914665 0 0.014608668471835444 -0.070693850849090828 0 0.012161003497634264 -0.070432002122773021 0 0.013075404187458731 -0.075067225178528874 0 0.013215474384209981 -0.066326540528096181 0 0.015424922795926712 -0.06702922000919305 0 0.014608668471835444 -0.070693850849090828 0 0.013215474384209981 -0.066326540528096181 0 0.014608668471835444 -0.070693850849090828 0 0.012161003497634264 -0.070432002122773021 0 0.010766309878492229 -0.067293218080547529 0 0.013215474384209981 -0.066326540528096181 0 0.012161003497634264 -0.070432002122773021 0 0.010994549223831208 -0.07351070918732254 0 0.012161003497634264 -0.070432002122773021 0 0.013075404187458731 -0.075067225178528874 0 0.010698494535114039 -0.077645645209559744 0 0.013075404187458731 -0.075067225178528874 0 0.012760305347466062 -0.079108644920287297 0 0.013075404187458731 -0.075067225178528874 0 0.015275572338692278 -0.074367885960219371 0 0.014758867466388471 -0.078267785935503237 0 0.013075404187458731 -0.075067225178528874 0 0.014758867466388471 -0.078267785935503237 0 0.012760305347466062 -0.079108644920287297 0 0.014608668471835444 -0.070693850849090828 0 0.013075404187458731 -0.075067225178528874 0 0.015275572338692278 -0.074367885960219371 0 0.0173803862658614 -0.070636813621914665 0 0.015275572338692278 -0.074367885960219371 0 0.017290146172163273 -0.074649791282821829 0 0.017290146172163273 -0.074649791282821829 0 0.016123639044981011 -0.07669980474991063 0 0.017210793145184644 -0.078689375877078138 0 0.015275572338692278 -0.074367885960219371 0 0.017290146172163273 -0.074649791282821829 0 0.016123639044981011 -0.07669980474991063 0 0.015275572338692278 -0.074367885960219371 0 0.016123639044981011 -0.07669980474991063 0 0.014758867466388471 -0.078267785935503237 0 0.016123639044981011 -0.07669980474991063 0 0.014758867466388471 -0.078267785935503237 0 0.015943478999365338 -0.080074742226475371 0 0.016123639044981011 -0.07669980474991063 0 0.015943478999365338 -0.080074742226475371 0 0.017210793145184644 -0.078689375877078138 0 0.015943478999365338 -0.080074742226475371 0 0.017210793145184644 -0.078689375877078138 0 0.017140886567366377 -0.082744903752798152 0 0.015943478999365338 -0.080074742226475371 0 0.017140886567366377 -0.082744903752798152 0 0.014946959948634035 -0.082809000162260685 0 0.014758867466388471 -0.078267785935503237 0 0.015943478999365338 -0.080074742226475371 0 0.014946959948634035 -0.082809000162260685 0 0.014946959948634035 -0.082809000162260685 0 0.012760305347466062 -0.079108644920287297 0 0.012743390885169577 -0.082857610852616059 0 0.014758867466388471 -0.078267785935503237 0 0.014946959948634035 -0.082809000162260685 0 0.012760305347466062 -0.079108644920287297 0 0.010528273055255544 -0.082894163982894356 0 0.012760305347466062 -0.079108644920287297 0 0.012743390885169577 -0.082857610852616059 0 0.0124783948231792 -0.048048812469342866 0 0.01480361529269658 -0.046383802476336375 0 0.012993322337155134 -0.044532676636198594 0 0.0124783948231792 -0.048048812469342866 0 0.0149057774101484 -0.049733391564700268 0 0.013387401755457202 -0.0511948886318421 0 0.0124783948231792 -0.048048812469342866 0 0.01164069617484563 -0.05079589732441258 0 0.013387401755457202 -0.0511948886318421 0 0.0124783948231792 -0.048048812469342866 0 0.0149057774101484 -0.049733391564700268 0 0.01480361529269658 -0.046383802476336375 0 0.01480361529269658 -0.046383802476336375 0 0.014757682085665672 -0.042266529012530918 0 0.012993322337155134 -0.044532676636198594 0 0.014757682085665672 -0.042266529012530918 0 0.012361761978508488 -0.041318469858987468 0 0.012993322337155134 -0.044532676636198594 0 0.014757682085665672 -0.042266529012530918 0 0.012361761978508488 -0.041318469858987468 0 0.013767721449394581 -0.039431480363553303 0 0.012361761978508488 -0.041318469858987468 0 0.012993322337155134 -0.044532676636198594 0 0.010477368707611616 -0.043832891013730495 0 0.012361761978508488 -0.041318469858987468 0 0.010477368707611616 -0.043832891013730495 0 0.01079251113625708 -0.040098251520719302 0 0.010477368707611616 -0.043832891013730495 0 0.01079251113625708 -0.040098251520719302 0 0.0091121395121465144 -0.039322909244005402 0 0.0080623527015896198 -0.046795383881777154 0 0.010477368707611616 -0.043832891013730495 0 0.010497497513320037 -0.047946231116305076 0 0.0124783948231792 -0.048048812469342866 0 0.010477368707611616 -0.043832891013730495 0 0.010497497513320037 -0.047946231116305076 0 0.0124783948231792 -0.048048812469342866 0 0.012993322337155134 -0.044532676636198594 0 0.010477368707611616 -0.043832891013730495 0 0.0124783948231792 -0.048048812469342866 0 0.010497497513320037 -0.047946231116305076 0 0.01164069617484563 -0.05079589732441258 0 0.0094196328857194186 -0.050631081447665531 0 0.010497497513320037 -0.047946231116305076 0 0.01164069617484563 -0.05079589732441258 0 0.0094196328857194186 -0.050631081447665531 0 0.010522753051353631 -0.053787017589038637 0 0.01164069617484563 -0.05079589732441258 0 0.0093915958829104938 -0.056396883493317417 0 0.0082678600569668324 -0.054079272401962065 0 0.010522753051353631 -0.053787017589038637 0 0.010522753051353631 -0.053787017589038637 0 0.011710581735136952 -0.05673587362993681 0 0.012850235924289978 -0.054066315368670619 0 0.010522753051353631 -0.053787017589038637 0 0.01164069617484563 -0.05079589732441258 0 0.012850235924289978 -0.054066315368670619 0 0.0066655202122380018 -0.058702406836952187 0 0.0070041932134573825 -0.062915186049009003 0 0.0081571603032580629 -0.061175625327437741 0 0.0066655202122380018 -0.058702406836952187 0 0.0087729006126751052 -0.058428350247446595 0 0.0081571603032580629 -0.061175625327437741 0 0.0093915958829104938 -0.056396883493317417 0 0.010522753051353631 -0.053787017589038637 0 0.011710581735136952 -0.05673587362993681 0 0.0079317801233605607 -0.057549580000607919 0 0.0099570141052758767 -0.057581394987627287 0 0.0088492962338027874 -0.064561398080743751 0 0.0081571603032580629 -0.061175625327437741 0 0.0096146093467548745 -0.061465789068765042 0 0.0087729006126751052 -0.058428350247446595 0 0.0081571603032580629 -0.061175625327437741 0 0.0096146093467548745 -0.061465789068765042 0 0.011162730477572623 -0.06348518560038259 0 0.0096146093467548745 -0.061465789068765042 0 0.010909135274990827 -0.058818824746366766 0 0.0099570141052758767 -0.057581394987627287 0 0.012609465879751284 -0.057676444682435046 0 0.011710581735136952 -0.05673587362993681 0 0.013988582668004571 -0.056513301407180194 0 0.012850235924289978 -0.054066315368670619 0 0.0087729006126751052 -0.058428350247446595 0 0.0096146093467548745 -0.061465789068765042 0 0.010909135274990827 -0.058818824746366766 0 0.012609465879751284 -0.057676444682435046 0 0.013163580254186595 -0.057726351768530533 0 0.011162730477572623 -0.06348518560038259 0 0.010909135274990827 -0.058818824746366766 0 0.01312410469565257 -0.06228923180984889 0 0.01164069617484563 -0.05079589732441258 0 0.013387401755457202 -0.0511948886318421 0 0.012850235924289978 -0.054066315368670619 0 0.013988582668004571 -0.056513301407180194 0 0.012850235924289978 -0.054066315368670619 0 0.015148887207391435 -0.053289780213011159 0 0.0149057774101484 -0.049733391564700268 0 0.013387401755457202 -0.0511948886318421 0 0.015148887207391435 -0.053289780213011159 0 0.013387401755457202 -0.0511948886318421 0 0.012850235924289978 -0.054066315368670619 0 0.015148887207391435 -0.053289780213011159 0 0.015148887207391435 -0.053289780213011159 0 0.017159210272592783 -0.054238848064965782 0 0.016956318260708172 -0.051240008753986127 0 0.0149057774101484 -0.049733391564700268 0 0.015148887207391435 -0.053289780213011159 0 0.016956318260708172 -0.051240008753986127 0 0.013988582668004571 -0.056513301407180194 0 0.015148887207391435 -0.053289780213011159 0 0.016237390840451664 -0.05692013877359671 0 0.015148887207391435 -0.053289780213011159 0 0.017159210272592783 -0.054238848064965782 0 0.016237390840451664 -0.05692013877359671 0 0.017159210272592783 -0.054238848064965782 0 0.016956318260708172 -0.051240008753986127 0 0.018755146511119397 -0.053463515250589795 0 0.010909135274990827 -0.058818824746366766 0 0.01312410469565257 -0.06228923180984889 0 0.013114910071442354 -0.05861261538763364 0 0.013163580254186595 -0.057726351768530533 0 0.021601752547287113 -0.057901773234354942 0 0.017159210272592783 -0.054238848064965782 0 0.016237390840451664 -0.05692013877359671 0 0.018479424996147482 -0.056645562732206944 0 0.01312410469565257 -0.06228923180984889 0 0.013114910071442354 -0.05861261538763364 0 0.015367334625211082 -0.05895108606846336 0 0.015040079797213491 -0.063234279700828955 0 0.01312410469565257 -0.06228923180984889 0 0.015367334625211082 -0.05895108606846336 0 0.015040079797213491 -0.063234279700828955 0 0.015367334625211082 -0.05895108606846336 0 0.016258622524656541 -0.061439214325569182 0 0.021601752547287113 -0.057901773234354942 0 0.00055478347633107928 -0.057648598400315498 0 0.015367334625211082 -0.05895108606846336 0 0.017626633584272321 -0.058646182089558921 0 0.016258622524656541 -0.061439214325569182 0 0.017626633584272321 -0.058646182089558921 0 0.016258622524656541 -0.061439214325569182 0 0.017499202312191608 -0.062679955055980452 0 0.016956318260708172 -0.051240008753986127 0 0.018755146511119397 -0.053463515250589795 0 0.018731973090002716 -0.048950774010413443 0 0.017159210272592783 -0.054238848064965782 0 0.018479424996147482 -0.056645562732206944 0 0.018755146511119397 -0.053463515250589795 0 0.018479424996147482 -0.056645562732206944 0 0.020696113331894601 -0.056953705478564522 0 0.018755146511119397 -0.053463515250589795 0 0.020696113331894601 -0.056953705478564522 0 0.018755146511119397 -0.053463515250589795 0 0.020605703001077103 -0.052976431823103201 0 0.018755146511119397 -0.053463515250589795 0 0.020605703001077103 -0.052976431823103201 0 0.018731973090002716 -0.048950774010413443 0 0.018731973090002716 -0.048950774010413443 0 0.01776141738075843 -0.045671613812393146 0 0.020451380723121599 -0.045143616794485801 0 0.020605703001077103 -0.052976431823103201 0 0.02052842861867412 -0.049047740826664292 0 0.018731973090002716 -0.048950774010413443 0 0.02052842861867412 -0.049047740826664292 0 0.018731973090002716 -0.048950774010413443 0 0.020451380723121599 -0.045143616794485801 0 0.016956318260708172 -0.051240008753986127 0 0.018731973090002716 -0.048950774010413443 0 0.016654338447968084 -0.047803245952559102 0 0.018731973090002716 -0.048950774010413443 0 0.016654338447968084 -0.047803245952559102 0 0.01776141738075843 -0.045671613812393146 0 0.01480361529269658 -0.046383802476336375 0 0.016654338447968084 -0.047803245952559102 0 0.016508658928223733 -0.043736387366839928 0 0.0149057774101484 -0.049733391564700268 0 0.01480361529269658 -0.046383802476336375 0 0.016654338447968084 -0.047803245952559102 0 0.0149057774101484 -0.049733391564700268 0 0.016956318260708172 -0.051240008753986127 0 0.016654338447968084 -0.047803245952559102 0 0.014757682085665672 -0.042266529012530918 0 0.016508658928223733 -0.043736387366839928 0 0.016807115037146894 -0.040741060089163436 0 0.01480361529269658 -0.046383802476336375 0 0.014757682085665672 -0.042266529012530918 0 0.016508658928223733 -0.043736387366839928 0 0.016508658928223733 -0.043736387366839928 0 0.01776141738075843 -0.045671613812393146 0 0.018527902420427393 -0.042537469231192483 0 0.016654338447968084 -0.047803245952559102 0 0.016508658928223733 -0.043736387366839928 0 0.01776141738075843 -0.045671613812393146 0 0.016508658928223733 -0.043736387366839928 0 0.018527902420427393 -0.042537469231192483 0 0.016807115037146894 -0.040741060089163436 0 0.01776141738075843 -0.045671613812393146 0 0.018527902420427393 -0.042537469231192483 0 0.020451380723121599 -0.045143616794485801 0 0.018527902420427393 -0.042537469231192483 0 0.020451380723121599 -0.045143616794485801 0 0.020341801012544011 -0.041283301222684213 0 0.018527902420427393 -0.042537469231192483 0 0.020341801012544011 -0.041283301222684213 0 0.018704470095474872 -0.039746839674677834 0 0.020341801012544011 -0.041283301222684213 0 0.020187902582329918 -0.037489907714512258 0 0.018704470095474872 -0.039746839674677834 0 0.020187902582329918 -0.037489907714512258 0 0.017575028686769748 -0.036675044708388747 0 0.018704470095474872 -0.039746839674677834 0 0.017575028686769748 -0.036675044708388747 0 0.018704470095474872 -0.039746839674677834 0 0.016807115037146894 -0.040741060089163436 0 0.018527902420427393 -0.042537469231192483 0 0.018704470095474872 -0.039746839674677834 0 0.016807115037146894 -0.040741060089163436 0 0.01991015352919305 -0.033753475786492168 0 0.018232790143568645 -0.033428715651499769 0 0.019514998719061004 -0.030064733590256493 0 0.020187902582329918 -0.037489907714512258 0 0.01991015352919305 -0.033753475786492168 0 0.018232790143568645 -0.033428715651499769 0 0.020187902582329918 -0.037489907714512258 0 0.017575028686769748 -0.036675044708388747 0 0.018232790143568645 -0.033428715651499769 0 0.018232790143568645 -0.033428715651499769 0 0.016087835085903016 -0.034044139951731375 0 0.016313610248209848 -0.030659321668428566 0 0.017575028686769748 -0.036675044708388747 0 0.018232790143568645 -0.033428715651499769 0 0.016087835085903016 -0.034044139951731375 0 0.016087835085903016 -0.034044139951731375 0 0.015399417477326434 -0.037678581341923673 0 0.014342098400055363 -0.034483355811031999 0 0.016087835085903016 -0.034044139951731375 0 0.014342098400055363 -0.034483355811031999 0 0.014354591547797346 -0.031396156673517812 0 0.016087835085903016 -0.034044139951731375 0 0.014354591547797346 -0.031396156673517812 0 0.016313610248209848 -0.030659321668428566 0 0.017575028686769748 -0.036675044708388747 0 0.016807115037146894 -0.040741060089163436 0 0.015399417477326434 -0.037678581341923673 0 0.017575028686769748 -0.036675044708388747 0 0.016087835085903016 -0.034044139951731375 0 0.015399417477326434 -0.037678581341923673 0 0.014757682085665672 -0.042266529012530918 0 0.016807115037146894 -0.040741060089163436 0 0.015399417477326434 -0.037678581341923673 0 0.014757682085665672 -0.042266529012530918 0 0.015399417477326434 -0.037678581341923673 0 0.013767721449394581 -0.039431480363553303 0 0.012361761978508488 -0.041318469858987468 0 0.013767721449394581 -0.039431480363553303 0 0.012312556801597211 -0.038209005334668707 0 0.013767721449394581 -0.039431480363553303 0 0.012312556801597211 -0.038209005334668707 0 0.013795004899373593 -0.036787126110732919 0 0.012312556801597211 -0.038209005334668707 0 0.013795004899373593 -0.036787126110732919 0 0.012484094813989294 -0.035087418779449583 0 0.015399417477326434 -0.037678581341923673 0 0.013767721449394581 -0.039431480363553303 0 0.013795004899373593 -0.036787126110732919 0 0.013795004899373593 -0.036787126110732919 0 0.014342098400055363 -0.034483355811031999 0 0.012484094813989294 -0.035087418779449583 0 0.015399417477326434 -0.037678581341923673 0 0.013795004899373593 -0.036787126110732919 0 0.014342098400055363 -0.034483355811031999 0 0.014342098400055363 -0.034483355811031999 0 0.014354591547797346 -0.031396156673517812 0 0.012080076786240304 -0.031971840805968627 0 0.014354591547797346 -0.031396156673517812 0 0.012080076786240304 -0.031971840805968627 0 0.012866778492045948 -0.029541200202819067 0 0.014342098400055363 -0.034483355811031999 0 0.012080076786240304 -0.031971840805968627 0 0.012484094813989294 -0.035087418779449583 0 0.012484094813989294 -0.035087418779449583 0 0.010448250788301999 -0.032259032230165928 0 0.010816220786826628 -0.036545905023672207 0 0.012080076786240304 -0.031971840805968627 0 0.012484094813989294 -0.035087418779449583 0 0.010448250788301999 -0.032259032230165928 0 0.012080076786240304 -0.031971840805968627 0 0.010448250788301999 -0.032259032230165928 0 0.010534942806002546 -0.027745034636182664 0 0.010448250788301999 -0.032259032230165928 0 0.010816220786826628 -0.036545905023672207 0 0.0088996063679877575 -0.035773063383577809 0 0.010816220786826628 -0.036545905023672207 0 0.0088996063679877575 -0.035773063383577809 0 0.0091121395121465144 -0.039322909244005402 0 0.010816220786826628 -0.036545905023672207 0 0.01079251113625708 -0.040098251520719302 0 0.0091121395121465144 -0.039322909244005402 0 0.012312556801597211 -0.038209005334668707 0 0.010816220786826628 -0.036545905023672207 0 0.01079251113625708 -0.040098251520719302 0 0.012361761978508488 -0.041318469858987468 0 0.012312556801597211 -0.038209005334668707 0 0.01079251113625708 -0.040098251520719302 0 0.012312556801597211 -0.038209005334668707 0 0.012484094813989294 -0.035087418779449583 0 0.010816220786826628 -0.036545905023672207 0 0.0082208501193523909 -0.023042448908786442 0 0.0067263021391318952 -0.019315770349055801 0 0.0084170328095509814 -0.019996083180830196 0 0.0094664981161278541 -0.023360666108049218 0 0.0077074285173833199 -0.023068463957643288 0 0.0082208501193523909 -0.023042448908786442 0 0.0067263021391318952 -0.019315770349055801 0 0.0063796418024965598 -0.02238517426355029 0 0.010987126546026873 -0.023675497596889538 0 0.010534942806002546 -0.027745034636182664 0 0.0090584424736947396 -0.023750125435945339 0 0.010534942806002546 -0.027745034636182664 0 0.0085286928184462891 -0.02658083041606819 0 0.0090584424736947396 -0.023750125435945339 0 0.010448250788301999 -0.032259032230165928 0 0.010534942806002546 -0.027745034636182664 0 0.0092700810578241824 -0.029520137442562461 0 0.010534942806002546 -0.027745034636182664 0 0.0092700810578241824 -0.029520137442562461 0 0.0085286928184462891 -0.02658083041606819 0 0.012080076786240304 -0.031971840805968627 0 0.010534942806002546 -0.027745034636182664 0 0.012866778492045948 -0.029541200202819067 0 0.010987126546026873 -0.023675497596889538 0 0.010534942806002546 -0.027745034636182664 0 0.012238293951883212 -0.026526732907683519 0 0.010534942806002546 -0.027745034636182664 0 0.012238293951883212 -0.026526732907683519 0 0.012866778492045948 -0.029541200202819067 0 0.012238293951883212 -0.026526732907683519 0 0.012866778492045948 -0.029541200202819067 0 0.014252602850467696 -0.027848057479901364 0 0.014354591547797346 -0.031396156673517812 0 0.012866778492045948 -0.029541200202819067 0 0.014252602850467696 -0.027848057479901364 0 0.012238293951883212 -0.026526732907683519 0 0.014252602850467696 -0.027848057479901364 0 0.01289436794248862 -0.024491824144775621 0 0.014252602850467696 -0.027848057479901364 0 0.01289436794248862 -0.024491824144775621 0 0.014847951260679979 -0.024724787021708286 0 0.010263640280416292 -0.023126872990367035 0 0.0084170328095509814 -0.019996083180830196 0 0.0093191145612189583 -0.018050404306084095 0 0.010263640280416292 -0.023126872990367035 0 0.011528959153935226 -0.020267477776794093 0 0.0093191145612189583 -0.018050404306084095 0 0.011861482673288983 -0.023802481548943519 0 0.012315960880470463 -0.024430800212304597 0 0.010987126546026873 -0.023675497596889538 0 0.012238293951883212 -0.026526732907683519 0 0.01289436794248862 -0.024491824144775621 0 0.0082208501193523909 -0.023042448908786442 0 0.010263640280416292 -0.023126872990367035 0 0.0084170328095509814 -0.019996083180830196 0 0.0094664981161278541 -0.023360666108049218 0 0.011861482673288983 -0.023802481548943519 0 0.010263640280416292 -0.023126872990367035 0 0.011528959153935226 -0.020267477776794093 0 0.01234914220769954 -0.024091738351339355 0 0.012315960880470463 -0.024430800212304597 0 0.020252262083849049 -0.025176424144679067 0 0.014847951260679979 -0.024724787021708286 0 0.016103481593223282 -0.027646185339835011 0 0.016863260179902848 -0.025909230124665512 0 0.011528959153935226 -0.020267477776794093 0 0.01234914220769954 -0.024091738351339355 0 0.014541043787820047 -0.024544278987753191 0 0.011528959153935226 -0.020267477776794093 0 0.014541043787820047 -0.024544278987753191 0 0.013140120702992714 -0.020256609338589131 0 0.014354591547797346 -0.031396156673517812 0 0.014252602850467696 -0.027848057479901364 0 0.016313610248209848 -0.030659321668428566 0 0.014252602850467696 -0.027848057479901364 0 0.016103481593223282 -0.027646185339835011 0 0.016313610248209848 -0.030659321668428566 0 0.014252602850467696 -0.027848057479901364 0 0.014847951260679979 -0.024724787021708286 0 0.016103481593223282 -0.027646185339835011 0 0.016103481593223282 -0.027646185339835011 0 0.016313610248209848 -0.030659321668428566 0 0.017719067026197782 -0.029065076086281619 0 0.018232790143568645 -0.033428715651499769 0 0.016313610248209848 -0.030659321668428566 0 0.017719067026197782 -0.029065076086281619 0 0.016103481593223282 -0.027646185339835011 0 0.017719067026197782 -0.029065076086281619 0 0.016863260179902848 -0.025909230124665512 0 0.017719067026197782 -0.029065076086281619 0 0.016863260179902848 -0.025909230124665512 0 0.018903057767672194 -0.026379520414282865 0 0.017719067026197782 -0.029065076086281619 0 0.019514998719061004 -0.030064733590256493 0 0.018903057767672194 -0.026379520414282865 0 0.018232790143568645 -0.033428715651499769 0 0.017719067026197782 -0.029065076086281619 0 0.019514998719061004 -0.030064733590256493 0 0.014541043787820047 -0.024544278987753191 0 0.014732343522760245 -0.022585334470438697 0 0.013140120702992714 -0.020256609338589131 0 0.020252262083849049 -0.025176424144679067 0 0.00049703144283957652 -0.02613511261055082 0 0.014541043787820047 -0.024544278987753191 0 0.016614586618475105 -0.025746471761117603 0 0.014732343522760245 -0.022585334470438697 0 0.016614586618475105 -0.025746471761117603 0 0.014732343522760245 -0.022585334470438697 0 0.015513538112164186 -0.022049856147637568 0 0.014732343522760245 -0.022585334470438697 0 0.013882526683267659 -0.019562950000275751 0 0.015513538112164186 -0.022049856147637568 0 0.013882526683267659 -0.019562950000275751 0 0.015513538112164186 -0.022049856147637568 0 0.01419602384586535 -0.018485242776472319 0 0.013882526683267659 -0.019562950000275751 0 0.013140120702992714 -0.020256609338589131 0 0.012255541324857525 -0.01676035827034714 0 0.014732343522760245 -0.022585334470438697 0 0.013882526683267659 -0.019562950000275751 0 0.013140120702992714 -0.020256609338589131 0 0.013882526683267659 -0.019562950000275751 0 0.012255541324857525 -0.01676035827034714 0 0.01419602384586535 -0.018485242776472319 0 0.012255541324857525 -0.01676035827034714 0 0.012454850810531846 -0.014800088503159415 0 0.0098517593138854331 -0.012549739610849932 0 0.012454850810531846 -0.014800088503159415 0 0.0098517593138854331 -0.012549739610849932 0 0.0082410805509910232 -0.0092063252223082356 0 0.012255541324857525 -0.01676035827034714 0 0.01419602384586535 -0.018485242776472319 0 0.012454850810531846 -0.014800088503159415 0 0.012255541324857525 -0.01676035827034714 0 0.0098517593138854331 -0.012549739610849932 0 0.010538347539280953 -0.016305488347723419 0 0.0098517593138854331 -0.012549739610849932 0 0.007669825988561447 -0.011158009176355415 0 0.010538347539280953 -0.016305488347723419 0 0.0098517593138854331 -0.012549739610849932 0 0.007669825988561447 -0.011158009176355415 0 0.0059279293730411077 -0.0072255188736007657 0 0.007669825988561447 -0.011158009176355415 0 0.010538347539280953 -0.016305488347723419 0 0.0081459346642614155 -0.013959935040034604 0 0.011528959153935226 -0.020267477776794093 0 0.010538347539280953 -0.016305488347723419 0 0.0093191145612189583 -0.018050404306084095 0 0.011528959153935226 -0.020267477776794093 0 0.013140120702992714 -0.020256609338589131 0 0.010538347539280953 -0.016305488347723419 0 0.013140120702992714 -0.020256609338589131 0 0.012255541324857525 -0.01676035827034714 0 0.010538347539280953 -0.016305488347723419 0 3.1223321651466273e-07 -3.3776426458152257e-06 0 0.0030939040349656621 -0.0030922622143240981 0 0.0044071000692535132 -0.0046017519287521735 0 3.1223321651466273e-07 -3.3776426458152257e-06 0 4.7407590504282462e-06 -9.7269109801569556e-06 0 0.0030939040349656621 -0.0030922622143240981 0 4.7407590504282462e-06 -9.7269109801569556e-06 0 0.0062085862308178261 -0.0066724791903925492 0 0.0030939040349656621 -0.0030922622143240981 0 0.0062085862308178261 -0.0066724791903925492 0 0.0030939040349656621 -0.0030922622143240981 0 0.0070714116143102447 -0.0074320370621048402 0 0.0030939040349656621 -0.0030922622143240981 0 0.0044071000692535132 -0.0046017519287521735 0 0.0070714116143102447 -0.0074320370621048402 0 0.0044071000692535132 -0.0046017519287521735 0 0.0070714116143102447 -0.0074320370621048402 0 0.0082410805509910232 -0.0092063252223082356 0 0.0070714116143102447 -0.0074320370621048402 0 0.0098974070794409057 -0.010924626761162046 0 0.0082410805509910232 -0.0092063252223082356 0 0.0062085862308178261 -0.0066724791903925492 0 0.0070714116143102447 -0.0074320370621048402 0 0.0098974070794409057 -0.010924626761162046 0 0.012454850810531846 -0.014800088503159415 0 0.0098974070794409057 -0.010924626761162046 0 0.0082410805509910232 -0.0092063252223082356 0 0.0098517593138854331 -0.012549739610849932 0 0.0082410805509910232 -0.0092063252223082356 0 0.0059279293730411077 -0.0072255188736007657 0 0.007669825988561447 -0.011158009176355415 0 0.0059279293730411077 -0.0072255188736007657 0 0.0050704632969638432 -0.0077289961591888992 0 0.0059279293730411077 -0.0072255188736007657 0 0.0027944140754917507 -0.0031914661879646443 0 0.0029984651354463599 -0.0041437326739196976 0 0.0044071000692535132 -0.0046017519287521735 0 0.0082410805509910232 -0.0092063252223082356 0 0.0059279293730411077 -0.0072255188736007657 0 0.0044071000692535132 -0.0046017519287521735 0 0.0059279293730411077 -0.0072255188736007657 0 0.0027944140754917507 -0.0031914661879646443 0 3.1223321651466273e-07 -3.3776426458152257e-06 0 0.0044071000692535132 -0.0046017519287521735 0 0.0027944140754917507 -0.0031914661879646443 0 0.0027944140754917507 -0.0031914661879646443 0 1.317277889250395e-06 -4.6147743932651874e-06 0 5.6681812555257054e-07 -3.6167273308998542e-06 0 3.1223321651466273e-07 -3.3776426458152257e-06 0 0.0027944140754917507 -0.0031914661879646443 0 1.317277889250395e-06 -4.6147743932651874e-06 0 5.6681812555257054e-07 -3.6167273308998542e-06 0 0.0015242862818586362 -0.0023384135582774301 0 6.8490938484723946e-07 -3.9406661449560768e-06 0 0.0027944140754917507 -0.0031914661879646443 0 5.6681812555257054e-07 -3.6167273308998542e-06 0 0.0029984651354463599 -0.0041437326739196976 0 0.0029984651354463599 -0.0041437326739196976 0 0.0015242862818586362 -0.0023384135582774301 0 0.0028492358343129281 -0.0050329025988480628 0 5.6681812555257054e-07 -3.6167273308998542e-06 0 0.0029984651354463599 -0.0041437326739196976 0 0.0015242862818586362 -0.0023384135582774301 0 0.0029984651354463599 -0.0041437326739196976 0 0.0050704632969638432 -0.0077289961591888992 0 0.0028492358343129281 -0.0050329025988480628 0 0.0059279293730411077 -0.0072255188736007657 0 0.0029984651354463599 -0.0041437326739196976 0 0.0050704632969638432 -0.0077289961591888992 0 0.0050704632969638432 -0.0077289961591888992 0 0.0043178790683254904 -0.0081007375032108048 0 0.0028492358343129281 -0.0050329025988480628 0 0.0050704632969638432 -0.0077289961591888992 0 0.0043178790683254904 -0.0081007375032108048 0 0.0061328349781117671 -0.010852636272468519 0 0.0043178790683254904 -0.0081007375032108048 0 0.0031145705638291978 -0.0066649494009875694 0 0.0028492358343129281 -0.0050329025988480628 0 0.0031145705638291978 -0.0066649494009875694 0 0.0044957596965003732 -0.010098816882204348 0 0.002599442781847421 -0.0070221290750936589 0 0.0043178790683254904 -0.0081007375032108048 0 0.0031145705638291978 -0.0066649494009875694 0 0.0044957596965003732 -0.010098816882204348 0 0.0031145705638291978 -0.0066649494009875694 0 0.0028492358343129281 -0.0050329025988480628 0 0.0016037201409484969 -0.0034967340128639335 0 0.0015242862818586362 -0.0023384135582774301 0 0.0028492358343129281 -0.0050329025988480628 0 0.0011350077151454287 -0.0020778878556294523 0 0.0028492358343129281 -0.0050329025988480628 0 0.0011350077151454287 -0.0020778878556294523 0 0.0016037201409484969 -0.0034967340128639335 0 0.0011350077151454287 -0.0020778878556294523 0 0.0016037201409484969 -0.0034967340128639335 0 4.4492231254668455e-07 -3.80703393115024e-06 0 0.0011350077151454287 -0.0020778878556294523 0 6.8490938484723946e-07 -3.9406661449560768e-06 0 4.4492231254668455e-07 -3.80703393115024e-06 0 0.0015242862818586362 -0.0023384135582774301 0 0.0011350077151454287 -0.0020778878556294523 0 6.8490938484723946e-07 -3.9406661449560768e-06 0 0.0068137716444352696 -0.013836396019869555 0 0.0093191145612189583 -0.018050404306084095 0 0.0071507557436028407 -0.016828199600794416 0 0.0068137716444352696 -0.013836396019869555 0 0.0093191145612189583 -0.018050404306084095 0 0.0081459346642614155 -0.013959935040034604 0 0.0084170328095509814 -0.019996083180830196 0 0.0093191145612189583 -0.018050404306084095 0 0.0071507557436028407 -0.016828199600794416 0 0.010538347539280953 -0.016305488347723419 0 0.0093191145612189583 -0.018050404306084095 0 0.0081459346642614155 -0.013959935040034604 0 0.007669825988561447 -0.011158009176355415 0 0.0081459346642614155 -0.013959935040034604 0 0.0061328349781117671 -0.010852636272468519 0 0.007669825988561447 -0.011158009176355415 0 0.0050704632969638432 -0.0077289961591888992 0 0.0061328349781117671 -0.010852636272468519 0 0.0068137716444352696 -0.013836396019869555 0 0.0081459346642614155 -0.013959935040034604 0 0.0061328349781117671 -0.010852636272468519 0 0.0068137716444352696 -0.013836396019869555 0 0.0044957596965003732 -0.010098816882204348 0 0.005467734659077403 -0.013661639913730933 0 0.0068137716444352696 -0.013836396019869555 0 0.0061328349781117671 -0.010852636272468519 0 0.0044957596965003732 -0.010098816882204348 0 0.0043178790683254904 -0.0081007375032108048 0 0.0061328349781117671 -0.010852636272468519 0 0.0044957596965003732 -0.010098816882204348 0 0.0044957596965003732 -0.010098816882204348 0 0.005467734659077403 -0.013661639913730933 0 0.0038888180767513453 -0.011398207454262723 0 0.005467734659077403 -0.013661639913730933 0 0.0071507557436028407 -0.016828199600794416 0 0.0058343238739712944 -0.016474730048121503 0 0.0068137716444352696 -0.013836396019869555 0 0.005467734659077403 -0.013661639913730933 0 0.0071507557436028407 -0.016828199600794416 0 0.0067263021391318952 -0.019315770349055801 0 0.0084170328095509814 -0.019996083180830196 0 0.0071507557436028407 -0.016828199600794416 0 0.0067263021391318952 -0.019315770349055801 0 0.0071507557436028407 -0.016828199600794416 0 0.0058343238739712944 -0.016474730048121503 0 0.0067263021391318952 -0.019315770349055801 0 0.0058343238739712944 -0.016474730048121503 0 0.0052116824883211661 -0.018417183889165818 0 0.0058343238739712944 -0.016474730048121503 0 0.0052116824883211661 -0.018417183889165818 0 0.0045140972956098542 -0.014271059147975999 0 0.0052116824883211661 -0.018417183889165818 0 0.0040037781284484528 -0.016337078791992577 0 0.0045140972956098542 -0.014271059147975999 0 0.0052116824883211661 -0.018417183889165818 0 0.0040037781284484528 -0.016337078791992577 0 0.0038362029133016313 -0.019107792651636195 0 0.0040037781284484528 -0.016337078791992577 0 0.0045140972956098542 -0.014271059147975999 0 0.0034061695389361324 -0.013542505353903458 0 0.005467734659077403 -0.013661639913730933 0 0.0058343238739712944 -0.016474730048121503 0 0.0045140972956098542 -0.014271059147975999 0 0.005467734659077403 -0.013661639913730933 0 0.0045140972956098542 -0.014271059147975999 0 0.0038888180767513453 -0.011398207454262723 0 0.0044957596965003732 -0.010098816882204348 0 0.0038888180767513453 -0.011398207454262723 0 0.002599442781847421 -0.0070221290750936589 0 0.0038888180767513453 -0.011398207454262723 0 0.0027005621534064218 -0.010087111306007033 0 0.002599442781847421 -0.0070221290750936589 0 0.0045140972956098542 -0.014271059147975999 0 0.0038888180767513453 -0.011398207454262723 0 0.0034061695389361324 -0.013542505353903458 0 0.0038888180767513453 -0.011398207454262723 0 0.0027005621534064218 -0.010087111306007033 0 0.0034061695389361324 -0.013542505353903458 0 0.0027005621534064218 -0.010087111306007033 0 0.002320019984277848 -0.013462518224895947 0 0.0034061695389361324 -0.013542505353903458 0 0.0027005621534064218 -0.010087111306007033 0 0.0017173970862825842 -0.007874847971846427 0 0.001612265720812378 -0.010480445987424408 0 0.0027005621534064218 -0.010087111306007033 0 0.002320019984277848 -0.013462518224895947 0 0.001612265720812378 -0.010480445987424408 0 0.002320019984277848 -0.013462518224895947 0 0.0029548117543272659 -0.016507522875426821 0 0.0016117315854146427 -0.017138699915244686 0 0.0029548117543272659 -0.016507522875426821 0 0.0016117315854146427 -0.017138699915244686 0 0.0024599190492785366 -0.01957296267216568 0 0.0040037781284484528 -0.016337078791992577 0 0.0029548117543272659 -0.016507522875426821 0 0.0038362029133016313 -0.019107792651636195 0 0.002320019984277848 -0.013462518224895947 0 0.0029548117543272659 -0.016507522875426821 0 0.0034061695389361324 -0.013542505353903458 0 0.0040037781284484528 -0.016337078791992577 0 0.0029548117543272659 -0.016507522875426821 0 0.0034061695389361324 -0.013542505353903458 0 3.8590352148154029e-07 -3.8191999270878763e-06 0 0.00072369073842860269 -0.0017793992897207616 0 0.0012238080075520875 -0.00376341454160023 0 3.8590352148154029e-07 -3.8191999270878763e-06 0 0.0012238080075520875 -0.00376341454160023 0 0.00059472485358296454 -0.0023812713946824732 0 0.0016037201409484969 -0.0034967340128639335 0 4.4492231254668455e-07 -3.80703393115024e-06 0 0.00072369073842860269 -0.0017793992897207616 0 3.8590352148154029e-07 -3.8191999270878763e-06 0 4.4492231254668455e-07 -3.80703393115024e-06 0 0.00072369073842860269 -0.0017793992897207616 0 0.0016037201409484969 -0.0034967340128639335 0 0.00072369073842860269 -0.0017793992897207616 0 0.0012238080075520875 -0.00376341454160023 0 0.0012238080075520875 -0.00376341454160023 0 0.002599442781847421 -0.0070221290750936589 0 0.0019364544735679047 -0.0068516676174104254 0 0.0016037201409484969 -0.0034967340128639335 0 0.0012238080075520875 -0.00376341454160023 0 0.002599442781847421 -0.0070221290750936589 0 0.0031145705638291978 -0.0066649494009875694 0 0.0016037201409484969 -0.0034967340128639335 0 0.002599442781847421 -0.0070221290750936589 0 0.0027005621534064218 -0.010087111306007033 0 0.002599442781847421 -0.0070221290750936589 0 0.0019364544735679047 -0.0068516676174104254 0 0.0019364544735679047 -0.0068516676174104254 0 0.0017173970862825842 -0.007874847971846427 0 0.0011313332813823198 -0.0049602711965375914 0 0.0027005621534064218 -0.010087111306007033 0 0.0019364544735679047 -0.0068516676174104254 0 0.0017173970862825842 -0.007874847971846427 0 0.0017173970862825842 -0.007874847971846427 0 0.0011227280167922097 -0.007186541183019709 0 0.001612265720812378 -0.010480445987424408 0 0.0017173970862825842 -0.007874847971846427 0 0.0011313332813823198 -0.0049602711965375914 0 0.0011227280167922097 -0.007186541183019709 0 0.0011313332813823198 -0.0049602711965375914 0 0.0005136525738985389 -0.0031349240492727667 0 0.0011227280167922097 -0.007186541183019709 0 0.0012238080075520875 -0.00376341454160023 0 0.0019364544735679047 -0.0068516676174104254 0 0.0011313332813823198 -0.0049602711965375914 0 0.0012238080075520875 -0.00376341454160023 0 0.0011313332813823198 -0.0049602711965375914 0 0.00059472485358296454 -0.0023812713946824732 0 0.0011313332813823198 -0.0049602711965375914 0 0.00059472485358296454 -0.0023812713946824732 0 0.0005136525738985389 -0.0031349240492727667 0 0.00059472485358296454 -0.0023812713946824732 0 2.9659685741645341e-07 -3.8453593769007768e-06 0 0.0005136525738985389 -0.0031349240492727667 0 3.8590352148154029e-07 -3.8191999270878763e-06 0 0.00059472485358296454 -0.0023812713946824732 0 2.9659685741645341e-07 -3.8453593769007768e-06 0 4.6612482504135781e-08 -3.8482915999317081e-06 0 0.00018290949272410122 -0.0024791306177559089 0 1.6921976808671932e-07 -3.8677492706108002e-06 0 2.9659685741645341e-07 -3.8453593769007768e-06 0 4.6612482504135781e-08 -3.8482915999317081e-06 0 0.0005136525738985389 -0.0031349240492727667 0 4.6612482504135781e-08 -3.8482915999317081e-06 0 0.0005136525738985389 -0.0031349240492727667 0 0.00018290949272410122 -0.0024791306177559089 0 0.0005136525738985389 -0.0031349240492727667 0 0.00018290949272410122 -0.0024791306177559089 0 0.00043658181721540219 -0.005363990484128809 0 0.0005136525738985389 -0.0031349240492727667 0 0.00043658181721540219 -0.005363990484128809 0 0.0011227280167922097 -0.007186541183019709 0 0.0011227280167922097 -0.007186541183019709 0 0.00074878538740923086 -0.0081271805478369524 0 0.001612265720812378 -0.010480445987424408 0 0.00043658181721540219 -0.005363990484128809 0 0.0011227280167922097 -0.007186541183019709 0 0.00074878538740923086 -0.0081271805478369524 0 0.00074878538740923086 -0.0081271805478369524 0 0.00022712000620560678 -0.0074097033288775833 0 0.0005421336765929443 -0.010726177460261443 0 0.00043658181721540219 -0.005363990484128809 0 0.00074878538740923086 -0.0081271805478369524 0 0.00022712000620560678 -0.0074097033288775833 0 0.00022712000620560678 -0.0074097033288775833 0 -0.00026004799318789121 -0.0085406532920134677 0 -4.1815060795064335e-05 -0.0040522506472891861 0 -0.00055179769424915385 -0.0065950823551016603 0 -0.00026004799318789121 -0.0085406532920134677 0 -4.1815060795064335e-05 -0.0040522506472891861 0 0.00043658181721540219 -0.005363990484128809 0 0.00022712000620560678 -0.0074097033288775833 0 -4.1815060795064335e-05 -0.0040522506472891861 0 0.00018290949272410122 -0.0024791306177559089 0 -4.1815060795064335e-05 -0.0040522506472891861 0 1.6921976808671932e-07 -3.8677492706108002e-06 0 0.00018290949272410122 -0.0024791306177559089 0 0.00043658181721540219 -0.005363990484128809 0 -4.1815060795064335e-05 -0.0040522506472891861 0 -1.6858647172061046e-07 -3.8376383292785255e-06 0 -4.1815060795064335e-05 -0.0040522506472891861 0 1.6921976808671932e-07 -3.8677492706108002e-06 0 0.0016117315854146427 -0.017138699915244686 0 0.0013053412355953729 -0.013280713736059897 0 0.00049336346605119083 -0.014744395454428773 0 0.0016117315854146427 -0.017138699915244686 0 0.00049336346605119083 -0.014744395454428773 0 0.0003113077256213083 -0.018744671337431278 0 0.002320019984277848 -0.013462518224895947 0 0.0016117315854146427 -0.017138699915244686 0 0.0013053412355953729 -0.013280713736059897 0 0.002320019984277848 -0.013462518224895947 0 0.0013053412355953729 -0.013280713736059897 0 0.001612265720812378 -0.010480445987424408 0 0.00074878538740923086 -0.0081271805478369524 0 0.001612265720812378 -0.010480445987424408 0 0.0005421336765929443 -0.010726177460261443 0 0.0013053412355953729 -0.013280713736059897 0 0.001612265720812378 -0.010480445987424408 0 0.0005421336765929443 -0.010726177460261443 0 0.0013053412355953729 -0.013280713736059897 0 0.0005421336765929443 -0.010726177460261443 0 0.00049336346605119083 -0.014744395454428773 0 0.0005421336765929443 -0.010726177460261443 0 -0.00025026743617076512 -0.012216346218953237 0 0.00049336346605119083 -0.014744395454428773 0 0.00022712000620560678 -0.0074097033288775833 0 -0.00026004799318789121 -0.0085406532920134677 0 0.0005421336765929443 -0.010726177460261443 0 -0.00073125226122467595 -0.010284173151402105 0 -0.00026004799318789121 -0.0085406532920134677 0 -0.00025026743617076512 -0.012216346218953237 0 -0.00026004799318789121 -0.0085406532920134677 0 0.0005421336765929443 -0.010726177460261443 0 -0.00025026743617076512 -0.012216346218953237 0 -0.00025026743617076512 -0.012216346218953237 0 -0.0004966196626604015 -0.015318080014893751 0 0.00049336346605119083 -0.014744395454428773 0 -0.0004966196626604015 -0.015318080014893751 0 0.00049336346605119083 -0.014744395454428773 0 0.0003113077256213083 -0.018744671337431278 0 -0.00083470665407147249 -0.018901282926158159 0 -0.0004966196626604015 -0.015318080014893751 0 0.0003113077256213083 -0.018744671337431278 0 -0.00083470665407147249 -0.018901282926158159 0 -0.00070311054145385913 -0.023090424383910648 0 0.0003113077256213083 -0.018744671337431278 0 -0.00070311054145385913 -0.023090424383910648 0 0.0013868959558969137 -0.023676332144124894 0 0.00063506411417548793 -0.026098721330141773 0 -0.00070311054145385913 -0.023090424383910648 0 0.00039032414050473935 -0.022311380928406489 0 0.0003113077256213083 -0.018744671337431278 0 -0.0078711203547154902 -0.022830507463941743 0 0.002781371130262519 -0.023151083463572565 0 0.00039032414050473935 -0.022311380928406489 0 0.0003113077256213083 -0.018744671337431278 0 0.001144036863173754 -0.020164993067325991 0 0.0016117315854146427 -0.017138699915244686 0 0.0003113077256213083 -0.018744671337431278 0 0.001144036863173754 -0.020164993067325991 0 0.002781371130262519 -0.023151083463572565 0 0.0019810176567382634 -0.022839173102907454 0 0.00039032414050473935 -0.022311380928406489 0 0.001144036863173754 -0.020164993067325991 0 0.0017247125260832421 -0.022568829980888799 0 0.0019810176567382634 -0.022839173102907454 0 0.0043080430395444919 -0.022878718358948787 0 0.001144036863173754 -0.020164993067325991 0 0.0017247125260832421 -0.022568829980888799 0 0.0024599190492785366 -0.01957296267216568 0 0.0016117315854146427 -0.017138699915244686 0 0.001144036863173754 -0.020164993067325991 0 0.0024599190492785366 -0.01957296267216568 0 0.0041772610955591446 -0.026534317502331886 0 0.0021435925355501408 -0.02779599533523815 0 0.003717162575332441 -0.030028120680899401 0 0.0033343257932563217 -0.023201878708171496 0 0.0041772610955591446 -0.026534317502331886 0 0.0052699603285980834 -0.023540339965725261 0 0.0033343257932563217 -0.023201878708171496 0 0.0041772610955591446 -0.026534317502331886 0 0.0021435925355501408 -0.02779599533523815 0 0.0013868959558969137 -0.023676332144124894 0 0.0033343257932563217 -0.023201878708171496 0 0.0021435925355501408 -0.02779599533523815 0 0.0021435925355501408 -0.02779599533523815 0 0.00063506411417548793 -0.026098721330141773 0 0.00045197535875075504 -0.031230345490624277 0 0.0013868959558969137 -0.023676332144124894 0 0.0021435925355501408 -0.02779599533523815 0 0.00063506411417548793 -0.026098721330141773 0 -0.00070248829481258464 -0.027701049978826893 0 -0.00070311054145385913 -0.023090424383910648 0 0.00063506411417548793 -0.026098721330141773 0 -0.00070248829481258464 -0.027701049978826893 0 0.00063506411417548793 -0.026098721330141773 0 0.00045197535875075504 -0.031230345490624277 0 0.0021435925355501408 -0.02779599533523815 0 0.00045197535875075504 -0.031230345490624277 0 0.0025126437016501023 -0.033028345219988264 0 0.00045197535875075504 -0.031230345490624277 0 0.00086982229966205734 -0.036776901361158763 0 0.0025126437016501023 -0.033028345219988264 0 -0.0010168568532880529 -0.035318722629818201 0 0.00045197535875075504 -0.031230345490624277 0 0.00086982229966205734 -0.036776901361158763 0 -0.0011698008278622533 -0.039801252266032511 0 0.00046189766583031521 -0.041031636330964155 0 0.00086982229966205734 -0.036776901361158763 0 -0.0011698008278622533 -0.039801252266032511 0 -0.0010168568532880529 -0.035318722629818201 0 0.00086982229966205734 -0.036776901361158763 0 0.00046189766583031521 -0.041031636330964155 0 0.0022392621555940404 -0.040288998552273247 0 0.00086982229966205734 -0.036776901361158763 0 0.0022392621555940404 -0.040288998552273247 0 0.0025114188907717746 -0.036922005075692627 0 0.0039054505601603716 -0.03882958430231221 0 0.0022392621555940404 -0.040288998552273247 0 0.00086982229966205734 -0.036776901361158763 0 0.0025114188907717746 -0.036922005075692627 0 0.0025114188907717746 -0.036922005075692627 0 0.0038403055789135872 -0.035601697828434399 0 0.0025126437016501023 -0.033028345219988264 0 0.00086982229966205734 -0.036776901361158763 0 0.0025114188907717746 -0.036922005075692627 0 0.0025126437016501023 -0.033028345219988264 0 0.0025114188907717746 -0.036922005075692627 0 0.0038403055789135872 -0.035601697828434399 0 0.0039054505601603716 -0.03882958430231221 0 0.0021435925355501408 -0.02779599533523815 0 0.0025126437016501023 -0.033028345219988264 0 0.003717162575332441 -0.030028120680899401 0 0.0038403055789135872 -0.035601697828434399 0 0.0025126437016501023 -0.033028345219988264 0 0.0049472791864808383 -0.032572076189947251 0 0.0025126437016501023 -0.033028345219988264 0 0.003717162575332441 -0.030028120680899401 0 0.0049472791864808383 -0.032572076189947251 0 0.003717162575332441 -0.030028120680899401 0 0.0049472791864808383 -0.032572076189947251 0 0.0055283101846880043 -0.028079339867596507 0 0.0049472791864808383 -0.032572076189947251 0 0.0054398576442156454 -0.036619442334290694 0 0.0069361737863712393 -0.034226815476264993 0 0.0049472791864808383 -0.032572076189947251 0 0.0066214664206581449 -0.030549214868305585 0 0.0069361737863712393 -0.034226815476264993 0 0.0049472791864808383 -0.032572076189947251 0 0.0066214664206581449 -0.030549214868305585 0 0.0055283101846880043 -0.028079339867596507 0 0.0039054505601603716 -0.03882958430231221 0 0.0054761739940943814 -0.040004939999206471 0 0.0054398576442156454 -0.036619442334290694 0 0.0038403055789135872 -0.035601697828434399 0 0.0039054505601603716 -0.03882958430231221 0 0.0054398576442156454 -0.036619442334290694 0 0.0038403055789135872 -0.035601697828434399 0 0.0049472791864808383 -0.032572076189947251 0 0.0054398576442156454 -0.036619442334290694 0 0.0054398576442156454 -0.036619442334290694 0 0.0071746314143558082 -0.03866689891303296 0 0.0069361737863712393 -0.034226815476264993 0 0.0054761739940943814 -0.040004939999206471 0 0.0054398576442156454 -0.036619442334290694 0 0.0071746314143558082 -0.03866689891303296 0 0.0080404978456194119 -0.042011587148787659 0 0.0071746314143558082 -0.03866689891303296 0 0.0091121395121465144 -0.039322909244005402 0 0.0071746314143558082 -0.03866689891303296 0 0.0088996063679877575 -0.035773063383577809 0 0.0069361737863712393 -0.034226815476264993 0 0.0071746314143558082 -0.03866689891303296 0 0.0088996063679877575 -0.035773063383577809 0 0.0091121395121465144 -0.039322909244005402 0 0.0066214664206581449 -0.030549214868305585 0 0.0084760852485828691 -0.031998762335065531 0 0.0079510271904355972 -0.028952213986132107 0 0.0088996063679877575 -0.035773063383577809 0 0.0069361737863712393 -0.034226815476264993 0 0.0084760852485828691 -0.031998762335065531 0 0.0066214664206581449 -0.030549214868305585 0 0.0069361737863712393 -0.034226815476264993 0 0.0084760852485828691 -0.031998762335065531 0 0.010448250788301999 -0.032259032230165928 0 0.0088996063679877575 -0.035773063383577809 0 0.0084760852485828691 -0.031998762335065531 0 0.0084760852485828691 -0.031998762335065531 0 0.0092700810578241824 -0.029520137442562461 0 0.0079510271904355972 -0.028952213986132107 0 0.010448250788301999 -0.032259032230165928 0 0.0084760852485828691 -0.031998762335065531 0 0.0092700810578241824 -0.029520137442562461 0 0.0092700810578241824 -0.029520137442562461 0 0.0079510271904355972 -0.028952213986132107 0 0.0085286928184462891 -0.02658083041606819 0 0.0079510271904355972 -0.028952213986132107 0 0.0068058627432348549 -0.026352553870567917 0 0.0085286928184462891 -0.02658083041606819 0 0.0066214664206581449 -0.030549214868305585 0 0.0079510271904355972 -0.028952213986132107 0 0.0068058627432348549 -0.026352553870567917 0 0.0068058627432348549 -0.026352553870567917 0 0.0085286928184462891 -0.02658083041606819 0 0.0071918617221510906 -0.023218836967481365 0 0.0052116824883211661 -0.018417183889165818 0 0.0063796418024965598 -0.02238517426355029 0 0.0047088056719971497 -0.022585788261042093 0 0.0077074285173833199 -0.023068463957643288 0 0.0058640665547671032 -0.022894662052953933 0 0.0085286928184462891 -0.02658083041606819 0 0.0090584424736947396 -0.023750125435945339 0 0.0071918617221510906 -0.023218836967481365 0 0.0067263021391318952 -0.019315770349055801 0 0.0052116824883211661 -0.018417183889165818 0 0.0063796418024965598 -0.02238517426355029 0 0.0052116824883211661 -0.018417183889165818 0 0.0047088056719971497 -0.022585788261042093 0 0.0038362029133016313 -0.019107792651636195 0 0.0047088056719971497 -0.022585788261042093 0 0.0038362029133016313 -0.019107792651636195 0 0.0031482165307561627 -0.022175388774223544 0 0.0068058627432348549 -0.026352553870567917 0 0.0071918617221510906 -0.023218836967481365 0 0.0052699603285980834 -0.023540339965725261 0 0.0058640665547671032 -0.022894662052953933 0 0.0043080430395444919 -0.022878718358948787 0 0.0038362029133016313 -0.019107792651636195 0 0.0024599190492785366 -0.01957296267216568 0 0.0031482165307561627 -0.022175388774223544 0 0.0029548117543272659 -0.016507522875426821 0 0.0038362029133016313 -0.019107792651636195 0 0.0024599190492785366 -0.01957296267216568 0 0.0017247125260832421 -0.022568829980888799 0 0.0024599190492785366 -0.01957296267216568 0 0.0031482165307561627 -0.022175388774223544 0 0.0041772610955591446 -0.026534317502331886 0 0.0052699603285980834 -0.023540339965725261 0 0.0055283101846880043 -0.028079339867596507 0 0.0041772610955591446 -0.026534317502331886 0 0.003717162575332441 -0.030028120680899401 0 0.0055283101846880043 -0.028079339867596507 0 0.0066214664206581449 -0.030549214868305585 0 0.0068058627432348549 -0.026352553870567917 0 0.0055283101846880043 -0.028079339867596507 0 0.0068058627432348549 -0.026352553870567917 0 0.0052699603285980834 -0.023540339965725261 0 0.0055283101846880043 -0.028079339867596507 0 
</DataArray>
</PointData>
<CellData Scalars="region_id,cross_section_updated,displacement_divergence," Vectors="" Tensors="stress,">
<DataArray type="Float64" Name="region_id" format="ascii">
1 1 1 1 1 1 1 1 1 1 1 1 1 1 1 1 1 1 1 1 1 1 1 1 1 1 1 1 1 1 1 1 1 1 1 1 1 1 1 1 1 1 1 1 1 1 1 1 1 1 1 1 1 1 1 1 1 1 1 1 1 1 1 1 1 1 1 1 1 1 1 1 1 1 1 1 1 1 1 1 1 1 1 1 1 1 1 1 1 1 1 1 1 1 1 1 1 1 1 1 1 1 1 1 1 1 1 1 1 1 1 1 1 1 1 1 1 1 1 1 1 1 1 1 1 1 1 1 1 1 1 1 1 1 1 1 1 1 1 1 1 1 1 1 1 1 1 1 1 1 1 1 1 1 1 1 1 1 1 1 1 1 1 1 1 1 1 1 1 1 1 1 1 1 1 1 1 1 1 1 1 1 1 1 1 1 1 1 1 1 1 1 1 1 1 1 1 1 1 1 1 1 1 1 1 1 1 1 1 1 1 1 1 1 1 1 1 1 1 1 1 1 1 1 1 1 1 1 1 1 1 1 1 1 1 1 1 1 1 1 1 1 1 1 1 1 1 1 1 1 1 1 1 1 1 1 1 1 1 1 1 1 1 1 1 1 1 1 1 1 1 1 1 1 1 1 1 1 1 1 1 1 1 1 1 1 1 1 1 1 1 1 1 1 1 1 1 1 1 1 1 1 1 1 1 1 1 1 1 1 1 1 1 1 1 1 1 1 1 1 1 1 1 1 1 1 1 1 1 1 1 1 1 1 1 1 1 1 1 1 1 1 1 1 1 1 1 1 1 1 1 1 1 1 1 1 1 1 1 1 1 1 1 1 1 1 1 1 1 1 1 1 1 1 1 1 1 1 1 1 1 1 1 1 1 1 1 1 1 1 1 1 1 1 1 1 1 1 1 1 1 1 1 1 1 1 1 1 1 1 1 1 1 1 1 1 1 1 1 1 1 1 1 1 1 1 1 1 1 1 1 1 1 1 1 1 1 1 1 1 1 1 1 1 1 1 1 1 1 1 1 1 1 1 1 1 1 1 1 1 1 1 1 1 1 1 1 1 1 1 1 1 1 1 1 1 1 1 1 1 1 1 1 1 1 1 1 1 1 1 1 1 1 1 1 1 1 1 1 1 1 1 1 1 1 1 1 1 1 1 1 1 1 1 1 1 1 1 1 1 1 1 1 1 1 1 1 1 1 1 1 1 1 1 1 1 1 1 3 1 1 3 1 1 3 1 1 1 1 1 1 1 1 1 1 1 1 1 3 1 1 1 1 1 3 1 1 1 1 1 1 1 1 1 1 1 1 1 1 1 1 1 1 1 1 1 1 1 1 1 1 1 1 1 1 1 1 1 1 1 1 1 1 1 1 1 1 1 1 1 1 1 1 1 1 1 1 1 1 1 1 1 1 1 1 1 1 1 1 1 1 1 1 1 1 1 1 1 1 1 1 1 1 1 1 1 1 1 1 1 1 1 1 1 1 1 1 1 1 1 1 1 1 1 1 1 1 1 1 1 1 1 1 1 1 1 1 1 1 1 1 1 1 1 1 1 1 1 1 1 1 1 1 1 1 1 1 1 1 1 1 1 1 1 1 1 1 1 1 1 1 1 1 1 1 1 1 1 1 1 1 1 1 1 1 1 1 1 1 1 1 1 1 3 1 1 1 3 1 1 3 1 1 1 1 1 1 1 1 1 1 1 3 1 1 1 1 3 1 1 1 1 1 1 1 1 1 1 1 1 1 1 1 1 1 1 1 1 1 1 1 1 1 1 1 1 1 1 1 1 1 1 1 1 1 1 1 1 1 1 1 1 1 1 1 1 1 1 1 1 1 1 1 1 1 1 2 1 1 1 1 1 1 1 1 1 1 1 1 1 1 2 1 1 2 1 2 1 1 1 1 1 1 1 1 1 1 1 1 1 2 1 1 1 1 1 1 1 1 1 1 1 1 1 1 1 1 1 1 1 1 1 1 1 1 1 1 1 1 1 1 1 1 1 1 1 1 1 1 1 1 1 1 1 1 1 1 1 1 1 1 1 1 1 1 1 1 1 1 1 1 1 1 1 1 1 1 1 1 1 1 1 1 1 1 1 1 1 1 1 1 1 1 1 1 1 1 1 1 1 1 1 1 1 1 1 1 1 1 1 1 1 1 1 1 1 1 1 1 1 1 1 1 1 1 1 1 1 1 1 1 1 1 1 1 1 1 1 1 1 1 1 1 1 1 1 1 2 1 1 2 1 2 1 1 1 1 1 1 1 1 1 1 1 1 1 1 1 1 1 1 1 1 1 1 1 1 1 1 1 1 1 1 1 1 1 1 1 1 1 1 1 1 1 1 1 1 1 1 1 2 1 1 1 1 1 2 1 1 1 1 1 1 1 
</DataArray>
<DataArray type="Float64" Name="stress" NumberOfComponents="9" format="ascii">
-4284.0905221701487 -3058.9447758331708 0 -3058.9447758331708 -12872.276460833395 0 0 0 -4289.0917457508867 -2236.073494275061 -3053.6318822308349 0 -3053.6318822308349 -15388.957298100799 0 0 0 -4406.2576980939648 -2947.2659048742817 -2208.8997519344775 0 -2208.8997519344775 -10826.56795823456 0 0 0 -3443.4584657772107 -1115.9219324042424 -2317.0665278561855 0 -2317.0665278561855 -13546.17332320493 0 0 0 -3665.523813902294 -405.44867599544193 -886.13310248996459 0 -886.13310248996459 -11060.888481058435 0 0 0 -2866.5842892634687 12.923954485240756 -337.88092891142043 0 -337.88092891142043 -9662.1154539690542 0 0 0 -2412.2978748709538 -1153.5192881787898 -1768.0834717694015 0 -1768.0834717694015 -11601.296237598513 0 0 0 -3188.7038814443276 -122.1023170396802 -978.37824612005102 0 -978.37824612005102 -10933.317714034187 0 0 0 -2763.8550077684658 -81.684101500974066 -944.24176866204971 0 -944.24176866204971 -10034.460272701428 0 0 0 -2529.0360935505996 -689.04954411745257 -1278.0343224397184 0 -1278.0343224397184 -10478.757652071959 0 0 0 -2791.9517990473523 -1429.9439539528939 -1467.3214582708188 0 -1467.3214582708188 -10177.43068597393 0 0 0 -2901.8436599817069 -727.695382011113 -1272.259954170695 0 -1272.259954170695 -9836.3215253098824 0 0 0 -2641.0042268302486 -2194.516884338218 -1875.6905373157647 0 -1875.6905373157647 -10008.455102927119 0 0 0 -3050.7429968163333 -1241.7338839509994 -1767.7801024286177 0 -1767.7801024286177 -9967.1977139383871 0 0 0 -2802.2328994723448 -3370.1100406070714 -2301.4302772938131 0 -2301.4302772938131 -10112.420653932895 0 0 0 -3370.632673634992 -3653.6505579108571 -2804.5212296766254 0 -2804.5212296766254 -10958.202629935724 0 0 0 -3652.9632969616446 -1931.2777249368321 -2058.7456351245578 0 -2058.7456351245578 -9676.250101393467 0 0 0 -2901.8819565825747 -2223.7379768834339 -2107.8479629437047 0 -2107.8479629437047 -10537.169436849868 0 0 0 -3190.2268534333248 -3.6731892297357263 -78.105425184729029 0 -78.105425184729029 -8918.7858394261784 0 0 0 -2230.6147571639813 44.540556062773248 -89.138184346154958 0 -89.138184346154958 -9455.8887201603648 0 0 0 -2352.8370410243988 -15.610073652167102 -247.99111590023313 0 -247.99111590023313 -9419.4465428183357 0 0 0 -2358.7641541176249 144.98424520859589 -198.79654042007132 0 -198.79654042007132 -9538.6758408414935 0 0 0 -2348.4228989082239 -256.37195114166298 -637.18552877930779 0 -637.18552877930779 -10483.516033432516 0 0 0 -2684.971996143543 40.057876748225681 -447.65040244171723 0 -447.65040244171723 -10055.834070928777 0 0 0 -2503.944048545136 -44.619785606129881 -211.29876570869419 0 -211.29876570869419 -9175.5414704518334 0 0 0 -2305.0403140144917 -133.12816455267239 -870.24463988607113 0 -870.24463988607113 -9967.8028986610589 0 0 0 -2525.2327658034319 -932.78923515514998 -1152.4499826308002 0 -1152.4499826308002 -10200.09169603826 0 0 0 -2783.2202327983532 -353.48290738611649 -704.55164356619935 0 -704.55164356619935 -9921.6716919725804 0 0 0 -2568.7886498396729 -104.37176490291313 -431.17128558035256 0 -431.17128558035256 -9664.7048894838645 0 0 0 -2442.269163596693 -166.58484165423033 -723.13341095867327 0 -723.13341095867327 -9985.9233864612252 0 0 0 -2538.1270570288634 52.66462666028383 -243.9459621840615 0 -243.9459621840615 -9760.1974304541291 0 0 0 -2426.8832009484595 26.445322432427929 -126.32878053784589 0 -126.32878053784589 -9329.6688653543533 0 0 0 -2325.8058857304786 -2.1253702099238581 -421.14983841463794 0 -421.14983841463794 -9724.0858296110164 0 0 0 -2431.552799955236 -226.13218209861952 -570.78167888973621 0 -570.78167888973621 -9731.1130833085699 0 0 0 -2489.3113163517992 -224.72186979143225 -585.91911478031579 0 -585.91911478031579 -9609.8029035672298 0 0 0 -2458.6311933396682 -839.40345032195364 -918.66429148545285 0 -918.66429148545285 -9618.8721029797744 0 0 0 -2614.5688883254334 -354.94291107072513 -791.85700747798182 0 -791.85700747798182 -9734.5653491673511 0 0 0 -2522.377065059517 -581.33909100726669 -903.09346802609298 0 -903.09346802609298 -9838.7550569775995 0 0 0 -2605.0235369962174 -923.61657741999261 -1225.7588834715116 0 -1225.7588834715116 -9634.5454400976232 0 0 0 -2639.5405043794053 -1077.7810656612692 -908.61142535333101 0 -908.61142535333101 -9464.1074183002784 0 0 0 -2635.4721209903873 -1015.5643734394644 -889.70954675757093 0 -889.70954675757093 -9434.7150365125126 0 0 0 -2612.5698524879945 -680.05272531496303 -696.8086541100929 0 -696.8086541100929 -9291.3562613604445 0 0 0 -2492.8522466688519 -737.67102211280735 -920.86023025008762 0 -920.86023025008762 -9586.8150640318727 0 0 0 -2581.1215215361685 -418.54734104096542 -662.48112438348471 0 -662.48112438348471 -9682.3936546619698 0 0 0 -2525.2352489257341 -550.54476999710096 -639.14163474702627 0 -639.14163474702627 -9485.9268779399717 0 0 0 -2509.1179119842673 -741.68458866031415 -694.38631692952731 0 -694.38631692952731 -9524.3340883593592 0 0 0 -2566.5046692549195 -195.03917336542145 -441.54171929995573 0 -441.54171929995573 -9554.0462736045265 0 0 0 -2437.2713617424852 -179.29788591932811 -409.28726836843271 0 -409.28726836843271 -9523.0364852559069 0 0 0 -2425.583592793806 -2422.6378745914635 -1737.2994547222529 0 -1737.2994547222529 -9451.1508070408418 0 0 0 -2968.4471704080761 -1912.8373447085755 -1457.934078055308 0 -1457.934078055308 -9261.2870345896845 0 0 0 -2793.531094824566 -3075.1867090976734 -1682.2947344570691 0 -1682.2947344570691 -9225.3756448889671 0 0 0 -3075.1405884966598 -2165.4292636907921 -1801.0536457253243 0 -1801.0536457253243 -9376.749647231316 0 0 0 -2885.544727730527 -1208.8908586861244 -1557.0879131046249 0 -1557.0879131046249 -9471.8091338368467 0 0 0 -2670.174998130743 -1444.7804598293892 -1357.5691228493852 0 -1357.5691228493852 -9877.9474931326895 0 0 0 -2830.6819882405212 -1421.014715895803 -1257.6721423059444 0 -1257.6721423059444 -9501.7771135071289 0 0 0 -2730.6979573507328 -1840.7406290460331 -1552.1634784912103 0 -1552.1634784912103 -9609.9818366524632 0 0 0 -2862.6806164246236 -1265.5037970251915 -1180.4964961968603 0 -1180.4964961968603 -9409.4989269571433 0 0 0 -2668.750680995583 -1841.308573376632 -1163.4676805789713 0 -1163.4676805789713 -9342.0754992852344 0 0 0 -2795.8460181654673 -1451.1686760987359 -1089.8926889229979 0 -1089.8926889229979 -9183.5398763048288 0 0 0 -2658.6771381008912 -1708.0112215118029 -1278.4941815459108 0 -1278.4941815459108 -9004.1027679736453 0 0 0 -2678.0284973713619 -2344.5510878772125 -1261.4416435067787 0 -1261.4416435067787 -9157.0221311725618 0 0 0 -2875.3933047624441 -2403.3511569766561 -1490.86062700615 0 -1490.86062700615 -9351.788927728503 0 0 0 -2938.7850211762893 -2250.714565953595 -1498.6515185883093 0 -1498.6515185883093 -8867.6436976280074 0 0 0 -2779.5895658954005 -2998.934060724941 -1422.1577101213945 0 -1422.1577101213945 -8997.2125642514202 0 0 0 -2999.0366562440904 -2947.3550027668266 -1196.5727829921589 0 -1196.5727829921589 -8843.7147759114887 0 0 0 -2947.7674446695783 -2237.1573816049486 -1242.4750292421234 0 -1242.4750292421234 -8668.2217738393811 0 0 0 -2726.3447888610826 -2247.2839499217507 -1017.6347561036914 0 -1017.6347561036914 -8513.9664976939184 0 0 0 -2690.3126119039175 -2863.8249210558438 -983.07577381876354 0 -983.07577381876354 -8591.5317215209579 0 0 0 -2863.8391606442001 -2278.349564549329 -771.9761081877748 0 -771.9761081877748 -8650.9012778144352 0 0 0 -2732.3127105909407 -2141.8644142589387 -713.89967684584826 0 -713.89967684584826 -8582.107301462227 0 0 0 -2680.9929289302904 -2243.6690941915913 -834.75823340831289 0 -834.75823340831289 -8324.7462541345849 0 0 0 -2642.103837081544 -2827.4347427230055 -812.63338838326229 0 -812.63338838326229 -8482.873705380518 0 0 0 -2827.5771120258805 -1651.2259521460021 -614.98847123481937 0 -614.98847123481937 -8848.7419200053464 0 0 0 -2624.9919680378371 -1409.9311008621517 -644.27996766063734 0 -644.27996766063734 -8761.1625500905429 0 0 0 -2542.7734127381736 -1846.5798634790121 -814.04991285557116 0 -814.04991285557116 -8647.1206016671567 0 0 0 -2623.4251162865426 -1955.5054486986583 -807.72486630960157 0 -807.72486630960157 -8974.635831524105 0 0 0 -2732.535320055691 -1385.4639232110576 -811.95156589406542 0 -811.95156589406542 -8842.714284063868 0 0 0 -2557.0445518187307 -2223.3759783894448 -888.52725242269844 0 -888.52725242269844 -8799.961294163706 0 0 0 -2755.834318138287 -1912.3158574694507 -999.24004414811043 0 -999.24004414811043 -9018.3128633683646 0 0 0 -2732.6571802094545 -1757.232231068735 -1038.794700480059 0 -1038.794700480059 -8967.0847090922416 0 0 0 -2681.0792350402448 -1326.579729490908 -884.35422844321147 0 -884.35422844321147 -9258.641949096891 0 0 0 -2646.3054196469493 -1019.4783768533644 -795.3107422103094 0 -795.3107422103094 -9100.9056767112743 0 0 0 -2530.0960133911603 -1113.8518793060575 -739.26012918066908 0 -739.26012918066908 -9382.0063781225763 0 0 0 -2623.9645643571603 -1126.7376549344699 -620.13201904361267 0 -620.13201904361267 -9205.2970423293082 0 0 0 -2583.0086743159445 -712.065251590353 -604.44520073517742 0 -604.44520073517742 -9183.0545112015388 0 0 0 -2473.779940697973 -1484.5069582979995 -810.17844707552911 0 -810.17844707552911 -9143.4634323658611 0 0 0 -2656.9925976659633 -461.58970886348834 -450.28091346179417 0 -450.28091346179417 -9462.3585224541021 0 0 0 -2480.9870578293994 -394.17212961285259 -528.14280006004492 0 -528.14280006004492 -9348.5945636444521 0 0 0 -2435.6916733143262 -792.55448918340608 -549.21407189193633 0 -549.21407189193633 -9384.0622818122793 0 0 0 -2544.1541927489261 -442.63685288260604 -377.45582096778253 0 -377.45582096778253 -9356.7556705729221 0 0 0 -2449.8481308638802 -386.64049562795844 -403.98317498974893 0 -403.98317498974893 -9210.6453052305733 0 0 0 -2399.3214502146366 -750.77764113871854 -414.57722006042786 0 -414.57722006042786 -9164.6095622859793 0 0 0 -2478.8468008561749 -572.72156726854337 -367.07512684887297 0 -367.07512684887297 -9078.6260204332248 0 0 0 -2412.8368969254407 -399.44560727851422 -204.58551557117971 0 -204.58551557117971 -9082.6890092056638 0 0 0 -2370.5336541210454 -1027.2972704376261 -673.29636511294484 0 -673.29636511294484 -8943.0865824456559 0 0 0 -2492.5959632208214 -1409.3744031648575 -676.82841110177287 0 -676.82841110177287 -9052.8441458042689 0 0 0 -2615.5546372422823 -814.42822097712906 -547.41281304909899 0 -547.41281304909899 -9072.069671670939 0 0 0 -2471.6244731620145 -1083.7548215224049 -486.20310633578083 0 -486.20310633578083 -8961.8536370116944 0 0 0 -2511.4021146335235 -1041.3726013237283 -508.93967767181493 0 -508.93967767181493 -8954.917979339989 0 0 0 -2499.0726451659284 -1233.5160564998178 -446.99335640153822 0 -446.99335640153822 -8767.8651274970325 0 0 0 -2500.3452959992128 -1037.2866247907996 -250.44361298386411 0 -250.44361298386411 -8866.5670069046246 0 0 0 -2475.9634079238558 -1290.9766647645292 -401.66793190011322 0 -401.66793190011322 -8786.5303001762841 0 0 0 -2519.3767412352026 -348.38858509150123 -201.38822527475531 0 -201.38822527475531 -9065.6619910454465 0 0 0 -2353.5126440342374 -846.86121448862832 -328.01817181347997 0 -328.01817181347997 -8970.7278772017016 0 0 0 -2454.3972729225825 -735.80355111312565 -299.27881701000661 0 -299.27881701000661 -8922.7931937384437 0 0 0 -2414.6491862128914 -553.31685476581697 -161.7234805875969 0 -161.7234805875969 -8953.9328721732018 0 0 0 -2376.8124317347538 -529.24139910882332 -150.11340932691928 0 -150.11340932691928 -8942.9331114530214 0 0 0 -2368.0436276404598 -743.61431152566365 -80.791902650187694 0 -80.791902650187694 -8898.9426898383826 0 0 0 -2410.6392503410116 -753.54311091988347 61.323925091855017 0 61.323925091855017 -8728.7545546969268 0 0 0 -2370.5744164042026 -568.16318923905965 -45.736815393342113 0 -45.736815393342113 -8827.1144424387548 0 0 0 -2348.8194079194527 -449.08834811431552 42.133848275155287 0 42.133848275155287 -8928.4455200913653 0 0 0 -2344.3834670514207 -1252.4725350114468 -151.83602151590094 0 -151.83602151590094 -8790.1994870998569 0 0 0 -2510.6680055278275 -794.12124059153348 -193.64113698587971 0 -193.64113698587971 -8761.3647164385711 0 0 0 -2388.8714892575258 -884.90201456550176 -57.561526836501798 0 -57.561526836501798 -8624.799569736444 0 0 0 -2377.4253960754872 -1160.4350445342052 -153.73970854766827 0 -153.73970854766827 -8514.0380711039888 0 0 0 -2418.6182789095492 -1422.8996136690293 -98.484505996435473 0 -98.484505996435473 -8615.9714793217336 0 0 0 -2509.7177732476903 -1752.9276056004755 -279.93814758497228 0 -279.93814758497228 -8654.4388527998617 0 0 0 -2601.8416146000854 -1718.4758215479787 -213.29730239593027 0 -213.29730239593027 -8273.3229450057206 0 0 0 -2497.9496916384251 -2091.7957419434238 -186.54757749789178 0 -186.54757749789178 -8400.3208897846544 0 0 0 -2623.0291579320196 -2048.180346439769 -102.90061682906435 0 -102.90061682906435 -7980.8438769905169 0 0 0 -2507.256055857571 -2748.2614359577083 -273.8932321676287 0 -273.8932321676287 -8244.7392296102462 0 0 0 -2748.2501663919884 -2141.0664347734432 -341.02031849098557 0 -341.02031849098557 -8077.3983502335086 0 0 0 -2554.6161962517381 -2240.215147250402 -375.95872839893946 0 -375.95872839893946 -8455.757651210839 0 0 0 -2673.9931996153105 -2293.3088325229669 -555.32108680900274 0 -555.32108680900274 -8318.6362169347776 0 0 0 -2652.9862623644362 -2043.7032452873373 -397.8568412057939 0 -397.8568412057939 -8385.8161254831866 0 0 0 -2607.3798426926314 -2774.8473687154983 -468.94955201523851 0 -468.94955201523851 -8325.2430836711919 0 0 0 -2775.0226130966726 -2307.2592384157656 -632.88301411798648 0 -632.88301411798648 -8338.0633644359805 0 0 0 -2661.3306507129364 -1791.0089124464694 -540.0398073483193 0 -540.0398073483193 -8559.883935260561 0 0 0 -2587.7232119267574 -1484.5619220432818 -321.23519855096674 0 -321.23519855096674 -8556.5119535715912 0 0 0 -2510.2684689037178 -1903.6575172942994 -480.95472677675843 0 -480.95472677675843 -8603.9268349760423 0 0 0 -2626.896088067585 943.50983026949689 85.494581485552771 0 85.494581485552771 -9191.605415566286 0 0 0 -2062.0238963242009 773.49032373941009 17.330246272209479 0 17.330246272209479 -9237.7114169518609 0 0 0 -2116.0552733031145 744.11424629718022 69.085979613932977 0 69.085979613932977 -9224.2930201395502 0 0 0 -2120.044693460597 1017.4301674107328 6.5435797496393207 0 6.5435797496393207 -9217.2619232662437 0 0 0 -2049.9579389638757 1179.5908633784347 21.4056495720979 0 21.4056495720979 -9202.5052132439159 0 0 0 -2005.7285874663685 1113.1324730665801 55.672597066968592 0 55.672597066968592 -9130.3499482757034 0 0 0 -2004.3043688022844 1215.5960003264481 -12.417808628284547 0 -12.417808628284547 -9088.2616923235619 0 0 0 -1968.1664229992784 1158.6581334252587 -21.786564110629115 0 -21.786564110629115 -8981.1370330445934 0 0 0 -1955.6197249048382 1302.141336216464 31.020996993935114 0 31.020996993935114 -9002.5975231640623 0 0 0 -1925.1140467369041 1255.6811301178423 28.599694611039013 0 28.599694611039013 -8876.5049162210053 0 0 0 -1905.205946525788 1104.363039759095 -66.101025576419488 0 -66.101025576419488 -8884.0595297840046 0 0 0 -1944.9241225062196 1138.5571534758055 39.642183701158217 0 39.642183701158217 -9039.0981134945905 0 0 0 -1975.1352400046962 964.73266937908193 -14.557102270347968 0 -14.557102270347968 -9118.966543053637 0 0 0 -2038.5584684186433 941.53923063751427 55.112448694528894 0 55.112448694528894 -9169.2837187506229 0 0 0 -2056.9361220282772 1081.0029276896621 -0.42058485420784564 0 -0.42058485420784564 -8985.6488497821047 0 0 0 -1976.1614805231129 360.77228012214437 298.76757878222634 0 298.76757878222634 -9250.0406568002363 0 0 0 -2222.3170941695262 916.35369673768218 152.44520027371618 0 152.44520027371618 -9102.097778205527 0 0 0 -2046.4360203669585 227.31481089988665 114.45175262677003 0 114.45175262677003 -9184.0777474384158 0 0 0 -2239.1907341346341 896.94397088371807 -16.411553478581482 0 -16.411553478581482 -9018.3689771521895 0 0 0 -2030.3562515671201 1.4015965919206792 137.02454709059384 0 137.02454709059384 -8979.3428634719749 0 0 0 -2244.4853167200199 -358.25005584388055 -0.17115511957490526 0 -0.17115511957490526 -8966.6693573581506 0 0 0 -2331.2298533005069 71.653692635027255 91.190237892584264 0 91.190237892584264 -9068.8130701238188 0 0 0 -2249.2898443722006 256.21954585951744 134.99140388647356 0 134.99140388647356 -9012.7842096398017 0 0 0 -2189.1411659450737 -270.31064257202229 8.4966286934941309 0 8.4966286934941309 -8936.0391468301514 0 0 0 -2301.5874473505419 -118.5417592647409 -40.128183206799804 0 -40.128183206799804 -9051.8841570342702 0 0 0 -2292.6064790747532 -133.19827150378433 -30.778035500145052 0 -30.778035500145052 -9054.6098432081708 0 0 0 -2296.9520286779875 102.43406956000399 -81.395033761367813 0 -81.395033761367813 -9170.7060715590924 0 0 0 -2267.0680004997721 598.80477664016689 41.729470232952735 0 41.729470232952735 -9214.9123789693112 0 0 0 -2154.0269005822829 582.66077076899091 97.449774911496206 0 97.449774911496206 -9107.4097024569273 0 0 0 -2131.1872329219859 171.09811682254076 70.100888437551475 0 70.100888437551475 -9193.9672033530551 0 0 0 -2255.7172716326277 449.59753862693651 -12.473230010093175 0 -12.473230010093175 -9281.0445631560724 0 0 0 -2207.8617561322808 509.97936807172664 60.381328778526949 0 60.381328778526949 -9257.0154594886772 0 0 0 -2186.7590228542358 223.25152428524962 -53.823092902442113 0 -53.823092902442113 -9332.2814297487494 0 0 0 -2277.257476365874 398.80769057551606 -5.8025621327760746 0 -5.8025621327760746 -9294.4220908616699 0 0 0 -2223.9036000715378 -217.52971035806695 -248.78780330190784 0 -248.78780330190784 -9256.6228481679063 0 0 0 -2368.5381396314951 -11.34998125608854 -79.492454959457973 0 -79.492454959457973 -9199.0311180830467 0 0 0 -2302.5952748347818 184.71819085095194 -122.63642434843223 0 -122.63642434843223 -9306.8422038397257 0 0 0 -2280.5310032471934 157.07187703133241 -107.67373904240594 0 -107.67373904240594 -9308.2084026242483 0 0 0 -2287.7841313982244 -101.0086468393074 -217.91408397914347 0 -217.91408397914347 -9212.505208558694 0 0 0 -2328.3784638494999 -103.21439675874353 -252.65765702688805 0 -252.65765702688805 -9438.1690232079563 0 0 0 -2385.3458549916759 103.49117567176222 -182.19818196957203 0 -182.19818196957203 -9379.5362408996316 0 0 0 -2319.0112663069676 -159.56740414347223 -327.28129740968325 0 -327.28129740968325 -9507.230167369984 0 0 0 -2416.6993928783631 -116.1651943959514 -324.44875860383399 0 -324.44875860383399 -9306.6308734745871 0 0 0 -2355.6990169676319 434.0708340683268 -54.115832188104832 0 -54.115832188104832 -9424.401712564184 0 0 0 -2247.5827196239698 148.00585660653451 -125.63515671815185 0 -125.63515671815185 -9442.5385362993547 0 0 0 -2323.6331699231996 324.07152641351195 -75.784248539781402 0 -75.784248539781402 -9396.008539764327 0 0 0 -2267.9842533377036 68.544348561274091 -171.72868529938933 0 -171.72868529938933 -9480.9029433983305 0 0 0 -2353.089648709265 302.55218241587136 -60.72625681565296 0 -60.72625681565296 -9445.0731985322345 0 0 0 -2285.6302540290962 418.53831185471608 -11.925602125600562 0 -11.925602125600562 -9496.3463692561127 0 0 0 -2269.4520143503487 580.31103965608145 56.171292987415654 0 56.171292987415654 -9466.1550860085808 0 0 0 -2221.4610115881287 602.81046415889432 41.26512704495326 0 41.26512704495326 -9435.8215779218735 0 0 0 -2208.2527784407466 572.90844000081415 2.5843419768643798 0 2.5843419768643798 -9430.8313539002993 0 0 0 -2214.4807284748713 529.04390210760175 30.143927674236693 0 30.143927674236693 -9382.5079710531718 0 0 0 -2213.3660172363961 663.63677895748515 19.960533164638036 0 19.960533164638036 -9364.211974314705 0 0 0 -2175.1437988393063 672.99792558589252 39.857233268060554 0 39.857233268060554 -9341.8154186816828 0 0 0 -2167.2043732739476 746.53086421991247 56.209031833484914 0 56.209031833484914 -9381.095316787294 0 0 0 -2158.641113141839 826.34700211019299 18.315837196914799 0 18.315837196914799 -9312.9815245255741 0 0 0 -2121.658630603848 754.92753395205909 66.124075622814416 0 66.124075622814416 -9265.2134250561721 0 0 0 -2127.5714727760223 592.94129937219986 -14.456399508806498 0 -14.456399508806498 -9323.8331808618677 0 0 0 -2182.7229703724151 1020.1096691810017 53.300170795502709 0 53.300170795502709 -9235.3350417268521 0 0 0 -2053.8063431364644 977.20081444834796 24.871576735667986 0 24.871576735667986 -9293.6067494993622 0 0 0 -2079.101483762759 905.39492870960021 71.594161859768064 0 71.594161859768064 -9267.9572429586769 0 0 0 -2090.6405785622701 759.4937828241309 40.406776981499206 0 40.406776981499206 -9368.2482065313379 0 0 0 -2152.1886059268145 923.59112659790844 43.993636221426641 0 43.993636221426641 -9318.2970240645082 0 0 0 -2098.6764743666499 888.67238403968713 79.482349959296698 0 79.482349959296698 -9347.2629163148231 0 0 0 -2114.6476330687774 765.03572784163407 61.735497183040934 0 61.735497183040934 -9382.6502383917395 0 0 0 -2154.4036276375191 735.25210179647183 84.328487363236491 0 84.328487363236491 -9429.6611535021657 0 0 0 -2173.6022629264298 735.55188048007403 93.131385289350874 0 93.131385289350874 -9430.6529545761878 0 0 0 -2173.7752685240266 606.53005762303656 105.31116929780364 0 105.31116929780364 -9459.8557179080381 0 0 0 -2213.3314150712467 510.45144959303434 84.423916320309218 0 84.423916320309218 -9465.4437325191539 0 0 0 -2238.7480707315262 611.86428130093555 75.542690788963228 0 75.542690788963228 -9472.8502560317138 0 0 0 -2215.2464936826873 608.92575551340997 86.325076810244354 0 86.325076810244354 -9440.0246007214228 0 0 0 -2207.7747113020087 424.90376246656888 -6.5727786700263096 0 -6.5727786700263096 -9460.2680425461149 0 0 0 -2258.8410700198838 397.94105549000778 47.68014783423132 0 47.68014783423132 -9478.3095025109942 0 0 0 -2270.0921117552407 463.00070270119249 28.018349633322941 0 28.018349633322941 -9502.1376805087202 0 0 0 -2259.7842444518792 512.10133031482837 84.184455915310537 0 84.184455915310537 -9469.5724772796457 0 0 0 -2239.3677867412116 410.36224449353904 100.14910070800892 0 100.14910070800892 -9446.7257391500461 0 0 0 -2259.0908736641286 389.32454706240969 63.309530391084991 0 63.309530391084991 -9512.4968143088263 0 0 0 -2280.7930668116096 318.36629642577464 84.431241863625473 0 84.431241863625473 -9443.7662730761294 0 0 0 -2281.349994162596 367.39451538270805 105.15789729559037 0 105.15789729559037 -9455.3929429521013 0 0 0 -2271.9996068923501 386.74279087033938 134.87372509938655 0 134.87372509938655 -9407.7946685322822 0 0 0 -2255.2629694154894 430.61115034497925 124.34029243523401 0 124.34029243523401 -9451.3876028260856 0 0 0 -2255.1941131202693 485.78691016646917 121.64424076376235 0 121.64424076376235 -9433.252344962355 0 0 0 -2236.8663586989715 493.12786832803704 112.17436486073711 0 112.17436486073711 -9476.91569266031 0 0 0 -2245.9469560830685 -49.230971001121361 -262.83253609727672 0 -262.83253609727672 -9442.0127908492141 0 0 0 -2372.8109404625829 40.392310169521807 -260.51266238447351 0 -260.51266238447351 -9563.6048365497409 0 0 0 -2380.8031315950539 67.811195948784189 -215.52214093180373 0 -215.52214093180373 -9519.7449211951571 0 0 0 -2362.9834313115925 200.64322270135744 -129.04184332781006 0 -129.04184332781006 -9599.6148691695271 0 0 0 -2349.742911617046 170.36560033224669 -121.7524732937527 0 -121.7524732937527 -9495.985455638991 0 0 0 -2331.4049638266806 270.36488905518672 -120.44882530860923 0 -120.44882530860923 -9488.7024468891759 0 0 0 -2304.5843894584978 243.88048634970619 -97.834324140205354 0 -97.834324140205354 -9526.0435159861809 0 0 0 -2320.540757409115 332.5357164834586 -35.995287516539975 0 -35.995287516539975 -9471.0323612667289 0 0 0 -2284.6241611958158 318.11691863363376 -29.296094365943645 0 -29.296094365943645 -9518.7839179262519 0 0 0 -2300.1667498231545 240.8247042473522 -11.452241240040166 0 -11.452241240040166 -9494.013768278659 0 0 0 -2313.2972660078231 294.86303820988724 8.9479642376063566 0 8.9479642376063566 -9509.7539834102499 0 0 0 -2303.7227363000911 294.65403949873053 -58.722408462788735 0 -58.722408462788735 -9513.4065476161704 0 0 0 -2304.6881270293534 136.54365801059976 -199.21295317017575 0 -199.21295317017575 -9598.1924957949159 0 0 0 -2365.4122094460799 47.237445753922657 -164.10185983517295 0 -164.10185983517295 -9558.0732848371699 0 0 0 -2377.7089597708109 75.052158707141643 -298.89391076179891 0 -298.89391076179891 -9704.6188755213079 0 0 0 -2407.3916792035434 -101.42167616571533 -388.39474989200971 0 -388.39474989200971 -9653.3100140468596 0 0 0 -2438.6829225531419 -28.245388996994734 -340.38133407792884 0 -340.38133407792884 -9601.2711585820362 0 0 0 -2407.3791368947532 170.44945324335197 -64.365986083455937 0 -64.365986083455937 -9509.2915476912622 0 0 0 -2334.7105236119778 66.854125147743616 -232.00130320810513 0 -232.00130320810513 -9558.7380071055231 0 0 0 -2372.9709704894412 -40.071187690569786 -193.60045788155912 0 -193.60045788155912 -9587.7828170901703 0 0 0 -2406.9635011951868 263.05361657320918 -116.51848586392953 0 -116.51848586392953 -9538.2301913209994 0 0 0 -2318.7941436869523 91.956295057643729 -48.146603775596304 0 -48.146603775596304 -9264.6255904022837 0 0 0 -2293.1673238361618 168.86256196412296 30.124702112843806 0 30.124702112843806 -9406.118944430702 0 0 0 -2309.3140956166476 145.48429508245681 -50.607736635800393 0 -50.607736635800393 -9443.6047360492812 0 0 0 -2324.5301102417034 238.77203619015563 55.113531294222412 0 55.113531294222412 -9433.0084535963979 0 0 0 -2298.5591043515597 199.03918245996465 38.003249779842008 0 38.003249779842008 -9394.165889648204 0 0 0 -2298.781676797058 123.79472609754521 52.561830381342588 0 52.561830381342588 -9222.7800250057917 0 0 0 -2274.7463247270607 72.434131241221621 52.336104756921486 0 52.336104756921486 -9239.6240098530034 0 0 0 -2291.7974696529491 57.301021982413658 21.511520662761541 0 21.511520662761541 -8899.8770454289624 0 0 0 -2210.644005861639 56.866555392567534 21.203070143250443 0 21.203070143250443 -9264.2526621625511 0 0 0 -2301.8465266924941 51.06635264835311 -6.3483968506079691 0 -6.3483968506079691 -8895.8658713996756 0 0 0 -2211.1998796878343 43.582148649442388 -27.008907456443922 0 -27.008907456443922 -9355.2685610755507 0 0 0 -2327.9216031065298 266.05974664413952 116.0195703280333 0 116.0195703280333 -9342.8147611643362 0 0 0 -2269.1887536300492 281.31191790365847 123.69005966438272 0 123.69005966438272 -9434.297467850236 0 0 0 -2288.2463874866517 296.28539550320784 117.05505206994712 0 117.05505206994712 -9423.7048581537892 0 0 0 -2281.8548656626408 281.74042898337211 77.603054343206168 0 77.603054343206168 -9420.7267786461089 0 0 0 -2284.7465874156842 207.28462664311519 101.23573250139816 0 101.23573250139816 -9345.298119671017 0 0 0 -2284.5033732569827 159.7298254938687 49.040625604758134 0 49.040625604758134 -9255.2318348026893 0 0 0 -2273.8755023272097 60.444744538737723 38.418975659013086 0 38.418975659013086 -9010.7408415265672 0 0 0 -2237.5740242469619 33.942183481673055 82.127210324331827 0 82.127210324331827 -9247.6564961598997 0 0 0 -2303.4285781695526 51.454013383874553 55.423399230512587 0 55.423399230512587 -9079.6010771465808 0 0 0 -2257.0367659406766 46.686692574519839 42.132476503338694 0 42.132476503338694 -9277.0593156434479 0 0 0 -2307.5931557672375 136.32225086259496 72.444108928149944 0 72.444108928149944 -9259.6270537028468 0 0 0 -2280.8262007100711 152.8465864287873 80.271815526786668 0 80.271815526786668 -9394.3049334191273 0 0 0 -2310.364586747578 149.4274682046962 85.946415630154661 0 85.946415630154661 -9236.8156069075339 0 0 0 -2271.8470346757094 35.487268172386393 62.707323126096526 0 62.707323126096526 -9227.1898539586546 0 0 0 -2297.9256464465652 90.434185640828218 67.096057012659912 0 67.096057012659912 -9400.6404976785125 0 0 0 -2327.5515780094283 82.3552014172854 57.404329743054404 0 57.404329743054404 -9307.2070436869144 0 0 0 -2306.212960567409 43.71961742710846 53.991353186549532 0 53.991353186549532 -9461.4138973344816 0 0 0 -2354.4235699768396 185.67667220572184 90.171580135043769 0 90.171580135043769 -9397.0269018309627 0 0 0 -2302.8375574063029 216.48027278011796 87.051110414868162 0 87.051110414868162 -9361.450405288997 0 0 0 -2286.2425331272134 288.46336461855935 127.05310977366025 0 127.05310977366025 -9389.1877648997834 0 0 0 -2275.1811000703074 190.95077669825696 101.28636614235211 0 101.28636614235211 -9443.3199760631542 0 0 0 -2313.0922998412207 309.19185736011423 122.37955850554135 0 122.37955850554135 -9396.4956577690609 0 0 0 -2271.825950102233 322.32630174735823 134.68671401727624 0 134.68671401727624 -9443.0418484012771 0 0 0 -2280.1788866634815 285.32837928590743 126.25019180983509 0 126.25019180983509 -9470.2568917774697 0 0 0 -2296.2321281229015 225.62093731656933 96.969644986261301 0 96.969644986261301 -9504.390399060765 0 0 0 -2319.6923654360507 250.76436604854098 112.81333066184743 0 112.81333066184743 -9440.1813533555251 0 0 0 -2297.3542468267406 155.20163960447098 85.101391583659279 0 85.101391583659279 -9486.7969308938627 0 0 0 -2332.8988228223461 50.483858454652363 47.419468436222814 0 47.419468436222814 -9416.6029311804159 0 0 0 -2341.5297681814482 65.373776667118364 39.408541610173415 0 39.408541610173415 -9522.3905924686114 0 0 0 -2364.2542039503824 73.342824461786222 50.713113661826355 0 50.713113661826355 -9463.2818033597432 0 0 0 -2347.4847447244938 75.035775128999376 40.639877198074828 0 40.639877198074828 -9608.6570310392417 0 0 0 -2383.4053139775642 210.36989758539221 100.72677467890753 0 100.72677467890753 -9501.2424540987686 0 0 0 -2322.7181391283439 80.178624365500582 42.255284365750413 0 42.255284365750413 -9553.4298618100875 0 0 0 -2368.3128093611376 73.026458240528882 39.851441708113271 0 39.851441708113271 -9691.4123076228425 0 0 0 -2404.5964623455802 77.410145620277035 41.771104417592142 0 41.771104417592142 -9614.0531584697601 0 0 0 -2384.1607532123744 72.855710967240157 39.52139361409354 0 39.52139361409354 -9687.5764560290845 0 0 0 -2403.6801862654538 225.31508491698332 92.27802797655022 0 92.27802797655022 -9572.0115128263133 0 0 0 -2336.674106977327 350.95949112311791 134.02876919577102 0 134.02876919577102 -9513.7903672256216 0 0 0 -2290.7077190256205 225.65524403874497 92.453974769719935 0 92.453974769719935 -9572.8666123087987 0 0 0 -2336.8028420675191 376.81240730737045 146.43493048127857 0 146.43493048127857 -9491.1847763524565 0 0 0 -2278.5930922612897 221.43948000447563 105.97187693953674 0 105.97187693953674 -9513.2806371513288 0 0 0 -2322.9602892867042 317.59148151287809 117.69918234934448 0 117.69918234934448 -9502.3185021197423 0 0 0 -2296.1817551517161 338.07938521134201 129.72512216138421 0 129.72512216138421 -9446.6659850701399 0 0 0 -2277.146649964714 427.57689658745221 145.34903003411455 0 145.34903003411455 -9451.2523710079477 0 0 0 -2255.9188686051275 439.87596283531457 138.07421333340244 0 138.07421333340244 -9436.8035129283235 0 0 0 -2249.2318875232595 555.34797590435119 134.36064900209749 0 134.36064900209749 -9398.7831667005667 0 0 0 -2210.8587976990493 411.35947589705756 132.08049376482086 0 132.08049376482086 -9449.7945107028645 0 0 0 -2259.6087587014554 428.96458346108557 129.8348957487251 0 129.8348957487251 -9467.591135656432 0 0 0 -2259.6566380488512 413.8511071380417 121.03768390512414 0 121.03768390512414 -9490.2491359126434 0 0 0 -2269.0995071936486 535.61904468896319 151.473549071452 0 151.473549071452 -9402.2347193329842 0 0 0 -2216.6539186610134 507.56957057939326 153.67628827432054 0 153.67628827432054 -9430.3201011858473 0 0 0 -2230.6876326516049 537.16775010794663 131.74767710336437 0 131.74767710336437 -9390.2893917236652 0 0 0 -2213.2804104039169 638.56571210913535 143.22834837274422 0 143.22834837274422 -9353.8700627491344 0 0 0 -2178.8260876600107 639.90844274677511 145.22880567777975 0 145.22880567777975 -9324.8611276978045 0 0 0 -2171.238171237761 738.76451557695941 123.48022167245654 0 123.48022167245654 -9290.6023702294697 0 0 0 -2137.95946366312 742.20300307234993 130.43260216859926 0 130.43260216859926 -9272.9470555282751 0 0 0 -2132.6860131139738 748.19807286262949 127.40354709472376 0 127.40354709472376 -9230.8361108915706 0 0 0 -2120.659509507248 597.76482691862475 146.87975139656101 0 146.87975139656101 -9381.032670050452 0 0 0 -2195.8169607829477 610.43703761262441 128.14549376570358 0 128.14549376570358 -9361.8702837133897 0 0 0 -2187.8583115251895 699.54468318012005 113.87508688172966 0 113.87508688172966 -9323.9076161577977 0 0 0 -2156.0907332444149 773.70743425755427 115.75581330880959 0 115.75581330880959 -9317.3879772765358 0 0 0 -2135.9201357547536 677.42520015622722 126.50022651363361 0 126.50022651363361 -9375.0581067863386 0 0 0 -2174.4082266575206 776.37972047755829 97.613322984769184 0 97.613322984769184 -9324.1310770014243 0 0 0 -2136.9378391309692 635.29722472479625 121.25855102583591 0 121.25855102583591 -9379.5086845110927 0 0 0 -2186.0528649465705 620.79379675172095 128.5608480354349 0 128.5608480354349 -9416.0273885365605 0 0 0 -2198.8083979462026 746.67257027043161 115.21406321591348 0 115.21406321591348 -9381.8976618638262 0 0 0 -2158.8062728983496 691.27766863970101 110.4661046074616 0 110.4661046074616 -9383.0832308587196 0 0 0 -2172.951390554761 669.71930784774668 122.08402689158538 0 122.08402689158538 -9431.0977982956538 0 0 0 -2190.344622611974 537.13476291348798 130.65400903991394 0 130.65400903991394 -9454.5902804651432 0 0 0 -2229.3638793879099 610.83570854089339 107.49712371497662 0 107.49712371497662 -9425.4136184469971 0 0 0 -2203.6444774765259 527.31559335276688 136.29630208008166 0 136.29630208008166 -9427.3978296204878 0 0 0 -2225.0205590669357 523.52151255162607 133.43952099556191 0 133.43952099556191 -9431.9918213169585 0 0 0 -2227.1175771913404 434.12748860883585 141.95750354491625 0 141.95750354491625 -9440.3385628601245 0 0 0 -2251.5527685628185 402.83730132639812 131.47769065872853 0 131.47769065872853 -9417.7907025041786 0 0 0 -2253.7383502944476 416.76539525274711 142.8356112198162 0 142.8356112198162 -9445.8356009297713 0 0 0 -2257.2675514192597 404.78869666854735 142.18407358379773 0 142.18407358379773 -9427.7014326816352 0 0 0 -2255.7281840032738 398.38625995090842 127.65499532139802 0 127.65499532139802 -9444.6611852735514 0 0 0 -2261.5687313306626 543.8117772747064 141.35611748829251 0 141.35611748829251 -9419.1783423131856 0 0 0 -2218.8416412596271 517.42465896012254 137.8767573224759 0 137.8767573224759 -9412.1802297406648 0 0 0 -2223.6888926951306 430.32211347698376 46.902943243985646 0 46.902943243985646 -9655.9421659004329 0 0 0 -2306.4050131058475 265.43087911466137 61.818528904115738 0 61.818528904115738 -9716.07754196311 0 0 0 -2362.6616657121194 226.94667584499985 31.826750406238716 0 31.826750406238716 -9792.3555606900482 0 0 0 -2391.352221211273 278.42356508124249 -1.0423760601697722 0 -1.0423760601697722 -9713.7624372665887 0 0 0 -2358.834718046337 106.71432539408852 -8.1118215772439726 0 -8.1118215772439726 -9838.790088806214 0 0 0 -2433.0189408530277 68.896439735923195 18.41078577335524 0 18.41078577335524 -9906.3255839932826 0 0 0 -2459.3572860643326 49.708395241497783 -2.0796853786741849 0 -2.0796853786741849 -9973.7268512458249 0 0 0 -2481.0046140010818 86.338809783555917 -27.314386696220026 0 -27.314386696220026 -9908.7637136999401 0 0 0 -2455.6062259791215 100.82176435175643 30.140229823638037 0 30.140229823638037 -9848.9261044310697 0 0 0 -2437.0260850198247 223.02810337144547 19.329428656055825 0 19.329428656055825 -9806.3700890053879 0 0 0 -2395.8354964084829 58.332397391219274 -6.4482898806163576 0 -6.4482898806163576 -9937.5670064479928 0 0 0 -2469.808652264197 75.034028211783152 41.446557091600198 0 41.446557091600198 -9899.5774837506178 0 0 0 -2456.1358638847014 202.31036822654278 68.374688299212721 0 68.374688299212721 -9728.0460468670353 0 0 0 -2381.4339196601213 298.506823903037 60.300190921094327 0 60.300190921094327 -9698.1534775673208 0 0 0 -2349.9116634160746 343.089676395266 35.407459577530972 0 35.407459577530972 -9671.5864101114857 0 0 0 -2332.1241834290668 485.0184826023833 82.921856006796588 0 82.921856006796588 -9591.3421098287654 0 0 0 -2276.580906806601 402.64761313713825 79.619156203232706 0 79.619156203232706 -9577.8413825541356 0 0 0 -2293.7984423542439 385.52820976555813 105.19093175220587 0 105.19093175220587 -9620.7235120278783 0 0 0 -2308.7988255655946 435.37179084595846 107.59945055328717 0 107.59945055328717 -9577.9235668148103 0 0 0 -2285.6379439921948 305.04707409843104 109.39440081652356 0 109.39440081652356 -9630.8680356362893 0 0 0 -2331.4552403844646 277.51596717261918 88.861214008327806 0 88.861214008327806 -9632.7026190431061 0 0 0 -2338.7966629676034 119.73409003812412 67.278024922933582 0 67.278024922933582 -9752.2460609983245 0 0 0 -2408.127992740061 109.66518674118925 10.44662157028506 0 10.44662157028506 -9819.1493225419836 0 0 0 -2427.3710339501959 55.252545643190388 25.277917583945964 0 25.277917583945964 -9865.6734106554068 0 0 0 -2452.6052162530468 168.47087266107701 47.846421610513062 0 47.846421610513062 -9718.0263573936827 0 0 0 -2387.3888711831605 208.10161560974848 80.938271763021476 0 80.938271763021476 -9684.6552089858997 0 0 0 -2369.1383983440446 66.849312328427914 33.91579620029006 0 33.91579620029006 -9746.041869743698 0 0 0 -2419.7981393538212 72.098308364710206 35.803030968068924 0 35.803030968068924 -9779.3869250313292 0 0 0 -2426.8221541666476 225.98412634778015 98.032219400723989 0 98.032219400723989 -9620.0790703473249 0 0 0 -2348.5237359998855 204.52735693579598 78.20913892446697 0 78.20913892446697 -9629.7132800353575 0 0 0 -2356.296480774894 335.98115498385596 85.987088581307034 0 85.987088581307034 -9585.3682111524686 0 0 0 -2312.3467640421368 351.04351960043823 128.16199079111539 0 128.16199079111539 -9560.8556385648808 0 0 0 -2302.4530297411129 371.08559077707469 111.78090981720788 0 111.78090981720788 -9504.1796273469517 0 0 0 -2283.2735091424547 504.39821874245536 133.40343823489093 0 133.40343823489093 -9454.3753872513043 0 0 0 -2237.4942921272304 508.03445958498924 141.69514005453675 0 141.69514005453675 -9412.3424342717626 0 0 0 -2226.076993671697 640.9629502201351 150.47258951868571 0 150.47258951868571 -9307.3517763144919 0 0 0 -2166.5972065235765 773.82704924062818 157.4512865710567 0 157.4512865710567 -9279.1117471108155 0 0 0 -2126.3211744675373 664.82763219059598 160.81860602142115 0 160.81860602142115 -9311.1486826572582 0 0 0 -2161.5802626166605 641.5278194525963 143.43409124313621 0 143.43409124313621 -9368.2785736068909 0 0 0 -2181.6876885385645 649.38253103789248 122.56640534587495 0 122.56640534587495 -9368.7821506843902 0 0 0 -2179.8499049116326 773.2601191624999 132.03174444087199 0 132.03174444087199 -9251.5692630143021 0 0 0 -2119.5772859629506 767.12701539514092 161.0599079325475 0 161.0599079325475 -9302.8484410171077 0 0 0 -2133.9303564054935 571.5671139881124 151.43856654041883 0 151.43856654041883 -9415.5317144715518 0 0 0 -2210.9911501208662 589.99769317210303 98.909537028543127 0 98.909537028543127 -9468.0841695351119 0 0 0 -2219.5216190907522 532.39003864369442 125.64993072198195 0 125.64993072198195 -9474.4786353598756 0 0 0 -2235.5221491790435 413.87159022416017 124.22836732435098 0 124.22836732435098 -9512.281243532605 0 0 0 -2274.6024133271058 517.61528686677048 122.3055754332745 0 122.3055754332745 -9507.9418696961802 0 0 0 -2247.5816457073524 472.8436787223618 63.267912628427439 0 63.267912628427439 -9549.6033563383389 0 0 0 -2269.1899194040016 639.64848960739619 105.5520353196116 0 105.5520353196116 -9471.4511581686966 0 0 0 -2207.9506671403069 618.09547210248274 119.38910922523792 0 119.38910922523792 -9401.3372005116544 0 0 0 -2195.8104321022911 799.11074750038097 124.11899294636532 0 124.11899294636532 -9341.5677451280644 0 0 0 -2135.6142494069209 752.11805476269365 130.97904325745731 0 130.97904325745731 -9279.8270969708683 0 0 0 -2131.9272605520455 781.64530462677067 81.486852708385413 0 81.486852708385413 -9311.0158074978099 0 0 0 -2132.3426257177489 800.44373444542725 99.762104260065826 0 99.762104260065826 -9363.6359237888246 0 0 0 -2140.7980473358402 984.97161876929385 116.69220124882122 0 116.69220124882122 -9231.9022290162393 0 0 0 -2061.7326525617282 897.89569393082638 65.285389371623751 0 65.285389371623751 -9300.4145899158029 0 0 0 -2100.6297239962441 764.49729449470033 19.755367147095967 0 19.755367147095967 -9378.4847524418437 0 0 0 -2153.4968644867913 647.12328127962246 61.637954497869941 0 61.637954497869941 -9447.3537617385446 0 0 0 -2200.0576201147269 597.57202078065529 62.351177927746903 0 62.351177927746903 -9445.2070789684658 0 0 0 -2211.9087645469517 641.44306468511058 42.017429982384783 0 42.017429982384783 -9510.5584893194027 0 0 0 -2217.2788561585694 428.28543871093279 30.561720057736238 0 30.561720057736238 -9578.9962047431036 0 0 0 -2287.6776915080409 1385.6706724737451 21.202091759361792 0 21.202091759361792 -8965.7191502139758 0 0 0 -1895.012119435065 1618.7871295896875 36.498994363282691 0 36.498994363282691 -8897.7704759209591 0 0 0 -1819.7458365828097 1330.6759345726459 100.53968049928881 0 100.53968049928881 -8958.1412152053381 0 0 0 -1906.8663201581803 1480.8486910734955 45.237718339907588 0 45.237718339907588 -8895.3499778101941 0 0 0 -1853.6253216841851 1372.7655752550709 57.80958443286363 0 57.80958443286363 -9025.1516516289848 0 0 0 -1913.0965190934876 1133.5558407055942 64.326555781636742 0 64.326555781636742 -9162.177420251217 0 0 0 -2007.1553948864166 952.03927569466759 23.880553916293138 0 23.880553916293138 -9236.306190679752 0 0 0 -2071.0667287462566 1182.4687599319222 18.851683190863696 0 18.851683190863696 -9093.9669834805245 0 0 0 -1977.8745558871378 1157.3052193019321 123.3100381721415 0 123.3100381721415 -9085.2997355524858 0 0 0 -1981.9986290626402 1010.338809793313 151.43970506775804 0 151.43970506775804 -9178.7119598213176 0 0 0 -2042.0932875069921 994.87883295822758 81.672580783910234 0 81.672580783910234 -9153.249800542384 0 0 0 -2039.5927418960455 915.96444759714177 118.50945227398188 0 118.50945227398188 -9223.3235101509636 0 0 0 -2076.8397656384568 1190.0248646120599 126.0694958267668 0 126.0694958267668 -8966.3531170042988 0 0 0 -1944.0820630980743 1247.572943594103 66.661422286299057 0 66.661422286299057 -9015.7957489187684 0 0 0 -1942.0557013311627 1355.8878969121847 74.629012562392745 0 74.629012562392745 -8915.1537085020009 0 0 0 -1889.8164528974762 1198.4634032783906 89.989762775890995 0 89.989762775890995 -8928.1316283913038 0 0 0 -1932.4170562782128 1187.4656015798791 129.75542700532242 0 129.75542700532242 -8978.8351414898498 0 0 0 -1947.8423849774881 1058.8792394842021 114.26110681876162 0 114.26110681876162 -8995.7713360260532 0 0 0 -1984.22302413547 1187.8515077438569 134.01579507533825 0 134.01579507533825 -9022.8324680083315 0 0 0 -1958.7452400661205 1043.7239069803472 116.27670009885333 0 116.27670009885333 -9065.0150448448258 0 0 0 -2005.3227844661305 998.14459068456199 157.05804845110106 0 157.05804845110106 -9111.837445832236 0 0 0 -2028.4232137869258 890.45136074710172 128.17082943111018 0 128.17082943111018 -9159.4792981822393 0 0 0 -2067.2569843587698 891.44756665904424 157.72637401863722 0 157.72637401863722 -9203.1854526320531 0 0 0 -2077.9344714932522 916.07843796164525 130.33954901069956 0 130.33954901069956 -9125.4186071193253 0 0 0 -2052.3350422894073 1044.6641495721415 149.88836316850757 0 149.88836316850757 -9082.5539374100044 0 0 0 -2009.4724469594657 907.28996329256915 155.1259385555104 0 155.1259385555104 -9164.7342657924455 0 0 0 -2064.3610756249691 944.87882146600896 118.24076388148387 0 118.24076388148387 -9073.6349411753617 0 0 0 -2032.1890299273291 796.78018866707862 133.50130803237698 0 133.50130803237698 -9206.7124194415519 0 0 0 -2102.483057693622 848.83770149554039 114.16118383374851 0 114.16118383374851 -9154.9310389991733 0 0 0 -2076.5233343758955 790.74780484061921 153.16749766804696 0 153.16749766804696 -9229.8994059379911 0 0 0 -2109.7879002743575 926.63177862759039 128.67883547480665 0 128.67883547480665 -9128.9646922677348 0 0 0 -2050.5832284100325 978.31423960178654 88.771237229644612 0 88.771237229644612 -9029.4702429037861 0 0 0 -2012.7890008255126 1042.2086985245041 135.24969548502122 0 135.24969548502122 -9049.630409119578 0 0 0 -2001.8554276487703 1086.554446115646 92.800772890135704 0 92.800772890135704 -8957.7708437539986 0 0 0 -1967.8040994095863 1067.1249860858588 99.224066108929037 0 99.224066108929037 -9012.18787540021 0 0 0 -1986.265722328586 1169.6440499294986 48.245266891568463 0 48.245266891568463 -8906.4750758287264 0 0 0 -1934.2077564748033 1100.6675204713974 53.670529797360359 0 53.670529797360359 -8915.9172912027861 0 0 0 -1953.8124426828435 1257.2691648310793 62.016303701006109 0 62.016303701006109 -8862.4410764692875 0 0 0 -1901.2929779095502 1173.6784625265427 126.33021415690746 0 126.33021415690746 -8916.4122479304351 0 0 0 -1935.6834463509731 1215.2595436882402 88.26074441910896 0 88.26074441910896 -8877.858795954613 0 0 0 -1915.6498130665714 1288.2405318984238 42.258675431530719 0 42.258675431530719 -8896.3008754195471 0 0 0 -1902.0150858802954 1383.2539116770167 -90.506525692529976 0 -90.506525692529976 -8791.4008418959274 0 0 0 -1852.0367325547231 1431.2003336291236 -66.479089910317271 0 -66.479089910317271 -8764.4928372512513 0 0 0 -1833.3231259055319 1457.4852548267518 -47.76326890103519 0 -47.76326890103519 -8665.2550154007913 0 0 0 -1801.9424401435099 1375.9712475671404 43.523155963710451 0 43.523155963710451 -8771.0178877090802 0 0 0 -1848.7616600354813 1329.5146451987443 15.712061591271777 0 15.712061591271777 -8843.4263076268362 0 0 0 -1878.4779156070231 1516.3746069016561 -36.972955184661259 0 -36.972955184661259 -8760.7054575979346 0 0 0 -1811.0827126740769 1567.5146045294969 -23.094952498031489 0 -23.094952498031489 -8596.5822743854078 0 0 0 -1757.2669174639741 1561.7592250505477 3.6419180245138705 0 3.6419180245138705 -8765.0997701783708 0 0 0 -1800.8351362819594 1417.3441674655332 41.890631659095106 0 41.890631659095106 -8739.7261596011522 0 0 0 -1830.5954980339011 1433.3886312955815 58.124949965975247 0 58.124949965975247 -8845.8005469584132 0 0 0 -1853.1029789157024 1372.6073988401331 79.502062851977826 0 79.502062851977826 -8865.2077311094181 0 0 0 -1873.1500830673176 1303.3276862155108 122.12642815295112 0 122.12642815295112 -8896.1070676573145 0 0 0 -1898.1948453604418 1385.3711297383124 91.61113627586019 0 91.61113627586019 -8861.1770316644979 0 0 0 -1868.9514754815464 1529.7089311163145 41.214249105127237 0 41.214249105127237 -8816.7096683325362 0 0 0 -1821.7501843040664 1464.4484000387456 72.543183538975427 0 72.543183538975427 -8768.2469258130586 0 0 0 -1825.9496314435673 1619.803327598248 12.324450002502999 0 12.324450002502999 -8730.8239116583027 0 0 0 -1777.7551460150107 1608.5536124379651 -13.289403053488059 0 -13.289403053488059 -8619.9260862809606 0 0 0 -1752.8431184607543 1800.2439906642567 -33.071191561874002 0 -33.071191561874002 -8605.9040865098996 0 0 0 -1701.4150239614073 1732.1130287047126 9.5463111559620302 0 9.5463111559620302 -8601.4970724648156 0 0 0 -1717.3460109400185 1647.6931883202924 16.539329087730948 0 16.539329087730948 -8647.4091946735571 0 0 0 -1749.9290015883162 1730.6627201322262 12.167488359104027 0 12.167488359104027 -8710.4316244861111 0 0 0 -1744.9422260884749 1833.8289081257681 -8.8854539530657348 0 -8.8854539530657348 -8550.6174753317318 0 0 0 -1679.1971418014873 1961.231031120642 20.220048210161622 0 20.220048210161622 -8620.9039774774865 0 0 0 -1664.9182365892157 1737.2088034789631 2.6715803210972808 0 2.6715803210972808 -8670.1222506816994 0 0 0 -1733.2283618006841 1817.3853854842891 48.052062303293496 0 48.052062303293496 -8736.2380644750228 0 0 0 -1729.7131697477016 1661.0447594762591 5.2187301531375851 0 5.2187301531375851 -8782.7735756434558 0 0 0 -1780.4322040417901 1562.5022998325549 60.040895561614889 0 60.040895561614889 -8746.457423915519 0 0 0 -1795.9887810207329 1502.6377595829254 58.12411696214258 0 58.12411696214258 -8843.9891727299255 0 0 0 -1835.33785328675 1061.6901190258104 32.893783073457598 0 32.893783073457598 -9251.7181487964408 0 0 0 -2047.5070074426512 1057.9735440865916 12.725101087842631 0 12.725101087842631 -9194.6797846593836 0 0 0 -2034.176560143198 1212.6049451368549 -26.804966174393485 0 -26.804966174393485 -9140.5473173209539 0 0 0 -1981.9855930460158 1094.2518546066858 15.52980662848131 0 15.52980662848131 -9214.2214704911021 0 0 0 -2029.9924039711041 1077.7926602227271 36.500082037091488 0 36.500082037091488 -9235.9444886833953 0 0 0 -2039.5379571151752 1100.1432412019567 33.44530008194306 0 33.44530008194306 -9261.4482481618179 0 0 0 -2040.3262517399562 1070.1200206632057 50.615174144972116 0 50.615174144972116 -9289.427662772141 0 0 0 -2054.8269105272411 950.7763712578917 71.702778549399227 0 71.702778549399227 -9309.7910753018878 0 0 0 -2089.7536760109988 917.26433922856086 57.202505927558377 0 57.202505927558377 -9333.1465705227747 0 0 0 -2103.9705578235516 879.39138956662646 84.597374665310781 0 84.597374665310781 -9373.0650340151769 0 0 0 -2123.4184111121431 753.03119519575557 85.675409372270224 0 85.675409372270224 -9385.4359746790578 0 0 0 -2158.1011948708328 811.08019290515222 95.972190640110057 0 95.972190640110057 -9381.1308157007879 0 0 0 -2142.5126556989126 846.63046201931866 74.762120785235311 0 74.762120785235311 -9324.3735691710608 0 0 0 -2119.435776787941 987.3640355571697 40.555604831446544 0 40.555604831446544 -9254.0598438010638 0 0 0 -2066.6739520609699 876.32584193458024 79.877525099014747 0 79.877525099014747 -9321.3922158545756 0 0 0 -2111.2665934799988 909.44942055677529 59.658487936261736 0 59.658487936261736 -9256.5800608930585 0 0 0 -2086.7826600840708 800.89411785823177 103.44931354701112 0 103.44931354701112 -9314.0335700049036 0 0 0 -2128.2848630366643 778.0422755361069 101.76171350481309 0 101.76171350481309 -9240.237420934689 0 0 0 -2115.5487863496382 940.79516212298768 53.441618652883335 0 53.441618652883335 -9147.2729664499202 0 0 0 -2051.6194510817295 858.91489022517817 94.121021884471702 0 94.121021884471702 -9224.8560924968915 0 0 0 -2091.4853005679233 907.88007115871005 64.915667886074516 0 64.915667886074516 -9238.9858425780112 0 0 0 -2082.7764428548253 831.93935755300845 121.12370854675828 0 121.12370854675828 -9209.165572552185 0 0 0 -2094.3065537497932 888.63196456281003 86.725194726983318 0 86.725194726983318 -9130.7462890944444 0 0 0 -2060.5285811329086 946.66503033612025 83.202891654596897 0 83.202891654596897 -9122.48429440779 0 0 0 -2043.9548160179147 1022.3674053627547 39.924715828083208 0 39.924715828083208 -9019.8013673045207 0 0 0 -1999.3584904854361 1055.9561391733769 15.552713330143888 0 15.552713330143888 -9027.9724690767907 0 0 0 -1993.0040824758507 1053.1418649718471 15.331867447479453 0 15.331867447479453 -9172.2495669753953 0 0 0 -2029.7769255008825 984.78845389121125 38.082486098035588 0 38.082486098035588 -9143.2677369315352 0 0 0 -2039.6198207600755 1042.2810836410645 9.4257094804779626 0 9.4257094804779626 -9106.0719332445879 0 0 0 -2015.9477124008772 1169.527741053007 -55.842307047678332 0 -55.842307047678332 -9040.4932436830641 0 0 0 -1967.7413756575079 1174.9269535112398 -64.495976099377003 0 -64.495976099377003 -9122.3908427280548 0 0 0 -1986.8659723042074 1112.6105767008557 -69.283342363989505 0 -69.283342363989505 -9039.8336654735467 0 0 0 -1981.8057721931837 1315.5730815473144 -135.12269228693913 0 -135.12269228693913 -9008.3704307492008 0 0 0 -1923.1993373004734 1366.4543030653549 -78.109434351659729 0 -78.109434351659729 -9069.9876414500213 0 0 0 -1925.8833345961721 1346.4463309430721 -67.11156076408588 0 -67.11156076408588 -9065.1640296809492 0 0 0 -1929.6794246844584 1156.3271087867906 -41.66363705695403 0 -41.66363705695403 -8907.2513950647553 0 0 0 -1937.7310715694875 1162.601958119034 -43.162953084422043 0 -43.162953084422043 -8911.9844080961775 0 0 0 -1937.3456124942859 1164.5815601036593 22.224860272079241 0 22.224860272079241 -8849.2083771232574 0 0 0 -1921.1567042548995 1169.7730065302785 -86.026909294516372 0 -86.026909294516372 -8852.5197350473245 0 0 0 -1920.6866821292606 1306.5858206101184 -85.378429651565966 0 -85.378429651565966 -9076.9532448350219 0 0 0 -1942.5918560562204 1197.2073137047555 -363.15564278444072 0 -363.15564278444072 -9068.6327357579139 0 0 0 -1967.8563555133005 1510.2394655382159 -137.04976739979793 0 -137.04976739979793 -9111.0313430683454 0 0 0 -1900.1979693825269 1606.8091163269855 -83.585229497839464 0 -83.585229497839464 -8990.0693780224537 0 0 0 -1845.8150654238634 1584.2278388070645 -173.30611245360342 0 -173.30611245360342 -8934.85347117938 0 0 0 -1837.6564080930821 1809.7209070782301 40.075274987902958 0 40.075274987902958 -9116.9289347338781 0 0 0 -1826.8020069139056 1817.7094218400307 136.37747330339334 0 136.37747330339334 -8531.7567432938085 0 0 0 -1678.5118303634517 1643.3241356747103 45.327143837617768 0 45.327143837617768 -8940.6869223090307 0 0 0 -1824.3406966585744 1551.4508253056129 19.523539299283584 0 19.523539299283584 -8963.5173643853377 0 0 0 -1853.0166347699333 1422.6996866182817 -15.320130214560777 0 -15.320130214560777 -9085.1802914982545 0 0 0 -1915.6201512199987 1433.1168562672246 -27.294985030894168 0 -27.294985030894168 -9040.0486069572944 0 0 0 -1901.7329376725247 1456.1024650029794 30.554822347157824 0 30.554822347157824 -9062.0214235472959 0 0 0 -1901.4797396360736 1259.8076633854726 2.1119289078560541 0 2.1119289078560541 -9128.2479994957976 0 0 0 -1967.1100840275831 1246.4721295058043 13.152927205541346 0 13.152927205541346 -9188.4120391866454 0 0 0 -1985.4849774202157 1225.534463643191 -33.764503666001474 0 -33.764503666001474 -9149.0281010686303 0 0 0 -1980.8734093563689 1259.3156630563235 21.293180994151044 0 21.293180994151044 -9191.7544602162234 0 0 0 -1983.1096992899775 1216.4579421722447 35.216486092822379 0 35.216486092822379 -9092.5399901688506 0 0 0 -1969.0205119991515 1525.8126098312268 28.873943288497685 0 28.873943288497685 -8882.4541761654909 0 0 0 -1839.1603915835703 1333.1622375562583 16.672439905019019 0 16.672439905019019 -8894.6147268069617 0 0 0 -1890.3631223126722 1372.1339658442403 19.674900628939213 0 19.674900628939213 -9052.344856035219 0 0 0 -1920.0527225477463 1414.3913798398899 29.988906497997959 0 29.988906497997959 -8913.0370618125453 0 0 0 -1874.6614204931648 1415.2362026633891 8.1504192920037895 0 8.1504192920037895 -8884.2897816158002 0 0 0 -1867.2633947381073 1532.8924938127529 68.439790725653438 0 68.439790725653438 -8614.7591415434727 0 0 0 -1770.4666619326817 1592.9513764500207 10.232165065615845 0 10.232165065615845 -8597.861373345555 0 0 0 -1751.2274992238763 1680.683103365096 31.33199786829573 0 31.33199786829573 -8341.8550877375819 0 0 0 -1665.2929960931287 1540.624340738148 4.4523075173983671 0 4.4523075173983671 -8454.0803682463593 0 0 0 -1728.3640068770546 1694.2406176369957 -30.378682260583446 0 -30.378682260583446 -8407.1124372736613 0 0 0 -1678.2179549091627 1720.6013608882713 -72.909300800433016 0 -72.909300800433016 -8330.1425900175818 0 0 0 -1652.3853072823185 1597.6823489989802 -14.550031742845022 0 -14.550031742845022 -8352.4352213232778 0 0 0 -1688.6882180810753 2125.9051733260421 -113.21908932604856 0 -113.21908932604856 -8150.3558707839693 0 0 0 -1506.1126743644854 1945.5855898355076 -130.24892691347486 0 -130.24892691347486 -8056.6841624997251 0 0 0 -1527.7746431660526 1820.5796457767538 -27.378602227476222 0 -27.378602227476222 -8258.6761285754037 0 0 0 -1609.5241206996616 1921.1237452560745 15.774503447442839 0 15.774503447442839 -8289.217473134624 0 0 0 -1592.0234319696319 1649.9395800879429 86.070746380930359 0 86.070746380930359 -8561.0272972825915 0 0 0 -1727.7719292986585 1804.4483035852463 43.532199708237385 0 43.532199708237385 -8253.828484032827 0 0 0 -1612.3450451118915 1718.9080924082373 46.188728831984918 0 46.188728831984918 -8581.7167080130748 0 0 0 -1715.7021539011985 1819.1853294265929 103.77809588980745 0 103.77809588980745 -8555.8613564841799 0 0 0 -1684.1690067643976 2172.7224281652161 276.83905645480263 0 276.83905645480263 -8518.4068916577089 0 0 0 -1586.4211158731196 1931.8751594786809 69.974687820045801 0 69.974687820045801 -8184.2259037512413 0 0 0 -1563.0876860681456 2044.5633284305077 -116.35718582120717 0 -116.35718582120717 -9391.6796281208808 0 0 0 -1836.7790749225969 2367.1687211728531 -59.962496274303703 0 -59.962496274303703 -6914.7235378708428 0 0 0 -1136.8887041744929 1946.1354967882908 63.946837447547296 0 63.946837447547296 -8197.278131573592 0 0 0 -1562.785658696328 1167.6683095587287 -536.49042056258622 0 -536.49042056258622 -8909.6949243342387 0 0 0 -1935.5066536938757 2874.2672281718114 446.0125785119526 0 446.0125785119526 -8216.0095737874508 0 0 0 -1335.4355864039098 8.4501367151057138 -0.71390736823043843 0 -0.71390736823043843 -3.3313500428641873 0 0 0 1.2796966680603958 1029.2262427133828 -682.23056963399881 0 -682.23056963399881 -7603.5108986422129 0 0 0 -1643.5711639822111 1352.6461249892163 77.324659588746727 0 77.324659588746727 -8311.361099065849 0 0 0 -1739.6787435191509 -6.2003476863814058 -2.6727167056791061 0 -2.6727167056791061 -12.728115853441068 0 0 0 -4.7321158849556326 2864.5045532892473 -419.87463078091241 0 -419.87463078091241 -7875.0481667039567 0 0 0 -1252.6359033536719 1588.4545968680445 291.02474559609254 0 291.02474559609254 -7638.2016038321453 0 0 0 -1512.4367517410233 -2.7374491243778749 -3.5883367683773781 0 -3.5883367683773781 -11.573816316736952 0 0 0 -3.5778163602787174 2561.5682057736703 112.01094911017572 0 112.01094911017572 -8045.337856069702 0 0 0 -1370.942412573997 1607.0657099415766 -117.46669079128333 0 -117.46669079128333 -8259.2139991770382 0 0 0 -1663.0370723088708 2064.3229121551412 -99.580148854962317 0 -99.580148854962317 -7864.0678734897811 0 0 0 -1449.9362403336563 2362.7255543582614 -96.352271711482899 0 -96.352271711482899 -8521.2973423716321 0 0 0 -1539.6429470033545 2535.5050260714779 -146.26854760635933 0 -146.26854760635933 -8021.0944610149309 0 0 0 -1371.3973587358632 2144.5544203757927 -96.462455432614661 0 -96.462455432614661 -8081.1293468553195 0 0 0 -1484.143731619879 2195.3496657022224 -108.14459882367373 0 -108.14459882367373 -8088.8354019050748 0 0 0 -1473.3714340507177 2385.4676293188822 -28.196153472228616 0 -28.196153472228616 -7589.1145577983407 0 0 0 -1300.9117321198646 2438.7961066114076 -257.14309180480632 0 -257.14309180480632 -8037.3474474533141 0 0 0 -1399.6378352104803 2162.8397308669228 -96.297880245656415 0 -96.297880245656415 -8084.1180001917528 0 0 0 -1480.3195673312002 1487.6147234495656 -50.625582323769777 0 -50.625582323769777 -8068.8500543473056 0 0 0 -1645.3088327244259 1642.9318329407324 -17.9679512486764 0 -17.9679512486764 -7614.8384954409703 0 0 0 -1492.9766656250504 1643.923876401117 -221.17841775740089 0 -221.17841775740089 -7921.9221954770328 0 0 0 -1569.4995797689771 -3.668632163864018 -4.4753362570320432 0 -4.4753362570320432 -11.88421064743028 0 0 0 -3.8882107028235708 1677.8220396342404 202.47740840126062 0 202.47740840126062 -7887.4147165444592 0 0 0 -1552.3981692275593 1667.4956408498329 121.270108516459 0 121.270108516459 -8275.4383745756932 0 0 0 -1651.985683431456 1813.8115493878067 -89.981006752692338 0 -89.981006752692338 -8317.833278356251 0 0 0 -1626.0054322421129 1741.9822663991508 -265.54119968512822 0 -265.54119968512822 -7984.7162036717928 0 0 0 -1560.6834843181641 2382.0749799182377 135.57762875013194 0 135.57762875013194 -7989.5007112119929 0 0 0 -1401.8564328234352 -3.4102892109431764 -5.1530471872027501 0 -5.1530471872027501 -11.79809631428634 0 0 0 -3.8020963813073791 1793.9646322318877 -87.790592054814624 0 -87.790592054814624 -7654.2267148988758 0 0 0 -1465.0655206667579 2430.3035553003501 -42.716225274998578 0 -42.716225274998578 -8004.4216339256382 0 0 0 -1393.5295196563238 2205.8489285801625 -149.26954298223791 0 -149.26954298223791 -8069.9007256876503 0 0 0 -1466.0129492768683 2295.4014943297188 -35.451484088865982 0 -35.451484088865982 -8448.0026737490407 0 0 0 -1538.1502948548405 2200.6559690412232 -78.850781417211692 0 -78.850781417211692 -8033.8088721987442 0 0 0 -1458.2882257893816 2124.1655560063809 -74.800285822282603 0 -74.800285822282603 -8025.6428540148481 0 0 0 -1475.3693245021132 2164.3050190393624 -149.21409006497834 0 -149.21409006497834 -8062.8837887371483 0 0 0 -1474.6446924244519 2083.97596591822 -141.80883624402486 0 -141.80883624402486 -8065.0320114873903 0 0 0 -1495.2640113922935 2136.5800206686208 -91.777375955542084 0 -91.777375955542084 -8059.8603983400517 0 0 0 -1480.8200944178652 2010.261348181426 -131.13687665959878 0 -131.13687665959878 -8153.3745670677308 0 0 0 -1535.778304721578 2022.644399422752 -143.70056433101854 0 -143.70056433101854 -8129.1245320029266 0 0 0 -1526.6200331450455 1984.1880113754794 -162.20210226706331 0 -162.20210226706331 -8116.7689476830737 0 0 0 -1533.1452340768976 1916.9285196603305 -108.09925726596339 0 -108.09925726596339 -8174.4157276141923 0 0 0 -1564.3718019884691 1866.9083864033237 -101.42053911976473 0 -101.42053911976473 -8230.9880619419127 0 0 0 -1591.0199188846454 1883.6890698315392 -104.38984217528196 0 -104.38984217528196 -8157.5856709633217 0 0 0 -1568.4741502829465 1810.6711165784654 -76.473647962802715 0 -76.473647962802715 -8210.3921164278581 0 0 0 -1599.9302499623518 1729.2655301374543 -79.888277458710945 0 -79.888277458710945 -8239.5689500834269 0 0 0 -1627.575854986484 1794.885715760196 -59.544646685935732 0 -59.544646685935732 -8281.3105541444238 0 0 0 -1621.6062095960588 1690.7469730246653 -83.063899514207151 0 -83.063899514207151 -8306.2679087676006 0 0 0 -1653.8802339357367 1935.5773514185603 -144.03771801850962 0 -144.03771801850962 -8164.0931254280331 0 0 0 -1557.1289435023718 2093.0495455765304 -142.14752013854741 0 -142.14752013854741 -8137.5213137505052 0 0 0 -1511.1179420434964 2022.397482531931 -85.362996226747782 0 -85.362996226747782 -8137.1333331110072 0 0 0 -1528.6839626447691 2013.765313518983 -30.925109938369133 0 -30.925109938369133 -8326.7311582653929 0 0 0 -1578.2414611866043 2141.3560960342365 -21.860712185924058 0 -21.860712185924058 -8295.6818628412002 0 0 0 -1538.5814417017464 1971.4995841221826 -74.207816904923675 0 -74.207816904923675 -8380.7106528170116 0 0 0 -1602.3027671737073 2139.9648365855319 -14.874113816505997 0 -14.874113816505997 -8388.050637210923 0 0 0 -1562.021450156346 2032.3838308564154 -5.2236500244907802 0 -5.2236500244907802 -8504.5469817008707 0 0 0 -1618.0407877111138 1906.4043182324385 -22.128978792501584 0 -22.128978792501584 -8390.4964208430902 0 0 0 -1621.0230256526702 1934.5937398396636 -53.763616048236145 0 -53.763616048236145 -8446.3245207215368 0 0 0 -1627.9326952204719 1853.6811397296406 -61.170306984015042 0 -61.170306984015042 -8459.0743791675486 0 0 0 -1651.3483098594807 1725.9061227313978 -93.12379240959126 0 -93.12379240959126 -8515.4135427278525 0 0 0 -1697.3768549991109 1770.3919127887348 -86.465467950412858 0 -86.465467950412858 -8433.389178981568 0 0 0 -1665.749316548201 1800.8267144517013 -70.37498331045208 0 -70.37498331045208 -8361.8095800455776 0 0 0 -1640.24571639848 1855.4892497852543 -105.7828035303246 0 -105.7828035303246 -8360.5403114365108 0 0 0 -1626.2627654127882 1923.0666730481098 -60.192305747703358 0 -60.192305747703358 -8297.105799413257 0 0 0 -1593.5097815912886 1827.6832419707207 -82.28005976692657 0 -82.28005976692657 -8279.6520114613522 0 0 0 -1612.9921923726652 1724.2120237146282 -140.63658750081959 0 -140.63658750081959 -8253.7685780927059 0 0 0 -1632.3891385945262 1732.5015626723834 -94.907758211376859 0 -94.907758211376859 -8278.2590475930192 0 0 0 -1636.4393712301535 1595.1781830543077 -149.81316430075822 0 -149.81316430075822 -8353.1053699671211 0 0 0 -1689.4817967282179 1723.2387032855404 -125.05879848315817 0 -125.05879848315817 -8339.0378481483785 0 0 0 -1653.9497862157077 1722.0829133544321 -63.259118236466747 0 -63.259118236466747 -8430.0206060471246 0 0 0 -1676.9844231731695 1618.7783172401396 -123.44122849398627 0 -123.44122849398627 -8601.5000862324378 0 0 0 -1745.6804422480855 1649.3177379147673 -119.72593413406503 0 -119.72593413406503 -8352.649504148023 0 0 0 -1675.8329415583139 1533.7053028766823 -206.87623172127496 0 -206.87623172127496 -8651.8468170268752 0 0 0 -1779.5353785375482 1498.9062085910409 -225.85866674209592 0 -225.85866674209592 -8768.3197309792158 0 0 0 -1817.3533805970364 1487.0407651570567 -364.15046823850571 0 -364.15046823850571 -8182.0403019442092 0 0 0 -1673.7498841967899 1561.6349273248161 -75.558417418382305 0 -75.558417418382305 -8066.3535160334395 0 0 0 -1626.1796471771631 1573.4624945196556 -81.439874081004746 0 -81.439874081004746 -8224.147701504 0 0 0 -1662.6713017460934 1614.2931482633931 -133.48771205010416 0 -133.48771205010416 -8192.5168298699245 0 0 0 -1644.5559204016326 1629.6225377935116 -86.419672959375021 0 -86.419672959375021 -8002.5192957676481 0 0 0 -1593.224189493536 1698.1641837176576 -93.459545027486456 0 -93.459545027486456 -8131.1213131990808 0 0 0 -1608.2392823703558 1764.9286873083038 -88.745418023128877 0 -88.745418023128877 -8109.5982220012811 0 0 0 -1586.1673836732516 1679.0976695218123 -55.382702492803219 0 -55.382702492803219 -8110.8076034017431 0 0 0 -1607.9274834699827 1803.9168557886806 22.403199616121128 0 22.403199616121128 -7928.8584764614352 0 0 0 -1531.2354051681832 1854.1951777928989 -105.64974835692192 0 -105.64974835692192 -8007.5118763764331 0 0 0 -1538.3291746458854 1761.6715382999992 -119.50042020576075 0 -119.50042020576075 -8038.361549339972 0 0 0 -1569.1725027599878 1830.8984580996166 -74.832148262445116 0 -74.832148262445116 -8082.6434062599001 0 0 0 -1562.936237040065 1813.4464772057763 -115.95945114076494 0 -115.95945114076494 -8110.2159798800712 0 0 0 -1574.1923756685719 1888.4170527319857 -94.777270198610495 0 -94.777270198610495 -8080.381804621913 0 0 0 -1547.9911879724841 1929.4246963508167 -108.05918500944972 0 -108.05918500944972 -8064.6533903440068 0 0 0 -1533.807173498305 1890.5884138834954 -114.46456755674808 0 -114.46456755674808 -8114.7581037376076 0 0 0 -1556.0424224635208 1932.4872624770105 -103.23904610705358 0 -103.23904610705358 -8157.3586353511491 0 0 0 -1556.2178432185283 1836.2098718952038 -115.63719506791313 0 -115.63719506791313 -8173.2630949170562 0 0 0 -1584.2633057554631 1795.5725265877172 -83.734269442415098 0 -83.734269442415098 -8128.5460342477745 0 0 0 -1583.2433769150102 1828.400367992268 -94.25657141127158 0 -94.25657141127158 -8190.667749539949 0 0 0 -1590.5668453869221 1852.1854725883559 -119.23214572096185 0 -119.23214572096185 -8260.1213130157339 0 0 0 -1601.9839601068497 1914.1734116359439 -79.501854934133007 0 -79.501854934133007 -8214.8898016936146 0 0 0 -1575.1790975144104 1942.4252707316973 -99.557896669371985 0 -99.557896669371985 -8286.8533201900045 0 0 0 -1586.1070123645859 1979.6582873134175 -76.411678725240108 0 -76.411678725240108 -8193.1199707344931 0 0 0 -1553.3654208552762 1974.7843189178275 -90.66925435201847 0 -90.66925435201847 -8203.7060784564164 0 0 0 -1557.23043988465 1935.362324293892 -110.46339314618308 0 -110.46339314618308 -8162.5679275062575 0 0 0 -1556.8014008030877 1981.4825996678701 -112.778903439641 0 -112.778903439641 -8084.7237062804488 0 0 0 -1525.810276653152 2013.0372842018296 -90.921592950966442 0 -90.921592950966442 -8127.6654495151342 0 0 0 -1528.6570413283225 2008.7066391699409 -77.827312381850788 0 -77.827312381850788 -8129.1089978590608 0 0 0 -1530.1005896722781 2041.8328719615383 -81.783429637434892 0 -81.783429637434892 -8179.7791092578555 0 0 0 -1534.4865593240829 2133.8630910784268 -27.017965533595998 0 -27.017965533595998 -8141.040216889116 0 0 0 -1501.7942814526687 2061.2426495357504 -46.392671560693998 0 -46.392671560693998 -8119.7229145426681 0 0 0 -1514.6200662517294 2063.8898629696632 -45.69257249229122 0 -45.69257249229122 -8174.5822382051119 0 0 0 -1527.6730938088585 2160.2481862086315 -18.381994963565376 0 -18.381994963565376 -8203.0362279402616 0 0 0 -1510.6970104329048 2041.0038547958757 -59.119552077798289 0 -59.119552077798289 -8239.3069471271301 0 0 0 -1549.5757730828263 2036.6701223386481 -47.81351266126876 0 -47.81351266126876 -8241.7156896367087 0 0 0 -1551.2613918245333 2037.410839886586 -38.446771787872422 0 -38.446771787872422 -8025.5998527492202 0 0 0 -1497.0472532156641 2078.9662465824294 -38.690557968591747 0 -38.690557968591747 -8011.7914589548018 0 0 0 -1483.2063030930949 2029.7466625269444 -62.711015718086855 0 -62.711015718086855 -8046.4041436007246 0 0 0 -1504.1643702684523 2082.2669502349963 -27.998027250345331 0 -27.998027250345331 -8053.6783983250207 0 0 0 -1492.8528620225188 2068.6205185026702 -35.367696319488459 0 -35.367696319488459 -8064.5299413496978 0 0 0 -1498.9773557117587 2118.9943611782655 -29.255457833971178 0 -29.255457833971178 -8089.5689717487257 0 0 0 -1492.643652642626 2077.8330128815578 -62.524956758370536 0 -62.524956758370536 -8093.8355171993608 0 0 0 -1504.0006260794617 2078.0957263293967 -56.156037077799738 0 -56.156037077799738 -8051.005025716091 0 0 0 -1493.2273248466663 2036.5288005715702 -88.590746583892724 0 -88.590746583892724 -8066.4701639143459 0 0 0 -1507.4853408357012 2027.0142977568103 -77.287199802565738 0 -77.287199802565738 -8088.407694609632 0 0 0 -1515.3483492132145 1988.715007074803 -93.435535378128407 0 -93.435535378128407 -8082.0268545755825 0 0 0 -1523.3279618751985 2002.8651662134434 -94.408396280647139 0 -94.408396280647139 -8044.5262855533801 0 0 0 -1510.4152798349751 2025.6159117374846 -84.180380073579727 0 -84.180380073579727 -7996.5182829565601 0 0 0 -1492.7255928047744 2045.3404187819033 -79.419138974946691 0 -79.419138974946691 -8020.0963158410304 0 0 0 -1493.6889742647763 2035.2335223963692 -71.726952511104173 0 -71.726952511104173 -7990.560178735137 0 0 0 -1488.8316640846806 2004.8781536272145 -91.06002530578553 0 -91.06002530578553 -7967.0506598976353 0 0 0 -1490.5431265676161 2026.2955619551285 -83.838594183063833 0 -83.838594183063833 -7905.2271164245758 0 0 0 -1469.7328886173636 1988.4205632661033 -114.1910915020344 0 -114.1910915020344 -7951.8492954518151 0 0 0 -1490.8571830464207 2030.9177916111075 -91.812625580521853 0 -91.812625580521853 -7976.0377619923675 0 0 0 -1486.279992595315 2006.2358899220999 -106.00493811345552 0 -106.00493811345552 -8033.5535476745863 0 0 0 -1506.8294144381289 1983.7462336500539 -109.16080407485424 0 -109.16080407485424 -8004.2510531984444 0 0 0 -1505.1262048871067 1935.6380679188296 -102.41235441022582 0 -102.41235441022582 -8057.0634476410924 0 0 0 -1530.3563449305657 1963.4597267839345 -99.439461115282029 0 -99.439461115282029 -7991.7386929711793 0 0 0 -1507.0697415468167 1981.1822892504133 -95.207222314413229 0 -95.207222314413229 -7999.3607175942743 0 0 0 -1504.5446070859471 1929.3050069777382 -82.468183806377056 0 -82.468183806377056 -7987.5065315405664 0 0 0 -1514.5503811407252 1896.8820441800854 -75.376596315436245 0 -75.376596315436245 -7972.5889797839045 0 0 0 -1518.9267339009602 1883.821024773315 -111.56941097944218 0 -111.56941097944218 -8019.5039145565825 0 0 0 -1533.920722445815 1954.0873457089547 -69.370318534740363 0 -69.370318534740363 -7963.0191343357365 0 0 0 -1502.23294715667 1822.0745424687484 17.858407115723821 0 17.858407115723821 -8082.3860923533211 0 0 0 -1565.0778874711541 1988.2513402527402 -116.2593643743603 0 -116.2593643743603 -7870.1919286723132 0 0 0 -1470.4851471048969 1964.5949018141982 -110.42286442024488 0 -110.42286442024488 -7975.6958902468032 0 0 0 -1502.7752471081476 1986.61163385745 -105.09060329569911 0 -105.09060329569911 -7970.5916750763072 0 0 0 -1495.9950103047161 2047.7100849839544 -54.531282071111491 0 -54.531282071111491 -7825.1173816759074 0 0 0 -1444.3518241729917 1982.381713817369 -19.902171433481271 0 -19.902171433481271 -7894.8056628965423 0 0 0 -1478.1059872697952 2083.5087333235861 -63.450290940250852 0 -63.450290940250852 -7699.4574216664187 0 0 0 -1403.9871720857118 2045.2966362099905 -110.97890030075359 0 -110.97890030075359 -7859.5111058909679 0 0 0 -1453.5536174202498 2085.1854418457297 4.8786591946191038 0 4.8786591946191038 -7736.8500456552429 0 0 0 -1412.9161509523765 2084.4907596996345 2.9834799417440081 0 2.9834799417440081 -7672.0239328178868 0 0 0 -1396.8832932795704 2160.1441661679683 65.022777990641771 0 65.022777990641771 -7657.7966023849149 0 0 0 -1374.4131090542387 2097.7356909000155 19.416074576867686 0 19.416074576867686 -7780.8389112302684 0 0 0 -1420.7758050825578 2106.5774418568399 6.6729147983714938 0 6.6729147983714938 -7736.9421216806222 0 0 0 -1407.5911699559583 2041.4316738499547 -37.681540326489227 0 -37.681540326489227 -7904.2502832283208 0 0 0 -1465.704652344597 2077.1817567107792 -22.390963780802849 0 -22.390963780802849 -7797.0000346461602 0 0 0 -1429.9545694838453 2078.66953079011 -21.617409388742999 0 -21.617409388742999 -7801.6576222177246 0 0 0 -1430.7470228569073 2039.4311263260679 -74.404146518102607 0 -74.404146518102607 -7931.4085197236564 0 0 0 -1472.9943483493989 2039.6706504041867 -77.127569878575741 0 -77.127569878575741 -7861.6939862393483 0 0 0 -1455.5058339587922 2053.9306376581953 -66.065876606146048 0 -66.065876606146048 -7883.5890611646755 0 0 0 -1457.41460587662 2008.7459260211326 -79.902506281363458 0 -79.902506281363458 -7907.6580158547149 0 0 0 -1474.728022458381 2046.0805866555784 -72.044211389817065 0 -72.044211389817065 -7932.9190071696648 0 0 0 -1471.7096051285262 2065.4951188279956 -54.798393770957773 0 -54.798393770957773 -7972.0938372995006 0 0 0 -1476.649679617869 2038.0083598019992 -46.096856566276983 0 -46.096856566276983 -7948.1516022654832 0 0 0 -1477.5358106158528 2036.0997598619797 -38.398516622495663 0 -38.398516622495663 -7977.0363621005672 0 0 0 -1485.2341505596487 2054.5094499107072 -50.475584447995061 0 -50.475584447995061 -7888.2153209971584 0 0 0 -1458.4264677716128 2055.0223730753423 -27.262449817935703 0 -27.262449817935703 -7876.0115522423002 0 0 0 -1455.2472947917267 2041.3184415364449 -16.342591897773673 0 -16.342591897773673 -7937.3409872109478 0 0 0 -1474.0056364186312 2031.9492116141191 -19.718420402386982 0 -19.718420402386982 -7941.1900327933836 0 0 0 -1477.3102052948234 2037.1491591916056 -22.750834752427181 0 -22.750834752427181 -7935.3939145190525 0 0 0 -1474.5611888318745 2042.5083486739022 -20.8222485908409 0 -20.8222485908409 -7960.2223173170642 0 0 0 -1479.4284921607905 2022.6581559270689 -5.0986931099469075 0 -5.0986931099469075 -7964.0510520318858 0 0 0 -1485.3482240261965 2024.2847744812461 -4.2705658543927711 0 -4.2705658543927711 -7977.0312100372685 0 0 0 -1488.1866088890019 2021.3221708606579 -3.7189032955211587 0 -3.7189032955211587 -7977.1638472466148 0 0 0 -1488.9604190964747 2021.7239697928017 -9.1277651677373797 0 -9.1277651677373797 -7988.099822408898 0 0 0 -1491.5939631540168 2033.422542941451 -14.633803931152215 0 -14.633803931152215 -8002.5743772894784 0 0 0 -1492.287958586996 2045.2220232538011 -23.444128777293372 0 -23.444128777293372 -7976.3990678889495 0 0 0 -1482.7942611587869 2061.3521071683354 -24.483408792337286 0 -24.483408792337286 -7992.6977899644407 0 0 0 -1482.8364206990373 2071.4026936822484 -158.75657822809444 0 -158.75657822809444 -7970.962201092043 0 0 0 -1474.8898768524377 2115.8606863806199 -126.29129190397725 0 -126.29129190397725 -7939.188691198593 0 0 0 -1455.832001204486 2169.1378767599781 -130.74966751487955 0 -130.74966751487955 -7929.386896963857 0 0 0 -1440.0622550509761 2130.1294093797842 -124.2782209108409 0 -124.2782209108409 -7867.0415224920434 0 0 0 -1434.2280282780703 2061.4444238413021 -147.5492415987901 0 -147.5492415987901 -7885.852904017449 0 0 0 -1456.1021200440332 2008.1633476177813 -181.23028443358544 0 -181.23028443358544 -7991.1103973893041 0 0 0 -1495.7367624428807 1999.4539583480291 -148.78916529644448 0 -148.78916529644448 -7975.7402188708365 0 0 0 -1494.0715651306964 2020.7184510788775 -140.83455441258775 0 -140.83455441258775 -8029.8290322880785 0 0 0 -1502.277645302298 1966.4657569554038 -170.44664218151956 0 -170.44664218151956 -8096.2485187280836 0 0 0 -1532.4456904431718 1901.6523678865678 -145.61110970997106 0 -145.61110970997106 -8106.3941984203848 0 0 0 -1551.1854576334545 2071.2300029304461 -118.34730211758506 0 -118.34730211758506 -8058.2889150039555 0 0 0 -1496.7647280183737 2085.439594660369 -148.62846034395625 0 -148.62846034395625 -8051.2654644266586 0 0 0 -1491.4564674415742 2042.3401503949708 -160.57256219100236 0 -160.57256219100236 -7980.1528142598399 0 0 0 -1484.453165966218 2125.1634322858736 -131.48151404288291 0 -131.48151404288291 -7932.9676076653996 0 0 0 -1451.9510438448924 2177.7220440635938 -107.98397134798142 0 -107.98397134798142 -8006.9781347579556 0 0 0 -1457.3140226735923 2191.5040997951073 -107.92290910742304 0 -107.92290910742304 -7965.5763189855788 0 0 0 -1443.5180547976124 2317.8842204739631 -34.218038189341314 0 -34.218038189341314 -7461.2962789745943 0 0 0 -1285.8530146251505 2219.1144938920406 -42.872034039814025 0 -42.872034039814025 -8375.3585055783333 0 0 0 -1539.0610029215677 2378.573584648133 -68.356961630430305 0 -68.356961630430305 -7903.8812396747817 0 0 0 -1381.3269137566604 1905.735014694239 100.45559243185562 0 100.45559243185562 -7697.9023445331695 0 0 0 -1448.0418324597358 1814.9391004472564 199.09015345196238 0 199.09015345196238 -8042.4172614557319 0 0 0 -1556.8695402521262 2301.1653890898815 -235.24680972316128 0 -235.24680972316128 -7938.0132869797235 0 0 0 -1409.211974472466 -3.5119438054848899 -5.6663019920958604 0 -5.6663019920958604 -11.831981164880403 0 0 0 -3.8359812425913304 2094.9614029507138 -82.344774824567139 0 -82.344774824567139 -7920.8722500208678 0 0 0 -1456.4777117675403 1957.8111023160636 -33.095208485610783 0 -33.095208485610783 -8305.0508684842935 0 0 0 -1586.8099415420547 1966.5009463431197 -134.856545600971 0 -134.856545600971 -7597.525081302636 0 0 0 -1407.7560337398827 -3.3614115308222523 -6.0247324910602345 0 -6.0247324910602345 -11.781803728131024 0 0 0 -3.7858038147383297 2234.7010320053087 152.5309598935346 0 152.5309598935346 -7875.1028743367933 0 0 0 -1410.1004605828639 1904.0547336389754 -262.32651395301946 0 -262.32651395301946 -7959.7376379036868 0 0 0 -1513.9207260661824 -3.8650125033590257 -6.2059207289106979 0 -6.2059207289106979 -11.949670709715633 0 0 0 -3.9536708032686931 2134.4644805552216 68.327945849880052 0 68.327945849880052 -7586.946540726929 0 0 0 -1363.120515042925 2170.9688186711574 -69.930780600562684 0 -69.930780600562684 -7879.1156733169046 0 0 0 -1427.0367136614295 2224.7227006720459 -30.941112148568209 0 -30.941112148568209 -7371.0203778840514 0 0 0 -1286.5744193029932 2148.6069023331293 -107.74871960744349 0 -107.74871960744349 -7824.4048213084752 0 0 0 -1418.9494797438383 2057.1379130947262 -57.922732242273923 0 -57.922732242273923 -7891.2613506997586 0 0 0 -1458.5308594012513 2314.4917742363541 -28.477226382228764 0 -28.477226382228764 -7731.4891949665034 0 0 0 -1354.2493551825391 2160.8072269029562 -107.70376765434776 0 -107.70376765434776 -7820.5231587206872 0 0 0 -1414.9289829544305 2186.4881088273323 -269.98569027809572 0 -269.98569027809572 -7832.9079771793622 0 0 0 -1411.6049670880093 2172.7280609546215 -21.839291445532581 0 -21.839291445532581 -8223.4007038605341 0 0 0 -1512.6681607264618 2008.0168703434965 63.576818448542326 0 63.576818448542326 -7851.9347226650752 0 0 0 -1460.9794630803963 2046.6659815704988 173.4130436787018 0 173.4130436787018 -7976.9607525782485 0 0 0 -1482.5736927519392 -1.9728385999491991 -6.248604857211717 0 -6.248604857211717 -11.318946067432023 0 0 0 -3.3229461668453126 2199.8896883569541 220.60931077237183 0 220.60931077237183 -7749.3495313823514 0 0 0 -1387.364960756342 2158.5452015270125 -262.32411935418349 0 -262.32411935418349 -7939.8815395387946 0 0 0 -1445.3340845029527 2187.3540305792485 -157.00414352946427 0 -157.00414352946427 -7460.4292411764909 0 0 0 -1318.2688026493051 2115.6499533343012 52.336141282241442 0 52.336141282241442 -7423.5096492503508 0 0 0 -1326.9649239790087 -9.049272524280255 -6.1613161318355125 0 -6.1613161318355125 -13.67775736742891 0 0 0 -5.6817574729272877 2281.586958779706 138.83211597782793 0 138.83211597782793 -7614.7524616528244 0 0 0 -1333.2913757182687 2206.4148514403059 40.353189965739148 0 40.353189965739148 -7869.9107112303318 0 0 0 -1415.8739649475174 2143.1298151641931 -16.010546213572525 0 -16.010546213572525 -7621.5955264825607 0 0 0 -1369.616427829591 2176.4615965197008 95.545734119528788 0 95.545734119528788 -7313.1440561662166 0 0 0 -1284.1706149116217 2253.0789861601588 -179.91214395766639 0 -179.91214395766639 -7427.5683903010795 0 0 0 -1293.6223510352283 2121.0832270870742 -59.532434828448459 0 -59.532434828448459 -7777.8227225997107 0 0 0 -1414.1848738781628 2159.3933744220776 -78.895662797174737 0 -78.895662797174737 -7618.7169059489825 0 0 0 -1364.8308828817171 2034.3756550434919 -70.10720211529042 0 -70.10720211529042 -7688.0478540540935 0 0 0 -1413.4180497526395 2074.2378496043384 -40.476042438327568 0 -40.476042438327568 -7689.7948425130744 0 0 0 -1403.8892482271767 2093.8899621021701 -40.604482766588475 0 -40.604482766588475 -7630.8346145953255 0 0 0 -1384.2361631232852 2071.6709353155529 -62.779430163518555 0 -62.779430163518555 -7783.2247000261414 0 0 0 -1427.8884411776526 2102.923555350164 -69.54809060329535 0 -69.54809060329535 -7684.2222726617765 0 0 0 -1395.3246793279031 2089.4771606947907 -123.94160563012338 0 -123.94160563012338 -7786.1868585943012 0 0 0 -1424.177424474874 2075.0858381731468 -128.9668147690536 0 -128.9668147690536 -7884.662359901532 0 0 0 -1452.3941304321033 2150.5979723784403 -84.659367217831459 0 -84.659367217831459 -7750.0363169912598 0 0 0 -1399.8595861532085 2032.8021659488077 -153.20524345012927 0 -153.20524345012927 -7777.2552470496157 0 0 0 -1436.1132702752002 2024.8065048980386 -165.5892188353755 0 -165.5892188353755 -7897.5970265482974 0 0 0 -1468.1976304125676 2030.5074245707692 -119.11066948085136 0 -119.11066948085136 -7721.9199772280408 0 0 0 -1422.8531381643188 2050.289412013065 -114.34655846377427 0 -114.34655846377427 -7800.3897542319828 0 0 0 -1437.5250855547283 2008.6144461648073 -130.41569824600447 0 -130.41569824600447 -7771.5481525304203 0 0 0 -1440.7334265914033 2048.2183933103588 -66.165166081627831 0 -66.165166081627831 -7648.9157958751457 0 0 0 -1400.1743506412022 2004.8693245989889 -55.924485126357467 0 -55.924485126357467 -7567.0501116222877 0 0 0 -1390.5451967558256 1981.4938897777392 -67.211374245962361 0 -67.211374245962361 -7626.5540783823817 0 0 0 -1411.2650471511661 1999.3127370802213 -63.265294174016162 0 -63.265294174016162 -7426.135238427858 0 0 0 -1356.7056253369083 1936.9242255121135 -116.52177845180631 0 -116.52177845180631 -7614.5474261838535 0 0 0 -1419.4058001679296 2010.8655469829937 -101.74299190984675 0 -101.74299190984675 -7650.0746217953856 0 0 0 -1409.8022687031007 1997.271588704828 -117.28020172390097 0 -117.28020172390097 -7643.8813811812361 0 0 0 -1411.6524481190982 1926.3871878394239 -3.2078573501589602 0 -3.2078573501589602 -7227.1876227135217 0 0 0 -1325.2001087185272 1887.7911454977304 -97.192614718853292 0 -97.192614718853292 -7341.7910646344826 0 0 0 -1363.4999797841872 1966.4025663145148 -60.719560496635495 0 -60.719560496635495 -7481.5617873255978 0 0 0 -1378.7898052527707 1912.9236212091091 -136.82480268563268 0 -136.82480268563268 -7772.0759344421967 0 0 0 -1464.7880783082692 1918.72945610231 -176.63441795732069 0 -176.63441795732069 -7642.6527010188584 0 0 0 -1430.9808112291412 1909.2310615330716 -188.94310160027817 0 -188.94310160027817 -7881.2873844044225 0 0 0 -1493.0140807178359 1894.7400052336016 -156.42037660722872 0 -156.42037660722872 -8004.8733685943007 0 0 0 -1527.5333408401784 1851.9666060812924 -164.34838447246148 0 -164.34838447246148 -7808.2207632721111 0 0 0 -1489.0635392977019 1949.3768142816043 -183.25999069275713 0 -183.25999069275713 -7752.2909115790317 0 0 0 -1450.7285243243605 1963.5948497260724 -149.61928155069472 0 -149.61928155069472 -7825.3796889834193 0 0 0 -1465.4462098143376 2018.04673664863 -155.06434881008499 0 -155.06434881008499 -7874.9165033405006 0 0 0 -1464.2174416729722 1959.6112504442208 -179.76163141104917 0 -179.76163141104917 -7909.5044060949876 0 0 0 -1487.4732889126899 1949.4767382445134 -179.20619585709937 0 -179.20619585709937 -8061.9817167333822 0 0 0 -1528.1262446222172 1930.3563176871394 -149.71370201105674 0 -149.71370201105674 -7996.2562268818438 0 0 0 -1516.4749772986688 1901.8651587852 -165.6486566242711 0 -165.6486566242711 -8107.7283145722322 0 0 0 -1551.4657889467489 1957.5054167252529 -184.46684333066878 0 -184.46684333066878 -7993.0109340488561 0 0 0 -1508.8763793308972 1874.0961974075763 -154.9213091419806 0 -154.9213091419806 -8006.8150589969227 0 0 0 -1533.1797153973384 1934.0767740866431 -135.75749435295256 0 -135.75749435295256 -7973.4876425546827 0 0 0 -1509.8527171170208 1812.1348611735029 -123.0867792111203 0 -123.0867792111203 -8021.4457528574039 0 0 0 -1552.3277229209725 1776.573673602521 -96.734237061116801 0 -96.734237061116801 -8199.0406484810519 0 0 0 -1605.6167437196345 1847.6427947533448 -151.01740023027378 0 -151.01740023027378 -8112.4263443369709 0 0 0 -1566.1958873959011 1821.9059755630587 -132.07476408063667 0 -132.07476408063667 -8202.5181168824347 0 0 0 -1595.153035329844 1734.2487866356732 -92.862562008431269 0 -92.862562008431269 -8174.8068648405315 0 0 0 -1610.1395195512177 1719.4402320692971 -54.385493272528493 0 -54.385493272528493 -8274.9013364290659 0 0 0 -1638.8652760899422 1770.6598390893769 -60.52416896408613 0 -60.52416896408613 -8241.947095425614 0 0 0 -1617.821814084059 1808.9510459633821 -129.83966938481899 0 -129.83966938481899 -8217.4782186848461 0 0 0 -1602.1317931803642 1862.5230622565066 -101.56472841475625 0 -101.56472841475625 -8157.1543299433042 0 0 0 -1573.657816921703 1899.2711978849984 -155.84558767706039 0 -155.84558767706039 -8149.1561158339318 0 0 0 -1562.4712294872443 1934.4757896308502 -133.24852499704139 0 -133.24852499704139 -8068.3077707503562 0 0 0 -1533.4579952798749 1846.5463730855763 -120.84053927032801 0 -120.84053927032801 -8107.177319169492 0 0 0 -1565.157736520975 1057.9852723729346 87.879582661047607 0 87.879582661047607 -8808.1428733189314 0 0 0 -1937.5394002364956 -3.5738230172975705 10.866778023712818 0 10.866778023712818 -11.847273595089291 0 0 0 -3.8552741530967154 1142.6157253015317 -116.2690068112388 0 -116.2690068112388 -8355.8860519727277 0 0 0 -1803.3175816677995 1316.769818624497 275.32528991171057 0 275.32528991171057 -8393.2686070521668 0 0 0 -1769.1246971069186 1452.5955030890618 36.741987039750711 0 36.741987039750711 -7930.331195200939 0 0 0 -1619.4339230279693 1528.1441412732493 3.6563301578717073 0 3.6563301578717073 -8312.6970783384095 0 0 0 -1696.1382342662837 1403.8528112774984 -53.050222895522893 0 -53.050222895522893 -8302.9943800494511 0 0 0 -1724.7853921929891 1692.8159546321203 -98.123546320759488 0 -98.123546320759488 -8184.1363789310926 0 0 0 -1622.8301060747472 1561.8240361681164 -107.51037484943663 0 -107.51037484943663 -8752.0458612623261 0 0 0 -1797.5554562735524 1679.710308030546 -84.13781495589501 0 -84.13781495589501 -8188.0958513064543 0 0 0 -1627.0963858189753 1505.6538951340144 -155.40211060842557 0 -155.40211060842557 -8173.0423125322013 0 0 0 -1666.8471043495529 1695.8147571065965 -53.77903788106596 0 -53.77903788106596 -8017.6359934155334 0 0 0 -1580.4553090772388 1584.2744261062217 -10.979806580859986 0 -10.979806580859986 -7621.0933601567522 0 0 0 -1509.2047335126372 1490.4324112898794 216.74726790700515 0 216.74726790700515 -8031.6360025550457 0 0 0 -1635.3008978162979 1175.765098276157 374.90743333925093 0 374.90743333925093 -8046.6737120630714 0 0 0 -1717.7271534467291 1704.7354040088248 -21.156633408814741 0 -21.156633408814741 -7898.7712784499308 0 0 0 -1548.5089686102765 -3.886924879831497 10.208807937036646 0 10.208807937036646 -11.951640692090564 0 0 0 -3.9596413929805152 1330.9982293964422 -257.67788488683073 0 -257.67788488683073 -8213.3502491658655 0 0 0 -1720.588004942354 1562.8873275005244 379.37842134130773 0 379.37842134130773 -8385.1950483074033 0 0 0 -1705.5769302017216 -3.4212033913046866 10.758662942222081 0 10.758662942222081 -11.796400290497218 0 0 0 -3.8044009204504903 1702.565346331874 -96.691888271245261 0 -96.691888271245261 -8239.516295617148 0 0 0 -1634.237737321313 -2.0912873257516651 9.582400975536558 0 9.582400975536558 -11.353094747417231 0 0 0 -3.3610955182922169 1706.12207599045 -378.44776001409991 0 -378.44776001409991 -7779.6108550550052 0 0 0 -1518.3721947661288 1948.8943555264605 311.29250728957413 0 311.29250728957413 -8181.4870461918299 0 0 0 -1558.1481726663433 1850.1756077447881 177.28496805807845 0 177.28496805807845 -7363.6419773456946 0 0 0 -1378.3665924002289 1861.8881693460507 -104.52890306695917 0 -104.52890306695917 -7982.6258953858523 0 0 0 -1530.184431509947 1894.6760706441673 -133.85189516546689 0 -133.85189516546689 -7781.7497455993434 0 0 0 -1471.7684187388004 1745.1479533937709 -16.081506829777936 0 -16.081506829777936 -8505.8294858512963 0 0 0 -1690.1703831143786 1696.2902635057735 -261.61711848684354 0 -261.61711848684354 -7870.2076577715279 0 0 0 -1543.4793485664441 1856.5405204999443 -152.31269915625307 0 -152.31269915625307 -7398.8178062448715 0 0 0 -1385.5693214362291 1820.9008989360918 -152.05031944433358 0 -152.05031944433358 -7044.8464527627657 0 0 0 -1305.9863884566694 1970.8419557223187 133.52716748947205 0 133.52716748947205 -7142.1786945568256 0 0 0 -1292.8341847086322 1886.772994755971 89.841330267444391 0 89.841330267444391 -7232.8637771686554 0 0 0 -1336.5226956031729 1916.3562570781464 -59.514518812346068 0 -59.514518812346068 -7382.7815982516922 0 0 0 -1366.606335293382 1916.4923216302013 -118.02421172285176 0 -118.02421172285176 -7257.4562967663878 0 0 0 -1335.2409937840494 -8.7372549339974626 9.1446800052900556 0 9.1446800052900556 -13.568417191746278 0 0 0 -5.5764180314359209 2004.0433415613988 -114.1063050370071 0 -114.1063050370071 -7258.5440915081563 0 0 0 -1313.6251874866903 1901.9391817984706 -98.778211453543918 0 -98.778211453543918 -7252.1335814712147 0 0 0 -1337.5485999181874 1965.3693659821956 -62.950205554127024 0 -62.950205554127024 -7259.1406157904585 0 0 0 -1323.4428124520628 1697.957973687995 -45.042616559474482 0 -45.042616559474482 -7038.5225339041936 0 0 0 -1335.141140054051 1833.8724088977906 38.07144118540964 0 38.07144118540964 -7703.2251865440703 0 0 0 -1467.3381944115699 1690.2453927169042 -24.246254634872457 0 -24.246254634872457 -7343.1443149738634 0 0 0 -1413.2247305642379 1765.2695456422698 -105.7389185211141 0 -105.7389185211141 -7368.7539464381189 0 0 0 -1400.8711001989577 1799.0162132120067 57.920022980724752 0 57.920022980724752 -7778.02534231342 0 0 0 -1494.7522822753544 1493.2386178796487 595.2652185282526 0 595.2652185282526 -8695.3581283357998 0 0 0 -1800.5298776140353 1727.8271118144348 161.72288601051127 0 161.72288601051127 -7285.7200791090872 0 0 0 -1389.4732418236599 1559.9920415175784 565.35613124497104 0 565.35613124497104 -8357.2344608757903 0 0 0 -1699.310604839553 1181.8551586011272 591.79077445565792 0 591.79077445565792 -8296.4600452382074 0 0 0 -1778.6512216592728 915.32486222163334 1191.8552378785671 0 1191.8552378785671 -8820.9851564116834 0 0 0 -1976.4150735475123 906.39607050443919 816.85915887458214 0 816.85915887458214 -8603.1279015225737 0 0 0 -1924.1829577545341 1257.1376804695687 329.90761129409475 0 329.90761129409475 -8248.1945499381909 0 0 0 -1747.7642173671534 1676.4429011314478 258.80482944331879 0 258.80482944331879 -8132.3038285389339 0 0 0 -1613.9652318518729 1585.8482104837476 173.59646808346406 0 173.59646808346406 -7700.8756924525151 0 0 0 -1528.7568704921923 -1119.9419257184184 2674.0550601728937 0 2674.0550601728937 -9289.427074790563 0 0 0 -2602.3422501272453 -3688.53549286411 3700.7244027159759 0 3700.7244027159759 -11093.949043929306 0 0 0 -3695.621134198354 -877.33766581501345 3037.0518758579565 0 3037.0518758579565 -14506.317418047425 0 0 0 -3845.9137709656097 2722.0807881895253 967.41762316039694 0 967.41762316039694 -9745.458738187308 0 0 0 -1755.8444874994457 -595.87627569789038 2579.3511415662088 0 2579.3511415662088 -11117.3518915268 0 0 0 -2928.3070418061729 1709.8277043978524 1296.7770622343523 0 1296.7770622343523 -8794.3850961195676 0 0 0 -1771.1393479304279 1344.1701942829432 966.97137084386668 0 966.97137084386668 -9464.1446880649128 0 0 0 -2029.9936234454926 1191.5936886716008 819.52677730716641 0 819.52677730716641 -8674.0502547769938 0 0 0 -1870.6141415263473 1759.859925096705 277.32349039154269 0 277.32349039154269 -7681.0317412511431 0 0 0 -1480.292954038609 1180.3751404634318 954.17386031948172 0 954.17386031948172 -8385.0717492126932 0 0 0 -1801.174152187315 -202.26506434537669 1456.6562783842446 0 1456.6562783842446 -8669.4395895573834 0 0 0 -2217.9261634756886 -1327.6930029143684 2252.0841304696314 0 2252.0841304696314 -8957.6214310714004 0 0 0 -2571.328608496442 363.51920864569615 1962.5739715755831 0 1962.5739715755831 -9561.3173333348459 0 0 0 -2299.4495311722867 -557.56026952201364 1928.6407725447966 0 1928.6407725447966 -8651.7806227259935 0 0 0 -2302.3352230620017 -1289.5114274003317 2750.5884144594047 0 2750.5884144594047 -9322.2439485929008 0 0 0 -2652.938843998309 -2812.8576483972683 2466.0923167447481 0 2466.0923167447481 -8443.3758876794545 0 0 0 -2814.0583840191807 -2817.0705299414212 2467.8802013156192 0 2467.8802013156192 -8444.7793039187727 0 0 0 -2815.4624584650483 -2602.1904450318066 1698.3634895448099 0 1698.3634895448099 -7805.8155510359356 0 0 0 -2602.0014990169352 -1372.1241596728105 1902.9632766172447 0 1902.9632766172447 -7799.4541972734005 0 0 0 -2292.8945892365532 -1177.9208596816088 1509.0372553086147 0 1509.0372553086147 -7952.0622111490065 0 0 0 -2282.4957677076536 -1806.1007712677363 1808.3842828015133 0 1808.3842828015133 -7920.8560157880538 0 0 0 -2431.7391967639478 -1189.7847146634776 1678.2433291623456 0 1678.2433291623456 -8472.2024131760663 0 0 0 -2415.4967819598864 37.820799871762574 1596.2117266343489 0 1596.2117266343489 -8126.6900193596011 0 0 0 -2022.2173048719596 -338.31716274707469 1283.7949099715418 0 1283.7949099715418 -8118.6548154794145 0 0 0 -2114.2429945566237 -437.15962211942497 1261.5341800270137 0 1261.5341800270137 -8406.6115234246681 0 0 0 -2210.9427863860237 -980.29680477883176 1374.6178031875775 0 1374.6178031875775 -8325.7676026447443 0 0 0 -2326.5161018558938 -1075.7118376150618 1077.7707531647529 0 1077.7707531647529 -8312.8004661598006 0 0 0 -2347.1280759437141 -448.18020841565703 1064.9813582926918 0 1064.9813582926918 -8103.5152618358225 0 0 0 -2137.9238675628694 -1393.7306920992032 1197.4825116958777 0 1197.4825116958777 -8134.2578784184579 0 0 0 -2381.997142629416 -1937.9643977574879 1503.7423304523363 0 1503.7423304523363 -8075.7553252290818 0 0 0 -2503.4299307466417 -1626.9397139586977 1411.3695435592517 0 1411.3695435592517 -7913.9161462953261 0 0 0 -2385.2139650635058 -2017.0818283497902 1241.8426379120056 0 1241.8426379120056 -7701.4709548768615 0 0 0 -2429.6381958066627 -2588.7494965773958 1416.1633637025582 0 1416.1633637025582 -7767.784406994906 0 0 0 -2589.1334758930752 -1767.1056199726559 1542.3419491722668 0 1542.3419491722668 -7510.1285075794849 0 0 0 -2319.3085318880353 1012.635180993806 594.09145492866446 0 594.09145492866446 -8346.2215289190935 0 0 0 -1833.3965869813219 689.60414271874106 673.43105968472446 0 673.43105968472446 -8429.7580139968377 0 0 0 -1935.0384678195223 1122.9067827911313 314.05591804037067 0 314.05591804037067 -8394.9868106060603 0 0 0 -1818.020006953735 1420.4635390708336 419.53725107314858 0 419.53725107314858 -8248.1489206063634 0 0 0 -1706.921345383882 424.43005173208803 904.6962217928376 0 904.6962217928376 -8372.3126091543454 0 0 0 -1986.9706393555643 473.97791264439275 1231.7495166436984 0 1231.7495166436984 -8351.326064525565 0 0 0 -1969.3370379702919 759.35799621212755 833.38341312619912 0 833.38341312619912 -8315.745959335989 0 0 0 -1889.0969907809649 340.83408117717954 796.84895942568073 0 796.84895942568073 -8269.1191863850108 0 0 0 -1982.0712763019565 11.225097859819471 903.63014886092697 0 903.63014886092697 -8398.4221707250726 0 0 0 -2096.7992682163122 -18.51081282018913 1150.5122381640704 0 1150.5122381640704 -8260.1079004876483 0 0 0 -2069.6546783269614 -365.41873347240198 869.60098711373575 0 869.60098711373575 -8471.4254542386807 0 0 0 -2209.2110469277695 614.00744320698323 558.3862935038087 0 558.3862935038087 -8342.3250553554244 0 0 0 -1932.0794030371126 284.37967191747884 636.74772626872289 0 636.74772626872289 -8419.4847659606021 0 0 0 -2033.7762735107826 1118.872516831656 340.1445041061445 0 340.1445041061445 -8432.6736383133903 0 0 0 -1828.4502803704381 661.45895213830954 323.97090634223605 0 323.97090634223605 -8299.7633684211833 0 0 0 -1909.5761040707221 425.40258965651537 408.71404375497877 0 408.71404375497877 -8438.8367311599504 0 0 0 -2003.3585353758544 460.2265326744855 435.43347036098203 0 435.43347036098203 -8342.5389286496866 0 0 0 -1970.5780989938012 174.68259417735317 452.63807259410532 0 452.63807259410532 -8437.7202414820495 0 0 0 -2065.759411826175 608.68024518648599 288.6613366231868 0 288.6613366231868 -8380.7720056050021 0 0 0 -1943.022940104629 6.5175783809772838 405.8996815912069 0 405.8996815912069 -8391.3778384992838 0 0 0 -2096.2150650295753 69.675704600193512 589.51107293772657 0 589.51107293772657 -8468.9779579117949 0 0 0 -2099.8255633279036 139.13239561084993 630.78844485945365 0 630.78844485945365 -8313.9930749866471 0 0 0 -2043.7151698439484 -364.65490878837409 823.39128368515594 0 823.39128368515594 -8186.7710345868636 0 0 0 -2137.8564858438094 -697.18315481581249 828.66283019167304 0 828.66283019167304 -8297.7737181919274 0 0 0 -2248.7392182519352 -156.54898518877246 664.69836949115052 0 664.69836949115052 -8408.8746687362272 0 0 0 -2141.3559134812476 -410.08900447857013 555.15367195076396 0 555.15367195076396 -8376.4517920662511 0 0 0 -2196.6351991362062 -333.23385642684661 588.38716030291835 0 588.38716030291835 -8356.4075184104004 0 0 0 -2172.4103437093108 -716.74206640820285 575.01133584921354 0 575.01133584921354 -8226.7200858144461 0 0 0 -2235.8655380556629 -804.50244640604615 452.39818110510987 0 452.39818110510987 -8423.4400482074998 0 0 0 -2306.9856236533869 -150.30967087842419 336.27139605315097 0 336.27139605315097 -8464.1500300373082 0 0 0 -2153.6149252289315 -189.26207028455974 226.6711940623145 0 226.6711940623145 -8465.4434450002154 0 0 0 -2163.6763788211974 -9.8158275719251833 253.22010856678025 0 253.22010856678025 -8525.2331427979807 0 0 0 -2133.7622425924746 -367.80366414226955 338.2820597509326 0 338.2820597509326 -8512.9536068070429 0 0 0 -2220.1893177373277 59.588125613518059 452.04933729918423 0 452.04933729918423 -8401.7963877025613 0 0 0 -2085.5520655222626 -2083.6464443572377 957.17570916846284 0 957.17570916846284 -7762.1951316243767 0 0 0 -2461.4603939954036 -2036.3152629898616 827.93627937343945 0 827.93627937343945 -7740.1828566219683 0 0 0 -2444.1245299029574 -2059.7961210382732 1110.2128876667368 0 1110.2128876667368 -7697.082320959993 0 0 0 -2439.219610499566 -2554.9282501818411 1040.8001122346163 0 1040.8001122346163 -7665.1624708083391 0 0 0 -2555.0226802475449 -1629.4980756969053 1026.341307025572 0 1026.341307025572 -7822.6492607478103 0 0 0 -2363.0368341111789 -1104.3531749517756 913.80715829116161 0 913.80715829116161 -7892.3629292975293 0 0 0 -2249.1790260623261 -1713.7646657650257 998.30495784735081 0 998.30495784735081 -8062.5944593741679 0 0 0 -2444.0897812847979 -951.85552721230215 1072.5805427658006 0 1072.5805427658006 -7914.6710134246396 0 0 0 -2216.6316351592359 -1182.9621927638545 721.66576863150567 0 721.66576863150567 -8235.9850430786355 0 0 0 -2354.7368089606225 -1198.5493361086446 618.52028495767991 0 618.52028495767991 -8093.0210962780238 0 0 0 -2322.8926080966676 -1130.4758084707521 682.63321185389941 0 682.63321185389941 -8217.051392396239 0 0 0 -2336.8818002167473 -1187.6794696248508 455.29114336061321 0 455.29114336061321 -8341.5546691360687 0 0 0 -2382.3085346902308 -1281.1426338917133 636.10696416930296 0 636.10696416930296 -8119.1259589729507 0 0 0 -2350.0671482161679 -1685.179279822265 505.70139697271134 0 505.70139697271134 -8133.7571598031991 0 0 0 -2454.734109906366 -1720.6580560276236 786.80452343922752 0 786.80452343922752 -8147.6924711571673 0 0 0 -2467.0876317961975 -1786.6606441287768 670.59623289763522 0 670.59623289763522 -7896.1972598251759 0 0 0 -2420.7144759884877 -2056.4042278317893 633.47840605742067 0 633.47840605742067 -7995.9595663544096 0 0 0 -2513.090948546549 -1985.8245728527072 605.55593870226312 0 605.55593870226312 -7674.8237566431899 0 0 0 -2415.162082373974 -2617.5660265192832 654.51610673944265 0 654.51610673944265 -7853.2696422078661 0 0 0 -2617.708917181787 -2675.4423363343135 197.57546161901345 0 197.57546161901345 -8025.5423223752123 0 0 0 -2675.2461646773818 -2649.9372649729016 434.7009019588964 0 434.7009019588964 -7951.4116949181398 0 0 0 -2650.3372399727605 -2020.9427593390146 369.46935292328703 0 369.46935292328703 -7765.9470719606725 0 0 0 -2446.7224578249215 -2066.8721796649293 279.49134587970161 0 279.49134587970161 -8117.1753099482557 0 0 0 -2546.0118724032959 -1689.0456445188456 436.97620021131797 0 436.97620021131797 -8134.5392410183094 0 0 0 -2455.8962213842892 -1258.2310954869508 426.20052407496723 0 426.20052407496723 -8357.3086189858768 0 0 0 -2403.8849286182058 -1384.9524070911484 272.68688354589904 0 272.68688354589904 -8242.1466885280352 0 0 0 -2406.7747739047963 -1351.0581215311813 210.52767467828517 0 210.52767467828517 -8460.5545913187307 0 0 0 -2452.9031782124766 -1333.6876761213935 263.38405374295144 0 263.38405374295144 -8221.7373279320127 0 0 0 -2388.8562510133515 -1470.8507378786544 52.907134701823452 0 52.907134701823452 -8290.6365576572498 0 0 0 -2440.3718238839756 -1705.8606097092393 -34.70076509757746 0 -34.70076509757746 -8409.888979960826 0 0 0 -2528.9373974175164 -1862.10122693927 97.685693583018292 0 97.685693583018292 -8374.864984868891 0 0 0 -2559.2415529520408 -2086.1717105013768 113.59387114247373 0 113.59387114247373 -7915.8815327320908 0 0 0 -2500.5133108083669 -1944.5418509942065 243.0100844826311 0 243.0100844826311 -8070.4965043012508 0 0 0 -2503.7595888238648 -2729.1167916581717 -28.215496751437964 0 -28.215496751437964 -8189.5123349092783 0 0 0 -2729.657281641862 -542.76264103832727 280.39684747284809 0 280.39684747284809 -8525.9267046835485 0 0 0 -2267.1723364304689 -312.10536830655474 181.93800885303972 0 181.93800885303972 -8558.2737172584784 0 0 0 -2217.594771391261 -502.01789526682114 251.71130843169158 0 251.71130843169158 -8506.8011818355517 0 0 0 -2252.2047692755932 -479.90100566275396 424.99283700013723 0 424.99283700013723 -8336.5159787590237 0 0 0 -2204.104246105444 -907.19256079081606 301.13995001938565 0 301.13995001938565 -8334.1946349931004 0 0 0 -2310.3467989459787 -961.73233556724063 294.42230959236167 0 294.42230959236167 -8496.5706386529164 0 0 0 -2364.5757435550377 -615.91810218907267 213.78534272215984 0 213.78534272215984 -8487.5809907877447 0 0 0 -2275.8747732442043 -872.14748140345182 189.06556200216164 0 189.06556200216164 -8577.6075441080975 0 0 0 -2362.4387563778873 -1357.1700220379371 198.11509530753028 0 198.11509530753028 -8452.8338356172681 0 0 0 -2452.5009644138008 -1110.4161187312975 16.814316736988985 0 16.814316736988985 -8566.8543408578444 0 0 0 -2419.3176148972852 -1049.4270474956957 26.251442624846277 0 26.251442624846277 -8550.9725089144631 0 0 0 -2400.0998891025411 -567.66942650704505 117.13713507444299 0 117.13713507444299 -8639.3047972621134 0 0 0 -2301.7435559422879 -537.58395885205937 194.62434161934993 0 194.62434161934993 -8617.1028401381191 0 0 0 -2288.6716997475469 -226.50571418845539 207.91398249446502 0 207.91398249446502 -8755.1833529707183 0 0 0 -2245.422266789792 -363.35009738503584 321.57676799815454 0 321.57676799815454 -9129.7929094150295 0 0 0 -2373.2857517000148 1627.6537955693493 -231.76136623583079 0 -231.76136623583079 -8493.0801963369304 0 0 0 -1716.3566001918953 -447.61343605977345 552.14210724401573 0 552.14210724401573 -8340.8222727143657 0 0 0 -2197.1089271935361 -0.17330447504208735 1.967497550813875 0 1.967497550813875 -7.3375079755122101 0 0 0 -1.8777031126385708 -142.95906204690391 -71.977978174090822 0 -71.977978174090822 -7983.1887367975523 0 0 0 -2031.536949711111 -422.15974107346119 81.323026632122492 0 81.323026632122492 -8642.3749109174678 0 0 0 -2266.1336629977304 -4.1880847196480318 5.2373229939837094 0 5.2373229939837094 -12.052027935888532 0 0 0 -4.0600281638841551 5.6426651066794875 -161.81049994651039 0 -161.81049994651039 -8523.1576723823964 0 0 0 -2129.3787518189311 -3.4375137456953411 7.459550509546677 0 7.459550509546677 -11.801837482082021 0 0 0 -3.8098378069443299 -41.589265538115797 78.256343138100419 0 78.256343138100419 -9065.1743476056545 0 0 0 -2276.6909032859367 172.23260545235826 157.06315503657606 0 157.06315503657606 -8478.9538696831842 0 0 0 -2076.6803160577037 1406.9391009427382 54.266081310233858 0 54.266081310233858 -8442.974388390634 0 0 0 -1759.0088218619749 1305.6386641907284 -182.58439224986432 0 -182.58439224986432 -8471.1450336150774 0 0 0 -1791.3765923560877 1318.7047957769191 90.94604520541543 0 90.94604520541543 -8878.6032968657019 0 0 0 -1889.9746252721907 1390.1270198083294 411.1461696928871 0 411.1461696928871 -8293.1698996752602 0 0 0 -1725.7607199667327 1108.3356269916512 12.123013873720993 0 12.123013873720993 -8523.7638742737545 0 0 0 -1853.8570618205231 1202.3394295969447 -16.204194776550139 0 -16.204194776550139 -7916.9671274734392 0 0 0 -1678.6569244691236 1276.7588368408396 27.948302460117702 0 27.948302460117702 -9098.9617762207854 0 0 0 -1955.5507348449883 1005.430087731329 -141.12832254135355 0 -141.12832254135355 -8588.3332008762955 0 0 0 -1895.7257782862434 1187.8258442721453 47.361652917916217 0 47.361652917916217 -8468.0827527492074 0 0 0 -1820.0642271192628 1265.3265401277586 -48.347956055178656 0 -48.347956055178656 -8647.3311264584663 0 0 0 -1845.5011465826738 1268.1728326629309 29.589975592629344 0 29.589975592629344 -8696.1111624946352 0 0 0 -1856.9845824579261 1421.0245033426618 43.331238904340353 0 43.331238904340353 -8630.938507363011 0 0 0 -1802.4785010050873 1300.5517181254552 -29.034066087737301 0 -29.034066087737301 -8854.3737015983734 0 0 0 -1888.4554958682268 1485.9098163050039 -1.3344968687461005 0 -1.3344968687461005 -8621.7884791076649 0 0 0 -1783.9696657006643 1563.6310998956151 -29.512768132583005 0 -29.512768132583005 -8448.5328077006434 0 0 0 -1721.2254269512514 1409.4114605710638 -25.835430665756576 0 -25.835430665756576 -8497.8997818696516 0 0 0 -1772.122080324647 1455.3173248379753 -10.861517550240023 0 -10.861517550240023 -8481.2193722777592 0 0 0 -1756.475511859946 1398.1896115760464 21.454694637782268 0 21.454694637782268 -8504.4413533940096 0 0 0 -1776.5629354544908 1485.9945457600697 6.1972623180154187 0 6.1972623180154187 -8418.7770868182561 0 0 0 -1733.1956352645502 1362.7702941158686 72.997348347678781 0 72.997348347678781 -8422.917546951614 0 0 0 -1765.0368132089379 1395.4455188833781 -6.0947818433487555 0 -6.0947818433487555 -8415.0483499708862 0 0 0 -1754.9007077718743 1391.6144023869056 63.315588812311034 0 63.315588812311034 -8469.955694451528 0 0 0 -1769.585323016152 1411.0181429739987 35.987341720294353 0 35.987341720294353 -8380.3529205028244 0 0 0 -1742.3336943822051 1584.4015192667393 -31.675231615663506 0 -31.675231615663506 -8336.9663097146185 0 0 0 -1688.1411976119707 1499.7736018469914 33.620362484536599 0 33.620362484536599 -8393.7221177762403 0 0 0 -1723.4871289823132 1509.185374403638 39.055555008451847 0 39.055555008451847 -8352.737249674261 0 0 0 -1710.8879688176567 1614.8035299809198 -17.452095310522054 0 -17.452095310522054 -8338.8809337300772 0 0 0 -1681.0193509372912 1568.9431947082121 -41.24718265201227 0 -41.24718265201227 -8380.611897975803 0 0 0 -1702.9171758168959 1515.0693012065494 17.479536344228109 0 17.479536344228109 -8390.709509201115 0 0 0 -1718.9100519986423 1627.4152613259394 -14.052237347712435 0 -14.052237347712435 -8324.992578210411 0 0 0 -1674.3943292211188 1728.8187930012605 -72.126934235100634 0 -72.126934235100634 -8292.8317330776081 0 0 0 -1641.0032350190854 1818.1249738809893 -126.50741957852733 0 -126.50741957852733 -8194.0177340333466 0 0 0 -1593.973190038083 1718.8194033155596 -85.740022057794704 0 -85.740022057794704 -8274.4345751595392 0 0 0 -1638.9037929609949 1775.5519587454255 -62.701785779714555 0 -62.701785779714555 -8247.766625053031 0 0 0 -1618.0536665769032 1543.1764979339496 0.0019840938530251151 0 0.0019840938530251151 -8339.7541996815708 0 0 0 -1699.1444254369053 1641.0960319567639 -18.81076782735181 0 -18.81076782735181 -8312.5373598988517 0 0 0 -1667.860331985521 1588.4362055872234 -43.448299282492371 0 -43.448299282492371 -8334.4667987253742 0 0 0 -1686.5076482845388 1686.6869398341441 -83.677610983420891 0 -83.677610983420891 -8265.4977301664621 0 0 0 -1644.7026975830813 1506.1709498609598 -28.813597889471566 0 -28.813597889471566 -8324.6694061325979 0 0 0 -1704.6246140679068 1663.8660412117097 -14.025956458230553 0 -14.025956458230553 -8320.7587964501436 0 0 0 -1664.2231888096067 1513.0252454141882 -36.291878829355483 0 -36.291878829355483 -8313.8526714175969 0 0 0 -1700.2068565008522 1580.6579630022607 -68.159881621479144 0 -68.159881621479144 -8361.7494607359404 0 0 0 -1695.2728744334236 1521.4541514055236 -13.991308206188478 0 -13.991308206188478 -8497.3479676875431 0 0 0 -1743.9734540705067 1414.2217394692598 -84.350353450377838 0 -84.350353450377838 -8863.472641245171 0 0 0 -1862.3127254439751 767.29056523749387 425.54971728374221 0 425.54971728374221 -8391.4795394837347 0 0 0 -1906.0472435615593 -3.5535928866407716 10.309809290329106 0 10.309809290329106 -11.840530315996602 0 0 0 -3.8485308006593471 1199.587042347026 -227.00828847455341 0 -227.00828847455341 -8347.3556828382607 0 0 0 -1786.9421601228059 699.52110780262228 149.30863060938236 0 149.30863060938236 -7997.703926271206 0 0 0 -1824.5457046171468 385.76938845802761 135.37053834939798 0 135.37053834939798 -8847.1539726420415 0 0 0 -2115.3461460460003 501.83303522007009 -105.10223771163874 0 -105.10223771163874 -8482.2713982820969 0 0 0 -1995.1095907655072 1240.1995494196608 303.21943226055009 0 303.21943226055009 -8579.5702704802752 0 0 0 -1834.8426802651475 -3.6225541522285596 9.2083242004713188 0 9.2083242004713188 -11.863517506428138 0 0 0 -3.8715179146641816 157.49234490408708 91.577231695893715 0 91.577231695893715 -7950.1732570308814 0 0 0 -1948.1702280317004 27.626027150823575 235.05729526173491 0 235.05729526173491 -8490.7593120802449 0 0 0 -2115.7833212323549 209.36863141829053 339.35209426421352 0 339.35209426421352 -8482.3197356518212 0 0 0 -2068.2377760583822 1315.0346387713544 -44.263070556880848 0 -44.263070556880848 -8104.2452208082323 0 0 0 -1697.3026455092204 1280.702970771049 -42.869199547527387 0 -42.869199547527387 -8547.8931128968688 0 0 0 -1816.7975355314602 1304.7897413241717 126.61101091874298 0 126.61101091874298 -8507.7091181920987 0 0 0 -1800.7298442169831 1372.7788131217894 168.95356794667532 0 168.95356794667532 -8133.8918329165681 0 0 0 -1690.278254948691 
</DataArray>
<DataArray type="Float64" Name="cross_section_updated" format="ascii">
1 1 1 1 1 1 1 1 1 1 1 1 1 1 1 1 1 1 1 1 1 1 1 1 1 1 1 1 1 1 1 1 1 1 1 1 1 1 1 1 1 1 1 1 1 1 1 1 1 1 1 1 1 1 1 1 1 1 1 1 1 1 1 1 1 1 1 1 1 1 1 1 1 1 1 1 1 1 1 1 1 1 1 1 1 1 1 1 1 1 1 1 1 1 1 1 1 1 1 1 1 1 1 1 1 1 1 1 1 1 1 1 1 1 1 1 1 1 1 1 1 1 1 1 1 1 1 1 1 1 1 1 1 1 1 1 1 1 1 1 1 1 1 1 1 1 1 1 1 1 1 1 1 1 1 1 1 1 1 1 1 1 1 1 1 1 1 1 1 1 1 1 1 1 1 1 1 1 1 1 1 1 1 1 1 1 1 1 1 1 1 1 1 1 1 1 1 1 1 1 1 1 1 1 1 1 1 1 1 1 1 1 1 1 1 1 1 1 1 1 1 1 1 1 1 1 1 1 1 1 1 1 1 1 1 1 1 1 1 1 1 1 1 1 1 1 1 1 1 1 1 1 1 1 1 1 1 1 1 1 1 1 1 1 1 1 1 1 1 1 1 1 1 1 1 1 1 1 1 1 1 1 1 1 1 1 1 1 1 1 1 1 1 1 1 1 1 1 1 1 1 1 1 1 1 1 1 1 1 1 1 1 1 1 1 1 1 1 1 1 1 1 1 1 1 1 1 1 1 1 1 1 1 1 1 1 1 1 1 1 1 1 1 1 1 1 1 1 1 1 1 1 1 1 1 1 1 1 1 1 1 1 1 1 1 1 1 1 1 1 1 1 1 1 1 1 1 1 1 1 1 1 1 1 1 1 1 1 1 1 1 1 1 1 1 1 1 1 1 1 1 1 1 1 1 1 1 1 1 1 1 1 1 1 1 1 1 1 1 1 1 1 1 1 1 1 1 1 1 1 1 1 1 1 1 1 1 1 1 1 1 1 1 1 1 1 1 1 1 1 1 1 1 1 1 1 1 1 1 1 1 1 1 1 1 1 1 1 1 1 1 1 1 1 1 1 1 1 1 1 1 1 1 1 1 1 1 1 1 1 1 1 1 1 1 1 1 1 1 1 1 1 1 1 1 1 1 1 1 1 1 1 1 1 1 1 1 1 1 1 1 1 1 1 1 1 1 1 1 1 1 1 1 1 1 1 1 1 0.00084723832226886453 1 1 1.0000078786293054e-06 1 1 1.0000108854393841e-06 1 1 1 1 1 1 1 1 1 1 1 1 1 1.0000138483193255e-06 1 1 1 1 1 1.0000167552648431e-06 1 1 1 1 1 1 1 1 1 1 1 1 1 1 1 1 1 1 1 1 1 1 1 1 1 1 1 1 1 1 1 1 1 1 1 1 1 1 1 1 1 1 1 1 1 1 1 1 1 1 1 1 1 1 1 1 1 1 1 1 1 1 1 1 1 1 1 1 1 1 1 1 1 1 1 1 1 1 1 1 1 1 1 1 1 1 1 1 1 1 1 1 1 1 1 1 1 1 1 1 1 1 1 1 1 1 1 1 1 1 1 1 1 1 1 1 1 1 1 1 1 1 1 1 1 1 1 1 1 1 1 1 1 1 1 1 1 1 1 1 1 1 1 1 1 1 1 1 1 1 1 1 1 1 1 1 1 1 1 1 1 1 1 1 1 1 1 1 1.0000194277173802e-06 1 1 1 1.0000216518341043e-06 1 1 1.0000233882506704e-06 1 1 1 1 1 1 1 1 1 1 1 1.0000248533356682e-06 1 1 1 1 1.0000263745910121e-06 1 1 1 1 1 1 1 1 1 1 1 1 1 1 1 1 1 1 1 1 1 1 1 1 1 1 1 1 1 1 1 1 1 1 1 1 1 1 1 1 1 1 1 1 1 1 1 1 1 1 1 1 1 1 1 1 1 1 1.0000697509282563e-06 1 1 1 1 1 1 1 1 1 1 1 1 1 1 1.0000876112421786e-06 1 1 1.0000787441580283e-06 1 1.0000963593728707e-06 1 1 1 1 1 1 1 1 1 1 1 1 1 1.0001049612073931e-06 1 1 1 1 1 1 1 1 1 1 1 1 1 1 1 1 1 1 1 1 1 1 1 1 1 1 1 1 1 1 1 1 1 1 1 1 1 1 1 1 1 1 1 1 1 1 1 1 1 1 1 1 1 1 1 1 1 1 1 1 1 1 1 1 1 1 1 1 1 1 1 1 1 1 1 1 1 1 1 1 1 1 1 1 1 1 1 1 1 1 1 1 1 1 1 1 1 1 1 1 1 1 1 1 1 1 1 1 1 1 1 1 1 1 1 1 1 1 1 1 1 1 1 1 1 1 1 1 1 1 1 1 1 1 1 1 0.00031752439214079858 1 1 1.0000284994503283e-06 1 1.0000406077924351e-06 1 1 1 1 1 1 1 1 1 1 1 1 1 1 1 1 1 1 1 1 1 1 1 1 1 1 1 1 1 1 1 1 1 1 1 1 1 1 1 1 1 1 1 1 1 1 1 1.0000605828418274e-06 1 1 1 1 1 1.0000510295080089e-06 1 1 1 1 1 1 1 
</DataArray>
<DataArray type="Float64" Name="displacement_divergence" format="ascii">
-0.10722729364377218 -0.11015644245234914 -0.08608646164443029 -0.091638095347557319 -0.071664607231586727 -0.060307446871773862 -0.079717597036108159 -0.069096375194211676 -0.063225902338765017 -0.06979879497618377 -0.072546091499542636 -0.066025105670756257 -0.076268574920408311 -0.070055822486808639 -0.084265816840874766 -0.091324082424041123 -0.072547048914564358 -0.079755671335833139 -0.05576536892909939 -0.05882092602561001 -0.058969103852940602 -0.058710572472705613 -0.067124299903588563 -0.062598601213628341 -0.057626007850362371 -0.063130819145085892 -0.069580505819958879 -0.064219716245991876 -0.061056729089917328 -0.063453176425721569 -0.06067208002371155 -0.058145147143262021 -0.060788819998880916 -0.062232782908794915 -0.061465779833491663 -0.065364222208135869 -0.063059426626488002 -0.065125588424905484 -0.065988512609485156 -0.06588680302475966 -0.065314246312199911 -0.062321306166721213 -0.064528038038404206 -0.06313088122314342 -0.062727947799606665 -0.064162616731372912 -0.060931784043562198 -0.060639589819845185 -0.074211179260201904 -0.069838277370614127 -0.076878514712416496 -0.072138618193263185 -0.066754374953268594 -0.070767049706013038 -0.068267448933768335 -0.071567015410615567 -0.066718767024889575 -0.069896150454136677 -0.066466928452522292 -0.066950712434284049 -0.071884832619061076 -0.073469625529407251 -0.069489739147385016 -0.07497591640610228 -0.07369418611673946 -0.068158619721527064 -0.067257815297597945 -0.071595979016105024 -0.068307817764773515 -0.067024823223257257 -0.066052595927038604 -0.07068942780064702 -0.065624799200945938 -0.063569335318454351 -0.065585627907163574 -0.068313383001392294 -0.063926113795468226 -0.068895857953457207 -0.068316429505236323 -0.067026980876006101 -0.066157635491173705 -0.063252400334778969 -0.065599114108928935 -0.064575216857898632 -0.061844498517449248 -0.066424814941649091 -0.062024676445734839 -0.060892291832858159 -0.063603854818723132 -0.061246203271597077 -0.059983036255365829 -0.061971170021404398 -0.060320922423135998 -0.059263341353026189 -0.062314899080520486 -0.065388865931057041 -0.061790611829050351 -0.062785052865838131 -0.062476816129148238 -0.062508632399980363 -0.061899085198096365 -0.062984418530880076 -0.058837816100855922 -0.061359931823064595 -0.060366229655322373 -0.059420310793368847 -0.059201090691011538 -0.060265981258525225 -0.059264360410105077 -0.058720485197986366 -0.058609586676285463 -0.062766700138195713 -0.059721787231438131 -0.059435634901887094 -0.060465456972738724 -0.062742944331192263 -0.065046040365002084 -0.062448742290960618 -0.065575728948300466 -0.062681401396439282 -0.068706254159799723 -0.063865404906293444 -0.066849829990382748 -0.066324656559110906 -0.0651844960673158 -0.069375565327416816 -0.066533266267823396 -0.064693080298168934 -0.06275671172259295 -0.065672402201689628 -0.051550597408104859 -0.052901381832577754 -0.053001117336514914 -0.05124894847409707 -0.050143214686659277 -0.050107609220057081 -0.049204160574982017 -0.048890493122620948 -0.048127851168422442 -0.047630148663144745 -0.048623103062655604 -0.049378381000117377 -0.050963961710466049 -0.051423403050706806 -0.049404037013077884 -0.05555792735423809 -0.05116090050917399 -0.055979768353365877 -0.050758906289177896 -0.056112132918000435 -0.058280746332512678 -0.056232246109305037 -0.0547285291486269 -0.057539686183763525 -0.057315161976868867 -0.057423800716949649 -0.056676700012494252 -0.053850672514557107 -0.053279680823049569 -0.056392931790815809 -0.055196543903307138 -0.054668975571355749 -0.056931436909146815 -0.055597590001788363 -0.059213453490787327 -0.057564881870869583 -0.057013275081179926 -0.057194603284955486 -0.058209461596237605 -0.059633646374791849 -0.057975281657674231 -0.060417484821959078 -0.058892475424190738 -0.056189567990599043 -0.058090829248079956 -0.056699606333442634 -0.058827241217731641 -0.057140756350727351 -0.05673630035875854 -0.055536525289703209 -0.055206319461018838 -0.0553620182118717 -0.055334150430909612 -0.054378594970982685 -0.054180109331848691 -0.053966027828545982 -0.053041465765095941 -0.053189286819400522 -0.054568074259310428 -0.051345158578411598 -0.051977537094069048 -0.052266014464056765 -0.053804715148170201 -0.052466911859166299 -0.052866190826719339 -0.05386009069093789 -0.054340056573160544 -0.054344381713100742 -0.055333285376781283 -0.055968701768288054 -0.055381162342067358 -0.055194367782550047 -0.0564710267504972 -0.056752302793881104 -0.056494606111296863 -0.055984194668530107 -0.056477271841603116 -0.057019826670290097 -0.057033749854064675 -0.056799990172308523 -0.056381574235387033 -0.056379852828006727 -0.055921658967474253 -0.056148673902076646 -0.059320273511564658 -0.059520078289876266 -0.059074585782789929 -0.058743572790425969 -0.058285124095667107 -0.057614609736462374 -0.058013518935227992 -0.057115604029895406 -0.057504168745578843 -0.057832431650195526 -0.057593068407502335 -0.05761720317573385 -0.059135305236151847 -0.059442723994270363 -0.060184791980088692 -0.060967073063828592 -0.060184478422368959 -0.058367763090299611 -0.059324274262235965 -0.060174087529879627 -0.05796985359217377 -0.057329183095904068 -0.057732852390416103 -0.058113252756042622 -0.057463977608788963 -0.057469541919926426 -0.05686865811817654 -0.057294936741323688 -0.055266100146540986 -0.057546163167312481 -0.055279996992195872 -0.05819804007766316 -0.056729718840751175 -0.057206159687166136 -0.057046371641566174 -0.057118664685392229 -0.05711258433142441 -0.056846887558180126 -0.055939350606174054 -0.057585714454239156 -0.056425919148516801 -0.05768982889418095 -0.057020655017751554 -0.057759114668689493 -0.056796175866892895 -0.057448141161164368 -0.058188789450235534 -0.057655324014185189 -0.058860589249420947 -0.057570938935157523 -0.057156063328180351 -0.056879527501757454 -0.057827307496030711 -0.056795648752555827 -0.057004472166586995 -0.057405803203071981 -0.057992309135901143 -0.057433856170668429 -0.058322470570558727 -0.058538244204536127 -0.059106355098759611 -0.058687118618112433 -0.059585132849439226 -0.05806795347820877 -0.059207820234028485 -0.060114911558639683 -0.05960401883030908 -0.060092004656636222 -0.058416852674433084 -0.057267692975640827 -0.058420071051687769 -0.056964827306532406 -0.058074007232167713 -0.057404543878792735 -0.056928666249117743 -0.05639797171512817 -0.056230797188081438 -0.055271469942476115 -0.056490218967536698 -0.056491415951221091 -0.056727487679841371 -0.055416347966525281 -0.05576719081629028 -0.055332010260098041 -0.054470652191500157 -0.054280954280943927 -0.053448986591578047 -0.05331715032784938 -0.053016487737681084 -0.054895424019573813 -0.054696457788129704 -0.05390226833111067 -0.053398003393868798 -0.054360205666438066 -0.053423445978274309 -0.054651321623664262 -0.054970209948655202 -0.053970156822458648 -0.054323784763868788 -0.054758615565299373 -0.055734096984697695 -0.055091111936913184 -0.05562551397667348 -0.055677939429783496 -0.056288819214070696 -0.056343458757361298 -0.056431688785481438 -0.056393204600081459 -0.056539218283266801 -0.055471041031490698 -0.055592222317378231 -0.057660125327646458 -0.059066541642802894 -0.059783805530281731 -0.058970867951158593 -0.060825473521325613 -0.061483932151608744 -0.062025115350027082 -0.061390155649477363 -0.060925652125495722 -0.05989588741021229 -0.061745216306604789 -0.06140339659711791 -0.059535847991503132 -0.05874779158540222 -0.058303104585726739 -0.056914522670164946 -0.057344961058856225 -0.057719970639139806 -0.057140948599805549 -0.058286381009611477 -0.058469916574190137 -0.060203199818501085 -0.060684275848755131 -0.061315130406325968 -0.059684721779578842 -0.059228459958601126 -0.060494953483845704 -0.060670553854166212 -0.058713093399997363 -0.05890741201937244 -0.057808669101054089 -0.057561325743527791 -0.057081837728561347 -0.055937357303180307 -0.055651924841792155 -0.05416493016308932 -0.053158029361688952 -0.054039506565416562 -0.054542192213463903 -0.054496247622790706 -0.052989432149073479 -0.053348258910137392 -0.055274778753021558 -0.05548804047726863 -0.055888053729476139 -0.056865060333177953 -0.056189541142683819 -0.056729747985100332 -0.055198766678508537 -0.054895260802557244 -0.053390356235172742 -0.053298181513800946 -0.05330856564294395 -0.053519951183396142 -0.05154331631404363 -0.05251574309990592 -0.053837421612169756 -0.055001440502868371 -0.055297719113673982 -0.055431971403964164 -0.05719194228770097 -0.047375302985876444 -0.045493645914570502 -0.047671658003954676 -0.046340633042104284 -0.04782741297733728 -0.050178884872160268 -0.051776668218656674 -0.049446863897178672 -0.049549965726566114 -0.05105233218767502 -0.050989818547401144 -0.051920994140961407 -0.048602051577451455 -0.048551392533279003 -0.047245411322436648 -0.04831042640695582 -0.048696059624437127 -0.049605575603386409 -0.048968631001653051 -0.050133069611653314 -0.050710580344673017 -0.051681424608969184 -0.05194836178733131 -0.051308376057235483 -0.050236811173986595 -0.051609026890624632 -0.050804725748183399 -0.052562076442340455 -0.051913083359397705 -0.052744697506858618 -0.051264580710250307 -0.050319725020637418 -0.050046385691219553 -0.049195102485239839 -0.0496566430582146 -0.048355193911870487 -0.04884531106707124 -0.047532324447738583 -0.048392086158774328 -0.047891245326664222 -0.047550377147007383 -0.046300918313867956 -0.045833078147638595 -0.045048561003588228 -0.046219041500887181 -0.046961947890175812 -0.045277067816851813 -0.043931672936599275 -0.045020878407049159 -0.045764887450847835 -0.046327574472892458 -0.046828752076683022 -0.047454871134011478 -0.046723786887038932 -0.045543754607601405 -0.045648740786089048 -0.044443878650375412 -0.043821077961518684 -0.042535375599035335 -0.04293365027350049 -0.043748225039707433 -0.043623555652211765 -0.041979928545037293 -0.04162295591473042 -0.043330709045017013 -0.04324282924369216 -0.044510805101044326 -0.044899719525518356 -0.045883446332168676 -0.051187675186066151 -0.050854414003579818 -0.049549639826150689 -0.050749810099277815 -0.050988448927879126 -0.051008156293499085 -0.051370672763180969 -0.052243841900275048 -0.052599263945588781 -0.05308546027780342 -0.053952529871770682 -0.053562816392472734 -0.052985894419698587 -0.05166684880152439 -0.052781664837000086 -0.052169566502101805 -0.053207121575916561 -0.052888719658740868 -0.051290486277043135 -0.052287132514198031 -0.05206941107137053 -0.052357663843744739 -0.051513214528322582 -0.051098870400448249 -0.049983962262135861 -0.049825102061896276 -0.050744423137521949 -0.050990495519001922 -0.050398692810021961 -0.049193534391437782 -0.049671649307605037 -0.049545144304829591 -0.04807998343251163 -0.048147083364904156 -0.048241985617111682 -0.048443276789237211 -0.048433640312357085 -0.04802891760637229 -0.048017167053231613 -0.048564796401405541 -0.049196408887832721 -0.047504949234563165 -0.046145376635596369 -0.045941410202326977 -0.045670050172847587 -0.041962795759086235 -0.045608517416464101 -0.046325415869248404 -0.047890503780499749 -0.04754332344181289 -0.047536993490901791 -0.04917775210068942 -0.049637124435505331 -0.049521835233909517 -0.049577742482249471 -0.049225512799978666 -0.045979009789589159 -0.047259078057816817 -0.048001318063693593 -0.046866535512329 -0.046681584868452419 -0.04426166654831698 -0.043780687480597019 -0.041632324902328488 -0.043209100171926362 -0.041955448872728979 -0.041309632682058117 -0.042217205452027007 -0.037652816859112148 -0.038194366079151387 -0.040238103017491644 -0.039800585799241062 -0.043194298232466455 -0.040308626127797398 -0.042892553847530102 -0.042104225169109943 -0.039660527896827835 -0.039077192151703688 -0.045919476873065079 -0.028422217604362254 -0.039069641467408212 -0.048387666342346813 -0.03338588966009759 0.31992416701509185 -0.041089279099555176 -0.043491968587978658 -1.1830289712389082 -0.031315897583841901 -0.037810918793525536 -0.89445409006967935 -0.034273560314350471 -0.041575926807721375 -0.036248406008341338 -0.038491073675084087 -0.034284933968396603 -0.03710359329049695 -0.036834285851267912 -0.032522793302996789 -0.03499094588026197 -0.037007989183279966 -0.041132720818110702 -0.037324416640626468 -0.039237489494224675 -0.97205267570589626 -0.038809954230689114 -0.041299642085786514 -0.040650135806052479 -0.03901708710795404 -0.035046410820586127 -0.95052409532684479 -0.036626638016668767 -0.034838237991408061 -0.036650323731921786 -0.038453757371370911 -0.036457205644734647 -0.036884233112553066 -0.036866117310610957 -0.037381600284807415 -0.037020502360446655 -0.038394457618039501 -0.038165500828626131 -0.038328630851922431 -0.039109295049711834 -0.039775497972116103 -0.039211853757073652 -0.039998256249058617 -0.04068939637466229 -0.040540155239901399 -0.041347005848393306 -0.038928223587559346 -0.037777948551087404 -0.038217099066119253 -0.039456036529665006 -0.038464536042543851 -0.040057569179342556 -0.039050536253908863 -0.040451019692777646 -0.04052557564131698 -0.040698317380511773 -0.04128370774648682 -0.042434421374977771 -0.041643732913705378 -0.041006142909961518 -0.040656569135320453 -0.039837744539782394 -0.040324804809316772 -0.040809728464863249 -0.040910984280753793 -0.042237044918205235 -0.041348744655392622 -0.041924610579329391 -0.043642011056202135 -0.041895823538957933 -0.04448838446343828 -0.045433834514925664 -0.041843747104919782 -0.040654491179428931 -0.041566782543652314 -0.041113898010040645 -0.03983060473733846 -0.040205982059258849 -0.039654184591831232 -0.040198187086749826 -0.038280885129204911 -0.03845822936614729 -0.039229312568999919 -0.039073405926001614 -0.039354809391714651 -0.038699779699312056 -0.038345179337457597 -0.038901060561588041 -0.038905446080463202 -0.039606582643886501 -0.039581084422875279 -0.03976417113467301 -0.04004959900267116 -0.039379477437860189 -0.039652675309114732 -0.038834135521382152 -0.038930760997116287 -0.03892003502007757 -0.038145256916328918 -0.038216426033207899 -0.038252514741807131 -0.038362163983101549 -0.037544857036316936 -0.037865501656293099 -0.03819182734522153 -0.037767425260822773 -0.038739394327070631 -0.03878153479561286 -0.037426181330391717 -0.037080157577327189 -0.037604109256711094 -0.037321321550563002 -0.037474433892793924 -0.037316091316065725 -0.037600015651986674 -0.037330683121166608 -0.037687133520892591 -0.037883708730329868 -0.038083199046880178 -0.037760381995874726 -0.037318139820119223 -0.037342224356619602 -0.037220791602117276 -0.037263578164190347 -0.036743322215434082 -0.037271429576160697 -0.03715699981488263 -0.037670735360953334 -0.037628155122177376 -0.038258908623264309 -0.037676743538670676 -0.037613615177149118 -0.037863759528517837 -0.037973168347523956 -0.038348018061145517 -0.037555823678916744 -0.039126947186779004 -0.036762128677622297 -0.037569381177703809 -0.037399875257617683 -0.03610879560432495 -0.036952649681744942 -0.03509967930214275 -0.036338840435505837 -0.035322903773808978 -0.034922082331989124 -0.034360327726356027 -0.035519395127064035 -0.0351897792488991 -0.036642616308614873 -0.035748864237096001 -0.035768675571422603 -0.036824858708734975 -0.036387645848969807 -0.036435365146915699 -0.036868200561459341 -0.036792740128213097 -0.036916241990446963 -0.036938395265396551 -0.037130853763991167 -0.036460661694290297 -0.036381182369793263 -0.036850140910465568 -0.036932755132371042 -0.036864029720796943 -0.036985712304020035 -0.037133705600655265 -0.037204665222225097 -0.037224010477412195 -0.037289849078850468 -0.037307198964675159 -0.037069856528969658 -0.037070910517475797 -0.036872246921310969 -0.036395800030112113 -0.036001556376274224 -0.035855700706951543 -0.036402553001100922 -0.037393419061072297 -0.037351789128267532 -0.037556941132557475 -0.038311142261079345 -0.038779636440836374 -0.0374191182004594 -0.037286411686039189 -0.037111329149155547 -0.036298776096122198 -0.036432850566839758 -0.036087951369940363 -0.032146325365628781 -0.038476525073039336 -0.034533172843916327 -0.036201045811493526 -0.038921738506302983 -0.035230299361811879 -0.95899531064783616 -0.036411942794188357 -0.0396702485385515 -0.035193900843496939 -0.94645095368457532 -0.035252511514571871 -0.037848018151654617 -0.98841770081716973 -0.034078012876073288 -0.035675917841536009 -0.032164360482574872 -0.035473736993595795 -0.036463271485031146 -0.03385623387956338 -0.035373224573860856 -0.035290124177200344 -0.037816704018161618 -0.036524486577009921 -0.037064342318798627 -0.83073654171132461 -0.034684124018908857 -0.036133352112573673 -0.032956720066233069 -0.033174123099475428 -1.4204393682318255 -0.033332284392956657 -0.03539684912368779 -0.034240410695739909 -0.032104265372790541 -0.032340558775880712 -0.035354621846953815 -0.034120772072043115 -0.035335451243815985 -0.035097231205679646 -0.034605904078082061 -0.035697211029441345 -0.034883116983197571 -0.035604435611871876 -0.036309853260802515 -0.034996489653829954 -0.035902831756879694 -0.036704940760314123 -0.03557132845410782 -0.035938127138868223 -0.036018335664784962 -0.035004358766029975 -0.034763629918895589 -0.035281626178779169 -0.03391764063342273 -0.035485145004198415 -0.03524505671757755 -0.035291311202977543 -0.03313000271796307 -0.034087499494604538 -0.034469745131319285 -0.036619701957706807 -0.035774520280728639 -0.037325352017945901 -0.038188333521004481 -0.037226588482442535 -0.03626821310810896 -0.036636155245358348 -0.036605436041824202 -0.037186832222817268 -0.03820315611555547 -0.037911874432466686 -0.038786644723669106 -0.037721909483272587 -0.038329492884933425 -0.037746317927925599 -0.038808193073024341 -0.040140418592990779 -0.039154897184897508 -0.039878825883245983 -0.040253487988780118 -0.040971631902248506 -0.040445545352101514 -0.040053294829509034 -0.039341445423042527 -0.039061780737180918 -0.038336449881996769 -0.039128943413024198 -0.048438485005912579 -0.96381853827417885 -0.045082939541695011 -0.044228117427672908 -0.040485848075699216 -0.042403455856657168 -0.043119634804824836 -0.040570752651868547 -0.04493888640683863 -0.040677409645474394 -0.041671177608738674 -0.039511382726930888 -0.037730118337815921 -0.040882522445407243 -0.042943178836168272 -0.0387127242152569 -0.9899103482451288 -0.043014700123558736 -0.042639423255042885 -0.95110023011261902 -0.040855943433033004 -0.84027387957305777 -0.037959304869153165 -0.038953704316658441 -0.034459164810005716 -0.038254610787748874 -0.036794210468469868 -0.04225425957785961 -0.03858698371416102 -0.034639233035905881 -0.032649659711416645 -0.032320854617715833 -0.03341306739007921 -0.034165158382334637 -0.033381024844601148 -1.3941045078589802 -0.032840629687167278 -0.033438714997954644 -0.033086070311301445 -0.033378528501351201 -0.036683454860289233 -0.03533061826410594 -0.035021777504974094 -0.037368807056883918 -0.045013246940350887 -0.034736831045591554 -0.042482765120988822 -0.044466280541481773 -0.049410376838687819 -0.04810457394386336 -0.043694105434178815 -0.040349130796296706 -0.03821892176230475 -0.065058556253181132 -0.09239052835495884 -0.096147844274140262 -0.04389611218748618 -0.073207676045154352 -0.044278483698260679 -0.050749840586137268 -0.046765353538158722 -0.037007323850965272 -0.045029353804682884 -0.055448154086892271 -0.064283215212411038 -0.057486238279307197 -0.057558380576550043 -0.066323471099957731 -0.070351459600479518 -0.07038656146162621 -0.065050037475423386 -0.057322364730913816 -0.057062394192691338 -0.060793479919098677 -0.060387419548997151 -0.050555432621798999 -0.052856074863915581 -0.055273569659650607 -0.058162902546397346 -0.058678201898592908 -0.053448096689071717 -0.059549928565735391 -0.062585748268666058 -0.059630349126587649 -0.06074095489516658 -0.064728336897326891 -0.05798271329720088 -0.045834914674533073 -0.048375961695488051 -0.045450500173843389 -0.042673033634597068 -0.049674265983889188 -0.049233425949257323 -0.047227424769524184 -0.049551781907548942 -0.052419981705407792 -0.051741366958173995 -0.055230276173194266 -0.048301985075927867 -0.050844406837769529 -0.04571125700926093 -0.047739402601767955 -0.050083963384396357 -0.049264452474845011 -0.051643985295654338 -0.048575573502615654 -0.052405376625739464 -0.052495639083197598 -0.051092879246098677 -0.053446412146095232 -0.056218480456298375 -0.053533897837031247 -0.054915879978405135 -0.054310258592732752 -0.055896638451391562 -0.057674640591334619 -0.053840373130723304 -0.054091909470529886 -0.053344056064811851 -0.055504732943433222 -0.05213880163805662 -0.061536509849885096 -0.061103113247573941 -0.060980490262489161 -0.063875567006188613 -0.059075920852779462 -0.056229475651558142 -0.061102244532119959 -0.055415790878980888 -0.058868420224015561 -0.058072315202416708 -0.058422045005418734 -0.059557713367255738 -0.058751678705404195 -0.061368352747659158 -0.06167719079490494 -0.060517861899712214 -0.062827273713663728 -0.060379052059349347 -0.065442722929544686 -0.06688115411693453 -0.066258430999319023 -0.061168061445623034 -0.063650296810082399 -0.061397405534607222 -0.060097123215455156 -0.060169369347619905 -0.061322579455311887 -0.059721406275333774 -0.061009295597099389 -0.063223434935437917 -0.063981038823801031 -0.062512832770209179 -0.062593989720596627 -0.06824143204104656 -0.056679308410761707 -0.055439869284781507 -0.056305119231889855 -0.055102606152636069 -0.057758669973649424 -0.059114393588875935 -0.056896869331105132 -0.059060968909447176 -0.061312524110345046 -0.060482940372432153 -0.060002497227563484 -0.057543588898557235 -0.057216792493688662 -0.056135556669744804 -0.059332143792500389 -0.042908915004797321 -0.05492772317983835 -0.4694257781596427 -0.050788423742777838 -0.056653341574943283 -1.0150070409710388 -0.053234468795473167 -0.95245945173608249 -0.056917272582148459 -0.051917007901442658 -0.043975220546549454 -0.044784414808902162 -0.047249365631804735 -0.043144017999168394 -0.046346426545513075 -0.041966423111728157 -0.048888768371124658 -0.047393144457156089 -0.045501605677981505 -0.046137528664566829 -0.046424614561448252 -0.045061962525127286 -0.047211387396705579 -0.044599241642516607 -0.043030635673781431 -0.044303052008116128 -0.043911887796498461 -0.044414073386362274 -0.043329890881613875 -0.044125920330223334 -0.043872517694296675 -0.044239633075403906 -0.043558342359555136 -0.042203529940299189 -0.043087178224557654 -0.042772199220441509 -0.042025483773432293 -0.042572929395422496 -0.042972751299966139 -0.041859858230527958 -0.041025080875477099 -0.039849329750951901 -0.040972594824024711 -0.040451341664422436 -0.042478610635922842 -0.041696508299638113 -0.042162691207113356 -0.041117567439577063 -0.042615615351697556 -0.041605579720240149 -0.042505171412521303 -0.0423818218608355 -0.043599336351762608 -0.046557818136099383 -0.047651181089039041 -0.96213270016483321 -0.044673554003070243 -0.045613642615428551 -0.052883653651150109 -0.049877739769137591 -0.045871067006628907 -0.96787947866604185 -0.048704255700792509 -0.05289458303080885 -0.051705944401459647 -0.042432566137730443 -0.045419938388286424 -0.045018246105424625 -0.042256956373717347 
</DataArray>
</CellData>
</Piece>
</UnstructuredGrid>
</VTKFile>
