<?xml version="1.0"?>
<VTKFile type="UnstructuredGrid" version="0.1" byte_order="LittleEndian">
<UnstructuredGrid>
<Piece NumberOfPoints="3142" NumberOfCells="1054">
<Points>
<DataArray type="Float64" NumberOfComponents="3" format="ascii">
0.02576622439977887 0.024532886826226379 0 0 0 0 0.049999999999899652 0 0 0.02576622439977887 0.024532886826226379 0 0 0 0 0 0.050000000000207989 0 0.02576622439977887 0.024532886826226379 0 0.049999999999899652 0 0 0.053064897599215843 0.048131547304697528 0 0.02576622439977887 0.024532886826226379 0 0.053064897599215843 0.048131547304697528 0 0 0.050000000000207989 0 0 0.050000000000207989 0 0 0.10000000000041601 0 0.044310582753132287 0.101412518374475 0 0 0.10000000000041601 0 0.044310582753132287 0.101412518374475 0 0 0.15000000000062411 0 0.053064897599215843 0.048131547304697528 0 0.044310582753132287 0.101412518374475 0 0.083411279318303222 0.089699755330707398 0 0.053064897599215843 0.048131547304697528 0 0 0.050000000000207989 0 0.044310582753132287 0.101412518374475 0 0.044310582753132287 0.101412518374475 0 0.083411279318303222 0.089699755330707398 0 0.065374659239632718 0.1448908038746782 0 0.083411279318303222 0.089699755330707398 0 0.065374659239632718 0.1448908038746782 0 0.1053400320299198 0.12877248826361379 0 0.083411279318303222 0.089699755330707398 0 0.12372429750337779 0.095814237875728972 0 0.1053400320299198 0.12877248826361379 0 0.12372429750337779 0.095814237875728972 0 0.1053400320299198 0.12877248826361379 0 0.14332333627550789 0.14578431753966009 0 0.12372429750337779 0.095814237875728972 0 0.10266856499169109 0.044518360900210059 0 0.14618258501891079 0.062070108745602003 0 0.083411279318303222 0.089699755330707398 0 0.12372429750337779 0.095814237875728972 0 0.10266856499169109 0.044518360900210059 0 0.10266856499169109 0.044518360900210059 0 0.099999999999814668 0 0 0.14999999999970359 0 0 0.049999999999899652 0 0 0.053064897599215843 0.048131547304697528 0 0.099999999999814668 0 0 0.053064897599215843 0.048131547304697528 0 0.10266856499169109 0.044518360900210059 0 0.099999999999814668 0 0 0.053064897599215843 0.048131547304697528 0 0.083411279318303222 0.089699755330707398 0 0.10266856499169109 0.044518360900210059 0 0.044081577119474857 0.2271058242433576 0 0 0.20000000000083221 0 0 0.25000000000104028 0 0.044081577119474857 0.2271058242433576 0 0 0.20000000000083221 0 0.038512288486115001 0.1844147282893184 0 0.044081577119474857 0.2271058242433576 0 0.038512288486115001 0.1844147282893184 0 0.083105206071467416 0.20007701332709979 0 0.038512288486115001 0.1844147282893184 0 0 0.15000000000062411 0 0.065374659239632718 0.1448908038746782 0 0.044310582753132287 0.101412518374475 0 0 0.15000000000062411 0 0.065374659239632718 0.1448908038746782 0 0.038512288486115001 0.1844147282893184 0 0.065374659239632718 0.1448908038746782 0 0.083105206071467416 0.20007701332709979 0 0 0.20000000000083221 0 0.038512288486115001 0.1844147282893184 0 0 0.15000000000062411 0 0.065374659239632718 0.1448908038746782 0 0.1053400320299198 0.12877248826361379 0 0.106902708054812 0.16453234188234539 0 0.1053400320299198 0.12877248826361379 0 0.106902708054812 0.16453234188234539 0 0.14332333627550789 0.14578431753966009 0 0.065374659239632718 0.1448908038746782 0 0.106902708054812 0.16453234188234539 0 0.083105206071467416 0.20007701332709979 0 0.083105206071467416 0.20007701332709979 0 0.095326043202144745 0.24554465089224409 0 0.13737030665753211 0.20313708640667491 0 0.106902708054812 0.16453234188234539 0 0.083105206071467416 0.20007701332709979 0 0.13737030665753211 0.20313708640667491 0 0.044081577119474857 0.2271058242433576 0 0.083105206071467416 0.20007701332709979 0 0.095326043202144745 0.24554465089224409 0 0.044081577119474857 0.2271058242433576 0 0.095326043202144745 0.24554465089224409 0 0.049706944316556423 0.27522722923869108 0 0.095326043202144745 0.24554465089224409 0 0.14377654328998779 0.2442024734791064 0 0.13737030665753211 0.20313708640667491 0 0.17933913398461551 0.2350063570234002 0 0.14377654328998779 0.2442024734791064 0 0.13737030665753211 0.20313708640667491 0 0.17933913398461551 0.2350063570234002 0 0.13737030665753211 0.20313708640667491 0 0.18124454140915969 0.18790916706335251 0 0.18124454140915969 0.18790916706335251 0 0.14332333627550789 0.14578431753966009 0 0.18652628422869419 0.14162325200928061 0 0.106902708054812 0.16453234188234539 0 0.13737030665753211 0.20313708640667491 0 0.14332333627550789 0.14578431753966009 0 0.13737030665753211 0.20313708640667491 0 0.18124454140915969 0.18790916706335251 0 0.14332333627550789 0.14578431753966009 0 0.14332333627550789 0.14578431753966009 0 0.18652628422869419 0.14162325200928061 0 0.16141998738593399 0.10404039647458049 0 0.18652628422869419 0.14162325200928061 0 0.22985637510995899 0.1298347970200906 0 0.2185883431182947 0.18019736283949719 0 0.22985637510995899 0.1298347970200906 0 0.2185883431182947 0.18019736283949719 0 0.25557216766470708 0.15874861286892261 0 0.2185883431182947 0.18019736283949719 0 0.25557216766470708 0.15874861286892261 0 0.26429849586623999 0.19346700179430079 0 0.18124454140915969 0.18790916706335251 0 0.18652628422869419 0.14162325200928061 0 0.2185883431182947 0.18019736283949719 0 0.17933913398461551 0.2350063570234002 0 0.18124454140915969 0.18790916706335251 0 0.224700362040408 0.22206622194729711 0 0.18124454140915969 0.18790916706335251 0 0.2185883431182947 0.18019736283949719 0 0.224700362040408 0.22206622194729711 0 0.2185883431182947 0.18019736283949719 0 0.224700362040408 0.22206622194729711 0 0.26429849586623999 0.19346700179430079 0 0.224700362040408 0.22206622194729711 0 0.25195515620380449 0.25883339815888678 0 0.21049769590865089 0.26857363548218488 0 0.17933913398461551 0.2350063570234002 0 0.224700362040408 0.22206622194729711 0 0.21049769590865089 0.26857363548218488 0 0.184418230509967 0.038773194583122873 0 0.14999999999970359 0 0 0.14618258501891079 0.062070108745602003 0 0.184418230509967 0.038773194583122873 0 0.14618258501891079 0.062070108745602003 0 0.19922788606653311 0.085920220746880993 0 0.184418230509967 0.038773194583122873 0 0.14999999999970359 0 0 0.19999999999955789 0 0 0.10266856499169109 0.044518360900210059 0 0.14999999999970359 0 0 0.14618258501891079 0.062070108745602003 0 0.12372429750337779 0.095814237875728972 0 0.14618258501891079 0.062070108745602003 0 0.16141998738593399 0.10404039647458049 0 0.12372429750337779 0.095814237875728972 0 0.14332333627550789 0.14578431753966009 0 0.16141998738593399 0.10404039647458049 0 0.18652628422869419 0.14162325200928061 0 0.16141998738593399 0.10404039647458049 0 0.19922788606653311 0.085920220746880993 0 0.14618258501891079 0.062070108745602003 0 0.16141998738593399 0.10404039647458049 0 0.19922788606653311 0.085920220746880993 0 0.18652628422869419 0.14162325200928061 0 0.22985637510995899 0.1298347970200906 0 0.19922788606653311 0.085920220746880993 0 0.22985637510995899 0.1298347970200906 0 0.19922788606653311 0.085920220746880993 0 0.24218496799700481 0.089025544070598317 0 0.22985637510995899 0.1298347970200906 0 0.24218496799700481 0.089025544070598317 0 0.27474541102162192 0.11822029332053539 0 0.19922788606653311 0.085920220746880993 0 0.24218496799700481 0.089025544070598317 0 0.22668068146512929 0.045875643423131329 0 0.24218496799700481 0.089025544070598317 0 0.22668068146512929 0.045875643423131329 0 0.27499999999933927 0.060310814194988557 0 0.184418230509967 0.038773194583122873 0 0.19922788606653311 0.085920220746880993 0 0.22668068146512929 0.045875643423131329 0 0.184418230509967 0.038773194583122873 0 0.22668068146512929 0.045875643423131329 0 0.19999999999955789 0 0 0.22668068146512929 0.045875643423131329 0 0.19999999999955789 0 0 0.24999999999941211 0 0 0.24999999999941211 0 0 0.27499999999933927 0.060310814194988557 0 0.29999999999926641 0 0 0.22668068146512929 0.045875643423131329 0 0.24999999999941211 0 0 0.27499999999933927 0.060310814194988557 0 0.27499999999933927 0.060310814194988557 0 0.29999999999926641 0 0 0.32541448401678508 0.046215317981507749 0 0.29999999999926641 0 0 0.32541448401678508 0.046215317981507749 0 0.34999999999912063 0 0 0.32541448401678508 0.046215317981507749 0 0.3615861437013822 0.03582617922508851 0 0.35312867752657662 0.084946736076730367 0 0.3615861437013822 0.03582617922508851 0 0.35312867752657662 0.084946736076730367 0 0.39591832466117061 0.056982757562006353 0 0.32541448401678508 0.046215317981507749 0 0.3615861437013822 0.03582617922508851 0 0.34999999999912063 0 0 0.3615861437013822 0.03582617922508851 0 0.34999999999912063 0 0 0.3999999999989749 0 0 0.35312867752657662 0.084946736076730367 0 0.36246644853392812 0.1399454205365751 0 0.39823268594401579 0.1116623613130045 0 0.35312867752657662 0.084946736076730367 0 0.32215584939770009 0.1218492143506909 0 0.36246644853392812 0.1399454205365751 0 0.32541448401678508 0.046215317981507749 0 0.35312867752657662 0.084946736076730367 0 0.3096713403101819 0.085471541595262421 0 0.35312867752657662 0.084946736076730367 0 0.32215584939770009 0.1218492143506909 0 0.3096713403101819 0.085471541595262421 0 0.32215584939770009 0.1218492143506909 0 0.3096713403101819 0.085471541595262421 0 0.27474541102162192 0.11822029332053539 0 0.27499999999933927 0.060310814194988557 0 0.32541448401678508 0.046215317981507749 0 0.3096713403101819 0.085471541595262421 0 0.27499999999933927 0.060310814194988557 0 0.3096713403101819 0.085471541595262421 0 0.27474541102162192 0.11822029332053539 0 0.24218496799700481 0.089025544070598317 0 0.27499999999933927 0.060310814194988557 0 0.27474541102162192 0.11822029332053539 0 0.22985637510995899 0.1298347970200906 0 0.27474541102162192 0.11822029332053539 0 0.25557216766470708 0.15874861286892261 0 0.27474541102162192 0.11822029332053539 0 0.25557216766470708 0.15874861286892261 0 0.29336099386129338 0.15892013001050981 0 0.25557216766470708 0.15874861286892261 0 0.29336099386129338 0.15892013001050981 0 0.26429849586623999 0.19346700179430079 0 0.29336099386129338 0.15892013001050981 0 0.31255190597181792 0.19850845631528771 0 0.33084213324567391 0.16272720141332131 0 0.29336099386129338 0.15892013001050981 0 0.26429849586623999 0.19346700179430079 0 0.31255190597181792 0.19850845631528771 0 0.32215584939770009 0.1218492143506909 0 0.27474541102162192 0.11822029332053539 0 0.29336099386129338 0.15892013001050981 0 0.224700362040408 0.22206622194729711 0 0.28040350263641872 0.23054717217092141 0 0.25195515620380449 0.25883339815888678 0 0.224700362040408 0.22206622194729711 0 0.28040350263641872 0.23054717217092141 0 0.26429849586623999 0.19346700179430079 0 0.28040350263641872 0.23054717217092141 0 0.26429849586623999 0.19346700179430079 0 0.31255190597181792 0.19850845631528771 0 0.28040350263641872 0.23054717217092141 0 0.33758650185219202 0.23837101504325639 0 0.29132859388405002 0.27203693976649962 0 0.28040350263641872 0.23054717217092141 0 0.33758650185219202 0.23837101504325639 0 0.31255190597181792 0.19850845631528771 0 0.33758650185219202 0.23837101504325639 0 0.31255190597181792 0.19850845631528771 0 0.3572130504031617 0.1874703368446563 0 0.33758650185219202 0.23837101504325639 0 0.3572130504031617 0.1874703368446563 0 0.38831533174504851 0.2189834941785925 0 0.33758650185219202 0.23837101504325639 0 0.38831533174504851 0.2189834941785925 0 0.3786248352540974 0.27082301512024259 0 0.32215584939770009 0.1218492143506909 0 0.29336099386129338 0.15892013001050981 0 0.33084213324567391 0.16272720141332131 0 0.32215584939770009 0.1218492143506909 0 0.33084213324567391 0.16272720141332131 0 0.36246644853392812 0.1399454205365751 0 0.31255190597181792 0.19850845631528771 0 0.33084213324567391 0.16272720141332131 0 0.3572130504031617 0.1874703368446563 0 0.3572130504031617 0.1874703368446563 0 0.36246644853392812 0.1399454205365751 0 0.39801143831225599 0.16651381068160659 0 0.33084213324567391 0.16272720141332131 0 0.3572130504031617 0.1874703368446563 0 0.36246644853392812 0.1399454205365751 0 0.36246644853392812 0.1399454205365751 0 0.39801143831225599 0.16651381068160659 0 0.39823268594401579 0.1116623613130045 0 0.39801143831225599 0.16651381068160659 0 0.42905200079338551 0.19982395548231649 0 0.44288491854585582 0.14116182884956319 0 0.39801143831225599 0.16651381068160659 0 0.44288491854585582 0.14116182884956319 0 0.39823268594401579 0.1116623613130045 0 0.38831533174504851 0.2189834941785925 0 0.42377727103934271 0.25099357235810238 0 0.3786248352540974 0.27082301512024259 0 0.3572130504031617 0.1874703368446563 0 0.39801143831225599 0.16651381068160659 0 0.38831533174504851 0.2189834941785925 0 0.39801143831225599 0.16651381068160659 0 0.38831533174504851 0.2189834941785925 0 0.42905200079338551 0.19982395548231649 0 0.38831533174504851 0.2189834941785925 0 0.42905200079338551 0.19982395548231649 0 0.42377727103934271 0.25099357235810238 0 0.42905200079338551 0.19982395548231649 0 0.46429753744194407 0.22870891180733599 0 0.42377727103934271 0.25099357235810238 0 0.42905200079338551 0.19982395548231649 0 0.46429753744194407 0.22870891180733599 0 0.47357141910802508 0.1873585799078378 0 0.47357141910802508 0.1873585799078378 0 0.51729576145820033 0.1683240575987815 0 0.50760557329222289 0.20700468884612061 0 0.46429753744194407 0.22870891180733599 0 0.47357141910802508 0.1873585799078378 0 0.50760557329222289 0.20700468884612061 0 0.46429753744194407 0.22870891180733599 0 0.49695729691142171 0.25014895411178018 0 0.50760557329222289 0.20700468884612061 0 0.44288491854585582 0.14116182884956319 0 0.47357141910802508 0.1873585799078378 0 0.48466639505193998 0.1421439844745814 0 0.42905200079338551 0.19982395548231649 0 0.44288491854585582 0.14116182884956319 0 0.47357141910802508 0.1873585799078378 0 0.47357141910802508 0.1873585799078378 0 0.48466639505193998 0.1421439844745814 0 0.51729576145820033 0.1683240575987815 0 0.44288491854585582 0.14116182884956319 0 0.48466639505193998 0.1421439844745814 0 0.47881186583059909 0.093591717165689425 0 0.48466639505193998 0.1421439844745814 0 0.47881186583059909 0.093591717165689425 0 0.51076801031701946 0.1202837388510348 0 0.44288491854585582 0.14116182884956319 0 0.47881186583059909 0.093591717165689425 0 0.43698630808430822 0.080423614171545449 0 0.47881186583059909 0.093591717165689425 0 0.47040171442036788 0.044141676406503738 0 0.43698630808430822 0.080423614171545449 0 0.47881186583059909 0.093591717165689425 0 0.47040171442036788 0.044141676406503738 0 0.52375890611712683 0.059318771819432882 0 0.47040171442036788 0.044141676406503738 0 0.49999999999869432 0 0 0.52375890611712683 0.059318771819432882 0 0.47040171442036788 0.044141676406503738 0 0.49999999999869432 0 0 0.44999999999882923 0 0 0.47040171442036788 0.044141676406503738 0 0.44999999999882923 0 0 0.4320097814748517 0.037406712692169303 0 0.47040171442036788 0.044141676406503738 0 0.4320097814748517 0.037406712692169303 0 0.43698630808430822 0.080423614171545449 0 0.4320097814748517 0.037406712692169303 0 0.3999999999989749 0 0 0.39591832466117061 0.056982757562006353 0 0.4320097814748517 0.037406712692169303 0 0.39591832466117061 0.056982757562006353 0 0.43698630808430822 0.080423614171545449 0 0.44999999999882923 0 0 0.4320097814748517 0.037406712692169303 0 0.3999999999989749 0 0 0.3615861437013822 0.03582617922508851 0 0.3999999999989749 0 0 0.39591832466117061 0.056982757562006353 0 0.35312867752657662 0.084946736076730367 0 0.39591832466117061 0.056982757562006353 0 0.39823268594401579 0.1116623613130045 0 0.44288491854585582 0.14116182884956319 0 0.39823268594401579 0.1116623613130045 0 0.43698630808430822 0.080423614171545449 0 0.39591832466117061 0.056982757562006353 0 0.39823268594401579 0.1116623613130045 0 0.43698630808430822 0.080423614171545449 0 0.42161023666869668 0.39493916313643851 0 0.38707855792647411 0.42299362914874578 0 0.43249999999999988 0.43937499999999979 0 0.42161023666869668 0.39493916313643851 0 0.38083244760691543 0.38531983672244652 0 0.38707855792647411 0.42299362914874578 0 0.42161023666869668 0.39493916313643851 0 0.38083244760691543 0.38531983672244652 0 0.40076539126862748 0.34589349467022118 0 0.38707855792647411 0.42299362914874578 0 0.3908716102680424 0.47010282357248828 0 0.43249999999999988 0.43937499999999979 0 0.3908716102680424 0.47010282357248828 0 0.43507373378304309 0.49699695397193322 0 0.38244435121258652 0.51653317813019495 0 0.3908716102680424 0.47010282357248828 0 0.43507373378304309 0.49699695397193322 0 0.43249999999999988 0.43937499999999979 0 0.43507373378304309 0.49699695397193322 0 0.43249999999999988 0.43937499999999979 0 0.46111841286828259 0.46690301029591341 0 0.43249999999999988 0.43937499999999979 0 0.46111841286828259 0.46690301029591341 0 0.48858720058566618 0.43964267759203868 0 0.43507373378304309 0.49699695397193322 0 0.46111841286828259 0.46690301029591341 0 0.49102375406324739 0.49123754822244059 0 0.46111841286828259 0.46690301029591341 0 0.49102375406324739 0.49123754822244059 0 0.48858720058566618 0.43964267759203868 0 0.48858720058566618 0.43964267759203868 0 0.46655310992796922 0.39650496622958609 0 0.52289427570932567 0.3932284363388488 0 0.43249999999999988 0.43937499999999979 0 0.48858720058566618 0.43964267759203868 0 0.46655310992796922 0.39650496622958609 0 0.42161023666869668 0.39493916313643851 0 0.43249999999999988 0.43937499999999979 0 0.46655310992796922 0.39650496622958609 0 0.42161023666869668 0.39493916313643851 0 0.46655310992796922 0.39650496622958609 0 0.4409427642593301 0.35743108089689513 0 0.46655310992796922 0.39650496622958609 0 0.49077833859261139 0.35229981449445641 0 0.52289427570932567 0.3932284363388488 0 0.49077833859261139 0.35229981449445641 0 0.46226845272279993 0.31901800744800313 0 0.5 0.29999999999999999 0 0.49077833859261139 0.35229981449445641 0 0.46226845272279993 0.31901800744800313 0 0.4409427642593301 0.35743108089689513 0 0.46226845272279993 0.31901800744800313 0 0.4409427642593301 0.35743108089689513 0 0.41914690343363781 0.30688979866601612 0 0.46655310992796922 0.39650496622958609 0 0.49077833859261139 0.35229981449445641 0 0.4409427642593301 0.35743108089689513 0 0.49695729691142171 0.25014895411178018 0 0.4604742573284204 0.27846934318264788 0 0.5 0.29999999999999999 0 0.46429753744194407 0.22870891180733599 0 0.49695729691142171 0.25014895411178018 0 0.4604742573284204 0.27846934318264788 0 0.46226845272279993 0.31901800744800313 0 0.4604742573284204 0.27846934318264788 0 0.5 0.29999999999999999 0 0.46226845272279993 0.31901800744800313 0 0.4604742573284204 0.27846934318264788 0 0.41914690343363781 0.30688979866601612 0 0.46429753744194407 0.22870891180733599 0 0.4604742573284204 0.27846934318264788 0 0.42377727103934271 0.25099357235810238 0 0.4604742573284204 0.27846934318264788 0 0.42377727103934271 0.25099357235810238 0 0.41914690343363781 0.30688979866601612 0 0.42377727103934271 0.25099357235810238 0 0.41914690343363781 0.30688979866601612 0 0.3786248352540974 0.27082301512024259 0 0.41914690343363781 0.30688979866601612 0 0.3786248352540974 0.27082301512024259 0 0.36575549820117997 0.31677992835137742 0 0.42161023666869668 0.39493916313643851 0 0.4409427642593301 0.35743108089689513 0 0.40076539126862748 0.34589349467022118 0 0.4409427642593301 0.35743108089689513 0 0.41914690343363781 0.30688979866601612 0 0.40076539126862748 0.34589349467022118 0 0.41914690343363781 0.30688979866601612 0 0.40076539126862748 0.34589349467022118 0 0.36575549820117997 0.31677992835137742 0 0.40076539126862748 0.34589349467022118 0 0.36575549820117997 0.31677992835137742 0 0.33277555741076909 0.36432196682010132 0 0.38083244760691543 0.38531983672244652 0 0.40076539126862748 0.34589349467022118 0 0.33277555741076909 0.36432196682010132 0 0.36575549820117997 0.31677992835137742 0 0.32752639306529541 0.32610012995269699 0 0.33277555741076909 0.36432196682010132 0 0.32752639306529541 0.32610012995269699 0 0.33277555741076909 0.36432196682010132 0 0.29644548887253103 0.34914008784168082 0 0.33758650185219202 0.23837101504325639 0 0.3786248352540974 0.27082301512024259 0 0.33402499257867951 0.28911035184473982 0 0.3786248352540974 0.27082301512024259 0 0.36575549820117997 0.31677992835137742 0 0.33402499257867951 0.28911035184473982 0 0.36575549820117997 0.31677992835137742 0 0.32752639306529541 0.32610012995269699 0 0.33402499257867951 0.28911035184473982 0 0.32752639306529541 0.32610012995269699 0 0.33402499257867951 0.28911035184473982 0 0.29348325746214782 0.31350119524708198 0 0.33758650185219202 0.23837101504325639 0 0.33402499257867951 0.28911035184473982 0 0.29132859388405002 0.27203693976649962 0 0.33402499257867951 0.28911035184473982 0 0.29132859388405002 0.27203693976649962 0 0.29348325746214782 0.31350119524708198 0 0.29132859388405002 0.27203693976649962 0 0.29348325746214782 0.31350119524708198 0 0.24432083401701241 0.3006253385567515 0 0.29132859388405002 0.27203693976649962 0 0.25195515620380449 0.25883339815888678 0 0.24432083401701241 0.3006253385567515 0 0.28040350263641872 0.23054717217092141 0 0.29132859388405002 0.27203693976649962 0 0.25195515620380449 0.25883339815888678 0 0.33277555741076909 0.36432196682010132 0 0.29644548887253103 0.34914008784168082 0 0.27866744612395528 0.38416094670951489 0 0.32752639306529541 0.32610012995269699 0 0.29644548887253103 0.34914008784168082 0 0.29348325746214782 0.31350119524708198 0 0.29644548887253103 0.34914008784168082 0 0.29348325746214782 0.31350119524708198 0 0.25966125648670141 0.34351016742083729 0 0.29348325746214782 0.31350119524708198 0 0.25966125648670141 0.34351016742083729 0 0.24432083401701241 0.3006253385567515 0 0.29644548887253103 0.34914008784168082 0 0.25966125648670141 0.34351016742083729 0 0.27866744612395528 0.38416094670951489 0 0.25966125648670141 0.34351016742083729 0 0.27866744612395528 0.38416094670951489 0 0.22033343844674469 0.36963382230740238 0 0.27866744612395528 0.38416094670951489 0 0.29124338931648802 0.43334555462578611 0 0.24049127783545701 0.41270748208749802 0 0.29124338931648802 0.43334555462578611 0 0.25982634974572738 0.46097799597715272 0 0.24049127783545701 0.41270748208749802 0 0.27866744612395528 0.38416094670951489 0 0.29124338931648802 0.43334555462578611 0 0.31778888742534622 0.40581751814196781 0 0.33277555741076909 0.36432196682010132 0 0.27866744612395528 0.38416094670951489 0 0.31778888742534622 0.40581751814196781 0 0.33277555741076909 0.36432196682010132 0 0.31778888742534622 0.40581751814196781 0 0.35221190152536241 0.40457127605439203 0 0.31778888742534622 0.40581751814196781 0 0.35221190152536241 0.40457127605439203 0 0.34258405725730701 0.4444034294386992 0 0.29124338931648802 0.43334555462578611 0 0.31778888742534622 0.40581751814196781 0 0.34258405725730701 0.4444034294386992 0 0.38707855792647411 0.42299362914874578 0 0.35221190152536241 0.40457127605439203 0 0.34258405725730701 0.4444034294386992 0 0.38083244760691543 0.38531983672244652 0 0.38707855792647411 0.42299362914874578 0 0.35221190152536241 0.40457127605439203 0 0.38083244760691543 0.38531983672244652 0 0.33277555741076909 0.36432196682010132 0 0.35221190152536241 0.40457127605439203 0 0.3908716102680424 0.47010282357248828 0 0.35024835142131061 0.48654922671676981 0 0.38244435121258652 0.51653317813019495 0 0.3908716102680424 0.47010282357248828 0 0.35024835142131061 0.48654922671676981 0 0.34258405725730701 0.4444034294386992 0 0.38707855792647411 0.42299362914874578 0 0.3908716102680424 0.47010282357248828 0 0.34258405725730701 0.4444034294386992 0 0.29124338931648802 0.43334555462578611 0 0.34258405725730701 0.4444034294386992 0 0.31068898841644388 0.47541502461811092 0 0.35024835142131061 0.48654922671676981 0 0.31068898841644388 0.47541502461811092 0 0.33190227185843768 0.52715113583864037 0 0.35024835142131061 0.48654922671676981 0 0.34258405725730701 0.4444034294386992 0 0.31068898841644388 0.47541502461811092 0 0.31068898841644388 0.47541502461811092 0 0.25982634974572738 0.46097799597715272 0 0.28307294598219601 0.50789252727458634 0 0.29124338931648802 0.43334555462578611 0 0.31068898841644388 0.47541502461811092 0 0.25982634974572738 0.46097799597715272 0 0.25982634974572738 0.46097799597715272 0 0.23975172658309729 0.49475499200540818 0 0.28307294598219601 0.50789252727458634 0 0.23975172658309729 0.49475499200540818 0 0.19604738184454831 0.47787523520405789 0 0.22278230690790279 0.44824268025881547 0 0.19604738184454831 0.47787523520405789 0 0.22278230690790279 0.44824268025881547 0 0.191953871957803 0.42546416763755879 0 0.25982634974572738 0.46097799597715272 0 0.22278230690790279 0.44824268025881547 0 0.24049127783545701 0.41270748208749802 0 0.25982634974572738 0.46097799597715272 0 0.23975172658309729 0.49475499200540818 0 0.22278230690790279 0.44824268025881547 0 0.27866744612395528 0.38416094670951489 0 0.24049127783545701 0.41270748208749802 0 0.22033343844674469 0.36963382230740238 0 0.191953871957803 0.42546416763755879 0 0.1650278706801647 0.38791388161335733 0 0.22033343844674469 0.36963382230740238 0 0.24049127783545701 0.41270748208749802 0 0.191953871957803 0.42546416763755879 0 0.22033343844674469 0.36963382230740238 0 0.22278230690790279 0.44824268025881547 0 0.24049127783545701 0.41270748208749802 0 0.191953871957803 0.42546416763755879 0 0.191953871957803 0.42546416763755879 0 0.13773355295499351 0.42497777642586831 0 0.15801167086041079 0.46008690540259539 0 0.191953871957803 0.42546416763755879 0 0.1650278706801647 0.38791388161335733 0 0.13773355295499351 0.42497777642586831 0 0.1650278706801647 0.38791388161335733 0 0.13773355295499351 0.42497777642586831 0 0.1117088112799664 0.38831403004970022 0 0.13773355295499351 0.42497777642586831 0 0.15801167086041079 0.46008690540259539 0 0.113541300460994 0.46208784312094731 0 0.15801167086041079 0.46008690540259539 0 0.113541300460994 0.46208784312094731 0 0.1216098864341134 0.50637075089503902 0 0.15801167086041079 0.46008690540259539 0 0.1216098864341134 0.50637075089503902 0 0.16618607197337229 0.50652878253548905 0 0.19604738184454831 0.47787523520405789 0 0.15801167086041079 0.46008690540259539 0 0.16618607197337229 0.50652878253548905 0 0.19604738184454831 0.47787523520405789 0 0.191953871957803 0.42546416763755879 0 0.15801167086041079 0.46008690540259539 0 0.25195515620380449 0.25883339815888678 0 0.21049769590865089 0.26857363548218488 0 0.24432083401701241 0.3006253385567515 0 0.21049769590865089 0.26857363548218488 0 0.24432083401701241 0.3006253385567515 0 0.19670163708476801 0.31472518408333222 0 0.21049769590865089 0.26857363548218488 0 0.19670163708476801 0.31472518408333222 0 0.168349569971391 0.28054490850913671 0 0.19670163708476801 0.31472518408333222 0 0.22615676742807109 0.33458786033114157 0 0.18434624290945251 0.35208838264196463 0 0.24432083401701241 0.3006253385567515 0 0.19670163708476801 0.31472518408333222 0 0.22615676742807109 0.33458786033114157 0 0.25966125648670141 0.34351016742083729 0 0.24432083401701241 0.3006253385567515 0 0.22615676742807109 0.33458786033114157 0 0.25966125648670141 0.34351016742083729 0 0.22615676742807109 0.33458786033114157 0 0.22033343844674469 0.36963382230740238 0 0.22615676742807109 0.33458786033114157 0 0.22033343844674469 0.36963382230740238 0 0.18434624290945251 0.35208838264196463 0 0.1650278706801647 0.38791388161335733 0 0.22033343844674469 0.36963382230740238 0 0.18434624290945251 0.35208838264196463 0 0.1650278706801647 0.38791388161335733 0 0.18434624290945251 0.35208838264196463 0 0.14223753364722069 0.3341983344262433 0 0.1650278706801647 0.38791388161335733 0 0.14223753364722069 0.3341983344262433 0 0.1117088112799664 0.38831403004970022 0 0.19670163708476801 0.31472518408333222 0 0.18434624290945251 0.35208838264196463 0 0.14223753364722069 0.3341983344262433 0 0.19670163708476801 0.31472518408333222 0 0.14223753364722069 0.3341983344262433 0 0.168349569971391 0.28054490850913671 0 0.14223753364722069 0.3341983344262433 0 0.168349569971391 0.28054490850913671 0 0.1247745017231483 0.27198077544791172 0 0.14377654328998779 0.2442024734791064 0 0.168349569971391 0.28054490850913671 0 0.1247745017231483 0.27198077544791172 0 0.17933913398461551 0.2350063570234002 0 0.21049769590865089 0.26857363548218488 0 0.168349569971391 0.28054490850913671 0 0.17933913398461551 0.2350063570234002 0 0.14377654328998779 0.2442024734791064 0 0.168349569971391 0.28054490850913671 0 0.095326043202144745 0.24554465089224409 0 0.093851963071650835 0.30582068233324772 0 0.049706944316556423 0.27522722923869108 0 0.095326043202144745 0.24554465089224409 0 0.14377654328998779 0.2442024734791064 0 0.1247745017231483 0.27198077544791172 0 0.095326043202144745 0.24554465089224409 0 0.1247745017231483 0.27198077544791172 0 0.093851963071650835 0.30582068233324772 0 0.14223753364722069 0.3341983344262433 0 0.1247745017231483 0.27198077544791172 0 0.093851963071650835 0.30582068233324772 0 0.093851963071650835 0.30582068233324772 0 0.046389130980076937 0.32668781832131749 0 0.049706944316556423 0.27522722923869108 0 0.093851963071650835 0.30582068233324772 0 0.087545339447545459 0.35122518864182262 0 0.046389130980076937 0.32668781832131749 0 0.14223753364722069 0.3341983344262433 0 0.093851963071650835 0.30582068233324772 0 0.087545339447545459 0.35122518864182262 0 0.14223753364722069 0.3341983344262433 0 0.087545339447545459 0.35122518864182262 0 0.1117088112799664 0.38831403004970022 0 0.087545339447545459 0.35122518864182262 0 0.1117088112799664 0.38831403004970022 0 0.050583896093752537 0.38543522283434112 0 0.087545339447545459 0.35122518864182262 0 0.046389130980076937 0.32668781832131749 0 0.050583896093752537 0.38543522283434112 0 0 0.35000000000145642 0 0.046389130980076937 0.32668781832131749 0 0.050583896093752537 0.38543522283434112 0 0 0.35000000000145642 0 0.046389130980076937 0.32668781832131749 0 0 0.30000000000124832 0 0.046389130980076937 0.32668781832131749 0 0 0.30000000000124832 0 0.049706944316556423 0.27522722923869108 0 0 0.30000000000124832 0 0 0.25000000000104028 0 0.049706944316556423 0.27522722923869108 0 0.044081577119474857 0.2271058242433576 0 0 0.25000000000104028 0 0.049706944316556423 0.27522722923869108 0 0.068743045408989428 0.48853989837882689 0 0.113541300460994 0.46208784312094731 0 0.078358742472063481 0.43365249433908948 0 0.068743045408989428 0.48853989837882689 0 0.113541300460994 0.46208784312094731 0 0.1216098864341134 0.50637075089503902 0 0.13773355295499351 0.42497777642586831 0 0.113541300460994 0.46208784312094731 0 0.078358742472063481 0.43365249433908948 0 0.13773355295499351 0.42497777642586831 0 0.1117088112799664 0.38831403004970022 0 0.078358742472063481 0.43365249433908948 0 0.1117088112799664 0.38831403004970022 0 0.078358742472063481 0.43365249433908948 0 0.050583896093752537 0.38543522283434112 0 0.078358742472063481 0.43365249433908948 0 0.035463093262830522 0.42673416072819947 0 0.050583896093752537 0.38543522283434112 0 0 0.35000000000145642 0 0.050583896093752537 0.38543522283434112 0 0 0.40000000000166441 0 0.035463093262830522 0.42673416072819947 0 0.050583896093752537 0.38543522283434112 0 0 0.40000000000166441 0 0.035463093262830522 0.42673416072819947 0 0 0.40000000000166441 0 0 0.45000000000187229 0 0.035463093262830522 0.42673416072819947 0 0 0.45000000000187229 0 0.033550201249889847 0.46247875832467239 0 0.068743045408989428 0.48853989837882689 0 0.033550201249889847 0.46247875832467239 0 0 0.50000000000205869 0 0.068743045408989428 0.48853989837882689 0 0.078358742472063481 0.43365249433908948 0 0.033550201249889847 0.46247875832467239 0 0.078358742472063481 0.43365249433908948 0 0.035463093262830522 0.42673416072819947 0 0.033550201249889847 0.46247875832467239 0 0 0.45000000000187229 0 0.033550201249889847 0.46247875832467239 0 0 0.50000000000205869 0 0.068743045408989428 0.48853989837882689 0 0 0.50000000000205869 0 0.044576108720083309 0.53509043209532614 0 0 0.50000000000205869 0 0 0.55000000000173355 0 0.044576108720083309 0.53509043209532614 0 0 0.55000000000173355 0 0.044576108720083309 0.53509043209532614 0 0.034381862692950467 0.57372682250960894 0 0.044576108720083309 0.53509043209532614 0 0.077693244765132896 0.56932317963405099 0 0.034381862692950467 0.57372682250960894 0 0.068743045408989428 0.48853989837882689 0 0.044576108720083309 0.53509043209532614 0 0.085622222639554768 0.53333248912060549 0 0.068743045408989428 0.48853989837882689 0 0.085622222639554768 0.53333248912060549 0 0.1216098864341134 0.50637075089503902 0 0.044576108720083309 0.53509043209532614 0 0.085622222639554768 0.53333248912060549 0 0.077693244765132896 0.56932317963405099 0 0.085622222639554768 0.53333248912060549 0 0.1154888278694548 0.56733818459978413 0 0.077693244765132896 0.56932317963405099 0 0.085622222639554768 0.53333248912060549 0 0.1216098864341134 0.50637075089503902 0 0.1154888278694548 0.56733818459978413 0 0.1024350934457823 0.60772393977513839 0 0.1154888278694548 0.56733818459978413 0 0.077693244765132896 0.56932317963405099 0 0.1024350934457823 0.60772393977513839 0 0.050069554451969707 0.61308520079857043 0 0.086179601630648681 0.64647209519980475 0 0.1024350934457823 0.60772393977513839 0 0.077693244765132896 0.56932317963405099 0 0.050069554451969707 0.61308520079857043 0 0.077693244765132896 0.56932317963405099 0 0.050069554451969707 0.61308520079857043 0 0.034381862692950467 0.57372682250960894 0 0 0.55000000000173355 0 0.034381862692950467 0.57372682250960894 0 0 0.60000000000138687 0 0.050069554451969707 0.61308520079857043 0 0 0.60000000000138687 0 0 0.65000000000104008 0 0.050069554451969707 0.61308520079857043 0 0.034381862692950467 0.57372682250960894 0 0 0.60000000000138687 0 0 0.65000000000104008 0 0.046634677244967337 0.671418230738282 0 0 0.7000000000006934 0 0.050069554451969707 0.61308520079857043 0 0.046634677244967337 0.671418230738282 0 0.086179601630648681 0.64647209519980475 0 0.050069554451969707 0.61308520079857043 0 0 0.65000000000104008 0 0.046634677244967337 0.671418230738282 0 0 0.7000000000006934 0 0.049706944316475897 0.72477277076253799 0 0 0.75000000000034661 0 0.046634677244967337 0.671418230738282 0 0 0.7000000000006934 0 0.049706944316475897 0.72477277076253799 0 0.049706944316475897 0.72477277076253799 0 0 0.75000000000034661 0 0.04408157711937423 0.7728941757575627 0 0.049706944316475897 0.72477277076253799 0 0.1020579365089687 0.69352219419301997 0 0.090953281884486245 0.7564451946902494 0 0.1020579365089687 0.69352219419301997 0 0.1215415378367805 0.72939333680004137 0 0.090953281884486245 0.7564451946902494 0 0.046634677244967337 0.671418230738282 0 0.049706944316475897 0.72477277076253799 0 0.1020579365089687 0.69352219419301997 0 0.1215415378367805 0.72939333680004137 0 0.090953281884486245 0.7564451946902494 0 0.14335651144331049 0.75565258250209677 0 0.046634677244967337 0.671418230738282 0 0.1020579365089687 0.69352219419301997 0 0.086179601630648681 0.64647209519980475 0 0.1020579365089687 0.69352219419301997 0 0.086179601630648681 0.64647209519980475 0 0.1241190223511371 0.64391885572885044 0 0.1024350934457823 0.60772393977513839 0 0.086179601630648681 0.64647209519980475 0 0.1241190223511371 0.64391885572885044 0 0.1020579365089687 0.69352219419301997 0 0.1241190223511371 0.64391885572885044 0 0.16500388252850301 0.66612077714085194 0 0.1241190223511371 0.64391885572885044 0 0.16500388252850301 0.66612077714085194 0 0.15720202157091859 0.60665697304410315 0 0.16500388252850301 0.66612077714085194 0 0.19914261668318661 0.62286739485272158 0 0.15720202157091859 0.60665697304410315 0 0.1020579365089687 0.69352219419301997 0 0.16500388252850301 0.66612077714085194 0 0.15332765547575641 0.71200081858233666 0 0.1215415378367805 0.72939333680004137 0 0.15332765547575641 0.71200081858233666 0 0.14335651144331049 0.75565258250209677 0 0.1020579365089687 0.69352219419301997 0 0.1215415378367805 0.72939333680004137 0 0.15332765547575641 0.71200081858233666 0 0.16500388252850301 0.66612077714085194 0 0.15332765547575641 0.71200081858233666 0 0.19068556247388771 0.71028988922845504 0 0.15332765547575641 0.71200081858233666 0 0.14335651144331049 0.75565258250209677 0 0.18269480424590959 0.75905448272264375 0 0.15332765547575641 0.71200081858233666 0 0.19068556247388771 0.71028988922845504 0 0.18269480424590959 0.75905448272264375 0 0.19068556247388771 0.71028988922845504 0 0.2248999640082178 0.72584299459689172 0 0.18269480424590959 0.75905448272264375 0 0.19068556247388771 0.71028988922845504 0 0.2248999640082178 0.72584299459689172 0 0.2236846579037573 0.67380363126050236 0 0.2248999640082178 0.72584299459689172 0 0.2236846579037573 0.67380363126050236 0 0.26439878998046262 0.7048065392091396 0 0.2248999640082178 0.72584299459689172 0 0.22556077506376701 0.77837424984191617 0 0.25676291524611189 0.7436741304886243 0 0.2248999640082178 0.72584299459689172 0 0.25676291524611189 0.7436741304886243 0 0.26439878998046262 0.7048065392091396 0 0.16500388252850301 0.66612077714085194 0 0.2236846579037573 0.67380363126050236 0 0.19914261668318661 0.62286739485272158 0 0.16500388252850301 0.66612077714085194 0 0.19068556247388771 0.71028988922845504 0 0.2236846579037573 0.67380363126050236 0 0.2236846579037573 0.67380363126050236 0 0.2459498854893499 0.63248470766216769 0 0.19914261668318661 0.62286739485272158 0 0.2236846579037573 0.67380363126050236 0 0.2459498854893499 0.63248470766216769 0 0.27820712747429932 0.65530134213254643 0 0.2459498854893499 0.63248470766216769 0 0.19914261668318661 0.62286739485272158 0 0.22549374774072969 0.58452645269293457 0 0.2459498854893499 0.63248470766216769 0 0.22549374774072969 0.58452645269293457 0 0.26573297623774761 0.59828298563722948 0 0.19914261668318661 0.62286739485272158 0 0.22549374774072969 0.58452645269293457 0 0.18381867841758909 0.57774125163628387 0 0.22549374774072969 0.58452645269293457 0 0.20050006573841939 0.53248514016039872 0 0.18381867841758909 0.57774125163628387 0 0.22549374774072969 0.58452645269293457 0 0.25115337790845271 0.54719303014923271 0 0.26573297623774761 0.59828298563722948 0 0.22549374774072969 0.58452645269293457 0 0.20050006573841939 0.53248514016039872 0 0.25115337790845271 0.54719303014923271 0 0.23975172658309729 0.49475499200540818 0 0.20050006573841939 0.53248514016039872 0 0.25115337790845271 0.54719303014923271 0 0.19604738184454831 0.47787523520405789 0 0.20050006573841939 0.53248514016039872 0 0.16618607197337229 0.50652878253548905 0 0.23975172658309729 0.49475499200540818 0 0.19604738184454831 0.47787523520405789 0 0.20050006573841939 0.53248514016039872 0 0.20050006573841939 0.53248514016039872 0 0.14934928745814749 0.55042914607228977 0 0.18381867841758909 0.57774125163628387 0 0.20050006573841939 0.53248514016039872 0 0.16618607197337229 0.50652878253548905 0 0.14934928745814749 0.55042914607228977 0 0.1216098864341134 0.50637075089503902 0 0.16618607197337229 0.50652878253548905 0 0.14934928745814749 0.55042914607228977 0 0.1216098864341134 0.50637075089503902 0 0.1154888278694548 0.56733818459978413 0 0.14934928745814749 0.55042914607228977 0 0.1154888278694548 0.56733818459978413 0 0.14934928745814749 0.55042914607228977 0 0.15720202157091859 0.60665697304410315 0 0.1024350934457823 0.60772393977513839 0 0.1154888278694548 0.56733818459978413 0 0.15720202157091859 0.60665697304410315 0 0.1024350934457823 0.60772393977513839 0 0.1241190223511371 0.64391885572885044 0 0.15720202157091859 0.60665697304410315 0 0.19914261668318661 0.62286739485272158 0 0.15720202157091859 0.60665697304410315 0 0.18381867841758909 0.57774125163628387 0 0.14934928745814749 0.55042914607228977 0 0.15720202157091859 0.60665697304410315 0 0.18381867841758909 0.57774125163628387 0 0.10000000000041601 1 0 0.10266856499240549 0.95548163909968886 0 0.15000000000062411 1 0 0.10266856499240549 0.95548163909968886 0 0.053064897599294662 0.95186845269532028 0 0.083411279318375747 0.91030024466934134 0 0.10000000000041601 1 0 0.050000000000207989 1 0 0.053064897599294662 0.95186845269532028 0 0.10000000000041601 1 0 0.10266856499240549 0.95548163909968886 0 0.053064897599294662 0.95186845269532028 0 0.050000000000207989 1 0 0.025766224399875661 0.97546711317377799 0 0.053064897599294662 0.95186845269532028 0 0.050000000000207989 1 0 0 1 0 0.025766224399875661 0.97546711317377799 0 0 1 0 0.025766224399875661 0.97546711317377799 0 0 0.94999999999979179 0 0.025766224399875661 0.97546711317377799 0 0 0.94999999999979179 0 0.053064897599294662 0.95186845269532028 0 0 0.94999999999979179 0 0.053064897599294662 0.95186845269532028 0 0.0443105827531413 0.89858748162559932 0 0.053064897599294662 0.95186845269532028 0 0.0443105827531413 0.89858748162559932 0 0.083411279318375747 0.91030024466934134 0 0 0.94999999999979179 0 0 0.89999999999958358 0 0.0443105827531413 0.89858748162559932 0 0 0.89999999999958358 0 0.0443105827531413 0.89858748162559932 0 0 0.84999999999965292 0 0.0443105827531413 0.89858748162559932 0 0.083411279318375747 0.91030024466934134 0 0.065374659239661639 0.8551091961254178 0 0.083411279318375747 0.91030024466934134 0 0.10562472963403439 0.87143394428979881 0 0.065374659239661639 0.8551091961254178 0 0.10266856499240549 0.95548163909968886 0 0.083411279318375747 0.91030024466934134 0 0.1241151115713819 0.9045666525468371 0 0.10266856499240549 0.95548163909968886 0 0.1241151115713819 0.9045666525468371 0 0.14617343800780541 0.93808063414349496 0 0.1241151115713819 0.9045666525468371 0 0.10562472963403439 0.87143394428979881 0 0.14474682429600511 0.85524784522713515 0 0.083411279318375747 0.91030024466934134 0 0.1241151115713819 0.9045666525468371 0 0.10562472963403439 0.87143394428979881 0 0.10562472963403439 0.87143394428979881 0 0.1074251789111534 0.83564394292147814 0 0.14474682429600511 0.85524784522713515 0 0.1074251789111534 0.83564394292147814 0 0.065374659239661639 0.8551091961254178 0 0.083105206071452636 0.79992298667296435 0 0.10562472963403439 0.87143394428979881 0 0.1074251789111534 0.83564394292147814 0 0.065374659239661639 0.8551091961254178 0 0.065374659239661639 0.8551091961254178 0 0 0.84999999999965292 0 0.038512288486097702 0.8155852717111195 0 0.0443105827531413 0.89858748162559932 0 0.065374659239661639 0.8551091961254178 0 0 0.84999999999965292 0 0 0.84999999999965292 0 0.038512288486097702 0.8155852717111195 0 0 0.79999999999999982 0 0.065374659239661639 0.8551091961254178 0 0.038512288486097702 0.8155852717111195 0 0.083105206071452636 0.79992298667296435 0 0.038512288486097702 0.8155852717111195 0 0.04408157711937423 0.7728941757575627 0 0.083105206071452636 0.79992298667296435 0 0.038512288486097702 0.8155852717111195 0 0 0.79999999999999982 0 0.04408157711937423 0.7728941757575627 0 0 0.79999999999999982 0 0 0.75000000000034661 0 0.04408157711937423 0.7728941757575627 0 0.049706944316475897 0.72477277076253799 0 0.04408157711937423 0.7728941757575627 0 0.090953281884486245 0.7564451946902494 0 0.04408157711937423 0.7728941757575627 0 0.090953281884486245 0.7564451946902494 0 0.083105206071452636 0.79992298667296435 0 0.1074251789111534 0.83564394292147814 0 0.083105206071452636 0.79992298667296435 0 0.1382744753146134 0.79650574229207483 0 0.090953281884486245 0.7564451946902494 0 0.083105206071452636 0.79992298667296435 0 0.1382744753146134 0.79650574229207483 0 0.090953281884486245 0.7564451946902494 0 0.14335651144331049 0.75565258250209677 0 0.1382744753146134 0.79650574229207483 0 0.14335651144331049 0.75565258250209677 0 0.1382744753146134 0.79650574229207483 0 0.18269480424590959 0.75905448272264375 0 0.1382744753146134 0.79650574229207483 0 0.18269480424590959 0.75905448272264375 0 0.17777405986036951 0.81832336108265358 0 0.2248999640082178 0.72584299459689172 0 0.18269480424590959 0.75905448272264375 0 0.22556077506376701 0.77837424984191617 0 0.22556077506376701 0.77837424984191617 0 0.21858834311891909 0.81980263716112767 0 0.26104540868854792 0.81401944968719064 0 0.22556077506376701 0.77837424984191617 0 0.21858834311891909 0.81980263716112767 0 0.17777405986036951 0.81832336108265358 0 0.18269480424590959 0.75905448272264375 0 0.22556077506376701 0.77837424984191617 0 0.17777405986036951 0.81832336108265358 0 0.21858834311891909 0.81980263716112767 0 0.19741632902693801 0.86755867406447229 0 0.17777405986036951 0.81832336108265358 0 0.21858834311891909 0.81980263716112767 0 0.2401283238295133 0.85648409884788523 0 0.26104540868854792 0.81401944968719064 0 0.21858834311891909 0.81980263716112767 0 0.2401283238295133 0.85648409884788523 0 0.19741632902693801 0.86755867406447229 0 0.19741632902693801 0.86755867406447229 0 0.17777405986036951 0.81832336108265358 0 0.14474682429600511 0.85524784522713515 0 0.19741632902693801 0.86755867406447229 0 0.14474682429600511 0.85524784522713515 0 0.16206583317966519 0.89685560785156404 0 0.1382744753146134 0.79650574229207483 0 0.17777405986036951 0.81832336108265358 0 0.14474682429600511 0.85524784522713515 0 0.1074251789111534 0.83564394292147814 0 0.1382744753146134 0.79650574229207483 0 0.14474682429600511 0.85524784522713515 0 0.1241151115713819 0.9045666525468371 0 0.14474682429600511 0.85524784522713515 0 0.16206583317966519 0.89685560785156404 0 0.1241151115713819 0.9045666525468371 0 0.16206583317966519 0.89685560785156404 0 0.14617343800780541 0.93808063414349496 0 0.16206583317966519 0.89685560785156404 0 0.19901705110390991 0.9175543425573498 0 0.14617343800780541 0.93808063414349496 0 0.19741632902693801 0.86755867406447229 0 0.16206583317966519 0.89685560785156404 0 0.19901705110390991 0.9175543425573498 0 0.19741632902693801 0.86755867406447229 0 0.24536017905392571 0.90704567837671446 0 0.19901705110390991 0.9175543425573498 0 0.2401283238295133 0.85648409884788523 0 0.19741632902693801 0.86755867406447229 0 0.24536017905392571 0.90704567837671446 0 0.24536017905392571 0.90704567837671446 0 0.19901705110390991 0.9175543425573498 0 0.22850979588452081 0.95594428570238643 0 0.19901705110390991 0.9175543425573498 0 0.22850979588452081 0.95594428570238643 0 0.18474005699953849 0.96231585248064622 0 0.24536017905392571 0.90704567837671446 0 0.22850979588452081 0.95594428570238643 0 0.27609987656793722 0.94991445621608572 0 0.22850979588452081 0.95594428570238643 0 0.20000000000083221 1 0 0.25000000000104028 1 0 0.22850979588452081 0.95594428570238643 0 0.20000000000083221 1 0 0.18474005699953849 0.96231585248064622 0 0.20000000000083221 1 0 0.18474005699953849 0.96231585248064622 0 0.15000000000062411 1 0 0.19901705110390991 0.9175543425573498 0 0.18474005699953849 0.96231585248064622 0 0.14617343800780541 0.93808063414349496 0 0.18474005699953849 0.96231585248064622 0 0.14617343800780541 0.93808063414349496 0 0.15000000000062411 1 0 0.10266856499240549 0.95548163909968886 0 0.14617343800780541 0.93808063414349496 0 0.15000000000062411 1 0 0.35000000000145642 1 0 0.36184234618600131 0.96443954459096326 0 0.32544832635163229 0.95485394099568932 0 0.35000000000145642 1 0 0.36184234618600131 0.96443954459096326 0 0.40000000000166441 1 0 0.36184234618600131 0.96443954459096326 0 0.32544832635163229 0.95485394099568932 0 0.35752321586431363 0.9185439911803448 0 0.36184234618600131 0.96443954459096326 0 0.35752321586431363 0.9185439911803448 0 0.39641108128798319 0.94356127926187128 0 0.35000000000145642 1 0 0.32544832635163229 0.95485394099568932 0 0.30000000000124832 1 0 0.30000000000124832 1 0 0.25000000000104028 1 0 0.27609987656793722 0.94991445621608572 0 0.22850979588452081 0.95594428570238643 0 0.25000000000104028 1 0 0.27609987656793722 0.94991445621608572 0 0.32544832635163229 0.95485394099568932 0 0.30000000000124832 1 0 0.27609987656793722 0.94991445621608572 0 0.32544832635163229 0.95485394099568932 0 0.27609987656793722 0.94991445621608572 0 0.30864387279288652 0.89906554525974958 0 0.24536017905392571 0.90704567837671446 0 0.27270076654418179 0.87751467830216623 0 0.30864387279288652 0.89906554525974958 0 0.24536017905392571 0.90704567837671446 0 0.27609987656793722 0.94991445621608572 0 0.30864387279288652 0.89906554525974958 0 0.2401283238295133 0.85648409884788523 0 0.24536017905392571 0.90704567837671446 0 0.27270076654418179 0.87751467830216623 0 0.30864387279288652 0.89906554525974958 0 0.35752321586431363 0.9185439911803448 0 0.35864759629805099 0.87963482415279515 0 0.32544832635163229 0.95485394099568932 0 0.30864387279288652 0.89906554525974958 0 0.35752321586431363 0.9185439911803448 0 0.35752321586431363 0.9185439911803448 0 0.35864759629805099 0.87963482415279515 0 0.39767323751400468 0.89584229130535065 0 0.35864759629805099 0.87963482415279515 0 0.33403534827021109 0.84402799729020661 0 0.39536230704883951 0.84069429572832477 0 0.33403534827021109 0.84402799729020661 0 0.35642984951668422 0.80994399665655703 0 0.39536230704883951 0.84069429572832477 0 0.33403534827021109 0.84402799729020661 0 0.30857225866488791 0.81101973481716805 0 0.35642984951668422 0.80994399665655703 0 0.30864387279288652 0.89906554525974958 0 0.35864759629805099 0.87963482415279515 0 0.33403534827021109 0.84402799729020661 0 0.30864387279288652 0.89906554525974958 0 0.33403534827021109 0.84402799729020661 0 0.29209212897034281 0.84715728365233667 0 0.27270076654418179 0.87751467830216623 0 0.30864387279288652 0.89906554525974958 0 0.29209212897034281 0.84715728365233667 0 0.2401283238295133 0.85648409884788523 0 0.27270076654418179 0.87751467830216623 0 0.29209212897034281 0.84715728365233667 0 0.2401283238295133 0.85648409884788523 0 0.29209212897034281 0.84715728365233667 0 0.26104540868854792 0.81401944968719064 0 0.29209212897034281 0.84715728365233667 0 0.26104540868854792 0.81401944968719064 0 0.30857225866488791 0.81101973481716805 0 0.33403534827021109 0.84402799729020661 0 0.29209212897034281 0.84715728365233667 0 0.30857225866488791 0.81101973481716805 0 0.26104540868854792 0.81401944968719064 0 0.30857225866488791 0.81101973481716805 0 0.2792923945214143 0.77665808831789485 0 0.30857225866488791 0.81101973481716805 0 0.2792923945214143 0.77665808831789485 0 0.33123028043633618 0.77629643437932982 0 0.22556077506376701 0.77837424984191617 0 0.26104540868854792 0.81401944968719064 0 0.2792923945214143 0.77665808831789485 0 0.2792923945214143 0.77665808831789485 0 0.25676291524611189 0.7436741304886243 0 0.29904318922293632 0.74132814928635593 0 0.22556077506376701 0.77837424984191617 0 0.2792923945214143 0.77665808831789485 0 0.25676291524611189 0.7436741304886243 0 0.2792923945214143 0.77665808831789485 0 0.33123028043633618 0.77629643437932982 0 0.29904318922293632 0.74132814928635593 0 0.33123028043633618 0.77629643437932982 0 0.29904318922293632 0.74132814928635593 0 0.35415581127540569 0.73730480045900215 0 0.30857225866488791 0.81101973481716805 0 0.33123028043633618 0.77629643437932982 0 0.35642984951668422 0.80994399665655703 0 0.33123028043633618 0.77629643437932982 0 0.35642984951668422 0.80994399665655703 0 0.38586766253264881 0.78219501014812498 0 0.33123028043633618 0.77629643437932982 0 0.38586766253264881 0.78219501014812498 0 0.35415581127540569 0.73730480045900215 0 0.38586766253264881 0.78219501014812498 0 0.42676259796334498 0.76772545931379299 0 0.40326160981139969 0.73346192995102844 0 0.38586766253264881 0.78219501014812498 0 0.35415581127540569 0.73730480045900215 0 0.40326160981139969 0.73346192995102844 0 0.38586766253264881 0.78219501014812498 0 0.42609163930740518 0.80361684430568059 0 0.39536230704883951 0.84069429572832477 0 0.35642984951668422 0.80994399665655703 0 0.38586766253264881 0.78219501014812498 0 0.39536230704883951 0.84069429572832477 0 0.38586766253264881 0.78219501014812498 0 0.42609163930740518 0.80361684430568059 0 0.42676259796334498 0.76772545931379299 0 0.42676259796334498 0.76772545931379299 0 0.4656888918609538 0.78493261229743638 0 0.45582236402875981 0.73896743678908217 0 0.4656888918609538 0.78493261229743638 0 0.45582236402875981 0.73896743678908217 0 0.50945740445113552 0.75476055527778108 0 0.4656888918609538 0.78493261229743638 0 0.50731287292894423 0.78963574450233831 0 0.50945740445113552 0.75476055527778108 0 0.4656888918609538 0.78493261229743638 0 0.50627822638148745 0.8263979829520941 0 0.50731287292894423 0.78963574450233831 0 0.42609163930740518 0.80361684430568059 0 0.4656888918609538 0.78493261229743638 0 0.45677673713123867 0.84253684404072415 0 0.42609163930740518 0.80361684430568059 0 0.42676259796334498 0.76772545931379299 0 0.4656888918609538 0.78493261229743638 0 0.4656888918609538 0.78493261229743638 0 0.45677673713123867 0.84253684404072415 0 0.50627822638148745 0.8263979829520941 0 0.45677673713123867 0.84253684404072415 0 0.50202631463681879 0.87892870825713787 0 0.50627822638148745 0.8263979829520941 0 0.45677673713123867 0.84253684404072415 0 0.44003836461056539 0.88093474584252718 0 0.50202631463681879 0.87892870825713787 0 0.45677673713123867 0.84253684404072415 0 0.39536230704883951 0.84069429572832477 0 0.44003836461056539 0.88093474584252718 0 0.39536230704883951 0.84069429572832477 0 0.39767323751400468 0.89584229130535065 0 0.44003836461056539 0.88093474584252718 0 0.42609163930740518 0.80361684430568059 0 0.45677673713123867 0.84253684404072415 0 0.39536230704883951 0.84069429572832477 0 0.35864759629805099 0.87963482415279515 0 0.39536230704883951 0.84069429572832477 0 0.39767323751400468 0.89584229130535065 0 0.35752321586431363 0.9185439911803448 0 0.39767323751400468 0.89584229130535065 0 0.39641108128798319 0.94356127926187128 0 0.39767323751400468 0.89584229130535065 0 0.4367309254023824 0.92065556789053882 0 0.39641108128798319 0.94356127926187128 0 0.39767323751400468 0.89584229130535065 0 0.4367309254023824 0.92065556789053882 0 0.44003836461056539 0.88093474584252718 0 0.4367309254023824 0.92065556789053882 0 0.44003836461056539 0.88093474584252718 0 0.47401147028110507 0.91529957330468115 0 0.44003836461056539 0.88093474584252718 0 0.47401147028110507 0.91529957330468115 0 0.50202631463681879 0.87892870825713787 0 0.47401147028110507 0.91529957330468115 0 0.47135117303824892 0.95556877749289892 0 0.52122150208832174 0.94089974453840242 0 0.47401147028110507 0.91529957330468115 0 0.52122150208832174 0.94089974453840242 0 0.50202631463681879 0.87892870825713787 0 0.4367309254023824 0.92065556789053882 0 0.47401147028110507 0.91529957330468115 0 0.47135117303824892 0.95556877749289892 0 0.4367309254023824 0.92065556789053882 0 0.47135117303824892 0.95556877749289892 0 0.4308986359464303 0.96395712492906194 0 0.47135117303824892 0.95556877749289892 0 0.50000000000205869 1 0 0.52122150208832174 0.94089974453840242 0 0.47135117303824892 0.95556877749289892 0 0.45000000000187229 1 0 0.50000000000205869 1 0 0.47135117303824892 0.95556877749289892 0 0.45000000000187229 1 0 0.4308986359464303 0.96395712492906194 0 0.45000000000187229 1 0 0.4308986359464303 0.96395712492906194 0 0.40000000000166441 1 0 0.4308986359464303 0.96395712492906194 0 0.39641108128798319 0.94356127926187128 0 0.40000000000166441 1 0 0.4367309254023824 0.92065556789053882 0 0.4308986359464303 0.96395712492906194 0 0.39641108128798319 0.94356127926187128 0 0.36184234618600131 0.96443954459096326 0 0.39641108128798319 0.94356127926187128 0 0.40000000000166441 1 0 0.33122374654748771 0.57588941099433744 0 0.31502927232353312 0.6134992213375432 0 0.35765792684946668 0.6000687869219653 0 0.31502927232353312 0.6134992213375432 0 0.35765792684946668 0.6000687869219653 0 0.35864735590330371 0.63903383440414463 0 0.35765792684946668 0.6000687869219653 0 0.35864735590330371 0.63903383440414463 0 0.39743091024207589 0.6239520004230239 0 0.33122374654748771 0.57588941099433744 0 0.35765792684946668 0.6000687869219653 0 0.37272913873093971 0.56192925302619479 0 0.37272913873093971 0.56192925302619479 0 0.33190227185843768 0.52715113583864037 0 0.38244435121258652 0.51653317813019495 0 0.33122374654748771 0.57588941099433744 0 0.37272913873093971 0.56192925302619479 0 0.33190227185843768 0.52715113583864037 0 0.35024835142131061 0.48654922671676981 0 0.33190227185843768 0.52715113583864037 0 0.38244435121258652 0.51653317813019495 0 0.33122374654748771 0.57588941099433744 0 0.33190227185843768 0.52715113583864037 0 0.29110487519241501 0.56588143995431495 0 0.33190227185843768 0.52715113583864037 0 0.28307294598219601 0.50789252727458634 0 0.29110487519241501 0.56588143995431495 0 0.31068898841644388 0.47541502461811092 0 0.33190227185843768 0.52715113583864037 0 0.28307294598219601 0.50789252727458634 0 0.23975172658309729 0.49475499200540818 0 0.28307294598219601 0.50789252727458634 0 0.25115337790845271 0.54719303014923271 0 0.28307294598219601 0.50789252727458634 0 0.25115337790845271 0.54719303014923271 0 0.29110487519241501 0.56588143995431495 0 0.25115337790845271 0.54719303014923271 0 0.29110487519241501 0.56588143995431495 0 0.26573297623774761 0.59828298563722948 0 0.33122374654748771 0.57588941099433744 0 0.31502927232353312 0.6134992213375432 0 0.29110487519241501 0.56588143995431495 0 0.31502927232353312 0.6134992213375432 0 0.29110487519241501 0.56588143995431495 0 0.26573297623774761 0.59828298563722948 0 0.31502927232353312 0.6134992213375432 0 0.26573297623774761 0.59828298563722948 0 0.27820712747429932 0.65530134213254643 0 0.2459498854893499 0.63248470766216769 0 0.26573297623774761 0.59828298563722948 0 0.27820712747429932 0.65530134213254643 0 0.2236846579037573 0.67380363126050236 0 0.27820712747429932 0.65530134213254643 0 0.26439878998046262 0.7048065392091396 0 0.27820712747429932 0.65530134213254643 0 0.31378396441836959 0.70157213313026345 0 0.32263089806001177 0.66003674931826484 0 0.27820712747429932 0.65530134213254643 0 0.26439878998046262 0.7048065392091396 0 0.31378396441836959 0.70157213313026345 0 0.31502927232353312 0.6134992213375432 0 0.27820712747429932 0.65530134213254643 0 0.32263089806001177 0.66003674931826484 0 0.25676291524611189 0.7436741304886243 0 0.26439878998046262 0.7048065392091396 0 0.29904318922293632 0.74132814928635593 0 0.26439878998046262 0.7048065392091396 0 0.29904318922293632 0.74132814928635593 0 0.31378396441836959 0.70157213313026345 0 0.29904318922293632 0.74132814928635593 0 0.31378396441836959 0.70157213313026345 0 0.35415581127540569 0.73730480045900215 0 0.31378396441836959 0.70157213313026345 0 0.36622285152418499 0.69092437780804039 0 0.35415581127540569 0.73730480045900215 0 0.36622285152418499 0.69092437780804039 0 0.35415581127540569 0.73730480045900215 0 0.40326160981139969 0.73346192995102844 0 0.31502927232353312 0.6134992213375432 0 0.32263089806001177 0.66003674931826484 0 0.35864735590330371 0.63903383440414463 0 0.31378396441836959 0.70157213313026345 0 0.36622285152418499 0.69092437780804039 0 0.32263089806001177 0.66003674931826484 0 0.36622285152418499 0.69092437780804039 0 0.32263089806001177 0.66003674931826484 0 0.35864735590330371 0.63903383440414463 0 0.36622285152418499 0.69092437780804039 0 0.35864735590330371 0.63903383440414463 0 0.3977710372045391 0.65868194622830212 0 0.35864735590330371 0.63903383440414463 0 0.3977710372045391 0.65868194622830212 0 0.39743091024207589 0.6239520004230239 0 0.36622285152418499 0.69092437780804039 0 0.3977710372045391 0.65868194622830212 0 0.43323420005758778 0.6913544522562407 0 0.3977710372045391 0.65868194622830212 0 0.43323420005758778 0.6913544522562407 0 0.43846182030517877 0.64845797726506715 0 0.43846182030517877 0.64845797726506715 0 0.43545892161006339 0.61093128915313821 0 0.39743091024207589 0.6239520004230239 0 0.3977710372045391 0.65868194622830212 0 0.43846182030517877 0.64845797726506715 0 0.39743091024207589 0.6239520004230239 0 0.36622285152418499 0.69092437780804039 0 0.40326160981139969 0.73346192995102844 0 0.43323420005758778 0.6913544522562407 0 0.40326160981139969 0.73346192995102844 0 0.43323420005758778 0.6913544522562407 0 0.45582236402875981 0.73896743678908217 0 0.42676259796334498 0.76772545931379299 0 0.40326160981139969 0.73346192995102844 0 0.45582236402875981 0.73896743678908217 0 0.43323420005758778 0.6913544522562407 0 0.45582236402875981 0.73896743678908217 0 0.5 0.69999999999999996 0 0.45582236402875981 0.73896743678908217 0 0.5 0.69999999999999996 0 0.50945740445113552 0.75476055527778108 0 0.43323420005758778 0.6913544522562407 0 0.47913475093885149 0.66010775372412711 0 0.5 0.69999999999999996 0 0.43846182030517877 0.64845797726506715 0 0.47913475093885149 0.66010775372412711 0 0.47095389620662098 0.61892551373708504 0 0.43846182030517877 0.64845797726506715 0 0.47095389620662098 0.61892551373708504 0 0.43545892161006339 0.61093128915313821 0 0.43323420005758778 0.6913544522562407 0 0.43846182030517877 0.64845797726506715 0 0.47913475093885149 0.66010775372412711 0 0.47913475093885149 0.66010775372412711 0 0.47095389620662098 0.61892551373708504 0 0.50715858906372158 0.63295939104129484 0 0.47095389620662098 0.61892551373708504 0 0.5166924242153631 0.59825134841919447 0 0.50715858906372158 0.63295939104129484 0 0.47095389620662098 0.61892551373708504 0 0.46666084890304671 0.57634471035397938 0 0.5166924242153631 0.59825134841919447 0 0.47095389620662098 0.61892551373708504 0 0.46666084890304671 0.57634471035397938 0 0.43545892161006339 0.61093128915313821 0 0.43545892161006339 0.61093128915313821 0 0.4089290844030305 0.58728915500154233 0 0.39743091024207589 0.6239520004230239 0 0.46666084890304671 0.57634471035397938 0 0.43545892161006339 0.61093128915313821 0 0.4089290844030305 0.58728915500154233 0 0.46666084890304671 0.57634471035397938 0 0.4089290844030305 0.58728915500154233 0 0.42644501560315817 0.54603747078095544 0 0.37272913873093971 0.56192925302619479 0 0.4089290844030305 0.58728915500154233 0 0.42644501560315817 0.54603747078095544 0 0.35765792684946668 0.6000687869219653 0 0.37272913873093971 0.56192925302619479 0 0.4089290844030305 0.58728915500154233 0 0.35765792684946668 0.6000687869219653 0 0.4089290844030305 0.58728915500154233 0 0.39743091024207589 0.6239520004230239 0 0.37272913873093971 0.56192925302619479 0 0.38244435121258652 0.51653317813019495 0 0.42644501560315817 0.54603747078095544 0 0.43507373378304309 0.49699695397193322 0 0.38244435121258652 0.51653317813019495 0 0.42644501560315817 0.54603747078095544 0 0.46666084890304671 0.57634471035397938 0 0.47793794143994173 0.52940715638744962 0 0.53245488764484505 0.55078124999999989 0 0.43507373378304309 0.49699695397193322 0 0.49102375406324739 0.49123754822244059 0 0.47793794143994173 0.52940715638744962 0 0.43507373378304309 0.49699695397193322 0 0.42644501560315817 0.54603747078095544 0 0.47793794143994173 0.52940715638744962 0 0.46666084890304671 0.57634471035397938 0 0.42644501560315817 0.54603747078095544 0 0.47793794143994173 0.52940715638744962 0 0.49102375406324739 0.49123754822244059 0 0.47793794143994173 0.52940715638744962 0 0.53330375813596242 0.50827942741749099 0 0.47793794143994173 0.52940715638744962 0 0.53245488764484505 0.55078124999999989 0 0.53330375813596242 0.50827942741749099 0 0.53245488764484505 0.55078124999999989 0 0.53330375813596242 0.50827942741749099 0 0.57435499076887508 0.54267261987897775 0 0.53245488764484505 0.55078124999999989 0 0.57435499076887508 0.54267261987897775 0 0.57412547362576272 0.58273804879550706 0 0.53330375813596242 0.50827942741749099 0 0.57611405284611883 0.50165903596042916 0 0.57435499076887508 0.54267261987897775 0 0.57611405284611883 0.50165903596042916 0 0.57435499076887508 0.54267261987897775 0 0.62042975506801734 0.54295974692364424 0 0.57435499076887508 0.54267261987897775 0 0.62042975506801734 0.54295974692364424 0 0.57412547362576272 0.58273804879550706 0 0.57611405284611883 0.50165903596042916 0 0.62042975506801734 0.54295974692364424 0 0.61547661924074692 0.48539576058873962 0 0.5991018319127801 0.62925360607495295 0 0.6405463747586706 0.63290524857395714 0 0.63065402604362242 0.59661356661633302 0 0.57412547362576272 0.58273804879550706 0 0.5991018319127801 0.62925360607495295 0 0.63065402604362242 0.59661356661633302 0 0.62042975506801734 0.54295974692364424 0 0.57412547362576272 0.58273804879550706 0 0.63065402604362242 0.59661356661633302 0 0.57412547362576272 0.58273804879550706 0 0.5498280205245758 0.6290146943450976 0 0.5991018319127801 0.62925360607495295 0 0.46666084890304671 0.57634471035397938 0 0.53245488764484505 0.55078124999999989 0 0.5166924242153631 0.59825134841919447 0 0.57412547362576272 0.58273804879550706 0 0.5166924242153631 0.59825134841919447 0 0.5498280205245758 0.6290146943450976 0 0.53245488764484505 0.55078124999999989 0 0.57412547362576272 0.58273804879550706 0 0.5166924242153631 0.59825134841919447 0 0.5166924242153631 0.59825134841919447 0 0.50715858906372158 0.63295939104129484 0 0.5498280205245758 0.6290146943450976 0 0.47913475093885149 0.66010775372412711 0 0.50715858906372158 0.63295939104129484 0 0.52584555706968406 0.66664215091846768 0 0.50715858906372158 0.63295939104129484 0 0.52584555706968406 0.66664215091846768 0 0.5498280205245758 0.6290146943450976 0 0.47913475093885149 0.66010775372412711 0 0.52584555706968406 0.66664215091846768 0 0.5 0.69999999999999996 0 0.52584555706968406 0.66664215091846768 0 0.54999999999999993 0.69999999999999996 0 0.57484956128872922 0.66573805030881994 0 0.52584555706968406 0.66664215091846768 0 0.5498280205245758 0.6290146943450976 0 0.57484956128872922 0.66573805030881994 0 0.5 0.69999999999999996 0 0.55363780716230748 0.74348740161571747 0 0.50945740445113552 0.75476055527778108 0 0.52584555706968406 0.66664215091846768 0 0.5 0.69999999999999996 0 0.54999999999999993 0.69999999999999996 0 0.5 0.69999999999999996 0 0.54999999999999993 0.69999999999999996 0 0.5 0.69999999999999996 0 0.54999999999999993 0.69999999999999996 0 0.55363780716230748 0.74348740161571747 0 0.55363780716230748 0.74348740161571747 0 0.59999999999999976 0.69999999999999996 0 0.59636844454254345 0.75937156204589151 0 0.54999999999999993 0.69999999999999996 0 0.59999999999999976 0.69999999999999996 0 0.54999999999999993 0.69999999999999996 0 0.59999999999999976 0.69999999999999996 0 0.57484956128872922 0.66573805030881994 0 0.54999999999999993 0.69999999999999996 0 0.55363780716230748 0.74348740161571747 0 0.59999999999999976 0.69999999999999996 0 0.59999999999999976 0.69999999999999996 0 0.6499999999999998 0.69999999999999996 0 0.59999999999999976 0.69999999999999996 0 0.62460753523532009 0.66851202781000296 0 0.6499999999999998 0.69999999999999996 0 0.59999999999999976 0.69999999999999996 0 0.63221990677827677 0.73442891067859706 0 0.59636844454254345 0.75937156204589151 0 0.5498280205245758 0.6290146943450976 0 0.57484956128872922 0.66573805030881994 0 0.5991018319127801 0.62925360607495295 0 0.59999999999999976 0.69999999999999996 0 0.57484956128872922 0.66573805030881994 0 0.62460753523532009 0.66851202781000296 0 0.57484956128872922 0.66573805030881994 0 0.62460753523532009 0.66851202781000296 0 0.5991018319127801 0.62925360607495295 0 0.62460753523532009 0.66851202781000296 0 0.5991018319127801 0.62925360607495295 0 0.6405463747586706 0.63290524857395714 0 0.62460753523532009 0.66851202781000296 0 0.6405463747586706 0.63290524857395714 0 0.675261390228442 0.65996937624687813 0 0.62460753523532009 0.66851202781000296 0 0.675261390228442 0.65996937624687813 0 0.6499999999999998 0.69999999999999996 0 0.675261390228442 0.65996937624687813 0 0.6499999999999998 0.69999999999999996 0 0.69999999999999984 0.69999999999999996 0 0.6405463747586706 0.63290524857395714 0 0.675261390228442 0.65996937624687813 0 0.67529834988829951 0.61613270668143583 0 0.63221990677827677 0.73442891067859706 0 0.66427993341343905 0.73232764502436276 0 0.64753070846764316 0.77332939069435502 0 0.63221990677827677 0.73442891067859706 0 0.6499999999999998 0.69999999999999996 0 0.66427993341343905 0.73232764502436276 0 0.59999999999999976 0.69999999999999996 0 0.63221990677827677 0.73442891067859706 0 0.6499999999999998 0.69999999999999996 0 0.6499999999999998 0.69999999999999996 0 0.69999999999999984 0.69999999999999996 0 0.6499999999999998 0.69999999999999996 0 0.66427993341343905 0.73232764502436276 0 0.69999999999999984 0.69999999999999996 0 0.66427993341343905 0.73232764502436276 0 0.69999999999999984 0.69999999999999996 0 0.6916490518212759 0.75387992374886192 0 0.69999999999999984 0.69999999999999996 0 0.72501250972655151 0.74067302935308721 0 0.6916490518212759 0.75387992374886192 0 0.69999999999999984 0.69999999999999996 0 0.74999999999999989 0.69999999999999996 0 0.72501250972655151 0.74067302935308721 0 0.69999999999999984 0.69999999999999996 0 0.74999999999999989 0.69999999999999996 0 0.72500000000000064 0.67022701834392062 0 0.69999999999999984 0.69999999999999996 0 0.74999999999999989 0.69999999999999996 0 0.74999999999999989 0.69999999999999996 0 0.72501250972655151 0.74067302935308721 0 0.75841349681148107 0.75422312624214749 0 0.675261390228442 0.65996937624687813 0 0.71406021706547751 0.63292083137662503 0 0.72500000000000064 0.67022701834392062 0 0.675261390228442 0.65996937624687813 0 0.71406021706547751 0.63292083137662503 0 0.67529834988829951 0.61613270668143583 0 0.675261390228442 0.65996937624687813 0 0.69999999999999984 0.69999999999999996 0 0.72500000000000064 0.67022701834392062 0 0.71406021706547751 0.63292083137662503 0 0.72500000000000064 0.67022701834392062 0 0.74994237037456724 0.62775548192980357 0 0.72500000000000064 0.67022701834392062 0 0.74994237037456724 0.62775548192980357 0 0.7750489929959945 0.66593931409600093 0 0.71406021706547751 0.63292083137662503 0 0.74994237037456724 0.62775548192980357 0 0.71809016091162536 0.58185040402320831 0 0.74994237037456724 0.62775548192980357 0 0.71809016091162536 0.58185040402320831 0 0.77293540622714185 0.59448302402785813 0 0.71406021706547751 0.63292083137662503 0 0.71809016091162536 0.58185040402320831 0 0.67529834988829951 0.61613270668143583 0 0.71809016091162536 0.58185040402320831 0 0.67569444444444449 0.53500863336860327 0 0.67323294229744413 0.57556450033612505 0 0.71809016091162536 0.58185040402320831 0 0.67529834988829951 0.61613270668143583 0 0.67323294229744413 0.57556450033612505 0 0.71809016091162536 0.58185040402320831 0 0.7152569930854884 0.5237994455134295 0 0.77151014687832564 0.54436834383023036 0 0.7152569930854884 0.5237994455134295 0 0.77151014687832564 0.54436834383023036 0 0.73947346780852752 0.49062440112282169 0 0.7152569930854884 0.5237994455134295 0 0.67569444444444449 0.53500863336860327 0 0.69385896817107129 0.48377516041410151 0 0.71809016091162536 0.58185040402320831 0 0.7152569930854884 0.5237994455134295 0 0.67569444444444449 0.53500863336860327 0 0.62042975506801734 0.54295974692364424 0 0.67569444444444449 0.53500863336860327 0 0.67323294229744413 0.57556450033612505 0 0.67569444444444449 0.53500863336860327 0 0.6541250972820879 0.49999999999999989 0 0.69385896817107129 0.48377516041410151 0 0.62042975506801734 0.54295974692364424 0 0.67569444444444449 0.53500863336860327 0 0.6541250972820879 0.49999999999999989 0 0.62042975506801734 0.54295974692364424 0 0.61547661924074692 0.48539576058873962 0 0.6541250972820879 0.49999999999999989 0 0.62042975506801734 0.54295974692364424 0 0.63065402604362242 0.59661356661633302 0 0.67323294229744413 0.57556450033612505 0 0.6405463747586706 0.63290524857395714 0 0.63065402604362242 0.59661356661633302 0 0.67529834988829951 0.61613270668143583 0 0.63065402604362242 0.59661356661633302 0 0.67529834988829951 0.61613270668143583 0 0.67323294229744413 0.57556450033612505 0 0.60000000000138687 1 0 0.62065498684670595 0.95224934003983619 0 0.57382506491224949 0.9629411906298494 0 0.60000000000138687 1 0 0.62065498684670595 0.95224934003983619 0 0.65000000000104008 1 0 0.62065498684670595 0.95224934003983619 0 0.57382506491224949 0.9629411906298494 0 0.57724883562309992 0.92155686857100794 0 0.60000000000138687 1 0 0.57382506491224949 0.9629411906298494 0 0.55000000000173355 1 0 0.55000000000173355 1 0 0.50000000000205869 1 0 0.52122150208832174 0.94089974453840242 0 0.57382506491224949 0.9629411906298494 0 0.52122150208832174 0.94089974453840242 0 0.57724883562309992 0.92155686857100794 0 0.57382506491224949 0.9629411906298494 0 0.55000000000173355 1 0 0.52122150208832174 0.94089974453840242 0 0.52122150208832174 0.94089974453840242 0 0.54783390826260769 0.89287767010860219 0 0.57724883562309992 0.92155686857100794 0 0.52122150208832174 0.94089974453840242 0 0.50202631463681879 0.87892870825713787 0 0.54783390826260769 0.89287767010860219 0 0.54783390826260769 0.89287767010860219 0 0.5832743223239254 0.88483152652961872 0 0.55899371797446828 0.85003102233514438 0 0.54783390826260769 0.89287767010860219 0 0.5832743223239254 0.88483152652961872 0 0.57724883562309992 0.92155686857100794 0 0.5832743223239254 0.88483152652961872 0 0.57724883562309992 0.92155686857100794 0 0.61885627562261258 0.90282959257498208 0 0.62065498684670595 0.95224934003983619 0 0.57724883562309992 0.92155686857100794 0 0.61885627562261258 0.90282959257498208 0 0.5832743223239254 0.88483152652961872 0 0.61885627562261258 0.90282959257498208 0 0.61343887413683884 0.856862479058357 0 0.61343887413683884 0.856862479058357 0 0.60294066490120068 0.80851322453934582 0 0.65005442820240822 0.82644988530054031 0 0.61343887413683884 0.856862479058357 0 0.55899371797446828 0.85003102233514438 0 0.60294066490120068 0.80851322453934582 0 0.55899371797446828 0.85003102233514438 0 0.54782696902220018 0.79245182748204157 0 0.60294066490120068 0.80851322453934582 0 0.5832743223239254 0.88483152652961872 0 0.61343887413683884 0.856862479058357 0 0.55899371797446828 0.85003102233514438 0 0.50202631463681879 0.87892870825713787 0 0.54783390826260769 0.89287767010860219 0 0.55899371797446828 0.85003102233514438 0 0.50202631463681879 0.87892870825713787 0 0.55899371797446828 0.85003102233514438 0 0.50627822638148745 0.8263979829520941 0 0.55899371797446828 0.85003102233514438 0 0.50627822638148745 0.8263979829520941 0 0.54782696902220018 0.79245182748204157 0 0.50627822638148745 0.8263979829520941 0 0.54782696902220018 0.79245182748204157 0 0.50731287292894423 0.78963574450233831 0 0.54782696902220018 0.79245182748204157 0 0.50731287292894423 0.78963574450233831 0 0.50945740445113552 0.75476055527778108 0 0.55363780716230748 0.74348740161571747 0 0.54782696902220018 0.79245182748204157 0 0.50945740445113552 0.75476055527778108 0 0.55363780716230748 0.74348740161571747 0 0.54782696902220018 0.79245182748204157 0 0.59636844454254345 0.75937156204589151 0 0.54782696902220018 0.79245182748204157 0 0.60294066490120068 0.80851322453934582 0 0.59636844454254345 0.75937156204589151 0 0.60294066490120068 0.80851322453934582 0 0.59636844454254345 0.75937156204589151 0 0.64753070846764316 0.77332939069435502 0 0.63221990677827677 0.73442891067859706 0 0.59636844454254345 0.75937156204589151 0 0.64753070846764316 0.77332939069435502 0 0.60294066490120068 0.80851322453934582 0 0.64753070846764316 0.77332939069435502 0 0.65005442820240822 0.82644988530054031 0 0.64753070846764316 0.77332939069435502 0 0.68024162096458085 0.79868546898116533 0 0.65005442820240822 0.82644988530054031 0 0.64753070846764316 0.77332939069435502 0 0.68024162096458085 0.79868546898116533 0 0.6916490518212759 0.75387992374886192 0 0.66427993341343905 0.73232764502436276 0 0.64753070846764316 0.77332939069435502 0 0.6916490518212759 0.75387992374886192 0 0.72501250972655151 0.74067302935308721 0 0.6916490518212759 0.75387992374886192 0 0.72500000000000064 0.7952620967744265 0 0.72501250972655151 0.74067302935308721 0 0.72500000000000064 0.7952620967744265 0 0.75841349681148107 0.75422312624214749 0 0.68024162096458085 0.79868546898116533 0 0.6916490518212759 0.75387992374886192 0 0.72500000000000064 0.7952620967744265 0 0.68024162096458085 0.79868546898116533 0 0.72500000000000064 0.7952620967744265 0 0.68697391633157634 0.84450604838764298 0 0.72500000000000064 0.7952620967744265 0 0.72863726579783861 0.85390518901155588 0 0.68697391633157634 0.84450604838764298 0 0.72500000000000064 0.7952620967744265 0 0.72863726579783861 0.85390518901155588 0 0.76901770135486491 0.84293557325473656 0 0.72863726579783861 0.85390518901155588 0 0.68697391633157634 0.84450604838764298 0 0.7250000000005199 0.89375000000045834 0 0.68697391633157634 0.84450604838764298 0 0.66412543161245952 0.88015090885499059 0 0.7250000000005199 0.89375000000045834 0 0.68697391633157634 0.84450604838764298 0 0.65005442820240822 0.82644988530054031 0 0.66412543161245952 0.88015090885499059 0 0.68024162096458085 0.79868546898116533 0 0.68697391633157634 0.84450604838764298 0 0.65005442820240822 0.82644988530054031 0 0.61343887413683884 0.856862479058357 0 0.65005442820240822 0.82644988530054031 0 0.66412543161245952 0.88015090885499059 0 0.61885627562261258 0.90282959257498208 0 0.61343887413683884 0.856862479058357 0 0.66412543161245952 0.88015090885499059 0 0.61885627562261258 0.90282959257498208 0 0.65507451745379841 0.92229208810758578 0 0.66412543161245952 0.88015090885499059 0 0.62065498684670595 0.95224934003983619 0 0.61885627562261258 0.90282959257498208 0 0.65507451745379841 0.92229208810758578 0 0.65507451745379841 0.92229208810758578 0 0.68987011941058407 0.92105047536677087 0 0.68015064798562208 0.95924320340003011 0 0.65507451745379841 0.92229208810758578 0 0.66412543161245952 0.88015090885499059 0 0.68987011941058407 0.92105047536677087 0 0.66412543161245952 0.88015090885499059 0 0.7250000000005199 0.89375000000045834 0 0.68987011941058407 0.92105047536677087 0 0.72863726579783861 0.85390518901155588 0 0.7250000000005199 0.89375000000045834 0 0.76891166905518427 0.88835469571185499 0 0.7250000000005199 0.89375000000045834 0 0.7250000000005199 0.94981617647078953 0 0.75729602384198635 0.92353652857884294 0 0.7250000000005199 0.89375000000045834 0 0.68987011941058407 0.92105047536677087 0 0.7250000000005199 0.94981617647078953 0 0.68987011941058407 0.92105047536677087 0 0.7250000000005199 0.94981617647078953 0 0.68015064798562208 0.95924320340003011 0 0.7250000000005199 0.94981617647078953 0 0.7000000000006934 1 0 0.75000000000034661 1 0 0.7250000000005199 0.94981617647078953 0 0.75000000000034661 1 0 0.770759834363826 0.95919399014344442 0 0.7250000000005199 0.94981617647078953 0 0.7000000000006934 1 0 0.68015064798562208 0.95924320340003011 0 0.7000000000006934 1 0 0.68015064798562208 0.95924320340003011 0 0.65000000000104008 1 0 0.62065498684670595 0.95224934003983619 0 0.65507451745379841 0.92229208810758578 0 0.68015064798562208 0.95924320340003011 0 0.62065498684670595 0.95224934003983619 0 0.68015064798562208 0.95924320340003011 0 0.65000000000104008 1 0 0.84999999999965292 1 0 0.85170973911348691 0.93569607295217616 0 0.89898474358632463 0.95391965591118966 0 0.84999999999965292 1 0 0.81486180804382891 0.96321394949790495 0 0.85170973911348691 0.93569607295217616 0 0.81486180804382891 0.96321394949790495 0 0.79680861578988083 0.92656778056766709 0 0.85170973911348691 0.93569607295217616 0 0.84999999999965292 1 0 0.81486180804382891 0.96321394949790495 0 0.79999999999999982 1 0 0.81486180804382891 0.96321394949790495 0 0.79999999999999982 1 0 0.770759834363826 0.95919399014344442 0 0.79999999999999982 1 0 0.75000000000034661 1 0 0.770759834363826 0.95919399014344442 0 0.7250000000005199 0.94981617647078953 0 0.770759834363826 0.95919399014344442 0 0.75729602384198635 0.92353652857884294 0 0.81486180804382891 0.96321394949790495 0 0.770759834363826 0.95919399014344442 0 0.79680861578988083 0.92656778056766709 0 0.79680861578988083 0.92656778056766709 0 0.75729602384198635 0.92353652857884294 0 0.76891166905518427 0.88835469571185499 0 0.770759834363826 0.95919399014344442 0 0.79680861578988083 0.92656778056766709 0 0.75729602384198635 0.92353652857884294 0 0.7250000000005199 0.89375000000045834 0 0.75729602384198635 0.92353652857884294 0 0.76891166905518427 0.88835469571185499 0 0.79680861578988083 0.92656778056766709 0 0.76891166905518427 0.88835469571185499 0 0.81159157511211755 0.88795995483179491 0 0.81159157511211755 0.88795995483179491 0 0.85170973911348691 0.93569607295217616 0 0.85600844944837662 0.88483418979512773 0 0.79680861578988083 0.92656778056766709 0 0.81159157511211755 0.88795995483179491 0 0.85170973911348691 0.93569607295217616 0 0.85170973911348691 0.93569607295217616 0 0.85600844944837662 0.88483418979512773 0 0.90416666666660628 0.9041666666666166 0 0.85600844944837662 0.88483418979512773 0 0.82709327591091286 0.84937141670920724 0 0.88088768115933802 0.84674609810493673 0 0.82709327591091286 0.84937141670920724 0 0.84725310900444062 0.80779732082917555 0 0.88088768115933802 0.84674609810493673 0 0.82709327591091286 0.84937141670920724 0 0.80041942726660109 0.81543261647703358 0 0.84725310900444062 0.80779732082917555 0 0.81159157511211755 0.88795995483179491 0 0.85600844944837662 0.88483418979512773 0 0.82709327591091286 0.84937141670920724 0 0.76891166905518427 0.88835469571185499 0 0.81159157511211755 0.88795995483179491 0 0.76901770135486491 0.84293557325473656 0 0.81159157511211755 0.88795995483179491 0 0.82709327591091286 0.84937141670920724 0 0.76901770135486491 0.84293557325473656 0 0.72863726579783861 0.85390518901155588 0 0.76891166905518427 0.88835469571185499 0 0.76901770135486491 0.84293557325473656 0 0.76901770135486491 0.84293557325473656 0 0.80041942726660109 0.81543261647703358 0 0.77094201086366854 0.79647480515688507 0 0.82709327591091286 0.84937141670920724 0 0.76901770135486491 0.84293557325473656 0 0.80041942726660109 0.81543261647703358 0 0.80041942726660109 0.81543261647703358 0 0.77094201086366854 0.79647480515688507 0 0.80185942888539485 0.77452061303608133 0 0.72500000000000064 0.7952620967744265 0 0.77094201086366854 0.79647480515688507 0 0.75841349681148107 0.75422312624214749 0 0.72500000000000064 0.7952620967744265 0 0.76901770135486491 0.84293557325473656 0 0.77094201086366854 0.79647480515688507 0 0.77094201086366854 0.79647480515688507 0 0.75841349681148107 0.75422312624214749 0 0.80185942888539485 0.77452061303608133 0 0.75841349681148107 0.75422312624214749 0 0.80185942888539485 0.77452061303608133 0 0.78578450296893509 0.73292684821144505 0 0.80185942888539485 0.77452061303608133 0 0.84725310900444062 0.80779732082917555 0 0.85491058998424563 0.76004753345552634 0 0.80185942888539485 0.77452061303608133 0 0.85491058998424563 0.76004753345552634 0 0.81864958914779962 0.73589050177899629 0 0.80041942726660109 0.81543261647703358 0 0.80185942888539485 0.77452061303608133 0 0.84725310900444062 0.80779732082917555 0 0.84725310900444062 0.80779732082917555 0 0.85491058998424563 0.76004753345552634 0 0.90299850604011456 0.79563452813489832 0 0.85491058998424563 0.76004753345552634 0 0.90299850604011456 0.79563452813489832 0 0.89999166460796554 0.74528934923809909 0 0.90299850604011456 0.79563452813489832 0 0.94399509803918602 0.75600490196082126 0 0.95386563387742829 0.80414874155775029 0 0.90299850604011456 0.79563452813489832 0 0.94399509803918602 0.75600490196082126 0 0.89999166460796554 0.74528934923809909 0 0.94399509803918602 0.75600490196082126 0 0.97435614836745565 0.77499999999987745 0 0.95386563387742829 0.80414874155775029 0 0.94399509803918602 0.75600490196082126 0 0.97435614836745565 0.77499999999987745 0 0.97166519676947294 0.73337114490064459 0 0.97435614836745565 0.77499999999987745 0 0.97166519676947294 0.73337114490064459 0 1 0.74999999999993494 0 0.97435614836745565 0.77499999999987745 0 1 0.7999999999998193 0 1 0.74999999999993494 0 0.97435614836745565 0.77499999999987745 0 1 0.7999999999998193 0 0.95386563387742829 0.80414874155775029 0 1 0.84999999999982645 0 0.93677536231884972 0.85000000000000286 0 0.95391631417670719 0.89584263333814784 0 0.95386563387742829 0.80414874155775029 0 1 0.84999999999982645 0 0.93677536231884972 0.85000000000000286 0 1 0.7999999999998193 0 0.95386563387742829 0.80414874155775029 0 1 0.84999999999982645 0 0.93677536231884972 0.85000000000000286 0 0.88088768115933802 0.84674609810493673 0 0.90416666666660628 0.9041666666666166 0 0.90299850604011456 0.79563452813489832 0 0.95386563387742829 0.80414874155775029 0 0.93677536231884972 0.85000000000000286 0 0.90299850604011456 0.79563452813489832 0 0.93677536231884972 0.85000000000000286 0 0.88088768115933802 0.84674609810493673 0 0.84725310900444062 0.80779732082917555 0 0.90299850604011456 0.79563452813489832 0 0.88088768115933802 0.84674609810493673 0 0.85600844944837662 0.88483418979512773 0 0.88088768115933802 0.84674609810493673 0 0.90416666666660628 0.9041666666666166 0 0.85170973911348691 0.93569607295217616 0 0.90416666666660628 0.9041666666666166 0 0.89898474358632463 0.95391965591118966 0 0.90416666666660628 0.9041666666666166 0 0.95391631417670719 0.89584263333814784 0 0.94399509803919068 0.9439950980391687 0 0.90416666666660628 0.9041666666666166 0 0.94399509803919068 0.9439950980391687 0 0.89898474358632463 0.95391965591118966 0 0.93677536231884972 0.85000000000000286 0 0.90416666666660628 0.9041666666666166 0 0.95391631417670719 0.89584263333814784 0 1 0.84999999999982645 0 0.95391631417670719 0.89584263333814784 0 1 0.8999999999998336 0 1 0.8999999999998336 0 0.97435614836744289 0.92499999999990257 0 1 0.94999999999997109 0 0.95391631417670719 0.89584263333814784 0 1 0.8999999999998336 0 0.97435614836744289 0.92499999999990257 0 0.95391631417670719 0.89584263333814784 0 0.97435614836744289 0.92499999999990257 0 0.94399509803919068 0.9439950980391687 0 0.97435614836744289 0.92499999999990257 0 0.94399509803919068 0.9439950980391687 0 0.97166519676946206 0.96662885509935492 0 0.97435614836744289 0.92499999999990257 0 0.97166519676946206 0.96662885509935492 0 1 0.94999999999997109 0 0.97166519676946206 0.96662885509935492 0 1 0.94999999999997109 0 1 1 0 0.97166519676946206 0.96662885509935492 0 1 1 0 0.94999999999979179 1 0 0.94399509803919068 0.9439950980391687 0 0.97166519676946206 0.96662885509935492 0 0.94999999999979179 1 0 0.94999999999979179 1 0 0.89898474358632463 0.95391965591118966 0 0.89999999999958358 1 0 0.94399509803919068 0.9439950980391687 0 0.94999999999979179 1 0 0.89898474358632463 0.95391965591118966 0 0.84999999999965292 1 0 0.89898474358632463 0.95391965591118966 0 0.89999999999958358 1 0 0.81723410853263523 0.59419663659258926 0 0.86956835336234861 0.571283299838105 0 0.82862096804812391 0.55037090955459045 0 0.81723410853263523 0.59419663659258926 0 0.87159648282691515 0.61285406320581504 0 0.83758014339878906 0.63222013025741819 0 0.81723410853263523 0.59419663659258926 0 0.79884539758237771 0.62875045078114233 0 0.83758014339878906 0.63222013025741819 0 0.81723410853263523 0.59419663659258926 0 0.87159648282691515 0.61285406320581504 0 0.86956835336234861 0.571283299838105 0 0.86956835336234861 0.571283299838105 0 0.86907294890112186 0.52008116128001669 0 0.82862096804812391 0.55037090955459045 0 0.86907294890112186 0.52008116128001669 0 0.81441713509985358 0.51161854125224959 0 0.82862096804812391 0.55037090955459045 0 0.86907294890112186 0.52008116128001669 0 0.81441713509985358 0.51161854125224959 0 0.84723782639812573 0.48638347960178252 0 0.81441713509985358 0.51161854125224959 0 0.82862096804812391 0.55037090955459045 0 0.77151014687832564 0.54436834383023036 0 0.81441713509985358 0.51161854125224959 0 0.77151014687832564 0.54436834383023036 0 0.77846603114747959 0.49850927265137401 0 0.77151014687832564 0.54436834383023036 0 0.77846603114747959 0.49850927265137401 0 0.73947346780852752 0.49062440112282169 0 0.71809016091162536 0.58185040402320831 0 0.77151014687832564 0.54436834383023036 0 0.77293540622714185 0.59448302402785813 0 0.81723410853263523 0.59419663659258926 0 0.77151014687832564 0.54436834383023036 0 0.77293540622714185 0.59448302402785813 0 0.81723410853263523 0.59419663659258926 0 0.82862096804812391 0.55037090955459045 0 0.77151014687832564 0.54436834383023036 0 0.81723410853263523 0.59419663659258926 0 0.77293540622714185 0.59448302402785813 0 0.79884539758237771 0.62875045078114233 0 0.74994237037456724 0.62775548192980357 0 0.77293540622714185 0.59448302402785813 0 0.79884539758237771 0.62875045078114233 0 0.74994237037456724 0.62775548192980357 0 0.7750489929959945 0.66593931409600093 0 0.79884539758237771 0.62875045078114233 0 0.74999999999999989 0.69999999999999996 0 0.72500000000000064 0.67022701834392062 0 0.7750489929959945 0.66593931409600093 0 0.7750489929959945 0.66593931409600093 0 0.79999999999999982 0.69999999999999996 0 0.82457059160610424 0.66831947184359608 0 0.7750489929959945 0.66593931409600093 0 0.79884539758237771 0.62875045078114233 0 0.82457059160610424 0.66831947184359608 0 0.74999999999999989 0.69999999999999996 0 0.75841349681148107 0.75422312624214749 0 0.78578450296893509 0.73292684821144505 0 0.74999999999999989 0.69999999999999996 0 0.79999999999999982 0.69999999999999996 0 0.78578450296893509 0.73292684821144505 0 0.74999999999999989 0.69999999999999996 0 0.7750489929959945 0.66593931409600093 0 0.79999999999999982 0.69999999999999996 0 0.74999999999999989 0.69999999999999996 0 0.79999999999999982 0.69999999999999996 0 0.80185942888539485 0.77452061303608133 0 0.78578450296893509 0.73292684821144505 0 0.81864958914779962 0.73589050177899629 0 0.79999999999999982 0.69999999999999996 0 0.78578450296893509 0.73292684821144505 0 0.81864958914779962 0.73589050177899629 0 0.85491058998424563 0.76004753345552634 0 0.81864958914779962 0.73589050177899629 0 0.84999999999999987 0.69999999999999996 0 0.79999999999999982 0.69999999999999996 0 0.84999999999999987 0.69999999999999996 0 0.79999999999999982 0.69999999999999996 0 0.84999999999999987 0.69999999999999996 0 0.82457059160610424 0.66831947184359608 0 0.79999999999999982 0.69999999999999996 0 0.81864958914779962 0.73589050177899629 0 0.84999999999999987 0.69999999999999996 0 0.84999999999999987 0.69999999999999996 0 0.89999999999999991 0.69999999999999996 0 0.85491058998424563 0.76004753345552634 0 0.84999999999999987 0.69999999999999996 0 0.89999166460796554 0.74528934923809909 0 0.79884539758237771 0.62875045078114233 0 0.83758014339878906 0.63222013025741819 0 0.82457059160610424 0.66831947184359608 0 0.84999999999999987 0.69999999999999996 0 0.82457059160610424 0.66831947184359608 0 0.87712158428786946 0.65709029563313581 0 0.87159648282691515 0.61285406320581504 0 0.83758014339878906 0.63222013025741819 0 0.87712158428786946 0.65709029563313581 0 0.83758014339878906 0.63222013025741819 0 0.82457059160610424 0.66831947184359608 0 0.87712158428786946 0.65709029563313581 0 0.87712158428786946 0.65709029563313581 0 0.92057473616084773 0.66770436535372446 0 0.91750694127105259 0.63017627779935648 0 0.87159648282691515 0.61285406320581504 0 0.87712158428786946 0.65709029563313581 0 0.91750694127105259 0.63017627779935648 0 0.84999999999999987 0.69999999999999996 0 0.87712158428786946 0.65709029563313581 0 0.89999999999999991 0.69999999999999996 0 0.87712158428786946 0.65709029563313581 0 0.92057473616084773 0.66770436535372446 0 0.89999999999999991 0.69999999999999996 0 0.92057473616084773 0.66770436535372446 0 0.91750694127105259 0.63017627779935648 0 0.9578014258160763 0.65787212321113708 0 0.84999999999999987 0.69999999999999996 0 0.89999166460796554 0.74528934923809909 0 0.89999999999999991 0.69999999999999996 0 0.89999999999999991 0.69999999999999996 0 0.94999999999999996 0.69999999999999996 0 0.92057473616084773 0.66770436535372446 0 0.89999999999999991 0.69999999999999996 0 0.94999999999999996 0.69999999999999996 0 0.89999166460796554 0.74528934923809909 0 0.89999999999999991 0.69999999999999996 0 0.94999999999999996 0.69999999999999996 0 0.94399509803918602 0.75600490196082126 0 0.89999166460796554 0.74528934923809909 0 0.94999999999999996 0.69999999999999996 0 0.94399509803918602 0.75600490196082126 0 0.94999999999999996 0.69999999999999996 0 0.97166519676947294 0.73337114490064459 0 0.94999999999999996 0.69999999999999996 0 1 0.69999999999999996 0 0.94999999999999996 0.69999999999999996 0 1 0.69999999999999996 0 0.97166519676947294 0.73337114490064459 0 1 0.69999999999999996 0 0.97166519676947294 0.73337114490064459 0 1 0.74999999999993494 0 0.91750694127105259 0.63017627779935648 0 0.9578014258160763 0.65787212321113708 0 0.95867599106212187 0.60011091146651041 0 0.92057473616084773 0.66770436535372446 0 0.94999999999999996 0.69999999999999996 0 0.9578014258160763 0.65787212321113708 0 0.94999999999999996 0.69999999999999996 0 1 0.69999999999999996 0 0.9578014258160763 0.65787212321113708 0 1 0.69999999999999996 0 0.9578014258160763 0.65787212321113708 0 1 0.64999999999986979 0 0.9578014258160763 0.65787212321113708 0 1 0.64999999999986979 0 0.95867599106212187 0.60011091146651041 0 0.95867599106212187 0.60011091146651041 0 0.93732437411268477 0.55911392101136159 0 1 0.54999999999963112 0 1 0.64999999999986979 0 1 0.59999999999973963 0 0.95867599106212187 0.60011091146651041 0 1 0.59999999999973963 0 0.95867599106212187 0.60011091146651041 0 1 0.54999999999963112 0 0.91750694127105259 0.63017627779935648 0 0.95867599106212187 0.60011091146651041 0 0.91143117093204207 0.58709913730335972 0 0.95867599106212187 0.60011091146651041 0 0.91143117093204207 0.58709913730335972 0 0.93732437411268477 0.55911392101136159 0 0.86956835336234861 0.571283299838105 0 0.91143117093204207 0.58709913730335972 0 0.90900154012161016 0.53607784105648792 0 0.87159648282691515 0.61285406320581504 0 0.86956835336234861 0.571283299838105 0 0.91143117093204207 0.58709913730335972 0 0.87159648282691515 0.61285406320581504 0 0.91750694127105259 0.63017627779935648 0 0.91143117093204207 0.58709913730335972 0 0.86907294890112186 0.52008116128001669 0 0.90900154012161016 0.53607784105648792 0 0.91696753777131557 0.497780560203536 0 0.86956835336234861 0.571283299838105 0 0.86907294890112186 0.52008116128001669 0 0.90900154012161016 0.53607784105648792 0 0.90900154012161016 0.53607784105648792 0 0.93732437411268477 0.55911392101136159 0 0.95631871884947484 0.51827533208233789 0 0.91143117093204207 0.58709913730335972 0 0.90900154012161016 0.53607784105648792 0 0.93732437411268477 0.55911392101136159 0 0.90900154012161016 0.53607784105648792 0 0.95631871884947484 0.51827533208233789 0 0.91696753777131557 0.497780560203536 0 0.93732437411268477 0.55911392101136159 0 0.95631871884947484 0.51827533208233789 0 1 0.54999999999963112 0 0.95631871884947484 0.51827533208233789 0 1 0.54999999999963112 0 1 0.49999999999950101 0 0.95631871884947484 0.51827533208233789 0 1 0.49999999999950101 0 0.96228564064454991 0.48206450662049471 0 1 0.49999999999950101 0 1 0.44999999999963131 0 0.96228564064454991 0.48206450662049471 0 1 0.44999999999963131 0 0.93814194660195893 0.44426664081746747 0 0.96228564064454991 0.48206450662049471 0 0.93814194660195893 0.44426664081746747 0 0.96228564064454991 0.48206450662049471 0 0.91696753777131557 0.497780560203536 0 0.95631871884947484 0.51827533208233789 0 0.96228564064454991 0.48206450662049471 0 0.91696753777131557 0.497780560203536 0 1 0.39999999999978308 0 0.95871855522754235 0.40006508612975411 0 1 0.34999999999993492 0 1 0.44999999999963131 0 1 0.39999999999978308 0 0.95871855522754235 0.40006508612975411 0 1 0.44999999999963131 0 0.93814194660195893 0.44426664081746747 0 0.95871855522754235 0.40006508612975411 0 0.95871855522754235 0.40006508612975411 0 0.90594285160987287 0.4141265964174129 0 0.91750694127107502 0.36982372220068471 0 0.93814194660195893 0.44426664081746747 0 0.95871855522754235 0.40006508612975411 0 0.90594285160987287 0.4141265964174129 0 0.90594285160987287 0.4141265964174129 0 0.88594198078881503 0.46167788676578442 0 0.86411095495256451 0.42388805655111889 0 0.90594285160987287 0.4141265964174129 0 0.86411095495256451 0.42388805655111889 0 0.86844634540301924 0.38530937474099819 0 0.90594285160987287 0.4141265964174129 0 0.86844634540301924 0.38530937474099819 0 0.91750694127107502 0.36982372220068471 0 0.93814194660195893 0.44426664081746747 0 0.91696753777131557 0.497780560203536 0 0.88594198078881503 0.46167788676578442 0 0.93814194660195893 0.44426664081746747 0 0.90594285160987287 0.4141265964174129 0 0.88594198078881503 0.46167788676578442 0 0.86907294890112186 0.52008116128001669 0 0.91696753777131557 0.497780560203536 0 0.88594198078881503 0.46167788676578442 0 0.86907294890112186 0.52008116128001669 0 0.88594198078881503 0.46167788676578442 0 0.84723782639812573 0.48638347960178252 0 0.81441713509985358 0.51161854125224959 0 0.84723782639812573 0.48638347960178252 0 0.81400510706333218 0.47357325943904899 0 0.84723782639812573 0.48638347960178252 0 0.81400510706333218 0.47357325943904899 0 0.84925632466077294 0.45359738909549091 0 0.81400510706333218 0.47357325943904899 0 0.84925632466077294 0.45359738909549091 0 0.81973119833356312 0.43505687159469048 0 0.88594198078881503 0.46167788676578442 0 0.84723782639812573 0.48638347960178252 0 0.84925632466077294 0.45359738909549091 0 0.84925632466077294 0.45359738909549091 0 0.86411095495256451 0.42388805655111889 0 0.81973119833356312 0.43505687159469048 0 0.88594198078881503 0.46167788676578442 0 0.84925632466077294 0.45359738909549091 0 0.86411095495256451 0.42388805655111889 0 0.86411095495256451 0.42388805655111889 0 0.86844634540301924 0.38530937474099819 0 0.81308179852519835 0.39754945808726527 0 0.86844634540301924 0.38530937474099819 0 0.81308179852519835 0.39754945808726527 0 0.83573492347052902 0.36590755630746369 0 0.86411095495256451 0.42388805655111889 0 0.81308179852519835 0.39754945808726527 0 0.81973119833356312 0.43505687159469048 0 0.81973119833356312 0.43505687159469048 0 0.77354604466818633 0.40378688774472771 0 0.77972660463949339 0.45529290596363098 0 0.81308179852519835 0.39754945808726527 0 0.81973119833356312 0.43505687159469048 0 0.77354604466818633 0.40378688774472771 0 0.81308179852519835 0.39754945808726527 0 0.77354604466818633 0.40378688774472771 0 0.78145581580700685 0.34881365920033602 0 0.77354604466818633 0.40378688774472771 0 0.77972660463949339 0.45529290596363098 0 0.73483647259922602 0.44789725365921768 0 0.77972660463949339 0.45529290596363098 0 0.73483647259922602 0.44789725365921768 0 0.73947346780852752 0.49062440112282169 0 0.77972660463949339 0.45529290596363098 0 0.77846603114747959 0.49850927265137401 0 0.73947346780852752 0.49062440112282169 0 0.81400510706333218 0.47357325943904899 0 0.77972660463949339 0.45529290596363098 0 0.77846603114747959 0.49850927265137401 0 0.81441713509985358 0.51161854125224959 0 0.81400510706333218 0.47357325943904899 0 0.77846603114747959 0.49850927265137401 0 0.81400510706333218 0.47357325943904899 0 0.81973119833356312 0.43505687159469048 0 0.77972660463949339 0.45529290596363098 0 0.79999999999999982 0.29999999999999999 0 0.77075983436335049 0.25919399014334171 0 0.81486180804364938 0.26321394949780091 0 0.79999999999999982 0.29999999999999999 0 0.74999999999999989 0.29999999999999999 0 0.79999999999999982 0.29999999999999999 0 0.77075983436335049 0.25919399014334171 0 0.74999999999999989 0.29999999999999999 0 0.79999999999999982 0.29999999999999999 0 0.78145581580700685 0.34881365920033602 0 0.74999999999999989 0.29999999999999999 0 0.78145581580700685 0.34881365920033602 0 0.73090396928863699 0.33699297293167962 0 0.74999999999999989 0.29999999999999999 0 0.77354604466818633 0.40378688774472771 0 0.78145581580700685 0.34881365920033602 0 0.74764719760526988 0.3719647154012321 0 0.78145581580700685 0.34881365920033602 0 0.74764719760526988 0.3719647154012321 0 0.73090396928863699 0.33699297293167962 0 0.81308179852519835 0.39754945808726527 0 0.78145581580700685 0.34881365920033602 0 0.83573492347052902 0.36590755630746369 0 0.79999999999999982 0.29999999999999999 0 0.78145581580700685 0.34881365920033602 0 0.82500000000000062 0.33010209762754811 0 0.78145581580700685 0.34881365920033602 0 0.82500000000000062 0.33010209762754811 0 0.83573492347052902 0.36590755630746369 0 0.82500000000000062 0.33010209762754811 0 0.83573492347052902 0.36590755630746369 0 0.87430060258887643 0.34056085888204451 0 0.86844634540301924 0.38530937474099819 0 0.83573492347052902 0.36590755630746369 0 0.87430060258887643 0.34056085888204451 0 0.82500000000000062 0.33010209762754811 0 0.87430060258887643 0.34056085888204451 0 0.84999999999999987 0.29999999999999999 0 0.87430060258887643 0.34056085888204451 0 0.84999999999999987 0.29999999999999999 0 0.89999999999999991 0.29999999999999999 0 0.84999999999999987 0.29999999999999999 0 0.81486180804364938 0.26321394949780091 0 0.8517097391133297 0.2356960729520409 0 0.84999999999999987 0.29999999999999999 0 0.89898474358614167 0.25391965591104898 0 0.8517097391133297 0.2356960729520409 0 0.84999999999999987 0.29999999999999999 0 0.89999999999999991 0.29999999999999999 0 0.79999999999999982 0.29999999999999999 0 0.82500000000000062 0.33010209762754811 0 0.84999999999999987 0.29999999999999999 0 0.79999999999999982 0.29999999999999999 0 0.84999999999999987 0.29999999999999999 0 0.81486180804364938 0.26321394949780091 0 0.79999999999999982 0.29999999999999999 0 0.84999999999999987 0.29999999999999999 0 0.84999999999999987 0.29999999999999999 0 0.89898474358614167 0.25391965591104898 0 0.89999999999999991 0.29999999999999999 0 0.89999999999999991 0.29999999999999999 0 0.94999999999999996 0.29999999999999999 0 0.89999999999999991 0.29999999999999999 0 0.92012390126144183 0.33123581297173937 0 0.94999999999999996 0.29999999999999999 0 0.89898474358614167 0.25391965591104898 0 0.89999999999999991 0.29999999999999999 0 0.94999999999999996 0.29999999999999999 0 0.89898474358614167 0.25391965591104898 0 0.94999999999999996 0.29999999999999999 0 0.94399509803921056 0.24399509803922639 0 0.86844634540301924 0.38530937474099819 0 0.87430060258887643 0.34056085888204451 0 0.91750694127107502 0.36982372220068471 0 0.87430060258887643 0.34056085888204451 0 0.92012390126144183 0.33123581297173937 0 0.91750694127107502 0.36982372220068471 0 0.87430060258887643 0.34056085888204451 0 0.89999999999999991 0.29999999999999999 0 0.92012390126144183 0.33123581297173937 0 0.92012390126144183 0.33123581297173937 0 0.91750694127107502 0.36982372220068471 0 0.95780851984364423 0.34215720972155339 0 0.95871855522754235 0.40006508612975411 0 0.91750694127107502 0.36982372220068471 0 0.95780851984364423 0.34215720972155339 0 0.92012390126144183 0.33123581297173937 0 0.95780851984364423 0.34215720972155339 0 0.94999999999999996 0.29999999999999999 0 0.95780851984364423 0.34215720972155339 0 0.94999999999999996 0.29999999999999999 0 1 0.29999999999999999 0 0.95780851984364423 0.34215720972155339 0 1 0.34999999999993492 0 1 0.29999999999999999 0 0.95871855522754235 0.40006508612975411 0 0.95780851984364423 0.34215720972155339 0 1 0.34999999999993492 0 0.94999999999999996 0.29999999999999999 0 0.97166519676951801 0.26662885509932011 0 0.94399509803921056 0.24399509803922639 0 0.94999999999999996 0.29999999999999999 0 1 0.29999999999999999 0 0.94999999999999996 0.29999999999999999 0 1 0.29999999999999999 0 0.97166519676951801 0.26662885509932011 0 1 0.29999999999999999 0 0.97166519676951801 0.26662885509932011 0 1 0.24999999999987299 0 0.97166519676951801 0.26662885509932011 0 0.97435614836740092 0.22499999999981049 0 1 0.24999999999987299 0 0.97435614836740092 0.22499999999981049 0 1 0.24999999999987299 0 1 0.19999999999974799 0 0.97435614836740092 0.22499999999981049 0 0.94399509803921056 0.24399509803922639 0 0.95391631417672862 0.19584263333809451 0 0.97166519676951801 0.26662885509932011 0 0.97435614836740092 0.22499999999981049 0 0.94399509803921056 0.24399509803922639 0 0.97435614836740092 0.22499999999981049 0 0.95391631417672862 0.19584263333809451 0 1 0.19999999999974799 0 0.95391631417672862 0.19584263333809451 0 1 0.14999999999961891 0 0.93677536231883773 0.14999999999999089 0 1 0.14999999999961891 0 0.93677536231883773 0.14999999999999089 0 0.95386563387744361 0.1041487415577465 0 0.95391631417672862 0.19584263333809451 0 1 0.19999999999974799 0 1 0.14999999999961891 0 0.95391631417672862 0.19584263333809451 0 0.93677536231883773 0.14999999999999089 0 0.90416666666668166 0.20416666666667119 0 0.93677536231883773 0.14999999999999089 0 0.88088768115941807 0.14674609810479519 0 0.90416666666668166 0.20416666666667119 0 0.93677536231883773 0.14999999999999089 0 0.88088768115941807 0.14674609810479519 0 0.90299850604006393 0.09563452813493091 0 0.88088768115941807 0.14674609810479519 0 0.90416666666668166 0.20416666666667119 0 0.85600844944842547 0.1848341897950983 0 0.89898474358614167 0.25391965591104898 0 0.90416666666668166 0.20416666666667119 0 0.8517097391133297 0.2356960729520409 0 0.89898474358614167 0.25391965591104898 0 0.94399509803921056 0.24399509803922639 0 0.90416666666668166 0.20416666666667119 0 0.94399509803921056 0.24399509803922639 0 0.95391631417672862 0.19584263333809451 0 0.90416666666668166 0.20416666666667119 0 0.94999999999986839 0 0 0.97166519676946894 0.033371144900598393 0 0.94399509803922566 0.056004901960802607 0 0.94999999999986839 0 0 1 0 0 0.97166519676946894 0.033371144900598393 0 1 0 0 1 0.049999999999896842 0 0.97166519676946894 0.033371144900598393 0 1 0.049999999999896842 0 0.97166519676946894 0.033371144900598393 0 0.97435614836748241 0.074999999999825387 0 0.97166519676946894 0.033371144900598393 0 0.94399509803922566 0.056004901960802607 0 0.97435614836748241 0.074999999999825387 0 0.94399509803922566 0.056004901960802607 0 0.97435614836748241 0.074999999999825387 0 0.95386563387744361 0.1041487415577465 0 0.97435614836748241 0.074999999999825387 0 1 0.099999999999753911 0 0.95386563387744361 0.1041487415577465 0 1 0.049999999999896842 0 0.97435614836748241 0.074999999999825387 0 1 0.099999999999753911 0 1 0.14999999999961891 0 1 0.099999999999753911 0 0.95386563387744361 0.1041487415577465 0 0.93677536231883773 0.14999999999999089 0 0.95386563387744361 0.1041487415577465 0 0.90299850604006393 0.09563452813493091 0 0.88088768115941807 0.14674609810479519 0 0.90299850604006393 0.09563452813493091 0 0.84725310900442086 0.10779732082922661 0 0.90299850604006393 0.09563452813493091 0 0.899991664607802 0.045289349238254978 0 0.85491058998398861 0.060047533455626502 0 0.94399509803922566 0.056004901960802607 0 0.95386563387744361 0.1041487415577465 0 0.90299850604006393 0.09563452813493091 0 0.94399509803922566 0.056004901960802607 0 0.90299850604006393 0.09563452813493091 0 0.899991664607802 0.045289349238254978 0 0.94999999999986839 0 0 0.94399509803922566 0.056004901960802607 0 0.899991664607802 0.045289349238254978 0 0.899991664607802 0.045289349238254978 0 0.89999999999973679 0 0 0.84999999999960507 0 0 0.94999999999986839 0 0 0.899991664607802 0.045289349238254978 0 0.89999999999973679 0 0 0.84999999999960507 0 0 0.81864958914740749 0.035890501779055867 0 0.79999999999947335 0 0 0.899991664607802 0.045289349238254978 0 0.84999999999960507 0 0 0.85491058998398861 0.060047533455626502 0 0.85491058998398861 0.060047533455626502 0 0.81864958914740749 0.035890501779055867 0 0.80185942888501827 0.074520613036224564 0 0.84999999999960507 0 0 0.85491058998398861 0.060047533455626502 0 0.81864958914740749 0.035890501779055867 0 0.85491058998398861 0.060047533455626502 0 0.84725310900442086 0.10779732082922661 0 0.80185942888501827 0.074520613036224564 0 0.90299850604006393 0.09563452813493091 0 0.85491058998398861 0.060047533455626502 0 0.84725310900442086 0.10779732082922661 0 0.84725310900442086 0.10779732082922661 0 0.80076557130237269 0.1154587552654202 0 0.80185942888501827 0.074520613036224564 0 0.84725310900442086 0.10779732082922661 0 0.80076557130237269 0.1154587552654202 0 0.82709327591102189 0.14937141670914489 0 0.80076557130237269 0.1154587552654202 0 0.76878382444651716 0.097147941686331368 0 0.80185942888501827 0.074520613036224564 0 0.76878382444651716 0.097147941686331368 0 0.77144070960558853 0.14311854477243749 0 0.72525833953073282 0.1032114801687094 0 0.80076557130237269 0.1154587552654202 0 0.76878382444651716 0.097147941686331368 0 0.77144070960558853 0.14311854477243749 0 0.76878382444651716 0.097147941686331368 0 0.80185942888501827 0.074520613036224564 0 0.7527966693318906 0.053051678021508272 0 0.81864958914740749 0.035890501779055867 0 0.80185942888501827 0.074520613036224564 0 0.78393852574753176 0.032039079577822822 0 0.80185942888501827 0.074520613036224564 0 0.78393852574753176 0.032039079577822822 0 0.7527966693318906 0.053051678021508272 0 0.78393852574753176 0.032039079577822822 0 0.7527966693318906 0.053051678021508272 0 0.74999999999934175 0 0 0.78393852574753176 0.032039079577822822 0 0.79999999999947335 0 0 0.74999999999934175 0 0 0.81864958914740749 0.035890501779055867 0 0.78393852574753176 0.032039079577822822 0 0.79999999999947335 0 0 0.81283102246527783 0.1881007222486438 0 0.8517097391133297 0.2356960729520409 0 0.79680861578956375 0.22656778056752541 0 0.81283102246527783 0.1881007222486438 0 0.8517097391133297 0.2356960729520409 0 0.85600844944842547 0.1848341897950983 0 0.81486180804364938 0.26321394949780091 0 0.8517097391133297 0.2356960729520409 0 0.79680861578956375 0.22656778056752541 0 0.90416666666668166 0.20416666666667119 0 0.8517097391133297 0.2356960729520409 0 0.85600844944842547 0.1848341897950983 0 0.88088768115941807 0.14674609810479519 0 0.85600844944842547 0.1848341897950983 0 0.82709327591102189 0.14937141670914489 0 0.88088768115941807 0.14674609810479519 0 0.84725310900442086 0.10779732082922661 0 0.82709327591102189 0.14937141670914489 0 0.81283102246527783 0.1881007222486438 0 0.85600844944842547 0.1848341897950983 0 0.82709327591102189 0.14937141670914489 0 0.81283102246527783 0.1881007222486438 0 0.77144070960558853 0.14311854477243749 0 0.76587607630038135 0.18880039518954719 0 0.81283102246527783 0.1881007222486438 0 0.82709327591102189 0.14937141670914489 0 0.77144070960558853 0.14311854477243749 0 0.80076557130237269 0.1154587552654202 0 0.82709327591102189 0.14937141670914489 0 0.77144070960558853 0.14311854477243749 0 0.77144070960558853 0.14311854477243749 0 0.76587607630038135 0.18880039518954719 0 0.72634814642510737 0.16106886917518889 0 0.76587607630038135 0.18880039518954719 0 0.79680861578956375 0.22656778056752541 0 0.75668890529066124 0.2244279804069782 0 0.81283102246527783 0.1881007222486438 0 0.76587607630038135 0.18880039518954719 0 0.79680861578956375 0.22656778056752541 0 0.77075983436335049 0.25919399014334171 0 0.81486180804364938 0.26321394949780091 0 0.79680861578956375 0.22656778056752541 0 0.77075983436335049 0.25919399014334171 0 0.79680861578956375 0.22656778056752541 0 0.75668890529066124 0.2244279804069782 0 0.77075983436335049 0.25919399014334171 0 0.75668890529066124 0.2244279804069782 0 0.72500000000000064 0.2498161764706 0 0.75668890529066124 0.2244279804069782 0 0.72500000000000064 0.2498161764706 0 0.72500000000001008 0.19776155966387679 0 0.72500000000000064 0.2498161764706 0 0.69397719155551807 0.2245125647000914 0 0.72500000000001008 0.19776155966387679 0 0.72500000000000064 0.2498161764706 0 0.69397719155551807 0.2245125647000914 0 0.67933712972090698 0.25920070958121938 0 0.69397719155551807 0.2245125647000914 0 0.72500000000001008 0.19776155966387679 0 0.6865991819015953 0.189116534044597 0 0.76587607630038135 0.18880039518954719 0 0.75668890529066124 0.2244279804069782 0 0.72500000000001008 0.19776155966387679 0 0.76587607630038135 0.18880039518954719 0 0.72500000000001008 0.19776155966387679 0 0.72634814642510737 0.16106886917518889 0 0.77144070960558853 0.14311854477243749 0 0.72634814642510737 0.16106886917518889 0 0.72525833953073282 0.1032114801687094 0 0.72634814642510737 0.16106886917518889 0 0.68391457121233579 0.14440470121196541 0 0.72525833953073282 0.1032114801687094 0 0.72500000000001008 0.19776155966387679 0 0.72634814642510737 0.16106886917518889 0 0.6865991819015953 0.189116534044597 0 0.72634814642510737 0.16106886917518889 0 0.68391457121233579 0.14440470121196541 0 0.6865991819015953 0.189116534044597 0 0.68391457121233579 0.14440470121196541 0 0.64011864159029941 0.18789607982138171 0 0.6865991819015953 0.189116534044597 0 0.68391457121233579 0.14440470121196541 0 0.65290632656860115 0.11434202593454081 0 0.6236733212988993 0.14864538214901801 0 0.68391457121233579 0.14440470121196541 0 0.64011864159029941 0.18789607982138171 0 0.6236733212988993 0.14864538214901801 0 0.64011864159029941 0.18789607982138171 0 0.65394964615507722 0.22666784374016369 0 0.59814117807200873 0.23398510860739519 0 0.65394964615507722 0.22666784374016369 0 0.59814117807200873 0.23398510860739519 0 0.62657463266645097 0.26524202571255862 0 0.69397719155551807 0.2245125647000914 0 0.65394964615507722 0.22666784374016369 0 0.67933712972090698 0.25920070958121938 0 0.64011864159029941 0.18789607982138171 0 0.65394964615507722 0.22666784374016369 0 0.6865991819015953 0.189116534044597 0 0.69397719155551807 0.2245125647000914 0 0.65394964615507722 0.22666784374016369 0 0.6865991819015953 0.189116534044597 0 0.69999999999921003 0 0 0.72683645290270404 0.027797073151180601 0 0.7010294155333181 0.056779085686491267 0 0.69999999999921003 0 0 0.7010294155333181 0.056779085686491267 0 0.66369801598854572 0.036327466368102787 0 0.7527966693318906 0.053051678021508272 0 0.74999999999934175 0 0 0.72683645290270404 0.027797073151180601 0 0.69999999999921003 0 0 0.74999999999934175 0 0 0.72683645290270404 0.027797073151180601 0 0.7527966693318906 0.053051678021508272 0 0.72683645290270404 0.027797073151180601 0 0.7010294155333181 0.056779085686491267 0 0.7010294155333181 0.056779085686491267 0 0.72525833953073282 0.1032114801687094 0 0.68330259535470161 0.10038702501083881 0 0.7527966693318906 0.053051678021508272 0 0.7010294155333181 0.056779085686491267 0 0.72525833953073282 0.1032114801687094 0 0.76878382444651716 0.097147941686331368 0 0.7527966693318906 0.053051678021508272 0 0.72525833953073282 0.1032114801687094 0 0.68391457121233579 0.14440470121196541 0 0.72525833953073282 0.1032114801687094 0 0.68330259535470161 0.10038702501083881 0 0.68330259535470161 0.10038702501083881 0 0.65290632656860115 0.11434202593454081 0 0.65408113592120842 0.073941773121567966 0 0.68391457121233579 0.14440470121196541 0 0.68330259535470161 0.10038702501083881 0 0.65290632656860115 0.11434202593454081 0 0.65290632656860115 0.11434202593454081 0 0.61956000905586006 0.1043312481793135 0 0.6236733212988993 0.14864538214901801 0 0.65290632656860115 0.11434202593454081 0 0.65408113592120842 0.073941773121567966 0 0.61956000905586006 0.1043312481793135 0 0.65408113592120842 0.073941773121567966 0 0.61940220174112337 0.047251958781050582 0 0.61956000905586006 0.1043312481793135 0 0.7010294155333181 0.056779085686491267 0 0.68330259535470161 0.10038702501083881 0 0.65408113592120842 0.073941773121567966 0 0.7010294155333181 0.056779085686491267 0 0.65408113592120842 0.073941773121567966 0 0.66369801598854572 0.036327466368102787 0 0.65408113592120842 0.073941773121567966 0 0.66369801598854572 0.036327466368102787 0 0.61940220174112337 0.047251958781050582 0 0.66369801598854572 0.036327466368102787 0 0.64999999999907843 0 0 0.61940220174112337 0.047251958781050582 0 0.69999999999921003 0 0 0.66369801598854572 0.036327466368102787 0 0.64999999999907843 0 0 0.59999999999894682 0 0 0.57396793757665954 0.037011367187645222 0 0.5499999999988151 0 0 0.64999999999907843 0 0 0.59999999999894682 0 0 0.61940220174112337 0.047251958781050582 0 0.59999999999894682 0 0 0.61940220174112337 0.047251958781050582 0 0.57396793757665954 0.037011367187645222 0 0.61940220174112337 0.047251958781050582 0 0.57396793757665954 0.037011367187645222 0 0.57667858002728545 0.078486105337742612 0 0.61940220174112337 0.047251958781050582 0 0.57667858002728545 0.078486105337742612 0 0.61956000905586006 0.1043312481793135 0 0.61956000905586006 0.1043312481793135 0 0.58516465772821369 0.11653801664834119 0 0.6236733212988993 0.14864538214901801 0 0.57667858002728545 0.078486105337742612 0 0.61956000905586006 0.1043312481793135 0 0.58516465772821369 0.11653801664834119 0 0.58516465772821369 0.11653801664834119 0 0.54979595918804436 0.1060565713905809 0 0.56202748619534593 0.15054058349222879 0 0.57667858002728545 0.078486105337742612 0 0.58516465772821369 0.11653801664834119 0 0.54979595918804436 0.1060565713905809 0 0.54979595918804436 0.1060565713905809 0 0.51076801031701946 0.1202837388510348 0 0.52375890611712683 0.059318771819432882 0 0.47881186583059909 0.093591717165689425 0 0.51076801031701946 0.1202837388510348 0 0.52375890611712683 0.059318771819432882 0 0.57667858002728545 0.078486105337742612 0 0.54979595918804436 0.1060565713905809 0 0.52375890611712683 0.059318771819432882 0 0.57396793757665954 0.037011367187645222 0 0.52375890611712683 0.059318771819432882 0 0.5499999999988151 0 0 0.57396793757665954 0.037011367187645222 0 0.57667858002728545 0.078486105337742612 0 0.52375890611712683 0.059318771819432882 0 0.49999999999869432 0 0 0.52375890611712683 0.059318771819432882 0 0.5499999999988151 0 0 0.59814117807200873 0.23398510860739519 0 0.59443395090188023 0.18455690917515069 0 0.55306006949600994 0.20198184231352201 0 0.59814117807200873 0.23398510860739519 0 0.55306006949600994 0.20198184231352201 0 0.54248833945060504 0.2520322959927106 0 0.64011864159029941 0.18789607982138171 0 0.59814117807200873 0.23398510860739519 0 0.59443395090188023 0.18455690917515069 0 0.64011864159029941 0.18789607982138171 0 0.59443395090188023 0.18455690917515069 0 0.6236733212988993 0.14864538214901801 0 0.58516465772821369 0.11653801664834119 0 0.6236733212988993 0.14864538214901801 0 0.56202748619534593 0.15054058349222879 0 0.59443395090188023 0.18455690917515069 0 0.6236733212988993 0.14864538214901801 0 0.56202748619534593 0.15054058349222879 0 0.59443395090188023 0.18455690917515069 0 0.56202748619534593 0.15054058349222879 0 0.55306006949600994 0.20198184231352201 0 0.56202748619534593 0.15054058349222879 0 0.51729576145820033 0.1683240575987815 0 0.55306006949600994 0.20198184231352201 0 0.54979595918804436 0.1060565713905809 0 0.51076801031701946 0.1202837388510348 0 0.56202748619534593 0.15054058349222879 0 0.48466639505193998 0.1421439844745814 0 0.51076801031701946 0.1202837388510348 0 0.51729576145820033 0.1683240575987815 0 0.51076801031701946 0.1202837388510348 0 0.56202748619534593 0.15054058349222879 0 0.51729576145820033 0.1683240575987815 0 0.51729576145820033 0.1683240575987815 0 0.50760557329222289 0.20700468884612061 0 0.55306006949600994 0.20198184231352201 0 0.50760557329222289 0.20700468884612061 0 0.55306006949600994 0.20198184231352201 0 0.54248833945060504 0.2520322959927106 0 0.49695729691142171 0.25014895411178018 0 0.50760557329222289 0.20700468884612061 0 0.54248833945060504 0.2520322959927106 0 0.49695729691142171 0.25014895411178018 0 0.5 0.29999999999999999 0 0.54248833945060504 0.2520322959927106 0 0.5 0.29999999999999999 0 0.54999999999999993 0.29999999999999999 0 0.52752007115234678 0.33170632466418198 0 0.5 0.29999999999999999 0 0.54999999999999993 0.29999999999999999 0 0.54248833945060504 0.2520322959927106 0 0.5 0.29999999999999999 0 0.54999999999999993 0.29999999999999999 0 0.54999999999999993 0.29999999999999999 0 0.54248833945060504 0.2520322959927106 0 0.5794309697024993 0.27124795968204829 0 0.59814117807200873 0.23398510860739519 0 0.54248833945060504 0.2520322959927106 0 0.5794309697024993 0.27124795968204829 0 0.54999999999999993 0.29999999999999999 0 0.59999999999999976 0.29999999999999999 0 0.54999999999999993 0.29999999999999999 0 0.5794309697024993 0.27124795968204829 0 0.59999999999999976 0.29999999999999999 0 0.59999999999999976 0.29999999999999999 0 0.6499999999999998 0.29999999999999999 0 0.5794309697024993 0.27124795968204829 0 0.59999999999999976 0.29999999999999999 0 0.62657463266645097 0.26524202571255862 0 0.59814117807200873 0.23398510860739519 0 0.5794309697024993 0.27124795968204829 0 0.62657463266645097 0.26524202571255862 0 0.61959173890754571 0.33832250091341232 0 0.56836770495988642 0.3523062350852913 0 0.6084546825910605 0.37989672713932537 0 0.59999999999999976 0.29999999999999999 0 0.61959173890754571 0.33832250091341232 0 0.6499999999999998 0.29999999999999999 0 0.59999999999999976 0.29999999999999999 0 0.61959173890754571 0.33832250091341232 0 0.56836770495988642 0.3523062350852913 0 0.54999999999999993 0.29999999999999999 0 0.59999999999999976 0.29999999999999999 0 0.56836770495988642 0.3523062350852913 0 0.56836770495988642 0.3523062350852913 0 0.52752007115234678 0.33170632466418198 0 0.52289427570932567 0.3932284363388488 0 0.54999999999999993 0.29999999999999999 0 0.56836770495988642 0.3523062350852913 0 0.52752007115234678 0.33170632466418198 0 0.49077833859261139 0.35229981449445641 0 0.5 0.29999999999999999 0 0.52752007115234678 0.33170632466418198 0 0.49077833859261139 0.35229981449445641 0 0.52752007115234678 0.33170632466418198 0 0.52289427570932567 0.3932284363388488 0 0.56836770495988642 0.3523062350852913 0 0.52289427570932567 0.3932284363388488 0 0.57744073070774993 0.41535148636609359 0 0.52289427570932567 0.3932284363388488 0 0.53823865529665704 0.45873898050322898 0 0.57744073070774993 0.41535148636609359 0 0.48858720058566618 0.43964267759203868 0 0.52289427570932567 0.3932284363388488 0 0.53823865529665704 0.45873898050322898 0 0.49102375406324739 0.49123754822244059 0 0.53330375813596242 0.50827942741749099 0 0.53823865529665704 0.45873898050322898 0 0.49102375406324739 0.49123754822244059 0 0.48858720058566618 0.43964267759203868 0 0.53823865529665704 0.45873898050322898 0 0.53330375813596242 0.50827942741749099 0 0.57611405284611883 0.50165903596042916 0 0.53823865529665704 0.45873898050322898 0 0.57611405284611883 0.50165903596042916 0 0.57975577671020095 0.46172033326338591 0 0.61547661924074692 0.48539576058873962 0 0.57611405284611883 0.50165903596042916 0 0.53823865529665704 0.45873898050322898 0 0.57975577671020095 0.46172033326338591 0 0.57975577671020095 0.46172033326338591 0 0.61209567303293111 0.44669033081290321 0 0.57744073070774993 0.41535148636609359 0 0.53823865529665704 0.45873898050322898 0 0.57975577671020095 0.46172033326338591 0 0.57744073070774993 0.41535148636609359 0 0.57975577671020095 0.46172033326338591 0 0.61209567303293111 0.44669033081290321 0 0.61547661924074692 0.48539576058873962 0 0.56836770495988642 0.3523062350852913 0 0.57744073070774993 0.41535148636609359 0 0.6084546825910605 0.37989672713932537 0 0.61209567303293111 0.44669033081290321 0 0.57744073070774993 0.41535148636609359 0 0.63912439215427275 0.41063340167983359 0 0.57744073070774993 0.41535148636609359 0 0.6084546825910605 0.37989672713932537 0 0.63912439215427275 0.41063340167983359 0 0.6084546825910605 0.37989672713932537 0 0.63912439215427275 0.41063340167983359 0 0.65481233915350323 0.35652751921065562 0 0.63912439215427275 0.41063340167983359 0 0.65178832218679827 0.45929119821019959 0 0.6879972333610942 0.43038561374960838 0 0.63912439215427275 0.41063340167983359 0 0.68128176404677243 0.38629093627004979 0 0.6879972333610942 0.43038561374960838 0 0.63912439215427275 0.41063340167983359 0 0.68128176404677243 0.38629093627004979 0 0.65481233915350323 0.35652751921065562 0 0.61547661924074692 0.48539576058873962 0 0.6541250972820879 0.49999999999999989 0 0.65178832218679827 0.45929119821019959 0 0.61209567303293111 0.44669033081290321 0 0.61547661924074692 0.48539576058873962 0 0.65178832218679827 0.45929119821019959 0 0.61209567303293111 0.44669033081290321 0 0.63912439215427275 0.41063340167983359 0 0.65178832218679827 0.45929119821019959 0 0.65178832218679827 0.45929119821019959 0 0.69385896817107129 0.48377516041410151 0 0.6879972333610942 0.43038561374960838 0 0.6541250972820879 0.49999999999999989 0 0.65178832218679827 0.45929119821019959 0 0.69385896817107129 0.48377516041410151 0 0.7152569930854884 0.5237994455134295 0 0.69385896817107129 0.48377516041410151 0 0.73947346780852752 0.49062440112282169 0 0.69385896817107129 0.48377516041410151 0 0.73483647259922602 0.44789725365921768 0 0.6879972333610942 0.43038561374960838 0 0.69385896817107129 0.48377516041410151 0 0.73483647259922602 0.44789725365921768 0 0.73947346780852752 0.49062440112282169 0 0.68128176404677243 0.38629093627004979 0 0.72622533758026719 0.40265885511101601 0 0.71508799138962864 0.36622814920737751 0 0.73483647259922602 0.44789725365921768 0 0.6879972333610942 0.43038561374960838 0 0.72622533758026719 0.40265885511101601 0 0.68128176404677243 0.38629093627004979 0 0.6879972333610942 0.43038561374960838 0 0.72622533758026719 0.40265885511101601 0 0.77354604466818633 0.40378688774472771 0 0.73483647259922602 0.44789725365921768 0 0.72622533758026719 0.40265885511101601 0 0.72622533758026719 0.40265885511101601 0 0.74764719760526988 0.3719647154012321 0 0.71508799138962864 0.36622814920737751 0 0.77354604466818633 0.40378688774472771 0 0.72622533758026719 0.40265885511101601 0 0.74764719760526988 0.3719647154012321 0 0.74764719760526988 0.3719647154012321 0 0.71508799138962864 0.36622814920737751 0 0.73090396928863699 0.33699297293167962 0 0.71508799138962864 0.36622814920737751 0 0.68887083591306764 0.33632058575757479 0 0.73090396928863699 0.33699297293167962 0 0.68128176404677243 0.38629093627004979 0 0.71508799138962864 0.36622814920737751 0 0.68887083591306764 0.33632058575757479 0 0.68887083591306764 0.33632058575757479 0 0.73090396928863699 0.33699297293167962 0 0.69999999999999984 0.29999999999999999 0 0.72500000000000064 0.2498161764706 0 0.74999999999999989 0.29999999999999999 0 0.69999999999999984 0.29999999999999999 0 0.74999999999999989 0.29999999999999999 0 0.69999999999999984 0.29999999999999999 0 0.73090396928863699 0.33699297293167962 0 0.74999999999999989 0.29999999999999999 0 0.69999999999999984 0.29999999999999999 0 0.77075983436335049 0.25919399014334171 0 0.72500000000000064 0.2498161764706 0 0.74999999999999989 0.29999999999999999 0 0.72500000000000064 0.2498161764706 0 0.69999999999999984 0.29999999999999999 0 0.67933712972090698 0.25920070958121938 0 0.69999999999999984 0.29999999999999999 0 0.67933712972090698 0.25920070958121938 0 0.6499999999999998 0.29999999999999999 0 0.68887083591306764 0.33632058575757479 0 0.69999999999999984 0.29999999999999999 0 0.6499999999999998 0.29999999999999999 0 0.69999999999999984 0.29999999999999999 0 0.6499999999999998 0.29999999999999999 0 0.67933712972090698 0.25920070958121938 0 0.62657463266645097 0.26524202571255862 0 0.6499999999999998 0.29999999999999999 0 0.65394964615507722 0.22666784374016369 0 0.67933712972090698 0.25920070958121938 0 0.62657463266645097 0.26524202571255862 0 0.59999999999999976 0.29999999999999999 0 0.62657463266645097 0.26524202571255862 0 0.6499999999999998 0.29999999999999999 0 0.61959173890754571 0.33832250091341232 0 0.6499999999999998 0.29999999999999999 0 0.65481233915350323 0.35652751921065562 0 0.61959173890754571 0.33832250091341232 0 0.6084546825910605 0.37989672713932537 0 0.65481233915350323 0.35652751921065562 0 0.68128176404677243 0.38629093627004979 0 0.68887083591306764 0.33632058575757479 0 0.65481233915350323 0.35652751921065562 0 0.68887083591306764 0.33632058575757479 0 0.6499999999999998 0.29999999999999999 0 0.65481233915350323 0.35652751921065562 0 
</DataArray>
</Points>
<Cells>
<DataArray type="UInt32" Name="connectivity" format="ascii">
0 1 2 3 4 5 6 7 8 9 10 11 12 13 14 15 16 17 18 19 20 21 22 23 24 25 26 27 28 29 30 31 32 33 34 35 36 37 38 39 40 41 42 43 44 45 46 47 48 49 50 51 52 53 54 55 56 57 58 59 60 61 62 63 64 65 66 67 68 69 70 71 72 73 74 75 76 77 78 79 80 81 82 83 84 85 86 87 88 89 90 91 92 93 94 95 96 97 98 99 100 101 102 103 104 105 106 107 108 109 110 111 112 113 114 115 116 117 118 119 120 121 122 123 124 125 126 127 128 129 130 131 132 133 134 135 136 137 138 139 140 141 142 143 144 145 146 147 148 149 150 151 152 153 154 155 156 157 158 159 160 161 162 163 164 165 166 167 168 169 170 171 172 173 174 175 176 177 178 179 180 181 182 183 184 185 186 187 188 189 190 191 192 193 194 195 196 197 198 199 200 201 202 203 204 205 206 207 208 209 210 211 212 213 214 215 216 217 218 219 220 221 222 223 224 225 226 227 228 229 230 231 232 233 234 235 236 237 238 239 240 241 242 243 244 245 246 247 248 249 250 251 252 253 254 255 256 257 258 259 260 261 262 263 264 265 266 267 268 269 270 271 272 273 274 275 276 277 278 279 280 281 282 283 284 285 286 287 288 289 290 291 292 293 294 295 296 297 298 299 300 301 302 303 304 305 306 307 308 309 310 311 312 313 314 315 316 317 318 319 320 321 322 323 324 325 326 327 328 329 330 331 332 333 334 335 336 337 338 339 340 341 342 343 344 345 346 347 348 349 350 351 352 353 354 355 356 357 358 359 360 361 362 363 364 365 366 367 368 369 370 371 372 373 374 375 376 377 378 379 380 381 382 383 384 385 386 387 388 389 390 391 392 393 394 395 396 397 398 399 400 401 402 403 404 405 406 407 408 409 410 411 412 413 414 415 416 417 418 419 420 421 422 423 424 425 426 427 428 429 430 431 432 433 434 435 436 437 438 439 440 441 442 443 444 445 446 447 448 449 450 451 452 453 454 455 456 457 458 459 460 461 462 463 464 465 466 467 468 469 470 471 472 473 474 475 476 477 478 479 480 481 482 483 484 485 486 487 488 489 490 491 492 493 494 495 496 497 498 499 500 501 502 503 504 505 506 507 508 509 510 511 512 513 514 515 516 517 518 519 520 521 522 523 524 525 526 527 528 529 530 531 532 533 534 535 536 537 538 539 540 541 542 543 544 545 546 547 548 549 550 551 552 553 554 555 556 557 558 559 560 561 562 563 564 565 566 567 568 569 570 571 572 573 574 575 576 577 578 579 580 581 582 583 584 585 586 587 588 589 590 591 592 593 594 595 596 597 598 599 600 601 602 603 604 605 606 607 608 609 610 611 612 613 614 615 616 617 618 619 620 621 622 623 624 625 626 627 628 629 630 631 632 633 634 635 636 637 638 639 640 641 642 643 644 645 646 647 648 649 650 651 652 653 654 655 656 657 658 659 660 661 662 663 664 665 666 667 668 669 670 671 672 673 674 675 676 677 678 679 680 681 682 683 684 685 686 687 688 689 690 691 692 693 694 695 696 697 698 699 700 701 702 703 704 705 706 707 708 709 710 711 712 713 714 715 716 717 718 719 720 721 722 723 724 725 726 727 728 729 730 731 732 733 734 735 736 737 738 739 740 741 742 743 744 745 746 747 748 749 750 751 752 753 754 755 756 757 758 759 760 761 762 763 764 765 766 767 768 769 770 771 772 773 774 775 776 777 778 779 780 781 782 783 784 785 786 787 788 789 790 791 792 793 794 795 796 797 798 799 800 801 802 803 804 805 806 807 808 809 810 811 812 813 814 815 816 817 818 819 820 821 822 823 824 825 826 827 828 829 830 831 832 833 834 835 836 837 838 839 840 841 842 843 844 845 846 847 848 849 850 851 852 853 854 855 856 857 858 859 860 861 862 863 864 865 866 867 868 869 870 871 872 873 874 875 876 877 878 879 880 881 882 883 884 885 886 887 888 889 890 891 892 893 894 895 896 897 898 899 900 901 902 903 904 905 906 907 908 909 910 911 912 913 914 915 916 917 918 919 920 921 922 923 924 925 926 927 928 929 930 931 932 933 934 935 936 937 938 939 940 941 942 943 944 945 946 947 948 949 950 951 952 953 954 955 956 957 958 959 960 961 962 963 964 965 966 967 968 969 970 971 972 973 974 975 976 977 978 979 980 981 982 983 984 985 986 987 988 989 990 991 992 993 994 995 996 997 998 999 1000 1001 1002 1003 1004 1005 1006 1007 1008 1009 1010 1011 1012 1013 1014 1015 1016 1017 1018 1019 1020 1021 1022 1023 1024 1025 1026 1027 1028 1029 1030 1031 1032 1033 1034 1035 1036 1037 1038 1039 1040 1041 1042 1043 1044 1045 1046 1047 1048 1049 1050 1051 1052 1053 1054 1055 1056 1057 1058 1059 1060 1061 1062 1063 1064 1065 1066 1067 1068 1069 1070 1071 1072 1073 1074 1075 1076 1077 1078 1079 1080 1081 1082 1083 1084 1085 1086 1087 1088 1089 1090 1091 1092 1093 1094 1095 1096 1097 1098 1099 1100 1101 1102 1103 1104 1105 1106 1107 1108 1109 1110 1111 1112 1113 1114 1115 1116 1117 1118 1119 1120 1121 1122 1123 1124 1125 1126 1127 1128 1129 1130 1131 1132 1133 1134 1135 1136 1137 1138 1139 1140 1141 1142 1143 1144 1145 1146 1147 1148 1149 1150 1151 1152 1153 1154 1155 1156 1157 1158 1159 1160 1161 1162 1163 1164 1165 1166 1167 1168 1169 1170 1171 1172 1173 1174 1175 1176 1177 1178 1179 1180 1181 1182 1183 1184 1185 1186 1187 1188 1189 1190 1191 1192 1193 1194 1195 1196 1197 1198 1199 1200 1201 1202 1203 1204 1205 1206 1207 1208 1209 1210 1211 1212 1213 1214 1215 1216 1217 1218 1219 1220 1221 1222 1223 1224 1225 1226 1227 1228 1229 1230 1231 1232 1233 1234 1235 1236 1237 1238 1239 1240 1241 1242 1243 1244 1245 1246 1247 1248 1249 1250 1251 1252 1253 1254 1255 1256 1257 1258 1259 1260 1261 1262 1263 1264 1265 1266 1267 1268 1269 1270 1271 1272 1273 1274 1275 1276 1277 1278 1279 1280 1281 1282 1283 1284 1285 1286 1287 1288 1289 1290 1291 1292 1293 1294 1295 1296 1297 1298 1299 1300 1301 1302 1303 1304 1305 1306 1307 1308 1309 1310 1311 1312 1313 1314 1315 1316 1317 1318 1319 1320 1321 1322 1323 1324 1325 1326 1327 1328 1329 1330 1331 1332 1333 1334 1335 1336 1337 1338 1339 1340 1341 1342 1343 1344 1345 1346 1347 1348 1349 1350 1351 1352 1353 1354 1355 1356 1357 1358 1359 1360 1361 1362 1363 1364 1365 1366 1367 1368 1369 1370 1371 1372 1373 1374 1375 1376 1377 1378 1379 1380 1381 1382 1383 1384 1385 1386 1387 1388 1389 1390 1391 1392 1393 1394 1395 1396 1397 1398 1399 1400 1401 1402 1403 1404 1405 1406 1407 1408 1409 1410 1411 1412 1413 1414 1415 1416 1417 1418 1419 1420 1421 1422 1423 1424 1425 1426 1427 1428 1429 1430 1431 1432 1433 1434 1435 1436 1437 1438 1439 1440 1441 1442 1443 1444 1445 1446 1447 1448 1449 1450 1451 1452 1453 1454 1455 1456 1457 1458 1459 1460 1461 1462 1463 1464 1465 1466 1467 1468 1469 1470 1471 1472 1473 1474 1475 1476 1477 1478 1479 1480 1481 1482 1483 1484 1485 1486 1487 1488 1489 1490 1491 1492 1493 1494 1495 1496 1497 1498 1499 1500 1501 1502 1503 1504 1505 1506 1507 1508 1509 1510 1511 1512 1513 1514 1515 1516 1517 1518 1519 1520 1521 1522 1523 1524 1525 1526 1527 1528 1529 1530 1531 1532 1533 1534 1535 1536 1537 1538 1539 1540 1541 1542 1543 1544 1545 1546 1547 1548 1549 1550 1551 1552 1553 1554 1555 1556 1557 1558 1559 1560 1561 1562 1563 1564 1565 1566 1567 1568 1569 1570 1571 1572 1573 1574 1575 1576 1577 1578 1579 1580 1581 1582 1583 1584 1585 1586 1587 1588 1589 1590 1591 1592 1593 1594 1595 1596 1597 1598 1599 1600 1601 1602 1603 1604 1605 1606 1607 1608 1609 1610 1611 1612 1613 1614 1615 1616 1617 1618 1619 1620 1621 1622 1623 1624 1625 1626 1627 1628 1629 1630 1631 1632 1633 1634 1635 1636 1637 1638 1639 1640 1641 1642 1643 1644 1645 1646 1647 1648 1649 1650 1651 1652 1653 1654 1655 1656 1657 1658 1659 1660 1661 1662 1663 1664 1665 1666 1667 1668 1669 1670 1671 1672 1673 1674 1675 1676 1677 1678 1679 1680 1681 1682 1683 1684 1685 1686 1687 1688 1689 1690 1691 1692 1693 1694 1695 1696 1697 1698 1699 1700 1701 1702 1703 1704 1705 1706 1707 1708 1709 1710 1711 1712 1713 1714 1715 1716 1717 1718 1719 1720 1721 1722 1723 1724 1725 1726 1727 1728 1729 1730 1731 1732 1733 1734 1735 1736 1737 1738 1739 1740 1741 1742 1743 1744 1745 1746 1747 1748 1749 1750 1751 1752 1753 1754 1755 1756 1757 1758 1759 1760 1761 1762 1763 1764 1765 1766 1767 1768 1769 1770 1771 1772 1773 1774 1775 1776 1777 1778 1779 1780 1781 1782 1783 1784 1785 1786 1787 1788 1789 1790 1791 1792 1793 1794 1795 1796 1797 1798 1799 1800 1801 1802 1803 1804 1805 1806 1807 1808 1809 1810 1811 1812 1813 1814 1815 1816 1817 1818 1819 1820 1821 1822 1823 1824 1825 1826 1827 1828 1829 1830 1831 1832 1833 1834 1835 1836 1837 1838 1839 1840 1841 1842 1843 1844 1845 1846 1847 1848 1849 1850 1851 1852 1853 1854 1855 1856 1857 1858 1859 1860 1861 1862 1863 1864 1865 1866 1867 1868 1869 1870 1871 1872 1873 1874 1875 1876 1877 1878 1879 1880 1881 1882 1883 1884 1885 1886 1887 1888 1889 1890 1891 1892 1893 1894 1895 1896 1897 1898 1899 1900 1901 1902 1903 1904 1905 1906 1907 1908 1909 1910 1911 1912 1913 1914 1915 1916 1917 1918 1919 1920 1921 1922 1923 1924 1925 1926 1927 1928 1929 1930 1931 1932 1933 1934 1935 1936 1937 1938 1939 1940 1941 1942 1943 1944 1945 1946 1947 1948 1949 1950 1951 1952 1953 1954 1955 1956 1957 1958 1959 1960 1961 1962 1963 1964 1965 1966 1967 1968 1969 1970 1971 1972 1973 1974 1975 1976 1977 1978 1979 1980 1981 1982 1983 1984 1985 1986 1987 1988 1989 1990 1991 1992 1993 1994 1995 1996 1997 1998 1999 2000 2001 2002 2003 2004 2005 2006 2007 2008 2009 2010 2011 2012 2013 2014 2015 2016 2017 2018 2019 2020 2021 2022 2023 2024 2025 2026 2027 2028 2029 2030 2031 2032 2033 2034 2035 2036 2037 2038 2039 2040 2041 2042 2043 2044 2045 2046 2047 2048 2049 2050 2051 2052 2053 2054 2055 2056 2057 2058 2059 2060 2061 2062 2063 2064 2065 2066 2067 2068 2069 2070 2071 2072 2073 2074 2075 2076 2077 2078 2079 2080 2081 2082 2083 2084 2085 2086 2087 2088 2089 2090 2091 2092 2093 2094 2095 2096 2097 2098 2099 2100 2101 2102 2103 2104 2105 2106 2107 2108 2109 2110 2111 2112 2113 2114 2115 2116 2117 2118 2119 2120 2121 2122 2123 2124 2125 2126 2127 2128 2129 2130 2131 2132 2133 2134 2135 2136 2137 2138 2139 2140 2141 2142 2143 2144 2145 2146 2147 2148 2149 2150 2151 2152 2153 2154 2155 2156 2157 2158 2159 2160 2161 2162 2163 2164 2165 2166 2167 2168 2169 2170 2171 2172 2173 2174 2175 2176 2177 2178 2179 2180 2181 2182 2183 2184 2185 2186 2187 2188 2189 2190 2191 2192 2193 2194 2195 2196 2197 2198 2199 2200 2201 2202 2203 2204 2205 2206 2207 2208 2209 2210 2211 2212 2213 2214 2215 2216 2217 2218 2219 2220 2221 2222 2223 2224 2225 2226 2227 2228 2229 2230 2231 2232 2233 2234 2235 2236 2237 2238 2239 2240 2241 2242 2243 2244 2245 2246 2247 2248 2249 2250 2251 2252 2253 2254 2255 2256 2257 2258 2259 2260 2261 2262 2263 2264 2265 2266 2267 2268 2269 2270 2271 2272 2273 2274 2275 2276 2277 2278 2279 2280 2281 2282 2283 2284 2285 2286 2287 2288 2289 2290 2291 2292 2293 2294 2295 2296 2297 2298 2299 2300 2301 2302 2303 2304 2305 2306 2307 2308 2309 2310 2311 2312 2313 2314 2315 2316 2317 2318 2319 2320 2321 2322 2323 2324 2325 2326 2327 2328 2329 2330 2331 2332 2333 2334 2335 2336 2337 2338 2339 2340 2341 2342 2343 2344 2345 2346 2347 2348 2349 2350 2351 2352 2353 2354 2355 2356 2357 2358 2359 2360 2361 2362 2363 2364 2365 2366 2367 2368 2369 2370 2371 2372 2373 2374 2375 2376 2377 2378 2379 2380 2381 2382 2383 2384 2385 2386 2387 2388 2389 2390 2391 2392 2393 2394 2395 2396 2397 2398 2399 2400 2401 2402 2403 2404 2405 2406 2407 2408 2409 2410 2411 2412 2413 2414 2415 2416 2417 2418 2419 2420 2421 2422 2423 2424 2425 2426 2427 2428 2429 2430 2431 2432 2433 2434 2435 2436 2437 2438 2439 2440 2441 2442 2443 2444 2445 2446 2447 2448 2449 2450 2451 2452 2453 2454 2455 2456 2457 2458 2459 2460 2461 2462 2463 2464 2465 2466 2467 2468 2469 2470 2471 2472 2473 2474 2475 2476 2477 2478 2479 2480 2481 2482 2483 2484 2485 2486 2487 2488 2489 2490 2491 2492 2493 2494 2495 2496 2497 2498 2499 2500 2501 2502 2503 2504 2505 2506 2507 2508 2509 2510 2511 2512 2513 2514 2515 2516 2517 2518 2519 2520 2521 2522 2523 2524 2525 2526 2527 2528 2529 2530 2531 2532 2533 2534 2535 2536 2537 2538 2539 2540 2541 2542 2543 2544 2545 2546 2547 2548 2549 2550 2551 2552 2553 2554 2555 2556 2557 2558 2559 2560 2561 2562 2563 2564 2565 2566 2567 2568 2569 2570 2571 2572 2573 2574 2575 2576 2577 2578 2579 2580 2581 2582 2583 2584 2585 2586 2587 2588 2589 2590 2591 2592 2593 2594 2595 2596 2597 2598 2599 2600 2601 2602 2603 2604 2605 2606 2607 2608 2609 2610 2611 2612 2613 2614 2615 2616 2617 2618 2619 2620 2621 2622 2623 2624 2625 2626 2627 2628 2629 2630 2631 2632 2633 2634 2635 2636 2637 2638 2639 2640 2641 2642 2643 2644 2645 2646 2647 2648 2649 2650 2651 2652 2653 2654 2655 2656 2657 2658 2659 2660 2661 2662 2663 2664 2665 2666 2667 2668 2669 2670 2671 2672 2673 2674 2675 2676 2677 2678 2679 2680 2681 2682 2683 2684 2685 2686 2687 2688 2689 2690 2691 2692 2693 2694 2695 2696 2697 2698 2699 2700 2701 2702 2703 2704 2705 2706 2707 2708 2709 2710 2711 2712 2713 2714 2715 2716 2717 2718 2719 2720 2721 2722 2723 2724 2725 2726 2727 2728 2729 2730 2731 2732 2733 2734 2735 2736 2737 2738 2739 2740 2741 2742 2743 2744 2745 2746 2747 2748 2749 2750 2751 2752 2753 2754 2755 2756 2757 2758 2759 2760 2761 2762 2763 2764 2765 2766 2767 2768 2769 2770 2771 2772 2773 2774 2775 2776 2777 2778 2779 2780 2781 2782 2783 2784 2785 2786 2787 2788 2789 2790 2791 2792 2793 2794 2795 2796 2797 2798 2799 2800 2801 2802 2803 2804 2805 2806 2807 2808 2809 2810 2811 2812 2813 2814 2815 2816 2817 2818 2819 2820 2821 2822 2823 2824 2825 2826 2827 2828 2829 2830 2831 2832 2833 2834 2835 2836 2837 2838 2839 2840 2841 2842 2843 2844 2845 2846 2847 2848 2849 2850 2851 2852 2853 2854 2855 2856 2857 2858 2859 2860 2861 2862 2863 2864 2865 2866 2867 2868 2869 2870 2871 2872 2873 2874 2875 2876 2877 2878 2879 2880 2881 2882 2883 2884 2885 2886 2887 2888 2889 2890 2891 2892 2893 2894 2895 2896 2897 2898 2899 2900 2901 2902 2903 2904 2905 2906 2907 2908 2909 2910 2911 2912 2913 2914 2915 2916 2917 2918 2919 2920 2921 2922 2923 2924 2925 2926 2927 2928 2929 2930 2931 2932 2933 2934 2935 2936 2937 2938 2939 2940 2941 2942 2943 2944 2945 2946 2947 2948 2949 2950 2951 2952 2953 2954 2955 2956 2957 2958 2959 2960 2961 2962 2963 2964 2965 2966 2967 2968 2969 2970 2971 2972 2973 2974 2975 2976 2977 2978 2979 2980 2981 2982 2983 2984 2985 2986 2987 2988 2989 2990 2991 2992 2993 2994 2995 2996 2997 2998 2999 3000 3001 3002 3003 3004 3005 3006 3007 3008 3009 3010 3011 3012 3013 3014 3015 3016 3017 3018 3019 3020 3021 3022 3023 3024 3025 3026 3027 3028 3029 3030 3031 3032 3033 3034 3035 3036 3037 3038 3039 3040 3041 3042 3043 3044 3045 3046 3047 3048 3049 3050 3051 3052 3053 3054 3055 3056 3057 3058 3059 3060 3061 3062 3063 3064 3065 3066 3067 3068 3069 3070 3071 3072 3073 3074 3075 3076 3077 3078 3079 3080 3081 3082 3083 3084 3085 3086 3087 3088 3089 3090 3091 3092 3093 3094 3095 3096 3097 3098 3099 3100 3101 3102 3103 3104 3105 3106 3107 3108 3109 3110 3111 3112 3113 3114 3115 3116 3117 3118 3119 3120 3121 3122 3123 3124 3125 3126 3127 3128 3129 3130 3131 3132 3133 3134 3135 3136 3137 3138 3139 3140 3141 
</DataArray>
<DataArray type="UInt32" Name="offsets" format="ascii">
3 6 9 12 15 18 21 24 27 30 33 36 39 42 45 48 51 54 57 60 63 66 69 72 75 78 81 84 87 90 93 96 99 102 105 108 111 114 117 120 123 126 129 132 135 138 141 144 147 150 153 156 159 162 165 168 171 174 177 180 183 186 189 192 195 198 201 204 207 210 213 216 219 222 225 228 231 234 237 240 243 246 249 252 255 258 261 264 267 270 273 276 279 282 285 288 291 294 297 300 303 306 309 312 315 318 321 324 327 330 333 336 339 342 345 348 351 354 357 360 363 366 369 372 375 378 381 384 387 390 393 396 399 402 405 408 411 414 417 420 423 426 429 432 435 438 441 444 447 450 453 456 459 462 465 468 471 474 477 480 483 486 489 492 495 498 501 504 507 510 513 516 519 522 525 528 531 534 537 540 543 546 549 552 555 558 561 564 567 570 573 576 579 582 585 588 591 594 597 600 603 606 609 612 615 618 621 624 627 630 633 636 639 642 645 648 651 654 657 660 663 666 669 672 675 678 681 684 687 690 693 696 699 702 705 708 711 714 717 720 723 726 729 732 735 738 741 744 747 750 753 756 759 762 765 768 771 774 777 780 783 786 789 792 795 798 801 804 807 810 813 816 819 822 825 828 831 834 837 840 843 846 849 852 855 858 861 864 867 870 873 876 879 882 885 888 891 894 897 900 903 906 909 912 915 918 921 924 927 930 933 936 939 942 945 948 951 954 957 960 963 966 969 972 975 978 981 984 987 990 993 996 999 1002 1005 1008 1011 1014 1017 1020 1023 1026 1029 1032 1035 1038 1041 1044 1047 1050 1053 1056 1059 1062 1065 1068 1071 1074 1077 1080 1083 1086 1089 1092 1095 1098 1101 1104 1107 1110 1113 1116 1119 1122 1125 1128 1131 1134 1137 1140 1143 1146 1149 1152 1155 1158 1161 1164 1167 1170 1173 1176 1179 1182 1185 1188 1191 1194 1197 1200 1203 1206 1209 1212 1215 1218 1221 1224 1227 1230 1233 1236 1239 1242 1245 1248 1251 1254 1257 1260 1263 1266 1269 1272 1275 1278 1281 1284 1287 1290 1293 1296 1299 1302 1305 1308 1311 1314 1317 1320 1323 1326 1329 1332 1335 1338 1341 1344 1347 1350 1353 1356 1359 1362 1365 1368 1371 1374 1377 1380 1383 1386 1389 1392 1395 1398 1401 1404 1407 1410 1413 1416 1419 1422 1425 1428 1431 1434 1437 1440 1443 1446 1449 1452 1455 1458 1461 1464 1467 1470 1473 1476 1479 1482 1485 1488 1491 1494 1497 1500 1503 1506 1509 1512 1515 1518 1521 1524 1527 1530 1533 1536 1539 1542 1545 1548 1551 1554 1557 1560 1563 1566 1569 1572 1575 1578 1581 1584 1587 1590 1593 1596 1599 1602 1605 1608 1611 1614 1616 1619 1622 1624 1627 1630 1632 1635 1638 1641 1644 1647 1650 1653 1656 1659 1662 1665 1668 1671 1673 1676 1679 1682 1685 1688 1690 1693 1696 1699 1702 1705 1708 1711 1714 1717 1720 1723 1726 1729 1732 1735 1738 1741 1744 1747 1750 1753 1756 1759 1762 1765 1768 1771 1774 1777 1780 1783 1786 1789 1792 1795 1798 1801 1804 1807 1810 1813 1816 1819 1822 1825 1828 1831 1834 1837 1840 1843 1846 1849 1852 1855 1858 1861 1864 1867 1870 1873 1876 1879 1882 1885 1888 1891 1894 1897 1900 1903 1906 1909 1912 1915 1918 1921 1924 1927 1930 1933 1936 1939 1942 1945 1948 1951 1954 1957 1960 1963 1966 1969 1972 1975 1978 1981 1984 1987 1990 1993 1996 1999 2002 2005 2008 2011 2014 2017 2020 2023 2026 2029 2032 2035 2038 2041 2044 2047 2050 2053 2056 2059 2062 2065 2068 2071 2074 2077 2080 2083 2086 2089 2092 2095 2098 2101 2104 2107 2110 2113 2116 2119 2122 2125 2128 2131 2134 2137 2140 2143 2146 2149 2152 2155 2158 2161 2164 2167 2170 2173 2176 2179 2182 2185 2188 2191 2194 2196 2199 2202 2205 2207 2210 2213 2215 2218 2221 2224 2227 2230 2233 2236 2239 2242 2245 2248 2250 2253 2256 2259 2262 2264 2267 2270 2273 2276 2279 2282 2285 2288 2291 2294 2297 2300 2303 2306 2309 2312 2315 2318 2321 2324 2327 2330 2333 2336 2339 2342 2345 2348 2351 2354 2357 2360 2363 2366 2369 2372 2375 2378 2381 2384 2387 2390 2393 2396 2399 2402 2405 2408 2411 2414 2417 2420 2423 2426 2429 2432 2435 2438 2440 2443 2446 2449 2452 2455 2458 2461 2464 2467 2470 2473 2476 2479 2482 2484 2487 2490 2492 2495 2497 2500 2503 2506 2509 2512 2515 2518 2521 2524 2527 2530 2533 2536 2538 2541 2544 2547 2550 2553 2556 2559 2562 2565 2568 2571 2574 2577 2580 2583 2586 2589 2592 2595 2598 2601 2604 2607 2610 2613 2616 2619 2622 2625 2628 2631 2634 2637 2640 2643 2646 2649 2652 2655 2658 2661 2664 2667 2670 2673 2676 2679 2682 2685 2688 2691 2694 2697 2700 2703 2706 2709 2712 2715 2718 2721 2724 2727 2730 2733 2736 2739 2742 2745 2748 2751 2754 2757 2760 2763 2766 2769 2772 2775 2778 2781 2784 2787 2790 2793 2796 2799 2802 2805 2808 2811 2814 2817 2820 2823 2826 2829 2832 2835 2838 2841 2844 2847 2850 2853 2856 2859 2862 2865 2868 2871 2874 2877 2880 2883 2886 2889 2892 2895 2898 2901 2904 2907 2910 2913 2916 2919 2922 2925 2928 2931 2934 2937 2940 2943 2946 2948 2951 2954 2956 2959 2961 2964 2967 2970 2973 2976 2979 2982 2985 2988 2991 2994 2997 3000 3003 3006 3009 3012 3015 3018 3021 3024 3027 3030 3033 3036 3039 3042 3045 3048 3051 3054 3057 3060 3063 3066 3069 3072 3075 3078 3081 3084 3087 3090 3093 3096 3099 3102 3104 3107 3110 3113 3116 3119 3121 3124 3127 3130 3133 3136 3139 3142 
</DataArray>
<DataArray type="UInt32" Name="types" format="ascii">
5 5 5 5 5 5 5 5 5 5 5 5 5 5 5 5 5 5 5 5 5 5 5 5 5 5 5 5 5 5 5 5 5 5 5 5 5 5 5 5 5 5 5 5 5 5 5 5 5 5 5 5 5 5 5 5 5 5 5 5 5 5 5 5 5 5 5 5 5 5 5 5 5 5 5 5 5 5 5 5 5 5 5 5 5 5 5 5 5 5 5 5 5 5 5 5 5 5 5 5 5 5 5 5 5 5 5 5 5 5 5 5 5 5 5 5 5 5 5 5 5 5 5 5 5 5 5 5 5 5 5 5 5 5 5 5 5 5 5 5 5 5 5 5 5 5 5 5 5 5 5 5 5 5 5 5 5 5 5 5 5 5 5 5 5 5 5 5 5 5 5 5 5 5 5 5 5 5 5 5 5 5 5 5 5 5 5 5 5 5 5 5 5 5 5 5 5 5 5 5 5 5 5 5 5 5 5 5 5 5 5 5 5 5 5 5 5 5 5 5 5 5 5 5 5 5 5 5 5 5 5 5 5 5 5 5 5 5 5 5 5 5 5 5 5 5 5 5 5 5 5 5 5 5 5 5 5 5 5 5 5 5 5 5 5 5 5 5 5 5 5 5 5 5 5 5 5 5 5 5 5 5 5 5 5 5 5 5 5 5 5 5 5 5 5 5 5 5 5 5 5 5 5 5 5 5 5 5 5 5 5 5 5 5 5 5 5 5 5 5 5 5 5 5 5 5 5 5 5 5 5 5 5 5 5 5 5 5 5 5 5 5 5 5 5 5 5 5 5 5 5 5 5 5 5 5 5 5 5 5 5 5 5 5 5 5 5 5 5 5 5 5 5 5 5 5 5 5 5 5 5 5 5 5 5 5 5 5 5 5 5 5 5 5 5 5 5 5 5 5 5 5 5 5 5 5 5 5 5 5 5 5 5 5 5 5 5 5 5 5 5 5 5 5 5 5 5 5 5 5 5 5 5 5 5 5 5 5 5 5 5 5 5 5 5 5 5 5 5 5 5 5 5 5 5 5 5 5 5 5 5 5 5 5 5 5 5 5 5 5 5 5 5 5 5 5 5 5 5 5 5 5 5 5 5 5 5 5 5 5 5 5 5 5 5 5 5 5 5 5 5 5 5 5 5 5 5 5 5 5 5 5 5 5 5 5 5 5 5 5 5 5 5 5 5 5 5 5 5 5 5 5 5 5 5 5 5 5 3 5 5 3 5 5 3 5 5 5 5 5 5 5 5 5 5 5 5 5 3 5 5 5 5 5 3 5 5 5 5 5 5 5 5 5 5 5 5 5 5 5 5 5 5 5 5 5 5 5 5 5 5 5 5 5 5 5 5 5 5 5 5 5 5 5 5 5 5 5 5 5 5 5 5 5 5 5 5 5 5 5 5 5 5 5 5 5 5 5 5 5 5 5 5 5 5 5 5 5 5 5 5 5 5 5 5 5 5 5 5 5 5 5 5 5 5 5 5 5 5 5 5 5 5 5 5 5 5 5 5 5 5 5 5 5 5 5 5 5 5 5 5 5 5 5 5 5 5 5 5 5 5 5 5 5 5 5 5 5 5 5 5 5 5 5 5 5 5 5 5 5 5 5 5 5 5 5 5 5 5 5 5 5 5 5 5 5 5 5 5 5 5 5 5 3 5 5 5 3 5 5 3 5 5 5 5 5 5 5 5 5 5 5 3 5 5 5 5 3 5 5 5 5 5 5 5 5 5 5 5 5 5 5 5 5 5 5 5 5 5 5 5 5 5 5 5 5 5 5 5 5 5 5 5 5 5 5 5 5 5 5 5 5 5 5 5 5 5 5 5 5 5 5 5 5 5 5 3 5 5 5 5 5 5 5 5 5 5 5 5 5 5 3 5 5 3 5 3 5 5 5 5 5 5 5 5 5 5 5 5 5 3 5 5 5 5 5 5 5 5 5 5 5 5 5 5 5 5 5 5 5 5 5 5 5 5 5 5 5 5 5 5 5 5 5 5 5 5 5 5 5 5 5 5 5 5 5 5 5 5 5 5 5 5 5 5 5 5 5 5 5 5 5 5 5 5 5 5 5 5 5 5 5 5 5 5 5 5 5 5 5 5 5 5 5 5 5 5 5 5 5 5 5 5 5 5 5 5 5 5 5 5 5 5 5 5 5 5 5 5 5 5 5 5 5 5 5 5 5 5 5 5 5 5 5 5 5 5 5 5 5 5 5 5 5 5 5 5 3 5 5 3 5 3 5 5 5 5 5 5 5 5 5 5 5 5 5 5 5 5 5 5 5 5 5 5 5 5 5 5 5 5 5 5 5 5 5 5 5 5 5 5 5 5 5 5 5 5 5 5 5 3 5 5 5 5 5 3 5 5 5 5 5 5 5 
</DataArray>
</Cells>
<PointData Scalars="" Vectors="displacement," Tensors="">
<DataArray type="Float64" Name="displacement" NumberOfComponents="3" format="ascii">
-0.0018800353908420716 -0.0026382972757243066 0 -3.6843601833386039e-06 -8.7865944852097898e-06 0 -5.5888128182823212e-07 -4.0131941199598377e-06 0 -0.0018800353908420716 -0.0026382972757243066 0 -3.6843601833386039e-06 -8.7865944852097898e-06 0 -0.0052522076036723743 -0.0068722782700225893 0 -0.0018800353908420716 -0.0026382972757243066 0 -5.5888128182823212e-07 -4.0131941199598377e-06 0 -0.0033739358835909619 -0.0043992350541158052 0 -0.0018800353908420716 -0.0026382972757243066 0 -0.0033739358835909619 -0.0043992350541158052 0 -0.0052522076036723743 -0.0068722782700225893 0 -0.0052522076036723743 -0.0068722782700225893 0 -0.008527821056973698 -0.011993594684753665 0 -0.007257212768745182 -0.010216713278400057 0 -0.008527821056973698 -0.011993594684753665 0 -0.007257212768745182 -0.010216713278400057 0 -0.011099392984480134 -0.016524832364719026 0 -0.0033739358835909619 -0.0043992350541158052 0 -0.007257212768745182 -0.010216713278400057 0 -0.0054578359985749314 -0.008026482104195232 0 -0.0033739358835909619 -0.0043992350541158052 0 -0.0052522076036723743 -0.0068722782700225893 0 -0.007257212768745182 -0.010216713278400057 0 -0.007257212768745182 -0.010216713278400057 0 -0.0054578359985749314 -0.008026482104195232 0 -0.0088522378644522743 -0.01370802762624381 0 -0.0054578359985749314 -0.008026482104195232 0 -0.0088522378644522743 -0.01370802762624381 0 -0.0069488925474172746 -0.011321020128480937 0 -0.0054578359985749314 -0.008026482104195232 0 -0.0050126240990259127 -0.0081061610301777706 0 -0.0069488925474172746 -0.011321020128480937 0 -0.0050126240990259127 -0.0081061610301777706 0 -0.0069488925474172746 -0.011321020128480937 0 -0.0068130442177693805 -0.012334061683863249 0 -0.0050126240990259127 -0.0081061610301777706 0 -0.0025616418462976664 -0.0037561372969661146 0 -0.0030116761120248634 -0.005052094466487256 0 -0.0054578359985749314 -0.008026482104195232 0 -0.0050126240990259127 -0.0081061610301777706 0 -0.0025616418462976664 -0.0037561372969661146 0 -0.0025616418462976664 -0.0037561372969661146 0 -9.8826006197539295e-07 -4.2358355518612623e-06 0 -6.6165239369891446e-07 -3.9054635450365413e-06 0 -5.5888128182823212e-07 -4.0131941199598377e-06 0 -0.0033739358835909619 -0.0043992350541158052 0 -9.8826006197539295e-07 -4.2358355518612623e-06 0 -0.0033739358835909619 -0.0043992350541158052 0 -0.0025616418462976664 -0.0037561372969661146 0 -9.8826006197539295e-07 -4.2358355518612623e-06 0 -0.0033739358835909619 -0.0043992350541158052 0 -0.0054578359985749314 -0.008026482104195232 0 -0.0025616418462976664 -0.0037561372969661146 0 -0.012576039277830823 -0.021845577888356147 0 -0.01298791969059471 -0.020819116006418753 0 -0.014491748526884356 -0.024999523257700367 0 -0.012576039277830823 -0.021845577888356147 0 -0.01298791969059471 -0.020819116006418753 0 -0.011311053088332192 -0.018229280003980063 0 -0.012576039277830823 -0.021845577888356147 0 -0.011311053088332192 -0.018229280003980063 0 -0.010528935714880745 -0.018396271457089802 0 -0.011311053088332192 -0.018229280003980063 0 -0.011099392984480134 -0.016524832364719026 0 -0.0088522378644522743 -0.01370802762624381 0 -0.007257212768745182 -0.010216713278400057 0 -0.011099392984480134 -0.016524832364719026 0 -0.0088522378644522743 -0.01370802762624381 0 -0.011311053088332192 -0.018229280003980063 0 -0.0088522378644522743 -0.01370802762624381 0 -0.010528935714880745 -0.018396271457089802 0 -0.01298791969059471 -0.020819116006418753 0 -0.011311053088332192 -0.018229280003980063 0 -0.011099392984480134 -0.016524832364719026 0 -0.0088522378644522743 -0.01370802762624381 0 -0.0069488925474172746 -0.011321020128480937 0 -0.0084738409003010991 -0.014613352794010492 0 -0.0069488925474172746 -0.011321020128480937 0 -0.0084738409003010991 -0.014613352794010492 0 -0.0068130442177693805 -0.012334061683863249 0 -0.0088522378644522743 -0.01370802762624381 0 -0.0084738409003010991 -0.014613352794010492 0 -0.010528935714880745 -0.018396271457089802 0 -0.010528935714880745 -0.018396271457089802 0 -0.011559274330624123 -0.022260159728182301 0 -0.0090366355756096497 -0.017601277995635298 0 -0.0084738409003010991 -0.014613352794010492 0 -0.010528935714880745 -0.018396271457089802 0 -0.0090366355756096497 -0.017601277995635298 0 -0.012576039277830823 -0.021845577888356147 0 -0.010528935714880745 -0.018396271457089802 0 -0.011559274330624123 -0.022260159728182301 0 -0.012576039277830823 -0.021845577888356147 0 -0.011559274330624123 -0.022260159728182301 0 -0.013689202863833202 -0.025927116802992589 0 -0.011559274330624123 -0.022260159728182301 0 -0.010048670624927312 -0.021224175143979684 0 -0.0090366355756096497 -0.017601277995635298 0 -0.0087755604009923053 -0.019865550393528792 0 -0.010048670624927312 -0.021224175143979684 0 -0.0090366355756096497 -0.017601277995635298 0 -0.0087755604009923053 -0.019865550393528792 0 -0.0090366355756096497 -0.017601277995635298 0 -0.00737653006222259 -0.015628547952734068 0 -0.00737653006222259 -0.015628547952734068 0 -0.0068130442177693805 -0.012334061683863249 0 -0.0057157432170729184 -0.011520684254949788 0 -0.0084738409003010991 -0.014613352794010492 0 -0.0090366355756096497 -0.017601277995635298 0 -0.0068130442177693805 -0.012334061683863249 0 -0.0090366355756096497 -0.017601277995635298 0 -0.00737653006222259 -0.015628547952734068 0 -0.0068130442177693805 -0.012334061683863249 0 -0.0068130442177693805 -0.012334061683863249 0 -0.0057157432170729184 -0.011520684254949788 0 -0.0047119198559574735 -0.0084954077866845439 0 -0.0057157432170729184 -0.011520684254949788 0 -0.0045152082257400618 -0.010185892613761972 0 -0.0062597373498672485 -0.014570737751320733 0 -0.0045152082257400618 -0.010185892613761972 0 -0.0062597373498672485 -0.014570737751320733 0 -0.004874419596055472 -0.012447706444593708 0 -0.0062597373498672485 -0.014570737751320733 0 -0.004874419596055472 -0.012447706444593708 0 -0.0055628871633864275 -0.015327789640256198 0 -0.00737653006222259 -0.015628547952734068 0 -0.0057157432170729184 -0.011520684254949788 0 -0.0062597373498672485 -0.014570737751320733 0 -0.0087755604009923053 -0.019865550393528792 0 -0.00737653006222259 -0.015628547952734068 0 -0.0072106698887706763 -0.018159564156562766 0 -0.00737653006222259 -0.015628547952734068 0 -0.0062597373498672485 -0.014570737751320733 0 -0.0072106698887706763 -0.018159564156562766 0 -0.0062597373498672485 -0.014570737751320733 0 -0.0072106698887706763 -0.018159564156562766 0 -0.0055628871633864275 -0.015327789640256198 0 -0.0072106698887706763 -0.018159564156562766 0 -0.0072757072676652547 -0.021117172665193348 0 -0.008656930970506467 -0.022460770218216089 0 -0.0087755604009923053 -0.019865550393528792 0 -0.0072106698887706763 -0.018159564156562766 0 -0.008656930970506467 -0.022460770218216089 0 -0.0016304703706527008 -0.00298519434296954 0 -6.6165239369891446e-07 -3.9054635450365413e-06 0 -0.0030116761120248634 -0.005052094466487256 0 -0.0016304703706527008 -0.00298519434296954 0 -0.0030116761120248634 -0.005052094466487256 0 -0.0034109143108706119 -0.0067264824579755895 0 -0.0016304703706527008 -0.00298519434296954 0 -6.6165239369891446e-07 -3.9054635450365413e-06 0 -6.9045636515266742e-07 -3.9609758155833218e-06 0 -0.0025616418462976664 -0.0037561372969661146 0 -6.6165239369891446e-07 -3.9054635450365413e-06 0 -0.0030116761120248634 -0.005052094466487256 0 -0.0050126240990259127 -0.0081061610301777706 0 -0.0030116761120248634 -0.005052094466487256 0 -0.0047119198559574735 -0.0084954077866845439 0 -0.0050126240990259127 -0.0081061610301777706 0 -0.0068130442177693805 -0.012334061683863249 0 -0.0047119198559574735 -0.0084954077866845439 0 -0.0057157432170729184 -0.011520684254949788 0 -0.0047119198559574735 -0.0084954077866845439 0 -0.0034109143108706119 -0.0067264824579755895 0 -0.0030116761120248634 -0.005052094466487256 0 -0.0047119198559574735 -0.0084954077866845439 0 -0.0034109143108706119 -0.0067264824579755895 0 -0.0057157432170729184 -0.011520684254949788 0 -0.0045152082257400618 -0.010185892613761972 0 -0.0034109143108706119 -0.0067264824579755895 0 -0.0045152082257400618 -0.010185892613761972 0 -0.0034109143108706119 -0.0067264824579755895 0 -0.0030023773028571622 -0.0067918497047393242 0 -0.0045152082257400618 -0.010185892613761972 0 -0.0030023773028571622 -0.0067918497047393242 0 -0.0034602067505368375 -0.0090015516534852381 0 -0.0034109143108706119 -0.0067264824579755895 0 -0.0030023773028571622 -0.0067918497047393242 0 -0.001630791506659741 -0.003444199934536909 0 -0.0030023773028571622 -0.0067918497047393242 0 -0.001630791506659741 -0.003444199934536909 0 -0.0018034806497386079 -0.0044497539396631284 0 -0.0016304703706527008 -0.00298519434296954 0 -0.0034109143108706119 -0.0067264824579755895 0 -0.001630791506659741 -0.003444199934536909 0 -0.0016304703706527008 -0.00298519434296954 0 -0.001630791506659741 -0.003444199934536909 0 -6.9045636515266742e-07 -3.9609758155833218e-06 0 -0.001630791506659741 -0.003444199934536909 0 -6.9045636515266742e-07 -3.9609758155833218e-06 0 -6.2633332108647074e-07 -3.8980377622011654e-06 0 -6.2633332108647074e-07 -3.8980377622011654e-06 0 -0.0018034806497386079 -0.0044497539396631284 0 -3.686270682812144e-07 -3.8641276780448502e-06 0 -0.001630791506659741 -0.003444199934536909 0 -6.2633332108647074e-07 -3.8980377622011654e-06 0 -0.0018034806497386079 -0.0044497539396631284 0 -0.0018034806497386079 -0.0044497539396631284 0 -3.686270682812144e-07 -3.8641276780448502e-06 0 -0.0011353091548861828 -0.0033136176461357864 0 -3.686270682812144e-07 -3.8641276780448502e-06 0 -0.0011353091548861828 -0.0033136176461357864 0 -3.5974171493465685e-07 -3.8921238053534391e-06 0 -0.0011353091548861828 -0.0033136176461357864 0 -0.00072760250068148655 -0.0025372379260970067 0 -0.0017331503435723072 -0.0061740277469555073 0 -0.00072760250068148655 -0.0025372379260970067 0 -0.0017331503435723072 -0.0061740277469555073 0 -0.00090488482578335728 -0.0040475480994726833 0 -0.0011353091548861828 -0.0033136176461357864 0 -0.00072760250068148655 -0.0025372379260970067 0 -3.5974171493465685e-07 -3.8921238053534391e-06 0 -0.00072760250068148655 -0.0025372379260970067 0 -3.5974171493465685e-07 -3.8921238053534391e-06 0 -2.7079787529209792e-07 -3.8409958246858369e-06 0 -0.0017331503435723072 -0.0061740277469555073 0 -0.0026162204441087028 -0.010428021207159625 0 -0.0016685120633918098 -0.0081285525705945272 0 -0.0017331503435723072 -0.0061740277469555073 0 -0.0028527775167339524 -0.0091162822755146804 0 -0.0026162204441087028 -0.010428021207159625 0 -0.0011353091548861828 -0.0033136176461357864 0 -0.0017331503435723072 -0.0061740277469555073 0 -0.0021667402533739615 -0.0063023355753969003 0 -0.0017331503435723072 -0.0061740277469555073 0 -0.0028527775167339524 -0.0091162822755146804 0 -0.0021667402533739615 -0.0063023355753969003 0 -0.0028527775167339524 -0.0091162822755146804 0 -0.0021667402533739615 -0.0063023355753969003 0 -0.0034602067505368375 -0.0090015516534852381 0 -0.0018034806497386079 -0.0044497539396631284 0 -0.0011353091548861828 -0.0033136176461357864 0 -0.0021667402533739615 -0.0063023355753969003 0 -0.0018034806497386079 -0.0044497539396631284 0 -0.0021667402533739615 -0.0063023355753969003 0 -0.0034602067505368375 -0.0090015516534852381 0 -0.0030023773028571622 -0.0067918497047393242 0 -0.0018034806497386079 -0.0044497539396631284 0 -0.0034602067505368375 -0.0090015516534852381 0 -0.0045152082257400618 -0.010185892613761972 0 -0.0034602067505368375 -0.0090015516534852381 0 -0.004874419596055472 -0.012447706444593708 0 -0.0034602067505368375 -0.0090015516534852381 0 -0.004874419596055472 -0.012447706444593708 0 -0.0041655156458302285 -0.012231651651253082 0 -0.004874419596055472 -0.012447706444593708 0 -0.0041655156458302285 -0.012231651651253082 0 -0.0055628871633864275 -0.015327789640256198 0 -0.0041655156458302285 -0.012231651651253082 0 -0.0046111508290053883 -0.015421375298100995 0 -0.0035598961938342446 -0.012375076645890066 0 -0.0041655156458302285 -0.012231651651253082 0 -0.0055628871633864275 -0.015327789640256198 0 -0.0046111508290053883 -0.015421375298100995 0 -0.0028527775167339524 -0.0091162822755146804 0 -0.0034602067505368375 -0.0090015516534852381 0 -0.0041655156458302285 -0.012231651651253082 0 -0.0072106698887706763 -0.018159564156562766 0 -0.0059786105908936306 -0.018385954260091961 0 -0.0072757072676652547 -0.021117172665193348 0 -0.0072106698887706763 -0.018159564156562766 0 -0.0059786105908936306 -0.018385954260091961 0 -0.0055628871633864275 -0.015327789640256198 0 -0.0059786105908936306 -0.018385954260091961 0 -0.0055628871633864275 -0.015327789640256198 0 -0.0046111508290053883 -0.015421375298100995 0 -0.0059786105908936306 -0.018385954260091961 0 -0.0046769416383653523 -0.018631923500093218 0 -0.0064076297696777241 -0.02188651738689704 0 -0.0059786105908936306 -0.018385954260091961 0 -0.0046769416383653523 -0.018631923500093218 0 -0.0046111508290053883 -0.015421375298100995 0 -0.0046769416383653523 -0.018631923500093218 0 -0.0046111508290053883 -0.015421375298100995 0 -0.0034788751825607913 -0.014281998193584361 0 -0.0046769416383653523 -0.018631923500093218 0 -0.0034788751825607913 -0.014281998193584361 0 -0.0032261330718136756 -0.01673722263715946 0 -0.0046769416383653523 -0.018631923500093218 0 -0.0032261330718136756 -0.01673722263715946 0 -0.0040033730216120743 -0.021138676931146752 0 -0.0028527775167339524 -0.0091162822755146804 0 -0.0041655156458302285 -0.012231651651253082 0 -0.0035598961938342446 -0.012375076645890066 0 -0.0028527775167339524 -0.0091162822755146804 0 -0.0035598961938342446 -0.012375076645890066 0 -0.0026162204441087028 -0.010428021207159625 0 -0.0046111508290053883 -0.015421375298100995 0 -0.0035598961938342446 -0.012375076645890066 0 -0.0034788751825607913 -0.014281998193584361 0 -0.0034788751825607913 -0.014281998193584361 0 -0.0026162204441087028 -0.010428021207159625 0 -0.002412039646277194 -0.012427415685756013 0 -0.0035598961938342446 -0.012375076645890066 0 -0.0034788751825607913 -0.014281998193584361 0 -0.0026162204441087028 -0.010428021207159625 0 -0.0026162204441087028 -0.010428021207159625 0 -0.002412039646277194 -0.012427415685756013 0 -0.0016685120633918098 -0.0081285525705945272 0 -0.002412039646277194 -0.012427415685756013 0 -0.0021486464797126122 -0.01500868692726237 0 -0.0013812534276831368 -0.010285667932450249 0 -0.002412039646277194 -0.012427415685756013 0 -0.0013812534276831368 -0.010285667932450249 0 -0.0016685120633918098 -0.0081285525705945272 0 -0.0032261330718136756 -0.01673722263715946 0 -0.0026677479245594458 -0.019236315524536186 0 -0.0040033730216120743 -0.021138676931146752 0 -0.0034788751825607913 -0.014281998193584361 0 -0.002412039646277194 -0.012427415685756013 0 -0.0032261330718136756 -0.01673722263715946 0 -0.002412039646277194 -0.012427415685756013 0 -0.0032261330718136756 -0.01673722263715946 0 -0.0021486464797126122 -0.01500868692726237 0 -0.0032261330718136756 -0.01673722263715946 0 -0.0021486464797126122 -0.01500868692726237 0 -0.0026677479245594458 -0.019236315524536186 0 -0.0021486464797126122 -0.01500868692726237 0 -0.0015635643164905123 -0.017241266247090554 0 -0.0026677479245594458 -0.019236315524536186 0 -0.0021486464797126122 -0.01500868692726237 0 -0.0015635643164905123 -0.017241266247090554 0 -0.0011571334670944693 -0.01385763690139856 0 -0.0011571334670944693 -0.01385763690139856 0 -0.00024911998034271896 -0.012220573154506444 0 -0.00049509107686241977 -0.015323078747107494 0 -0.0015635643164905123 -0.017241266247090554 0 -0.0011571334670944693 -0.01385763690139856 0 -0.00049509107686241977 -0.015323078747107494 0 -0.0015635643164905123 -0.017241266247090554 0 -0.00083271188441208499 -0.018907100762760972 0 -0.00049509107686241977 -0.015323078747107494 0 -0.0013812534276831368 -0.010285667932450249 0 -0.0011571334670944693 -0.01385763690139856 0 -0.00072997919260785551 -0.010287644163127213 0 -0.0021486464797126122 -0.01500868692726237 0 -0.0013812534276831368 -0.010285667932450249 0 -0.0011571334670944693 -0.01385763690139856 0 -0.0011571334670944693 -0.01385763690139856 0 -0.00072997919260785551 -0.010287644163127213 0 -0.00024911998034271896 -0.012220573154506444 0 -0.0013812534276831368 -0.010285667932450249 0 -0.00072997919260785551 -0.010287644163127213 0 -0.00055090486189640164 -0.0065974484529475802 0 -0.00072997919260785551 -0.010287644163127213 0 -0.00055090486189640164 -0.0065974484529475802 0 -0.00025917121059814091 -0.0085437560850447156 0 -0.0013812534276831368 -0.010285667932450249 0 -0.00055090486189640164 -0.0065974484529475802 0 -0.00087011869284572602 -0.0057035270384232723 0 -0.00055090486189640164 -0.0065974484529475802 0 -0.00030200719017255215 -0.0030378162753625874 0 -0.00087011869284572602 -0.0057035270384232723 0 -0.00055090486189640164 -0.0065974484529475802 0 -0.00030200719017255215 -0.0030378162753625874 0 -4.1421568928848343e-05 -0.0040538959649255284 0 -0.00030200719017255215 -0.0030378162753625874 0 -1.6836809418277151e-07 -3.8377300347911584e-06 0 -4.1421568928848343e-05 -0.0040538959649255284 0 -0.00030200719017255215 -0.0030378162753625874 0 -1.6836809418277151e-07 -3.8377300347911584e-06 0 -1.6133174803279512e-07 -3.890443017959107e-06 0 -0.00030200719017255215 -0.0030378162753625874 0 -1.6133174803279512e-07 -3.890443017959107e-06 0 -0.00043822267757278477 -0.002599976603387978 0 -0.00030200719017255215 -0.0030378162753625874 0 -0.00043822267757278477 -0.002599976603387978 0 -0.00087011869284572602 -0.0057035270384232723 0 -0.00043822267757278477 -0.002599976603387978 0 -2.7079787529209792e-07 -3.8409958246858369e-06 0 -0.00090488482578335728 -0.0040475480994726833 0 -0.00043822267757278477 -0.002599976603387978 0 -0.00090488482578335728 -0.0040475480994726833 0 -0.00087011869284572602 -0.0057035270384232723 0 -1.6133174803279512e-07 -3.890443017959107e-06 0 -0.00043822267757278477 -0.002599976603387978 0 -2.7079787529209792e-07 -3.8409958246858369e-06 0 -0.00072760250068148655 -0.0025372379260970067 0 -2.7079787529209792e-07 -3.8409958246858369e-06 0 -0.00090488482578335728 -0.0040475480994726833 0 -0.0017331503435723072 -0.0061740277469555073 0 -0.00090488482578335728 -0.0040475480994726833 0 -0.0016685120633918098 -0.0081285525705945272 0 -0.0013812534276831368 -0.010285667932450249 0 -0.0016685120633918098 -0.0081285525705945272 0 -0.00087011869284572602 -0.0057035270384232723 0 -0.00090488482578335728 -0.0040475480994726833 0 -0.0016685120633918098 -0.0081285525705945272 0 -0.00087011869284572602 -0.0057035270384232723 0 -0.0033817476917702045 -0.031693667239485357 0 -0.0048180521935253205 -0.034439827279659115 0 -0.0031938478599750813 -0.035577073413331127 0 -0.0033817476917702045 -0.031693667239485357 0 -0.0047889562962528621 -0.031130419823486681 0 -0.0048180521935253205 -0.034439827279659115 0 -0.0033817476917702045 -0.031693667239485357 0 -0.0047889562962528621 -0.031130419823486681 0 -0.0038621598343173244 -0.027486310585172966 0 -0.0048180521935253205 -0.034439827279659115 0 -0.0050079266805857477 -0.038633494923871463 0 -0.0031938478599750813 -0.035577073413331127 0 -0.0050079266805857477 -0.038633494923871463 0 -0.0034548315698540466 -0.040690996342703838 0 -0.0056990867202728543 -0.042880108692119209 0 -0.0050079266805857477 -0.038633494923871463 0 -0.0034548315698540466 -0.040690996342703838 0 -0.0031938478599750813 -0.035577073413331127 0 -0.0034548315698540466 -0.040690996342703838 0 -0.0031938478599750813 -0.035577073413331127 0 -0.0022290604200993535 -0.037855982197579387 0 -0.0031938478599750813 -0.035577073413331127 0 -0.0022290604200993535 -0.037855982197579387 0 -0.0010129641089088044 -0.035328079749483508 0 -0.0034548315698540466 -0.040690996342703838 0 -0.0022290604200993535 -0.037855982197579387 0 -0.001165272993098388 -0.03981156551434395 0 -0.0022290604200993535 -0.037855982197579387 0 -0.001165272993098388 -0.03981156551434395 0 -0.0010129641089088044 -0.035328079749483508 0 -0.0010129641089088044 -0.035328079749483508 0 -0.0017031122430994704 -0.031625406733438916 0 0.00045464002163710365 -0.031239271515732976 0 -0.0031938478599750813 -0.035577073413331127 0 -0.0010129641089088044 -0.035328079749483508 0 -0.0017031122430994704 -0.031625406733438916 0 -0.0033817476917702045 -0.031693667239485357 0 -0.0031938478599750813 -0.035577073413331127 0 -0.0017031122430994704 -0.031625406733438916 0 -0.0033817476917702045 -0.031693667239485357 0 -0.0017031122430994704 -0.031625406733438916 0 -0.002535916270309033 -0.028269152529891338 0 -0.0017031122430994704 -0.031625406733438916 0 -0.00069960043492397453 -0.027708847580412439 0 0.00045464002163710365 -0.031239271515732976 0 -0.00069960043492397453 -0.027708847580412439 0 -0.001809822557962984 -0.02483452502674461 0 -0.0007007884480165255 -0.02309729669334443 0 -0.00069960043492397453 -0.027708847580412439 0 -0.001809822557962984 -0.02483452502674461 0 -0.002535916270309033 -0.028269152529891338 0 -0.001809822557962984 -0.02483452502674461 0 -0.002535916270309033 -0.028269152529891338 0 -0.0031169093272860253 -0.023982184571415818 0 -0.0017031122430994704 -0.031625406733438916 0 -0.00069960043492397453 -0.027708847580412439 0 -0.002535916270309033 -0.028269152529891338 0 -0.00083271188441208499 -0.018907100762760972 0 -0.0018299416567220022 -0.021382731808366445 0 -0.0007007884480165255 -0.02309729669334443 0 -0.0015635643164905123 -0.017241266247090554 0 -0.00083271188441208499 -0.018907100762760972 0 -0.0018299416567220022 -0.021382731808366445 0 -0.001809822557962984 -0.02483452502674461 0 -0.0018299416567220022 -0.021382731808366445 0 -0.0007007884480165255 -0.02309729669334443 0 -0.001809822557962984 -0.02483452502674461 0 -0.0018299416567220022 -0.021382731808366445 0 -0.0031169093272860253 -0.023982184571415818 0 -0.0015635643164905123 -0.017241266247090554 0 -0.0018299416567220022 -0.021382731808366445 0 -0.0026677479245594458 -0.019236315524536186 0 -0.0018299416567220022 -0.021382731808366445 0 -0.0026677479245594458 -0.019236315524536186 0 -0.0031169093272860253 -0.023982184571415818 0 -0.0026677479245594458 -0.019236315524536186 0 -0.0031169093272860253 -0.023982184571415818 0 -0.0040033730216120743 -0.021138676931146752 0 -0.0031169093272860253 -0.023982184571415818 0 -0.0040033730216120743 -0.021138676931146752 0 -0.0047834905889791134 -0.025190863848462221 0 -0.0033817476917702045 -0.031693667239485357 0 -0.002535916270309033 -0.028269152529891338 0 -0.0038621598343173244 -0.027486310585172966 0 -0.002535916270309033 -0.028269152529891338 0 -0.0031169093272860253 -0.023982184571415818 0 -0.0038621598343173244 -0.027486310585172966 0 -0.0031169093272860253 -0.023982184571415818 0 -0.0038621598343173244 -0.027486310585172966 0 -0.0047834905889791134 -0.025190863848462221 0 -0.0038621598343173244 -0.027486310585172966 0 -0.0047834905889791134 -0.025190863848462221 0 -0.0062723762311909246 -0.029657851885288085 0 -0.0047889562962528621 -0.031130419823486681 0 -0.0038621598343173244 -0.027486310585172966 0 -0.0062723762311909246 -0.029657851885288085 0 -0.0047834905889791134 -0.025190863848462221 0 -0.0060678073019197441 -0.026330166609761251 0 -0.0062723762311909246 -0.029657851885288085 0 -0.0060678073019197441 -0.026330166609761251 0 -0.0062723762311909246 -0.029657851885288085 0 -0.0073134147326464963 -0.028668507421264183 0 -0.0046769416383653523 -0.018631923500093218 0 -0.0040033730216120743 -0.021138676931146752 0 -0.0054440521431406578 -0.023026374550060635 0 -0.0040033730216120743 -0.021138676931146752 0 -0.0047834905889791134 -0.025190863848462221 0 -0.0054440521431406578 -0.023026374550060635 0 -0.0047834905889791134 -0.025190863848462221 0 -0.0060678073019197441 -0.026330166609761251 0 -0.0054440521431406578 -0.023026374550060635 0 -0.0060678073019197441 -0.026330166609761251 0 -0.0054440521431406578 -0.023026374550060635 0 -0.0069629930536341022 -0.025524108495254941 0 -0.0046769416383653523 -0.018631923500093218 0 -0.0054440521431406578 -0.023026374550060635 0 -0.0064076297696777241 -0.02188651738689704 0 -0.0054440521431406578 -0.023026374550060635 0 -0.0064076297696777241 -0.02188651738689704 0 -0.0069629930536341022 -0.025524108495254941 0 -0.0064076297696777241 -0.02188651738689704 0 -0.0069629930536341022 -0.025524108495254941 0 -0.0082585389612234317 -0.02489951398733415 0 -0.0064076297696777241 -0.02188651738689704 0 -0.0072757072676652547 -0.021117172665193348 0 -0.0082585389612234317 -0.02489951398733415 0 -0.0059786105908936306 -0.018385954260091961 0 -0.0064076297696777241 -0.02188651738689704 0 -0.0072757072676652547 -0.021117172665193348 0 -0.0062723762311909246 -0.029657851885288085 0 -0.0073134147326464963 -0.028668507421264183 0 -0.0083159087045419772 -0.031993106747869718 0 -0.0060678073019197441 -0.026330166609761251 0 -0.0073134147326464963 -0.028668507421264183 0 -0.0069629930536341022 -0.025524108495254941 0 -0.0073134147326464963 -0.028668507421264183 0 -0.0069629930536341022 -0.025524108495254941 0 -0.0084343617435289984 -0.028557834989802366 0 -0.0069629930536341022 -0.025524108495254941 0 -0.0084343617435289984 -0.028557834989802366 0 -0.0082585389612234317 -0.02489951398733415 0 -0.0073134147326464963 -0.028668507421264183 0 -0.0084343617435289984 -0.028557834989802366 0 -0.0083159087045419772 -0.031993106747869718 0 -0.0084343617435289984 -0.028557834989802366 0 -0.0083159087045419772 -0.031993106747869718 0 -0.010089544556600839 -0.031409331591620848 0 -0.0083159087045419772 -0.031993106747869718 0 -0.0083972085084438285 -0.03629677364935821 0 -0.0099552424970974357 -0.035036976462040965 0 -0.0083972085084438285 -0.03629677364935821 0 -0.009801691941545199 -0.039168016033301271 0 -0.0099552424970974357 -0.035036976462040965 0 -0.0083159087045419772 -0.031993106747869718 0 -0.0083972085084438285 -0.03629677364935821 0 -0.0071819714302726635 -0.033531307913225721 0 -0.0062723762311909246 -0.029657851885288085 0 -0.0083159087045419772 -0.031993106747869718 0 -0.0071819714302726635 -0.033531307913225721 0 -0.0062723762311909246 -0.029657851885288085 0 -0.0071819714302726635 -0.033531307913225721 0 -0.005949594790477024 -0.033088605686723928 0 -0.0071819714302726635 -0.033531307913225721 0 -0.005949594790477024 -0.033088605686723928 0 -0.0066345328176306518 -0.0367539611891749 0 -0.0083972085084438285 -0.03629677364935821 0 -0.0071819714302726635 -0.033531307913225721 0 -0.0066345328176306518 -0.0367539611891749 0 -0.0048180521935253205 -0.034439827279659115 0 -0.005949594790477024 -0.033088605686723928 0 -0.0066345328176306518 -0.0367539611891749 0 -0.0047889562962528621 -0.031130419823486681 0 -0.0048180521935253205 -0.034439827279659115 0 -0.005949594790477024 -0.033088605686723928 0 -0.0047889562962528621 -0.031130419823486681 0 -0.0062723762311909246 -0.029657851885288085 0 -0.005949594790477024 -0.033088605686723928 0 -0.0050079266805857477 -0.038633494923871463 0 -0.0066983555591307578 -0.040485712832842594 0 -0.0056990867202728543 -0.042880108692119209 0 -0.0050079266805857477 -0.038633494923871463 0 -0.0066983555591307578 -0.040485712832842594 0 -0.0066345328176306518 -0.0367539611891749 0 -0.0048180521935253205 -0.034439827279659115 0 -0.0050079266805857477 -0.038633494923871463 0 -0.0066345328176306518 -0.0367539611891749 0 -0.0083972085084438285 -0.03629677364935821 0 -0.0066345328176306518 -0.0367539611891749 0 -0.0080900659981218842 -0.03988732861739578 0 -0.0066983555591307578 -0.040485712832842594 0 -0.0080900659981218842 -0.03988732861739578 0 -0.0077638414289621432 -0.044338927814685083 0 -0.0066983555591307578 -0.040485712832842594 0 -0.0066345328176306518 -0.0367539611891749 0 -0.0080900659981218842 -0.03988732861739578 0 -0.0080900659981218842 -0.03988732861739578 0 -0.009801691941545199 -0.039168016033301271 0 -0.0094211438793979137 -0.043139934868175078 0 -0.0083972085084438285 -0.03629677364935821 0 -0.0080900659981218842 -0.03988732861739578 0 -0.009801691941545199 -0.039168016033301271 0 -0.009801691941545199 -0.039168016033301271 0 -0.010865998003895183 -0.042477815926352226 0 -0.0094211438793979137 -0.043139934868175078 0 -0.010865998003895183 -0.042477815926352226 0 -0.012227082820749684 -0.041527094195275331 0 -0.010970705060287841 -0.03848878234020809 0 -0.012227082820749684 -0.041527094195275331 0 -0.010970705060287841 -0.03848878234020809 0 -0.011770128415414503 -0.036847427343709743 0 -0.009801691941545199 -0.039168016033301271 0 -0.010970705060287841 -0.03848878234020809 0 -0.0099552424970974357 -0.035036976462040965 0 -0.009801691941545199 -0.039168016033301271 0 -0.010865998003895183 -0.042477815926352226 0 -0.010970705060287841 -0.03848878234020809 0 -0.0083159087045419772 -0.031993106747869718 0 -0.0099552424970974357 -0.035036976462040965 0 -0.010089544556600839 -0.031409331591620848 0 -0.011770128415414503 -0.036847427343709743 0 -0.012174033842022714 -0.033849923884818292 0 -0.010089544556600839 -0.031409331591620848 0 -0.0099552424970974357 -0.035036976462040965 0 -0.011770128415414503 -0.036847427343709743 0 -0.010089544556600839 -0.031409331591620848 0 -0.010970705060287841 -0.03848878234020809 0 -0.0099552424970974357 -0.035036976462040965 0 -0.011770128415414503 -0.036847427343709743 0 -0.011770128415414503 -0.036847427343709743 0 -0.013573044480971802 -0.03760334727889876 0 -0.013326439518516678 -0.040458987868167796 0 -0.011770128415414503 -0.036847427343709743 0 -0.012174033842022714 -0.033849923884818292 0 -0.013573044480971802 -0.03760334727889876 0 -0.012174033842022714 -0.033849923884818292 0 -0.013573044480971802 -0.03760334727889876 0 -0.013911969256841421 -0.034735096303068272 0 -0.013573044480971802 -0.03760334727889876 0 -0.013326439518516678 -0.040458987868167796 0 -0.014817451152320258 -0.041290382870476934 0 -0.013326439518516678 -0.040458987868167796 0 -0.014817451152320258 -0.041290382870476934 0 -0.015051506839942568 -0.045131521683867797 0 -0.013326439518516678 -0.040458987868167796 0 -0.015051506839942568 -0.045131521683867797 0 -0.01355695484421302 -0.044522679178754888 0 -0.012227082820749684 -0.041527094195275331 0 -0.013326439518516678 -0.040458987868167796 0 -0.01355695484421302 -0.044522679178754888 0 -0.012227082820749684 -0.041527094195275331 0 -0.011770128415414503 -0.036847427343709743 0 -0.013326439518516678 -0.040458987868167796 0 -0.0072757072676652547 -0.021117172665193348 0 -0.008656930970506467 -0.022460770218216089 0 -0.0082585389612234317 -0.02489951398733415 0 -0.008656930970506467 -0.022460770218216089 0 -0.0082585389612234317 -0.02489951398733415 0 -0.0099743248383030586 -0.026784161661756227 0 -0.008656930970506467 -0.022460770218216089 0 -0.0099743248383030586 -0.026784161661756227 0 -0.010170351002466698 -0.024125231802944742 0 -0.0099743248383030586 -0.026784161661756227 0 -0.0093731902570352837 -0.028178636396341723 0 -0.011003291507685661 -0.030340681267469187 0 -0.0082585389612234317 -0.02489951398733415 0 -0.0099743248383030586 -0.026784161661756227 0 -0.0093731902570352837 -0.028178636396341723 0 -0.0084343617435289984 -0.028557834989802366 0 -0.0082585389612234317 -0.02489951398733415 0 -0.0093731902570352837 -0.028178636396341723 0 -0.0084343617435289984 -0.028557834989802366 0 -0.0093731902570352837 -0.028178636396341723 0 -0.010089544556600839 -0.031409331591620848 0 -0.0093731902570352837 -0.028178636396341723 0 -0.010089544556600839 -0.031409331591620848 0 -0.011003291507685661 -0.030340681267469187 0 -0.012174033842022714 -0.033849923884818292 0 -0.010089544556600839 -0.031409331591620848 0 -0.011003291507685661 -0.030340681267469187 0 -0.012174033842022714 -0.033849923884818292 0 -0.011003291507685661 -0.030340681267469187 0 -0.012070722256564864 -0.029373983932505645 0 -0.012174033842022714 -0.033849923884818292 0 -0.012070722256564864 -0.029373983932505645 0 -0.013911969256841421 -0.034735096303068272 0 -0.0099743248383030586 -0.026784161661756227 0 -0.011003291507685661 -0.030340681267469187 0 -0.012070722256564864 -0.029373983932505645 0 -0.0099743248383030586 -0.026784161661756227 0 -0.012070722256564864 -0.029373983932505645 0 -0.010170351002466698 -0.024125231802944742 0 -0.012070722256564864 -0.029373983932505645 0 -0.010170351002466698 -0.024125231802944742 0 -0.011313971431152238 -0.02407851788798494 0 -0.010048670624927312 -0.021224175143979684 0 -0.010170351002466698 -0.024125231802944742 0 -0.011313971431152238 -0.02407851788798494 0 -0.0087755604009923053 -0.019865550393528792 0 -0.008656930970506467 -0.022460770218216089 0 -0.010170351002466698 -0.024125231802944742 0 -0.0087755604009923053 -0.019865550393528792 0 -0.010048670624927312 -0.021224175143979684 0 -0.010170351002466698 -0.024125231802944742 0 -0.011559274330624123 -0.022260159728182301 0 -0.013029907413372371 -0.027698733349106434 0 -0.013689202863833202 -0.025927116802992589 0 -0.011559274330624123 -0.022260159728182301 0 -0.010048670624927312 -0.021224175143979684 0 -0.011313971431152238 -0.02407851788798494 0 -0.011559274330624123 -0.022260159728182301 0 -0.011313971431152238 -0.02407851788798494 0 -0.013029907413372371 -0.027698733349106434 0 -0.012070722256564864 -0.029373983932505645 0 -0.011313971431152238 -0.02407851788798494 0 -0.013029907413372371 -0.027698733349106434 0 -0.013029907413372371 -0.027698733349106434 0 -0.014892864568248046 -0.030479131355804847 0 -0.013689202863833202 -0.025927116802992589 0 -0.013029907413372371 -0.027698733349106434 0 -0.014079879423222594 -0.031850354805180447 0 -0.014892864568248046 -0.030479131355804847 0 -0.012070722256564864 -0.029373983932505645 0 -0.013029907413372371 -0.027698733349106434 0 -0.014079879423222594 -0.031850354805180447 0 -0.012070722256564864 -0.029373983932505645 0 -0.014079879423222594 -0.031850354805180447 0 -0.013911969256841421 -0.034735096303068272 0 -0.014079879423222594 -0.031850354805180447 0 -0.013911969256841421 -0.034735096303068272 0 -0.015774788685379345 -0.035504297969307159 0 -0.014079879423222594 -0.031850354805180447 0 -0.014892864568248046 -0.030479131355804847 0 -0.015774788685379345 -0.035504297969307159 0 -0.01666298970376107 -0.033358871360187406 0 -0.014892864568248046 -0.030479131355804847 0 -0.015774788685379345 -0.035504297969307159 0 -0.01666298970376107 -0.033358871360187406 0 -0.014892864568248046 -0.030479131355804847 0 -0.015687137031901235 -0.02917776655432542 0 -0.014892864568248046 -0.030479131355804847 0 -0.015687137031901235 -0.02917776655432542 0 -0.013689202863833202 -0.025927116802992589 0 -0.015687137031901235 -0.02917776655432542 0 -0.014491748526884356 -0.024999523257700367 0 -0.013689202863833202 -0.025927116802992589 0 -0.012576039277830823 -0.021845577888356147 0 -0.014491748526884356 -0.024999523257700367 0 -0.013689202863833202 -0.025927116802992589 0 -0.016550799913956315 -0.044290783460965419 0 -0.014817451152320258 -0.041290382870476934 0 -0.015594942306684538 -0.039295302085423756 0 -0.016550799913956315 -0.044290783460965419 0 -0.014817451152320258 -0.041290382870476934 0 -0.015051506839942568 -0.045131521683867797 0 -0.013573044480971802 -0.03760334727889876 0 -0.014817451152320258 -0.041290382870476934 0 -0.015594942306684538 -0.039295302085423756 0 -0.013573044480971802 -0.03760334727889876 0 -0.013911969256841421 -0.034735096303068272 0 -0.015594942306684538 -0.039295302085423756 0 -0.013911969256841421 -0.034735096303068272 0 -0.015594942306684538 -0.039295302085423756 0 -0.015774788685379345 -0.035504297969307159 0 -0.015594942306684538 -0.039295302085423756 0 -0.016804364821908786 -0.039335678883004405 0 -0.015774788685379345 -0.035504297969307159 0 -0.01666298970376107 -0.033358871360187406 0 -0.015774788685379345 -0.035504297969307159 0 -0.017460039673202039 -0.037592424320402815 0 -0.016804364821908786 -0.039335678883004405 0 -0.015774788685379345 -0.035504297969307159 0 -0.017460039673202039 -0.037592424320402815 0 -0.016804364821908786 -0.039335678883004405 0 -0.017460039673202039 -0.037592424320402815 0 -0.018147711633044485 -0.041856829694305007 0 -0.016804364821908786 -0.039335678883004405 0 -0.018147711633044485 -0.041856829694305007 0 -0.017321079052491591 -0.042476566351971515 0 -0.016550799913956315 -0.044290783460965419 0 -0.017321079052491591 -0.042476566351971515 0 -0.018756655662102543 -0.046187893938142703 0 -0.016550799913956315 -0.044290783460965419 0 -0.015594942306684538 -0.039295302085423756 0 -0.017321079052491591 -0.042476566351971515 0 -0.015594942306684538 -0.039295302085423756 0 -0.016804364821908786 -0.039335678883004405 0 -0.017321079052491591 -0.042476566351971515 0 -0.018147711633044485 -0.041856829694305007 0 -0.017321079052491591 -0.042476566351971515 0 -0.018756655662102543 -0.046187893938142703 0 -0.016550799913956315 -0.044290783460965419 0 -0.018756655662102543 -0.046187893938142703 0 -0.017801650862896326 -0.04871746450994973 0 -0.018756655662102543 -0.046187893938142703 0 -0.019292299903318707 -0.050563765620239037 0 -0.017801650862896326 -0.04871746450994973 0 -0.019292299903318707 -0.050563765620239037 0 -0.017801650862896326 -0.04871746450994973 0 -0.018507290341328423 -0.052269332444644191 0 -0.017801650862896326 -0.04871746450994973 0 -0.01711581282699114 -0.051345698021059892 0 -0.018507290341328423 -0.052269332444644191 0 -0.016550799913956315 -0.044290783460965419 0 -0.017801650862896326 -0.04871746450994973 0 -0.016498953246107617 -0.048036402821493705 0 -0.016550799913956315 -0.044290783460965419 0 -0.016498953246107617 -0.048036402821493705 0 -0.015051506839942568 -0.045131521683867797 0 -0.017801650862896326 -0.04871746450994973 0 -0.016498953246107617 -0.048036402821493705 0 -0.01711581282699114 -0.051345698021059892 0 -0.016498953246107617 -0.048036402821493705 0 -0.01587665067709006 -0.050674188689035608 0 -0.01711581282699114 -0.051345698021059892 0 -0.016498953246107617 -0.048036402821493705 0 -0.015051506839942568 -0.045131521683867797 0 -0.01587665067709006 -0.050674188689035608 0 -0.016697738118366345 -0.054466505965667468 0 -0.01587665067709006 -0.050674188689035608 0 -0.01711581282699114 -0.051345698021059892 0 -0.016697738118366345 -0.054466505965667468 0 -0.018417158795854777 -0.055597210072725556 0 -0.017601359471060007 -0.05814818572165583 0 -0.016697738118366345 -0.054466505965667468 0 -0.01711581282699114 -0.051345698021059892 0 -0.018417158795854777 -0.055597210072725556 0 -0.01711581282699114 -0.051345698021059892 0 -0.018417158795854777 -0.055597210072725556 0 -0.018507290341328423 -0.052269332444644191 0 -0.019292299903318707 -0.050563765620239037 0 -0.018507290341328423 -0.052269332444644191 0 -0.019804433655909059 -0.054985898911015511 0 -0.018417158795854777 -0.055597210072725556 0 -0.019804433655909059 -0.054985898911015511 0 -0.020313973065873143 -0.059459923692476858 0 -0.018417158795854777 -0.055597210072725556 0 -0.018507290341328423 -0.052269332444644191 0 -0.019804433655909059 -0.054985898911015511 0 -0.020313973065873143 -0.059459923692476858 0 -0.019098078284672464 -0.060874142356266162 0 -0.02082099797136468 -0.063975858924995799 0 -0.018417158795854777 -0.055597210072725556 0 -0.019098078284672464 -0.060874142356266162 0 -0.017601359471060007 -0.05814818572165583 0 -0.018417158795854777 -0.055597210072725556 0 -0.020313973065873143 -0.059459923692476858 0 -0.019098078284672464 -0.060874142356266162 0 -0.02082099797136468 -0.063975858924995799 0 -0.019541147614636153 -0.065662064735675305 0 -0.021344876449123924 -0.068530245504893561 0 -0.019098078284672464 -0.060874142356266162 0 -0.02082099797136468 -0.063975858924995799 0 -0.019541147614636153 -0.065662064735675305 0 -0.019541147614636153 -0.065662064735675305 0 -0.021344876449123924 -0.068530245504893561 0 -0.020220737803663621 -0.070108281354215915 0 -0.019541147614636153 -0.065662064735675305 0 -0.017547321619633807 -0.06218308797552749 0 -0.018542061468436826 -0.068012707608956502 0 -0.017547321619633807 -0.06218308797552749 0 -0.017262128576579851 -0.065162342420762784 0 -0.018542061468436826 -0.068012707608956502 0 -0.019098078284672464 -0.060874142356266162 0 -0.019541147614636153 -0.065662064735675305 0 -0.017547321619633807 -0.06218308797552749 0 -0.017262128576579851 -0.065162342420762784 0 -0.018542061468436826 -0.068012707608956502 0 -0.016795169015655219 -0.067236685611695282 0 -0.019098078284672464 -0.060874142356266162 0 -0.017547321619633807 -0.06218308797552749 0 -0.017601359471060007 -0.05814818572165583 0 -0.017547321619633807 -0.06218308797552749 0 -0.017601359471060007 -0.05814818572165583 0 -0.016336741809174955 -0.057431904659108669 0 -0.016697738118366345 -0.054466505965667468 0 -0.017601359471060007 -0.05814818572165583 0 -0.016336741809174955 -0.057431904659108669 0 -0.017547321619633807 -0.06218308797552749 0 -0.016336741809174955 -0.057431904659108669 0 -0.015176246063736673 -0.058892535961357899 0 -0.016336741809174955 -0.057431904659108669 0 -0.015176246063736673 -0.058892535961357899 0 -0.014866462971286893 -0.053651488135543789 0 -0.015176246063736673 -0.058892535961357899 0 -0.013574574816586056 -0.054558607163640818 0 -0.014866462971286893 -0.053651488135543789 0 -0.017547321619633807 -0.06218308797552749 0 -0.015176246063736673 -0.058892535961357899 0 -0.016017830000929066 -0.063169990642605311 0 -0.017262128576579851 -0.065162342420762784 0 -0.016017830000929066 -0.063169990642605311 0 -0.016795169015655219 -0.067236685611695282 0 -0.017547321619633807 -0.06218308797552749 0 -0.017262128576579851 -0.065162342420762784 0 -0.016017830000929066 -0.063169990642605311 0 -0.015176246063736673 -0.058892535961357899 0 -0.016017830000929066 -0.063169990642605311 0 -0.01471647435151676 -0.062516736839269144 0 -0.016017830000929066 -0.063169990642605311 0 -0.016795169015655219 -0.067236685611695282 0 -0.015482967064852231 -0.066998865881864281 0 -0.016017830000929066 -0.063169990642605311 0 -0.01471647435151676 -0.062516736839269144 0 -0.015482967064852231 -0.066998865881864281 0 -0.01471647435151676 -0.062516736839269144 0 -0.01366659829935666 -0.063449000440525441 0 -0.015482967064852231 -0.066998865881864281 0 -0.01471647435151676 -0.062516736839269144 0 -0.01366659829935666 -0.063449000440525441 0 -0.013200431788145693 -0.058811371248663889 0 -0.01366659829935666 -0.063449000440525441 0 -0.013200431788145693 -0.058811371248663889 0 -0.01204059796483558 -0.061059147356675329 0 -0.01366659829935666 -0.063449000440525441 0 -0.014174206113775449 -0.068129303094851268 0 -0.012702283444627373 -0.064614568827677216 0 -0.01366659829935666 -0.063449000440525441 0 -0.012702283444627373 -0.064614568827677216 0 -0.01204059796483558 -0.061059147356675329 0 -0.015176246063736673 -0.058892535961357899 0 -0.013200431788145693 -0.058811371248663889 0 -0.013574574816586056 -0.054558607163640818 0 -0.015176246063736673 -0.058892535961357899 0 -0.01471647435151676 -0.062516736839269144 0 -0.013200431788145693 -0.058811371248663889 0 -0.013200431788145693 -0.058811371248663889 0 -0.01199896355824758 -0.054826240351716418 0 -0.013574574816586056 -0.054558607163640818 0 -0.013200431788145693 -0.058811371248663889 0 -0.01199896355824758 -0.054826240351716418 0 -0.011042567739581307 -0.056475475654472689 0 -0.01199896355824758 -0.054826240351716418 0 -0.013574574816586056 -0.054558607163640818 0 -0.012266672799696617 -0.050770500283035286 0 -0.01199896355824758 -0.054826240351716418 0 -0.012266672799696617 -0.050770500283035286 0 -0.01093858728231501 -0.051508179398627126 0 -0.013574574816586056 -0.054558607163640818 0 -0.012266672799696617 -0.050770500283035286 0 -0.013668993069658578 -0.050698350050081609 0 -0.012266672799696617 -0.050770500283035286 0 -0.012640057301984265 -0.046398964153391876 0 -0.013668993069658578 -0.050698350050081609 0 -0.012266672799696617 -0.050770500283035286 0 -0.010974349198638858 -0.047077580105103128 0 -0.01093858728231501 -0.051508179398627126 0 -0.012266672799696617 -0.050770500283035286 0 -0.012640057301984265 -0.046398964153391876 0 -0.010974349198638858 -0.047077580105103128 0 -0.010865998003895183 -0.042477815926352226 0 -0.012640057301984265 -0.046398964153391876 0 -0.010974349198638858 -0.047077580105103128 0 -0.012227082820749684 -0.041527094195275331 0 -0.012640057301984265 -0.046398964153391876 0 -0.01355695484421302 -0.044522679178754888 0 -0.010865998003895183 -0.042477815926352226 0 -0.012227082820749684 -0.041527094195275331 0 -0.012640057301984265 -0.046398964153391876 0 -0.012640057301984265 -0.046398964153391876 0 -0.014579948593516488 -0.048703243641654535 0 -0.013668993069658578 -0.050698350050081609 0 -0.012640057301984265 -0.046398964153391876 0 -0.01355695484421302 -0.044522679178754888 0 -0.014579948593516488 -0.048703243641654535 0 -0.015051506839942568 -0.045131521683867797 0 -0.01355695484421302 -0.044522679178754888 0 -0.014579948593516488 -0.048703243641654535 0 -0.015051506839942568 -0.045131521683867797 0 -0.01587665067709006 -0.050674188689035608 0 -0.014579948593516488 -0.048703243641654535 0 -0.01587665067709006 -0.050674188689035608 0 -0.014579948593516488 -0.048703243641654535 0 -0.014866462971286893 -0.053651488135543789 0 -0.016697738118366345 -0.054466505965667468 0 -0.01587665067709006 -0.050674188689035608 0 -0.014866462971286893 -0.053651488135543789 0 -0.016697738118366345 -0.054466505965667468 0 -0.016336741809174955 -0.057431904659108669 0 -0.014866462971286893 -0.053651488135543789 0 -0.013574574816586056 -0.054558607163640818 0 -0.014866462971286893 -0.053651488135543789 0 -0.013668993069658578 -0.050698350050081609 0 -0.014579948593516488 -0.048703243641654535 0 -0.014866462971286893 -0.053651488135543789 0 -0.013668993069658578 -0.050698350050081609 0 -0.021415839156836852 -0.090146322280151903 0 -0.020624716197835534 -0.086011172125294161 0 -0.019705703377175816 -0.089301758202160422 0 -0.020624716197835534 -0.086011172125294161 0 -0.022202679196225299 -0.086461193321067081 0 -0.020614576025795143 -0.082161664439618129 0 -0.021415839156836852 -0.090146322280151903 0 -0.023052103796689049 -0.090964242400643325 0 -0.022202679196225299 -0.086461193321067081 0 -0.021415839156836852 -0.090146322280151903 0 -0.020624716197835534 -0.086011172125294161 0 -0.022202679196225299 -0.086461193321067081 0 -0.023052103796689049 -0.090964242400643325 0 -0.0234380525370908 -0.089066898047393983 0 -0.022202679196225299 -0.086461193321067081 0 -0.023052103796689049 -0.090964242400643325 0 -0.024632218369105393 -0.091761455768535519 0 -0.0234380525370908 -0.089066898047393983 0 -0.024632218369105393 -0.091761455768535519 0 -0.0234380525370908 -0.089066898047393983 0 -0.0238595766478885 -0.08707849225945917 0 -0.0234380525370908 -0.089066898047393983 0 -0.0238595766478885 -0.08707849225945917 0 -0.022202679196225299 -0.086461193321067081 0 -0.0238595766478885 -0.08707849225945917 0 -0.022202679196225299 -0.086461193321067081 0 -0.021726837311728711 -0.081655050694454973 0 -0.022202679196225299 -0.086461193321067081 0 -0.021726837311728711 -0.081655050694454973 0 -0.020614576025795143 -0.082161664439618129 0 -0.0238595766478885 -0.08707849225945917 0 -0.023147212511115383 -0.082411105854923145 0 -0.021726837311728711 -0.081655050694454973 0 -0.023147212511115383 -0.082411105854923145 0 -0.021726837311728711 -0.081655050694454973 0 -0.022494116493593154 -0.077758908017472164 0 -0.021726837311728711 -0.081655050694454973 0 -0.020614576025795143 -0.082161664439618129 0 -0.020488061020034611 -0.077355611897118162 0 -0.020614576025795143 -0.082161664439618129 0 -0.019369762899953617 -0.078266837430611358 0 -0.020488061020034611 -0.077355611897118162 0 -0.020624716197835534 -0.086011172125294161 0 -0.020614576025795143 -0.082161664439618129 0 -0.019170636098464047 -0.081010389716998088 0 -0.020624716197835534 -0.086011172125294161 0 -0.019170636098464047 -0.081010389716998088 0 -0.018879241159061162 -0.083719951564513409 0 -0.019170636098464047 -0.081010389716998088 0 -0.019369762899953617 -0.078266837430611358 0 -0.017844219801551934 -0.076214514665535624 0 -0.020614576025795143 -0.082161664439618129 0 -0.019170636098464047 -0.081010389716998088 0 -0.019369762899953617 -0.078266837430611358 0 -0.019369762899953617 -0.078266837430611358 0 -0.018877038780054617 -0.074977710292568403 0 -0.017844219801551934 -0.076214514665535624 0 -0.018877038780054617 -0.074977710292568403 0 -0.020488061020034611 -0.077355611897118162 0 -0.019264845760239766 -0.072066293725608188 0 -0.019369762899953617 -0.078266837430611358 0 -0.018877038780054617 -0.074977710292568403 0 -0.020488061020034611 -0.077355611897118162 0 -0.020488061020034611 -0.077355611897118162 0 -0.022494116493593154 -0.077758908017472164 0 -0.020875820110717078 -0.07408558255802572 0 -0.021726837311728711 -0.081655050694454973 0 -0.020488061020034611 -0.077355611897118162 0 -0.022494116493593154 -0.077758908017472164 0 -0.022494116493593154 -0.077758908017472164 0 -0.020875820110717078 -0.07408558255802572 0 -0.02189693807924083 -0.073125685508243013 0 -0.020488061020034611 -0.077355611897118162 0 -0.020875820110717078 -0.07408558255802572 0 -0.019264845760239766 -0.072066293725608188 0 -0.020875820110717078 -0.07408558255802572 0 -0.020220737803663621 -0.070108281354215915 0 -0.019264845760239766 -0.072066293725608188 0 -0.020875820110717078 -0.07408558255802572 0 -0.02189693807924083 -0.073125685508243013 0 -0.020220737803663621 -0.070108281354215915 0 -0.02189693807924083 -0.073125685508243013 0 -0.021344876449123924 -0.068530245504893561 0 -0.020220737803663621 -0.070108281354215915 0 -0.019541147614636153 -0.065662064735675305 0 -0.020220737803663621 -0.070108281354215915 0 -0.018542061468436826 -0.068012707608956502 0 -0.020220737803663621 -0.070108281354215915 0 -0.018542061468436826 -0.068012707608956502 0 -0.019264845760239766 -0.072066293725608188 0 -0.018877038780054617 -0.074977710292568403 0 -0.019264845760239766 -0.072066293725608188 0 -0.017398873473675767 -0.070992758663911928 0 -0.018542061468436826 -0.068012707608956502 0 -0.019264845760239766 -0.072066293725608188 0 -0.017398873473675767 -0.070992758663911928 0 -0.018542061468436826 -0.068012707608956502 0 -0.016795169015655219 -0.067236685611695282 0 -0.017398873473675767 -0.070992758663911928 0 -0.016795169015655219 -0.067236685611695282 0 -0.017398873473675767 -0.070992758663911928 0 -0.015482967064852231 -0.066998865881864281 0 -0.017398873473675767 -0.070992758663911928 0 -0.015482967064852231 -0.066998865881864281 0 -0.016281103411581999 -0.072393130745640161 0 -0.01366659829935666 -0.063449000440525441 0 -0.015482967064852231 -0.066998865881864281 0 -0.014174206113775449 -0.068129303094851268 0 -0.014174206113775449 -0.068129303094851268 0 -0.014855024259781255 -0.071933310252768376 0 -0.013256592009923051 -0.070810459744210894 0 -0.014174206113775449 -0.068129303094851268 0 -0.014855024259781255 -0.071933310252768376 0 -0.016281103411581999 -0.072393130745640161 0 -0.015482967064852231 -0.066998865881864281 0 -0.014174206113775449 -0.068129303094851268 0 -0.016281103411581999 -0.072393130745640161 0 -0.014855024259781255 -0.071933310252768376 0 -0.016150924147845414 -0.076532672951354352 0 -0.016281103411581999 -0.072393130745640161 0 -0.014855024259781255 -0.071933310252768376 0 -0.014479984933425753 -0.074895803688151158 0 -0.013256592009923051 -0.070810459744210894 0 -0.014855024259781255 -0.071933310252768376 0 -0.014479984933425753 -0.074895803688151158 0 -0.016150924147845414 -0.076532672951354352 0 -0.016150924147845414 -0.076532672951354352 0 -0.016281103411581999 -0.072393130745640161 0 -0.017844219801551934 -0.076214514665535624 0 -0.016150924147845414 -0.076532672951354352 0 -0.017844219801551934 -0.076214514665535624 0 -0.01776323400772974 -0.079722580405772653 0 -0.017398873473675767 -0.070992758663911928 0 -0.016281103411581999 -0.072393130745640161 0 -0.017844219801551934 -0.076214514665535624 0 -0.018877038780054617 -0.074977710292568403 0 -0.017398873473675767 -0.070992758663911928 0 -0.017844219801551934 -0.076214514665535624 0 -0.019170636098464047 -0.081010389716998088 0 -0.017844219801551934 -0.076214514665535624 0 -0.01776323400772974 -0.079722580405772653 0 -0.019170636098464047 -0.081010389716998088 0 -0.01776323400772974 -0.079722580405772653 0 -0.018879241159061162 -0.083719951564513409 0 -0.01776323400772974 -0.079722580405772653 0 -0.016724671521515487 -0.081011245985947236 0 -0.018879241159061162 -0.083719951564513409 0 -0.016150924147845414 -0.076532672951354352 0 -0.01776323400772974 -0.079722580405772653 0 -0.016724671521515487 -0.081011245985947236 0 -0.016150924147845414 -0.076532672951354352 0 -0.014892202586396071 -0.079334683166730938 0 -0.016724671521515487 -0.081011245985947236 0 -0.014479984933425753 -0.074895803688151158 0 -0.016150924147845414 -0.076532672951354352 0 -0.014892202586396071 -0.079334683166730938 0 -0.014892202586396071 -0.079334683166730938 0 -0.016724671521515487 -0.081011245985947236 0 -0.016180160180128279 -0.08398971384264077 0 -0.016724671521515487 -0.081011245985947236 0 -0.016180160180128279 -0.08398971384264077 0 -0.017878433570851206 -0.085289146383014408 0 -0.014892202586396071 -0.079334683166730938 0 -0.016180160180128279 -0.08398971384264077 0 -0.014288667592392034 -0.082681386468559492 0 -0.016180160180128279 -0.08398971384264077 0 -0.017926658186931649 -0.088440427430151486 0 -0.016053181528194273 -0.087589171008969846 0 -0.016180160180128279 -0.08398971384264077 0 -0.017926658186931649 -0.088440427430151486 0 -0.017878433570851206 -0.085289146383014408 0 -0.017926658186931649 -0.088440427430151486 0 -0.017878433570851206 -0.085289146383014408 0 -0.019705703377175816 -0.089301758202160422 0 -0.016724671521515487 -0.081011245985947236 0 -0.017878433570851206 -0.085289146383014408 0 -0.018879241159061162 -0.083719951564513409 0 -0.017878433570851206 -0.085289146383014408 0 -0.018879241159061162 -0.083719951564513409 0 -0.019705703377175816 -0.089301758202160422 0 -0.020624716197835534 -0.086011172125294161 0 -0.018879241159061162 -0.083719951564513409 0 -0.019705703377175816 -0.089301758202160422 0 -0.012038212729380406 -0.085997068508723892 0 -0.011055737911470503 -0.082681789382137744 0 -0.012413552703915977 -0.082362434979544222 0 -0.012038212729380406 -0.085997068508723892 0 -0.011055737911470503 -0.082681789382137744 0 -0.0098901784823264612 -0.085285449215903003 0 -0.011055737911470503 -0.082681789382137744 0 -0.012413552703915977 -0.082362434979544222 0 -0.01068276378874161 -0.078698220366977989 0 -0.011055737911470503 -0.082681789382137744 0 -0.01068276378874161 -0.078698220366977989 0 -0.0093640399903130098 -0.080388239271556319 0 -0.012038212729380406 -0.085997068508723892 0 -0.012413552703915977 -0.082362434979544222 0 -0.014090984326802338 -0.086769885660873555 0 -0.014090984326802338 -0.086769885660873555 0 -0.016053181528194273 -0.087589171008969846 0 -0.014288667592392034 -0.082681386468559492 0 -0.016180160180128279 -0.08398971384264077 0 -0.016053181528194273 -0.087589171008969846 0 -0.014288667592392034 -0.082681386468559492 0 -0.012413552703915977 -0.082362434979544222 0 -0.014090984326802338 -0.086769885660873555 0 -0.014288667592392034 -0.082681386468559492 0 -0.012413552703915977 -0.082362434979544222 0 -0.014288667592392034 -0.082681386468559492 0 -0.012388031941666421 -0.077666167032183153 0 -0.014892202586396071 -0.079334683166730938 0 -0.013514709294855215 -0.076286690483357109 0 -0.012388031941666421 -0.077666167032183153 0 -0.014892202586396071 -0.079334683166730938 0 -0.014288667592392034 -0.082681386468559492 0 -0.012388031941666421 -0.077666167032183153 0 -0.014479984933425753 -0.074895803688151158 0 -0.014892202586396071 -0.079334683166730938 0 -0.013514709294855215 -0.076286690483357109 0 -0.012388031941666421 -0.077666167032183153 0 -0.01068276378874161 -0.078698220366977989 0 -0.010221509271079364 -0.075266646922752284 0 -0.012413552703915977 -0.082362434979544222 0 -0.012388031941666421 -0.077666167032183153 0 -0.01068276378874161 -0.078698220366977989 0 -0.01068276378874161 -0.078698220366977989 0 -0.010221509271079364 -0.075266646922752284 0 -0.0088120470765533174 -0.076200553951136688 0 -0.010221509271079364 -0.075266646922752284 0 -0.010821618363475232 -0.072458438816120019 0 -0.0083885771249581562 -0.071404291278144294 0 -0.010821618363475232 -0.072458438816120019 0 -0.0096317516236703801 -0.069184427563266662 0 -0.0083885771249581562 -0.071404291278144294 0 -0.010821618363475232 -0.072458438816120019 0 -0.011462158476242369 -0.069890406172582326 0 -0.0096317516236703801 -0.069184427563266662 0 -0.012388031941666421 -0.077666167032183153 0 -0.010221509271079364 -0.075266646922752284 0 -0.010821618363475232 -0.072458438816120019 0 -0.012388031941666421 -0.077666167032183153 0 -0.010821618363475232 -0.072458438816120019 0 -0.012453652718842041 -0.073312981047386455 0 -0.013514709294855215 -0.076286690483357109 0 -0.012388031941666421 -0.077666167032183153 0 -0.012453652718842041 -0.073312981047386455 0 -0.014479984933425753 -0.074895803688151158 0 -0.013514709294855215 -0.076286690483357109 0 -0.012453652718842041 -0.073312981047386455 0 -0.014479984933425753 -0.074895803688151158 0 -0.012453652718842041 -0.073312981047386455 0 -0.013256592009923051 -0.070810459744210894 0 -0.012453652718842041 -0.073312981047386455 0 -0.013256592009923051 -0.070810459744210894 0 -0.011462158476242369 -0.069890406172582326 0 -0.010821618363475232 -0.072458438816120019 0 -0.012453652718842041 -0.073312981047386455 0 -0.011462158476242369 -0.069890406172582326 0 -0.013256592009923051 -0.070810459744210894 0 -0.011462158476242369 -0.069890406172582326 0 -0.012209830802799115 -0.067242995615526394 0 -0.011462158476242369 -0.069890406172582326 0 -0.012209830802799115 -0.067242995615526394 0 -0.010274165907660006 -0.06654151020217966 0 -0.014174206113775449 -0.068129303094851268 0 -0.013256592009923051 -0.070810459744210894 0 -0.012209830802799115 -0.067242995615526394 0 -0.012209830802799115 -0.067242995615526394 0 -0.012702283444627373 -0.064614568827677216 0 -0.011133197499446143 -0.063861952446365097 0 -0.014174206113775449 -0.068129303094851268 0 -0.012209830802799115 -0.067242995615526394 0 -0.012702283444627373 -0.064614568827677216 0 -0.012209830802799115 -0.067242995615526394 0 -0.010274165907660006 -0.06654151020217966 0 -0.011133197499446143 -0.063861952446365097 0 -0.010274165907660006 -0.06654151020217966 0 -0.011133197499446143 -0.063861952446365097 0 -0.0090338240642635643 -0.062844692753986867 0 -0.011462158476242369 -0.069890406172582326 0 -0.010274165907660006 -0.06654151020217966 0 -0.0096317516236703801 -0.069184427563266662 0 -0.010274165907660006 -0.06654151020217966 0 -0.0096317516236703801 -0.069184427563266662 0 -0.0082449787382055627 -0.066411836229813337 0 -0.010274165907660006 -0.06654151020217966 0 -0.0082449787382055627 -0.066411836229813337 0 -0.0090338240642635643 -0.062844692753986867 0 -0.0082449787382055627 -0.066411836229813337 0 -0.0065263847905799553 -0.064726340529587575 0 -0.0071236417565455207 -0.061983328746193625 0 -0.0082449787382055627 -0.066411836229813337 0 -0.0090338240642635643 -0.062844692753986867 0 -0.0071236417565455207 -0.061983328746193625 0 -0.0082449787382055627 -0.066411836229813337 0 -0.0068473590142641505 -0.067857530965924381 0 -0.0083885771249581562 -0.071404291278144294 0 -0.0096317516236703801 -0.069184427563266662 0 -0.0082449787382055627 -0.066411836229813337 0 -0.0083885771249581562 -0.071404291278144294 0 -0.0082449787382055627 -0.066411836229813337 0 -0.0068473590142641505 -0.067857530965924381 0 -0.0065263847905799553 -0.064726340529587575 0 -0.0065263847905799553 -0.064726340529587575 0 -0.0051071539835270546 -0.065890553832819693 0 -0.0051468408185033569 -0.061957293703793409 0 -0.0051071539835270546 -0.065890553832819693 0 -0.0051468408185033569 -0.061957293703793409 0 -0.0031021880140014416 -0.063029818321556338 0 -0.0051071539835270546 -0.065890553832819693 0 -0.0034437062215524877 -0.066064154303747735 0 -0.0031021880140014416 -0.063029818321556338 0 -0.0051071539835270546 -0.065890553832819693 0 -0.003732897176328943 -0.069224502332438181 0 -0.0034437062215524877 -0.066064154303747735 0 -0.0068473590142641505 -0.067857530965924381 0 -0.0051071539835270546 -0.065890553832819693 0 -0.0059126869748199222 -0.070954800180819663 0 -0.0068473590142641505 -0.067857530965924381 0 -0.0065263847905799553 -0.064726340529587575 0 -0.0051071539835270546 -0.065890553832819693 0 -0.0051071539835270546 -0.065890553832819693 0 -0.0059126869748199222 -0.070954800180819663 0 -0.003732897176328943 -0.069224502332438181 0 -0.0059126869748199222 -0.070954800180819663 0 -0.0043116322027447335 -0.073746559454648447 0 -0.003732897176328943 -0.069224502332438181 0 -0.0059126869748199222 -0.070954800180819663 0 -0.006932343996721024 -0.074437597510188344 0 -0.0043116322027447335 -0.073746559454648447 0 -0.0059126869748199222 -0.070954800180819663 0 -0.0083885771249581562 -0.071404291278144294 0 -0.006932343996721024 -0.074437597510188344 0 -0.0083885771249581562 -0.071404291278144294 0 -0.0088120470765533174 -0.076200553951136688 0 -0.006932343996721024 -0.074437597510188344 0 -0.0068473590142641505 -0.067857530965924381 0 -0.0059126869748199222 -0.070954800180819663 0 -0.0083885771249581562 -0.071404291278144294 0 -0.010221509271079364 -0.075266646922752284 0 -0.0083885771249581562 -0.071404291278144294 0 -0.0088120470765533174 -0.076200553951136688 0 -0.01068276378874161 -0.078698220366977989 0 -0.0088120470765533174 -0.076200553951136688 0 -0.0093640399903130098 -0.080388239271556319 0 -0.0088120470765533174 -0.076200553951136688 0 -0.0074361465816396143 -0.077921845175755247 0 -0.0093640399903130098 -0.080388239271556319 0 -0.0088120470765533174 -0.076200553951136688 0 -0.0074361465816396143 -0.077921845175755247 0 -0.006932343996721024 -0.074437597510188344 0 -0.0074361465816396143 -0.077921845175755247 0 -0.006932343996721024 -0.074437597510188344 0 -0.0058046726496348393 -0.07710375065017197 0 -0.006932343996721024 -0.074437597510188344 0 -0.0058046726496348393 -0.07710375065017197 0 -0.0043116322027447335 -0.073746559454648447 0 -0.0058046726496348393 -0.07710375065017197 0 -0.0062857762963777694 -0.080601868033857701 0 -0.0039712701464652894 -0.078925143713542714 0 -0.0058046726496348393 -0.07710375065017197 0 -0.0039712701464652894 -0.078925143713542714 0 -0.0043116322027447335 -0.073746559454648447 0 -0.0074361465816396143 -0.077921845175755247 0 -0.0058046726496348393 -0.07710375065017197 0 -0.0062857762963777694 -0.080601868033857701 0 -0.0074361465816396143 -0.077921845175755247 0 -0.0062857762963777694 -0.080601868033857701 0 -0.0081270970583108525 -0.081753518934191777 0 -0.0062857762963777694 -0.080601868033857701 0 -0.0054093610119600464 -0.084179788113446563 0 -0.0039712701464652894 -0.078925143713542714 0 -0.0062857762963777694 -0.080601868033857701 0 -0.0076744137537678352 -0.084679202853697205 0 -0.0054093610119600464 -0.084179788113446563 0 -0.0062857762963777694 -0.080601868033857701 0 -0.0076744137537678352 -0.084679202853697205 0 -0.0081270970583108525 -0.081753518934191777 0 -0.0076744137537678352 -0.084679202853697205 0 -0.0081270970583108525 -0.081753518934191777 0 -0.0098901784823264612 -0.085285449215903003 0 -0.0081270970583108525 -0.081753518934191777 0 -0.0093640399903130098 -0.080388239271556319 0 -0.0098901784823264612 -0.085285449215903003 0 -0.0074361465816396143 -0.077921845175755247 0 -0.0081270970583108525 -0.081753518934191777 0 -0.0093640399903130098 -0.080388239271556319 0 -0.011055737911470503 -0.082681789382137744 0 -0.0093640399903130098 -0.080388239271556319 0 -0.0098901784823264612 -0.085285449215903003 0 -0.0082481340007357646 -0.048745819996887541 0 -0.0092453462380822238 -0.052304946261771457 0 -0.0074578178173566401 -0.050643172070587161 0 -0.0092453462380822238 -0.052304946261771457 0 -0.0074578178173566401 -0.050643172070587161 0 -0.007827229906301551 -0.054120679304266971 0 -0.0074578178173566401 -0.050643172070587161 0 -0.007827229906301551 -0.054120679304266971 0 -0.0061209223681347492 -0.052389924890117824 0 -0.0082481340007357646 -0.048745819996887541 0 -0.0074578178173566401 -0.050643172070587161 0 -0.0064883890769617718 -0.047061158903157423 0 -0.0064883890769617718 -0.047061158903157423 0 -0.0077638414289621432 -0.044338927814685083 0 -0.0056990867202728543 -0.042880108692119209 0 -0.0082481340007357646 -0.048745819996887541 0 -0.0064883890769617718 -0.047061158903157423 0 -0.0077638414289621432 -0.044338927814685083 0 -0.0066983555591307578 -0.040485712832842594 0 -0.0077638414289621432 -0.044338927814685083 0 -0.0056990867202728543 -0.042880108692119209 0 -0.0082481340007357646 -0.048745819996887541 0 -0.0077638414289621432 -0.044338927814685083 0 -0.0096782033059695967 -0.048291701976190468 0 -0.0077638414289621432 -0.044338927814685083 0 -0.0094211438793979137 -0.043139934868175078 0 -0.0096782033059695967 -0.048291701976190468 0 -0.0080900659981218842 -0.03988732861739578 0 -0.0077638414289621432 -0.044338927814685083 0 -0.0094211438793979137 -0.043139934868175078 0 -0.010865998003895183 -0.042477815926352226 0 -0.0094211438793979137 -0.043139934868175078 0 -0.010974349198638858 -0.047077580105103128 0 -0.0094211438793979137 -0.043139934868175078 0 -0.010974349198638858 -0.047077580105103128 0 -0.0096782033059695967 -0.048291701976190468 0 -0.010974349198638858 -0.047077580105103128 0 -0.0096782033059695967 -0.048291701976190468 0 -0.01093858728231501 -0.051508179398627126 0 -0.0082481340007357646 -0.048745819996887541 0 -0.0092453462380822238 -0.052304946261771457 0 -0.0096782033059695967 -0.048291701976190468 0 -0.0092453462380822238 -0.052304946261771457 0 -0.0096782033059695967 -0.048291701976190468 0 -0.01093858728231501 -0.051508179398627126 0 -0.0092453462380822238 -0.052304946261771457 0 -0.01093858728231501 -0.051508179398627126 0 -0.011042567739581307 -0.056475475654472689 0 -0.01199896355824758 -0.054826240351716418 0 -0.01093858728231501 -0.051508179398627126 0 -0.011042567739581307 -0.056475475654472689 0 -0.013200431788145693 -0.058811371248663889 0 -0.011042567739581307 -0.056475475654472689 0 -0.01204059796483558 -0.061059147356675329 0 -0.011042567739581307 -0.056475475654472689 0 -0.01018797346293256 -0.060166879817043807 0 -0.0094301783273433373 -0.05637954992525232 0 -0.011042567739581307 -0.056475475654472689 0 -0.01204059796483558 -0.061059147356675329 0 -0.01018797346293256 -0.060166879817043807 0 -0.0092453462380822238 -0.052304946261771457 0 -0.011042567739581307 -0.056475475654472689 0 -0.0094301783273433373 -0.05637954992525232 0 -0.012702283444627373 -0.064614568827677216 0 -0.01204059796483558 -0.061059147356675329 0 -0.011133197499446143 -0.063861952446365097 0 -0.01204059796483558 -0.061059147356675329 0 -0.011133197499446143 -0.063861952446365097 0 -0.01018797346293256 -0.060166879817043807 0 -0.011133197499446143 -0.063861952446365097 0 -0.01018797346293256 -0.060166879817043807 0 -0.0090338240642635643 -0.062844692753986867 0 -0.01018797346293256 -0.060166879817043807 0 -0.0080977614681478644 -0.058636800898056847 0 -0.0090338240642635643 -0.062844692753986867 0 -0.0080977614681478644 -0.058636800898056847 0 -0.0090338240642635643 -0.062844692753986867 0 -0.0071236417565455207 -0.061983328746193625 0 -0.0092453462380822238 -0.052304946261771457 0 -0.0094301783273433373 -0.05637954992525232 0 -0.007827229906301551 -0.054120679304266971 0 -0.01018797346293256 -0.060166879817043807 0 -0.0080977614681478644 -0.058636800898056847 0 -0.0094301783273433373 -0.05637954992525232 0 -0.0080977614681478644 -0.058636800898056847 0 -0.0094301783273433373 -0.05637954992525232 0 -0.007827229906301551 -0.054120679304266971 0 -0.0080977614681478644 -0.058636800898056847 0 -0.007827229906301551 -0.054120679304266971 0 -0.0065085192837961211 -0.055484791580064551 0 -0.007827229906301551 -0.054120679304266971 0 -0.0065085192837961211 -0.055484791580064551 0 -0.0061209223681347492 -0.052389924890117824 0 -0.0080977614681478644 -0.058636800898056847 0 -0.0065085192837961211 -0.055484791580064551 0 -0.0055118505936028912 -0.05802289173242129 0 -0.0065085192837961211 -0.055484791580064551 0 -0.0055118505936028912 -0.05802289173242129 0 -0.0047247580723534426 -0.0541705498184369 0 -0.0047247580723534426 -0.0541705498184369 0 -0.0044016786015624388 -0.050848617429503681 0 -0.0061209223681347492 -0.052389924890117824 0 -0.0065085192837961211 -0.055484791580064551 0 -0.0047247580723534426 -0.0541705498184369 0 -0.0061209223681347492 -0.052389924890117824 0 -0.0080977614681478644 -0.058636800898056847 0 -0.0071236417565455207 -0.061983328746193625 0 -0.0055118505936028912 -0.05802289173242129 0 -0.0071236417565455207 -0.061983328746193625 0 -0.0055118505936028912 -0.05802289173242129 0 -0.0051468408185033569 -0.061957293703793409 0 -0.0065263847905799553 -0.064726340529587575 0 -0.0071236417565455207 -0.061983328746193625 0 -0.0051468408185033569 -0.061957293703793409 0 -0.0055118505936028912 -0.05802289173242129 0 -0.0051468408185033569 -0.061957293703793409 0 -0.0030260372013491462 -0.058204439425549273 0 -0.0051468408185033569 -0.061957293703793409 0 -0.0030260372013491462 -0.058204439425549273 0 -0.0031021880140014416 -0.063029818321556338 0 -0.0055118505936028912 -0.05802289173242129 0 -0.0031389772928755322 -0.054845981827620023 0 -0.0030260372013491462 -0.058204439425549273 0 -0.0047247580723534426 -0.0541705498184369 0 -0.0031389772928755322 -0.054845981827620023 0 -0.002966972576885617 -0.051208670102828681 0 -0.0047247580723534426 -0.0541705498184369 0 -0.002966972576885617 -0.051208670102828681 0 -0.0044016786015624388 -0.050848617429503681 0 -0.0055118505936028912 -0.05802289173242129 0 -0.0047247580723534426 -0.0541705498184369 0 -0.0031389772928755322 -0.054845981827620023 0 -0.0031389772928755322 -0.054845981827620023 0 -0.002966972576885617 -0.051208670102828681 0 -0.00150735954896166 -0.05197344284718438 0 -0.002966972576885617 -0.051208670102828681 0 -0.0007896490745763037 -0.048884234529332452 0 -0.00150735954896166 -0.05197344284718438 0 -0.002966972576885617 -0.051208670102828681 0 -0.0027497047770328529 -0.047465709618640245 0 -0.0007896490745763037 -0.048884234529332452 0 -0.002966972576885617 -0.051208670102828681 0 -0.0027497047770328529 -0.047465709618640245 0 -0.0044016786015624388 -0.050848617429503681 0 -0.0044016786015624388 -0.050848617429503681 0 -0.0052665032248623957 -0.048990514442145999 0 -0.0061209223681347492 -0.052389924890117824 0 -0.0027497047770328529 -0.047465709618640245 0 -0.0044016786015624388 -0.050848617429503681 0 -0.0052665032248623957 -0.048990514442145999 0 -0.0027497047770328529 -0.047465709618640245 0 -0.0052665032248623957 -0.048990514442145999 0 -0.0041737247000823317 -0.045132197667819209 0 -0.0064883890769617718 -0.047061158903157423 0 -0.0052665032248623957 -0.048990514442145999 0 -0.0041737247000823317 -0.045132197667819209 0 -0.0074578178173566401 -0.050643172070587161 0 -0.0064883890769617718 -0.047061158903157423 0 -0.0052665032248623957 -0.048990514442145999 0 -0.0074578178173566401 -0.050643172070587161 0 -0.0052665032248623957 -0.048990514442145999 0 -0.0061209223681347492 -0.052389924890117824 0 -0.0064883890769617718 -0.047061158903157423 0 -0.0056990867202728543 -0.042880108692119209 0 -0.0041737247000823317 -0.045132197667819209 0 -0.0034548315698540466 -0.040690996342703838 0 -0.0056990867202728543 -0.042880108692119209 0 -0.0041737247000823317 -0.045132197667819209 0 -0.0027497047770328529 -0.047465709618640245 0 -0.0019322820986462073 -0.043241832943019719 0 0.00020326233113268264 -0.044685885269514627 0 -0.0034548315698540466 -0.040690996342703838 0 -0.001165272993098388 -0.03981156551434395 0 -0.0019322820986462073 -0.043241832943019719 0 -0.0034548315698540466 -0.040690996342703838 0 -0.0041737247000823317 -0.045132197667819209 0 -0.0019322820986462073 -0.043241832943019719 0 -0.0027497047770328529 -0.047465709618640245 0 -0.0041737247000823317 -0.045132197667819209 0 -0.0019322820986462073 -0.043241832943019719 0 -0.001165272993098388 -0.03981156551434395 0 -0.0019322820986462073 -0.043241832943019719 0 0.00046575901466943727 -0.041042886896550945 0 -0.0019322820986462073 -0.043241832943019719 0 0.00020326233113268264 -0.044685885269514627 0 0.00046575901466943727 -0.041042886896550945 0 0.00020326233113268264 -0.044685885269514627 0 0.00046575901466943727 -0.041042886896550945 0 0.0019971198431293956 -0.043757223923669028 0 0.00020326233113268264 -0.044685885269514627 0 0.0019971198431293956 -0.043757223923669028 0 0.0017781690324585606 -0.047103178025130948 0 0.00046575901466943727 -0.041042886896550945 0 0.0022420700186608399 -0.040300691672699521 0 0.0019971198431293956 -0.043757223923669028 0 0.0022420700186608399 -0.040300691672699521 0 0.0019971198431293956 -0.043757223923669028 0 0.0039371249507277918 -0.043624423800658972 0 0.0019971198431293956 -0.043757223923669028 0 0.0039371249507277918 -0.043624423800658972 0 0.0017781690324585606 -0.047103178025130948 0 0.0022420700186608399 -0.040300691672699521 0 0.0039371249507277918 -0.043624423800658972 0 0.0039071366289130565 -0.038841404465008056 0 0.0025552023871058547 -0.050816945966162048 0 0.0044186093929279562 -0.051043703564601563 0 0.0041395356067127969 -0.048047062308981994 0 0.0017781690324585606 -0.047103178025130948 0 0.0025552023871058547 -0.050816945966162048 0 0.0041395356067127969 -0.048047062308981994 0 0.0039371249507277918 -0.043624423800658972 0 0.0017781690324585606 -0.047103178025130948 0 0.0041395356067127969 -0.048047062308981994 0 0.0017781690324585606 -0.047103178025130948 0 0.00039429743490207149 -0.051154459884827294 0 0.0025552023871058547 -0.050816945966162048 0 -0.0027497047770328529 -0.047465709618640245 0 0.00020326233113268264 -0.044685885269514627 0 -0.0007896490745763037 -0.048884234529332452 0 0.0017781690324585606 -0.047103178025130948 0 -0.0007896490745763037 -0.048884234529332452 0 0.00039429743490207149 -0.051154459884827294 0 0.00020326233113268264 -0.044685885269514627 0 0.0017781690324585606 -0.047103178025130948 0 -0.0007896490745763037 -0.048884234529332452 0 -0.0007896490745763037 -0.048884234529332452 0 -0.00150735954896166 -0.05197344284718438 0 0.00039429743490207149 -0.051154459884827294 0 -0.0031389772928755322 -0.054845981827620023 0 -0.00150735954896166 -0.05197344284718438 0 -0.0010211318911752172 -0.054546191179218662 0 -0.00150735954896166 -0.05197344284718438 0 -0.0010211318911752172 -0.054546191179218662 0 0.00039429743490207149 -0.051154459884827294 0 -0.0031389772928755322 -0.054845981827620023 0 -0.0010211318911752172 -0.054546191179218662 0 -0.0030260372013491462 -0.058204439425549273 0 -0.0010211318911752172 -0.054546191179218662 0 -0.00039660203142487515 -0.056678773975821592 0 0.0011356140297279123 -0.05391846926474983 0 -0.0010211318911752172 -0.054546191179218662 0 0.00039429743490207149 -0.051154459884827294 0 0.0011356140297279123 -0.05391846926474983 0 -0.0030260372013491462 -0.058204439425549273 0 -0.0012981395095677721 -0.062281966934070045 0 -0.0031021880140014416 -0.063029818321556338 0 -0.0010211318911752172 -0.054546191179218662 0 -0.0030260372013491462 -0.058204439425549273 0 -0.00039660203142487515 -0.056678773975821592 0 -0.036705693879145379 -0.059764035480707946 0 0.0080243933704840977 -0.056685423511616526 0 -0.0030260372013491462 -0.058204439425549273 0 -0.0013563132068016592 -0.058984447636672092 0 -0.0012981395095677721 -0.062281966934070045 0 -0.0012981395095677721 -0.062281966934070045 0 0.0005808598897368779 -0.058525208345292588 0 0.00032065631958636329 -0.063418176235581991 0 0.0080243933704840977 -0.056685423511616526 0 -0.0011307965934757014 -0.058139524473241902 0 -0.00039660203142487515 -0.056678773975821592 0 0.0021750929871414645 -0.056832882005260571 0 0.0011356140297279123 -0.05391846926474983 0 -0.0013563132068016592 -0.058984447636672092 0 -0.0012981395095677721 -0.062281966934070045 0 0.0005808598897368779 -0.058525208345292588 0 -0.0011307965934757014 -0.058139524473241902 0 0.0041143150270892825 -0.057484314111249636 0 0.0021750929871414645 -0.056832882005260571 0 0.0035463133948818388 -0.054009336564726847 0 0.0046314288000521842 -0.056434951182466574 0 0.0005808598897368779 -0.058525208345292588 0 0.0018323919179645052 -0.061398697876074271 0 0.00032065631958636329 -0.063418176235581991 0 0.00039429743490207149 -0.051154459884827294 0 0.0011356140297279123 -0.05391846926474983 0 0.0025552023871058547 -0.050816945966162048 0 0.0021750929871414645 -0.056832882005260571 0 0.0011356140297279123 -0.05391846926474983 0 0.0035463133948818388 -0.054009336564726847 0 0.0011356140297279123 -0.05391846926474983 0 0.0035463133948818388 -0.054009336564726847 0 0.0025552023871058547 -0.050816945966162048 0 0.0035463133948818388 -0.054009336564726847 0 0.0025552023871058547 -0.050816945966162048 0 0.0044186093929279562 -0.051043703564601563 0 0.0035463133948818388 -0.054009336564726847 0 0.0044186093929279562 -0.051043703564601563 0 0.0059018295405467306 -0.053237840394926926 0 0.0035463133948818388 -0.054009336564726847 0 0.0059018295405467306 -0.053237840394926926 0 0.0046314288000521842 -0.056434951182466574 0 0.0059018295405467306 -0.053237840394926926 0 0.0046314288000521842 -0.056434951182466574 0 0.0070290088451595064 -0.056682696841315799 0 0.0044186093929279562 -0.051043703564601563 0 0.0059018295405467306 -0.053237840394926926 0 0.0060602142646383091 -0.049618193793732661 0 0.0018323919179645052 -0.061398697876074271 0 0.003092039332425986 -0.06119695293753414 0 0.0023425197637603301 -0.06450737434140745 0 0.0018323919179645052 -0.061398697876074271 0 0.0025883227850708669 -0.058740624843395928 0 0.003092039332425986 -0.06119695293753414 0 0.0005808598897368779 -0.058525208345292588 0 0.0018323919179645052 -0.061398697876074271 0 0.0025883227850708669 -0.058740624843395928 0 0.0041143150270892825 -0.057484314111249636 0 0.0054870460730855886 -0.057546104964604439 0 0.0025883227850708669 -0.058740624843395928 0 0.003092039332425986 -0.06119695293753414 0 0.0046061948818085117 -0.058375023180872079 0 0.003092039332425986 -0.06119695293753414 0 0.0046061948818085117 -0.058375023180872079 0 0.0042052977221981539 -0.062871120981211878 0 0.0046061948818085117 -0.058375023180872079 0 0.0056494184412802318 -0.061815046889620862 0 0.0042052977221981539 -0.062871120981211878 0 0.0046061948818085117 -0.058375023180872079 0 0.0066692975943175451 -0.058720706883717361 0 0.0056494184412802318 -0.061815046889620862 0 0.0070290088451595064 -0.056682696841315799 0 0.0093925528236812397 -0.056415033223525146 0 0.0082691669622835823 -0.054096508833357627 0 0.0054870460730855886 -0.057546104964604439 0 0.0079341591935256015 -0.057567798624625126 0 0.0066692975943175451 -0.058720706883717361 0 0.0056494184412802318 -0.061815046889620862 0 0.0070085074753535861 -0.062934897498124864 0 0.0059018295405467306 -0.053237840394926926 0 0.0077782695626519623 -0.051010428542126902 0 0.0082691669622835823 -0.054096508833357627 0 0.0059018295405467306 -0.053237840394926926 0 0.0077782695626519623 -0.051010428542126902 0 0.0060602142646383091 -0.049618193793732661 0 0.0059018295405467306 -0.053237840394926926 0 0.0070290088451595064 -0.056682696841315799 0 0.0082691669622835823 -0.054096508833357627 0 0.0077782695626519623 -0.051010428542126902 0 0.0082691669622835823 -0.054096508833357627 0 0.009419710983503948 -0.05064758253133405 0 0.0082691669622835823 -0.054096508833357627 0 0.009419710983503948 -0.05064758253133405 0 0.010522612367198012 -0.053804696781836969 0 0.0077782695626519623 -0.051010428542126902 0 0.009419710983503948 -0.05064758253133405 0 0.0080626914762046004 -0.046810467868334406 0 0.009419710983503948 -0.05064758253133405 0 0.0080626914762046004 -0.046810467868334406 0 0.01049656642836154 -0.047962133519944265 0 0.0077782695626519623 -0.051010428542126902 0 0.0080626914762046004 -0.046810467868334406 0 0.0060602142646383091 -0.049618193793732661 0 0.0080626914762046004 -0.046810467868334406 0 0.00631474271717169 -0.042913557927913515 0 0.0060930054570962266 -0.046268036100063387 0 0.0080626914762046004 -0.046810467868334406 0 0.0060602142646383091 -0.049618193793732661 0 0.0060930054570962266 -0.046268036100063387 0 0.0080626914762046004 -0.046810467868334406 0 0.0080402092839742811 -0.042025263517080261 0 0.010475881907535805 -0.043847543131271802 0 0.0080402092839742811 -0.042025263517080261 0 0.010475881907535805 -0.043847543131271802 0 0.0091108751092012462 -0.039335993409580397 0 0.0080402092839742811 -0.042025263517080261 0 0.00631474271717169 -0.042913557927913515 0 0.0071744166600450857 -0.03867945462457175 0 0.0080626914762046004 -0.046810467868334406 0 0.0080402092839742811 -0.042025263517080261 0 0.00631474271717169 -0.042913557927913515 0 0.0039371249507277918 -0.043624423800658972 0 0.00631474271717169 -0.042913557927913515 0 0.0060930054570962266 -0.046268036100063387 0 0.00631474271717169 -0.042913557927913515 0 0.0054771148751144218 -0.040017489331718163 0 0.0071744166600450857 -0.03867945462457175 0 0.0039371249507277918 -0.043624423800658972 0 0.00631474271717169 -0.042913557927913515 0 0.0054771148751144218 -0.040017489331718163 0 0.0039371249507277918 -0.043624423800658972 0 0.0039071366289130565 -0.038841404465008056 0 0.0054771148751144218 -0.040017489331718163 0 0.0039371249507277918 -0.043624423800658972 0 0.0041395356067127969 -0.048047062308981994 0 0.0060930054570962266 -0.046268036100063387 0 0.0044186093929279562 -0.051043703564601563 0 0.0041395356067127969 -0.048047062308981994 0 0.0060602142646383091 -0.049618193793732661 0 0.0041395356067127969 -0.048047062308981994 0 0.0060602142646383091 -0.049618193793732661 0 0.0060930054570962266 -0.046268036100063387 0 -0.00081692881453924277 -0.083491844215748387 0 0.00036466847099058444 -0.079368513422885187 0 -0.0017937625854626054 -0.080484322213081771 0 -0.00081692881453924277 -0.083491844215748387 0 0.00036466847099058444 -0.079368513422885187 0 0.0014815521815711003 -0.083276130751342367 0 0.00036466847099058444 -0.079368513422885187 0 -0.0017937625854626054 -0.080484322213081771 0 -0.0013789049265049487 -0.076961630440222875 0 -0.00081692881453924277 -0.083491844215748387 0 -0.0017937625854626054 -0.080484322213081771 0 -0.0031292091143040723 -0.083788457997022711 0 -0.0031292091143040723 -0.083788457997022711 0 -0.0054093610119600464 -0.084179788113446563 0 -0.0039712701464652894 -0.078925143713542714 0 -0.0017937625854626054 -0.080484322213081771 0 -0.0039712701464652894 -0.078925143713542714 0 -0.0013789049265049487 -0.076961630440222875 0 -0.0017937625854626054 -0.080484322213081771 0 -0.0031292091143040723 -0.083788457997022711 0 -0.0039712701464652894 -0.078925143713542714 0 -0.0039712701464652894 -0.078925143713542714 0 -0.0024607254618789444 -0.074687041977816629 0 -0.0013789049265049487 -0.076961630440222875 0 -0.0039712701464652894 -0.078925143713542714 0 -0.0043116322027447335 -0.073746559454648447 0 -0.0024607254618789444 -0.074687041977816629 0 -0.0024607254618789444 -0.074687041977816629 0 -0.00088591719939532551 -0.073847401647079966 0 -0.001697068890275879 -0.071011529041087831 0 -0.0024607254618789444 -0.074687041977816629 0 -0.00088591719939532551 -0.073847401647079966 0 -0.0013789049265049487 -0.076961630440222875 0 -0.00088591719939532551 -0.073847401647079966 0 -0.0013789049265049487 -0.076961630440222875 0 0.00054861297426241247 -0.075233154092541901 0 0.00036466847099058444 -0.079368513422885187 0 -0.0013789049265049487 -0.076961630440222875 0 0.00054861297426241247 -0.075233154092541901 0 -0.00088591719939532551 -0.073847401647079966 0 0.00054861297426241247 -0.075233154092541901 0 0.00055816992383325313 -0.071418969955218514 0 0.00055816992383325313 -0.071418969955218514 0 0.00037296574585664408 -0.067434644192768539 0 0.0022540200533219304 -0.068836584984606208 0 0.00055816992383325313 -0.071418969955218514 0 -0.001697068890275879 -0.071011529041087831 0 0.00037296574585664408 -0.067434644192768539 0 -0.001697068890275879 -0.071011529041087831 0 -0.0017855232551438767 -0.066244148010101284 0 0.00037296574585664408 -0.067434644192768539 0 -0.00088591719939532551 -0.073847401647079966 0 0.00055816992383325313 -0.071418969955218514 0 -0.001697068890275879 -0.071011529041087831 0 -0.0043116322027447335 -0.073746559454648447 0 -0.0024607254618789444 -0.074687041977816629 0 -0.001697068890275879 -0.071011529041087831 0 -0.0043116322027447335 -0.073746559454648447 0 -0.001697068890275879 -0.071011529041087831 0 -0.003732897176328943 -0.069224502332438181 0 -0.001697068890275879 -0.071011529041087831 0 -0.003732897176328943 -0.069224502332438181 0 -0.0017855232551438767 -0.066244148010101284 0 -0.003732897176328943 -0.069224502332438181 0 -0.0017855232551438767 -0.066244148010101284 0 -0.0034437062215524877 -0.066064154303747735 0 -0.0017855232551438767 -0.066244148010101284 0 -0.0034437062215524877 -0.066064154303747735 0 -0.0031021880140014416 -0.063029818321556338 0 -0.0012981395095677721 -0.062281966934070045 0 -0.0017855232551438767 -0.066244148010101284 0 -0.0031021880140014416 -0.063029818321556338 0 -0.0012981395095677721 -0.062281966934070045 0 -0.0017855232551438767 -0.066244148010101284 0 0.00032065631958636329 -0.063418176235581991 0 -0.0017855232551438767 -0.066244148010101284 0 0.00037296574585664408 -0.067434644192768539 0 0.00032065631958636329 -0.063418176235581991 0 0.00037296574585664408 -0.067434644192768539 0 0.00032065631958636329 -0.063418176235581991 0 0.0023425197637603301 -0.06450737434140745 0 0.0018323919179645052 -0.061398697876074271 0 0.00032065631958636329 -0.063418176235581991 0 0.0023425197637603301 -0.06450737434140745 0 0.00037296574585664408 -0.067434644192768539 0 0.0023425197637603301 -0.06450737434140745 0 0.0022540200533219304 -0.068836584984606208 0 0.0023425197637603301 -0.06450737434140745 0 0.0036192984291113441 -0.066528458364380552 0 0.0022540200533219304 -0.068836584984606208 0 0.0023425197637603301 -0.06450737434140745 0 0.0036192984291113441 -0.066528458364380552 0 0.0042052977221981539 -0.062871120981211878 0 0.003092039332425986 -0.06119695293753414 0 0.0023425197637603301 -0.06450737434140745 0 0.0042052977221981539 -0.062871120981211878 0 0.0056494184412802318 -0.061815046889620862 0 0.0042052977221981539 -0.062871120981211878 0 0.0055248445995074629 -0.066230757638299567 0 0.0056494184412802318 -0.061815046889620862 0 0.0055248445995074629 -0.066230757638299567 0 0.0070085074753535861 -0.062934897498124864 0 0.0036192984291113441 -0.066528458364380552 0 0.0042052977221981539 -0.062871120981211878 0 0.0055248445995074629 -0.066230757638299567 0 0.0036192984291113441 -0.066528458364380552 0 0.0055248445995074629 -0.066230757638299567 0 0.0037532393760756175 -0.070270439553440728 0 0.0055248445995074629 -0.066230757638299567 0 0.0055153116773792683 -0.071019036634775407 0 0.0037532393760756175 -0.070270439553440728 0 0.0055248445995074629 -0.066230757638299567 0 0.0055153116773792683 -0.071019036634775407 0 0.0072936062686594144 -0.070117245782177373 0 0.0055153116773792683 -0.071019036634775407 0 0.0037532393760756175 -0.070270439553440728 0 0.0052235873784745044 -0.074288600808548572 0 0.0037532393760756175 -0.070270439553440728 0 0.0026221160007425938 -0.07324033475629986 0 0.0052235873784745044 -0.074288600808548572 0 0.0037532393760756175 -0.070270439553440728 0 0.0022540200533219304 -0.068836584984606208 0 0.0026221160007425938 -0.07324033475629986 0 0.0036192984291113441 -0.066528458364380552 0 0.0037532393760756175 -0.070270439553440728 0 0.0022540200533219304 -0.068836584984606208 0 0.00055816992383325313 -0.071418969955218514 0 0.0022540200533219304 -0.068836584984606208 0 0.0026221160007425938 -0.07324033475629986 0 0.00054861297426241247 -0.075233154092541901 0 0.00055816992383325313 -0.071418969955218514 0 0.0026221160007425938 -0.07324033475629986 0 0.00054861297426241247 -0.075233154092541901 0 0.0020414508824957872 -0.076760883525865437 0 0.0026221160007425938 -0.07324033475629986 0 0.00036466847099058444 -0.079368513422885187 0 0.00054861297426241247 -0.075233154092541901 0 0.0020414508824957872 -0.076760883525865437 0 0.0020414508824957872 -0.076760883525865437 0 0.0035820949278389308 -0.076586779765597093 0 0.0030022836200641785 -0.079777404537490798 0 0.0020414508824957872 -0.076760883525865437 0 0.0026221160007425938 -0.07324033475629986 0 0.0035820949278389308 -0.076586779765597093 0 0.0026221160007425938 -0.07324033475629986 0 0.0052235873784745044 -0.074288600808548572 0 0.0035820949278389308 -0.076586779765597093 0 0.0055153116773792683 -0.071019036634775407 0 0.0052235873784745044 -0.074288600808548572 0 0.0071654997745990252 -0.0738238853243081 0 0.0052235873784745044 -0.074288600808548572 0 0.0050419134453139787 -0.078914733295135403 0 0.0065559772828875321 -0.076714996390839688 0 0.0052235873784745044 -0.074288600808548572 0 0.0035820949278389308 -0.076586779765597093 0 0.0050419134453139787 -0.078914733295135403 0 0.0035820949278389308 -0.076586779765597093 0 0.0050419134453139787 -0.078914733295135403 0 0.0030022836200641785 -0.079777404537490798 0 0.0050419134453139787 -0.078914733295135403 0 0.003774395421022056 -0.083129656098355015 0 0.0060452076980579243 -0.083031756885472471 0 0.0050419134453139787 -0.078914733295135403 0 0.0060452076980579243 -0.083031756885472471 0 0.0070648165945985733 -0.079638761820564077 0 0.0050419134453139787 -0.078914733295135403 0 0.003774395421022056 -0.083129656098355015 0 0.0030022836200641785 -0.079777404537490798 0 0.003774395421022056 -0.083129656098355015 0 0.0030022836200641785 -0.079777404537490798 0 0.0014815521815711003 -0.083276130751342367 0 0.00036466847099058444 -0.079368513422885187 0 0.0020414508824957872 -0.076760883525865437 0 0.0030022836200641785 -0.079777404537490798 0 0.00036466847099058444 -0.079368513422885187 0 0.0030022836200641785 -0.079777404537490798 0 0.0014815521815711003 -0.083276130751342367 0 0.01053405054838075 -0.08292136378263551 0 0.010703292710272124 -0.077671195764216286 0 0.012764083086381177 -0.07913526958495716 0 0.01053405054838075 -0.08292136378263551 0 0.0090237173911819971 -0.079935364245330515 0 0.010703292710272124 -0.077671195764216286 0 0.0090237173911819971 -0.079935364245330515 0 0.0082971123389820583 -0.076943989086291548 0 0.010703292710272124 -0.077671195764216286 0 0.01053405054838075 -0.08292136378263551 0 0.0090237173911819971 -0.079935364245330515 0 0.0083010228757699166 -0.082966564904542253 0 0.0090237173911819971 -0.079935364245330515 0 0.0083010228757699166 -0.082966564904542253 0 0.0070648165945985733 -0.079638761820564077 0 0.0083010228757699166 -0.082966564904542253 0 0.0060452076980579243 -0.083031756885472471 0 0.0070648165945985733 -0.079638761820564077 0 0.0050419134453139787 -0.078914733295135403 0 0.0070648165945985733 -0.079638761820564077 0 0.0065559772828875321 -0.076714996390839688 0 0.0090237173911819971 -0.079935364245330515 0 0.0070648165945985733 -0.079638761820564077 0 0.0082971123389820583 -0.076943989086291548 0 0.0082971123389820583 -0.076943989086291548 0 0.0065559772828875321 -0.076714996390839688 0 0.0071654997745990252 -0.0738238853243081 0 0.0070648165945985733 -0.079638761820564077 0 0.0082971123389820583 -0.076943989086291548 0 0.0065559772828875321 -0.076714996390839688 0 0.0052235873784745044 -0.074288600808548572 0 0.0065559772828875321 -0.076714996390839688 0 0.0071654997745990252 -0.0738238853243081 0 0.0082971123389820583 -0.076943989086291548 0 0.0071654997745990252 -0.0738238853243081 0 0.0090396695810240294 -0.073788595646464422 0 0.0090396695810240294 -0.073788595646464422 0 0.010703292710272124 -0.077671195764216286 0 0.010998445246877262 -0.073534975256194984 0 0.0082971123389820583 -0.076943989086291548 0 0.0090396695810240294 -0.073788595646464422 0 0.010703292710272124 -0.077671195764216286 0 0.010703292710272124 -0.077671195764216286 0 0.010998445246877262 -0.073534975256194984 0 0.013078317891283059 -0.07509259489164441 0 0.010998445246877262 -0.073534975256194984 0 0.0098092001366698149 -0.070657222497629013 0 0.012163678481948719 -0.070455549712693494 0 0.0098092001366698149 -0.070657222497629013 0 0.010769269839529352 -0.067315344008706424 0 0.012163678481948719 -0.070455549712693494 0 0.0098092001366698149 -0.070657222497629013 0 0.0087181985237782915 -0.0678930625987995 0 0.010769269839529352 -0.067315344008706424 0 0.0090396695810240294 -0.073788595646464422 0 0.010998445246877262 -0.073534975256194984 0 0.0098092001366698149 -0.070657222497629013 0 0.0071654997745990252 -0.0738238853243081 0 0.0090396695810240294 -0.073788595646464422 0 0.0072936062686594144 -0.070117245782177373 0 0.0090396695810240294 -0.073788595646464422 0 0.0098092001366698149 -0.070657222497629013 0 0.0072936062686594144 -0.070117245782177373 0 0.0055153116773792683 -0.071019036634775407 0 0.0071654997745990252 -0.0738238853243081 0 0.0072936062686594144 -0.070117245782177373 0 0.0072936062686594144 -0.070117245782177373 0 0.0087181985237782915 -0.0678930625987995 0 0.0074836574410239477 -0.066350378776202645 0 0.0098092001366698149 -0.070657222497629013 0 0.0072936062686594144 -0.070117245782177373 0 0.0087181985237782915 -0.0678930625987995 0 0.0087181985237782915 -0.0678930625987995 0 0.0074836574410239477 -0.066350378776202645 0 0.0088528859627782681 -0.064582124837275851 0 0.0055248445995074629 -0.066230757638299567 0 0.0074836574410239477 -0.066350378776202645 0 0.0070085074753535861 -0.062934897498124864 0 0.0055248445995074629 -0.066230757638299567 0 0.0072936062686594144 -0.070117245782177373 0 0.0074836574410239477 -0.066350378776202645 0 0.0074836574410239477 -0.066350378776202645 0 0.0070085074753535861 -0.062934897498124864 0 0.0088528859627782681 -0.064582124837275851 0 0.0070085074753535861 -0.062934897498124864 0 0.0088528859627782681 -0.064582124837275851 0 0.0081605473779880131 -0.061195075609765885 0 0.0088528859627782681 -0.064582124837275851 0 0.010769269839529352 -0.067315344008706424 0 0.01116483897454074 -0.063506132285904293 0 0.0088528859627782681 -0.064582124837275851 0 0.01116483897454074 -0.063506132285904293 0 0.0096172909419632493 -0.061485684803775004 0 0.0087181985237782915 -0.0678930625987995 0 0.0088528859627782681 -0.064582124837275851 0 0.010769269839529352 -0.067315344008706424 0 0.010769269839529352 -0.067315344008706424 0 0.01116483897454074 -0.063506132285904293 0 0.013216864840708083 -0.066348958105480485 0 0.01116483897454074 -0.063506132285904293 0 0.013216864840708083 -0.066348958105480485 0 0.013124927852986476 -0.062310235748793671 0 0.013216864840708083 -0.066348958105480485 0 0.015039940765506084 -0.063256098389242704 0 0.01542513497329019 -0.067052464150641047 0 0.013216864840708083 -0.066348958105480485 0 0.015039940765506084 -0.063256098389242704 0 0.013124927852986476 -0.062310235748793671 0 0.015039940765506084 -0.063256098389242704 0 0.016348533179536356 -0.064725314473287845 0 0.01542513497329019 -0.067052464150641047 0 0.015039940765506084 -0.063256098389242704 0 0.016348533179536356 -0.064725314473287845 0 0.016257537779542423 -0.061460713268474354 0 0.016348533179536356 -0.064725314473287845 0 0.016257537779542423 -0.061460713268474354 0 0.017497599803446645 -0.062702205091141591 0 0.016348533179536356 -0.064725314473287845 0 0.017453902815053338 -0.06667868003403056 0 0.017497599803446645 -0.062702205091141591 0 0.016348533179536356 -0.064725314473287845 0 0.017453902815053338 -0.06667868003403056 0 0.01542513497329019 -0.067052464150641047 0 0.017380023154256095 -0.070661905027289224 0 0.014609946662561607 -0.070718145105416602 0 0.015277053108726719 -0.074393645509299722 0 0.01542513497329019 -0.067052464150641047 0 0.017380023154256095 -0.070661905027289224 0 0.014609946662561607 -0.070718145105416602 0 0.017453902815053338 -0.06667868003403056 0 0.01542513497329019 -0.067052464150641047 0 0.017380023154256095 -0.070661905027289224 0 0.014609946662561607 -0.070718145105416602 0 0.012163678481948719 -0.070455549712693494 0 0.013078317891283059 -0.07509259489164441 0 0.013216864840708083 -0.066348958105480485 0 0.01542513497329019 -0.067052464150641047 0 0.014609946662561607 -0.070718145105416602 0 0.013216864840708083 -0.066348958105480485 0 0.014609946662561607 -0.070718145105416602 0 0.012163678481948719 -0.070455549712693494 0 0.010769269839529352 -0.067315344008706424 0 0.013216864840708083 -0.066348958105480485 0 0.012163678481948719 -0.070455549712693494 0 0.010998445246877262 -0.073534975256194984 0 0.012163678481948719 -0.070455549712693494 0 0.013078317891283059 -0.07509259489164441 0 0.010703292710272124 -0.077671195764216286 0 0.013078317891283059 -0.07509259489164441 0 0.012764083086381177 -0.07913526958495716 0 0.013078317891283059 -0.07509259489164441 0 0.015277053108726719 -0.074393645509299722 0 0.014761292055138446 -0.078294722168746098 0 0.013078317891283059 -0.07509259489164441 0 0.014761292055138446 -0.078294722168746098 0 0.012764083086381177 -0.07913526958495716 0 0.014609946662561607 -0.070718145105416602 0 0.013078317891283059 -0.07509259489164441 0 0.015277053108726719 -0.074393645509299722 0 0.017380023154256095 -0.070661905027289224 0 0.015277053108726719 -0.074393645509299722 0 0.01729047396998383 -0.074676264551135338 0 0.01729047396998383 -0.074676264551135338 0 0.01612498865811314 -0.076726622376053807 0 0.017211802929927009 -0.078717211024106115 0 0.015277053108726719 -0.074393645509299722 0 0.01729047396998383 -0.074676264551135338 0 0.01612498865811314 -0.076726622376053807 0 0.015277053108726719 -0.074393645509299722 0 0.01612498865811314 -0.076726622376053807 0 0.014761292055138446 -0.078294722168746098 0 0.01612498865811314 -0.076726622376053807 0 0.014761292055138446 -0.078294722168746098 0 0.01594547253658584 -0.080102645380993445 0 0.01612498865811314 -0.076726622376053807 0 0.01594547253658584 -0.080102645380993445 0 0.017211802929927009 -0.078717211024106115 0 0.01594547253658584 -0.080102645380993445 0 0.017211802929927009 -0.078717211024106115 0 0.017142575567051344 -0.082774081252452322 0 0.01594547253658584 -0.080102645380993445 0 0.017142575567051344 -0.082774081252452322 0 0.014949991530200293 -0.082837507568264537 0 0.014761292055138446 -0.078294722168746098 0 0.01594547253658584 -0.080102645380993445 0 0.014949991530200293 -0.082837507568264537 0 0.014949991530200293 -0.082837507568264537 0 0.012764083086381177 -0.07913526958495716 0 0.012747783940174251 -0.082885460329969185 0 0.014761292055138446 -0.078294722168746098 0 0.014949991530200293 -0.082837507568264537 0 0.012764083086381177 -0.07913526958495716 0 0.01053405054838075 -0.08292136378263551 0 0.012764083086381177 -0.07913526958495716 0 0.012747783940174251 -0.082885460329969185 0 0.012476302590298499 -0.048065091907821843 0 0.014799921815338023 -0.046399902995429759 0 0.012990443935958135 -0.044547912833071322 0 0.012476302590298499 -0.048065091907821843 0 0.01490250177323197 -0.049750619825460973 0 0.013385223376967419 -0.051212328803038804 0 0.012476302590298499 -0.048065091907821843 0 0.011639490538077004 -0.050812886089146421 0 0.013385223376967419 -0.051212328803038804 0 0.012476302590298499 -0.048065091907821843 0 0.01490250177323197 -0.049750619825460973 0 0.014799921815338023 -0.046399902995429759 0 0.014799921815338023 -0.046399902995429759 0 0.014753453030110806 -0.042281240068944383 0 0.012990443935958135 -0.044547912833071322 0 0.014753453030110806 -0.042281240068944383 0 0.012358833207062892 -0.041332602887603362 0 0.012990443935958135 -0.044547912833071322 0 0.014753453030110806 -0.042281240068944383 0 0.012358833207062892 -0.041332602887603362 0 0.013763719339968091 -0.039445153635170947 0 0.012358833207062892 -0.041332602887603362 0 0.012990443935958135 -0.044547912833071322 0 0.010475881907535805 -0.043847543131271802 0 0.012358833207062892 -0.041332602887603362 0 0.010475881907535805 -0.043847543131271802 0 0.010790357115660244 -0.0401118089013138 0 0.010475881907535805 -0.043847543131271802 0 0.010790357115660244 -0.0401118089013138 0 0.0091108751092012462 -0.039335993409580397 0 0.0080626914762046004 -0.046810467868334406 0 0.010475881907535805 -0.043847543131271802 0 0.01049656642836154 -0.047962133519944265 0 0.012476302590298499 -0.048065091907821843 0 0.010475881907535805 -0.043847543131271802 0 0.01049656642836154 -0.047962133519944265 0 0.012476302590298499 -0.048065091907821843 0 0.012990443935958135 -0.044547912833071322 0 0.010475881907535805 -0.043847543131271802 0 0.012476302590298499 -0.048065091907821843 0 0.01049656642836154 -0.047962133519944265 0 0.011639490538077004 -0.050812886089146421 0 0.009419710983503948 -0.05064758253133405 0 0.01049656642836154 -0.047962133519944265 0 0.011639490538077004 -0.050812886089146421 0 0.009419710983503948 -0.05064758253133405 0 0.010522612367198012 -0.053804696781836969 0 0.011639490538077004 -0.050812886089146421 0 0.0093925528236812397 -0.056415033223525146 0 0.0082691669622835823 -0.054096508833357627 0 0.010522612367198012 -0.053804696781836969 0 0.010522612367198012 -0.053804696781836969 0 0.011710167137794655 -0.056754715730532555 0 0.012848834000825329 -0.054084550792948903 0 0.010522612367198012 -0.053804696781836969 0 0.011639490538077004 -0.050812886089146421 0 0.012848834000825329 -0.054084550792948903 0 0.0066692975943175451 -0.058720706883717361 0 0.0070085074753535861 -0.062934897498124864 0 0.0081605473779880131 -0.061195075609765885 0 0.0066692975943175451 -0.058720706883717361 0 0.0087755742532646171 -0.058447042069495407 0 0.0081605473779880131 -0.061195075609765885 0 0.0093925528236812397 -0.056415033223525146 0 0.010522612367198012 -0.053804696781836969 0 0.011710167137794655 -0.056754715730532555 0 0.0079341591935256015 -0.057567798624625126 0 0.0099582723720059475 -0.057600153772915656 0 0.0088528859627782681 -0.064582124837275851 0 0.0081605473779880131 -0.061195075609765885 0 0.0096172909419632493 -0.061485684803775004 0 0.0087755742532646171 -0.058447042069495407 0 0.0081605473779880131 -0.061195075609765885 0 0.0096172909419632493 -0.061485684803775004 0 0.01116483897454074 -0.063506132285904293 0 0.0096172909419632493 -0.061485684803775004 0 0.010910632802403317 -0.058838191561648101 0 0.0099582723720059475 -0.057600153772915656 0 0.012609346876481509 -0.0576957534697526 0 0.011710167137794655 -0.056754715730532555 0 0.013986838274394404 -0.056532517901585359 0 0.012848834000825329 -0.054084550792948903 0 0.0087755742532646171 -0.058447042069495407 0 0.0096172909419632493 -0.061485684803775004 0 0.010910632802403317 -0.058838191561648101 0 0.012609346876481509 -0.0576957534697526 0 0.013162495684172468 -0.057746144256400574 0 0.01116483897454074 -0.063506132285904293 0 0.010910632802403317 -0.058838191561648101 0 0.013124927852986476 -0.062310235748793671 0 0.011639490538077004 -0.050812886089146421 0 0.013385223376967419 -0.051212328803038804 0 0.012848834000825329 -0.054084550792948903 0 0.013986838274394404 -0.056532517901585359 0 0.012848834000825329 -0.054084550792948903 0 0.015145961616997182 -0.053308236156580299 0 0.01490250177323197 -0.049750619825460973 0 0.013385223376967419 -0.051212328803038804 0 0.015145961616997182 -0.053308236156580299 0 0.013385223376967419 -0.051212328803038804 0 0.012848834000825329 -0.054084550792948903 0 0.015145961616997182 -0.053308236156580299 0 0.015145961616997182 -0.053308236156580299 0 0.017155336609360704 -0.054258015380476289 0 0.01695207532757961 -0.051258116653026958 0 0.01490250177323197 -0.049750619825460973 0 0.015145961616997182 -0.053308236156580299 0 0.01695207532757961 -0.051258116653026958 0 0.013986838274394404 -0.056532517901585359 0 0.015145961616997182 -0.053308236156580299 0 0.016234369924862158 -0.056940035386038527 0 0.015145961616997182 -0.053308236156580299 0 0.017155336609360704 -0.054258015380476289 0 0.016234369924862158 -0.056940035386038527 0 0.017155336609360704 -0.054258015380476289 0 0.01695207532757961 -0.051258116653026958 0 0.018750213590057945 -0.0534827641520206 0 0.010910632802403317 -0.058838191561648101 0 0.013124927852986476 -0.062310235748793671 0 0.013115225278474366 -0.058632361725415617 0 0.013162495684172468 -0.057746144256400574 0 0.021598385010121166 -0.057922128669624623 0 0.017155336609360704 -0.054258015380476289 0 0.016234369924862158 -0.056940035386038527 0 0.018475177221626827 -0.056665826138871583 0 0.013124927852986476 -0.062310235748793671 0 0.013115225278474366 -0.058632361725415617 0 0.015366443122443294 -0.058971499799689284 0 0.015039940765506084 -0.063256098389242704 0 0.013124927852986476 -0.062310235748793671 0 0.015366443122443294 -0.058971499799689284 0 0.015039940765506084 -0.063256098389242704 0 0.015366443122443294 -0.058971499799689284 0 0.016257537779542423 -0.061460713268474354 0 0.021598385010121166 -0.057922128669624623 0 0.00055408803139207774 -0.057669471379779166 0 0.015366443122443294 -0.058971499799689284 0 0.0176245489893362 -0.058666978032660119 0 0.016257537779542423 -0.061460713268474354 0 0.0176245489893362 -0.058666978032660119 0 0.016257537779542423 -0.061460713268474354 0 0.017497599803446645 -0.062702205091141591 0 0.01695207532757961 -0.051258116653026958 0 0.018750213590057945 -0.0534827641520206 0 0.01872635613131024 -0.048968427896473078 0 0.017155336609360704 -0.054258015380476289 0 0.018475177221626827 -0.056665826138871583 0 0.018750213590057945 -0.0534827641520206 0 0.018475177221626827 -0.056665826138871583 0 0.020690649297657113 -0.056974651692531797 0 0.018750213590057945 -0.0534827641520206 0 0.020690649297657113 -0.056974651692531797 0 0.018750213590057945 -0.0534827641520206 0 0.020599640233707636 -0.052995955316012852 0 0.018750213590057945 -0.0534827641520206 0 0.020599640233707636 -0.052995955316012852 0 0.01872635613131024 -0.048968427896473078 0 0.01872635613131024 -0.048968427896473078 0 0.017755887305194146 -0.045687903219807043 0 0.020444202653569613 -0.045160203171019514 0 0.020599640233707636 -0.052995955316012852 0 0.020521802280445076 -0.049065817408294188 0 0.01872635613131024 -0.048968427896473078 0 0.020521802280445076 -0.049065817408294188 0 0.01872635613131024 -0.048968427896473078 0 0.020444202653569613 -0.045160203171019514 0 0.01695207532757961 -0.051258116653026958 0 0.01872635613131024 -0.048968427896473078 0 0.016649760132615397 -0.04782010955032448 0 0.01872635613131024 -0.048968427896473078 0 0.016649760132615397 -0.04782010955032448 0 0.017755887305194146 -0.045687903219807043 0 0.014799921815338023 -0.046399902995429759 0 0.016649760132615397 -0.04782010955032448 0 0.016503593116199696 -0.043751809404618688 0 0.01490250177323197 -0.049750619825460973 0 0.014799921815338023 -0.046399902995429759 0 0.016649760132615397 -0.04782010955032448 0 0.01490250177323197 -0.049750619825460973 0 0.01695207532757961 -0.051258116653026958 0 0.016649760132615397 -0.04782010955032448 0 0.014753453030110806 -0.042281240068944383 0 0.016503593116199696 -0.043751809404618688 0 0.016801469401711448 -0.040755449462667466 0 0.014799921815338023 -0.046399902995429759 0 0.014753453030110806 -0.042281240068944383 0 0.016503593116199696 -0.043751809404618688 0 0.016503593116199696 -0.043751809404618688 0 0.017755887305194146 -0.045687903219807043 0 0.018521479025432573 -0.04255272479580665 0 0.016649760132615397 -0.04782010955032448 0 0.016503593116199696 -0.043751809404618688 0 0.017755887305194146 -0.045687903219807043 0 0.016503593116199696 -0.043751809404618688 0 0.018521479025432573 -0.04255272479580665 0 0.016801469401711448 -0.040755449462667466 0 0.017755887305194146 -0.045687903219807043 0 0.018521479025432573 -0.04255272479580665 0 0.020444202653569613 -0.045160203171019514 0 0.018521479025432573 -0.04255272479580665 0 0.020444202653569613 -0.045160203171019514 0 0.02033415072299171 -0.041298347780911029 0 0.018521479025432573 -0.04255272479580665 0 0.02033415072299171 -0.041298347780911029 0 0.018697574688706423 -0.039761053195514783 0 0.02033415072299171 -0.041298347780911029 0 0.02017984960592719 -0.037503350635207454 0 0.018697574688706423 -0.039761053195514783 0 0.02017984960592719 -0.037503350635207454 0 0.017568422920111442 -0.036687985456982632 0 0.018697574688706423 -0.039761053195514783 0 0.017568422920111442 -0.036687985456982632 0 0.018697574688706423 -0.039761053195514783 0 0.016801469401711448 -0.040755449462667466 0 0.018521479025432573 -0.04255272479580665 0 0.018697574688706423 -0.039761053195514783 0 0.016801469401711448 -0.040755449462667466 0 0.019901850930314099 -0.033765273777057341 0 0.018225424167681869 -0.033440396353088153 0 0.019506550944008612 -0.030074855849423154 0 0.02017984960592719 -0.037503350635207454 0 0.019901850930314099 -0.033765273777057341 0 0.018225424167681869 -0.033440396353088153 0 0.02017984960592719 -0.037503350635207454 0 0.017568422920111442 -0.036687985456982632 0 0.018225424167681869 -0.033440396353088153 0 0.018225424167681869 -0.033440396353088153 0 0.01608181436859376 -0.034056080255361262 0 0.016307111394292112 -0.030670008056184524 0 0.017568422920111442 -0.036687985456982632 0 0.018225424167681869 -0.033440396353088153 0 0.01608181436859376 -0.034056080255361262 0 0.01608181436859376 -0.034056080255361262 0 0.015394225696366431 -0.037691783814327341 0 0.014337167762592111 -0.034495429101537432 0 0.01608181436859376 -0.034056080255361262 0 0.014337167762592111 -0.034495429101537432 0 0.014349326221050304 -0.031407203696026717 0 0.01608181436859376 -0.034056080255361262 0 0.014349326221050304 -0.031407203696026717 0 0.016307111394292112 -0.030670008056184524 0 0.017568422920111442 -0.036687985456982632 0 0.016801469401711448 -0.040755449462667466 0 0.015394225696366431 -0.037691783814327341 0 0.017568422920111442 -0.036687985456982632 0 0.01608181436859376 -0.034056080255361262 0 0.015394225696366431 -0.037691783814327341 0 0.014753453030110806 -0.042281240068944383 0 0.016801469401711448 -0.040755449462667466 0 0.015394225696366431 -0.037691783814327341 0 0.014753453030110806 -0.042281240068944383 0 0.015394225696366431 -0.037691783814327341 0 0.013763719339968091 -0.039445153635170947 0 0.012358833207062892 -0.041332602887603362 0 0.013763719339968091 -0.039445153635170947 0 0.012309267283933324 -0.038222156519452953 0 0.013763719339968091 -0.039445153635170947 0 0.012309267283933324 -0.038222156519452953 0 0.013790663877462597 -0.036799934852019274 0 0.012309267283933324 -0.038222156519452953 0 0.013790663877462597 -0.036799934852019274 0 0.012480335491090781 -0.035099608685942335 0 0.015394225696366431 -0.037691783814327341 0 0.013763719339968091 -0.039445153635170947 0 0.013790663877462597 -0.036799934852019274 0 0.013790663877462597 -0.036799934852019274 0 0.014337167762592111 -0.034495429101537432 0 0.012480335491090781 -0.035099608685942335 0 0.015394225696366431 -0.037691783814327341 0 0.013790663877462597 -0.036799934852019274 0 0.014337167762592111 -0.034495429101537432 0 0.014337167762592111 -0.034495429101537432 0 0.014349326221050304 -0.031407203696026717 0 0.012076214338965737 -0.031983038222116622 0 0.014349326221050304 -0.031407203696026717 0 0.012076214338965737 -0.031983038222116622 0 0.012862207712595395 -0.029551652774983783 0 0.014337167762592111 -0.034495429101537432 0 0.012076214338965737 -0.031983038222116622 0 0.012480335491090781 -0.035099608685942335 0 0.012480335491090781 -0.035099608685942335 0 0.010445376442331646 -0.032270217764134732 0 0.010813615914596696 -0.036558395416141198 0 0.012076214338965737 -0.031983038222116622 0 0.012480335491090781 -0.035099608685942335 0 0.010445376442331646 -0.032270217764134732 0 0.012076214338965737 -0.031983038222116622 0 0.010445376442331646 -0.032270217764134732 0 0.01053155420817369 -0.027754899490261213 0 0.010445376442331646 -0.032270217764134732 0 0.010813615914596696 -0.036558395416141198 0 0.0088980348898373227 -0.035785091096323274 0 0.010813615914596696 -0.036558395416141198 0 0.0088980348898373227 -0.035785091096323274 0 0.0091108751092012462 -0.039335993409580397 0 0.010813615914596696 -0.036558395416141198 0 0.010790357115660244 -0.0401118089013138 0 0.0091108751092012462 -0.039335993409580397 0 0.012309267283933324 -0.038222156519452953 0 0.010813615914596696 -0.036558395416141198 0 0.010790357115660244 -0.0401118089013138 0 0.012358833207062892 -0.041332602887603362 0 0.012309267283933324 -0.038222156519452953 0 0.010790357115660244 -0.0401118089013138 0 0.012309267283933324 -0.038222156519452953 0 0.012480335491090781 -0.035099608685942335 0 0.010813615914596696 -0.036558395416141198 0 0.0082175256669194102 -0.023051229604644299 0 0.0067236006850492766 -0.019323410910137478 0 0.0084134060804588046 -0.020003907290326473 0 0.0094629415074581214 -0.023369377342217487 0 0.0077049074510959171 -0.023077033187136164 0 0.0082175256669194102 -0.023051229604644299 0 0.0067236006850492766 -0.019323410910137478 0 0.0063774525648428396 -0.022393674801273057 0 0.010983172954731548 -0.023684139733246738 0 0.01053155420817369 -0.027754899490261213 0 0.0090555664992759705 -0.023758764673454232 0 0.01053155420817369 -0.027754899490261213 0 0.0085264167596817292 -0.026590213298564917 0 0.0090555664992759705 -0.023758764673454232 0 0.010445376442331646 -0.032270217764134732 0 0.01053155420817369 -0.027754899490261213 0 0.0092676123757600599 -0.029530421350981113 0 0.01053155420817369 -0.027754899490261213 0 0.0092676123757600599 -0.029530421350981113 0 0.0085264167596817292 -0.026590213298564917 0 0.012076214338965737 -0.031983038222116622 0 0.01053155420817369 -0.027754899490261213 0 0.012862207712595395 -0.029551652774983783 0 0.010983172954731548 -0.023684139733246738 0 0.01053155420817369 -0.027754899490261213 0 0.012233873483657932 -0.026536245849258382 0 0.01053155420817369 -0.027754899490261213 0 0.012233873483657932 -0.026536245849258382 0 0.012862207712595395 -0.029551652774983783 0 0.012233873483657932 -0.026536245849258382 0 0.012862207712595395 -0.029551652774983783 0 0.014247029791945073 -0.027857894803849356 0 0.014349326221050304 -0.031407203696026717 0 0.012862207712595395 -0.029551652774983783 0 0.014247029791945073 -0.027857894803849356 0 0.012233873483657932 -0.026536245849258382 0 0.014247029791945073 -0.027857894803849356 0 0.012889328538320305 -0.024500651430957775 0 0.014247029791945073 -0.027857894803849356 0 0.012889328538320305 -0.024500651430957775 0 0.014841801710572283 -0.024733407515034368 0 0.010259109131866536 -0.023135561558648335 0 0.0084134060804588046 -0.020003907290326473 0 0.0093147573362485497 -0.01805747461631127 0 0.010259109131866536 -0.023135561558648335 0 0.011523409894051168 -0.020274930700313391 0 0.0093147573362485497 -0.01805747461631127 0 0.011856576568261563 -0.023811240424538613 0 0.012310608622935804 -0.024439491216330045 0 0.010983172954731548 -0.023684139733246738 0 0.012233873483657932 -0.026536245849258382 0 0.012889328538320305 -0.024500651430957775 0 0.0082175256669194102 -0.023051229604644299 0 0.010259109131866536 -0.023135561558648335 0 0.0084134060804588046 -0.020003907290326473 0 0.0094629415074581214 -0.023369377342217487 0 0.011856576568261563 -0.023811240424538613 0 0.010259109131866536 -0.023135561558648335 0 0.011523409894051168 -0.020274930700313391 0 0.012343442983728574 -0.024100497386814801 0 0.012310608622935804 -0.024439491216330045 0 0.020243131653479303 -0.02518499637884198 0 0.014841801710572283 -0.024733407515034368 0 0.016096872554092208 -0.027655737283472568 0 0.016856003133731368 -0.025917870471188795 0 0.011523409894051168 -0.020274930700313391 0 0.012343442983728574 -0.024100497386814801 0 0.014534146903336835 -0.024552780599585558 0 0.011523409894051168 -0.020274930700313391 0 0.014534146903336835 -0.024552780599585558 0 0.013133566810434941 -0.020263511831364153 0 0.014349326221050304 -0.031407203696026717 0 0.014247029791945073 -0.027857894803849356 0 0.016307111394292112 -0.030670008056184524 0 0.014247029791945073 -0.027857894803849356 0 0.016096872554092208 -0.027655737283472568 0 0.016307111394292112 -0.030670008056184524 0 0.014247029791945073 -0.027857894803849356 0 0.014841801710572283 -0.024733407515034368 0 0.016096872554092208 -0.027655737283472568 0 0.016096872554092208 -0.027655737283472568 0 0.016307111394292112 -0.030670008056184524 0 0.017711571841631642 -0.029074964127707166 0 0.018225424167681869 -0.033440396353088153 0 0.016307111394292112 -0.030670008056184524 0 0.017711571841631642 -0.029074964127707166 0 0.016096872554092208 -0.027655737283472568 0 0.017711571841631642 -0.029074964127707166 0 0.016856003133731368 -0.025917870471188795 0 0.017711571841631642 -0.029074964127707166 0 0.016856003133731368 -0.025917870471188795 0 0.018894671674444252 -0.02638793227590918 0 0.017711571841631642 -0.029074964127707166 0 0.019506550944008612 -0.030074855849423154 0 0.018894671674444252 -0.02638793227590918 0 0.018225424167681869 -0.033440396353088153 0 0.017711571841631642 -0.029074964127707166 0 0.019506550944008612 -0.030074855849423154 0 0.014534146903336835 -0.024552780599585558 0 0.014725032339572851 -0.022592782069661952 0 0.013133566810434941 -0.020263511831364153 0 0.020243131653479303 -0.02518499637884198 0 0.00049655264494157393 -0.026143592404572029 0 0.014534146903336835 -0.024552780599585558 0 0.016606598944547777 -0.025755022148393595 0 0.014725032339572851 -0.022592782069661952 0 0.016606598944547777 -0.025755022148393595 0 0.014725032339572851 -0.022592782069661952 0 0.015505667925590497 -0.02205662306724783 0 0.014725032339572851 -0.022592782069661952 0 0.013875413926432817 -0.019569038676605165 0 0.015505667925590497 -0.02205662306724783 0 0.013875413926432817 -0.019569038676605165 0 0.015505667925590497 -0.02205662306724783 0 0.014188586563566389 -0.018490203112863361 0 0.013875413926432817 -0.019569038676605165 0 0.013133566810434941 -0.020263511831364153 0 0.012249191600786854 -0.016765735896482184 0 0.014725032339572851 -0.022592782069661952 0 0.013875413926432817 -0.019569038676605165 0 0.013133566810434941 -0.020263511831364153 0 0.013875413926432817 -0.019569038676605165 0 0.012249191600786854 -0.016765735896482184 0 0.014188586563566389 -0.018490203112863361 0 0.012249191600786854 -0.016765735896482184 0 0.012448122811668853 -0.014803326292040576 0 0.0098465486363577548 -0.012553992641363502 0 0.012448122811668853 -0.014803326292040576 0 0.0098465486363577548 -0.012553992641363502 0 0.0082365769460371555 -0.0092090618865448767 0 0.012249191600786854 -0.016765735896482184 0 0.014188586563566389 -0.018490203112863361 0 0.012448122811668853 -0.014803326292040576 0 0.012249191600786854 -0.016765735896482184 0 0.0098465486363577548 -0.012553992641363502 0 0.010533056411016045 -0.016311528208328634 0 0.0098465486363577548 -0.012553992641363502 0 0.0076658868398345875 -0.011162617286711859 0 0.010533056411016045 -0.016311528208328634 0 0.0098465486363577548 -0.012553992641363502 0 0.0076658868398345875 -0.011162617286711859 0 0.0059247445239985876 -0.0072286183989655204 0 0.0076658868398345875 -0.011162617286711859 0 0.010533056411016045 -0.016311528208328634 0 0.0081419445783800972 -0.01396565468044377 0 0.011523409894051168 -0.020274930700313391 0 0.010533056411016045 -0.016311528208328634 0 0.0093147573362485497 -0.01805747461631127 0 0.011523409894051168 -0.020274930700313391 0 0.013133566810434941 -0.020263511831364153 0 0.010533056411016045 -0.016311528208328634 0 0.013133566810434941 -0.020263511831364153 0 0.012249191600786854 -0.016765735896482184 0 0.010533056411016045 -0.016311528208328634 0 3.1202717407801463e-07 -3.3782695455593808e-06 0 0.0030921544956575152 -0.0030930873099162775 0 0.0044046437723333463 -0.0046034193280559263 0 3.1202717407801463e-07 -3.3782695455593808e-06 0 4.7380358390819863e-06 -9.7239610420549152e-06 0 0.0030921544956575152 -0.0030930873099162775 0 4.7380358390819863e-06 -9.7239610420549152e-06 0 0.0062050703299660059 -0.0066725905000586221 0 0.0030921544956575152 -0.0030930873099162775 0 0.0062050703299660059 -0.0066725905000586221 0 0.0030921544956575152 -0.0030930873099162775 0 0.0070674701924334322 -0.0074336068425829962 0 0.0030921544956575152 -0.0030930873099162775 0 0.0044046437723333463 -0.0046034193280559263 0 0.0070674701924334322 -0.0074336068425829962 0 0.0044046437723333463 -0.0046034193280559263 0 0.0070674701924334322 -0.0074336068425829962 0 0.0082365769460371555 -0.0092090618865448767 0 0.0070674701924334322 -0.0074336068425829962 0 0.0098919280978024531 -0.010926219571914577 0 0.0082365769460371555 -0.0092090618865448767 0 0.0062050703299660059 -0.0066725905000586221 0 0.0070674701924334322 -0.0074336068425829962 0 0.0098919280978024531 -0.010926219571914577 0 0.012448122811668853 -0.014803326292040576 0 0.0098919280978024531 -0.010926219571914577 0 0.0082365769460371555 -0.0092090618865448767 0 0.0098465486363577548 -0.012553992641363502 0 0.0082365769460371555 -0.0092090618865448767 0 0.0059247445239985876 -0.0072286183989655204 0 0.0076658868398345875 -0.011162617286711859 0 0.0059247445239985876 -0.0072286183989655204 0 0.0050678704708426638 -0.0077325838667964353 0 0.0059247445239985876 -0.0072286183989655204 0 0.0027928789285995119 -0.0031930767336374329 0 0.0029968797018052437 -0.0041458492348072579 0 0.0044046437723333463 -0.0046034193280559263 0 0.0082365769460371555 -0.0092090618865448767 0 0.0059247445239985876 -0.0072286183989655204 0 0.0044046437723333463 -0.0046034193280559263 0 0.0059247445239985876 -0.0072286183989655204 0 0.0027928789285995119 -0.0031930767336374329 0 3.1202717407801463e-07 -3.3782695455593808e-06 0 0.0044046437723333463 -0.0046034193280559263 0 0.0027928789285995119 -0.0031930767336374329 0 0.0027928789285995119 -0.0031930767336374329 0 1.3165695466572246e-06 -4.6146101054495174e-06 0 5.6649653354184223e-07 -3.617105189273657e-06 0 3.1202717407801463e-07 -3.3782695455593808e-06 0 0.0027928789285995119 -0.0031930767336374329 0 1.3165695466572246e-06 -4.6146101054495174e-06 0 5.6649653354184223e-07 -3.617105189273657e-06 0 0.001523499943227392 -0.002339734939830679 0 6.8456809022325602e-07 -3.9408201765774299e-06 0 0.0027928789285995119 -0.0031930767336374329 0 5.6649653354184223e-07 -3.617105189273657e-06 0 0.0029968797018052437 -0.0041458492348072579 0 0.0029968797018052437 -0.0041458492348072579 0 0.001523499943227392 -0.002339734939830679 0 0.002847830022167144 -0.0050354982366957119 0 5.6649653354184223e-07 -3.617105189273657e-06 0 0.0029968797018052437 -0.0041458492348072579 0 0.001523499943227392 -0.002339734939830679 0 0.0029968797018052437 -0.0041458492348072579 0 0.0050678704708426638 -0.0077325838667964353 0 0.002847830022167144 -0.0050354982366957119 0 0.0059247445239985876 -0.0072286183989655204 0 0.0029968797018052437 -0.0041458492348072579 0 0.0050678704708426638 -0.0077325838667964353 0 0.0050678704708426638 -0.0077325838667964353 0 0.0043158025288411658 -0.008104562499930152 0 0.002847830022167144 -0.0050354982366957119 0 0.0050678704708426638 -0.0077325838667964353 0 0.0043158025288411658 -0.008104562499930152 0 0.006129846502864229 -0.010857433061443206 0 0.0043158025288411658 -0.008104562499930152 0 0.0031131399575420322 -0.0066681958060958403 0 0.002847830022167144 -0.0050354982366957119 0 0.0031131399575420322 -0.0066681958060958403 0 0.0044937425057558159 -0.010103419784302707 0 0.0025983779763967237 -0.0070255087241675729 0 0.0043158025288411658 -0.008104562499930152 0 0.0031131399575420322 -0.0066681958060958403 0 0.0044937425057558159 -0.010103419784302707 0 0.0031131399575420322 -0.0066681958060958403 0 0.002847830022167144 -0.0050354982366957119 0 0.0016029859049907415 -0.003498580907874162 0 0.001523499943227392 -0.002339734939830679 0 0.002847830022167144 -0.0050354982366957119 0 0.0011344505871114278 -0.0020790491611241031 0 0.002847830022167144 -0.0050354982366957119 0 0.0011344505871114278 -0.0020790491611241031 0 0.0016029859049907415 -0.003498580907874162 0 0.0011344505871114278 -0.0020790491611241031 0 0.0016029859049907415 -0.003498580907874162 0 4.4471768152598457e-07 -3.8072324844150828e-06 0 0.0011344505871114278 -0.0020790491611241031 0 6.8456809022325602e-07 -3.9408201765774299e-06 0 4.4471768152598457e-07 -3.8072324844150828e-06 0 0.001523499943227392 -0.002339734939830679 0 0.0011344505871114278 -0.0020790491611241031 0 6.8456809022325602e-07 -3.9408201765774299e-06 0 0.0068106072820217382 -0.01384225391990327 0 0.0093147573362485497 -0.01805747461631127 0 0.0071476250825468386 -0.016835067629179332 0 0.0068106072820217382 -0.01384225391990327 0 0.0093147573362485497 -0.01805747461631127 0 0.0081419445783800972 -0.01396565468044377 0 0.0084134060804588046 -0.020003907290326473 0 0.0093147573362485497 -0.01805747461631127 0 0.0071476250825468386 -0.016835067629179332 0 0.010533056411016045 -0.016311528208328634 0 0.0093147573362485497 -0.01805747461631127 0 0.0081419445783800972 -0.01396565468044377 0 0.0076658868398345875 -0.011162617286711859 0 0.0081419445783800972 -0.01396565468044377 0 0.006129846502864229 -0.010857433061443206 0 0.0076658868398345875 -0.011162617286711859 0 0.0050678704708426638 -0.0077325838667964353 0 0.006129846502864229 -0.010857433061443206 0 0.0068106072820217382 -0.01384225391990327 0 0.0081419445783800972 -0.01396565468044377 0 0.006129846502864229 -0.010857433061443206 0 0.0068106072820217382 -0.01384225391990327 0 0.0044937425057558159 -0.010103419784302707 0 0.0054654020527004172 -0.013667471177060075 0 0.0068106072820217382 -0.01384225391990327 0 0.006129846502864229 -0.010857433061443206 0 0.0044937425057558159 -0.010103419784302707 0 0.0043158025288411658 -0.008104562499930152 0 0.006129846502864229 -0.010857433061443206 0 0.0044937425057558159 -0.010103419784302707 0 0.0044937425057558159 -0.010103419784302707 0 0.0054654020527004172 -0.013667471177060075 0 0.0038872968755788852 -0.011403203028671101 0 0.0054654020527004172 -0.013667471177060075 0 0.0071476250825468386 -0.016835067629179332 0 0.0058319924247465342 -0.016481461111875491 0 0.0068106072820217382 -0.01384225391990327 0 0.0054654020527004172 -0.013667471177060075 0 0.0071476250825468386 -0.016835067629179332 0 0.0067236006850492766 -0.019323410910137478 0 0.0084134060804588046 -0.020003907290326473 0 0.0071476250825468386 -0.016835067629179332 0 0.0067236006850492766 -0.019323410910137478 0 0.0071476250825468386 -0.016835067629179332 0 0.0058319924247465342 -0.016481461111875491 0 0.0067236006850492766 -0.019323410910137478 0 0.0058319924247465342 -0.016481461111875491 0 0.0052099155830118704 -0.018424442142096584 0 0.0058319924247465342 -0.016481461111875491 0 0.0052099155830118704 -0.018424442142096584 0 0.0045124148146409434 -0.014277007813489362 0 0.0052099155830118704 -0.018424442142096584 0 0.0040025853302081251 -0.016343583069741457 0 0.0045124148146409434 -0.014277007813489362 0 0.0052099155830118704 -0.018424442142096584 0 0.0040025853302081251 -0.016343583069741457 0 0.0038352883692924743 -0.0191150749140978 0 0.0040025853302081251 -0.016343583069741457 0 0.0045124148146409434 -0.014277007813489362 0 0.0034051315986324661 -0.013548096627741365 0 0.0054654020527004172 -0.013667471177060075 0 0.0058319924247465342 -0.016481461111875491 0 0.0045124148146409434 -0.014277007813489362 0 0.0054654020527004172 -0.013667471177060075 0 0.0045124148146409434 -0.014277007813489362 0 0.0038872968755788852 -0.011403203028671101 0 0.0044937425057558159 -0.010103419784302707 0 0.0038872968755788852 -0.011403203028671101 0 0.0025983779763967237 -0.0070255087241675729 0 0.0038872968755788852 -0.011403203028671101 0 0.0026996937604439695 -0.010091535379662436 0 0.0025983779763967237 -0.0070255087241675729 0 0.0045124148146409434 -0.014277007813489362 0 0.0038872968755788852 -0.011403203028671101 0 0.0034051315986324661 -0.013548096627741365 0 0.0038872968755788852 -0.011403203028671101 0 0.0026996937604439695 -0.010091535379662436 0 0.0034051315986324661 -0.013548096627741365 0 0.0026996937604439695 -0.010091535379662436 0 0.0023196613523980151 -0.01346787755868524 0 0.0034051315986324661 -0.013548096627741365 0 0.0026996937604439695 -0.010091535379662436 0 0.0017169788180646376 -0.0078783400398438324 0 0.00161212557088633 -0.010484731984865639 0 0.0026996937604439695 -0.010091535379662436 0 0.0023196613523980151 -0.01346787755868524 0 0.00161212557088633 -0.010484731984865639 0 0.0023196613523980151 -0.01346787755868524 0 0.0029542870794686694 -0.016513895033489535 0 0.0016121134067273418 -0.017144903590662577 0 0.0029542870794686694 -0.016513895033489535 0 0.0016121134067273418 -0.017144903590662577 0 0.002459983505294412 -0.019580075217628921 0 0.0040025853302081251 -0.016343583069741457 0 0.0029542870794686694 -0.016513895033489535 0 0.0038352883692924743 -0.0191150749140978 0 0.0023196613523980151 -0.01346787755868524 0 0.0029542870794686694 -0.016513895033489535 0 0.0034051315986324661 -0.013548096627741365 0 0.0040025853302081251 -0.016343583069741457 0 0.0029542870794686694 -0.016513895033489535 0 0.0034051315986324661 -0.013548096627741365 0 3.8574881260737911e-07 -3.8193707119750691e-06 0 0.00072337951522368415 -0.0017803861205080386 0 0.0012233497118969759 -0.0037653080375193346 0 3.8574881260737911e-07 -3.8193707119750691e-06 0 0.0012233497118969759 -0.0037653080375193346 0 0.00059455748945863552 -0.0023824716562836422 0 0.0016029859049907415 -0.003498580907874162 0 4.4471768152598457e-07 -3.8072324844150828e-06 0 0.00072337951522368415 -0.0017803861205080386 0 3.8574881260737911e-07 -3.8193707119750691e-06 0 4.4471768152598457e-07 -3.8072324844150828e-06 0 0.00072337951522368415 -0.0017803861205080386 0 0.0016029859049907415 -0.003498580907874162 0 0.00072337951522368415 -0.0017803861205080386 0 0.0012233497118969759 -0.0037653080375193346 0 0.0012233497118969759 -0.0037653080375193346 0 0.0025983779763967237 -0.0070255087241675729 0 0.0019358060678170614 -0.0068548435497088637 0 0.0016029859049907415 -0.003498580907874162 0 0.0012233497118969759 -0.0037653080375193346 0 0.0025983779763967237 -0.0070255087241675729 0 0.0031131399575420322 -0.0066681958060958403 0 0.0016029859049907415 -0.003498580907874162 0 0.0025983779763967237 -0.0070255087241675729 0 0.0026996937604439695 -0.010091535379662436 0 0.0025983779763967237 -0.0070255087241675729 0 0.0019358060678170614 -0.0068548435497088637 0 0.0019358060678170614 -0.0068548435497088637 0 0.0017169788180646376 -0.0078783400398438324 0 0.0011310460594524219 -0.0049626197681806559 0 0.0026996937604439695 -0.010091535379662436 0 0.0019358060678170614 -0.0068548435497088637 0 0.0017169788180646376 -0.0078783400398438324 0 0.0017169788180646376 -0.0078783400398438324 0 0.0011226379829036041 -0.0071896460372124589 0 0.00161212557088633 -0.010484731984865639 0 0.0017169788180646376 -0.0078783400398438324 0 0.0011310460594524219 -0.0049626197681806559 0 0.0011226379829036041 -0.0071896460372124589 0 0.0011310460594524219 -0.0049626197681806559 0 0.0005136090760035234 -0.0031364116966289979 0 0.0011226379829036041 -0.0071896460372124589 0 0.0012233497118969759 -0.0037653080375193346 0 0.0019358060678170614 -0.0068548435497088637 0 0.0011310460594524219 -0.0049626197681806559 0 0.0012233497118969759 -0.0037653080375193346 0 0.0011310460594524219 -0.0049626197681806559 0 0.00059455748945863552 -0.0023824716562836422 0 0.0011310460594524219 -0.0049626197681806559 0 0.00059455748945863552 -0.0023824716562836422 0 0.0005136090760035234 -0.0031364116966289979 0 0.00059455748945863552 -0.0023824716562836422 0 2.9650581950500403e-07 -3.8454847214709933e-06 0 0.0005136090760035234 -0.0031364116966289979 0 3.8574881260737911e-07 -3.8193707119750691e-06 0 0.00059455748945863552 -0.0023824716562836422 0 2.9650581950500403e-07 -3.8454847214709933e-06 0 4.669029073489089e-08 -3.8484018749860616e-06 0 0.00018302267155538904 -0.0024802384944589591 0 1.6922408008677988e-07 -3.8678336045163563e-06 0 2.9650581950500403e-07 -3.8454847214709933e-06 0 4.669029073489089e-08 -3.8484018749860616e-06 0 0.0005136090760035234 -0.0031364116966289979 0 4.669029073489089e-08 -3.8484018749860616e-06 0 0.0005136090760035234 -0.0031364116966289979 0 0.00018302267155538904 -0.0024802384944589591 0 0.0005136090760035234 -0.0031364116966289979 0 0.00018302267155538904 -0.0024802384944589591 0 0.00043678234173461866 -0.0053662702473265961 0 0.0005136090760035234 -0.0031364116966289979 0 0.00043678234173461866 -0.0053662702473265961 0 0.0011226379829036041 -0.0071896460372124589 0 0.0011226379829036041 -0.0071896460372124589 0 0.00074900932755659862 -0.008130488471693351 0 0.00161212557088633 -0.010484731984865639 0 0.00043678234173461866 -0.0053662702473265961 0 0.0011226379829036041 -0.0071896460372124589 0 0.00074900932755659862 -0.008130488471693351 0 0.00074900932755659862 -0.008130488471693351 0 0.0002276147072199402 -0.0074126159238979599 0 0.00054269168656412433 -0.010730224614119059 0 0.00043678234173461866 -0.0053662702473265961 0 0.00074900932755659862 -0.008130488471693351 0 0.0002276147072199402 -0.0074126159238979599 0 0.0002276147072199402 -0.0074126159238979599 0 -0.00025917121059814091 -0.0085437560850447156 0 -4.1421568928848343e-05 -0.0040538959649255284 0 -0.00055090486189640164 -0.0065974484529475802 0 -0.00025917121059814091 -0.0085437560850447156 0 -4.1421568928848343e-05 -0.0040538959649255284 0 0.00043678234173461866 -0.0053662702473265961 0 0.0002276147072199402 -0.0074126159238979599 0 -4.1421568928848343e-05 -0.0040538959649255284 0 0.00018302267155538904 -0.0024802384944589591 0 -4.1421568928848343e-05 -0.0040538959649255284 0 1.6922408008677988e-07 -3.8678336045163563e-06 0 0.00018302267155538904 -0.0024802384944589591 0 0.00043678234173461866 -0.0053662702473265961 0 -4.1421568928848343e-05 -0.0040538959649255284 0 -1.6836809418277151e-07 -3.8377300347911584e-06 0 -4.1421568928848343e-05 -0.0040538959649255284 0 1.6922408008677988e-07 -3.8678336045163563e-06 0 0.0016121134067273418 -0.017144903590662577 0 0.0013056138147218216 -0.013285736411185753 0 0.00049425440736339981 -0.014749568257597951 0 0.0016121134067273418 -0.017144903590662577 0 0.00049425440736339981 -0.014749568257597951 0 0.00031264185174316613 -0.018750849512249201 0 0.0023196613523980151 -0.01346787755868524 0 0.0016121134067273418 -0.017144903590662577 0 0.0013056138147218216 -0.013285736411185753 0 0.0023196613523980151 -0.01346787755868524 0 0.0013056138147218216 -0.013285736411185753 0 0.00161212557088633 -0.010484731984865639 0 0.00074900932755659862 -0.008130488471693351 0 0.00161212557088633 -0.010484731984865639 0 0.00054269168656412433 -0.010730224614119059 0 0.0013056138147218216 -0.013285736411185753 0 0.00161212557088633 -0.010484731984865639 0 0.00054269168656412433 -0.010730224614119059 0 0.0013056138147218216 -0.013285736411185753 0 0.00054269168656412433 -0.010730224614119059 0 0.00049425440736339981 -0.014749568257597951 0 0.00054269168656412433 -0.010730224614119059 0 -0.00024911998034271896 -0.012220573154506444 0 0.00049425440736339981 -0.014749568257597951 0 0.0002276147072199402 -0.0074126159238979599 0 -0.00025917121059814091 -0.0085437560850447156 0 0.00054269168656412433 -0.010730224614119059 0 -0.00072997919260785551 -0.010287644163127213 0 -0.00025917121059814091 -0.0085437560850447156 0 -0.00024911998034271896 -0.012220573154506444 0 -0.00025917121059814091 -0.0085437560850447156 0 0.00054269168656412433 -0.010730224614119059 0 -0.00024911998034271896 -0.012220573154506444 0 -0.00024911998034271896 -0.012220573154506444 0 -0.00049509107686241977 -0.015323078747107494 0 0.00049425440736339981 -0.014749568257597951 0 -0.00049509107686241977 -0.015323078747107494 0 0.00049425440736339981 -0.014749568257597951 0 0.00031264185174316613 -0.018750849512249201 0 -0.00083271188441208499 -0.018907100762760972 0 -0.00049509107686241977 -0.015323078747107494 0 0.00031264185174316613 -0.018750849512249201 0 -0.00083271188441208499 -0.018907100762760972 0 -0.0007007884480165255 -0.02309729669334443 0 0.00031264185174316613 -0.018750849512249201 0 -0.0007007884480165255 -0.02309729669334443 0 0.0013881808528592261 -0.023683708341650307 0 0.00063707355600656267 -0.026106501369014112 0 -0.0007007884480165255 -0.02309729669334443 0 0.00039188036749032755 -0.022318618470078898 0 0.00031264185174316613 -0.018750849512249201 0 -0.0078527754532165366 -0.02283780410342327 0 0.0027785395012250498 -0.023158126811912247 0 0.00039188036749032755 -0.022318618470078898 0 0.00031264185174316613 -0.018750849512249201 0 0.0011448953833319573 -0.020171905158140584 0 0.0016121134067273418 -0.017144903590662577 0 0.00031264185174316613 -0.018750849512249201 0 0.0011448953833319573 -0.020171905158140584 0 0.0027785395012250498 -0.023158126811912247 0 0.001982702343802524 -0.022846964226559081 0 0.00039188036749032755 -0.022318618470078898 0 0.0011448953833319573 -0.020171905158140584 0 0.001725435214603828 -0.022576618261178651 0 0.001982702343802524 -0.022846964226559081 0 0.0043073021665904479 -0.022886758333754066 0 0.0011448953833319573 -0.020171905158140584 0 0.001725435214603828 -0.022576618261178651 0 0.002459983505294412 -0.019580075217628921 0 0.0016121134067273418 -0.017144903590662577 0 0.0011448953833319573 -0.020171905158140584 0 0.002459983505294412 -0.019580075217628921 0 0.0041774206862651118 -0.026543010474248938 0 0.0021449233993815144 -0.027804567506498772 0 0.0037178975200819597 -0.030037625082713498 0 0.0033345752533491865 -0.023209528388800849 0 0.0041774206862651118 -0.026543010474248938 0 0.0052691824776879542 -0.023548485595888673 0 0.0033345752533491865 -0.023209528388800849 0 0.0041774206862651118 -0.026543010474248938 0 0.0021449233993815144 -0.027804567506498772 0 0.0013881808528592261 -0.023683708341650307 0 0.0033345752533491865 -0.023209528388800849 0 0.0021449233993815144 -0.027804567506498772 0 0.0021449233993815144 -0.027804567506498772 0 0.00063707355600656267 -0.026106501369014112 0 0.00045464002163710365 -0.031239271515732976 0 0.0013881808528592261 -0.023683708341650307 0 0.0021449233993815144 -0.027804567506498772 0 0.00063707355600656267 -0.026106501369014112 0 -0.00069960043492397453 -0.027708847580412439 0 -0.0007007884480165255 -0.02309729669334443 0 0.00063707355600656267 -0.026106501369014112 0 -0.00069960043492397453 -0.027708847580412439 0 0.00063707355600656267 -0.026106501369014112 0 0.00045464002163710365 -0.031239271515732976 0 0.0021449233993815144 -0.027804567506498772 0 0.00045464002163710365 -0.031239271515732976 0 0.0025143986267354714 -0.033038299961777783 0 0.00045464002163710365 -0.031239271515732976 0 0.00087292010311444343 -0.036787265397117755 0 0.0025143986267354714 -0.033038299961777783 0 -0.0010129641089088044 -0.035328079749483508 0 0.00045464002163710365 -0.031239271515732976 0 0.00087292010311444343 -0.036787265397117755 0 -0.001165272993098388 -0.03981156551434395 0 0.00046575901466943727 -0.041042886896550945 0 0.00087292010311444343 -0.036787265397117755 0 -0.001165272993098388 -0.03981156551434395 0 -0.0010129641089088044 -0.035328079749483508 0 0.00087292010311444343 -0.036787265397117755 0 0.00046575901466943727 -0.041042886896550945 0 0.0022420700186608399 -0.040300691672699521 0 0.00087292010311444343 -0.036787265397117755 0 0.0022420700186608399 -0.040300691672699521 0 0.0025136432990405851 -0.036932925772193939 0 0.0039071366289130565 -0.038841404465008056 0 0.0022420700186608399 -0.040300691672699521 0 0.00087292010311444343 -0.036787265397117755 0 0.0025136432990405851 -0.036932925772193939 0 0.0025136432990405851 -0.036932925772193939 0 0.0038416259399604918 -0.035612655847609635 0 0.0025143986267354714 -0.033038299961777783 0 0.00087292010311444343 -0.036787265397117755 0 0.0025136432990405851 -0.036932925772193939 0 0.0025143986267354714 -0.033038299961777783 0 0.0025136432990405851 -0.036932925772193939 0 0.0038416259399604918 -0.035612655847609635 0 0.0039071366289130565 -0.038841404465008056 0 0.0021449233993815144 -0.027804567506498772 0 0.0025143986267354714 -0.033038299961777783 0 0.0037178975200819597 -0.030037625082713498 0 0.0038416259399604918 -0.035612655847609635 0 0.0025143986267354714 -0.033038299961777783 0 0.0049476147661582232 -0.032582516533226275 0 0.0025143986267354714 -0.033038299961777783 0 0.0037178975200819597 -0.030037625082713498 0 0.0049476147661582232 -0.032582516533226275 0 0.0037178975200819597 -0.030037625082713498 0 0.0049476147661582232 -0.032582516533226275 0 0.0055278303275209627 -0.028088713731471152 0 0.0049476147661582232 -0.032582516533226275 0 0.0054403918094925556 -0.036631065106307981 0 0.0069355637022665839 -0.034238093401884689 0 0.0049476147661582232 -0.032582516533226275 0 0.0066206296589105774 -0.030559437039950413 0 0.0069355637022665839 -0.034238093401884689 0 0.0049476147661582232 -0.032582516533226275 0 0.0066206296589105774 -0.030559437039950413 0 0.0055278303275209627 -0.028088713731471152 0 0.0039071366289130565 -0.038841404465008056 0 0.0054771148751144218 -0.040017489331718163 0 0.0054403918094925556 -0.036631065106307981 0 0.0038416259399604918 -0.035612655847609635 0 0.0039071366289130565 -0.038841404465008056 0 0.0054403918094925556 -0.036631065106307981 0 0.0038416259399604918 -0.035612655847609635 0 0.0049476147661582232 -0.032582516533226275 0 0.0054403918094925556 -0.036631065106307981 0 0.0054403918094925556 -0.036631065106307981 0 0.0071744166600450857 -0.03867945462457175 0 0.0069355637022665839 -0.034238093401884689 0 0.0054771148751144218 -0.040017489331718163 0 0.0054403918094925556 -0.036631065106307981 0 0.0071744166600450857 -0.03867945462457175 0 0.0080402092839742811 -0.042025263517080261 0 0.0071744166600450857 -0.03867945462457175 0 0.0091108751092012462 -0.039335993409580397 0 0.0071744166600450857 -0.03867945462457175 0 0.0088980348898373227 -0.035785091096323274 0 0.0069355637022665839 -0.034238093401884689 0 0.0071744166600450857 -0.03867945462457175 0 0.0088980348898373227 -0.035785091096323274 0 0.0091108751092012462 -0.039335993409580397 0 0.0066206296589105774 -0.030559437039950413 0 0.0084743355154721766 -0.032009659166913604 0 0.0079492760665882921 -0.028962192198497154 0 0.0088980348898373227 -0.035785091096323274 0 0.0069355637022665839 -0.034238093401884689 0 0.0084743355154721766 -0.032009659166913604 0 0.0066206296589105774 -0.030559437039950413 0 0.0069355637022665839 -0.034238093401884689 0 0.0084743355154721766 -0.032009659166913604 0 0.010445376442331646 -0.032270217764134732 0 0.0088980348898373227 -0.035785091096323274 0 0.0084743355154721766 -0.032009659166913604 0 0.0084743355154721766 -0.032009659166913604 0 0.0092676123757600599 -0.029530421350981113 0 0.0079492760665882921 -0.028962192198497154 0 0.010445376442331646 -0.032270217764134732 0 0.0084743355154721766 -0.032009659166913604 0 0.0092676123757600599 -0.029530421350981113 0 0.0092676123757600599 -0.029530421350981113 0 0.0079492760665882921 -0.028962192198497154 0 0.0085264167596817292 -0.026590213298564917 0 0.0079492760665882921 -0.028962192198497154 0 0.0068044822237639064 -0.02636166718076785 0 0.0085264167596817292 -0.026590213298564917 0 0.0066206296589105774 -0.030559437039950413 0 0.0079492760665882921 -0.028962192198497154 0 0.0068044822237639064 -0.02636166718076785 0 0.0068044822237639064 -0.02636166718076785 0 0.0085264167596817292 -0.026590213298564917 0 0.0071900529861617926 -0.023227120510659921 0 0.0052099155830118704 -0.018424442142096584 0 0.0063774525648428396 -0.022393674801273057 0 0.0047076494699074259 -0.022594210382612921 0 0.0077049074510959171 -0.023077033187136164 0 0.0058627187390392771 -0.022903028780870353 0 0.0085264167596817292 -0.026590213298564917 0 0.0090555664992759705 -0.023758764673454232 0 0.0071900529861617926 -0.023227120510659921 0 0.0067236006850492766 -0.019323410910137478 0 0.0052099155830118704 -0.018424442142096584 0 0.0063774525648428396 -0.022393674801273057 0 0.0052099155830118704 -0.018424442142096584 0 0.0047076494699074259 -0.022594210382612921 0 0.0038352883692924743 -0.0191150749140978 0 0.0047076494699074259 -0.022594210382612921 0 0.0038352883692924743 -0.0191150749140978 0 0.0031480246275209776 -0.02218339572439125 0 0.0068044822237639064 -0.02636166718076785 0 0.0071900529861617926 -0.023227120510659921 0 0.0052691824776879542 -0.023548485595888673 0 0.0058627187390392771 -0.022903028780870353 0 0.0043073021665904479 -0.022886758333754066 0 0.0038352883692924743 -0.0191150749140978 0 0.002459983505294412 -0.019580075217628921 0 0.0031480246275209776 -0.02218339572439125 0 0.0029542870794686694 -0.016513895033489535 0 0.0038352883692924743 -0.0191150749140978 0 0.002459983505294412 -0.019580075217628921 0 0.001725435214603828 -0.022576618261178651 0 0.002459983505294412 -0.019580075217628921 0 0.0031480246275209776 -0.02218339572439125 0 0.0041774206862651118 -0.026543010474248938 0 0.0052691824776879542 -0.023548485595888673 0 0.0055278303275209627 -0.028088713731471152 0 0.0041774206862651118 -0.026543010474248938 0 0.0037178975200819597 -0.030037625082713498 0 0.0055278303275209627 -0.028088713731471152 0 0.0066206296589105774 -0.030559437039950413 0 0.0068044822237639064 -0.02636166718076785 0 0.0055278303275209627 -0.028088713731471152 0 0.0068044822237639064 -0.02636166718076785 0 0.0052691824776879542 -0.023548485595888673 0 0.0055278303275209627 -0.028088713731471152 0 
</DataArray>
</PointData>
<CellData Scalars="region_id,cross_section_updated,displacement_divergence," Vectors="" Tensors="stress,">
<DataArray type="Float64" Name="region_id" format="ascii">
1 1 1 1 1 1 1 1 1 1 1 1 1 1 1 1 1 1 1 1 1 1 1 1 1 1 1 1 1 1 1 1 1 1 1 1 1 1 1 1 1 1 1 1 1 1 1 1 1 1 1 1 1 1 1 1 1 1 1 1 1 1 1 1 1 1 1 1 1 1 1 1 1 1 1 1 1 1 1 1 1 1 1 1 1 1 1 1 1 1 1 1 1 1 1 1 1 1 1 1 1 1 1 1 1 1 1 1 1 1 1 1 1 1 1 1 1 1 1 1 1 1 1 1 1 1 1 1 1 1 1 1 1 1 1 1 1 1 1 1 1 1 1 1 1 1 1 1 1 1 1 1 1 1 1 1 1 1 1 1 1 1 1 1 1 1 1 1 1 1 1 1 1 1 1 1 1 1 1 1 1 1 1 1 1 1 1 1 1 1 1 1 1 1 1 1 1 1 1 1 1 1 1 1 1 1 1 1 1 1 1 1 1 1 1 1 1 1 1 1 1 1 1 1 1 1 1 1 1 1 1 1 1 1 1 1 1 1 1 1 1 1 1 1 1 1 1 1 1 1 1 1 1 1 1 1 1 1 1 1 1 1 1 1 1 1 1 1 1 1 1 1 1 1 1 1 1 1 1 1 1 1 1 1 1 1 1 1 1 1 1 1 1 1 1 1 1 1 1 1 1 1 1 1 1 1 1 1 1 1 1 1 1 1 1 1 1 1 1 1 1 1 1 1 1 1 1 1 1 1 1 1 1 1 1 1 1 1 1 1 1 1 1 1 1 1 1 1 1 1 1 1 1 1 1 1 1 1 1 1 1 1 1 1 1 1 1 1 1 1 1 1 1 1 1 1 1 1 1 1 1 1 1 1 1 1 1 1 1 1 1 1 1 1 1 1 1 1 1 1 1 1 1 1 1 1 1 1 1 1 1 1 1 1 1 1 1 1 1 1 1 1 1 1 1 1 1 1 1 1 1 1 1 1 1 1 1 1 1 1 1 1 1 1 1 1 1 1 1 1 1 1 1 1 1 1 1 1 1 1 1 1 1 1 1 1 1 1 1 1 1 1 1 1 1 1 1 1 1 1 1 1 1 1 1 1 1 1 1 1 1 1 1 1 1 1 1 1 1 1 1 1 1 1 1 1 1 1 1 1 1 1 1 1 1 1 1 1 1 1 1 1 1 1 1 1 1 1 1 1 1 1 1 1 1 1 1 1 3 1 1 3 1 1 3 1 1 1 1 1 1 1 1 1 1 1 1 1 3 1 1 1 1 1 3 1 1 1 1 1 1 1 1 1 1 1 1 1 1 1 1 1 1 1 1 1 1 1 1 1 1 1 1 1 1 1 1 1 1 1 1 1 1 1 1 1 1 1 1 1 1 1 1 1 1 1 1 1 1 1 1 1 1 1 1 1 1 1 1 1 1 1 1 1 1 1 1 1 1 1 1 1 1 1 1 1 1 1 1 1 1 1 1 1 1 1 1 1 1 1 1 1 1 1 1 1 1 1 1 1 1 1 1 1 1 1 1 1 1 1 1 1 1 1 1 1 1 1 1 1 1 1 1 1 1 1 1 1 1 1 1 1 1 1 1 1 1 1 1 1 1 1 1 1 1 1 1 1 1 1 1 1 1 1 1 1 1 1 1 1 1 1 1 3 1 1 1 3 1 1 3 1 1 1 1 1 1 1 1 1 1 1 3 1 1 1 1 3 1 1 1 1 1 1 1 1 1 1 1 1 1 1 1 1 1 1 1 1 1 1 1 1 1 1 1 1 1 1 1 1 1 1 1 1 1 1 1 1 1 1 1 1 1 1 1 1 1 1 1 1 1 1 1 1 1 1 2 1 1 1 1 1 1 1 1 1 1 1 1 1 1 2 1 1 2 1 2 1 1 1 1 1 1 1 1 1 1 1 1 1 2 1 1 1 1 1 1 1 1 1 1 1 1 1 1 1 1 1 1 1 1 1 1 1 1 1 1 1 1 1 1 1 1 1 1 1 1 1 1 1 1 1 1 1 1 1 1 1 1 1 1 1 1 1 1 1 1 1 1 1 1 1 1 1 1 1 1 1 1 1 1 1 1 1 1 1 1 1 1 1 1 1 1 1 1 1 1 1 1 1 1 1 1 1 1 1 1 1 1 1 1 1 1 1 1 1 1 1 1 1 1 1 1 1 1 1 1 1 1 1 1 1 1 1 1 1 1 1 1 1 1 1 1 1 1 1 1 2 1 1 2 1 2 1 1 1 1 1 1 1 1 1 1 1 1 1 1 1 1 1 1 1 1 1 1 1 1 1 1 1 1 1 1 1 1 1 1 1 1 1 1 1 1 1 1 1 1 1 1 1 2 1 1 1 1 1 2 1 1 1 1 1 1 1 
</DataArray>
<DataArray type="Float64" Name="stress" NumberOfComponents="9" format="ascii">
-4283.8332540946058 -3058.1310286721932 0 -3058.1310286721932 -12871.502827253527 0 0 0 -4288.8340203370335 -2235.9392652407159 -3052.9547732550209 0 -3052.9547732550209 -15387.428662832408 0 0 0 -4405.8419820182808 -2947.0466970591183 -2208.2919229122917 0 -2208.2919229122917 -10826.561975814855 0 0 0 -3443.4021682184934 -1115.7972980474306 -2316.5701868176548 0 -2316.5701868176548 -13545.374944663938 0 0 0 -3665.2930606778436 -405.44136596092756 -885.86182510328763 0 -885.86182510328763 -11060.62214003448 0 0 0 -2866.5158764988541 12.757924493833343 -337.67687516637301 0 -337.67687516637301 -9662.3877423879276 0 0 0 -2412.4074544735249 -1153.6342125375872 -1767.5332194275579 0 -1767.5332194275579 -11601.290225468339 0 0 0 -3188.7311095014834 -122.2745636425152 -977.9642340706547 0 -977.9642340706547 -10933.389656460209 0 0 0 -2763.9160550256802 -82.04489580875088 -943.81402090171377 0 -943.81402090171377 -10035.031671822006 0 0 0 -2529.2691419076873 -689.39112422988819 -1277.5721950077441 0 -1277.5721950077441 -10479.293470833398 0 0 0 -2792.1711487658213 -1430.2685784017722 -1466.7238356008004 0 -1466.7238356008004 -10178.192729041748 0 0 0 -2902.1153268608796 -728.22141153044595 -1271.7735920145424 0 -1271.7735920145424 -9837.2732026868835 0 0 0 -2641.373653554333 -2194.8126726671057 -1874.9393165354045 0 -1874.9393165354045 -10009.314867077341 0 0 0 -3051.0318849361115 -1242.0477158383092 -1767.1651235550567 0 -1767.1651235550567 -9967.90262451327 0 0 0 -2802.4875850878943 -3370.3367470539938 -2300.5131487622043 0 -2300.5131487622043 -10113.100530238946 0 0 0 -3370.859319323235 -3653.6936447144362 -2803.6206544078941 0 -2803.6206544078941 -10958.332909950363 0 0 0 -3653.0066386661997 -1931.4451888165481 -2058.0063458559748 0 -2058.0063458559748 -9676.8819582716133 0 0 0 -2902.0817867720398 -2223.8560370909877 -2107.0857037616015 0 -2107.0857037616015 -10537.664553511499 0 0 0 -3190.3801476506219 -3.7988176484432188 -78.052682940679006 0 -78.052682940679006 -8919.4684085798217 0 0 0 -2230.8168065570644 44.39015544610811 -89.07381551603612 0 -89.07381551603612 -9456.5135391373988 0 0 0 -2353.0308459228254 -15.968874239254546 -247.83632683453834 0 -247.83632683453834 -9420.1692928333578 0 0 0 -2359.0345417681501 144.72515922823186 -198.62653062762365 0 -198.62653062762365 -9539.2746757493151 0 0 0 -2348.6373791302703 -256.50735931038798 -636.96896138454031 0 -636.96896138454031 -10483.767330981402 0 0 0 -2685.0686725729465 39.71059774376954 -447.47314189203826 0 -447.47314189203826 -10056.403968363094 0 0 0 -2504.173342654829 -44.70896417230324 -211.20038219419348 0 -211.20038219419348 -9176.0414236453944 0 0 0 -2305.1875969544235 -133.61817715115467 -869.87036891735352 0 -869.87036891735352 -9968.6076251457416 0 0 0 -2525.5564505742223 -933.25940634389133 -1151.9912930095943 0 -1151.9912930095943 -10200.899686087354 0 0 0 -2783.5397731078115 -353.9155531173983 -704.21324888508025 0 -704.21324888508025 -9922.4049061033511 0 0 0 -2569.0801148051869 -104.97431121685759 -430.9351107188977 0 -430.9351107188977 -9665.629042606397 0 0 0 -2442.6508384558124 -167.17003513495183 -722.86345836451073 0 -722.86345836451073 -9986.7796504807702 0 0 0 -2538.4874214039319 52.228760743782914 -243.83156553816298 0 -243.83156553816298 -9760.9875529163328 0 0 0 -2427.1896980431375 26.020444561745535 -126.23021854389935 0 -126.23021854389935 -9330.4819438313716 0 0 0 -2326.1153748174074 -2.8496139362214308 -420.97816092313377 0 -420.97816092313377 -9725.1460185293836 0 0 0 -2431.9989081164022 -226.98193101850848 -570.53929124683782 0 -570.53929124683782 -9732.2420262912128 0 0 0 -2489.8059893274294 -225.59704541645806 -585.64462538408043 0 -585.64462538408043 -9611.1146131514543 0 0 0 -2459.1779146419794 -840.14240265999615 -918.24161266628107 0 -918.24161266628107 -9620.1829995224944 0 0 0 -2615.0813505456244 -355.58293186327955 -791.49792911604163 0 -791.49792911604163 -9735.638300655577 0 0 0 -2522.8053081297148 -582.08455158896504 -902.73169139926995 0 -902.73169139926995 -9839.8613921121796 0 0 0 -2605.4864859252866 -924.30300942366375 -1225.2719176477585 0 -1225.2719176477585 -9635.7457185141975 0 0 0 -2640.0121819844662 -1078.6687620256962 -908.17543044947888 0 -908.17543044947888 -9465.6653065177961 0 0 0 -2636.083517135874 -1016.596019081936 -889.31733516995155 0 -889.31733516995155 -9436.3409598187172 0 0 0 -2613.234244725164 -681.22008073363577 -696.49467457651008 0 -696.49467457651008 -9293.1462547332267 0 0 0 -2493.5915838667152 -738.58444757510301 -920.48168174822968 0 -920.48168174822968 -9588.1955772777619 0 0 0 -2581.6950062132137 -419.56350747533361 -662.2097309965593 0 -662.2097309965593 -9683.7524901388097 0 0 0 -2525.8289994035367 -551.55647567719643 -638.84475057226382 0 -638.84475057226382 -9487.4859729534146 0 0 0 -2509.7606121576537 -742.8081588113705 -694.06714413469126 0 -694.06714413469126 -9525.9370759823032 0 0 0 -2567.186308698419 -196.31355139519292 -441.37700384684285 0 -441.37700384684285 -9555.6352056828655 0 0 0 -2437.9871892695155 -180.40556536067743 -409.08174152824267 0 -409.08174152824267 -9524.549811968398 0 0 0 -2426.2388443322707 -2423.0509194553306 -1736.5056355239149 0 -1736.5056355239149 -9452.2437287089506 0 0 0 -2968.8236620410703 -1913.4364528750011 -1457.2479650882133 0 -1457.2479650882133 -9262.6954914366597 0 0 0 -2794.0329860779166 -3075.6482235891144 -1681.4007263618184 0 -1681.4007263618184 -9226.7603253500401 0 0 0 -3075.6021372347882 -2165.8055013888425 -1800.266934133547 0 -1800.266934133547 -9377.8315909033499 0 0 0 -2885.909273073049 -1209.4181163169105 -1556.4846908627187 0 -1556.4846908627187 -9472.9472968104837 0 0 0 -2670.5913532818486 -1445.2705633495611 -1356.9861363726632 0 -1356.9861363726632 -9878.9988955939752 0 0 0 -2831.067364735884 -1421.6922809165894 -1257.0912826201393 0 -1257.0912826201393 -9503.1750593543602 0 0 0 -2731.216835067738 -1841.2817485184246 -1551.4999052237163 0 -1551.4999052237163 -9611.1840347597754 0 0 0 -2863.1164458195512 -1266.3188102596196 -1179.9895454871139 0 -1179.9895454871139 -9410.9819582528035 0 0 0 -2669.3251921281062 -1842.0788127639462 -1162.8920032625656 0 -1162.8920032625656 -9343.7192736422421 0 0 0 -2796.4495216015475 -1452.1234296984903 -1089.3813990398367 0 -1089.3813990398367 -9185.2832154740063 0 0 0 -2659.3516612931226 -1708.809052174618 -1277.8757119769493 0 -1277.8757119769493 -9005.8053465891953 0 0 0 -2678.6535996909543 -2345.2619597537205 -1260.7645754973764 0 -1260.7645754973764 -9158.7648236977111 0 0 0 -2876.0066958628577 -2403.9278694215373 -1490.1122995982073 0 -1490.1122995982073 -9353.2458362028865 0 0 0 -2939.293426406105 -2251.3314000988144 -1497.8755707987432 0 -1497.8755707987432 -8869.1903038731652 0 0 0 -2780.1304259929952 -2999.4967137054396 -1421.3010644590079 0 -1421.3010644590079 -8998.9005285983421 0 0 0 -2999.5993105759453 -2948.0220871410884 -1195.7671543409801 0 -1195.7671543409801 -8845.7155814412254 0 0 0 -2948.4344171455782 -2237.9433398643873 -1241.7594755963701 0 -1241.7594755963701 -8670.1373279712643 0 0 0 -2727.0201669589133 -2248.1951236255072 -1016.9724630913656 0 -1016.9724630913656 -8516.1771876475104 0 0 0 -2691.0930778182546 -2864.6040269796677 -982.33310574988923 0 -982.33310574988923 -8593.8689472004207 0 0 0 -2864.6182435450223 -2279.40447400627 -771.41235103422673 0 -771.41235103422673 -8653.3529744950647 0 0 0 -2733.1893621253334 -2142.9813042456244 -713.37418054525006 0 -713.37418054525006 -8584.5957511913548 0 0 0 -2681.8942638592434 -2244.7007294652117 -834.13602365582301 0 -834.13602365582301 -8327.2861963632149 0 0 0 -2642.9967314571068 -2828.2853639764512 -811.95008858266442 0 -811.95008858266442 -8485.4253325030659 0 0 0 -2828.4276741198796 -1652.5818525844425 -614.58995805065479 0 -614.58995805065479 -8851.159677677977 0 0 0 -2625.9353825656053 -1411.3055517285538 -643.90510352629371 0 -643.90510352629371 -8763.5752002953195 0 0 0 -2543.7201880059679 -1847.7219752121505 -813.53868145551223 0 -813.53868145551223 -8649.4326593959231 0 0 0 -2624.288658652019 -1956.6137931512421 -807.23609937293713 0 -807.23609937293713 -8976.8443767398676 0 0 0 -2733.3645424727756 -1386.6763921572265 -811.51150243598295 0 -811.51150243598295 -8844.89979704504 0 0 0 -2557.894047300565 -2224.3488571139869 -887.94780893193069 0 -887.94780893193069 -8802.1654246567141 0 0 0 -2756.6285704426764 -1913.2869003051401 -998.6847394072438 0 -998.6847394072438 -9020.2831598192915 0 0 0 -2733.3925150311075 -1758.1912018475268 -1038.2382429121944 0 -1038.2382429121944 -8969.0509682163065 0 0 0 -2681.8105425159592 -1327.5983449699415 -883.90610551968484 0 -883.90610551968484 -9260.4560632286666 0 0 0 -2647.013602049652 -1020.68734269386 -794.94189884324078 0 -794.94189884324078 -9102.8503982250186 0 0 0 -2530.8844352297201 -1115.0214708183157 -738.89348040431935 0 -738.89348040431935 -9383.8330498539581 0 0 0 -2624.7136301680712 -1128.0756935919289 -619.8032441439027 0 -619.8032441439027 -9207.3867473560858 0 0 0 -2583.8656102370041 -713.44403734919979 -604.17605048520272 0 -604.17605048520272 -9185.0649364882884 0 0 0 -2474.627243459372 -1485.6660332251049 -809.74286015425253 0 -809.74286015425253 -9145.4890061365222 0 0 0 -2657.7887598404068 -462.87851485547799 -450.05660154128054 0 -450.05660154128054 -9464.08786049216 0 0 0 -2481.7415938369086 -395.48555650583512 -527.92609126021443 0 -527.92609126021443 -9350.4126244232539 0 0 0 -2436.4745452322713 -793.89819952270864 -548.93802566432169 0 -548.93802566432169 -9385.9583551224969 0 0 0 -2544.9641386613048 -444.20692764753767 -377.27142124631519 0 -377.27142124631519 -9358.7426193908614 0 0 0 -2450.7373867596034 -388.23800631268023 -403.82169296403345 0 -403.82169296403345 -9212.7454926984792 0 0 0 -2400.2458747527926 -752.35267517016291 -414.35077751583231 0 -414.35077751583231 -9166.8365895129136 0 0 0 -2479.7973161707687 -574.51064138443508 -366.90868661922468 0 -366.90868661922468 -9080.9595456518582 0 0 0 -2413.8675467590729 -401.30723281061728 -204.47035390391011 0 -204.47035390391011 -9085.1120233798647 0 0 0 -2371.6048140476196 -1028.6768103806317 -672.96174318755584 0 -672.96174318755584 -8945.2994231575649 0 0 0 -2493.494058384551 -1410.718493973633 -676.45642939242862 0 -676.45642939242862 -9055.0681080137256 0 0 0 -2616.4466504968391 -815.98027920301047 -547.15697860383807 0 -547.15697860383807 -9074.2851779853845 0 0 0 -2472.5663642970967 -1085.3640350610774 -485.9346237315367 0 -485.9346237315367 -8964.2609018725925 0 0 0 -2512.4062342334191 -1042.892759236167 -508.6580553891099 0 -508.6580553891099 -8957.2926411532644 0 0 0 -2500.0463500973565 -1235.1079604882934 -446.70948304532067 0 -446.70948304532067 -8770.4710216564963 0 0 0 -2501.3947455361977 -1039.0957312470564 -250.25801880917606 0 -250.25801880917606 -8869.279454075815 0 0 0 -2477.093796330716 -1292.6381382437266 -401.3955528947522 0 -401.3955528947522 -8789.1595067961825 0 0 0 -2520.4494112599778 -350.45026231774864 -201.29709818695483 0 -201.29709818695483 -9068.1575241715691 0 0 0 -2354.6519466223308 -848.58785495403572 -327.82291597650874 0 -327.82291597650874 -8973.2329474635626 0 0 0 -2455.4552006043996 -737.7064087701342 -299.11290318037027 0 -299.11290318037027 -8925.3662182553689 0 0 0 -2415.7681567563754 -555.31305332471857 -161.61828509202496 0 -161.61828509202496 -8956.5978033988431 0 0 0 -2377.9777141808918 -531.39428346010391 -150.01515870627372 0 -150.01515870627372 -8945.6507018976263 0 0 0 -2369.2612463394307 -745.68949973270901 -80.700636563338776 0 -80.700636563338776 -8901.7934070741321 0 0 0 -2411.8707267017089 -755.74948629149367 61.369457338421853 0 61.369457338421853 -8731.7759552036514 0 0 0 -2371.881360373789 -570.43474071817991 -45.653636805916904 0 -45.653636805916904 -8830.0266041869381 0 0 0 -2350.1153362262817 -451.43991558074777 42.166897363060343 0 42.166897363060343 -8931.4346262494073 0 0 0 -2345.7186354575369 -1254.3298575918034 -151.66775347870316 0 -151.66775347870316 -8793.0811152029091 0 0 0 -2511.8527431986777 -796.14615519414019 -193.50076594461098 0 -193.50076594461098 -8764.1672057260057 0 0 0 -2390.0783402300367 -887.03702150381559 -57.460560523244567 0 -57.460560523244567 -8627.8035338463014 0 0 0 -2378.7101388375277 -1162.3308129336219 -153.57647295549734 0 -153.57647295549734 -8517.0361548521651 0 0 0 -2419.8417419464477 -1424.7281108054492 -98.313385134042619 0 -98.313385134042619 -8618.9505608677464 0 0 0 -2510.9196679182987 -1754.4752943934495 -279.66456168193235 0 -279.66456168193235 -8657.2644046125115 0 0 0 -2602.9349247514897 -1720.0789601407114 -213.03926744509681 0 -213.03926744509681 -8276.4331678456911 0 0 0 -2499.1280319966008 -2093.2324232530573 -186.26744133866214 0 -186.26744133866214 -8403.3900694840413 0 0 0 -2624.1556231842751 -2049.6778565393265 -102.64765988821546 0 -102.64765988821546 -7984.2292061451017 0 0 0 -2508.4767656711069 -2749.2983717936727 -273.47982689724074 0 -273.47982689724074 -8247.850082765659 0 0 0 -2749.2871136398326 -2142.4155632852248 -340.62151011371861 0 -340.62151011371861 -8080.5300733759432 0 0 0 -2555.7364091652921 -2241.4854934630757 -375.56359987792609 0 -375.56359987792609 -8458.6373484003707 0 0 0 -2675.0307104658614 -2294.4640398989231 -554.81199554775276 0 -554.81199554775276 -8321.4230431980013 0 0 0 -2653.9717707742316 -2045.0612533948297 -397.47101340204199 0 -397.47101340204199 -8388.7211136206352 0 0 0 -2608.4455917538662 -2775.8207859322174 -468.42817349677699 0 -468.42817349677699 -8328.1629410111127 0 0 0 -2775.9959317358325 -2308.4068932013638 -632.33303067607994 0 -632.33303067607994 -8340.839883339293 0 0 0 -2662.3116941351636 -1792.3620132225915 -539.6401088762409 0 -539.6401088762409 -8562.5499504160925 0 0 0 -2588.7279909096696 -1486.1799574790211 -320.97120350705472 0 -320.97120350705472 -8559.3578710397996 0 0 0 -2511.384457129705 -1905.0137435086467 -480.56875594429857 0 -480.56875594429857 -8606.592336614076 0 0 0 -2627.9015200306803 940.87091322171545 85.404764521059406 0 85.404764521059406 -9194.2010650785815 0 0 0 -2063.3325379642156 770.97023833901039 17.303088973740159 0 17.303088973740159 -9240.1752554751874 0 0 0 -2117.3012542840443 741.61869294380449 69.002683538872589 0 69.002683538872589 -9226.7973268657806 0 0 0 -2121.2946584804922 1014.7568910405257 6.5114630106181721 0 6.5114630106181721 -9219.7462733065186 0 0 0 -2051.2473455665008 1176.820148216837 21.344039047868137 0 21.344039047868137 -9204.9968334545702 0 0 0 -2007.0441713094297 1110.3927399090462 55.597357638425819 0 55.597357638425819 -9132.9784664480976 0 0 0 -2005.6464316347628 1212.644105700715 -12.447088809138222 0 -12.447088809138222 -9090.9660322949894 0 0 0 -1969.5804816485643 1155.7052964859722 -21.789685343723249 0 -21.789685343723249 -8983.9536316985759 0 0 0 -1957.0620838031464 1299.0809841616647 30.942173382882174 0 30.942173382882174 -9005.3941650659981 0 0 0 -1926.5782952260815 1252.6165740518445 28.541715795603523 0 28.541715795603523 -8879.4291576063843 0 0 0 -1906.7031458886304 1101.3127843872062 -66.095223542914027 0 -66.095223542914027 -8887.0130704823168 0 0 0 -1946.4250715237758 1135.6077883105245 39.556682807053932 0 39.556682807053932 -9041.9074416810327 0 0 0 -1976.5749133426289 961.95446573364461 -14.57199910808049 0 -14.57199910808049 -9121.6509951662701 0 0 0 -2039.9241323581591 938.75787819426841 55.026090215095337 0 55.026090215095337 -9171.9976384439069 0 0 0 -2058.3099400624087 1077.9367461273578 -0.50664299839627347 0 -0.50664299839627347 -8988.607429160118 0 0 0 -1977.6676707581901 358.04266634128908 298.69538460454351 0 298.69538460454351 -9253.0211099462613 0 0 0 -2223.7446109012399 913.51976006337645 152.34996810346638 0 152.34996810346638 -9104.9532592856049 0 0 0 -2047.8583748055535 224.80811638869091 114.44160148540323 0 114.44160148540323 -9186.7836859334457 0 0 0 -2240.4938923861919 894.13424432182182 -16.432700393823325 0 -16.432700393823325 -9021.2127366279019 0 0 0 -2031.7696230765196 -1.1860782960357028 136.98466103100691 0 136.98466103100691 -8982.4066097713076 0 0 0 -2245.8981720168395 -360.6557135191797 -0.11747293711414386 0 -0.11747293711414386 -8969.5539679720823 0 0 0 -2332.5524203728182 69.024465626839401 91.180675504256214 0 91.180675504256214 -9071.6963675089064 0 0 0 -2250.6679754705156 253.71054159489722 134.93934645274931 0 134.93934645274931 -9015.6226246840561 0 0 0 -2190.478020772287 -272.59171285563139 8.5190767504864198 0 8.5190767504864198 -8938.8892955505653 0 0 0 -2302.8702521015466 -120.8934134268402 -40.096085412447792 0 -40.096085412447792 -9054.5665246493809 0 0 0 -2293.8649845190575 -135.35288591367294 -30.746474357081752 0 -30.746474357081752 -9057.2278543782359 0 0 0 -2298.1451850729773 100.2284172351101 -81.382604216707477 0 -81.382604216707477 -9173.14326762985 0 0 0 -2268.2287125986859 596.26352333673094 41.712402835051762 0 41.712402835051762 -9217.5039809750306 0 0 0 -2155.3101144095763 580.14364347271658 97.385723158462497 0 97.385723158462497 -9110.0511978486029 0 0 0 -2132.476888593972 168.86191515440623 70.101937796625862 0 70.101937796625862 -9196.4865961419673 0 0 0 -2256.906170246888 447.3612451716308 -12.505620810521577 0 -12.505620810521577 -9283.3567333842439 0 0 0 -2208.9988720531528 507.72658289438914 60.357064228850504 0 60.357064228850504 -9259.4121402174933 0 0 0 -2187.9213893307751 221.23272067444123 -53.784958687109793 0 -53.784958687109793 -9334.4765218116372 0 0 0 -2278.3109502843035 396.86863999408524 -5.825702800975705 0 -5.825702800975705 -9296.5693617698071 0 0 0 -2224.92518044393 -219.42834946110088 -248.68638208633456 0 -248.68638208633456 -9258.8462882631502 0 0 0 -2369.5686594310628 -13.333968206680765 -79.445217905878962 0 -79.445217905878962 -9201.3836012978973 0 0 0 -2303.6793923761443 182.69600331487163 -122.60771466785263 0 -122.60771466785263 -9309.0270354685927 0 0 0 -2281.5827580384357 155.22593398980553 -107.63447867861396 0 -107.63447867861396 -9310.3343774827299 0 0 0 -2288.7771108732295 -102.75522112167482 -217.82364355825848 0 -217.82364355825848 -9214.6806862057383 0 0 0 -2329.358976831852 -104.94094587528889 -252.55000056178687 0 -252.55000056178687 -9440.1293356765673 0 0 0 -2386.2675703879613 101.89024813586684 -182.13621423471341 0 -182.13621423471341 -9381.4486444386876 0 0 0 -2319.8895990757051 -161.0428804812218 -327.14765171916952 0 -327.14765171916952 -9508.9711892590058 0 0 0 -2417.503517435056 -117.67117783625599 -324.32752765314945 0 -324.32752765314945 -9308.5550964060531 0 0 0 -2356.5565685605734 432.15483727684114 -54.131930930227099 0 -54.131930930227099 -9426.3627296773338 0 0 0 -2248.5519731001259 146.18577632491724 -125.58960499348177 0 -125.58960499348177 -9444.5072002141533 0 0 0 -2324.5803559723136 322.34349405885905 -75.78078644775087 0 -75.78078644775087 -9397.9377369956001 0 0 0 -2268.8985607341897 66.967052775773482 -171.64962974219088 0 -171.64962974219088 -9482.683044167512 0 0 0 -2353.9289978479392 300.83004241846356 -60.688170322151564 0 -60.688170322151564 -9446.9379316682171 0 0 0 -2286.5269723124329 416.92786285783041 -11.960833384011494 0 -11.960833384011494 -9498.0986840675105 0 0 0 -2270.2927053024268 578.5440810936434 56.098790555381129 0 56.098790555381129 -9467.9989155912008 0 0 0 -2222.3637086243925 601.00939410219507 41.231924519499444 0 41.231924519499444 -9437.603582374315 0 0 0 -2209.1485470680345 570.9452782801236 2.5657068604632514 0 2.5657068604632514 -9432.7664755748046 0 0 0 -2215.4552993236684 527.09406511236739 30.114912712924706 0 30.114912712924706 -9384.5680088009394 0 0 0 -2214.3684859221321 661.47138562382679 19.893885798155679 0 19.893885798155679 -9366.3556266182495 0 0 0 -2176.2210602486048 670.82021120539139 39.829820696410934 0 39.829820696410934 -9344.0075722625625 0 0 0 -2168.2968402642946 744.43079450583537 56.120389300922398 0 56.120389300922398 -9383.1729669134002 0 0 0 -2159.6855431018885 823.96075703850147 18.266709697923943 0 18.266709697923943 -9315.2464183447155 0 0 0 -2122.8214153265617 752.56139710936804 66.056870634398365 0 66.056870634398365 -9267.6118741296414 0 0 0 -2128.7626192550688 590.68683255671931 -14.460279350161727 0 -14.460279350161727 -9326.0741448862682 0 0 0 -2183.8468280823872 1017.6090933244559 53.242893708380507 0 53.242893708380507 -9237.7424931248097 0 0 0 -2055.0333499500921 974.73233873405115 24.822278644998732 0 24.822278644998732 -9295.8859331394488 0 0 0 -2080.2883986013439 902.95907189031368 71.519875275658706 0 71.519875275658706 -9270.3547503629779 0 0 0 -2091.8489196181645 757.37059397136909 40.371010556935289 0 40.371010556935289 -9370.2993430734641 0 0 0 -2153.2321872755274 921.30611298920849 43.954063731043789 0 43.954063731043789 -9320.4604773161263 0 0 0 -2099.7885910817276 886.42778043774979 79.382569058267109 0 79.382569058267109 -9349.4493762107595 0 0 0 -2115.7553989432517 763.05507065985148 61.693506706133121 0 61.693506706133121 -9384.5599378715851 0 0 0 -2155.376216802928 733.31407613207921 84.223222907923628 0 84.223222907923628 -9431.5961984045935 0 0 0 -2174.5705305681367 733.74331380626609 93.019313087279443 0 93.019313087279443 -9432.4453393710501 0 0 0 -2174.6755063911951 605.01973891074886 105.20191150574647 0 105.20191150574647 -9461.4443965151149 0 0 0 -2214.1061644010915 509.00825435189836 84.3620685475762 0 84.3620685475762 -9466.9201509052218 0 0 0 -2239.4779741383245 610.22693429102219 75.447708970246822 0 75.447708970246822 -9474.5326371246338 0 0 0 -2216.0764257083938 607.24534063290048 86.274764993300778 0 86.274764993300778 -9441.7089295688129 0 0 0 -2208.6158972339763 423.28541862083512 -6.5658080678440456 0 -6.5658080678440456 -9461.9455582466981 0 0 0 -2259.6650349064621 396.671671076032 47.671724299943889 0 47.671724299943889 -9479.7605045651944 0 0 0 -2270.7722083722892 461.52954769935604 27.949459738943006 0 27.949459738943006 -9503.6949174392066 0 0 0 -2260.5413424349645 510.6404764008621 84.142162035284855 0 84.142162035284855 -9471.1621678059091 0 0 0 -2240.1304228512672 409.22121880224586 100.11599076139061 0 100.11599076139061 -9448.0201715811563 0 0 0 -2259.6997381947294 388.18047794825543 63.22690568062535 0 63.22690568062535 -9513.8039332611952 0 0 0 -2281.4058638282331 317.42289333718509 84.421951987558714 0 84.421951987558714 -9444.9487883899637 0 0 0 -2281.8814737632019 366.42093986056716 105.05831258880062 0 105.05831258880062 -9456.5722306248717 0 0 0 -2272.5378226910834 385.7910536815034 134.81889161295226 0 134.81889161295226 -9408.9242923751735 0 0 0 -2255.7833096734248 429.55772467963106 124.22810948397819 0 124.22810948397819 -9452.6322092926712 0 0 0 -2255.7686211532637 484.52215158325271 121.57673745479042 0 121.57673745479042 -9434.58270531382 0 0 0 -2237.5151384326455 491.88088800332616 112.08663186160993 0 112.08663186160993 -9478.3223699162645 0 0 0 -2246.6103704782349 -50.555048366961273 -262.69861664397376 0 -262.69861664397376 -9443.7077528971276 0 0 0 -2373.5657003160231 39.091044351171149 -260.424224238639 0 -260.424224238639 -9565.1245645564995 0 0 0 -2381.5083800513348 66.684887606653319 -215.3983989093249 0 -215.3983989093249 -9521.1916472645862 0 0 0 -2363.6266899144857 199.35357655979169 -129.01324808175559 0 -129.01324808175559 -9601.0395471703814 0 0 0 -2350.4214926526474 169.02386541117448 -121.68709218300683 0 -121.68709218300683 -9497.5909965348692 0 0 0 -2332.14178278092 268.85781128709823 -120.43677946796379 0 -120.43677946796379 -9490.4007157605665 0 0 0 -2305.3857261183693 242.38556681180489 -97.805036798528818 0 -97.805036798528818 -9527.6498902651074 0 0 0 -2321.3160808633256 331.20404697383401 -35.982492676848779 0 -35.982492676848779 -9472.5957383207096 0 0 0 -2285.347922836715 316.85138051793911 -29.317031759259407 0 -29.317031759259407 -9520.1691587637324 0 0 0 -2300.8294445614447 239.73894928566733 -11.418978578029055 0 -11.418978578029055 -9495.3042341858963 0 0 0 -2313.8913212250554 293.92011693793029 8.9081725851865485 0 8.9081725851865485 -9510.9332214717215 0 0 0 -2304.2532761334478 293.54942199912239 -58.684672878996935 0 -58.684672878996935 -9514.7798497443691 0 0 0 -2305.3076069363096 135.47685953203836 -199.15817877226891 0 -199.15817877226891 -9599.4686584240408 0 0 0 -2365.9979497230051 46.346903979107083 -163.99104284268105 0 -163.99104284268105 -9559.2520178030936 0 0 0 -2378.2262784559989 74.171758427099121 -298.78464686946245 0 -298.78464686946245 -9705.7664013673493 0 0 0 -2407.8986607350653 -102.50042220935211 -388.24408776679411 0 -388.24408776679411 -9654.6542559198933 0 0 0 -2439.2886695323105 -29.183120195859374 -340.20284111078763 0 -340.20284111078763 -9602.5575752936638 0 0 0 -2407.9351738723817 169.94829934289999 -64.30989653204233 0 -64.30989653204233 -9510.1955084845395 0 0 0 -2335.0618022854114 66.124931990103505 -231.84570362452473 0 -231.84570362452473 -9559.8095034256403 0 0 0 -2373.4211428588824 -40.724060733671649 -193.49195423246056 0 -193.49195423246056 -9588.7338514095027 0 0 0 -2407.3644780357954 262.27527926303992 -116.47844760343651 0 -116.47844760343651 -9539.3251874148918 0 0 0 -2319.2624770379625 91.504573884922138 -48.117278343390353 0 -48.117278343390353 -9265.4754989526919 0 0 0 -2293.4927312669461 168.37656952104953 30.136496764360345 0 30.136496764360345 -9407.0510437450284 0 0 0 -2309.6686185559993 144.74505855532698 -50.590410316312045 0 -50.590410316312045 -9444.614816848436 0 0 0 -2324.9674395732764 238.01519744748293 55.130442563622637 0 55.130442563622637 -9434.0891270483407 0 0 0 -2299.0184824002135 198.46527367220369 37.947346189255768 0 37.947346189255768 -9395.1186268206875 0 0 0 -2299.1633382871241 123.33626455712147 52.557458758497887 0 52.557458758497887 -9223.6473314472241 0 0 0 -2275.0777667225193 72.250042559680878 52.322520019257354 0 52.322520019257354 -9240.399346989223 0 0 0 -2292.037326107391 57.137306763866945 21.511382916611183 0 21.511382916611183 -8900.644483547163 0 0 0 -2210.8767941958249 56.690800803924503 21.209921353050959 0 21.209921353050959 -9265.0154722366569 0 0 0 -2302.0811678581886 50.908976966924435 -6.3296695638382516 0 -6.3296695638382516 -8896.616040440711 0 0 0 -2211.4267658684494 43.415821441409207 -26.98175589299899 0 -26.98175589299899 -9355.9762482323786 0 0 0 -2328.1401066977414 265.3827733216167 115.94537349606617 0 115.94537349606617 -9343.7593849501136 0 0 0 -2269.5941529071279 280.61000479198265 123.60096605235594 0 123.60096605235594 -9435.3344391981518 0 0 0 -2288.6811086015441 295.53058413958206 117.02615438784778 0 117.02615438784778 -9424.7643398990695 0 0 0 -2282.3084389398755 280.96744169396698 77.52006461547353 0 77.52006461547353 -9421.7765555224614 0 0 0 -2285.2022784571272 206.71187585135704 101.22276298709767 0 101.22276298709767 -9346.2310772330748 0 0 0 -2284.8798003454322 159.33450062563861 48.980861099613321 0 48.980861099613321 -9256.0836690662982 0 0 0 -2274.187292110164 60.279730640795606 38.394341525257914 0 38.394341525257914 -9011.486404875046 0 0 0 -2237.8016685585644 33.787115696713954 82.116976119978062 0 82.116976119978062 -9248.4075913429333 0 0 0 -2303.6551189115507 51.32593024513335 55.394957777054515 0 55.394957777054515 -9080.2894875384809 0 0 0 -2257.2408893233332 46.566804069378122 42.106817251373286 0 42.106817251373286 -9277.7698886912549 0 0 0 -2307.8007711554746 136.03306882146717 72.365245668977877 0 72.365245668977877 -9260.3555441532517 0 0 0 -2281.0806188329552 152.46580741856269 80.242238425089454 0 80.242238425089454 -9395.1379292809688 0 0 0 -2310.6680304655983 149.03630232574505 85.91310224496101 0 85.91310224496101 -9237.6170078463037 0 0 0 -2272.1451763801451 35.371619444384123 62.694738586413223 0 62.694738586413223 -9227.8131803378201 0 0 0 -2298.1103902233663 90.185494210636534 67.090604705354053 0 67.090604705354053 -9401.3445067293942 0 0 0 -2327.7897531296912 82.184861494551853 57.353836931353726 0 57.353836931353726 -9307.7979680346943 0 0 0 -2306.4032766350392 43.578602368907013 53.977413258598972 0 53.977413258598972 -9462.0245605283999 0 0 0 -2354.6114895398714 185.25718566255091 90.084792500187177 0 90.084792500187177 -9397.7652205868362 0 0 0 -2303.1270087310695 215.99332709095688 86.960661773227912 0 86.960661773227912 -9362.3004034961341 0 0 0 -2286.5767691012916 287.75299216054736 126.9985218398142 0 126.9985218398142 -9390.1204620719072 0 0 0 -2275.5918674778386 190.47294686631358 101.23968307934319 0 101.23968307934319 -9444.1575704718416 0 0 0 -2313.4211559013856 308.47954816130368 122.267561868146 0 122.267561868146 -9397.4401313135168 0 0 0 -2272.2401457880551 321.58348405249126 134.60775038198335 0 134.60775038198335 -9444.0724766111962 0 0 0 -2280.622248139669 284.62128195655532 126.19585767045646 0 126.19585767045646 -9471.2100430169667 0 0 0 -2296.6471902651028 225.06604417443305 96.928121746493161 0 96.928121746493161 -9505.223696418805 0 0 0 -2320.0394130610875 250.18438547240294 112.70211883133015 0 112.70211883133015 -9441.0331533162098 0 0 0 -2297.7121919609417 154.81211760469523 85.076759620693338 0 85.076759620693338 -9487.494973651279 0 0 0 -2333.1707140116414 50.356192686289432 47.390524078818999 0 47.390524078818999 -9417.0989561597817 0 0 0 -2341.6856908683767 65.206541051637032 39.393892693298767 0 39.393892693298767 -9522.8506868332042 0 0 0 -2364.4110364453954 73.167460659667995 50.650559955334757 0 50.650559955334757 -9463.89783352206 0 0 0 -2347.6825932155953 74.858704380618292 40.612984717419749 0 40.612984717419749 -9609.042261313647 0 0 0 -2383.5458892332681 209.85997632126919 100.64214976842777 0 100.64214976842777 -9501.9336440466723 0 0 0 -2323.0184169313584 79.988959238966345 42.218699727251078 0 42.218699727251078 -9554.007735708874 0 0 0 -2368.504694117466 72.853847804552061 39.818755832973693 0 39.818755832973693 -9691.7400879144261 0 0 0 -2404.7215600274722 77.223030859015125 41.734808518292994 0 41.734808518292994 -9614.5940088108182 0 0 0 -2384.3427444879562 72.675412441683875 39.491430887919705 0 39.491430887919705 -9688.0456540978339 0 0 0 -2403.8425604140357 224.77254370720038 92.211560241699772 0 92.211560241699772 -9572.8023207552324 0 0 0 -2337.0074442620098 350.11673882821924 133.89971843238163 0 133.89971843238163 -9514.7026084848185 0 0 0 -2291.1464674141389 225.11156480073669 92.388851212723239 0 92.388851212723239 -9573.5208339634719 0 0 0 -2337.1023172906821 375.93745251937071 146.27601108085219 0 146.27601108085219 -9492.2009248132526 0 0 0 -2279.0658680734778 220.90448237792589 105.86861497927384 0 105.86861497927384 -9514.1204260373197 0 0 0 -2323.3039859148412 316.82538464841127 117.64199970528716 0 117.64199970528716 -9503.2541102214745 0 0 0 -2296.6071813932613 337.28701761113552 129.59656180938327 0 129.59656180938327 -9447.6424125101184 0 0 0 -2277.5888487247466 426.56523290686164 145.21459063908696 0 145.21459063908696 -9452.3217045554047 0 0 0 -2256.4391179121376 438.8390592751166 137.95102768835204 0 137.95102768835204 -9438.0409371513524 0 0 0 -2249.800469469068 554.03222120527789 134.27344917679147 0 134.27344917679147 -9400.1219130337267 0 0 0 -2211.522422957114 410.37350406069163 131.98138693636065 0 131.98138693636065 -9450.981666075153 0 0 0 -2260.1520405036135 427.95322255167412 129.74563751112873 0 129.74563751112873 -9468.7445024580811 0 0 0 -2260.1978199766017 412.87449498167553 120.96655199256202 0 120.96655199256202 -9491.2601054440311 0 0 0 -2269.5964026155925 534.35179529980451 151.3100118800503 0 151.3100118800503 -9403.5437737607426 0 0 0 -2217.29799461523 506.36722167404332 153.51905325708503 0 153.51905325708503 -9431.5702555755706 0 0 0 -2231.3007584753741 535.88646220420924 131.66082868190233 0 131.66082868190233 -9391.6690744090301 0 0 0 -2213.9456530512034 637.05002018080995 143.10636998232803 0 143.10636998232803 -9355.3377242466959 0 0 0 -2179.5719260164697 638.39760342484806 145.08683933256907 0 145.08683933256907 -9326.4843722130463 0 0 0 -2172.0216921970496 736.99540686209912 123.36091982627113 0 123.36091982627113 -9292.3129910293774 0 0 0 -2138.8293960418105 740.44083177359516 130.32903006950801 0 130.32903006950801 -9274.6589770398168 0 0 0 -2133.5545363165502 746.43919985377579 127.29599572060397 0 127.29599572060397 -9232.6960733302112 0 0 0 -2121.5642183691089 596.34847707940935 146.72171481382247 0 146.72171481382247 -9382.5228116036742 0 0 0 -2196.5435836310644 609.00218160022996 128.06831103278091 0 128.06831103278091 -9363.3293409110047 0 0 0 -2188.5817898276982 697.90714900194507 113.80602547161106 0 113.80602547161106 -9325.5459233074653 0 0 0 -2156.9096935763773 771.86409460552386 115.61964648865251 0 115.61964648865251 -9319.1428352392977 0 0 0 -2136.8196851584362 675.82713836548646 126.36176412857276 0 126.36176412857276 -9376.6933517865255 0 0 0 -2175.2165533552543 774.56924065705971 97.550049676334311 0 97.550049676334311 -9325.8916022120247 0 0 0 -2137.8305903887376 633.79897056528353 121.18423307411285 0 121.18423307411285 -9381.0208676810435 0 0 0 -2186.8054742789427 619.32640269909461 128.42165638014558 0 128.42165638014558 -9417.531679542546 0 0 0 -2199.5513192108556 744.92757859790072 115.08431076764828 0 115.08431076764828 -9383.6474175758049 0 0 0 -2159.6799597444806 689.6331688931059 110.40070017434482 0 110.40070017434482 -9384.709592088002 0 0 0 -2173.7691057987286 668.1111620133488 121.96053646485962 0 121.96053646485962 -9432.7628868372994 0 0 0 -2191.1629312059849 535.83751962936731 130.5526570070142 0 130.5526570070142 -9456.0297600329468 0 0 0 -2230.0480601008931 609.29764632639854 107.42490802046632 0 107.42490802046632 -9426.9382938991621 0 0 0 -2204.4101618931963 526.06399264303764 136.21534767569756 0 136.21534767569756 -9428.7975283089618 0 0 0 -2225.6833839164829 522.24497560265445 133.31640764244366 0 133.31640764244366 -9433.3176826378913 0 0 0 -2227.7681767588219 433.08359838360775 141.89550141153734 0 141.89550141153734 -9441.5531387843075 0 0 0 -2252.1173851001731 401.85232702773828 131.36383502110402 0 131.36383502110402 -9418.9092456965773 0 0 0 -2254.2642296672147 415.79452302643767 142.73674984394165 0 142.73674984394165 -9447.0379648372618 0 0 0 -2257.8108604527079 403.83589233847306 142.05309598053282 0 142.05309598053282 -9428.7812903326703 0 0 0 -2256.2363494985475 397.43282877622187 127.5929767802445 0 127.5929767802445 -9445.7536852733319 0 0 0 -2262.0802141242857 542.54063967444381 141.21692557607457 0 141.21692557607457 -9420.5779356629355 0 0 0 -2219.5093239971247 516.18283960076405 137.77649418707006 0 137.77649418707006 -9413.4676556038939 0 0 0 -2224.3212040007802 429.37055879721629 46.831354931680835 0 46.831354931680835 -9656.7573133934948 0 0 0 -2306.8466886490551 264.83422047749627 61.73009241768159 0 61.73009241768159 -9716.7185959056951 0 0 0 -2362.9710938570352 226.41672573814867 31.771503235722776 0 31.771503235722776 -9792.8435177960491 0 0 0 -2391.6066980144678 277.78691142052958 -1.0176937935611932 0 -1.0176937935611932 -9714.4582176115782 0 0 0 -2359.1678265477622 106.45606101118028 -8.0927145114692394 0 -8.0927145114692394 -9839.1758216263261 0 0 0 -2433.1799401537864 68.727611932088621 18.36686841635041 0 18.36686841635041 -9906.5504276262363 0 0 0 -2459.4557039235369 49.590205700500519 -2.0736508509435225 0 -2.0736508509435225 -9973.7920840877632 0 0 0 -2481.050469596812 86.133667295056512 -27.248256589708035 0 -27.248256589708035 -9908.9839486106648 0 0 0 -2455.7125703288912 100.5920116162888 30.093774740705157 0 30.093774740705157 -9849.2522471178672 0 0 0 -2437.165058875391 222.51543355138892 19.335816744249314 0 19.335816744249314 -9806.8070499838577 0 0 0 -2396.0729041081122 58.189008459157776 -6.4143785453343298 0 -6.4143785453343298 -9937.6946601489908 0 0 0 -2469.8764129224583 74.874253787718771 41.387457820732834 0 41.387457820732834 -9899.7306353132881 0 0 0 -2456.2140953813941 201.84860551860766 68.285133205845341 0 68.285133205845341 -9728.5948956064822 0 0 0 -2381.6865725219686 297.82226511682529 60.270847707492067 0 60.270847707492067 -9698.8090702328482 0 0 0 -2350.2467012790075 342.31055273189486 35.406207031337544 0 35.406207031337544 -9672.362401875158 0 0 0 -2332.5129622858258 483.97883817588445 82.822129658336053 0 82.822129658336053 -9592.2788360497943 0 0 0 -2277.0749994684738 401.71873961576784 79.573030174360611 0 79.573030174360611 -9578.8111877993506 0 0 0 -2294.273112045892 384.68382322441903 105.06107537413845 0 105.06107537413845 -9621.5522126587457 0 0 0 -2309.2170973585744 434.39463934527339 107.50282179402711 0 107.50282179402711 -9578.830496939001 0 0 0 -2286.108964398436 304.35078153467475 109.27832482724625 0 109.27832482724625 -9631.5917581021495 0 0 0 -2331.8102441418669 276.86130124288411 88.783577809197595 0 88.783577809197595 -9633.5002300336473 0 0 0 -2339.1597321977015 119.47266678791493 67.183012568004415 0 67.183012568004415 -9752.6559628231335 0 0 0 -2408.2958240088192 109.39293263528816 10.47360356804711 0 10.47360356804711 -9819.51455900172 0 0 0 -2427.5304065916062 55.115019734032103 25.269271543817013 0 25.269271543817013 -9865.8363465128059 0 0 0 -2452.6803316946825 168.0574568644588 47.834200966033677 0 47.834200966033677 -9718.5905178660032 0 0 0 -2387.6332652503916 207.63224931046716 80.858632657618728 0 80.858632657618728 -9685.1741497079638 0 0 0 -2369.3854750993778 66.690774304370279 33.888007224046305 0 33.888007224046305 -9746.4437893752765 0 0 0 -2419.9382537677302 71.931035828386044 35.774969210076961 0 35.774969210076961 -9779.628328604027 0 0 0 -2426.9243231939013 225.45923106071223 97.935057176582632 0 97.935057176582632 -9620.6799730866805 0 0 0 -2348.8051855064905 204.02411217369081 78.160810411100101 0 78.160810411100101 -9630.4328366694681 0 0 0 -2356.602181123948 335.17413070860493 85.953760064847302 0 85.953760064847302 -9586.25256866368 0 0 0 -2312.7696094887651 350.23029746381872 128.03084533414221 0 128.03084533414221 -9561.7097466074338 0 0 0 -2302.8698622859119 370.19927330018254 111.70951526873432 0 111.70951526873432 -9505.2404826433922 0 0 0 -2283.7603023357806 503.20971464922695 133.30430116191565 0 133.30430116191565 -9455.5420438464607 0 0 0 -2238.0830822993048 506.85257655791793 141.57072185164725 0 141.57072185164725 -9413.6730412650795 0 0 0 -2226.7051161768031 639.46163996154064 150.33477024205786 0 150.33477024205786 -9308.9756319568842 0 0 0 -2167.3784979988341 772.05719643227349 157.29080566608172 0 157.29080566608172 -9280.8017007970047 0 0 0 -2127.1861260911974 663.30443576091602 160.66299927033833 0 160.66299927033833 -9312.7604786600205 0 0 0 -2162.3640107247793 640.02796606811171 143.31578649772564 0 143.31578649772564 -9369.7118613716739 0 0 0 -2182.4209738258869 647.89959044644274 122.49098064401187 0 122.49098064401187 -9370.2494134671433 0 0 0 -2180.5874557551833 771.48955495179689 131.9418396639594 0 131.9418396639594 -9253.3429026706872 0 0 0 -2120.4633369297153 765.43159206012933 160.88500058234058 0 160.88500058234058 -9304.4726632892998 0 0 0 -2134.7602678072944 570.27948778104837 151.2789065987381 0 151.2789065987381 -9416.8684175047529 0 0 0 -2211.6472324309252 588.67870931628568 98.847453127065819 0 98.847453127065819 -9469.3131133858114 0 0 0 -2220.1586010173778 531.16397383970616 125.55566823878689 0 125.55566823878689 -9475.6418050219945 0 0 0 -2236.1194577955757 412.92241986658337 124.10708212735335 0 124.10708212735335 -9513.3471431569924 0 0 0 -2275.1061808226077 516.47563234141126 122.16970757232048 0 122.16970757232048 -9509.053429166117 0 0 0 -2248.144449206171 471.77253837467288 63.240553676540003 0 63.240553676540003 -9550.6848588811117 0 0 0 -2269.7280801266024 638.27479291998316 105.44211259604344 0 105.44211259604344 -9472.6807619520405 0 0 0 -2208.6014922580216 616.72211208834051 119.27640368734865 0 119.27640368734865 -9402.7640143056051 0 0 0 -2196.5104755543143 797.39883027656469 123.99705901624111 0 123.99705901624111 -9343.1063145434018 0 0 0 -2136.426871066702 750.44535555272159 130.87086840730626 0 130.87086840730626 -9281.5412301938923 0 0 0 -2132.7739686602945 779.945824270515 81.439401797288156 0 81.439401797288156 -9312.6707784008468 0 0 0 -2133.1812385325902 798.77487693745934 99.645185580971884 0 99.645185580971884 -9365.1235174048634 0 0 0 -2141.5871601168474 982.94311937547172 116.55379480887495 0 116.55379480887495 -9233.7177388010896 0 0 0 -2062.6936548563972 896.05674059528246 65.19465700625733 0 65.19465700625733 -9302.0803940835031 0 0 0 -2101.505913372057 762.87852982834738 19.765228876494803 0 19.765228876494803 -9379.9706657415954 0 0 0 -2154.2730339783157 645.73557502182302 61.546449895613478 0 61.546449895613478 -9448.6824924498651 0 0 0 -2200.7367293569951 596.2528607643435 62.310163045083755 0 62.310163045083755 -9446.544013576131 0 0 0 -2212.5727882029423 640.09190131607465 41.986085879216262 0 41.986085879216262 -9511.7072053211741 0 0 0 -2217.9038260012749 427.3181919426861 30.540386015734839 0 30.540386015734839 -9580.0199052565149 0 0 0 -2288.1754283284608 1382.9083794634535 21.19958066183608 0 21.19958066183608 -8968.1524655809335 0 0 0 -1896.3110215293818 1615.6939058092503 36.434413139053504 0 36.434413139053504 -8900.3374636604131 0 0 0 -1821.1608894627607 1327.989107472662 100.41878601466306 0 100.41878601466306 -8960.6102424729615 0 0 0 -1908.1552837500785 1477.8789483440778 45.179283448393107 0 45.179283448393107 -8897.9267974161667 0 0 0 -1855.0119622680359 1370.0954406805104 57.726751112306374 0 57.726751112306374 -9027.4519014041289 0 0 0 -1914.3391151809046 1131.2990633958398 64.238258555286919 0 64.238258555286919 -9164.1648986685905 0 0 0 -2008.2164588181913 950.05903645824947 23.889105616617599 0 23.889105616617599 -9238.1269063508807 0 0 0 -2072.0169674731478 1180.0699270193654 18.861804909727653 0 18.861804909727653 -9096.106223546376 0 0 0 -1979.0090741317472 1154.9347243563971 123.16169491294932 0 123.16169491294932 -9087.4824432884634 0 0 0 -1983.1369297330093 1008.1906178316713 151.26643783313921 0 151.26643783313921 -9180.6782517425017 0 0 0 -2043.1219084776967 992.76058361805917 81.625071847156505 0 81.625071847156505 -9155.2554858812655 0 0 0 -2040.6237255658052 913.97540664620101 118.41238249267917 0 118.41238249267917 -9225.143144322672 0 0 0 -2077.7919344191068 1187.5058200860512 125.93978500727462 0 125.93978500727462 -8968.8174544144422 0 0 0 -1945.3279085821123 1244.9941810234523 66.609511782371555 0 66.609511782371555 -9018.1104334932897 0 0 0 -1943.2790631174503 1353.0710451500941 74.5396678775287 0 74.5396678775287 -8917.7139823836151 0 0 0 -1891.1607343083874 1195.8571188636088 89.921059736472671 0 89.921059736472671 -8930.680956761149 0 0 0 -1933.7059594743805 1184.8575023918529 129.60484520118189 0 129.60484520118189 -8981.3540318923333 0 0 0 -1949.1241323751165 1056.4840227161985 114.18144581284287 0 114.18144581284287 -8998.1695395278512 0 0 0 -1985.4213792029113 1185.3185910836764 133.85502729565633 0 133.85502729565633 -9025.1925565531419 0 0 0 -1959.9684913673555 1041.4280070780333 116.1917184414342 0 116.1917184414342 -9067.2440372577257 0 0 0 -2006.4540075449258 995.99101926515868 156.89029090153053 0 156.89029090153053 -9113.9594559042598 0 0 0 -2029.4921091597789 888.46956271205272 128.07833004787972 0 128.07833004787972 -9161.4677845016413 0 0 0 -2068.2495554474153 889.45805338893842 157.56269050469928 0 157.56269050469928 -9205.0861375335662 0 0 0 -2078.9070210361533 913.99352895172342 130.24962562925793 0 130.24962562925793 -9127.5063752110582 0 0 0 -2053.3782115648282 1042.3578752779285 149.72528261820753 0 149.72528261820753 -9084.767116975243 0 0 0 -2010.6023104243213 905.21541314774367 154.95833533486257 0 154.95833533486257 -9166.7509258862701 0 0 0 -2065.3838781846134 942.67746726975747 118.16139931729413 0 118.16139931729413 -9075.8504227771773 0 0 0 -2033.2932388768604 794.92665832585044 133.41073647357553 0 133.41073647357553 -9208.5973253827833 0 0 0 -2103.417666764246 846.83346987634286 114.08872672921279 0 114.08872672921279 -9156.9550843564939 0 0 0 -2077.5304036200178 788.89893258559459 153.00400691255436 0 153.00400691255436 -9231.7516102661612 0 0 0 -2110.713169420138 924.45287294893933 128.53636658720075 0 128.53636658720075 -9131.1093038318504 0 0 0 -2051.6641077207314 975.99232040975767 88.720851603749907 0 88.720851603749907 -9031.8274119393027 0 0 0 -2013.9587728823826 1039.8288833648694 135.09979725149606 0 135.09979725149606 -9051.9696959907742 0 0 0 -2003.0352031564835 1084.0225049764267 92.742716682281753 0 92.742716682281753 -8960.2931529160414 0 0 0 -1969.0676619849037 1064.6252115053285 99.103961428142611 0 99.103961428142611 -9014.666107978177 0 0 0 -1987.5102241182103 1166.8673526707425 48.172467878055613 0 48.172467878055613 -8909.2407131810905 0 0 0 -1935.5933401275979 1098.0299413193243 53.652431053342298 0 53.652431053342298 -8918.5986357928341 0 0 0 -1955.1421736183765 1254.4678740117088 61.952148567997938 0 61.952148567997938 -8865.2069488274283 0 0 0 -1902.6847687039335 1171.0525474537208 126.20949989738438 0 126.20949989738438 -8919.0991084130219 0 0 0 -1937.0116402398271 1212.4586199808982 88.191841285253759 0 88.191841285253759 -8880.7536298301129 0 0 0 -1917.0737524623109 1285.2624282490287 42.209155293276126 0 42.209155293276126 -8899.3849888594123 0 0 0 -1903.5306401525959 1380.1939561229483 -90.501160675099527 0 -90.501160675099527 -8794.5407413109206 0 0 0 -1853.5866962969922 1428.0158118810941 -66.53750978406697 0 -66.53750978406697 -8767.7202775991755 0 0 0 -1834.9261164295167 1454.2945427813538 -47.805544695118442 0 -47.805544695118442 -8668.4865098072332 0 0 0 -1803.5479917564662 1372.969826794877 43.448335591630894 0 43.448335591630894 -8774.0593387819245 0 0 0 -1850.2723779967637 1326.5579612081433 15.66174058818433 0 15.66174058818433 -8846.3720867590637 0 0 0 -1879.9535313877336 1513.1444676182182 -37.037823666985787 0 -37.037823666985787 -8763.8141037923233 0 0 0 -1812.6674090435226 1564.2431062788382 -23.178201364593406 0 -23.178201364593406 -8599.7962482851581 0 0 0 -1758.8882855015763 1558.4646895206424 3.5419450739209424 0 3.5419450739209424 -8768.1416831452298 0 0 0 -1802.4192484061314 1414.3501271656132 41.815427580332198 0 41.815427580332198 -8742.6913573265192 0 0 0 -1832.0853075402265 1430.3771660432385 58.018991346863913 0 58.018991346863913 -8848.5845935122306 0 0 0 -1854.5518568672423 1369.6417554884902 79.366829135469743 0 79.366829135469743 -8868.1019799800124 0 0 0 -1874.6150561228787 1300.5553965428189 121.97885837902868 0 121.97885837902868 -8898.8071100163797 0 0 0 -1899.5629283683811 1382.5164075585344 91.50059807029902 0 91.50059807029902 -8863.8751673378865 0 0 0 -1870.3396899448271 1526.5834998630162 41.13643450375821 0 41.13643450375821 -8819.495563358767 0 0 0 -1823.2280158739377 1461.4013699003699 72.430796327469579 0 72.430796327469579 -8771.1649250315386 0 0 0 -1827.4408887828031 1616.4730144281239 12.240903152051033 0 12.240903152051033 -8733.8281699131803 0 0 0 -1779.3387888712568 1605.2228351737504 -13.331476436222147 0 -13.331476436222147 -8623.0920661379932 0 0 0 -1754.4673077410553 1796.5804679320127 -33.092748792769271 0 -33.092748792769271 -8609.0986929391238 0 0 0 -1703.1295562517635 1728.5691647210842 9.448920676317357 0 9.448920676317357 -8604.7356346493179 0 0 0 -1719.0416174820421 1644.340922650139 16.476486668369034 0 16.476486668369034 -8650.5085416960937 0 0 0 -1751.5419047614996 1727.203001497066 12.104817478379118 0 12.104817478379118 -8713.4277550246334 0 0 0 -1746.55618838191 1830.1512972681048 -8.8994323071456165 0 -8.8994323071456165 -8553.8916017480515 0 0 0 -1680.9350761199894 1957.4259809796895 20.152812213331345 0 20.152812213331345 -8624.0596045767306 0 0 0 -1666.6584058992485 1733.7651534094766 2.6598106615856523 0 2.6598106615856523 -8673.1607753283897 0 0 0 -1734.8489054797319 1813.9122427995972 47.962841516287881 0 47.962841516287881 -8739.1575343174045 0 0 0 -1731.3113228794609 1657.7664655349217 5.2013346267049201 0 5.2013346267049201 -8785.5792102317791 0 0 0 -1781.9531861742071 1559.3551135628804 59.951111227244837 0 59.951111227244837 -8749.3642451460037 0 0 0 -1797.5022828957881 1499.655369155982 58.056388851109659 0 58.056388851109659 -8846.688691292482 0 0 0 -1836.7583305341104 1059.2805221783565 32.810007511543517 0 32.810007511543517 -9253.9183042286168 0 0 0 -2048.6594455125596 1055.5625693380061 12.67394107398286 0 12.67394107398286 -9197.0026980199618 0 0 0 -2035.3600321704944 1209.9209314761697 -26.829850015899865 0 -26.829850015899865 -9142.9628667730685 0 0 0 -1983.2604838242246 1091.7804605856218 15.494327196422091 0 15.494327196422091 -9216.5671358503605 0 0 0 -2031.1966688161847 1075.3047398810668 36.453904495483584 0 36.453904495483584 -9238.3117394548899 0 0 0 -2040.7517498934649 1097.6636170834972 33.372785367866527 0 33.372785367866527 -9263.6790296122781 0 0 0 -2041.5038531321989 1067.6363421974529 50.521545023621002 0 50.521545023621002 -9291.6885415803845 0 0 0 -2056.0130498457293 948.56855735694057 71.600016768927162 0 71.600016768927162 -9311.9324231676419 0 0 0 -2090.8409664526716 915.10013125033583 57.144145287844367 0 57.144145287844367 -9335.1437068116647 0 0 0 -2105.0108938903286 877.2767212183644 84.485447578372259 0 84.485447578372259 -9375.1148637463048 0 0 0 -2124.4595356319805 751.18320290647534 85.616438891145663 0 85.616438891145663 -9387.2087801755406 0 0 0 -2159.0063943172645 809.16630281413018 95.858416059229057 0 95.858416059229057 -9383.0282096754963 0 0 0 -2143.4654767153443 844.65386420055438 74.698266252398753 0 74.698266252398753 -9326.2348404828226 0 0 0 -2120.3952440705616 985.11886379837597 40.516932036043727 0 40.516932036043727 -9256.1788740029369 0 0 0 -2067.7650025511393 874.27968752446759 79.75793777348008 0 79.75793777348008 -9323.3752964406885 0 0 0 -2112.2739022290625 907.34957087851944 59.60535531748792 0 59.60535531748792 -9258.5517574637051 0 0 0 -2087.8005466462928 799.03780098886637 103.32825647664868 0 103.32825647664868 -9315.8943483927433 0 0 0 -2129.2141368509729 776.22357117465435 101.68347052874742 0 101.68347052874742 -9242.123953010916 0 0 0 -2116.4750954590563 938.61143436364364 53.404904263144999 0 53.404904263144999 -9149.4405215169681 0 0 0 -2052.7072717883275 856.85622598785449 93.996899835328804 0 93.996899835328804 -9226.8406084107773 0 0 0 -2092.4960956057239 905.7343456091985 64.809963692787278 0 64.809963692787278 -9241.0967233282572 0 0 0 -2083.8405944297629 829.95371378363234 120.99120168670925 0 120.99120168670925 -9211.1064882127976 0 0 0 -2095.2881936072936 886.53845177860057 86.668011813737394 0 86.668011813737394 -9132.8720918812614 0 0 0 -2061.5834100256616 944.37538796834997 83.091193854881567 0 83.091193854881567 -9124.7068452640015 0 0 0 -2045.0828643239074 1019.9498514014704 39.896593013931124 0 39.896593013931124 -9022.2522186878487 0 0 0 -2000.5755918215946 1053.3623661473157 15.492975897694123 0 15.492975897694123 -9030.4936528798571 0 0 0 -1994.2828216831349 1050.7148178589341 15.28924266766262 0 15.28924266766262 -9174.4752126393869 0 0 0 -2030.9400986951077 982.40254103121697 38.004041497300932 0 38.004041497300932 -9145.5184747369203 0 0 0 -2040.7789834264258 1039.8505872754613 9.3803580021631205 0 9.3803580021631205 -9108.473252018186 0 0 0 -2017.1556661856885 1166.8211826569495 -55.819603207033651 0 -55.819603207033651 -9043.0079996792119 0 0 0 -1969.0467042555574 1172.246236046376 -64.493375364818348 0 -64.493375364818348 -9124.9457088356721 0 0 0 -1988.1748681973331 1109.8630727099226 -69.303331827817601 0 -69.303331827817601 -9042.4745028826001 0 0 0 -1983.152857543173 1312.6164404615483 -135.04305310126074 0 -135.04305310126074 -9011.1951861717971 0 0 0 -1924.644686427564 1363.4896682049994 -78.09605052680854 0 -78.09605052680854 -9072.7516531526198 0 0 0 -1927.3154962368963 1343.4893236847056 -67.104113502031396 0 -67.104113502031396 -9067.8110954061267 0 0 0 -1931.0804429303535 1153.5346345042381 -41.606364055623999 0 -41.606364055623999 -8910.023190755237 0 0 0 -1939.1221390627506 1159.7313901959023 -43.169041142886272 0 -43.169041142886272 -8914.8846260206483 0 0 0 -1938.788308956191 1161.696070309903 22.236455816397211 0 22.236455816397211 -8852.1393924001168 0 0 0 -1922.6108305225498 1166.647778088678 -85.918885578932532 0 -85.918885578932532 -8855.6058318859068 0 0 0 -1922.2395134493127 1303.4417315628452 -85.312982350733364 0 -85.312982350733364 -9080.2331294740143 0 0 0 -1944.1978494777941 1194.0604598139907 -362.99315772471164 0 -362.99315772471164 -9071.7273572681443 0 0 0 -1969.4167243635384 1506.9962702518824 -137.01138311966497 0 -137.01138311966497 -9113.9925767789537 0 0 0 -1901.7490766317569 1603.571314912755 -83.52535200145212 0 -83.52535200145212 -8992.9328295065789 0 0 0 -1847.3403786484487 1580.9394979374501 -173.1971102264215 0 -173.1971102264215 -8937.7748028329843 0 0 0 -1839.208826223874 1806.1813494960461 40.17702528310474 0 40.17702528310474 -9120.0124362788847 0 0 0 -1828.4577716957047 1814.2428707566723 136.39412909382008 0 136.39412909382008 -8534.9418923038756 0 0 0 -1680.1747553868045 1639.8972637983097 45.35372157839447 0 45.35372157839447 -8943.678171286716 0 0 0 -1825.9452268720997 1548.2631262690948 19.485914114789921 0 19.485914114789921 -8966.413737411116 0 0 0 -1854.5376527855087 1419.7203116667442 -15.354636503245274 0 -15.354636503245274 -9087.8075010688335 0 0 0 -1917.0217973505278 1430.0659509689212 -27.274727511779929 0 -27.274727511779929 -9042.8440951431839 0 0 0 -1903.1945360435566 1453.0422808484436 30.498594544484149 0 30.498594544484149 -9064.7177238352306 0 0 0 -1902.9188607466931 1257.0251104370036 2.0916533208001056 0 2.0916533208001056 -9130.8557832299412 0 0 0 -1968.4576681982289 1243.7543013821378 13.088204035069793 0 13.088204035069793 -9190.8362736682466 0 0 0 -1986.7704930715299 1222.8233974870091 -33.77242237561768 0 -33.77242237561768 -9151.5671379595587 0 0 0 -1982.1859351181411 1256.5355932870089 21.230565009194834 0 21.230565009194834 -9194.2165426897809 0 0 0 -1984.4202373506841 1213.6708489198936 35.168966754445137 0 35.168966754445137 -9095.182854120736 0 0 0 -1970.3780013002106 1522.4543918789968 28.86637343993425 0 28.86637343993425 -8885.4202138925866 0 0 0 -1840.7414555034011 1330.0816070336732 16.654261956877235 0 16.654261956877235 -8897.5255614432681 0 0 0 -1891.860988602406 1369.0693447781305 19.628573034686269 0 19.628573034686269 -9055.0719473833524 0 0 0 -1921.5006506513018 1411.3069652273189 29.966120110024349 0 29.966120110024349 -8915.9360964820371 0 0 0 -1876.1572828136777 1411.93792305444 8.1310084431315772 0 8.1310084431315772 -8887.2506729101442 0 0 0 -1868.8281874639324 1529.5307445443395 68.400010473233124 0 68.400010473233124 -8617.9313171470858 0 0 0 -1772.1001431506884 1589.3926607388785 10.241295219690073 0 10.241295219690073 -8601.0965292568944 0 0 0 -1752.9259671295076 1677.0662230227754 31.338363674880384 0 31.338363674880384 -8345.2795485345705 0 0 0 -1667.0533313779524 1537.1095682960004 4.4661467584737693 0 4.4661467584737693 -8457.4353915152169 0 0 0 -1730.0814558048005 1690.5202446463031 -30.353658380212437 0 -30.353658380212437 -8410.5343776654991 0 0 0 -1680.0035332547973 1716.8665685412416 -72.834351258503773 0 -72.834351258503773 -8333.6053036693193 0 0 0 -1654.1846837820121 1594.0327497332255 -14.525196565798979 0 -14.525196565798979 -8355.950233221447 0 0 0 -1690.4793708720572 2121.8441695481742 -113.19418662968019 0 -113.19418662968019 -8154.0337575864687 0 0 0 -1508.0473970095773 1941.6816776499472 -130.16121909974026 0 -130.16121909974026 -8060.2640595121993 0 0 0 -1529.6455954655612 1816.7239882594913 -27.36486717939988 0 -27.36486717939988 -8262.2601786903542 0 0 0 -1611.3840476077203 1917.1877592338351 15.796271022722067 0 15.796271022722067 -8292.6945121439931 0 0 0 -1593.8766882275377 1646.5305538103275 86.05773486785256 0 86.05773486785256 -8564.2269978112017 0 0 0 -1729.4241110002185 1800.7551937402459 43.563021542217029 0 43.563021542217029 -8257.2761423001066 0 0 0 -1614.1302371399579 1715.2472749632652 46.189994726399163 0 46.189994726399163 -8584.9615956358903 0 0 0 -1717.4285801681472 1815.4310143361799 103.78784822791204 0 103.78784822791204 -8559.1278160436777 0 0 0 -1685.9242004268744 2169.0595765858961 276.8696286391787 0 276.8696286391787 -8521.6542417454039 0 0 0 -1588.1486662898678 1928.1050826348655 70.095477349525027 0 70.095477349525027 -8187.6250367700122 0 0 0 -1564.8799885337794 2040.7286720694319 -116.01308635488203 0 -116.01308635488203 -9395.0982070978789 0 0 0 -1838.5923837571099 2363.0399299192068 -59.864523599106178 0 -59.864523599106178 -6918.0075921226671 0 0 0 -1138.7419155508614 1941.9332153838623 63.998830853866821 0 63.998830853866821 -8200.7760632994468 0 0 0 -1564.7107119788961 1164.4974873023457 -536.35837696336966 0 -536.35837696336966 -8913.0139827992825 0 0 0 -1937.1291238742269 2869.6374408364936 446.2366626112198 0 446.2366626112198 -8219.472765005863 0 0 0 -1337.4588310423424 8.4295472790605857 -0.71342221784945847 0 -0.71342221784945847 -3.3386140025811528 0 0 0 1.2727333191198653 1026.456883216073 -682.23858878704209 0 -682.23858878704209 -7606.8629154556838 0 0 0 -1645.10150805991 1349.3022271083319 77.424111228254333 0 77.424111228254333 -8315.1107152922341 0 0 0 -1741.4521220459792 -6.1952455922328937 -2.6702723497114147 0 -2.6702723497114147 -12.726415199764347 0 0 0 -4.7304151979993065 2860.0614890716533 -419.94928581966815 0 -419.94928581966815 -7878.6636516096769 0 0 0 -1254.6505406345095 1585.4023241630543 291.26129610268254 0 291.26129610268254 -7641.7008453575108 0 0 0 -1514.0746302986176 -2.7391732120257757 -3.5849222834265304 0 -3.5849222834265304 -11.574391073238871 0 0 0 -3.578391071316176 2557.1650129211193 112.12876673063874 0 112.12876673063874 -8049.054163865294 0 0 0 -1372.9722877360327 1603.6612239607493 -117.42498026155954 0 -117.42498026155954 -8262.9930396543059 0 0 0 -1664.8329539233891 2060.3537748367416 -99.509288923713029 0 -99.509288923713029 -7867.6424682334036 0 0 0 -1451.8221733491664 2358.4861064044562 -96.304897175570659 0 -96.304897175570659 -8525.2550079510547 0 0 0 -1541.6922253866578 2531.3775973543816 -146.23070727808863 0 -146.23070727808863 -8024.7175496593118 0 0 0 -1373.3349880762325 2140.4689421228104 -96.382206750706246 0 -96.382206750706246 -8084.8422712029133 0 0 0 -1486.0933322700366 2191.0652200787554 -108.0645989401819 0 -108.0645989401819 -8092.576991842936 0 0 0 -1475.3779429410461 2381.2193210909536 -28.156268672550141 0 -28.156268672550141 -7592.6795745759446 0 0 0 -1302.8650633712459 2434.4548957267143 -257.22797099716263 0 -257.22797099716263 -8041.1476015067019 0 0 0 -1401.6731764449978 2158.6875273372643 -96.259629552645492 0 -96.259629552645492 -8087.9275628573087 0 0 0 -1482.3100088800056 1484.0756114736287 -50.516725556978599 0 -50.516725556978599 -8072.6034434989269 0 0 0 -1647.1319580063209 1639.4413884118185 -17.927998608356575 0 -17.927998608356575 -7618.4075875595881 0 0 0 -1494.7415497869442 1640.7258597201871 -221.21458091775276 0 -221.21458091775276 -7925.584950976976 0 0 0 -1571.2147728141936 -3.668544549446537 -4.4708632466006923 0 -4.4708632466006923 -11.884181517777222 0 0 0 -3.8881815168059433 1674.4055779904484 202.66960862064298 0 202.66960862064298 -7891.1646851495752 0 0 0 -1554.189776789779 1663.9982110661367 121.39690117829014 0 121.39690117829014 -8279.3921413276694 0 0 0 -1653.8484825653868 1810.1344028487001 -89.936988287896384 0 -89.936988287896384 -8321.8775698615209 0 0 0 -1627.9357917532107 1738.4127910014504 -265.57553833361015 0 -265.57553833361015 -7988.6189870534872 0 0 0 -1562.5515490129983 2377.7650654315948 135.68913312493149 0 135.68913312493149 -7993.3862662443426 0 0 0 -1403.9053002031869 -3.4106928508429064 -5.1478046855163431 0 -5.1478046855163431 -11.798230949610286 0 0 0 -3.8022309501133122 1790.2733232858591 -87.769754568173084 0 -87.769754568173084 -7658.0199509806698 0 0 0 -1466.93665692371 2426.1213550160101 -42.661556046034093 0 -42.661556046034093 -8008.3037965559924 0 0 0 -1395.5456103849865 2201.7191742087089 -149.18464739394403 0 -149.18464739394403 -8073.7027004417032 0 0 0 -1467.9958815582577 2291.1603787480199 -35.393470555842214 0 -35.393470555842214 -8452.0782354298135 0 0 0 -1540.2294641704502 2196.4932985234354 -78.754839534536586 0 -78.754839534536586 -8037.7192886225384 0 0 0 -1460.3064975247744 2119.8759956077556 -74.732191790375509 0 -74.732191790375509 -8029.6008900325833 0 0 0 -1477.4312236062033 2160.1479257167739 -149.12655620151418 0 -149.12655620151418 -8066.7661629457289 0 0 0 -1476.6545593072369 2079.8790959873004 -141.68624176151934 0 -141.68624176151934 -8069.0022865161591 0 0 0 -1497.2807976322147 2132.4558669239987 -91.706246319183265 0 -91.706246319183265 -8063.7354344305386 0 0 0 -1482.8198918766366 2006.232403919661 -131.05154851218686 0 -131.05154851218686 -8157.1464254270686 0 0 0 -1537.7285053768574 2018.5996341932259 -143.5878497870508 0 -143.5878497870508 -8132.9138708265673 0 0 0 -1528.5785591583262 1980.1496163407398 -162.06498357659439 0 -162.06498357659439 -8120.6565854291421 0 0 0 -1535.1267422721023 1912.9288148784253 -108.00303502894894 0 -108.00303502894894 -8178.3179453628545 0 0 0 -1566.3472826211073 1862.9719628870153 -101.33322764907643 0 -101.33322764907643 -8234.749708842719 0 0 0 -1592.9444364889205 1879.7346449557363 -104.29466502183641 0 -104.29466502183641 -8161.4400337131001 0 0 0 -1570.4263471893437 1806.794182472353 -76.404851366963157 0 -76.404851366963157 -8214.1164820363192 0 0 0 -1601.8305748909988 1725.4396073018434 -79.793252609211777 0 -79.793252609211777 -8243.2990385917437 0 0 0 -1629.4648578224733 1791.0276796260805 -59.498361664092954 0 -59.498361664092954 -8284.9472631484241 0 0 0 -1623.4798958805841 1686.9845874461785 -82.977831033931579 0 -82.977831033931579 -8309.833857063466 0 0 0 -1655.7123174043231 1931.6403748945349 -143.93919519787596 0 -143.93919519787596 -8167.745238543157 0 0 0 -1559.0262159121548 2088.9877286581159 -142.05055862422159 0 -142.05055862422159 -8141.2531246028157 0 0 0 -1513.0663489861927 2018.3841025798392 -85.30969589799497 0 -85.30969589799497 -8140.9042091879237 0 0 0 -1530.6300266520266 2009.6245152133488 -30.906744047359098 0 -30.906744047359098 -8330.4241097034537 0 0 0 -1580.1998986225371 2136.9501095184023 -21.851999542996055 0 -21.851999542996055 -8299.4280466530035 0 0 0 -1540.6194842836558 1967.4099255020265 -74.15270701209738 0 -74.15270701209738 -8384.3044596142136 0 0 0 -1604.2236335280322 2135.6566947820465 -14.894048531641602 0 -14.894048531641602 -8391.6238342513388 0 0 0 -1563.9917848673358 2028.3509185858929 -5.2600134150852682 0 -5.2600134150852682 -8507.9193893354386 0 0 0 -1619.8921176873846 1902.5126675558422 -22.163263424263278 0 -22.163263424263278 -8394.0451994017058 0 0 0 -1622.8831329614768 1930.6216942601059 -53.720235666951339 0 -53.720235666951339 -8449.8030044746265 0 0 0 -1629.7953275536238 1849.8436455760821 -61.178935812960844 0 -61.178935812960844 -8462.4906053801096 0 0 0 -1653.1617399510069 1722.2772806525754 -93.102420442650327 0 -93.102420442650327 -8518.7742813117075 0 0 0 -1699.1242501647794 1766.6521902068489 -86.446568713066881 0 -86.446568713066881 -8436.806955074775 0 0 0 -1667.5386912169779 1797.0401561822655 -70.359678979337332 0 -70.359678979337332 -8365.3829849991889 0 0 0 -1642.0857072042127 1851.5780953195099 -105.70502071954252 0 -105.70502071954252 -8364.1246572684468 0 0 0 -1628.1366404872206 1919.0694648602221 -60.168192137156439 0 -60.168192137156439 -8300.8111877352931 0 0 0 -1595.435430718775 1823.8306747155802 -82.246644039019884 0 -82.246644039019884 -8283.3170764957904 0 0 0 -1614.8716004450544 1720.4754107234567 -140.49166430997138 0 -140.49166430997138 -8257.4258563877956 0 0 0 -1634.2376114160779 1728.7990428329213 -94.869337850603188 0 -94.869337850603188 -8281.8437611318659 0 0 0 -1638.2611795747362 1591.6382415371754 -149.70057156438997 0 -149.70057156438997 -8356.560160987643 0 0 0 -1691.2304798626228 1719.5202511147945 -124.96858720794262 0 -124.96858720794262 -8342.6179003400903 0 0 0 -1655.7744123063167 1718.4930940386839 -63.302203058370651 0 -63.302203058370651 -8433.4417104864842 0 0 0 -1678.7371541119501 1615.2620285935336 -123.44274575834424 0 -123.44274575834424 -8604.7765483877738 0 0 0 -1747.3786299485728 1645.8497716768397 -119.77324802531803 0 -119.77324802531803 -8355.9989920516382 0 0 0 -1677.5373050937051 1530.3555667475302 -206.87082004635886 0 -206.87082004635886 -8655.1276275079872 0 0 0 -1781.1930151901033 1495.5625824096496 -225.87129860021469 0 -225.87129860021469 -8771.5921530147898 0 0 0 -1819.007392651285 1483.7611799776387 -364.15842004586739 0 -364.15842004586739 -8185.4009119418806 0 0 0 -1675.4099329910568 1558.3107745798952 -75.393368778772128 0 -75.393368778772128 -8069.6734143548783 0 0 0 -1627.8406599437476 1569.9364837382891 -81.38826868268734 0 -81.38826868268734 -8227.7387959819753 0 0 0 -1664.4505780609252 1610.7507030553088 -133.34679073662119 0 -133.34679073662119 -8196.1451843842733 0 0 0 -1646.3486203322473 1626.1604564311929 -86.393320608280192 0 -86.393320608280192 -8006.1668835064629 0 0 0 -1595.0016067688193 1694.4869947562547 -93.381983062412473 0 -93.381983062412473 -8134.8414056127949 0 0 0 -1610.0886027141314 1761.1935025970015 -88.581602916012343 0 -88.581602916012343 -8113.3484656591318 0 0 0 -1588.0387407655289 1675.4670372846667 -55.248191256490827 0 -55.248191256490827 -8114.6439600110461 0 0 0 -1609.7942306815894 1800.3072254729486 22.541996047220891 0 22.541996047220891 -7932.5897602669575 0 0 0 -1533.0706336984877 1850.5969841134865 -105.55895151342702 0 -105.55895151342702 -8011.4120878641843 0 0 0 -1540.2037759376763 1757.8314686105002 -119.37887753758696 0 -119.37887753758696 -8042.3423673643929 0 0 0 -1571.1277246884786 1827.0875673652663 -74.711736372533778 0 -74.711736372533778 -8086.5390173612541 0 0 0 -1564.8628624989979 1809.6526402981763 -115.78357289333871 0 -115.78357289333871 -8114.0941624214465 0 0 0 -1576.1103805308303 1884.4702943147804 -94.652526550285984 0 -94.652526550285984 -8084.3412170846204 0 0 0 -1549.9677306924623 1925.4276351489343 -107.8908787315886 0 -107.8908787315886 -8068.6366125373243 0 0 0 -1535.8022443471027 1886.6185692987056 -114.30866207372674 0 -114.30866207372674 -8118.7314936483745 0 0 0 -1558.0282310874172 1928.4429316657806 -103.11103415975958 0 -103.11103415975958 -8161.2358927960158 0 0 0 -1558.1982402825488 1832.319686806899 -115.47833225263457 0 -115.47833225263457 -8177.0931002683355 0 0 0 -1586.1933533653646 1791.744200521016 -83.621517389328801 0 -83.621517389328801 -8132.4101340632769 0 0 0 -1585.166483385563 1824.528241208558 -94.176687178609427 0 -94.176687178609427 -8194.4363858747529 0 0 0 -1592.4770361665505 1848.2630037878944 -119.10880295762036 0 -119.10880295762036 -8263.8372049801874 0 0 0 -1603.8935502980867 1910.1603754001917 -79.434022166751674 0 -79.434022166751674 -8218.7129467209452 0 0 0 -1577.1381428301829 1938.3465609510686 -99.446089439617936 0 -99.446089439617936 -8290.5942947916174 0 0 0 -1588.0619334601424 1975.5002169814106 -76.322137270092298 0 -76.322137270092298 -8197.0371262602275 0 0 0 -1555.3842273197224 1970.6539959817128 -90.566929290696862 0 -90.566929290696862 -8207.5433713253733 0 0 0 -1559.2223438359179 1931.2886678670329 -110.31359466967842 0 -110.31359466967842 -8166.5011395455804 0 0 0 -1558.8031179196551 1977.3517410242584 -112.61418451387726 0 -112.61418451387726 -8088.747420136875 0 0 0 -1527.848919778151 2008.8123497037632 -90.784955834795255 0 -90.784955834795255 -8131.6761377350813 0 0 0 -1530.7159470078441 2004.5060147687036 -77.735506210359745 0 -77.735506210359745 -8133.1115827134345 0 0 0 -1532.1513919861827 2037.5496965950297 -81.672451768245082 0 -81.672451768245082 -8183.7157373912924 0 0 0 -1536.5415101990511 2129.3788875517203 -26.982997255836381 0 -26.982997255836381 -8145.0619104752404 0 0 0 -1503.9207557308764 2056.9054109258723 -46.321785692765843 0 -46.321785692765843 -8123.7829814719298 0 0 0 -1516.7193926365144 2059.5701401011102 -45.630261123165837 0 -45.630261123165837 -8178.5490613650327 0 0 0 -1529.7447303159861 2155.7500257145948 -18.372884364769561 0 -18.372884364769561 -8206.9466554440442 0 0 0 -1512.7991574323678 2036.7674311787923 -59.07212942437036 0 -59.07212942437036 -8243.1222836479719 0 0 0 -1551.5887131173004 2032.4181554254901 -47.753068020092542 0 -47.753068020092542 -8245.5666728846845 0 0 0 -1553.2871293647913 2033.1101536202941 -38.37463871120417 0 -38.37463871120417 -8029.8051935747999 0 0 0 -1499.1737599886301 2074.5895903990022 -38.634529486436804 0 -38.634529486436804 -8016.023217459704 0 0 0 -1485.3584067651755 2025.4749160833671 -62.605425634392304 0 -62.605425634392304 -8050.576657131387 0 0 0 -1506.2754352620177 2077.8429289557753 -27.948124307076796 0 -27.948124307076796 -8057.848317941156 0 0 0 -1495.001347246347 2064.2592929798302 -35.31280484625313 0 -35.31280484625313 -8068.6828803935496 0 0 0 -1501.1058968534307 2114.5134452584171 -29.208849806100059 0 -29.208849806100059 -8093.6768016816059 0 0 0 -1494.7908391058008 2073.4842282804311 -62.443077207983151 0 -62.443077207983151 -8097.9140383779304 0 0 0 -1506.1074525243894 2073.7283503225626 -56.072516912803621 0 -56.072516912803621 -8055.155425438832 0 0 0 -1495.3567687790637 2032.2691492867889 -88.459266202040453 0 -88.459266202040453 -8070.5675252819492 0 0 0 -1509.5745939987974 2022.7568849379895 -77.168869813831407 0 -77.168869813831407 -8092.5064491261437 0 0 0 -1517.4373910470313 1984.5566814082922 -93.30487531482504 0 -93.30487531482504 -8086.1013782375085 0 0 0 -1525.3861742072986 1998.6882416913941 -94.26886365863902 0 -94.26886365863902 -8048.6627905546629 0 0 0 -1512.493637215819 2021.3942891096231 -84.050578359841893 0 -84.050578359841893 -8000.7298143609951 0 0 0 -1494.8338813128357 2041.0599000497859 -79.293210849064053 0 -79.293210849064053 -8024.2677627660523 0 0 0 -1495.8019656790675 2030.9877456144732 -71.601825105157332 0 -71.601825105157332 -7994.7806637992762 0 0 0 -1490.9482295462021 2000.7363878938195 -90.916207162656065 0 -90.916207162656065 -7971.2576710009016 0 0 0 -1492.6303207767633 2022.1548633640668 -83.710778874330572 0 -83.710778874330572 -7909.4246127908555 0 0 0 -1471.8174373566908 1984.3896525736054 -114.04443448958045 0 -114.04443448958045 -7956.0086583165394 0 0 0 -1492.9047514357371 2026.7089974199189 -91.667873888012764 0 -91.667873888012764 -7980.2188357448613 0 0 0 -1488.3774595812429 2002.0707434191136 -105.84142291980049 0 -105.84142291980049 -8037.6564855054312 0 0 0 -1508.8964355215867 1979.652409588376 -109.00172939562617 0 -109.00172939562617 -8008.3950174570127 0 0 0 -1507.1856519671601 1931.5997307865473 -102.27182670584443 0 -102.27182670584443 -8061.1242594028881 0 0 0 -1532.3811321540925 1959.4524741140922 -99.267139255214715 0 -99.267139255214715 -7995.8129649109906 0 0 0 -1509.090122699221 1977.1009972557513 -95.067532579183535 0 -95.067532579183535 -8003.4836503806873 0 0 0 -1506.5956632812304 1925.3844350943837 -82.338161676183518 0 -82.338161676183518 -7991.6080237785645 0 0 0 -1516.5558971710489 1893.0109128797849 -75.264907394938746 0 -75.264907394938746 -7976.5841196486144 0 0 0 -1520.8933016922019 1879.9328304672963 -111.40870173973963 0 -111.40870173973963 -8023.539965346863 0 0 0 -1535.9017837198844 1950.2062100715521 -69.216684146187617 0 -69.216684146187617 -7967.0509721460257 0 0 0 -1504.2111905186066 1818.2418855280266 17.969970541082148 0 17.969970541082148 -8086.4827794743178 0 0 0 -1567.0602234865801 1984.2971720512069 -116.15599689474038 0 -116.15599689474038 -7874.3389369362267 0 0 0 -1472.5104412212531 1960.6087948603817 -110.3612134681207 0 -110.3612134681207 -7979.8459787087922 0 0 0 -1504.809295962099 1982.582005453394 -104.95655754915788 0 -104.95655754915788 -7974.7290215306393 0 0 0 -1498.0367540193076 2043.6343550221072 -54.419510442450701 0 -54.419510442450701 -7829.2984825285203 0 0 0 -1446.4160318765998 1978.3614509124309 -19.80374235848285 0 -19.80374235848285 -7899.0754632279568 0 0 0 -1480.1785030788888 2079.390138423958 -63.41920484660659 0 -63.41920484660659 -7703.7327393985179 0 0 0 -1406.0856502436509 2041.2049782255854 -110.94252206300007 0 -110.94252206300007 -7863.7945836272847 0 0 0 -1455.6474013504267 2081.0417201308373 4.9294631055090576 0 4.9294631055090576 -7741.1437202359375 0 0 0 -1415.0255000262696 2080.4114412031558 3.0011536210367922 0 3.0011536210367922 -7676.3301144310681 0 0 0 -1398.9796683069872 2156.0348894705039 65.071919785288628 0 65.071919785288628 -7662.1180905934707 0 0 0 -1376.5208002807321 2093.6195377348049 19.436594997205248 0 19.436594997205248 -7785.2733656044875 0 0 0 -1422.9134569674206 2102.410166624104 6.6902213893408771 0 6.6902213893408771 -7741.3064373098896 0 0 0 -1409.7240676714719 2037.226522493118 -37.6208433831872 0 -37.6208433831872 -7908.5585841804568 0 0 0 -1467.833015421842 2072.9624890129417 -22.352360299075372 0 -22.352360299075372 -7801.3506846213713 0 0 0 -1432.0970489021056 2074.4985272276317 -21.581422413296423 0 -21.581422413296423 -7806.0471432080376 0 0 0 -1432.8871539951069 2035.251619432689 -74.290371750074428 0 -74.290371750074428 -7935.676651161164 0 0 0 -1475.1062579321224 2035.5243149518938 -77.044758336773157 0 -77.044758336773157 -7865.9836949489545 0 0 0 -1457.6148449992688 2049.7457762064405 -65.978203298007429 0 -65.978203298007429 -7887.8856853507168 0 0 0 -1459.5349772860645 2004.6653115192166 -79.77457235289512 0 -79.77457235289512 -7911.8888515495928 0 0 0 -1476.8058850075904 2041.8456829556962 -71.936784122619429 0 -71.936784122619429 -7937.1897817893478 0 0 0 -1473.8360247084202 2061.1715569455118 -54.71682486422651 0 -54.71682486422651 -7976.3643677070795 0 0 0 -1478.7982026903919 2033.7569502580736 -46.024709373725273 0 -46.024709373725273 -7952.4467424742179 0 0 0 -1479.6724480540288 2031.8155240028354 -38.326810046033643 0 -38.326810046033643 -7981.296913529688 0 0 0 -1487.3703473817222 2050.2471419558351 -50.400120805526967 0 -50.400120805526967 -7892.550667324831 0 0 0 -1460.5758813422508 2050.7650007463453 -27.229490611040092 0 -27.229490611040092 -7880.3786506216857 0 0 0 -1457.4034124688333 2037.0430434329464 -16.322011680131254 0 -16.322011680131254 -7941.671461169637 0 0 0 -1476.1571044341763 2027.7102805001196 -19.683113954542932 0 -19.683113954542932 -7945.4988403985626 0 0 0 -1479.4471399746108 2032.8758179120196 -22.708424073178321 0 -22.708424073178321 -7939.7120985899237 0 0 0 -1476.7090701694688 2038.2142695890361 -20.790082379164232 0 -20.790082379164232 -7964.5243129262817 0 0 0 -1481.5775108343078 2018.3821689104507 -5.085361682009534 0 -5.085361682009534 -7968.3503354619061 0 0 0 -1487.49204163786 2020.0012940581073 -4.2614178412259207 0 -4.2614178412259207 -7981.3227224475413 0 0 0 -1490.3303570973512 2017.0276638759024 -3.7080406331951963 0 -3.7080406331951963 -7981.4548441605875 0 0 0 -1491.1067950711658 2017.4429564137972 -9.1053231239857269 0 -9.1053231239857269 -7992.3688795591879 0 0 0 -1493.731480786344 2029.1034057244105 -14.602025166605017 0 -14.602025166605017 -8006.8183589347755 0 0 0 -1494.4287383025803 2040.9106730139201 -23.406864216958638 0 -23.406864216958638 -7980.6821805191794 0 0 0 -1484.9428768763073 2056.9777092826407 -24.444624424781068 0 -24.444624424781068 -7996.9605796500982 0 0 0 -1484.9957175918826 2067.2889856957481 -158.62182960667633 0 -158.62182960667633 -7975.0915718922624 0 0 0 -1476.9506465491286 2111.7369288792106 -126.17340352097744 0 -126.17340352097744 -7943.3316737555142 0 0 0 -1457.8986862190795 2164.9776422949362 -130.65502073436073 0 -130.65502073436073 -7933.4951124661893 0 0 0 -1442.1293675428169 2125.9826920091145 -124.15738836658602 0 -124.15738836658602 -7871.2743422738276 0 0 0 -1436.3229125661819 2057.3170190747855 -147.412417824773 0 -147.412417824773 -7890.1157801641129 0 0 0 -1458.1996902723317 2004.0683180341584 -181.06695222486087 0 -181.06695222486087 -7995.2562416614091 0 0 0 -1497.796980906809 1995.3552618776739 -148.66141284942387 0 -148.66141284942387 -7979.9453087970032 0 0 0 -1496.1475117298323 2016.6318832438319 -140.70992306757034 0 -140.70992306757034 -8033.9335139487157 0 0 0 -1504.3254076762187 1962.415122257582 -170.29603894819957 0 -170.29603894819957 -8100.2570820464171 0 0 0 -1534.4604899472033 1897.6555954044434 -145.46441004759981 0 -145.46441004759981 -8110.3875087969354 0 0 0 -1553.1829783481244 2067.1373137104456 -118.24376404164286 0 -118.24376404164286 -8062.2862986907712 0 0 0 -1498.7872462450759 2081.3152840934345 -148.50200971130107 0 -148.50200971130107 -8055.2751039761206 0 0 0 -1493.4899549706679 2038.2433155123881 -160.42139700201733 0 -160.42139700201733 -7984.2659603191169 0 0 0 -1486.5056612016842 2121.0213687842042 -131.35848166919902 0 -131.35848166919902 -7937.0303351434413 0 0 0 -1454.0022415898056 2173.5610324311201 -107.88204520089494 0 -107.88204520089494 -8010.9827064966812 0 0 0 -1459.3554185163921 2187.3404526074009 -107.83428651461145 0 -107.83428651461145 -7969.590974187653 0 0 0 -1445.562630395063 2313.6661171492597 -34.178569560368487 0 -34.178569560368487 -7465.0155932793423 0 0 0 -1287.837369032517 2214.9204253435601 -42.829588399945351 0 -42.829588399945351 -8379.6215842982347 0 0 0 -1541.1752897386759 2374.4489519355047 -68.279356966399064 0 -68.279356966399064 -7907.9211055947089 0 0 0 -1383.3680384147992 1901.9509351015458 100.61429909151047 0 100.61429909151047 -7701.7820106014187 0 0 0 -1449.957768874976 1811.2334198090248 199.26220873777928 0 199.26220873777928 -8046.470357834216 0 0 0 -1558.8092345062905 2296.9137627168529 -235.31861127390584 0 -235.31861127390584 -7941.990322175363 0 0 0 -1411.2691398646239 -3.5122128363198044 -5.6604365257569427 0 -5.6604365257569427 -11.832070943186807 0 0 0 -3.8360709448766386 2091.1830576792418 -82.246066433581291 0 -82.246066433581291 -7924.9444793046132 0 0 0 -1458.4403554063392 1953.9938831501895 -33.059672893024981 0 -33.059672893024981 -8309.2890247189207 0 0 0 -1588.8237853921928 1962.6220272686915 -134.85602863941313 0 -134.85602863941313 -7601.5188090855081 0 0 0 -1409.7241954542042 -3.3617421179514508 -6.0184463322680983 0 -6.0184463322680983 -11.781914036718717 0 0 0 -3.7859140386675563 2230.5112322200439 152.65296370497526 0 152.65296370497526 -7879.1615775782557 0 0 0 -1412.1625863395457 1900.1708943127378 -262.36873319728329 0 -262.36873319728329 -7963.8620315494627 0 0 0 -1515.9227843091867 -3.8652442855940023 -6.1993813813107224 0 -6.1993813813107224 -11.949748093704159 0 0 0 -3.9537480948245616 2130.5006420467344 68.43013763291674 0 68.43013763291674 -7590.9902913902879 0 0 0 -1365.1224123358897 2166.8091748149527 -69.82313061536388 0 -69.82313061536388 -7883.2125301792694 0 0 0 -1429.1008388410846 2220.5738533526383 -30.884794812758628 0 -30.884794812758628 -7374.9162426734547 0 0 0 -1288.5855973302023 2144.4323013495014 -107.66015778571818 0 -107.66015778571818 -7828.6376221054525 0 0 0 -1421.0513301889732 2052.9456425957687 -57.829284129511507 0 -57.829284129511507 -7895.3794119572485 0 0 0 -1460.6084423403736 2310.4283534235583 -28.389556976690073 0 -28.389556976690073 -7735.7705587498785 0 0 0 -1356.3355513315764 2156.7133268574044 -107.62585301664512 0 -107.62585301664512 -7824.7266193502946 0 0 0 -1417.0033231232219 2182.3715768498732 -270.07415741085424 0 -270.07415741085424 -7837.0878324439691 0 0 0 -1413.6790638985258 2168.6500486270015 -21.782196215290242 0 -21.782196215290242 -8227.8070967852836 0 0 0 -1514.7892620395578 2003.8814785926024 63.675418635932147 0 63.675418635932147 -7856.2420364305308 0 0 0 -1463.0901394594821 2042.7176310247305 173.55787831295311 0 173.55787831295311 -7981.2389537805284 0 0 0 -1484.6303306889458 -1.9733865619670752 -6.2419574986293078 0 -6.2419574986293078 -11.319128854508506 0 0 0 -3.3231288541188917 2195.8550104540591 220.74677160666761 0 220.74677160666761 -7753.6016679316817 0 0 0 -1389.4366643693975 2154.5382739893253 -262.40958506562311 0 -262.40958506562311 -7944.1793794331743 0 0 0 -1447.4102763609621 2183.3589122307094 -157.05541956804336 0 -157.05541956804336 -7464.575105224023 0 0 0 -1320.3040482483339 2111.5543064340382 52.371505115719629 0 52.371505115719629 -7427.6631239644594 0 0 0 -1329.0272043826044 -9.0486312758410179 -6.1546218243167985 0 -6.1546218243167985 -13.677543761136349 0 0 0 -5.6815437592443487 2277.6212706055085 138.91438133402698 0 138.91438133402698 -7619.0137362980458 0 0 0 -1335.3481164231489 2202.3797973023757 40.36123916888755 0 40.36123916888755 -7874.3577923375415 0 0 0 -1417.9944987587951 2139.0192760773061 -15.921603455833974 0 -15.921603455833974 -7625.9261180754547 0 0 0 -1371.7267104995481 2172.383589381614 95.648447326071619 0 95.648447326071619 -7317.2497066241631 0 0 0 -1286.21652931063 2249.0955439991667 -179.98803583991304 0 -179.98803583991304 -7431.7346545963374 0 0 0 -1295.6597776492854 2117.0001726710761 -59.526059729971166 0 -59.526059729971166 -7782.2188789946085 0 0 0 -1416.3046765808904 2155.3255495605554 -78.904543162903792 0 -78.904543162903792 -7623.0372181923449 0 0 0 -1366.9279171579474 2030.2623193845902 -70.032946126448223 0 -70.032946126448223 -7692.4744665783801 0 0 0 -1415.5530367984502 2070.1528328568602 -40.437445027775539 0 -40.437445027775539 -7694.243258825707 0 0 0 -1406.0226064922026 2089.7702340374744 -40.575449944006721 0 -40.575449944006721 -7635.3869614887371 0 0 0 -1386.4041818628102 2067.554566546205 -62.691442737275793 0 -62.691442737275793 -7787.5406266509672 0 0 0 -1429.9965150261924 2098.7780390217376 -69.465471375302513 0 -69.465471375302513 -7688.6638515612285 0 0 0 -1397.4714531348727 2085.3376753183038 -123.81909548772092 0 -123.81909548772092 -7790.541384665572 0 0 0 -1426.3009273368152 2070.9683054905881 -128.84034285137022 0 -128.84034285137022 -7888.8862475138239 0 0 0 -1454.4794855058162 2146.449051239746 -84.553914251464448 0 -84.553914251464448 -7754.369127880811 0 0 0 -1401.9800191602626 2028.6766029438368 -153.06576433709051 0 -153.06576433709051 -7781.6500750940322 0 0 0 -1438.243368037547 2020.6943479825379 -165.43950270801724 0 -165.43950270801724 -7901.8551539958808 0 0 0 -1470.2902015033367 2026.3832301270704 -118.98831522181717 0 -118.98831522181717 -7726.3562004185369 0 0 0 -1424.9932425728657 2046.1579931840479 -114.23457665105525 0 -114.23457665105525 -7804.7402697590969 0 0 0 -1439.6455691437568 2004.4823874713766 -130.30523791620362 0 -130.30523791620362 -7775.9612239495036 0 0 0 -1442.8697091195281 2044.0630060421317 -66.112592606234102 0 -66.112592606234102 -7653.4492265828449 0 0 0 -1402.3465551351765 2000.741140038408 -55.870699102073559 0 -55.870699102073559 -7571.7111188638664 0 0 0 -1392.7424947063628 1977.3742721968665 -67.161889409027935 0 -67.161889409027935 -7631.1338065086456 0 0 0 -1413.439883577943 1995.1683264084495 -63.216564990521874 0 -63.216564990521874 -7430.9378020525764 0 0 0 -1358.9423689110299 1932.8194534931172 -116.42466164137204 0 -116.42466164137204 -7619.1455829729966 0 0 0 -1421.5815323699644 2006.71145756638 -101.67241064414338 0 -101.67241064414338 -7654.6162014626316 0 0 0 -1411.9761859740611 1993.1432956259587 -117.17874696673971 0 -117.17874696673971 -7648.4407445811921 0 0 0 -1413.8243622388045 1922.3245060937224 -3.2074781681680662 0 -3.2074781681680662 -7232.1167436122487 0 0 0 -1327.4480593796325 1883.7534999858665 -97.108639644538925 0 -97.108639644538925 -7346.6461307491554 0 0 0 -1365.7231576908187 1962.2898117380428 -60.687670547529251 0 -60.687670547529251 -7486.2340991270758 0 0 0 -1380.9860718472592 1908.845477614268 -136.75959542871715 0 -136.75959542871715 -7776.532793748207 0 0 0 -1466.9218290334829 1914.6681154293983 -176.51312449061516 0 -176.51312449061516 -7647.1989247470847 0 0 0 -1433.1327023294289 1905.1870019659 -188.78977236533683 0 -188.78977236533683 -7885.6166729985634 0 0 0 -1495.107417758165 1890.7001813616662 -156.30870366122781 0 -156.30870366122781 -8009.0947973035072 0 0 0 -1529.5986539854639 1847.9739007495955 -164.233014227284 0 -164.233014227284 -7812.6187097918446 0 0 0 -1491.1612022605623 1945.3033446789123 -183.11214863220812 0 -183.11214863220812 -7756.7314451415441 0 0 0 -1452.8570251156598 1959.4885862163937 -149.51695648347959 0 -149.51695648347959 -7829.780110675325 0 0 0 -1467.5728811147346 2013.9060342904522 -154.94277958884595 0 -154.94277958884595 -7879.2410291547567 0 0 0 -1466.3337487160752 1955.5425711452554 -179.60067985342175 0 -179.60067985342175 -7913.7792168106971 0 0 0 -1489.5591614163641 1945.4226283214302 -179.04744755750289 0 -179.04744755750289 -8066.0791750433709 0 0 0 -1530.1641366804834 1926.3077044413367 -149.57806780567989 0 -149.57806780567989 -8000.4540121407772 0 0 0 -1518.5365769248456 1897.8350821321947 -165.5030031755341 0 -165.5030031755341 -8111.8105072142935 0 0 0 -1553.4938562705211 1953.4235008203032 -184.30958164819822 0 -184.30958164819822 -7997.2161526628188 0 0 0 -1510.9481629606234 1870.0861536495613 -154.7818653132781 0 -154.7818653132781 -8011.012033800107 0 0 0 -1535.231470037641 1930.0121453784523 -135.6504462638859 0 -135.6504462638859 -7977.7367006369896 0 0 0 -1511.931138814638 1808.1740747108411 -122.97753775482124 0 -122.97753775482124 -8025.6424584911092 0 0 0 -1554.3670959450651 1772.6405703971323 -96.650722869051606 0 -96.650722869051606 -8203.0882986283395 0 0 0 -1607.6119320578073 1843.6593130639158 -150.88733167475584 0 -150.88733167475584 -8116.5037142993388 0 0 0 -1568.211100308843 1817.9512364986404 -131.94688739510821 0 -131.94688739510821 -8206.4746652301255 0 0 0 -1597.1308571828777 1730.3543360238091 -92.757308010706765 0 -92.757308010706765 -8178.8452160110392 0 0 0 -1612.1227199968071 1715.5676204743686 -54.317231347497909 0 -54.317231347497909 -8278.8190143568791 0 0 0 -1640.8128484706285 1766.7528106152222 -60.448222083119617 0 -60.448222083119617 -8245.8716566080147 0 0 0 -1619.7797114981968 1805.0321507897315 -129.69908342034796 0 -129.69908342034796 -8221.348438641653 0 0 0 -1604.0790719629804 1858.553778960453 -101.46040473604808 0 -101.46040473604808 -8161.1330606904776 0 0 0 -1575.64482043251 1895.2591542379159 -155.69830724021813 0 -155.69830724021813 -8153.1457253992412 0 0 0 -1564.4716427903259 1930.4335532647983 -133.12347785467864 0 -133.12347785467864 -8072.4002991240359 0 0 0 -1535.4916864648021 1842.5712480409429 -120.71969224839995 0 -120.71969224839995 -8111.2521895370919 0 0 0 -1567.1702353740393 1054.4022762928598 87.800470069349103 0 87.800470069349103 -8812.185435997053 0 0 0 -1939.4457899260542 -3.5740718280402461 10.864134912084005 0 10.864134912084005 -11.847357280192682 0 0 0 -3.8553572770582321 1138.9341965147723 -116.45306175793303 0 -116.45306175793303 -8359.6652637457591 0 0 0 -1805.182766807744 1313.1807099149428 275.45844352837958 0 275.45844352837958 -8397.1391851708904 0 0 0 -1770.9896188139846 1448.9398146602143 36.742800028197053 0 36.742800028197053 -7933.9314899147867 0 0 0 -1621.2479188136385 1524.3879779017952 3.7177216226191376 0 3.7177216226191376 -8316.5807524517586 0 0 0 -1698.0481936374854 1400.0980831904017 -52.981803975582807 0 -52.981803975582807 -8306.7923331145139 0 0 0 -1726.6735624810317 1688.9715174950124 -98.013255415862659 0 -98.013255415862659 -8188.1415396649099 0 0 0 -1624.7925055424748 1558.0882349644289 -107.51563384517067 0 -107.51563384517067 -8756.0928739762458 0 0 0 -1799.5011597529538 1675.9836740532883 -84.148035418998916 0 -84.148035418998916 -8192.046762013546 0 0 0 -1629.0157719900672 1501.7352685726937 -155.3252726119681 0 -155.3252726119681 -8177.1131598657776 0 0 0 -1668.8444728232689 1691.9043874278941 -53.706261927498417 0 -53.706261927498417 -8021.8506927253038 0 0 0 -1582.4865763243542 1580.4837208769059 -11.000300782890008 0 -11.000300782890008 -7624.9181684244104 0 0 0 -1511.108611886877 1486.6728755617642 216.9185106995028 0 216.9185106995028 -8035.809675727367 0 0 0 -1637.2842000414003 1172.0858309093946 374.84342327506238 0 374.84342327506238 -8050.5796707176924 0 0 0 -1719.6234599520758 1700.8592182632419 -21.226619257835409 0 -21.226619257835409 -7902.7431765901129 0 0 0 -1550.4709895817196 -3.8870323079361953 10.206896203251638 0 10.206896203251638 -11.951677438800061 0 0 0 -3.959677436684089 1327.3581574711479 -257.72497589827253 0 -257.72497589827253 -8217.3212625546003 0 0 0 -1722.4907762708626 1558.9808708704441 379.3907990025495 0 379.3907990025495 -8389.1915630502626 0 0 0 -1707.5526730449528 -3.4215275872309263 10.756384341946131 0 10.756384341946131 -11.796509200607034 0 0 0 -3.8045091969594864 1698.6294380913896 -96.857849893698585 0 -96.857849893698585 -8243.8483376428703 0 0 0 -1636.3047248878647 -2.0921944723152137 9.5807895014755502 0 9.5807895014755502 -11.353398156493313 0 0 0 -3.3613981572021459 1702.2815199805937 -378.48124569260108 0 -378.48124569260108 -7784.0445482763753 0 0 0 -1520.4407570739404 1944.8816637134987 311.38937979920956 0 311.38937979920956 -8185.8600943523415 0 0 0 -1560.2446076597116 1846.2337733404365 177.37101379323212 0 177.37101379323212 -7368.0678862158529 0 0 0 -1380.4585282188546 1857.9249750588656 -104.42853840874159 0 -104.42853840874159 -7986.84771457239 0 0 0 -1532.2306848783833 1890.8205470498615 -133.78832408683502 0 -133.78832408683502 -7786.1690101799177 0 0 0 -1473.8371157825168 1741.2354151371947 -16.080989522641175 0 -16.080989522641175 -8510.3241490026048 0 0 0 -1692.2721834663516 1692.2484729145112 -261.58329801289801 0 -261.58329801289801 -7874.6936372820483 0 0 0 -1545.6112910918851 1852.5500189426457 -152.26610404617168 0 -152.26610404617168 -7403.4476725590648 0 0 0 -1387.724413404103 1816.9454783928559 -152.11941740796556 0 -152.11941740796556 -7049.3147308440966 0 0 0 -1308.0923131128111 1966.9145365033251 133.65130383292853 0 133.65130383292853 -7146.7350510524684 0 0 0 -1294.9551286372848 1882.7228594549088 89.824283312507305 0 89.824283312507305 -7237.862670355069 0 0 0 -1338.7849527250401 1912.3506545529181 -59.402621056400676 0 -59.402621056400676 -7387.4192317874313 0 0 0 -1368.767144308631 1912.3919903279366 -118.00377597970146 0 -118.00377597970146 -7261.9145804800282 0 0 0 -1337.3806475380243 -8.7351789602867171 9.1431702385236235 0 9.1431702385236235 -13.56772631539593 0 0 0 -5.5757263189206725 2000.1367321043654 -114.21525964774671 0 -114.21525964774671 -7263.2828674369375 0 0 0 -1315.7865338331394 1897.9795071123572 -98.748623128387408 0 -98.748623128387408 -7257.2582040534762 0 0 0 -1339.8196742352811 1961.2669984524719 -62.999132029410248 0 -62.999132029410248 -7263.955206155355 0 0 0 -1325.6720519257224 1693.9812109431714 -45.037903275431745 0 -45.037903275431745 -7043.7021656867946 0 0 0 -1337.4302386859035 1829.7706836770503 38.023664168997129 0 38.023664168997129 -7707.7938819955671 0 0 0 -1469.5057995796305 1686.2819261998875 -24.228541159649467 0 -24.228541159649467 -7347.901618393912 0 0 0 -1415.4049230485043 1761.2364568478388 -105.66934487088656 0 -105.66934487088656 -7373.5979664521583 0 0 0 -1403.0903774010712 1794.9149155575205 57.927390905803804 0 57.927390905803804 -7782.64958941238 0 0 0 -1496.9336684637128 1489.2753029964633 594.93287878751266 0 594.93287878751266 -8699.5684271208374 0 0 0 -1802.5732810310919 1723.77068595528 161.64197848501658 0 161.64197848501658 -7290.7469890832072 0 0 0 -1391.7440757819804 1556.008601547087 565.06687018317825 0 565.06687018317825 -8361.5245617952951 0 0 0 -1701.3789900620541 1178.1004457938743 591.52382174540855 0 591.52382174540855 -8300.7169776200244 0 0 0 -1780.6541329565371 911.7179557123045 1191.2103495947158 0 1191.2103495947158 -8824.9724628094446 0 0 0 -1978.3136267742857 902.81622019214956 816.4180812249524 0 816.4180812249524 -8607.1544166789827 0 0 0 -1926.0845491217078 1253.334789643739 329.71688554110915 0 329.71688554110915 -8252.4611881982837 0 0 0 -1749.7815996386344 1672.4504150010434 258.7415201202939 0 258.7415201202939 -8136.5963131830722 0 0 0 -1616.0364745455099 1581.9171508299455 173.57113825693523 0 173.57113825693523 -7705.3815215592549 0 0 0 -1530.8660926823291 -1122.4625403315572 2672.5196107354695 0 2672.5196107354695 -9293.3653756145995 0 0 0 -2603.9569789865386 -3689.5316332139014 3698.631750146536 0 3698.631750146536 -11096.921355097658 0 0 0 -3696.6132470778903 -879.96147480162085 3035.302623704807 0 3035.302623704807 -14507.435774865202 0 0 0 -3846.8493124167053 2717.3479423588478 966.8798703526345 0 966.8798703526345 -9749.2002640925457 0 0 0 -1757.9630804334238 -598.62827110151829 2577.8886404287423 0 2577.8886404287423 -11120.280873592961 0 0 0 -2929.7272861736205 1705.7071780193237 1296.071088148562 0 1296.071088148562 -8798.5569018577116 0 0 0 -1773.2124309595956 1340.2746444621771 966.41820854249363 0 966.41820854249363 -9468.0168643984871 0 0 0 -2031.9355549840775 1187.8066039218484 819.07583291083938 0 819.07583291083938 -8678.4731520113673 0 0 0 -1872.6666370223793 1755.7373224485304 277.19769206012188 0 277.19769206012188 -7685.9152288082951 0 0 0 -1482.5444765899397 1176.593267409808 953.70641391217669 0 953.70641391217669 -8389.3858730542888 0 0 0 -1803.1981514111189 -205.23530800059098 1455.9038760286912 0 1455.9038760286912 -8673.4599087835068 0 0 0 -2219.6738041960239 -1330.0109219048973 2250.8564544415299 0 2250.8564544415299 -8961.5584199265741 0 0 0 -2572.8923354578692 360.20154752250914 1961.4821638604571 0 1961.4821638604571 -9565.0379990449492 0 0 0 -2301.2091128806114 -560.33504702413802 1927.6013549580935 0 1927.6013549580935 -8655.8984662178518 0 0 0 -2304.0583783104976 -1291.8761771048473 2749.0235086031066 0 2749.0235086031066 -9326.1403480113968 0 0 0 -2654.5041312790613 -2814.281171444753 2464.7375191413753 0 2464.7375191413753 -8447.643981618181 0 0 0 -2815.4812882657334 -2818.4919194634499 2466.5243371761494 0 2466.5243371761494 -8449.0466872058605 0 0 0 -2816.8846516673279 -2603.6628140903617 1697.4873074780762 0 1697.4873074780762 -7810.2327843083249 0 0 0 -2603.4738995996718 -1374.4124445638467 1901.9191737085373 0 1901.9191737085373 -7803.9734287695746 0 0 0 -2294.596468333355 -1180.2962455173238 1508.2441655149037 0 1508.2441655149037 -7956.3708701629039 0 0 0 -2284.1667789200565 -1808.0807289515544 1807.40929556629 0 1807.40929556629 -7925.2894146557537 0 0 0 -2433.342535901827 -1192.1600632461582 1677.3642671881316 0 1677.3642671881316 -8476.269357692112 0 0 0 -2417.1073552345683 34.708924401047625 1595.3510006542301 0 1595.3510006542301 -8130.9775811480686 0 0 0 -2024.0671641867548 -341.18224105819627 1283.1309708321755 0 1283.1309708321755 -8122.812561771636 0 0 0 -2115.9987007074578 -439.96938442077226 1260.8998567540034 0 1260.8998567540034 -8410.6327468287636 0 0 0 -2212.6505328123858 -982.77735838297212 1373.9156758239988 0 1373.9156758239988 -8329.800139781395 0 0 0 -2328.1443745410916 -1078.1018151342946 1077.2420608527791 0 1077.2420608527791 -8316.7382189601358 0 0 0 -2348.7100085236075 -450.9575647119018 1064.4522683150744 0 1064.4522683150744 -8107.5809280691792 0 0 0 -2139.6346231952721 -1395.943227211063 1196.9023732899971 0 1196.9023732899971 -8138.3176201134866 0 0 0 -2383.5652118311377 -1939.8518819593605 1502.9845639402274 0 1502.9845639402274 -8079.9450927976804 0 0 0 -2504.9492436892601 -1629.0081087265969 1410.6489232776644 0 1410.6489232776644 -7918.1802176234987 0 0 0 -2386.7970815875233 -2018.8940052809776 1241.2397567989847 0 1241.2397567989847 -7705.7800215235038 0 0 0 -2431.1685067011213 -2590.1994756544882 1415.4682100109499 0 1415.4682100109499 -7772.133469579122 0 0 0 -2590.5832363084023 -1769.0979599734346 1541.5356347299555 0 1541.5356347299555 -7514.688312334657 0 0 0 -2320.9465680770227 1009.0717548819703 593.80161125201812 0 593.80161125201812 -8350.1820348255278 0 0 0 -1835.2775699858903 686.17038005649738 673.12343006787705 0 673.12343006787705 -8433.7243778817283 0 0 0 -1936.8884994563086 1119.223213930125 313.97413098123434 0 313.97413098123434 -8399.0349459281933 0 0 0 -1819.9529329995221 1416.6152072445475 419.32483395314557 0 419.32483395314557 -8252.2293254612377 0 0 0 -1708.9035295541744 421.12034697188392 904.25008836860616 0 904.25008836860616 -8376.378787254187 0 0 0 -1988.8146100705771 470.62692491312373 1231.0940780578903 0 1231.0940780578903 -8355.434578253773 0 0 0 -1971.2019133351623 755.8761294586966 832.95324536766998 0 832.95324536766998 -8319.7834171682625 0 0 0 -1890.9768219273919 337.61187283386971 796.44701551576145 0 796.44701551576145 -8273.0740670340492 0 0 0 -1983.8655485500458 8.1711267186724399 903.1932644352446 0 903.1932644352446 -8402.3779269239603 0 0 0 -2098.5517000513214 -21.545300389427211 1149.9159983388527 0 1149.9159983388527 -8264.1520345545796 0 0 0 -2071.4243337360003 -368.23836076266775 869.17049491227044 0 869.17049491227044 -8475.2607970535046 0 0 0 -2210.8747894540438 610.61792923891153 558.10333407490907 0 558.10333407490907 -8346.2049168814774 0 0 0 -1933.8967469106447 281.1758494518981 636.44743386614346 0 636.44743386614346 -8423.3965819988007 0 0 0 -2035.5551831367266 1115.3847564334283 339.93573563029963 0 339.93573563029963 -8436.5209654102 0 0 0 -1830.2840522441911 658.07232857931194 323.7828961542491 0 323.7828961542491 -8303.5936304267889 0 0 0 -1911.380325461867 422.02200504825396 408.47980056355664 0 408.47980056355664 -8442.6131296699896 0 0 0 -2005.1477811554332 456.92646725026134 435.22782089752945 0 435.22782089752945 -8346.3224650640041 0 0 0 -1972.3489994534339 171.61430187812948 452.42184165357139 0 452.42184165357139 -8441.4265201880407 0 0 0 -2067.4530545774778 605.47154755119482 288.48876531331007 0 288.48876531331007 -8384.435183403577 0 0 0 -1944.7409089631001 3.5271336478108424 405.71600694983317 0 405.71600694983317 -8395.0443601716979 0 0 0 -2097.8793066309699 66.614315624286519 589.2255969152593 0 589.2255969152593 -8472.770048270284 0 0 0 -2101.5389331615011 136.04857241017999 630.47382805921643 0 630.47382805921643 -8317.8028288770729 0 0 0 -2045.4385641167228 -367.45439847314992 822.99064596989251 0 822.99064596989251 -8190.6785336888552 0 0 0 -2139.5332330404999 -699.78379250588205 828.255883661913 0 828.255883661913 -8301.6146790897783 0 0 0 -2250.3496178989135 -159.47288035849544 664.36229544101116 0 664.36229544101116 -8412.6334085483231 0 0 0 -2143.0265722267054 -412.83296592768966 554.90440657295949 0 554.90440657295949 -8380.1298769169589 0 0 0 -2198.240710711163 -336.01229000610692 588.09794086380498 0 588.09794086380498 -8360.0905784952738 0 0 0 -2174.0257171253434 -719.28041201559427 574.75109887389226 0 574.75109887389226 -8230.4141290234074 0 0 0 -2237.4236352597509 -806.9823899881867 452.21485238062633 0 452.21485238062633 -8427.0005003688057 0 0 0 -2308.4957225892485 -153.19317371719171 336.08292215607617 0 336.08292215607617 -8467.6633772081423 0 0 0 -2155.2141377313337 -192.08726443494379 226.59224642584695 0 226.59224642584695 -8468.8945413536276 0 0 0 -2165.2454514471392 -12.787357482899097 253.07556751050856 0 253.07556751050856 -8528.8236481944623 0 0 0 -2135.4027514193331 -370.54332532716762 338.14585786690805 0 338.14585786690805 -8516.4879261518345 0 0 0 -2221.7578128697514 56.586318797108106 451.82840188629814 0 451.82840188629814 -8405.4452359197967 0 0 0 -2087.2147292806731 -2085.3740767269737 956.76457787443246 0 956.76457787443246 -7766.3234705347477 0 0 0 -2462.9243868154304 -2038.0576553218418 827.60380465238927 0 827.60380465238927 -7744.3199144460941 0 0 0 -2445.5943924419839 -2061.5486614747088 1109.6966534350988 0 1109.6966534350988 -7701.3838479782507 0 0 0 -2440.7331273632399 -2556.3481527079834 1040.3525008803151 0 1040.3525008803151 -7669.4218588850281 0 0 0 -2556.4425028982528 -1631.5312109882443 1025.8637526525254 0 1025.8637526525254 -7826.8011479054339 0 0 0 -2364.5830897234196 -1106.6999873833224 913.36837671265039 0 913.36837671265039 -7896.4034604039107 0 0 0 -2250.7758619468082 -1715.7419481126781 997.85447757691225 0 997.85447757691225 -8066.5922763307717 0 0 0 -2445.5835561108615 -954.31758903087984 1072.0434632569204 0 1072.0434632569204 -7918.8269774641649 0 0 0 -2218.286141623762 -1185.2464437758799 721.3532221656078 0 721.3532221656078 -8239.7666683474054 0 0 0 -2356.2532780308211 -1200.7865253766131 618.27468976359614 0 618.27468976359614 -8096.7940944771562 0 0 0 -2324.3951549634439 -1132.7849556418926 682.33471625945276 0 682.33471625945276 -8220.8418330702279 0 0 0 -2338.4066971780294 -1189.9049681934484 455.1336551266013 0 455.1336551266013 -8345.1028122602802 0 0 0 -2383.7519451134322 -1283.3335120967586 635.84347535722463 0 635.84347535722463 -8122.8849429167285 0 0 0 -2351.554613753372 -1687.0819541632368 505.54843602172514 0 505.54843602172514 -8137.4126401119411 0 0 0 -2456.1236485687955 -1722.5927958742977 786.48042832821466 0 786.48042832821466 -8151.5281318744392 0 0 0 -2468.5302319371835 -1788.5348805176645 670.34979170178758 0 670.34979170178758 -7900.1225174730553 0 0 0 -2422.1643494976797 -2058.0955299363518 633.26739302876877 0 633.26739302876877 -7999.8100194162507 0 0 0 -2514.4763873381503 -1987.5548218536437 605.36527084122508 0 605.36527084122508 -7678.8633323978502 0 0 0 -2416.6045385628731 -2618.8876299318404 654.33190599608577 0 654.33190599608577 -7857.234044951374 0 0 0 -2619.0304187208039 -2676.6393920568471 197.69771604458521 0 197.69771604458521 -8029.1339599186904 0 0 0 -2676.4433379938846 -2651.1969037016102 434.66405741241527 0 434.66405741241527 -7955.189530488954 0 0 0 -2651.5966085476412 -2022.607664860639 369.43544200550559 0 369.43544200550559 -7769.7990466020201 0 0 0 -2448.1016778656649 -2068.4749275936538 279.50520128894459 0 279.50520128894459 -8120.7093905557458 0 0 0 -2547.2960795373497 -1690.9341057786673 436.85754816403414 0 436.85754816403414 -8138.1902366744116 0 0 0 -2457.2810856132701 -1260.3915702891691 426.05186217231812 0 426.05186217231812 -8360.8377779686307 0 0 0 -2405.3073370644497 -1386.9935241269959 272.64855058460398 0 272.64855058460398 -8245.6279524353231 0 0 0 -2408.1553691405788 -1353.0902240713858 210.52371596537614 0 210.52371596537614 -8463.8369164620963 0 0 0 -2454.231785133371 -1335.7452812181232 263.34775714344141 0 263.34775714344141 -8225.224578097881 0 0 0 -2390.2424648290021 -1472.7402611539969 52.993858828209341 0 52.993858828209341 -8293.9111238402966 0 0 0 -2441.6628462485728 -1707.5648856001453 -34.539960895130889 0 -34.539960895130889 -8413.0666469812386 0 0 0 -2530.1578831453457 -1863.7913783131717 97.787360500291925 0 97.787360500291925 -8378.1591992696849 0 0 0 -2560.4876443957137 -2087.71043518235 113.72058176092104 0 113.72058176092104 -7919.4479455215587 0 0 0 -2501.7895951759774 -1946.2093025665479 243.03423609707352 0 243.03423609707352 -8074.0537037905706 0 0 0 -2505.0657515892804 -2730.2267211253252 -27.950228984512858 0 -27.950228984512858 -8192.8407532912952 0 0 0 -2730.7668686041552 -545.32995002562029 280.27652123694497 0 280.27652123694497 -8529.2811881957241 0 0 0 -2268.652784555336 -314.80655502801164 181.86364898892316 0 181.86364898892316 -8561.4853777758981 0 0 0 -2219.0729832009765 -504.64329681488198 251.61572926685403 0 251.61572926685403 -8510.1796973710079 0 0 0 -2253.705748546472 -482.56200072140018 424.78041902464997 0 424.78041902464997 -8340.0722532023283 0 0 0 -2205.6585634809326 -909.5395246300086 301.04090410457229 0 301.04090410457229 -8337.6327050603304 0 0 0 -2311.7930574225829 -964.05381752147787 294.33068317909692 0 294.33068317909692 -8499.9338998360072 0 0 0 -2365.9969293393706 -618.41802196803474 213.71106458966642 0 213.71106458966642 -8490.860526621902 0 0 0 -2277.3196371474842 -874.42511361593461 189.0438402868931 0 189.0438402868931 -8580.7943684754791 0 0 0 -2363.8048705228539 -1359.1571721431201 198.10385993861928 0 198.10385993861928 -8456.0988022749552 0 0 0 -2453.8139936045181 -1112.4526735816435 16.89356981660876 0 16.89356981660876 -8569.9577424211238 0 0 0 -2420.6026040006909 -1051.5810202081084 26.332696876131195 0 26.332696876131195 -8554.1138403752811 0 0 0 -2401.4237151458474 -570.12667322709922 117.14966209969498 0 117.14966209969498 -8642.418047601157 0 0 0 -2303.1361802070601 -540.04316632534574 194.61788915952184 0 194.61788915952184 -8620.2047552754666 0 0 0 -2290.0619804002035 -229.11145473134411 207.91775679126476 0 207.91775679126476 -8758.2628025349804 0 0 0 -2246.8435643165808 -365.95721687390494 321.59330889118792 0 321.59330889118792 -9132.8722683823089 0 0 0 -2374.7073713140526 1624.369239526859 -231.83870850697713 0 -231.83870850697713 -8496.2958070242603 0 0 0 -1717.9816418743467 -450.28915984093874 552.13107682374402 0 552.13107682374402 -8343.947898766688 0 0 0 -2198.5592646519053 -0.17866415407684144 1.9669751540586711 0 1.9669751540586711 -7.3400340330731524 0 0 0 -1.8796745467874985 -145.78185926021479 -72.053427594826644 0 -72.053427594826644 -7986.3330321698668 0 0 0 -2033.0287228575166 -424.93720410801689 81.207289996020336 0 81.207289996020336 -8645.7523303784983 0 0 0 -2267.6723836216297 -4.1870009161686141 5.2357740550567611 0 5.2357740550567611 -12.051666967755466 0 0 0 -4.0596669709810129 2.7384090481245948 -161.96301400291122 0 -161.96301400291122 -8526.5357943820491 0 0 0 -2130.9493463334838 -3.4380960407701338 7.4574122492490584 0 7.4574122492490584 -11.802032008894628 0 0 0 -3.810032012416201 -44.513483867875038 78.226693959612021 0 78.226693959612021 -9068.8307767222796 0 0 0 -2278.3360651475396 169.3785383659033 156.96322445967962 0 156.96322445967962 -8482.3149756760977 0 0 0 -2078.2341093275518 1403.5982876754388 54.267264908743527 0 54.267264908743527 -8446.4068352366157 0 0 0 -1760.702136890297 1302.286995018263 -182.6547986542173 0 -182.6547986542173 -8474.6252507133213 0 0 0 -1793.0845639237614 1315.3162669641351 90.930404846963938 0 90.930404846963938 -8882.1682073011652 0 0 0 -1891.7129850842539 1386.8042061151755 411.25341611714413 0 411.25341611714413 -8296.5115447902717 0 0 0 -1727.426834668775 1105.0199309932759 12.099992547755392 0 12.099992547755392 -8526.9332700848827 0 0 0 -1855.4783347729026 1199.071898850254 -16.260045870341855 0 -16.260045870341855 -7920.1373898800848 0 0 0 -1680.26637275746 1273.6010964309025 27.822420002175932 0 27.822420002175932 -9102.0984911980777 0 0 0 -1957.1243486917901 1002.4063807878338 -141.17467065869459 0 -141.17467065869459 -8591.4114230464402 0 0 0 -1897.2512605646552 1184.5364664213594 47.32602896590106 0 47.32602896590106 -8471.3559380468287 0 0 0 -1821.7048679063628 1261.9845380718525 -48.32313105983485 0 -48.32313105983485 -8650.5116782060977 0 0 0 -1847.1317850335563 1264.9698569077882 29.525116952103417 0 29.525116952103417 -8699.1952177739004 0 0 0 -1858.5563402165317 1417.7160849222128 43.288399500415835 0 43.288399500415835 -8634.1029033188679 0 0 0 -1804.0967045991674 1297.3003585026968 -29.037614327899064 0 -29.037614327899064 -8857.3666999283705 0 0 0 -1890.0165853564172 1482.4322814041188 -1.3403350638236589 0 -1.3403350638236589 -8624.9978891428909 0 0 0 -1785.6414019346921 1560.0138637474201 -29.479851304662589 0 -29.479851304662589 -8451.914893342866 0 0 0 -1722.9752573988544 1405.9612142915612 -25.808749545365572 0 -25.808749545365572 -8501.2289622424723 0 0 0 -1773.816936987736 1451.7785867353668 -10.834743178707868 0 -10.834743178707868 -8484.5646316617785 0 0 0 -1758.1965112316029 1394.7591223468226 21.425118659483815 0 21.425118659483815 -8507.7432612561824 0 0 0 -1778.2460347273336 1482.4249102389294 6.2120295582863037 0 6.2120295582863037 -8422.2398852080951 0 0 0 -1734.9537437422914 1359.3486383617364 73.028604258834093 0 73.028604258834093 -8426.2582175156658 0 0 0 -1766.7273947884805 1391.922668004685 -6.0484192476869794 0 -6.0484192476869794 -8418.5149717483146 0 0 0 -1756.648075935911 1388.0984761473264 63.306865829592425 0 63.306865829592425 -8473.3669029796583 0 0 0 -1771.3171067080802 1407.5178357486238 36.003854265291011 0 36.003854265291011 -8383.8801158407296 0 0 0 -1744.0905700230287 1580.6985172906861 -31.594740498348983 0 -31.594740498348983 -8340.5657411238244 0 0 0 -1689.9668059582873 1496.1244223483227 33.647053912514821 0 33.647053912514821 -8397.3632597822871 0 0 0 -1725.3097093584875 1505.5566718260125 39.094072109255649 0 39.094072109255649 -8356.2798675391532 0 0 0 -1712.6807989282861 1611.0890790124831 -17.418094350559841 0 -17.418094350559841 -8342.4826394957636 0 0 0 -1682.8483901208238 1565.2721379839973 -41.18537166207534 0 -41.18537166207534 -8384.1187998916812 0 0 0 -1704.7116654769229 1511.4393690867873 17.488407330067275 0 17.488407330067275 -8394.2382297210206 0 0 0 -1720.6997151585565 1623.6622231548681 -14.004719513466625 0 -14.004719513466625 -8328.6932974344527 0 0 0 -1676.2577685698925 1724.9977283536186 -72.040724168233282 0 -72.040724168233282 -8296.4766647007636 0 0 0 -1642.8697340867898 1814.2103680153086 -126.37357921662624 0 -126.37357921662624 -8197.8515556807179 0 0 0 -1595.9102969163505 1714.9795058055934 -85.631639958897722 0 -85.631639958897722 -8278.1812046713021 0 0 0 -1640.8004247164281 1771.6589357601988 -62.628119362299913 0 -62.628119362299913 -8251.609049894716 0 0 0 -1619.9875285336275 1539.5031469622045 0.02090120375942206 0 0.02090120375942206 -8343.4544456608419 0 0 0 -1700.9878246746594 1637.3086235292176 -18.759705715323435 0 -18.759705715323435 -8316.3206880840298 0 0 0 -1669.7530161387003 1584.7004240097585 -43.366021379632002 0 -43.366021379632002 -8338.157759606851 0 0 0 -1688.3643338992706 1682.8529017659857 -83.558707280295494 0 -83.558707280295494 -8269.32993880508 0 0 0 -1646.6192592597763 1502.4302186167806 -28.73625521203212 0 -28.73625521203212 -8328.4354966683313 0 0 0 -1706.5013195128813 1660.0417036152066 -13.978285627791706 0 -13.978285627791706 -8324.5754671108589 0 0 0 -1666.1334408739131 1509.3350164398544 -36.283413463681427 0 -36.283413463681427 -8317.5604783196031 0 0 0 -1702.0563654699363 1577.1439181114911 -68.1463234167677 0 -68.1463234167677 -8365.4411878460523 0 0 0 -1697.0743174336385 1517.8113292385533 -13.95521006468698 0 -13.95521006468698 -8501.0352020873397 0 0 0 -1745.8059682121966 1410.6674315179989 -84.381652080896515 0 -84.381652080896515 -8867.2909848883137 0 0 0 -1864.1558883425787 763.8523440106128 425.56205671096905 0 425.56205671096905 -8395.1827755548002 0 0 0 -1907.8326078860482 -3.5538747095627485 10.307114548873749 0 10.307114548873749 -11.840624904404422 0 0 0 -3.8486249034918103 1196.0746873590233 -227.08489601525071 0 -227.08489601525071 -8351.0624218536468 0 0 0 -1788.7469336236554 696.1048391268705 149.24077456036775 0 149.24077456036775 -8001.2889807562387 0 0 0 -1826.2960354073439 382.58645918570437 135.30947543812727 0 135.30947543812727 -8850.9398122504754 0 0 0 -2117.0883382661923 498.56940101552027 -105.28060200068285 0 -105.28060200068285 -8485.8907882267122 0 0 0 -1996.8303468027952 1236.7777927673087 303.32799560269268 0 303.32799560269268 -8583.2378759306339 0 0 0 -1836.6150207908322 -3.6227000217011209 9.2058210970733914 0 9.2058210970733914 -11.863566671470608 0 0 0 -3.8715666732929321 154.45614148056484 91.538858027386141 0 91.538858027386141 -7953.5188010364654 0 0 0 -1949.7656648889752 24.495880134301842 234.9132068928775 0 234.9132068928775 -8494.2961439270621 0 0 0 -2117.4500659481891 206.26221601938414 339.3752524215015 0 339.3752524215015 -8485.785594611596 0 0 0 -2069.8808446480543 1311.5733981559715 -44.31679460819214 0 -44.31679460819214 -8107.6396756285249 0 0 0 -1699.0165693681374 1277.1675874615876 -42.878622649281169 0 -42.878622649281169 -8551.3854636536889 0 0 0 -1818.5544690480265 1301.2291503865117 126.67036009630829 0 126.67036009630829 -8511.3611517539066 0 0 0 -1802.533000341843 1369.2631841990806 169.04045368383231 0 169.04045368383231 -8137.3360645444263 0 0 0 -1692.0182200863346 
</DataArray>
<DataArray type="Float64" Name="cross_section_updated" format="ascii">
1 1 1 1 1 1 1 1 1 1 1 1 1 1 1 1 1 1 1 1 1 1 1 1 1 1 1 1 1 1 1 1 1 1 1 1 1 1 1 1 1 1 1 1 1 1 1 1 1 1 1 1 1 1 1 1 1 1 1 1 1 1 1 1 1 1 1 1 1 1 1 1 1 1 1 1 1 1 1 1 1 1 1 1 1 1 1 1 1 1 1 1 1 1 1 1 1 1 1 1 1 1 1 1 1 1 1 1 1 1 1 1 1 1 1 1 1 1 1 1 1 1 1 1 1 1 1 1 1 1 1 1 1 1 1 1 1 1 1 1 1 1 1 1 1 1 1 1 1 1 1 1 1 1 1 1 1 1 1 1 1 1 1 1 1 1 1 1 1 1 1 1 1 1 1 1 1 1 1 1 1 1 1 1 1 1 1 1 1 1 1 1 1 1 1 1 1 1 1 1 1 1 1 1 1 1 1 1 1 1 1 1 1 1 1 1 1 1 1 1 1 1 1 1 1 1 1 1 1 1 1 1 1 1 1 1 1 1 1 1 1 1 1 1 1 1 1 1 1 1 1 1 1 1 1 1 1 1 1 1 1 1 1 1 1 1 1 1 1 1 1 1 1 1 1 1 1 1 1 1 1 1 1 1 1 1 1 1 1 1 1 1 1 1 1 1 1 1 1 1 1 1 1 1 1 1 1 1 1 1 1 1 1 1 1 1 1 1 1 1 1 1 1 1 1 1 1 1 1 1 1 1 1 1 1 1 1 1 1 1 1 1 1 1 1 1 1 1 1 1 1 1 1 1 1 1 1 1 1 1 1 1 1 1 1 1 1 1 1 1 1 1 1 1 1 1 1 1 1 1 1 1 1 1 1 1 1 1 1 1 1 1 1 1 1 1 1 1 1 1 1 1 1 1 1 1 1 1 1 1 1 1 1 1 1 1 1 1 1 1 1 1 1 1 1 1 1 1 1 1 1 1 1 1 1 1 1 1 1 1 1 1 1 1 1 1 1 1 1 1 1 1 1 1 1 1 1 1 1 1 1 1 1 1 1 1 1 1 1 1 1 1 1 1 1 1 1 1 1 1 1 1 1 1 1 1 1 1 1 1 1 1 1 1 1 1 1 1 1 1 1 1 1 1 1 1 1 1 1 1 1 1 1 1 1 1 1 1 1 1 1 1 1 1 1 1 1 1 1 1 1 1 1 1 1 1 1 1 0.00084716316957475502 1 1 9.9999955874285895e-07 1 1 9.9999951931606379e-07 1 1 1 1 1 1 1 1 1 1 1 1 1 9.9999975718828571e-07 1 1 1 1 1 1.0000001257545743e-06 1 1 1 1 1 1 1 1 1 1 1 1 1 1 1 1 1 1 1 1 1 1 1 1 1 1 1 1 1 1 1 1 1 1 1 1 1 1 1 1 1 1 1 1 1 1 1 1 1 1 1 1 1 1 1 1 1 1 1 1 1 1 1 1 1 1 1 1 1 1 1 1 1 1 1 1 1 1 1 1 1 1 1 1 1 1 1 1 1 1 1 1 1 1 1 1 1 1 1 1 1 1 1 1 1 1 1 1 1 1 1 1 1 1 1 1 1 1 1 1 1 1 1 1 1 1 1 1 1 1 1 1 1 1 1 1 1 1 1 1 1 1 1 1 1 1 1 1 1 1 1 1 1 1 1 1 1 1 1 1 1 1 1 1 1 1 1 1 1.0000004224616776e-06 1 1 1 1.0000004872084967e-06 1 1 1.0000002800894525e-06 1 1 1 1 1 1 1 1 1 1 1 9.9999990262056304e-07 1 1 1 1 9.9999952699048045e-07 1 1 1 1 1 1 1 1 1 1 1 1 1 1 1 1 1 1 1 1 1 1 1 1 1 1 1 1 1 1 1 1 1 1 1 1 1 1 1 1 1 1 1 1 1 1 1 1 1 1 1 1 1 1 1 1 1 1 9.9999960819982525e-07 1 1 1 1 1 1 1 1 1 1 1 1 1 1 9.9999973549730337e-07 1 1 9.9999954406015945e-07 1 1.0000000885967975e-06 1 1 1 1 1 1 1 1 1 1 1 1 1 1.0000004405860685e-06 1 1 1 1 1 1 1 1 1 1 1 1 1 1 1 1 1 1 1 1 1 1 1 1 1 1 1 1 1 1 1 1 1 1 1 1 1 1 1 1 1 1 1 1 1 1 1 1 1 1 1 1 1 1 1 1 1 1 1 1 1 1 1 1 1 1 1 1 1 1 1 1 1 1 1 1 1 1 1 1 1 1 1 1 1 1 1 1 1 1 1 1 1 1 1 1 1 1 1 1 1 1 1 1 1 1 1 1 1 1 1 1 1 1 1 1 1 1 1 1 1 1 1 1 1 1 1 1 1 1 1 1 1 1 1 1 0.00031745506421429828 1 1 1.0000004031958387e-06 1 1.0000004401905516e-06 1 1 1 1 1 1 1 1 1 1 1 1 1 1 1 1 1 1 1 1 1 1 1 1 1 1 1 1 1 1 1 1 1 1 1 1 1 1 1 1 1 1 1 1 1 1 1 9.9999988591517597e-07 1 1 1 1 1 1.0000002277875397e-06 1 1 1 1 1 1 1 
</DataArray>
<DataArray type="Float64" Name="displacement_divergence" format="ascii">
-0.10722085050842586 -0.11014604955045702 -0.08608505420546235 -0.091632326516946069 -0.071662896912471338 -0.060310186361838047 -0.079718277737537049 -0.069097901375642021 -0.06323172854769224 -0.069804278719145518 -0.07255288317152192 -0.066034341338858299 -0.076275797123402767 -0.070062189627197347 -0.084271482983080861 -0.091325165966655006 -0.072552044669301 -0.079759503691265568 -0.055770420163926526 -0.058825771148070582 -0.058975863544203734 -0.05871593447825682 -0.067126716814323611 -0.062604333566370712 -0.057629689923860528 -0.063138911264355557 -0.069588494327695372 -0.064227002870129668 -0.061066270961395219 -0.063462185535098248 -0.060679742451078544 -0.058152884370435198 -0.060799972702910043 -0.062245149733185845 -0.061479447866049419 -0.065377033763640652 -0.063070132703242798 -0.065137162148132116 -0.066000304549611616 -0.06590208792839683 -0.06533085611812911 -0.062339789596667861 -0.064542375155330345 -0.063145724985088497 -0.062744015303941303 -0.064179657717460564 -0.060949679731737927 -0.060655971108306783 -0.074220591551026768 -0.06985082465194789 -0.076890053430869715 -0.072147731826826225 -0.06676478383204619 -0.070776684118397146 -0.068280420876693435 -0.071577911145488754 -0.066733129803202645 -0.069911238040038667 -0.066483791532328099 -0.06696633999227386 -0.071900167396571485 -0.073482335660152637 -0.069503260649824886 -0.074989982764398666 -0.073710860428639446 -0.068175504173972834 -0.067277326945456378 -0.071615456088625545 -0.068329734053133334 -0.067047356596481103 -0.06607491828642767 -0.070710691852996999 -0.065648384564140128 -0.063593004700149211 -0.065607216466300466 -0.068334113561819426 -0.063947351182514156 -0.068915714261066907 -0.068334812875777667 -0.067045263562898944 -0.066175340051241316 -0.063272110880742971 -0.065617840754201739 -0.064596640255925097 -0.061865681086484325 -0.066444718996010121 -0.062043539845922702 -0.060911863630806806 -0.06362410346653255 -0.061268434668990124 -0.060006146868819721 -0.061994932904269245 -0.0603466886689768 -0.059290120351190578 -0.062337351459613694 -0.065411166262421022 -0.06181415910742738 -0.062810155855835478 -0.062501158752433922 -0.062534868638404961 -0.061927344908267928 -0.063011235281499461 -0.058866298665558259 -0.061386380015109987 -0.060394203918909456 -0.059449442854522361 -0.059231531158485839 -0.060296768167542758 -0.059297034009344662 -0.058752883405657069 -0.05864296588643847 -0.062796318579966981 -0.059751958505750921 -0.059467753470938176 -0.060496043548661199 -0.06277299169795747 -0.065073373118787248 -0.062478200799915021 -0.065603890579606888 -0.062711919141777678 -0.068732177840995806 -0.063893410229132308 -0.066875767761646526 -0.066349294269355777 -0.065211139793846656 -0.069399898293395809 -0.066557792353379094 -0.06471819977274175 -0.062784611428242626 -0.065697538000767011 -0.051583313449105606 -0.052932531357101076 -0.053032366462012259 -0.051281183639162439 -0.050176104282735778 -0.050141160790869166 -0.049239512041214274 -0.048926552095078679 -0.048164457380652004 -0.047667578647215714 -0.048660626788094463 -0.049414372833565645 -0.050998103308953879 -0.051457748501560374 -0.049441691768954743 -0.055593615272530983 -0.051196459370138891 -0.056012347309654764 -0.050794240576913008 -0.056147454300421007 -0.058313810509320496 -0.056266699386762889 -0.054761950519307226 -0.05757175630253869 -0.057346624612976405 -0.057453629626824439 -0.056705717814967138 -0.053882752860239358 -0.053311922214849372 -0.056422654256172294 -0.055224971801328904 -0.054698034733269341 -0.056957773757107533 -0.05562312951109831 -0.059239216485776514 -0.057591984809403585 -0.057039568950960851 -0.057219427771830728 -0.058233974420796364 -0.059656689259699025 -0.057997239976892656 -0.060437587935876391 -0.058913914214014318 -0.056213799327503144 -0.058114508899307804 -0.056722464018354651 -0.058848224946198457 -0.057163174307810927 -0.056757317632560422 -0.05555909271560977 -0.05522871367670068 -0.05538638248309169 -0.055359212148053394 -0.054405526506215274 -0.054207421006607359 -0.053992138577547144 -0.053070535383163864 -0.053219065481376698 -0.054596170702059688 -0.051375833748752209 -0.052007209965033829 -0.05229622299045425 -0.053830804681888056 -0.05249471477704315 -0.052893884973581357 -0.053884405420073334 -0.054364263264203128 -0.054366887659779817 -0.055352654110027211 -0.05598694935345816 -0.055401910642710162 -0.055215397430849356 -0.056491625872661655 -0.056769305209307286 -0.056513533560873963 -0.056003260571281743 -0.056492493454868509 -0.057035146595705855 -0.057047036844079746 -0.056813445567276744 -0.056394582741835397 -0.056394215528831393 -0.055937878460815993 -0.056165259261955883 -0.059339142507900511 -0.059537709501283287 -0.059090667247862189 -0.05876053731631603 -0.058303544569522914 -0.057634643152959131 -0.058032902021583066 -0.057133698070917949 -0.057520736114036186 -0.057847283030626417 -0.057606331903336194 -0.057632690173407664 -0.059149948743075109 -0.059455656961399928 -0.060197466518376652 -0.060982216738307782 -0.060198379346809494 -0.058376545057135285 -0.059335528571472063 -0.060184111950894792 -0.05798156192594911 -0.057337318281673544 -0.057741715463899862 -0.058124185989331889 -0.057475462060005311 -0.057479083457178004 -0.056876944168063104 -0.057300933152684697 -0.055271919854895435 -0.057552029196454635 -0.055285669146711118 -0.058203502667443563 -0.056739853822678099 -0.057217027715038449 -0.057057710973496656 -0.057130056961428255 -0.057121995008635851 -0.056854682302754145 -0.055945041713964083 -0.057591377972788849 -0.056431022233083383 -0.057695019278886761 -0.057027015470823672 -0.057766700761640005 -0.056803629409503564 -0.057452759755584171 -0.058194743828242412 -0.057660081915875822 -0.058865287238496711 -0.057578175218276906 -0.057164419227532126 -0.056889796686945826 -0.057835528897534738 -0.056806003644701342 -0.057015556203491857 -0.057416179756627328 -0.05800098532652731 -0.057442804799023417 -0.058329267850291244 -0.058542142271709174 -0.059110275911134824 -0.058692064830389801 -0.059588647230831349 -0.058075460423283945 -0.059212617352936814 -0.060118039000686574 -0.059608568612198765 -0.060096064010350947 -0.05842518610655012 -0.05727866168535356 -0.058427557932266769 -0.056976646701836886 -0.058082599647871103 -0.057415179534831551 -0.056939721218118855 -0.056410977947803365 -0.056245011736726469 -0.055288060573927544 -0.056503801012590449 -0.056504945499415093 -0.056739910065390142 -0.055432449865380762 -0.05578251896188452 -0.055348641326280035 -0.054489298150412147 -0.05430054230492587 -0.053470734901045432 -0.053338863407913648 -0.053039105459227853 -0.054913589590776857 -0.054714544745692484 -0.053922742339409413 -0.053420492128961272 -0.054380413833881258 -0.053445764759718406 -0.054670136856973417 -0.054988782980271433 -0.053991998993611956 -0.054344227644968046 -0.054779073280149748 -0.055751201502522496 -0.055110254047329832 -0.055642084597911978 -0.055694204418970439 -0.056302934627504131 -0.056356605741680388 -0.056445271511317729 -0.056405908737463983 -0.056552005353107337 -0.055487733099927938 -0.055608030100019579 -0.057671167216226421 -0.059074277346425896 -0.059790167450361809 -0.058979195663693945 -0.06082949850384467 -0.061486392598088635 -0.062026261739920541 -0.061392814258222295 -0.060929126471884754 -0.059901822602702826 -0.061746910323061677 -0.061405352384534817 -0.059542164313049373 -0.05875616753197499 -0.058312824057145329 -0.056926874986711895 -0.05735682780114737 -0.057730427433964504 -0.057152724109961028 -0.0582952561035468 -0.058478993304942231 -0.060207395600220481 -0.060688260164790564 -0.061317008292366859 -0.059690831631259988 -0.059234636877484814 -0.060498456344193707 -0.060673108079847618 -0.058720129637662183 -0.058915054528098532 -0.057819240237219294 -0.057571746557147779 -0.057094007558394777 -0.05595207705748273 -0.055667627904419703 -0.054184462449970994 -0.053179653152279682 -0.05405910026811922 -0.054560524345647288 -0.054514686393879352 -0.053011583423242969 -0.053369006695182297 -0.055291180810773222 -0.055503965025434088 -0.055902986444889224 -0.056877654520564924 -0.056203611230154382 -0.05674320200316485 -0.055215037306450387 -0.054912761888857853 -0.053410671776667584 -0.053319349216507606 -0.053329530963314609 -0.053539679002921226 -0.05156734137141028 -0.052537647834301371 -0.053856825849457612 -0.055018418233925059 -0.055314319705073944 -0.055447595650031767 -0.057204385708211181 -0.047407775538234387 -0.045529022236569516 -0.047703882093752092 -0.046375299056700903 -0.047858477879522909 -0.050205411470455097 -0.051800424186829175 -0.049475226853293752 -0.049578423243325176 -0.051078047711942576 -0.051015593139145166 -0.051944798360477773 -0.048633197714552434 -0.04858197657793617 -0.047279018357709514 -0.04834264898685936 -0.048728103309377935 -0.049635534480072518 -0.048999212284184024 -0.050161350188623333 -0.050737302728995015 -0.051706238886184863 -0.051972675525904011 -0.051334455289120395 -0.050265057760607856 -0.051634596954615697 -0.050832330971921857 -0.052585441669105837 -0.051938260090500621 -0.052767829235503383 -0.051291602693018357 -0.050348969322059789 -0.050075880078912283 -0.04922669154962267 -0.04968775560295513 -0.048389833503189816 -0.048878554340459401 -0.047567119217598153 -0.048425291005995685 -0.047926843811557429 -0.047588266003815161 -0.046339667407424789 -0.045873152910737902 -0.045088699793911724 -0.046256809449919167 -0.046998838284693686 -0.045316685226088088 -0.043972207137539465 -0.045060481210153935 -0.045802132688506081 -0.04636379642168105 -0.046865376403071979 -0.047489073209209698 -0.046758492248621053 -0.045580700396848473 -0.045686022219569633 -0.044483469721781355 -0.043861682693526527 -0.042578238906294419 -0.042976040437050944 -0.043788547619036944 -0.043663904709547285 -0.042023376902999843 -0.041666460147481321 -0.043371222636993112 -0.043282783071986741 -0.044548829654355249 -0.04493755707239433 -0.045918958263352794 -0.051216486137814154 -0.050884000804262364 -0.049581512095605705 -0.050779916720404716 -0.051018793747336422 -0.051037596328304735 -0.051400326246143213 -0.05227102416131691 -0.052625272347258112 -0.053111488390799377 -0.053975159857931665 -0.053586636917883568 -0.053009881101764078 -0.051694125063778573 -0.052806847555726399 -0.05219501366615753 -0.053230353421274135 -0.052911877386476514 -0.051317681794708081 -0.052312402390143453 -0.052096014860743889 -0.052382204840182467 -0.051539585250641728 -0.051127071608097818 -0.050014389795539627 -0.049857070542078386 -0.050773502467378051 -0.051019474585660696 -0.050428891654642261 -0.049226167606388815 -0.049704371704933026 -0.049578821438579279 -0.048116117160688754 -0.048182887405922581 -0.048277011073259102 -0.048478053476568972 -0.048469707723904687 -0.048065270763063772 -0.048055987836232772 -0.048604946236944668 -0.049235418109088824 -0.047543726915793894 -0.046183509466211303 -0.045980220655596815 -0.045711444292392822 -0.042004368884670074 -0.045648630671802443 -0.04636344131963796 -0.04792554493376322 -0.047579863401089106 -0.04757297151866724 -0.049211441704955727 -0.04966926232678831 -0.049554648377953647 -0.049610505933767368 -0.049259450032505314 -0.046018536387584935 -0.047296524715059851 -0.048037516266282776 -0.046903932070341936 -0.04672070468659828 -0.044302503578767305 -0.043823149178237528 -0.041676333284448974 -0.043252036395119875 -0.042000088331369909 -0.041354617094550461 -0.0422619842718015 -0.037701184925239328 -0.038241139886639131 -0.040284601190193059 -0.039846917205688559 -0.043235602775005377 -0.040353255928498921 -0.042935714504203859 -0.042148105010671733 -0.039703716657246702 -0.039121999713344735 -0.045964809593927569 -0.028468547888771512 -0.039117767799472736 -0.048428228096855541 -0.033436470776058602 0.31818332977996988 -0.041127537701497463 -0.043536303051149305 -1.1826037994998266 -0.031366263515862691 -0.037851865757465353 -0.89459776782904399 -0.034324307193401071 -0.041620823848084743 -0.036295554333729108 -0.03854230563466654 -0.034333374701905894 -0.037152333306750718 -0.036884448573526352 -0.032571626584281255 -0.035041829411125103 -0.037057750222000418 -0.041178298950158121 -0.037368538744673718 -0.039280369320354502 -0.97204537920147871 -0.038854744419745013 -0.04134621206413458 -0.040698394793830084 -0.039063788725325121 -0.035097632505079801 -0.95055773752832096 -0.036673416423092964 -0.034888640259624903 -0.036699897038956264 -0.038505736604261154 -0.03650766243811937 -0.036935780590155232 -0.036916363982680833 -0.037432019940805361 -0.037070497296915958 -0.038443212634421409 -0.038214463978958113 -0.038378168556802567 -0.039158682065527861 -0.039823610912222862 -0.039260658679733641 -0.040045764372274695 -0.040736621445561838 -0.040586997397014546 -0.041392807935108022 -0.038975655397803899 -0.037826658724654627 -0.038265750666300447 -0.039504997465563352 -0.038515487107091628 -0.040105590838201088 -0.039099794621683115 -0.040497302942184676 -0.040572078324036864 -0.04074488318884073 -0.041329043498775309 -0.042478106254119519 -0.041688467280424524 -0.041052142680105597 -0.040703416012180638 -0.039885885767969365 -0.04037179001112623 -0.040855940285402181 -0.040956529489368343 -0.042280761996565663 -0.041394360307657641 -0.041968428852798612 -0.043684465748714318 -0.041938432627342204 -0.044529825379752364 -0.045475184816281766 -0.04188524832477647 -0.040696016498593723 -0.041611264451522967 -0.041158715508305938 -0.039875040169220055 -0.040252215067853259 -0.039700968519138291 -0.040244855767039622 -0.038326765842462418 -0.038505094398441742 -0.039278193117211917 -0.039121571562474922 -0.039402759513270658 -0.038749193267311619 -0.038395056108677564 -0.038950705777185402 -0.03895495600706389 -0.039654833834133818 -0.039629162084639236 -0.039811925904163825 -0.040097338757451834 -0.039428453570754751 -0.0397015483365038 -0.038884605682992568 -0.038980558595897996 -0.038970077947991122 -0.038196222994453854 -0.038267898675195915 -0.038303784799654794 -0.038413537754976357 -0.037598018893272189 -0.037917984815912686 -0.03824361825789957 -0.037819978935809018 -0.038789717827932613 -0.038832178234119885 -0.037479343999715697 -0.037133960169129177 -0.037656885881550362 -0.037375033681158909 -0.037527647421335519 -0.037369770977644823 -0.037652686313109918 -0.037383919219476702 -0.037739364849969537 -0.03793593477617585 -0.038134654355182596 -0.037812340930395205 -0.037370847032820897 -0.037395049141976666 -0.037273705738654794 -0.037315758019419221 -0.036795435933917098 -0.037322618785893269 -0.037209436489530789 -0.037722410888039848 -0.037679641299179167 -0.038309528303852369 -0.037727253067480815 -0.037664891582030791 -0.037913897429276311 -0.038022332542305026 -0.038397544592996935 -0.037605279762965238 -0.039176505587164456 -0.036812761030531327 -0.037620232399052433 -0.03745091885048283 -0.036160400796914682 -0.037004462576972319 -0.035152141256091118 -0.03639118503376082 -0.035375637500656643 -0.034974491707674638 -0.034413020007018708 -0.035572836424185406 -0.035243101691786904 -0.036695825385546055 -0.035802426222552475 -0.035822178849877595 -0.036877656448303098 -0.036440371124981663 -0.036488374432151582 -0.036920147125189873 -0.036845900617710536 -0.036969955067259752 -0.036991811201350977 -0.037184258684542781 -0.036514397033556079 -0.036435085311720794 -0.036903927610854481 -0.036986178499365696 -0.036917726754237101 -0.03703943777085783 -0.037187301040946641 -0.037258258927434174 -0.037277669876778941 -0.037343287019658833 -0.037360718457565056 -0.037123571921907711 -0.037124892939796483 -0.036923766163727834 -0.036447467155477087 -0.036053234188570205 -0.035908072814154535 -0.036454992256808261 -0.037444924522670453 -0.037403687793245544 -0.037608135191905645 -0.038361512248680341 -0.038829574458703053 -0.037469681156127144 -0.037337248874266704 -0.037162641530042007 -0.036350056039745171 -0.036483885462909815 -0.036139065759876465 -0.032195934225812906 -0.038529382243467025 -0.03458420096036996 -0.036248944221874024 -0.038970230862657607 -0.035281728496615705 -0.9590177362191632 -0.036461008885158575 -0.039720594634804374 -0.035243104886354848 -0.94647850966688551 -0.035304064658488565 -0.037898069607729901 -0.98843702370613684 -0.034128060308397129 -0.035727520971027049 -0.03221463993325524 -0.035526283254724511 -0.036515211058509411 -0.033908388783289389 -0.03542508307808051 -0.035341976597463298 -0.037869731550988828 -0.036577253486487035 -0.037115758267223686 -0.83078221352971582 -0.034735916609234918 -0.036185256909024188 -0.033007601206208159 -0.033225680109565392 -1.4203859398110872 -0.03338370291057835 -0.035449862468969862 -0.034293167762488586 -0.032155413232765717 -0.032391494441232238 -0.0354076169145221 -0.034173197928948684 -0.035388825919961064 -0.035150565162305303 -0.034660104546570314 -0.035749912875654877 -0.034936786328371605 -0.035657523183420414 -0.036361987137645317 -0.035049500479006346 -0.035956084200938654 -0.036757255037583397 -0.035624831064321683 -0.035991139228593871 -0.03607174272798841 -0.035058663878379359 -0.034818562367659234 -0.035335997089448457 -0.033973559222775895 -0.035539538309249163 -0.035299404649351662 -0.035345609055970423 -0.033186201484490918 -0.034143078942270637 -0.03452465179618136 -0.036673045725837183 -0.035828317558235623 -0.037377685443954201 -0.038239966349636556 -0.037279030056514006 -0.036321425627891424 -0.036689322027868343 -0.036658343717901998 -0.03723897903540907 -0.038254103417012186 -0.037963414423121122 -0.038837346406763174 -0.03777370407401559 -0.038380786750941032 -0.037798278470365876 -0.038859177398626529 -0.040190298301445049 -0.039205277507721292 -0.039928271429571893 -0.040303067999920256 -0.041020321211765576 -0.040494492787454942 -0.040101976799074568 -0.039391120510812741 -0.039111791069758262 -0.03838729216162013 -0.039179255884350922 -0.048486144748151327 -0.96383931926455446 -0.045129569170193617 -0.044274740470349627 -0.040531197970340993 -0.042451204840937173 -0.043166839062025786 -0.040619812638561847 -0.0449875289938238 -0.040725394299751749 -0.04172111182058183 -0.039562164408108891 -0.037777715297171888 -0.040932105001035002 -0.042990586498801997 -0.038761774739543009 -0.9899193591710187 -0.043062269406771658 -0.042688816826123799 -0.9511272992398716 -0.040907618122196732 -0.84034953930053291 -0.038011018926848494 -0.039006115191492788 -0.034511463205471271 -0.038305767121959516 -0.036845927894562869 -0.04230680458665903 -0.038640282277297003 -0.034693110335102584 -0.032702307827820132 -0.032373878215932045 -0.033469623818126015 -0.034219178607715832 -0.033434516188450558 -1.3939315797301717 -0.032894663345828579 -0.033495491855881965 -0.033141801298142856 -0.033435755967147707 -0.036737644989490614 -0.035385123076212568 -0.035077259435026875 -0.037423341711592922 -0.045064332025777309 -0.034793601894549497 -0.042534474751551338 -0.044516353323913349 -0.049457840669357128 -0.048152113728042734 -0.04374453999096594 -0.040400911863637701 -0.038271652317058216 -0.06509892447466345 -0.092415331176947252 -0.096171232810417645 -0.043949077010835613 -0.073243182154340516 -0.044330310773989912 -0.050798388874601946 -0.046816665925559525 -0.037063611914748516 -0.045079953785277974 -0.055491845104900614 -0.064322308386446703 -0.057530227822015265 -0.057601459457762426 -0.066362603281976518 -0.070387032206643316 -0.070422116291683184 -0.065086847489991814 -0.057364911708333889 -0.057104169473001405 -0.060833563397545677 -0.060427683880864218 -0.050601679104668867 -0.052899967517686455 -0.055316263320309644 -0.058203609363527309 -0.058717750213090204 -0.053490865579881752 -0.059589130295778434 -0.062623731092231502 -0.059669927039688091 -0.060779212667528032 -0.064764580907710048 -0.058023664201925576 -0.045881939249647286 -0.048422212486407684 -0.045498823324988003 -0.042722588238854275 -0.049720365251764487 -0.04928004783337904 -0.047274420548184759 -0.049596638713751084 -0.052463792501283121 -0.051785608343399986 -0.055271869736351044 -0.048347418672766207 -0.0508888795784182 -0.045757101306104886 -0.047784508136546666 -0.05012869452888577 -0.049308724986335928 -0.051686326364436874 -0.048618522724077518 -0.0524469826657743 -0.052538473329037577 -0.051135964102918097 -0.053488330826012551 -0.05625874044747288 -0.053575664305667611 -0.054956017767778975 -0.054350642928133575 -0.055935590881493802 -0.057712393064731221 -0.053880353443283305 -0.054131136286178605 -0.053385068785483436 -0.055543945321743809 -0.052180368232016772 -0.061573109670385755 -0.061139859811049607 -0.061018328184080997 -0.063911062572456323 -0.059114577243085484 -0.056269396548670192 -0.061139588902771533 -0.055457153540594044 -0.058906331950770552 -0.058109878874086085 -0.058460167429450767 -0.059593798627835787 -0.058788865343834325 -0.061403091214219871 -0.061713255798429595 -0.060554108737441978 -0.062861909683453759 -0.060415113464071822 -0.065475760468020089 -0.0669110834498471 -0.066289915213691028 -0.061202541946641625 -0.063682401988433737 -0.061432027140331774 -0.060132683426611211 -0.06020388422851447 -0.061355794628334265 -0.059756061620725061 -0.061041571156214322 -0.063253947078633632 -0.064012191109892869 -0.06254473987939943 -0.062626643789731998 -0.068269171715103882 -0.056716319613883341 -0.055476824580024398 -0.056342643713661822 -0.055141464087023306 -0.05779482643556455 -0.059149923233484197 -0.056932990928687116 -0.059095121763071384 -0.061345349840112973 -0.060515065100017307 -0.060035592878646182 -0.057578404505176567 -0.057251549510005162 -0.056171089107914518 -0.059367684282851302 -0.042949541046858553 -0.05496398161629773 -0.46991863669687106 -0.050825718071438084 -0.056691809590540765 -1.0149167427452568 -0.053273733658336986 -0.95250800310405026 -0.056958401628688482 -0.051955852733188757 -0.044017553422257327 -0.044827114098094062 -0.047292824627106322 -0.043185670866719428 -0.04638695836932244 -0.042006659318936379 -0.048928108717294833 -0.047431281514116352 -0.045542621697659047 -0.046178294625838973 -0.046463908505413321 -0.045102417614979129 -0.047250414633910463 -0.044641035048367361 -0.04307438143497147 -0.044345423424693053 -0.04395491278078989 -0.044456150868183331 -0.043373843593557448 -0.044168184869711996 -0.043916201898397733 -0.044282927667702199 -0.043602264250575729 -0.042249170148957155 -0.043132742733962171 -0.042817019973207193 -0.042071209753020478 -0.042617791636923127 -0.043017492878963948 -0.041906444214247385 -0.041071743352169739 -0.039897757422908686 -0.041020010617910607 -0.040499688213340823 -0.042524695616866559 -0.04174382540346766 -0.042209108347481775 -0.041165481481494459 -0.042662532987821966 -0.041653336021847842 -0.042551409136748375 -0.042426857935840778 -0.043645149205304934 -0.046603897208564393 -0.047695815197151242 -0.96215622587295258 -0.044718673340591431 -0.045657400885183608 -0.052927208456654801 -0.04992075867006987 -0.045915375519770901 -0.96789166832323659 -0.048744141622224402 -0.052936251648704635 -0.051747021116201386 -0.042475414234203424 -0.045463861726200705 -0.045063325008546207 -0.04230045550215833 
</DataArray>
</CellData>
</Piece>
</UnstructuredGrid>
</VTKFile>
