<?xml version="1.0"?>
<VTKFile type="UnstructuredGrid" version="0.1" byte_order="LittleEndian">
<UnstructuredGrid>
<Piece NumberOfPoints="2876" NumberOfCells="719">
<Points>
<DataArray type="Float64" NumberOfComponents="3" format="ascii">
0.31610726166346748 0.18804489794572149 0 0.16929708765618309 0.30074819035915368 0 0.14641016151452901 0.14641016151487049 0 0.312576188949791 0.31458070521983672 0.3125761889497819 0 0.20000000000083221 0 0 0 0 0.14641016151452901 0.14641016151487049 0 0 0.14641016151432179 0.14641016151432179 0 0 0 0.19999999999955789 0 0 0.14641016151452901 0.14641016151487049 0 0.1464101615145241 0 0.14641016151486561 0 0.14641016151432179 0.14641016151432179 0 0 0.20000000000083221 0 0 0 0.1464101615145241 0 0.14641016151486561 0 0.14641016151432179 0.14641016151432179 0 0.30074819035869899 0.1692970876565193 0 0.18804489794560331 0.31610726166461361 0.312576188949791 0.31458070521983672 0.3125761889497819 0.31578456131778371 0 0.1865278143482666 0.1464101615145241 0 0.14641016151486561 0.16938214347656569 0 0.30011357660650623 0.312576188949791 0.31458070521983672 0.3125761889497819 0 0.14641016151432179 0.14641016151432179 0 0 0 0.14641016151452901 0.14641016151487049 0 0.1464101615145241 0 0.14641016151486561 0.14641016151452901 0.14641016151487049 0 0.1464101615145241 0 0.14641016151486561 0.31578456131778371 0 0.1865278143482666 0.312576188949791 0.31458070521983672 0.3125761889497819 0.14641016151452901 0.14641016151487049 0 0 0.30074819035869899 0.1692970876565193 0 0.14641016151432179 0.14641016151432179 0.312576188949791 0.31458070521983672 0.3125761889497819 0.14641016151452901 0.14641016151487049 0 0 0.14641016151432179 0.14641016151432179 0.1464101615145241 0 0.14641016151486561 0.312576188949791 0.31458070521983672 0.3125761889497819 0 0.14641016151432179 0.14641016151432179 0.16938214347656569 0 0.30011357660650623 0.1464101615145241 0 0.14641016151486561 0.312576188949791 0.31458070521983672 0.3125761889497819 0.1464101615145241 0 0.14641016151486561 0 0.14641016151432179 0.14641016151432179 0 0 0.20000000000083221 0.16938214347656569 0 0.30011357660650623 0 0.18804489794560331 0.31610726166461361 0 0 0.20000000000083221 0 0.14641016151432179 0.14641016151432179 0.16938214347656569 0 0.30011357660650623 0 0.14641016151432179 0.14641016151432179 0.14641016151452901 0.14641016151487049 0 0 0.20000000000083221 0 0 0.30074819035869899 0.1692970876565193 0 0.30074819035869899 0.1692970876565193 0.14641016151452901 0.14641016151487049 0 0 0.20000000000083221 0 0.16929708765618309 0.30074819035915368 0 0.19999999999955789 0 0 0.14641016151452901 0.14641016151487049 0 0.31578456131778371 0 0.1865278143482666 0.31610726166346748 0.18804489794572149 0 0.19999999999955789 0 0 0.14641016151452901 0.14641016151487049 0 0.1464101615145241 0 0.14641016151486561 0.31578456131778371 0 0.1865278143482666 0.31578456131778371 0 0.1865278143482666 0.3999999999989749 0 0 0.19999999999955789 0 0 0.31610726166346748 0.18804489794572149 0 0.31578456131778371 0 0.1865278143482666 0.31610726166346748 0.18804489794572149 0 0.14641016151452901 0.14641016151487049 0 0.312576188949791 0.31458070521983672 0.3125761889497819 0.31610726166346748 0.18804489794572149 0 0.312576188949791 0.31458070521983672 0.3125761889497819 0.31578456131778371 0 0.1865278143482666 0.5003997205654479 0.21136633249797621 0.2258422409314382 0.31610726166346748 0.18804489794572149 0 0.49391845158624981 0 0.1323760430705655 0.50966790549376417 0.16275515618023731 0 0.5003997205654479 0.21136633249797621 0.2258422409314382 0.31610726166346748 0.18804489794572149 0 0.50966790549376417 0.16275515618023731 0 0.45812322962036273 0.31024977578535839 0 0.5003997205654479 0.21136633249797621 0.2258422409314382 0.49391845158624981 0 0.1323760430705655 0.3999999999989749 0 0 0.31610726166346748 0.18804489794572149 0 0.50966790549376417 0.16275515618023731 0 0.49391845158624981 0 0.1323760430705655 0.3999999999989749 0 0 0.31578456131778371 0 0.1865278143482666 0.31610726166346748 0.18804489794572149 0 0.31578456131778371 0 0.1865278143482666 0.47688326899416439 0 0.31741132792405607 0.49391845158624981 0 0.1323760430705655 0.5003997205654479 0.21136633249797621 0.2258422409314382 0.31610726166346748 0.18804489794572149 0 0.31578456131778371 0 0.1865278143482666 0.49391845158624981 0 0.1323760430705655 0.5003997205654479 0.21136633249797621 0.2258422409314382 0.31030302876556398 0 0.54179813558513157 0.50073570207385831 0.24848280280289631 0.52886631355986169 0.32146143392436449 0 0.38738071487621961 0.22088738526309029 0.22111069116742441 0.50004796911802929 0.32146143392436449 0 0.38738071487621961 0.312576188949791 0.31458070521983672 0.3125761889497819 0.16938214347656569 0 0.30011357660650623 0.22088738526309029 0.22111069116742441 0.50004796911802929 0.32146143392436449 0 0.38738071487621961 0.50073570207385831 0.24848280280289631 0.52886631355986169 0.312576188949791 0.31458070521983672 0.3125761889497819 0.22088738526309029 0.22111069116742441 0.50004796911802929 0.32146143392436449 0 0.38738071487621961 0.50073570207385831 0.24848280280289631 0.52886631355986169 0.47688326899416439 0 0.31741132792405607 0.5003997205654479 0.21136633249797621 0.2258422409314382 0.32146143392436449 0 0.38738071487621961 0.312576188949791 0.31458070521983672 0.3125761889497819 0.50073570207385831 0.24848280280289631 0.52886631355986169 0.5003997205654479 0.21136633249797621 0.2258422409314382 0.32146143392436449 0 0.38738071487621961 0.31578456131778371 0 0.1865278143482666 0.16938214347656569 0 0.30011357660650623 0.312576188949791 0.31458070521983672 0.3125761889497819 0.31578456131778371 0 0.1865278143482666 0.312576188949791 0.31458070521983672 0.3125761889497819 0.32146143392436449 0 0.38738071487621961 0.5003997205654479 0.21136633249797621 0.2258422409314382 0.31578456131778371 0 0.1865278143482666 0.32146143392436449 0 0.38738071487621961 0.47688326899416439 0 0.31741132792405607 0.5003997205654479 0.21136633249797621 0.2258422409314382 0.31030302876556398 0 0.54179813558513157 0.50000000000250922 0 0.48038475773043671 0.32146143392436449 0 0.38738071487621961 0.50073570207385831 0.24848280280289631 0.52886631355986169 0.32146143392436449 0 0.38738071487621961 0.50000000000250922 0 0.48038475773043671 0.47688326899416439 0 0.31741132792405607 0.50073570207385831 0.24848280280289631 0.52886631355986169 0.16370661204827031 0 0.4886650857430957 0.31030302876556398 0 0.54179813558513157 0.32146143392436449 0 0.38738071487621961 0.22088738526309029 0.22111069116742441 0.50004796911802929 0.16370661204827031 0 0.4886650857430957 0.32146143392436449 0 0.38738071487621961 0.16938214347656569 0 0.30011357660650623 0.22088738526309029 0.22111069116742441 0.50004796911802929 0.16938214347656569 0 0.30011357660650623 0 0.14641016151432179 0.14641016151432179 0 0.18804489794560331 0.31610726166461361 0.312576188949791 0.31458070521983672 0.3125761889497819 0 0.18804489794560331 0.31610726166461361 0.16370661204827031 0 0.4886650857430957 0.16938214347656569 0 0.30011357660650623 0.22088738526309029 0.22111069116742441 0.50004796911802929 0 0.18804489794560331 0.31610726166461361 0.16938214347656569 0 0.30011357660650623 0.312576188949791 0.31458070521983672 0.3125761889497819 0.22088738526309029 0.22111069116742441 0.50004796911802929 0 0 0.40000000000166441 0 0 0.60000000000138687 0.16370661204827031 0 0.4886650857430957 0 0.16275515618034081 0.50966790549591257 0 0 0.40000000000166441 0 0.18804489794560331 0.31610726166461361 0.16370661204827031 0 0.4886650857430957 0.16938214347656569 0 0.30011357660650623 0.16370661204827031 0 0.4886650857430957 0 0.18804489794560331 0.31610726166461361 0 0 0.40000000000166441 0 0.16275515618034081 0.50966790549591257 0 0.18804489794560331 0.31610726166461361 0 0 0.40000000000166441 0 0 0.20000000000083221 0.16938214347656569 0 0.30011357660650623 0 0.18804489794560331 0.31610726166461361 0 0.16275515618034081 0.50966790549591257 0.16370661204827031 0 0.4886650857430957 0.22088738526309029 0.22111069116742441 0.50004796911802929 0 0.18804489794560331 0.31610726166461361 0 0.31024977578556651 0.45812322962166352 0 0.16275515618034081 0.50966790549591257 0.22088738526309029 0.22111069116742441 0.50004796911802929 0 0.30074819035869899 0.1692970876565193 0 0.39615100178029522 0.32925244736138171 0 0.18804489794560331 0.31610726166461361 0.312576188949791 0.31458070521983672 0.3125761889497819 0 0.31024977578556651 0.45812322962166352 0.312576188949791 0.31458070521983672 0.3125761889497819 0.24769234054476261 0.52242103280823293 0.45098450226372488 0.22088738526309029 0.22111069116742441 0.50004796911802929 0 0.18804489794560331 0.31610726166461361 0 0.39615100178029522 0.32925244736138171 0 0.31024977578556651 0.45812322962166352 0.312576188949791 0.31458070521983672 0.3125761889497819 0 0.39615100178029522 0.32925244736138171 0.24769234054476261 0.52242103280823293 0.45098450226372488 0.312576188949791 0.31458070521983672 0.3125761889497819 0.22345881830598399 0.5062398304147856 0.22345881830602041 0 0.31024977578556651 0.45812322962166352 0.312576188949791 0.31458070521983672 0.3125761889497819 0 0.39615100178029522 0.32925244736138171 0.24769234054476261 0.52242103280823293 0.45098450226372488 0 0.30074819035869899 0.1692970876565193 0 0.39615100178029522 0.32925244736138171 0.312576188949791 0.31458070521983672 0.3125761889497819 0.22345881830598399 0.5062398304147856 0.22345881830602041 0 0.18804489794560331 0.31610726166461361 0.312576188949791 0.31458070521983672 0.3125761889497819 0 0.31024977578556651 0.45812322962166352 0.22088738526309029 0.22111069116742441 0.50004796911802929 0 0.31024977578556651 0.45812322962166352 0 0.39615100178029522 0.32925244736138171 0 0.50000000000237477 0.51961524226909872 0.24769234054476261 0.52242103280823293 0.45098450226372488 0.50000000000001332 0.49999999999999561 0.49999999999999561 0.50073570207385831 0.24848280280289631 0.52886631355986169 0.312576188949791 0.31458070521983672 0.3125761889497819 0.5004045312576143 0.47050700646456922 0.24963111222780321 0.24769234054476261 0.52242103280823293 0.45098450226372488 0.5004045312576143 0.47050700646456922 0.24963111222780321 0.312576188949791 0.31458070521983672 0.3125761889497819 0.22345881830598399 0.5062398304147856 0.22345881830602041 0.312576188949791 0.31458070521983672 0.3125761889497819 0.5004045312576143 0.47050700646456922 0.24963111222780321 0.50073570207385831 0.24848280280289631 0.52886631355986169 0.5003997205654479 0.21136633249797621 0.2258422409314382 0.50000000000001332 0.49999999999999561 0.49999999999999561 0.24769234054476261 0.52242103280823293 0.45098450226372488 0.312576188949791 0.31458070521983672 0.3125761889497819 0.50073570207385831 0.24848280280289631 0.52886631355986169 0.312576188949791 0.31458070521983672 0.3125761889497819 0.24769234054476261 0.52242103280823293 0.45098450226372488 0.50000000000001332 0.49999999999999561 0.49999999999999561 0.5004045312576143 0.47050700646456922 0.24963111222780321 0.312576188949791 0.31458070521983672 0.3125761889497819 0.50073570207385831 0.24848280280289631 0.52886631355986169 0.24769234054476261 0.52242103280823293 0.45098450226372488 0.22088738526309029 0.22111069116742441 0.50004796911802929 0.32925244736090059 0.39615100178043078 0 0.312576188949791 0.31458070521983672 0.3125761889497819 0.45812322962036273 0.31024977578535839 0 0.5004045312576143 0.47050700646456922 0.24963111222780321 0.32925244736090059 0.39615100178043078 0 0.5004045312576143 0.47050700646456922 0.24963111222780321 0.32446581821364329 0.60020898676454815 0 0.22345881830598399 0.5062398304147856 0.22345881830602041 0.45812322962036273 0.31024977578535839 0 0.5004045312576143 0.47050700646456922 0.24963111222780321 0.312576188949791 0.31458070521983672 0.3125761889497819 0.5003997205654479 0.21136633249797621 0.2258422409314382 0.45812322962036273 0.31024977578535839 0 0.32925244736090059 0.39615100178043078 0 0.31610726166346748 0.18804489794572149 0 0.312576188949791 0.31458070521983672 0.3125761889497819 0.16929708765618309 0.30074819035915368 0 0.312576188949791 0.31458070521983672 0.3125761889497819 0.32925244736090059 0.39615100178043078 0 0.22345881830598399 0.5062398304147856 0.22345881830602041 0.31610726166346748 0.18804489794572149 0 0.45812322962036273 0.31024977578535839 0 0.312576188949791 0.31458070521983672 0.3125761889497819 0.5003997205654479 0.21136633249797621 0.2258422409314382 0.32925244736090059 0.39615100178043078 0 0.312576188949791 0.31458070521983672 0.3125761889497819 0.5004045312576143 0.47050700646456922 0.24963111222780321 0.22345881830598399 0.5062398304147856 0.22345881830602041 0.32925244736090059 0.39615100178043078 0 0.16929708765618309 0.30074819035915368 0 0.31610726166346748 0.18804489794572149 0 0.312576188949791 0.31458070521983672 0.3125761889497819 0.32446581821364329 0.60020898676454815 0 0.32925244736090059 0.39615100178043078 0 0.51961524226956368 0.5000000000025091 0 0.5004045312576143 0.47050700646456922 0.24963111222780321 0.51961524226956368 0.5000000000025091 0 0.32925244736090059 0.39615100178043078 0 0.45812322962036273 0.31024977578535839 0 0.5004045312576143 0.47050700646456922 0.24963111222780321 0 0.30074819035869899 0.1692970876565193 0.14641016151452901 0.14641016151487049 0 0.16929708765618309 0.30074819035915368 0 0.312576188949791 0.31458070521983672 0.3125761889497819 0 0.30074819035869899 0.1692970876565193 0.312576188949791 0.31458070521983672 0.3125761889497819 0.16929708765618309 0.30074819035915368 0 0.22345881830598399 0.5062398304147856 0.22345881830602041 0.17226134197279269 0.49836539647922029 0 0 0.49836539647891548 0.17226134197271731 0.16929708765618309 0.30074819035915368 0 0.22345881830598399 0.5062398304147856 0.22345881830602041 0.17226134197279269 0.49836539647922029 0 0.16929708765618309 0.30074819035915368 0 0.32925244736090059 0.39615100178043078 0 0.22345881830598399 0.5062398304147856 0.22345881830602041 0 0.30074819035869899 0.1692970876565193 0 0.20000000000083221 0 0 0.40000000000166441 0 0.16929708765618309 0.30074819035915368 0 0 0.30074819035869899 0.1692970876565193 0 0.40000000000166441 0 0 0.49836539647891548 0.17226134197271731 0.16929708765618309 0.30074819035915368 0 0 0.30074819035869899 0.1692970876565193 0.16929708765618309 0.30074819035915368 0 0 0.49836539647891548 0.17226134197271731 0.22345881830598399 0.5062398304147856 0.22345881830602041 0 0.30074819035869899 0.1692970876565193 0 0.49836539647891548 0.17226134197271731 0 0.39615100178029522 0.32925244736138171 0.22345881830598399 0.5062398304147856 0.22345881830602041 0 0.49836539647891548 0.17226134197271731 0 0.40000000000166441 0 0 0.60000000000138687 0 0.17226134197279269 0.49836539647922029 0 0.16929708765618309 0.30074819035915368 0 0 0.40000000000166441 0 0 0.49836539647891548 0.17226134197271731 0.17226134197279269 0.49836539647922029 0 0 0.69449451837103049 0.15896804272139439 0 0.60020898676435996 0.32446581821286191 0.22345881830598399 0.5062398304147856 0.22345881830602041 0.19259015428765269 0.77719169076434647 0.19259015428773721 0.1589680427220837 0.69449451837091269 0 0 0.69449451837103049 0.15896804272139439 0.22345881830598399 0.5062398304147856 0.22345881830602041 0.19259015428765269 0.77719169076434647 0.19259015428773721 0 0.69449451837103049 0.15896804272139439 0.17226134197279269 0.49836539647922029 0 0 0.60000000000138687 0 0.1589680427220837 0.69449451837091269 0 0.32446581821364329 0.60020898676454815 0 0.1589680427220837 0.69449451837091269 0 0.22345881830598399 0.5062398304147856 0.22345881830602041 0.19259015428765269 0.77719169076434647 0.19259015428773721 0 0.60000000000138687 0 0 0.49836539647891548 0.17226134197271731 0.17226134197279269 0.49836539647922029 0 0 0.69449451837103049 0.15896804272139439 0 0.69449451837103049 0.15896804272139439 0 0.60000000000138687 0 0 0.79999999999999982 0 0.1589680427220837 0.69449451837091269 0 0.31067093463127438 0.81480288849489035 0 0.1589680427220837 0.69449451837091269 0 0.32446581821364329 0.60020898676454815 0 0.19259015428765269 0.77719169076434647 0.19259015428773721 0.32446581821364329 0.60020898676454815 0 0.1589680427220837 0.69449451837091269 0 0.17226134197279269 0.49836539647922029 0 0.22345881830598399 0.5062398304147856 0.22345881830602041 0.1589680427220837 0.69449451837091269 0 0 0.69449451837103049 0.15896804272139439 0.17226134197279269 0.49836539647922029 0 0.22345881830598399 0.5062398304147856 0.22345881830602041 0 0.69449451837103049 0.15896804272139439 0 0.81480288849496429 0.31067093462946233 0 0.60020898676435996 0.32446581821286191 0.19259015428765269 0.77719169076434647 0.19259015428773721 0 0.49836539647891548 0.17226134197271731 0 0.69449451837103049 0.15896804272139439 0 0.60020898676435996 0.32446581821286191 0.22345881830598399 0.5062398304147856 0.22345881830602041 0 0.49836539647891548 0.17226134197271731 0.17226134197279269 0.49836539647922029 0 0 0.69449451837103049 0.15896804272139439 0.22345881830598399 0.5062398304147856 0.22345881830602041 0 0.60020898676435996 0.32446581821286191 0.22516916914780419 0.77057994845201627 0.48187244075707292 0.35848654557803328 0.70013656506632282 0.30029870175293161 0.19259015428765269 0.77719169076434647 0.19259015428773721 0 0.60020898676435996 0.32446581821286191 0.24769234054476261 0.52242103280823293 0.45098450226372488 0 0.39615100178029522 0.32925244736138171 0.22345881830598399 0.5062398304147856 0.22345881830602041 0 0.60020898676435996 0.32446581821286191 0 0.81480288849496429 0.31067093462946233 0.22516916914780419 0.77057994845201627 0.48187244075707292 0.19259015428765269 0.77719169076434647 0.19259015428773721 0.35848654557803328 0.70013656506632282 0.30029870175293161 0.22345881830598399 0.5062398304147856 0.22345881830602041 0 0.60020898676435996 0.32446581821286191 0.19259015428765269 0.77719169076434647 0.19259015428773721 0 0.49836539647891548 0.17226134197271731 0 0.60020898676435996 0.32446581821286191 0 0.39615100178029522 0.32925244736138171 0.22345881830598399 0.5062398304147856 0.22345881830602041 0 0.60020898676435996 0.32446581821286191 0.24769234054476261 0.52242103280823293 0.45098450226372488 0.35848654557803328 0.70013656506632282 0.30029870175293161 0.22516916914780419 0.77057994845201627 0.48187244075707292 0.35848654557803328 0.70013656506632282 0.30029870175293161 0.24769234054476261 0.52242103280823293 0.45098450226372488 0 0.60020898676435996 0.32446581821286191 0.22345881830598399 0.5062398304147856 0.22345881830602041 0 0.39615100178029522 0.32925244736138171 0 0.60020898676435996 0.32446581821286191 0 0.50000000000237477 0.51961524226909872 0.24769234054476261 0.52242103280823293 0.45098450226372488 0 0.68801781652248195 0.45664527743358641 0 0.50000000000237477 0.51961524226909872 0 0.60020898676435996 0.32446581821286191 0.24769234054476261 0.52242103280823293 0.45098450226372488 0 0.66416205381430016 0.59944234540882957 0.24769234054476261 0.52242103280823293 0.45098450226372488 0 0.68801781652248195 0.45664527743358641 0.22516916914780419 0.77057994845201627 0.48187244075707292 0 0.60020898676435996 0.32446581821286191 0 0.81480288849496429 0.31067093462946233 0 0.68801781652248195 0.45664527743358641 0.22516916914780419 0.77057994845201627 0.48187244075707292 0 0.68801781652248195 0.45664527743358641 0.24769234054476261 0.52242103280823293 0.45098450226372488 0 0.60020898676435996 0.32446581821286191 0.22516916914780419 0.77057994845201627 0.48187244075707292 0.16929708765615539 1 0.30074819035677097 0.32926555316115258 1 0.39615987727515128 0.22516916914780419 0.77057994845201627 0.48187244075707292 0.19259015428765269 0.77719169076434647 0.19259015428773721 0 0.81480288849496429 0.31067093462946233 0.16929708765615539 1 0.30074819035677097 0.22516916914780419 0.77057994845201627 0.48187244075707292 0.19259015428765269 0.77719169076434647 0.19259015428773721 0.17226134197293 1 0.49836539647645101 0 0.83630110503664845 0.50803330197135654 0 0.81480288849496429 0.31067093462946233 0.22516916914780419 0.77057994845201627 0.48187244075707292 0 0.68801781652248195 0.45664527743358641 0 0.81480288849496429 0.31067093462946233 0 0.83630110503664845 0.50803330197135654 0.22516916914780419 0.77057994845201627 0.48187244075707292 0.17226134197293 1 0.49836539647645101 0 1 0.3999999999989749 0 0.81480288849496429 0.31067093462946233 0 0.83630110503664845 0.50803330197135654 0 0.81480288849496429 0.31067093462946233 0.16929708765615539 1 0.30074819035677097 0 1 0.3999999999989749 0.17226134197293 1 0.49836539647645101 0.17226134197293 1 0.49836539647645101 0 0.81480288849496429 0.31067093462946233 0.16929708765615539 1 0.30074819035677097 0.22516916914780419 0.77057994845201627 0.48187244075707292 0.17226134197293 1 0.49836539647645101 0.16929708765615539 1 0.30074819035677097 0.32926555316115258 1 0.39615987727515128 0.22516916914780419 0.77057994845201627 0.48187244075707292 0 1 0.3999999999989749 0 1 0.19999999999955789 0.16929708765615539 1 0.30074819035677097 0 0.81480288849496429 0.31067093462946233 0.16929708765615539 1 0.30074819035677097 0 1 0.19999999999955789 0 0.85358983848655678 0.14641016151332509 0 0.81480288849496429 0.31067093462946233 0.14641016151352521 1 0.1464101615131837 0 1 0.19999999999955789 0 0.85358983848655678 0.14641016151332509 0.16929708765615539 1 0.30074819035677097 0.20000000000083221 1 0 0 1 0 0.14641016151479211 0.85358983848543113 0 0.14641016151352521 1 0.1464101615131837 0 0.85358983848655678 0.14641016151332509 0 1 0 0 1 0.19999999999955789 0.14641016151352521 1 0.1464101615131837 0 0.85358983848655678 0.14641016151332509 0.14641016151479211 0.85358983848543113 0 0 1 0 0.14641016151352521 1 0.1464101615131837 0.14641016151479211 0.85358983848543113 0 0 1 0 0 0.79999999999999982 0 0 0.85358983848655678 0.14641016151332509 0 0.85358983848655678 0.14641016151332509 0 0.69449451837103049 0.15896804272139439 0.1589680427220837 0.69449451837091269 0 0.19259015428765269 0.77719169076434647 0.19259015428773721 0 0.79999999999999982 0 0.1589680427220837 0.69449451837091269 0 0.14641016151479211 0.85358983848543113 0 0 0.85358983848655678 0.14641016151332509 0.14641016151352521 1 0.1464101615131837 0 0.85358983848655678 0.14641016151332509 0.14641016151479211 0.85358983848543113 0 0.19259015428765269 0.77719169076434647 0.19259015428773721 0.1589680427220837 0.69449451837091269 0 0 0.79999999999999982 0 0 0.69449451837103049 0.15896804272139439 0 0.85358983848655678 0.14641016151332509 0.1589680427220837 0.69449451837091269 0 0.14641016151479211 0.85358983848543113 0 0 0.85358983848655678 0.14641016151332509 0.19259015428765269 0.77719169076434647 0.19259015428773721 0.16929708765615539 1 0.30074819035677097 0 0.81480288849496429 0.31067093462946233 0 0.85358983848655678 0.14641016151332509 0.19259015428765269 0.77719169076434647 0.19259015428773721 0 0.85358983848655678 0.14641016151332509 0 0.81480288849496429 0.31067093462946233 0 0.69449451837103049 0.15896804272139439 0.19259015428765269 0.77719169076434647 0.19259015428773721 0.14641016151352521 1 0.1464101615131837 0.14641016151479211 0.85358983848543113 0 0.31067093463127438 0.81480288849489035 0 0.19259015428765269 0.77719169076434647 0.19259015428773721 0.1589680427220837 0.69449451837091269 0 0.31067093463127438 0.81480288849489035 0 0.14641016151479211 0.85358983848543113 0 0.19259015428765269 0.77719169076434647 0.19259015428773721 0.14641016151479211 0.85358983848543113 0 0.31067093463127438 0.81480288849489035 0 0.20000000000083221 1 0 0.14641016151352521 1 0.1464101615131837 0.31635851157303152 1 0.18818969570840721 0.20000000000083221 1 0 0.31067093463127438 0.81480288849489035 0 0.14641016151352521 1 0.1464101615131837 0.31067093463127438 0.81480288849489035 0 0.31635851157303152 1 0.18818969570840721 0.14641016151352521 1 0.1464101615131837 0.19259015428765269 0.77719169076434647 0.19259015428773721 0.31635851157303152 1 0.18818969570840721 0.16929708765615539 1 0.30074819035677097 0.14641016151352521 1 0.1464101615131837 0.19259015428765269 0.77719169076434647 0.19259015428773721 0.14641016151352521 1 0.1464101615131837 0.16929708765615539 1 0.30074819035677097 0 0.85358983848655678 0.14641016151332509 0.19259015428765269 0.77719169076434647 0.19259015428773721 0.35848654557803328 0.70013656506632282 0.30029870175293161 0.19259015428765269 0.77719169076434647 0.19259015428773721 0.31635851157303152 1 0.18818969570840721 0.52894546611500048 0.79133000140429866 0.2082794184507949 0.31067093463127438 0.81480288849489035 0 0.19259015428765269 0.77719169076434647 0.19259015428773721 0.35848654557803328 0.70013656506632282 0.30029870175293161 0.52894546611500048 0.79133000140429866 0.2082794184507949 0.31067093463127438 0.81480288849489035 0 0.31635851157303152 1 0.18818969570840721 0.19259015428765269 0.77719169076434647 0.19259015428773721 0.52894546611500048 0.79133000140429866 0.2082794184507949 0.31067093463127438 0.81480288849489035 0 0.40000000000166441 1 0 0.20000000000083221 1 0 0.31635851157303152 1 0.18818969570840721 0.31067093463127438 0.81480288849489035 0 0.50803330197353713 0.83630110503668265 0 0.31635851157303152 1 0.18818969570840721 0.52894546611500048 0.79133000140429866 0.2082794184507949 0.45664527743509797 0.68801781652245086 0 0.50803330197353713 0.83630110503668265 0 0.31067093463127438 0.81480288849489035 0 0.52894546611500048 0.79133000140429866 0.2082794184507949 0.51133491425992716 1 0.16370661204795281 0.31635851157303152 1 0.18818969570840721 0.40000000000166441 1 0 0.50803330197353713 0.83630110503668265 0 0.31635851157303152 1 0.18818969570840721 0.31067093463127438 0.81480288849489035 0 0.40000000000166441 1 0 0.50803330197353713 0.83630110503668265 0 0.51133491425992716 1 0.16370661204795281 0.45820186441796368 1 0.31030302876579191 0.31635851157303152 1 0.18818969570840721 0.52894546611500048 0.79133000140429866 0.2082794184507949 0.51133491425992716 1 0.16370661204795281 0.31635851157303152 1 0.18818969570840721 0.50803330197353713 0.83630110503668265 0 0.52894546611500048 0.79133000140429866 0.2082794184507949 0.32926555316115258 1 0.39615987727515128 0.35848654557803328 0.70013656506632282 0.30029870175293161 0.49983993748706529 0.75039103705932653 0.52967335724801234 0.22516916914780419 0.77057994845201627 0.48187244075707292 0.35848654557803328 0.70013656506632282 0.30029870175293161 0.22516916914780419 0.77057994845201627 0.48187244075707292 0.32926555316115258 1 0.39615987727515128 0.19259015428765269 0.77719169076434647 0.19259015428773721 0.31635851157303152 1 0.18818969570840721 0.45820186441796368 1 0.31030302876579191 0.32926555316115258 1 0.39615987727515128 0.35848654557803328 0.70013656506632282 0.30029870175293161 0.45820186441796368 1 0.31030302876579191 0.35848654557803328 0.70013656506632282 0.30029870175293161 0.31635851157303152 1 0.18818969570840721 0.52894546611500048 0.79133000140429866 0.2082794184507949 0.31635851157303152 1 0.18818969570840721 0.35848654557803328 0.70013656506632282 0.30029870175293161 0.32926555316115258 1 0.39615987727515128 0.19259015428765269 0.77719169076434647 0.19259015428773721 0.45820186441796368 1 0.31030302876579191 0.49983993748706529 0.75039103705932653 0.52967335724801234 0.35848654557803328 0.70013656506632282 0.30029870175293161 0.52894546611500048 0.79133000140429866 0.2082794184507949 0.45820186441796368 1 0.31030302876579191 0.32926555316115258 1 0.39615987727515128 0.35848654557803328 0.70013656506632282 0.30029870175293161 0.49983993748706529 0.75039103705932653 0.52967335724801234 0.31635851157303152 1 0.18818969570840721 0.32926555316115258 1 0.39615987727515128 0.16929708765615539 1 0.30074819035677097 0.19259015428765269 0.77719169076434647 0.19259015428773721 0.32926555316115258 1 0.39615987727515128 0.32448110831226962 1 0.6002015905153204 0.17226134197293 1 0.49836539647645101 0.22516916914780419 0.77057994845201627 0.48187244075707292 0.45820186441796368 1 0.31030302876579191 0.51961524227008238 1 0.49999999999872219 0.32926555316115258 1 0.39615987727515128 0.49983993748706529 0.75039103705932653 0.52967335724801234 0.24769234054476261 0.52242103280823293 0.45098450226372488 0.49983993748706529 0.75039103705932653 0.52967335724801234 0.35848654557803328 0.70013656506632282 0.30029870175293161 0.22516916914780419 0.77057994845201627 0.48187244075707292 0.35848654557803328 0.70013656506632282 0.30029870175293161 0.50000000000001332 0.49999999999999561 0.49999999999999561 0.24769234054476261 0.52242103280823293 0.45098450226372488 0.5004045312576143 0.47050700646456922 0.24963111222780321 0.35848654557803328 0.70013656506632282 0.30029870175293161 0.24769234054476261 0.52242103280823293 0.45098450226372488 0.50000000000001332 0.49999999999999561 0.49999999999999561 0.49983993748706529 0.75039103705932653 0.52967335724801234 0.35848654557803328 0.70013656506632282 0.30029870175293161 0.5004045312576143 0.47050700646456922 0.24963111222780321 0.24769234054476261 0.52242103280823293 0.45098450226372488 0.22345881830598399 0.5062398304147856 0.22345881830602041 0.35848654557803328 0.70013656506632282 0.30029870175293161 0.32446581821364329 0.60020898676454815 0 0.5004045312576143 0.47050700646456922 0.24963111222780321 0.22345881830598399 0.5062398304147856 0.22345881830602041 0.31067093463127438 0.81480288849489035 0 0.32446581821364329 0.60020898676454815 0 0.45664527743509797 0.68801781652245086 0 0.35848654557803328 0.70013656506632282 0.30029870175293161 0.32446581821364329 0.60020898676454815 0 0.22345881830598399 0.5062398304147856 0.22345881830602041 0.35848654557803328 0.70013656506632282 0.30029870175293161 0.19259015428765269 0.77719169076434647 0.19259015428773721 0.32446581821364329 0.60020898676454815 0 0.45664527743509797 0.68801781652245086 0 0.35848654557803328 0.70013656506632282 0.30029870175293161 0.5004045312576143 0.47050700646456922 0.24963111222780321 0.31067093463127438 0.81480288849489035 0 0.32446581821364329 0.60020898676454815 0 0.35848654557803328 0.70013656506632282 0.30029870175293161 0.19259015428765269 0.77719169076434647 0.19259015428773721 0.45664527743509797 0.68801781652245086 0 0.31067093463127438 0.81480288849489035 0 0.35848654557803328 0.70013656506632282 0.30029870175293161 0.52894546611500048 0.79133000140429866 0.2082794184507949 0.35848654557803328 0.70013656506632282 0.30029870175293161 0.5004045312576143 0.47050700646456922 0.24963111222780321 0.45664527743509797 0.68801781652245086 0 0.52894546611500048 0.79133000140429866 0.2082794184507949 0.17226134197279269 0.49836539647922029 0 0.32925244736090059 0.39615100178043078 0 0.32446581821364329 0.60020898676454815 0 0.22345881830598399 0.5062398304147856 0.22345881830602041 0.32446581821364329 0.60020898676454815 0 0.51961524226956368 0.5000000000025091 0 0.45664527743509797 0.68801781652245086 0 0.5004045312576143 0.47050700646456922 0.24963111222780321 0.72722573386132172 0.60922248848163563 0 0.68456408135056701 0.68607101396845627 0.31096060989957619 0.59944234541082553 0.66416205381394655 0 0.77713227489941183 0.50036915849493024 0.21774643624003751 0.68456408135056701 0.68607101396845627 0.31096060989957619 0.5004045312576143 0.47050700646456922 0.24963111222780321 0.59944234541082553 0.66416205381394655 0 0.77713227489941183 0.50036915849493024 0.21774643624003751 0.59944234541082553 0.66416205381394655 0 0.45664527743509797 0.68801781652245086 0 0.5004045312576143 0.47050700646456922 0.24963111222780321 0.52894546611500048 0.79133000140429866 0.2082794184507949 0.51961524226956368 0.5000000000025091 0 0.67320508075660079 0.46954769941202479 0 0.59944234541082553 0.66416205381394655 0 0.5004045312576143 0.47050700646456922 0.24963111222780321 0.59944234541082553 0.66416205381394655 0 0.5004045312576143 0.47050700646456922 0.24963111222780321 0.68456408135056701 0.68607101396845627 0.31096060989957619 0.52894546611500048 0.79133000140429866 0.2082794184507949 0.59944234541082553 0.66416205381394655 0 0.5004045312576143 0.47050700646456922 0.24963111222780321 0.67320508075660079 0.46954769941202479 0 0.77713227489941183 0.50036915849493024 0.21774643624003751 0.59944234541082553 0.66416205381394655 0 0.52894546611500048 0.79133000140429866 0.2082794184507949 0.68456408135056701 0.68607101396845627 0.31096060989957619 0.81582077266975173 0.77657922508894406 0.18483084990574741 0.59944234541082553 0.66416205381394655 0 0.45664527743509797 0.68801781652245086 0 0.51961524226956368 0.5000000000025091 0 0.5004045312576143 0.47050700646456922 0.24963111222780321 0.59944234541082553 0.66416205381394655 0 0.68456408135056701 0.68607101396845627 0.31096060989957619 0.72722573386132172 0.60922248848163563 0 0.81582077266975173 0.77657922508894406 0.18483084990574741 0.45664527743509797 0.68801781652245086 0 0.59944234541082553 0.66416205381394655 0 0.50803330197353713 0.83630110503668265 0 0.52894546611500048 0.79133000140429866 0.2082794184507949 0.59944234541082553 0.66416205381394655 0 0.72722573386132172 0.60922248848163563 0 0.7054234997318658 0.80860557108880304 0 0.81582077266975173 0.77657922508894406 0.18483084990574741 0.72722573386132172 0.60922248848163563 0 0.59944234541082553 0.66416205381394655 0 0.67320508075660079 0.46954769941202479 0 0.77713227489941183 0.50036915849493024 0.21774643624003751 0.68456408135056701 0.68607101396845627 0.31096060989957619 0.5004045312576143 0.47050700646456922 0.24963111222780321 0.35848654557803328 0.70013656506632282 0.30029870175293161 0.52894546611500048 0.79133000140429866 0.2082794184507949 0.68456408135056701 0.68607101396845627 0.31096060989957619 0.35848654557803328 0.70013656506632282 0.30029870175293161 0.50000000000001332 0.49999999999999561 0.49999999999999561 0.49983993748706529 0.75039103705932653 0.52967335724801234 0.50000000000001332 0.49999999999999561 0.49999999999999561 0.35848654557803328 0.70013656506632282 0.30029870175293161 0.68456408135056701 0.68607101396845627 0.31096060989957619 0.5004045312576143 0.47050700646456922 0.24963111222780321 0.50000000000001332 0.49999999999999561 0.49999999999999561 0.68456408135056701 0.68607101396845627 0.31096060989957619 0.7504488434426726 0.53051757989633308 0.49836643074154852 0.5004045312576143 0.47050700646456922 0.24963111222780321 0.68456408135056701 0.68607101396845627 0.31096060989957619 0.49983993748706529 0.75039103705932653 0.52967335724801234 0.7504488434426726 0.53051757989633308 0.49836643074154852 0.77374673111774417 0.78860835645735528 0.49829081152968557 0.7504488434426726 0.53051757989633308 0.49836643074154852 0.5004045312576143 0.47050700646456922 0.24963111222780321 0.68456408135056701 0.68607101396845627 0.31096060989957619 0.77713227489941183 0.50036915849493024 0.21774643624003751 0.35848654557803328 0.70013656506632282 0.30029870175293161 0.49983993748706529 0.75039103705932653 0.52967335724801234 0.68456408135056701 0.68607101396845627 0.31096060989957619 0.52894546611500048 0.79133000140429866 0.2082794184507949 0.50000000000001332 0.49999999999999561 0.49999999999999561 0.7504488434426726 0.53051757989633308 0.49836643074154852 0.68456408135056701 0.68607101396845627 0.31096060989957619 0.49983993748706529 0.75039103705932653 0.52967335724801234 0.68456408135056701 0.68607101396845627 0.31096060989957619 0.52894546611500048 0.79133000140429866 0.2082794184507949 0.61068558124908323 1 0.33127740899601937 0.81582077266975173 0.77657922508894406 0.18483084990574741 0.61068558124908323 1 0.33127740899601937 0.49983993748706529 0.75039103705932653 0.52967335724801234 0.68456408135056701 0.68607101396845627 0.31096060989957619 0.77374673111774417 0.78860835645735528 0.49829081152968557 0.61068558124908323 1 0.33127740899601937 0.68240285647621723 1 0.52310058211166854 0.49983993748706529 0.75039103705932653 0.52967335724801234 0.77374673111774417 0.78860835645735528 0.49829081152968557 0.82751535738810444 1 0.31407731390515509 0.68456408135056701 0.68607101396845627 0.31096060989957619 0.61068558124908323 1 0.33127740899601937 0.81582077266975173 0.77657922508894406 0.18483084990574741 0.45820186441796368 1 0.31030302876579191 0.61068558124908323 1 0.33127740899601937 0.49983993748706529 0.75039103705932653 0.52967335724801234 0.52894546611500048 0.79133000140429866 0.2082794184507949 0.61068558124908323 1 0.33127740899601937 0.68456408135056701 0.68607101396845627 0.31096060989957619 0.82751535738810444 1 0.31407731390515509 0.77374673111774417 0.78860835645735528 0.49829081152968557 0.68456408135056701 0.68607101396845627 0.31096060989957619 0.49983993748706529 0.75039103705932653 0.52967335724801234 0.61068558124908323 1 0.33127740899601937 0.52894546611500048 0.79133000140429866 0.2082794184507949 0.61068558124908323 1 0.33127740899601937 0.68240285647621723 1 0.52310058211166854 0.51961524227008238 1 0.49999999999872219 0.49983993748706529 0.75039103705932653 0.52967335724801234 0.51961524227008238 1 0.49999999999872219 0.45820186441796368 1 0.31030302876579191 0.61068558124908323 1 0.33127740899601937 0.49983993748706529 0.75039103705932653 0.52967335724801234 0.68240285647621723 1 0.52310058211166854 0.61068558124908323 1 0.33127740899601937 0.82751535738810444 1 0.31407731390515509 0.77374673111774417 0.78860835645735528 0.49829081152968557 0.51133491425992716 1 0.16370661204795281 0.61068558124908323 1 0.33127740899601937 0.45820186441796368 1 0.31030302876579191 0.52894546611500048 0.79133000140429866 0.2082794184507949 0.51133491425992716 1 0.16370661204795281 0.69988642339594154 1 0.16938214347578889 0.61068558124908323 1 0.33127740899601937 0.52894546611500048 0.79133000140429866 0.2082794184507949 0.69988642339594154 1 0.16938214347578889 0.61068558124908323 1 0.33127740899601937 0.52894546611500048 0.79133000140429866 0.2082794184507949 0.81582077266975173 0.77657922508894406 0.18483084990574741 0.69988642339594154 1 0.16938214347578889 0.52894546611500048 0.79133000140429866 0.2082794184507949 0.7054234997318658 0.80860557108880304 0 0.81582077266975173 0.77657922508894406 0.18483084990574741 0.69988642339594154 1 0.16938214347578889 0.51133491425992716 1 0.16370661204795281 0.50803330197353713 0.83630110503668265 0 0.52894546611500048 0.79133000140429866 0.2082794184507949 0.59944234541082553 0.66416205381394655 0 0.7054234997318658 0.80860557108880304 0 0.52894546611500048 0.79133000140429866 0.2082794184507949 0.81582077266975173 0.77657922508894406 0.18483084990574741 0.60000000000138687 1 0 0.69988642339594154 1 0.16938214347578889 0.51133491425992716 1 0.16370661204795281 0.50803330197353713 0.83630110503668265 0 0.51133491425992716 1 0.16370661204795281 0.40000000000166441 1 0 0.60000000000138687 1 0 0.50803330197353713 0.83630110503668265 0 0.50803330197353713 0.83630110503668265 0 0.59944234541082553 0.66416205381394655 0 0.7054234997318658 0.80860557108880304 0 0.52894546611500048 0.79133000140429866 0.2082794184507949 0.69988642339594154 1 0.16938214347578889 0.50803330197353713 0.83630110503668265 0 0.7054234997318658 0.80860557108880304 0 0.52894546611500048 0.79133000140429866 0.2082794184507949 0.60000000000138687 1 0 0.79999999999999982 1 0 0.69988642339594154 1 0.16938214347578889 0.7054234997318658 0.80860557108880304 0 0.50803330197353713 0.83630110503668265 0 0.60000000000138687 1 0 0.69988642339594154 1 0.16938214347578889 0.7054234997318658 0.80860557108880304 0 0.69988642339594154 1 0.16938214347578889 0.82751535738810444 1 0.31407731390515509 0.61068558124908323 1 0.33127740899601937 0.81582077266975173 0.77657922508894406 0.18483084990574741 0.82751535738810444 1 0.31407731390515509 0.69988642339594154 1 0.16938214347578889 0.85358983848665693 1 0.14641016151322461 0.81582077266975173 0.77657922508894406 0.18483084990574741 0.69988642339594154 1 0.16938214347578889 0.85358983848666903 0.85358983848666903 0 0.85358983848665693 1 0.14641016151322461 0.81582077266975173 0.77657922508894406 0.18483084990574741 0.85358983848665693 1 0.14641016151322461 1 0.85358983848655678 0.14641016151332509 0.82751535738810444 1 0.31407731390515509 0.81582077266975173 0.77657922508894406 0.18483084990574741 0.85358983848666903 0.85358983848666903 0 0.85358983848665693 1 0.14641016151322461 0.79999999999999982 1 0 0.69988642339594154 1 0.16938214347578889 0.69988642339594154 1 0.16938214347578889 0.79999999999999982 1 0 0.85358983848666903 0.85358983848666903 0 0.7054234997318658 0.80860557108880304 0 0.85358983848666903 0.85358983848666903 0 0.7054234997318658 0.80860557108880304 0 0.85173693729186062 0.69992182039541118 0 0.81582077266975173 0.77657922508894406 0.18483084990574741 0.69988642339594154 1 0.16938214347578889 0.7054234997318658 0.80860557108880304 0 0.85358983848666903 0.85358983848666903 0 0.81582077266975173 0.77657922508894406 0.18483084990574741 1 0.85358983848655678 0.14641016151332509 1 0.69449451837101916 0.15896804272136739 1 0.8148028884949543 0.31067093462944562 0.81582077266975173 0.77657922508894406 0.18483084990574741 0.82751535738810444 1 0.31407731390515509 1 0.85358983848655678 0.14641016151332509 1 0.8148028884949543 0.31067093462944562 0.81582077266975173 0.77657922508894406 0.18483084990574741 1 0.85358983848655678 0.14641016151332509 0.85358983848666903 0.85358983848666903 0 1 0.79999999999999982 0 0.81582077266975173 0.77657922508894406 0.18483084990574741 1 0.79999999999999982 0 0.81582077266975173 0.77657922508894406 0.18483084990574741 1 0.69449451837101916 0.15896804272136739 1 0.85358983848655678 0.14641016151332509 0.85358983848666903 0.85358983848666903 0 1 0.85358983848655678 0.14641016151332509 0.85358983848665693 1 0.14641016151322461 0.81582077266975173 0.77657922508894406 0.18483084990574741 0.85358983848666903 0.85358983848666903 0 0.85173693729186062 0.69992182039541118 0 1 0.79999999999999982 0 0.81582077266975173 0.77657922508894406 0.18483084990574741 1 0.85358983848655678 0.14641016151332509 0.85358983848665693 1 0.14641016151322461 1 1 0 0.85358983848666903 0.85358983848666903 0 1 1 0.19999999999955789 0.85358983848665693 1 0.14641016151322461 1 1 0 1 0.85358983848655678 0.14641016151332509 1 1 0 1 0.85358983848655678 0.14641016151332509 0.85358983848666903 0.85358983848666903 0 1 0.79999999999999982 0 0.79999999999999982 1 0 1 1 0 0.85358983848665693 1 0.14641016151322461 0.85358983848666903 0.85358983848666903 0 0.82751535738810444 1 0.31407731390515509 0.85358983848665693 1 0.14641016151322461 1 1 0.19999999999955789 1 0.85358983848655678 0.14641016151332509 1 1 0.19999999999955789 1 0.8148028884949543 0.31067093462944562 0.82751535738810444 1 0.31407731390515509 1 0.85358983848655678 0.14641016151332509 1 1 0.3999999999989749 1 0.8148028884949543 0.31067093462944562 0.82751535738810444 1 0.31407731390515509 1 1 0.19999999999955789 0.82751535738810444 1 0.31407731390515509 0.77374673111774417 0.78860835645735528 0.49829081152968557 0.68456408135056701 0.68607101396845627 0.31096060989957619 0.81582077266975173 0.77657922508894406 0.18483084990574741 1 0.8148028884949543 0.31067093462944562 0.77374673111774417 0.78860835645735528 0.49829081152968557 0.82751535738810444 1 0.31407731390515509 0.81582077266975173 0.77657922508894406 0.18483084990574741 1 0.8148028884949543 0.31067093462944562 0.68456408135056701 0.68607101396845627 0.31096060989957619 0.77374673111774417 0.78860835645735528 0.49829081152968557 0.81582077266975173 0.77657922508894406 0.18483084990574741 1 0.8148028884949543 0.31067093462944562 0.86762395692956074 1 0.5060815484123421 0.82751535738810444 1 0.31407731390515509 0.77374673111774417 0.78860835645735528 0.49829081152968557 0.68240285647621723 1 0.52310058211166854 0.82751535738810444 1 0.31407731390515509 0.86762395692956074 1 0.5060815484123421 0.77374673111774417 0.78860835645735528 0.49829081152968557 0.86762395692956074 1 0.5060815484123421 1 1 0.3999999999989749 1 0.8148028884949543 0.31067093462944562 0.82751535738810444 1 0.31407731390515509 1 1 0.3999999999989749 1 0.83630110503662825 0.50803330197135588 0.86762395692956074 1 0.5060815484123421 1 0.8148028884949543 0.31067093462944562 1 0.8148028884949543 0.31067093462944562 1 0.83630110503662825 0.50803330197135588 0.86762395692956074 1 0.5060815484123421 0.77374673111774417 0.78860835645735528 0.49829081152968557 1 0.8148028884949543 0.31067093462944562 1 0.68975022421527898 0.45812322962078778 1 0.83630110503662825 0.50803330197135588 0.77374673111774417 0.78860835645735528 0.49829081152968557 1 0.39615100178016449 0.32925244736082498 0.7504488434426726 0.53051757989633308 0.49836643074154852 1 0.60020898676431722 0.32446581821274012 0.77713227489941183 0.50036915849493024 0.21774643624003751 1 0.68975022421527898 0.45812322962078778 0.68456408135056701 0.68607101396845627 0.31096060989957619 1 0.60020898676431722 0.32446581821274012 0.7504488434426726 0.53051757989633308 0.49836643074154852 1 0.8148028884949543 0.31067093462944562 0.68456408135056701 0.68607101396845627 0.31096060989957619 1 0.68975022421527898 0.45812322962078778 0.77374673111774417 0.78860835645735528 0.49829081152968557 1 0.68975022421527898 0.45812322962078778 0.68456408135056701 0.68607101396845627 0.31096060989957619 0.7504488434426726 0.53051757989633308 0.49836643074154852 0.77374673111774417 0.78860835645735528 0.49829081152968557 1 0.68975022421527898 0.45812322962078778 1 0.8148028884949543 0.31067093462944562 1 0.60020898676431722 0.32446581821274012 0.68456408135056701 0.68607101396845627 0.31096060989957619 0.68456408135056701 0.68607101396845627 0.31096060989957619 1 0.60020898676431722 0.32446581821274012 0.7504488434426726 0.53051757989633308 0.49836643074154852 0.77713227489941183 0.50036915849493024 0.21774643624003751 1 0.8148028884949543 0.31067093462944562 1 0.60020898676431722 0.32446581821274012 0.68456408135056701 0.68607101396845627 0.31096060989957619 0.81582077266975173 0.77657922508894406 0.18483084990574741 1 0.60020898676431722 0.32446581821274012 0.77713227489941183 0.50036915849493024 0.21774643624003751 0.68456408135056701 0.68607101396845627 0.31096060989957619 0.81582077266975173 0.77657922508894406 0.18483084990574741 1 0.50000000000229983 0.51961524226898759 1 0.68975022421527898 0.45812322962078778 1 0.60020898676431722 0.32446581821274012 0.7504488434426726 0.53051757989633308 0.49836643074154852 1 0.39615100178016449 0.32925244736082498 1 0.50000000000229983 0.51961524226898759 1 0.60020898676431722 0.32446581821274012 0.7504488434426726 0.53051757989633308 0.49836643074154852 0.84191918937744659 0.51186163305076127 0 1 0.49836539647890021 0.17226134197269399 1 0.69449451837101916 0.15896804272136739 0.77713227489941183 0.50036915849493024 0.21774643624003751 1 0.69449451837101916 0.15896804272136739 0.85173693729186062 0.69992182039541118 0 0.77713227489941183 0.50036915849493024 0.21774643624003751 0.81582077266975173 0.77657922508894406 0.18483084990574741 1 0.69449451837101916 0.15896804272136739 0.77713227489941183 0.50036915849493024 0.21774643624003751 1 0.60020898676431722 0.32446581821274012 0.81582077266975173 0.77657922508894406 0.18483084990574741 1 0.69449451837101916 0.15896804272136739 1 0.49836539647890021 0.17226134197269399 1 0.60020898676431722 0.32446581821274012 0.77713227489941183 0.50036915849493024 0.21774643624003751 0.72722573386132172 0.60922248848163563 0 0.77713227489941183 0.50036915849493024 0.21774643624003751 0.85173693729186062 0.69992182039541118 0 0.81582077266975173 0.77657922508894406 0.18483084990574741 0.72722573386132172 0.60922248848163563 0 0.68456408135056701 0.68607101396845627 0.31096060989957619 0.77713227489941183 0.50036915849493024 0.21774643624003751 0.81582077266975173 0.77657922508894406 0.18483084990574741 1 0.8148028884949543 0.31067093462944562 1 0.69449451837101916 0.15896804272136739 1 0.60020898676431722 0.32446581821274012 0.81582077266975173 0.77657922508894406 0.18483084990574741 0.72722573386132172 0.60922248848163563 0 0.67320508075660079 0.46954769941202479 0 0.84191918937744659 0.51186163305076127 0 0.77713227489941183 0.50036915849493024 0.21774643624003751 0.84191918937744659 0.51186163305076127 0 1 0.69449451837101916 0.15896804272136739 0.85173693729186062 0.69992182039541118 0 0.77713227489941183 0.50036915849493024 0.21774643624003751 0.72722573386132172 0.60922248848163563 0 0.84191918937744659 0.51186163305076127 0 0.85173693729186062 0.69992182039541118 0 0.77713227489941183 0.50036915849493024 0.21774643624003751 0.7054234997318658 0.80860557108880304 0 0.72722573386132172 0.60922248848163563 0 0.85173693729186062 0.69992182039541118 0 0.81582077266975173 0.77657922508894406 0.18483084990574741 1 0.69449451837101916 0.15896804272136739 0.85173693729186062 0.69992182039541118 0 1 0.79999999999999982 0 1 0.60000000000138687 0 1 0.69449451837101916 0.15896804272136739 0.81582077266975173 0.77657922508894406 0.18483084990574741 1 0.79999999999999982 0 0.85173693729186062 0.69992182039541118 0 0.84191918937744659 0.51186163305076127 0 0.85173693729186062 0.69992182039541118 0 1 0.69449451837101916 0.15896804272136739 1 0.60000000000138687 0 1 0.60000000000138687 0 1 0.69449451837101916 0.15896804272136739 0.84191918937744659 0.51186163305076127 0 1 0.49836539647890021 0.17226134197269399 1 0.40000000000166441 0 1 0.60000000000138687 0 0.84191918937744659 0.51186163305076127 0 1 0.49836539647890021 0.17226134197269399 0.80839867011859301 0.31807971531731721 0 0.85358983848570813 0.1464101615143738 0 1 0.30074819035868428 0.16929708765640439 0.68777432594363841 0.31447353261427252 0.31366778418247038 0.80839867011859301 0.31807971531731721 0 1 0.40000000000166441 0 0.84191918937744659 0.51186163305076127 0 1 0.49836539647890021 0.17226134197269399 1 0.40000000000166441 0 0.80839867011859301 0.31807971531731721 0 1 0.30074819035868428 0.16929708765640439 1 0.49836539647890021 0.17226134197269399 0.80839867011859301 0.31807971531731721 0 0.68777432594363841 0.31447353261427252 0.31366778418247038 1 0.30074819035868428 0.16929708765640439 0.77713227489941183 0.50036915849493024 0.21774643624003751 0.84191918937744659 0.51186163305076127 0 0.67320508075660079 0.46954769941202479 0 0.80839867011859301 0.31807971531731721 0 0.77713227489941183 0.50036915849493024 0.21774643624003751 0.84191918937744659 0.51186163305076127 0 0.80839867011859301 0.31807971531731721 0 1 0.49836539647890021 0.17226134197269399 0.77713227489941183 0.50036915849493024 0.21774643624003751 0.80839867011859301 0.31807971531731721 0 1 0.30074819035868428 0.16929708765640439 1 0.49836539647890021 0.17226134197269399 0.77713227489941183 0.50036915849493024 0.21774643624003751 1 0.30074819035868428 0.16929708765640439 1 0.39615100178016449 0.32925244736082498 1 0.49836539647890021 0.17226134197269399 0.77713227489941183 0.50036915849493024 0.21774643624003751 1 0.30074819035868428 0.16929708765640439 0.80839867011859301 0.31807971531731721 0 1 0.40000000000166441 0 1 0.20000000000083221 0 1 0.30074819035868428 0.16929708765640439 0.80839867011859301 0.31807971531731721 0 1 0.20000000000083221 0 0.85358983848570813 0.1464101615143738 0 1 0.20000000000083221 0 1 0.14641016151453831 0.14641016151419689 1 0.30074819035868428 0.16929708765640439 0.85358983848570813 0.1464101615143738 0 0.83057691269884504 0 0.30018449338884379 0.85358983848650494 0 0.1464101615132356 0.68592116352011878 0 0.1724872797865501 0.68777432594363841 0.31447353261427252 0.31366778418247038 0.80839867011859301 0.31807971531731721 0 0.69380980079964416 0.1619694349440581 0 0.85358983848570813 0.1464101615143738 0 0.68777432594363841 0.31447353261427252 0.31366778418247038 1 0.18804489794556911 0.3161072616634244 1 0.30074819035868428 0.16929708765640439 1 0.14641016151453831 0.14641016151419689 0.68777432594363841 0.31447353261427252 0.31366778418247038 1 0.14641016151453831 0.14641016151419689 1 0.30074819035868428 0.16929708765640439 0.85358983848570813 0.1464101615143738 0 0.68777432594363841 0.31447353261427252 0.31366778418247038 1 0.14641016151453831 0.14641016151419689 0.85358983848650494 0 0.1464101615132356 0.83057691269884504 0 0.30018449338884379 0.68777432594363841 0.31447353261427252 0.31366778418247038 1 0.14641016151453831 0.14641016151419689 0.85358983848570813 0.1464101615143738 0 0.85358983848650494 0 0.1464101615132356 0.68777432594363841 0.31447353261427252 0.31366778418247038 0.69380980079964416 0.1619694349440581 0 0.85358983848650494 0 0.1464101615132356 0.85358983848570813 0.1464101615143738 0 0.68777432594363841 0.31447353261427252 0.31366778418247038 0.85358983848650494 0 0.1464101615132356 0.83057691269884504 0 0.30018449338884379 1 0 0.19999999999955789 1 0.14641016151453831 0.14641016151419689 0.83057691269884504 0 0.30018449338884379 1 0.18804489794556911 0.3161072616634244 1 0 0.19999999999955789 1 0.14641016151453831 0.14641016151419689 0.85358983848570813 0.1464101615143738 0 1 0 0 0.85358983848650494 0 0.1464101615132356 0.79999999999947335 0 0 0.85358983848650494 0 0.1464101615132356 1 0 0.19999999999955789 1 0 0 1 0.14641016151453831 0.14641016151419689 1 0 0 1 0.14641016151453831 0.14641016151419689 1 0.20000000000083221 0 0.85358983848570813 0.1464101615143738 0 1 0.14641016151453831 0.14641016151419689 1 0 0 0.85358983848650494 0 0.1464101615132356 0.85358983848570813 0.1464101615143738 0 0.68592116352011878 0 0.1724872797865501 0.69380980079964416 0.1619694349440581 0 0.85358983848650494 0 0.1464101615132356 0.79999999999947335 0 0 0.85358983848570813 0.1464101615143738 0 0.85358983848650494 0 0.1464101615132356 0.69380980079964416 0.1619694349440581 0 0.79999999999947335 0 0 0.68592116352011878 0 0.1724872797865501 0.68777432594363841 0.31447353261427252 0.31366778418247038 0.69380980079964416 0.1619694349440581 0 0.5003997205654479 0.21136633249797621 0.2258422409314382 0.68592116352011878 0 0.1724872797865501 0.85358983848650494 0 0.1464101615132356 0.69380980079964416 0.1619694349440581 0 0.68777432594363841 0.31447353261427252 0.31366778418247038 0.69380980079964416 0.1619694349440581 0 0.68592116352011878 0 0.1724872797865501 0.59999999999894682 0 0 0.79999999999947335 0 0 0.49391845158624981 0 0.1323760430705655 0.3999999999989749 0 0 0.50966790549376417 0.16275515618023731 0 0.59999999999894682 0 0 0.50966790549376417 0.16275515618023731 0 0.69380980079964416 0.1619694349440581 0 0.68592116352011878 0 0.1724872797865501 0.59999999999894682 0 0 0.68592116352011878 0 0.1724872797865501 0.49391845158624981 0 0.1323760430705655 0.50966790549376417 0.16275515618023731 0 0.59999999999894682 0 0 0.47688326899416439 0 0.31741132792405607 0.68592116352011878 0 0.1724872797865501 0.49391845158624981 0 0.1323760430705655 0.5003997205654479 0.21136633249797621 0.2258422409314382 0.49391845158624981 0 0.1323760430705655 0.68592116352011878 0 0.1724872797865501 0.50966790549376417 0.16275515618023731 0 0.5003997205654479 0.21136633249797621 0.2258422409314382 0.50966790549376417 0.16275515618023731 0 0.68592116352011878 0 0.1724872797865501 0.69380980079964416 0.1619694349440581 0 0.5003997205654479 0.21136633249797621 0.2258422409314382 0.6104699881764214 0.32043363027358418 0 0.50966790549376417 0.16275515618023731 0 0.69380980079964416 0.1619694349440581 0 0.5003997205654479 0.21136633249797621 0.2258422409314382 0.6104699881764214 0.32043363027358418 0 0.68777432594363841 0.31447353261427252 0.31366778418247038 0.80839867011859301 0.31807971531731721 0 0.77713227489941183 0.50036915849493024 0.21774643624003751 0.6104699881764214 0.32043363027358418 0 0.69380980079964416 0.1619694349440581 0 0.68777432594363841 0.31447353261427252 0.31366778418247038 0.5003997205654479 0.21136633249797621 0.2258422409314382 0.80839867011859301 0.31807971531731721 0 0.6104699881764214 0.32043363027358418 0 0.69380980079964416 0.1619694349440581 0 0.68777432594363841 0.31447353261427252 0.31366778418247038 0.6104699881764214 0.32043363027358418 0 0.45812322962036273 0.31024977578535839 0 0.50966790549376417 0.16275515618023731 0 0.5003997205654479 0.21136633249797621 0.2258422409314382 0.45812322962036273 0.31024977578535839 0 0.6104699881764214 0.32043363027358418 0 0.5004045312576143 0.47050700646456922 0.24963111222780321 0.5003997205654479 0.21136633249797621 0.2258422409314382 0.77713227489941183 0.50036915849493024 0.21774643624003751 0.6104699881764214 0.32043363027358418 0 0.5004045312576143 0.47050700646456922 0.24963111222780321 0.67320508075660079 0.46954769941202479 0 0.68777432594363841 0.31447353261427252 0.31366778418247038 0.5004045312576143 0.47050700646456922 0.24963111222780321 0.6104699881764214 0.32043363027358418 0 0.5003997205654479 0.21136633249797621 0.2258422409314382 0.77713227489941183 0.50036915849493024 0.21774643624003751 0.5004045312576143 0.47050700646456922 0.24963111222780321 0.6104699881764214 0.32043363027358418 0 0.68777432594363841 0.31447353261427252 0.31366778418247038 0.51961524226956368 0.5000000000025091 0 0.6104699881764214 0.32043363027358418 0 0.67320508075660079 0.46954769941202479 0 0.5004045312576143 0.47050700646456922 0.24963111222780321 0.45812322962036273 0.31024977578535839 0 0.6104699881764214 0.32043363027358418 0 0.51961524226956368 0.5000000000025091 0 0.5004045312576143 0.47050700646456922 0.24963111222780321 0.6104699881764214 0.32043363027358418 0 0.80839867011859301 0.31807971531731721 0 0.67320508075660079 0.46954769941202479 0 0.77713227489941183 0.50036915849493024 0.21774643624003751 0.68777432594363841 0.31447353261427252 0.31366778418247038 0.7504488434426726 0.53051757989633308 0.49836643074154852 0.50000000000001332 0.49999999999999561 0.49999999999999561 0.50073570207385831 0.24848280280289631 0.52886631355986169 0.7504488434426726 0.53051757989633308 0.49836643074154852 0.50073570207385831 0.24848280280289631 0.52886631355986169 0.68777432594363841 0.31447353261427252 0.31366778418247038 0.77973766487723961 0.22090161127815711 0.50014622462635805 0.50000000000001332 0.49999999999999561 0.49999999999999561 0.7504488434426726 0.53051757989633308 0.49836643074154852 0.68777432594363841 0.31447353261427252 0.31366778418247038 0.5004045312576143 0.47050700646456922 0.24963111222780321 0.68777432594363841 0.31447353261427252 0.31366778418247038 0.5004045312576143 0.47050700646456922 0.24963111222780321 0.7504488434426726 0.53051757989633308 0.49836643074154852 0.77713227489941183 0.50036915849493024 0.21774643624003751 0.50073570207385831 0.24848280280289631 0.52886631355986169 0.5004045312576143 0.47050700646456922 0.24963111222780321 0.68777432594363841 0.31447353261427252 0.31366778418247038 0.5003997205654479 0.21136633249797621 0.2258422409314382 0.50000000000001332 0.49999999999999561 0.49999999999999561 0.68777432594363841 0.31447353261427252 0.31366778418247038 0.50073570207385831 0.24848280280289631 0.52886631355986169 0.5004045312576143 0.47050700646456922 0.24963111222780321 0.83057691269884504 0 0.30018449338884379 0.68777432594363841 0.31447353261427252 0.31366778418247038 0.66852282575985944 0 0.3853248791658106 0.77973766487723961 0.22090161127815711 0.50014622462635805 0.68592116352011878 0 0.1724872797865501 0.66852282575985944 0 0.3853248791658106 0.83057691269884504 0 0.30018449338884379 0.68777432594363841 0.31447353261427252 0.31366778418247038 0.66852282575985944 0 0.3853248791658106 0.47688326899416439 0 0.31741132792405607 0.50073570207385831 0.24848280280289631 0.52886631355986169 0.5003997205654479 0.21136633249797621 0.2258422409314382 0.68969697123394857 0 0.54179813558228873 0.66852282575985944 0 0.3853248791658106 0.50073570207385831 0.24848280280289631 0.52886631355986169 0.77973766487723961 0.22090161127815711 0.50014622462635805 0.68592116352011878 0 0.1724872797865501 0.66852282575985944 0 0.3853248791658106 0.68777432594363841 0.31447353261427252 0.31366778418247038 0.5003997205654479 0.21136633249797621 0.2258422409314382 0.66852282575985944 0 0.3853248791658106 0.50073570207385831 0.24848280280289631 0.52886631355986169 0.68777432594363841 0.31447353261427252 0.31366778418247038 0.5003997205654479 0.21136633249797621 0.2258422409314382 0.68777432594363841 0.31447353261427252 0.31366778418247038 0.50073570207385831 0.24848280280289631 0.52886631355986169 0.66852282575985944 0 0.3853248791658106 0.77973766487723961 0.22090161127815711 0.50014622462635805 0.68592116352011878 0 0.1724872797865501 0.47688326899416439 0 0.31741132792405607 0.66852282575985944 0 0.3853248791658106 0.5003997205654479 0.21136633249797621 0.2258422409314382 0.50000000000250922 0 0.48038475773043671 0.66852282575985944 0 0.3853248791658106 0.47688326899416439 0 0.31741132792405607 0.50073570207385831 0.24848280280289631 0.52886631355986169 0.50000000000250922 0 0.48038475773043671 0.68969697123394857 0 0.54179813558228873 0.66852282575985944 0 0.3853248791658106 0.50073570207385831 0.24848280280289631 0.52886631355986169 0.66852282575985944 0 0.3853248791658106 0.68969697123394857 0 0.54179813558228873 0.83534964916824084 0 0.4902996892628636 0.77973766487723961 0.22090161127815711 0.50014622462635805 1 0.18804489794556911 0.3161072616634244 0.68777432594363841 0.31447353261427252 0.31366778418247038 0.83057691269884504 0 0.30018449338884379 0.77973766487723961 0.22090161127815711 0.50014622462635805 1 0.18804489794556911 0.3161072616634244 1 0.14641016151453831 0.14641016151419689 0.83057691269884504 0 0.30018449338884379 0.68777432594363841 0.31447353261427252 0.31366778418247038 0.83534964916824084 0 0.4902996892628636 0.83057691269884504 0 0.30018449338884379 0.66852282575985944 0 0.3853248791658106 0.77973766487723961 0.22090161127815711 0.50014622462635805 0.83534964916824084 0 0.4902996892628636 1 0.18804489794556911 0.3161072616634244 0.83057691269884504 0 0.30018449338884379 0.77973766487723961 0.22090161127815711 0.50014622462635805 0.83057691269884504 0 0.30018449338884379 0.83534964916824084 0 0.4902996892628636 1 0 0.3999999999989749 1 0.18804489794556911 0.3161072616634244 0.83534964916824084 0 0.4902996892628636 1 0.162755156180173 0.50966790549372887 1 0 0.59999999999894682 1 0 0.3999999999989749 1 0 0.3999999999989749 0.83534964916824084 0 0.4902996892628636 1 0.162755156180173 0.50966790549372887 1 0.18804489794556911 0.3161072616634244 1 0.18804489794556911 0.3161072616634244 1 0 0.3999999999989749 0.83057691269884504 0 0.30018449338884379 1 0 0.19999999999955789 1 0.31024977578542368 0.45812322962028301 1 0.18804489794556911 0.3161072616634244 1 0.162755156180173 0.50966790549372887 0.77973766487723961 0.22090161127815711 0.50014622462635805 0.83534964916824084 0 0.4902996892628636 1 0.162755156180173 0.50966790549372887 1 0.18804489794556911 0.3161072616634244 0.77973766487723961 0.22090161127815711 0.50014622462635805 1 0.39615100178016449 0.32925244736082498 0.68777432594363841 0.31447353261427252 0.31366778418247038 0.7504488434426726 0.53051757989633308 0.49836643074154852 0.77713227489941183 0.50036915849493024 0.21774643624003751 1 0.39615100178016449 0.32925244736082498 1 0.18804489794556911 0.3161072616634244 1 0.31024977578542368 0.45812322962028301 0.68777432594363841 0.31447353261427252 0.31366778418247038 1 0.31024977578542368 0.45812322962028301 0.7504488434426726 0.53051757989633308 0.49836643074154852 0.68777432594363841 0.31447353261427252 0.31366778418247038 0.77973766487723961 0.22090161127815711 0.50014622462635805 1 0.30074819035868428 0.16929708765640439 1 0.18804489794556911 0.3161072616634244 1 0.39615100178016449 0.32925244736082498 0.68777432594363841 0.31447353261427252 0.31366778418247038 1 0.31024977578542368 0.45812322962028301 0.68777432594363841 0.31447353261427252 0.31366778418247038 1 0.18804489794556911 0.3161072616634244 0.77973766487723961 0.22090161127815711 0.50014622462635805 1 0.30074819035868428 0.16929708765640439 0.68777432594363841 0.31447353261427252 0.31366778418247038 1 0.39615100178016449 0.32925244736082498 0.77713227489941183 0.50036915849493024 0.21774643624003751 1 0.39615100178016449 0.32925244736082498 0.68777432594363841 0.31447353261427252 0.31366778418247038 1 0.31024977578542368 0.45812322962028301 0.7504488434426726 0.53051757989633308 0.49836643074154852 1 0.60020898676431722 0.32446581821274012 1 0.49836539647890021 0.17226134197269399 1 0.39615100178016449 0.32925244736082498 0.77713227489941183 0.50036915849493024 0.21774643624003751 1 0.39615100178016449 0.32925244736082498 1 0.31024977578542368 0.45812322962028301 1 0.50000000000229983 0.51961524226898759 0.7504488434426726 0.53051757989633308 0.49836643074154852 1 0.33579115324550912 0.59952339316293046 0.7504488434426726 0.53051757989633308 0.49836643074154852 0.68742751001967084 0.31250796680084852 0.687427510020161 0.78019141325921404 0.49972466465542442 0.78019141325930785 1 0.33579115324550912 0.59952339316293046 1 0.39076805646076263 0.7272421105028648 0.68742751001967084 0.31250796680084852 0.687427510020161 0.81599560342209843 0.22280203704001911 0.81599560342233202 1 0.33579115324550912 0.59952339316293046 1 0.53045230059030524 0.6732050807565132 1 0.50000000000229983 0.51961524226898759 0.7504488434426726 0.53051757989633308 0.49836643074154852 1 0.33579115324550912 0.59952339316293046 0.7504488434426726 0.53051757989633308 0.49836643074154852 1 0.31024977578542368 0.45812322962028301 0.77973766487723961 0.22090161127815711 0.50014622462635805 0.68742751001967084 0.31250796680084852 0.687427510020161 0.77973766487723961 0.22090161127815711 0.50014622462635805 1 0.33579115324550912 0.59952339316293046 0.81599560342209843 0.22280203704001911 0.81599560342233202 1 0.33579115324550912 0.59952339316293046 0.68742751001967084 0.31250796680084852 0.687427510020161 0.7504488434426726 0.53051757989633308 0.49836643074154852 0.77973766487723961 0.22090161127815711 0.50014622462635805 1 0.53045230059030524 0.6732050807565132 0.7504488434426726 0.53051757989633308 0.49836643074154852 1 0.33579115324550912 0.59952339316293046 0.78019141325921404 0.49972466465542442 0.78019141325930785 1 0.39076805646076263 0.7272421105028648 1 0.33579115324550912 0.59952339316293046 0.68742751001967084 0.31250796680084852 0.687427510020161 0.78019141325921404 0.49972466465542442 0.78019141325930785 1 0.33579115324550912 0.59952339316293046 1 0.50000000000229983 0.51961524226898759 1 0.31024977578542368 0.45812322962028301 0.7504488434426726 0.53051757989633308 0.49836643074154852 1 0.39076805646076263 0.7272421105028648 1 0.53045230059030524 0.6732050807565132 1 0.33579115324550912 0.59952339316293046 0.78019141325921404 0.49972466465542442 0.78019141325930785 1 0.33579115324550912 0.59952339316293046 1 0.1912596090855686 0.70565701451953711 1 0.39076805646076263 0.7272421105028648 0.81599560342209843 0.22280203704001911 0.81599560342233202 1 0.33579115324550912 0.59952339316293046 1 0.31024977578542368 0.45812322962028301 1 0.162755156180173 0.50966790549372887 0.77973766487723961 0.22090161127815711 0.50014622462635805 1 0.162755156180173 0.50966790549372887 0.81469961246449951 0 0.68914937826112133 1 0.1912596090855686 0.70565701451953711 0.77973766487723961 0.22090161127815711 0.50014622462635805 0.81469961246449951 0 0.68914937826112133 0.77973766487723961 0.22090161127815711 0.50014622462635805 0.68742751001967084 0.31250796680084852 0.687427510020161 0.81599560342209843 0.22280203704001911 0.81599560342233202 0.81469961246449951 0 0.68914937826112133 1 0.1912596090855686 0.70565701451953711 0.77973766487723961 0.22090161127815711 0.50014622462635805 0.81599560342209843 0.22280203704001911 0.81599560342233202 1 0.1912596090855686 0.70565701451953711 1 0.33579115324550912 0.59952339316293046 0.77973766487723961 0.22090161127815711 0.50014622462635805 0.81599560342209843 0.22280203704001911 0.81599560342233202 1 0.162755156180173 0.50966790549372887 1 0.1912596090855686 0.70565701451953711 1 0.33579115324550912 0.59952339316293046 0.77973766487723961 0.22090161127815711 0.50014622462635805 1 0.1912596090855686 0.70565701451953711 0.81469961246449951 0 0.68914937826112133 1 0 0.59999999999894682 1 0 0.79999999999947335 0.81469961246449951 0 0.68914937826112133 1 0 0.59999999999894682 1 0.162755156180173 0.50966790549372887 1 0.1912596090855686 0.70565701451953711 1 0.162755156180173 0.50966790549372887 1 0 0.59999999999894682 0.81469961246449951 0 0.68914937826112133 0.83534964916824084 0 0.4902996892628636 0.81469961246449951 0 0.68914937826112133 0.83534964916824084 0 0.4902996892628636 0.68969697123394857 0 0.54179813558228873 0.77973766487723961 0.22090161127815711 0.50014622462635805 0.81469961246449951 0 0.68914937826112133 1 0.162755156180173 0.50966790549372887 0.83534964916824084 0 0.4902996892628636 0.77973766487723961 0.22090161127815711 0.50014622462635805 0.68969697123394857 0 0.54179813558228873 0.6002015905170176 0 0.67551889168744117 0.68742751001967084 0.31250796680084852 0.687427510020161 0.50073570207385831 0.24848280280289631 0.52886631355986169 0.6002015905170176 0 0.67551889168744117 0.81469961246449951 0 0.68914937826112133 0.68969697123394857 0 0.54179813558228873 0.68742751001967084 0.31250796680084852 0.687427510020161 0.81469961246449951 0 0.68914937826112133 0.68969697123394857 0 0.54179813558228873 0.68742751001967084 0.31250796680084852 0.687427510020161 0.77973766487723961 0.22090161127815711 0.50014622462635805 0.69447607299129699 0 0.84099946107689361 0.68742751001967084 0.31250796680084852 0.687427510020161 0.6002015905170176 0 0.67551889168744117 0.50084626324420545 0.22238844715913 0.78084811589659187 0.68742751001967084 0.31250796680084852 0.687427510020161 0.68969697123394857 0 0.54179813558228873 0.50073570207385831 0.24848280280289631 0.52886631355986169 0.77973766487723961 0.22090161127815711 0.50014622462635805 0.68742751001967084 0.31250796680084852 0.687427510020161 0.50073570207385831 0.24848280280289631 0.52886631355986169 0.6002015905170176 0 0.67551889168744117 0.50084626324420545 0.22238844715913 0.78084811589659187 0.6002015905170176 0 0.67551889168744117 0.81469961246449951 0 0.68914937826112133 0.68742751001967084 0.31250796680084852 0.687427510020161 0.81599560342209843 0.22280203704001911 0.81599560342233202 0.68969697123394857 0 0.54179813558228873 0.50000000000250922 0 0.48038475773043671 0.6002015905170176 0 0.67551889168744117 0.50073570207385831 0.24848280280289631 0.52886631355986169 0.50000000000001332 0.49999999999999561 0.49999999999999561 0.68742751001967084 0.31250796680084852 0.687427510020161 0.49816183246753282 0.5307146639261795 0.75045686993209071 0.50073570207385831 0.24848280280289631 0.52886631355986169 0.68742751001967084 0.31250796680084852 0.687427510020161 0.50000000000001332 0.49999999999999561 0.49999999999999561 0.7504488434426726 0.53051757989633308 0.49836643074154852 0.50073570207385831 0.24848280280289631 0.52886631355986169 0.68742751001967084 0.31250796680084852 0.687427510020161 0.7504488434426726 0.53051757989633308 0.49836643074154852 0.50000000000001332 0.49999999999999561 0.49999999999999561 0.49816183246753282 0.5307146639261795 0.75045686993209071 0.7504488434426726 0.53051757989633308 0.49836643074154852 0.49816183246753282 0.5307146639261795 0.75045686993209071 0.68742751001967084 0.31250796680084852 0.687427510020161 0.78019141325921404 0.49972466465542442 0.78019141325930785 0.49816183246753282 0.5307146639261795 0.75045686993209071 0.50073570207385831 0.24848280280289631 0.52886631355986169 0.68742751001967084 0.31250796680084852 0.687427510020161 0.50084626324420545 0.22238844715913 0.78084811589659187 0.68742751001967084 0.31250796680084852 0.687427510020161 0.50073570207385831 0.24848280280289631 0.52886631355986169 0.7504488434426726 0.53051757989633308 0.49836643074154852 0.77973766487723961 0.22090161127815711 0.50014622462635805 0.45812322962173568 0.31024977578554058 1 0.49816183246753282 0.5307146639261795 0.75045686993209071 0.59952339316492498 0.33579115324593939 1 0.50084626324420545 0.22238844715913 0.78084811589659187 0.59952339316492498 0.33579115324593939 1 0.68742751001967084 0.31250796680084852 0.687427510020161 0.72724211050425436 0.39076805646176382 1 0.81599560342209843 0.22280203704001911 0.81599560342233202 0.59952339316492498 0.33579115324593939 1 0.68742751001967084 0.31250796680084852 0.687427510020161 0.49816183246753282 0.5307146639261795 0.75045686993209071 0.78019141325921404 0.49972466465542442 0.78019141325930785 0.59952339316492498 0.33579115324593939 1 0.50084626324420545 0.22238844715913 0.78084811589659187 0.68742751001967084 0.31250796680084852 0.687427510020161 0.81599560342209843 0.22280203704001911 0.81599560342233202 0.59952339316492498 0.33579115324593939 1 0.49816183246753282 0.5307146639261795 0.75045686993209071 0.68742751001967084 0.31250796680084852 0.687427510020161 0.50084626324420545 0.22238844715913 0.78084811589659187 0.59952339316492498 0.33579115324593939 1 0.72724211050425436 0.39076805646176382 1 0.68742751001967084 0.31250796680084852 0.687427510020161 0.78019141325921404 0.49972466465542442 0.78019141325930785 0.59952339316492498 0.33579115324593939 1 0.49816183246753282 0.5307146639261795 0.75045686993209071 0.67320508075671459 0.53045230059073867 1 0.78019141325921404 0.49972466465542442 0.78019141325930785 0.70565701452089868 0.1912596090858541 1 0.59952339316492498 0.33579115324593939 1 0.72724211050425436 0.39076805646176382 1 0.81599560342209843 0.22280203704001911 0.81599560342233202 0.59952339316492498 0.33579115324593939 1 0.67320508075671459 0.53045230059073867 1 0.72724211050425436 0.39076805646176382 1 0.78019141325921404 0.49972466465542442 0.78019141325930785 0.45812322962173568 0.31024977578554058 1 0.51961524226934941 0.50000000000250611 1 0.59952339316492498 0.33579115324593939 1 0.49816183246753282 0.5307146639261795 0.75045686993209071 0.67320508075671459 0.53045230059073867 1 0.59952339316492498 0.33579115324593939 1 0.51961524226934941 0.50000000000250611 1 0.49816183246753282 0.5307146639261795 0.75045686993209071 0.59952339316492498 0.33579115324593939 1 0.50966790549576724 0.1627551561802443 1 0.45812322962173568 0.31024977578554058 1 0.50084626324420545 0.22238844715913 0.78084811589659187 0.50966790549576724 0.1627551561802443 1 0.70565701452089868 0.1912596090858541 1 0.69447607299129699 0 0.84099946107689361 0.50084626324420545 0.22238844715913 0.78084811589659187 0.68742751001967084 0.31250796680084852 0.687427510020161 0.50084626324420545 0.22238844715913 0.78084811589659187 0.69447607299129699 0 0.84099946107689361 0.81599560342209843 0.22280203704001911 0.81599560342233202 0.70565701452089868 0.1912596090858541 1 0.69447607299129699 0 0.84099946107689361 0.50084626324420545 0.22238844715913 0.78084811589659187 0.81599560342209843 0.22280203704001911 0.81599560342233202 0.70565701452089868 0.1912596090858541 1 0.50084626324420545 0.22238844715913 0.78084811589659187 0.59952339316492498 0.33579115324593939 1 0.81599560342209843 0.22280203704001911 0.81599560342233202 0.70565701452089868 0.1912596090858541 1 0.50966790549576724 0.1627551561802443 1 0.59952339316492498 0.33579115324593939 1 0.50084626324420545 0.22238844715913 0.78084811589659187 0.6002015905170176 0 0.67551889168744117 0.68742751001967084 0.31250796680084852 0.687427510020161 0.69447607299129699 0 0.84099946107689361 0.81599560342209843 0.22280203704001911 0.81599560342233202 0.69447607299129699 0 0.84099946107689361 0.6002015905170176 0 0.67551889168744117 0.49836539647917322 0 0.82773865802723501 0.50084626324420545 0.22238844715913 0.78084811589659187 0.69447607299129699 0 0.84099946107689361 0.49836539647917322 0 0.82773865802723501 0.50966790549576724 0.1627551561802443 1 0.50084626324420545 0.22238844715913 0.78084811589659187 0.60000000000138687 0 1 0.49836539647917322 0 0.82773865802723501 0.50966790549576724 0.1627551561802443 1 0.69447607299129699 0 0.84099946107689361 0.50966790549576724 0.1627551561802443 1 0.40000000000166441 0 1 0.49836539647917322 0 0.82773865802723501 0.60000000000138687 0 1 0.50966790549576724 0.1627551561802443 1 0.70565701452089868 0.1912596090858541 1 0.60000000000138687 0 1 0.69447607299129699 0 0.84099946107689361 0.70565701452089868 0.1912596090858541 1 0.60000000000138687 0 1 0.69447607299129699 0 0.84099946107689361 0.79999999999999982 0 1 0.6002015905170176 0 0.67551889168744117 0.69447607299129699 0 0.84099946107689361 0.81469961246449951 0 0.68914937826112133 0.81599560342209843 0.22280203704001911 0.81599560342233202 0.70565701452089868 0.1912596090858541 1 0.85358983848646974 0.14641016151341191 1 0.69447607299129699 0 0.84099946107689361 0.81599560342209843 0.22280203704001911 0.81599560342233202 0.85358983848646974 0.14641016151341191 1 0.70565701452089868 0.1912596090858541 1 0.85173693729199718 0.30007817960516198 1 0.81599560342209843 0.22280203704001911 0.81599560342233202 1 0.1912596090855686 0.70565701451953711 0.81469961246449951 0 0.68914937826112133 0.85358983848570524 0 0.85358983848556425 0.81599560342209843 0.22280203704001911 0.81599560342233202 0.69447607299129699 0 0.84099946107689361 0.85358983848570524 0 0.85358983848556425 0.81469961246449951 0 0.68914937826112133 0.81599560342209843 0.22280203704001911 0.81599560342233202 0.85358983848570524 0 0.85358983848556425 0.69447607299129699 0 0.84099946107689361 0.85358983848646974 0.14641016151341191 1 0.81599560342209843 0.22280203704001911 0.81599560342233202 0.79999999999999982 0 1 0.69447607299129699 0 0.84099946107689361 0.70565701452089868 0.1912596090858541 1 0.85358983848646974 0.14641016151341191 1 0.79999999999999982 0 1 0.85358983848570524 0 0.85358983848556425 0.69447607299129699 0 0.84099946107689361 0.85358983848646974 0.14641016151341191 1 1 0 1 1 0.14641016151333891 0.85358983848640169 0.85358983848570524 0 0.85358983848556425 0.85358983848646974 0.14641016151341191 1 0.79999999999999982 0 1 1 0 1 0.85358983848570524 0 0.85358983848556425 0.85358983848646974 0.14641016151341191 1 0.85358983848646974 0.14641016151341191 1 1 0 1 1 0.14641016151333891 0.85358983848640169 1 0.19999999999955789 1 0.85358983848570524 0 0.85358983848556425 1 0.14641016151333891 0.85358983848640169 1 0 1 1 0 0.79999999999947335 0.85358983848570524 0 0.85358983848556425 0.81469961246449951 0 0.68914937826112133 1 0.1912596090855686 0.70565701451953711 1 0 0.79999999999947335 1 0.1912596090855686 0.70565701451953711 1 0.14641016151333891 0.85358983848640169 0.85358983848570524 0 0.85358983848556425 1 0 0.79999999999947335 1 0.14641016151333891 0.85358983848640169 1 0.30007817960499339 0.85173693729139244 1 0.1912596090855686 0.70565701451953711 0.81599560342209843 0.22280203704001911 0.81599560342233202 1 0.1912596090855686 0.70565701451953711 0.85358983848570524 0 0.85358983848556425 1 0.14641016151333891 0.85358983848640169 0.81599560342209843 0.22280203704001911 0.81599560342233202 0.85358983848646974 0.14641016151341191 1 0.85173693729199718 0.30007817960516198 1 1 0.19999999999955789 1 0.81599560342209843 0.22280203704001911 0.81599560342233202 1 0.14641016151333891 0.85358983848640169 0.85358983848646974 0.14641016151341191 1 1 0.19999999999955789 1 0.81599560342209843 0.22280203704001911 0.81599560342233202 1 0.14641016151333891 0.85358983848640169 1 0.19999999999955789 1 1 0.30007817960499339 0.85173693729139244 0.81599560342209843 0.22280203704001911 0.81599560342233202 0.85358983848570524 0 0.85358983848556425 0.85358983848646974 0.14641016151341191 1 1 0.14641016151333891 0.85358983848640169 0.81599560342209843 0.22280203704001911 0.81599560342233202 1 0.19999999999955789 1 1 0.30007817960499339 0.85173693729139244 0.85173693729199718 0.30007817960516198 1 1 0.3999999999989749 1 1 0.19999999999955789 1 0.85173693729199718 0.30007817960516198 1 1 0.30007817960499339 0.85173693729139244 0.81599560342209843 0.22280203704001911 0.81599560342233202 1 0.30007817960499339 0.85173693729139244 0.85173693729199718 0.30007817960516198 1 0.78019141325921404 0.49972466465542442 0.78019141325930785 0.81599560342209843 0.22280203704001911 0.81599560342233202 0.68742751001967084 0.31250796680084852 0.687427510020161 0.78019141325921404 0.49972466465542442 0.78019141325930785 0.72724211050425436 0.39076805646176382 1 0.81599560342209843 0.22280203704001911 0.81599560342233202 1 0.39076805646076263 0.7272421105028648 1 0.30007817960499339 0.85173693729139244 0.78019141325921404 0.49972466465542442 0.78019141325930785 0.81599560342209843 0.22280203704001911 0.81599560342233202 0.85173693729199718 0.30007817960516198 1 0.72724211050425436 0.39076805646176382 1 0.78019141325921404 0.49972466465542442 0.78019141325930785 0.81599560342209843 0.22280203704001911 0.81599560342233202 1 0.39076805646076263 0.7272421105028648 0.78019141325921404 0.49972466465542442 0.78019141325930785 0.68742751001967084 0.31250796680084852 0.687427510020161 0.81599560342209843 0.22280203704001911 0.81599560342233202 0.85173693729199718 0.30007817960516198 1 1 0.30007817960499339 0.85173693729139244 1 0.48813836695007229 0.84191918937727617 1 0.3999999999989749 1 0.72724211050425436 0.39076805646176382 1 0.85173693729199718 0.30007817960516198 1 0.70565701452089868 0.1912596090858541 1 0.81599560342209843 0.22280203704001911 0.81599560342233202 1 0.1912596090855686 0.70565701451953711 1 0.30007817960499339 0.85173693729139244 1 0.39076805646076263 0.7272421105028648 0.81599560342209843 0.22280203704001911 0.81599560342233202 0.85173693729199718 0.30007817960516198 1 1 0.48813836695007229 0.84191918937727617 1 0.30007817960499339 0.85173693729139244 0.78019141325921404 0.49972466465542442 0.78019141325930785 1 0.30007817960499339 0.85173693729139244 1 0.48813836695007229 0.84191918937727617 1 0.39076805646076263 0.7272421105028648 0.78019141325921404 0.49972466465542442 0.78019141325930785 1 0.39076805646076263 0.7272421105028648 1 0.48813836695007229 0.84191918937727617 1 0.53045230059030524 0.6732050807565132 0.78019141325921404 0.49972466465542442 0.78019141325930785 0.72724211050425436 0.39076805646176382 1 0.67320508075671459 0.53045230059073867 1 0.84191918937756771 0.48813836695034618 1 0.78019141325921404 0.49972466465542442 0.78019141325930785 0.84191918937756771 0.48813836695034618 1 0.85173693729199718 0.30007817960516198 1 0.72724211050425436 0.39076805646176382 1 0.78019141325921404 0.49972466465542442 0.78019141325930785 0.84191918937756771 0.48813836695034618 1 1 0.48813836695007229 0.84191918937727617 0.85173693729199718 0.30007817960516198 1 0.78019141325921404 0.49972466465542442 0.78019141325930785 1 0.3999999999989749 1 1 0.48813836695007229 0.84191918937727617 0.84191918937756771 0.48813836695034618 1 1 0.59999999999894682 1 1 0.48813836695007229 0.84191918937727617 0.84191918937756771 0.48813836695034618 1 0.85173693729199718 0.30007817960516198 1 1 0.3999999999989749 1 0.80839867011861499 0.68192028468377774 1 0.78019141325921404 0.49972466465542442 0.78019141325930785 0.68649174659499257 0.68600703198516766 0.6864917465949647 0.77683220420328725 0.81278569633583353 0.81664766512111064 0.80839867011861499 0.68192028468377774 1 1 0.68192028468364885 0.80839867011854549 0.78019141325921404 0.49972466465542442 0.78019141325930785 0.77683220420328725 0.81278569633583353 0.81664766512111064 1 0.59999999999894682 1 1 0.48813836695007229 0.84191918937727617 0.84191918937756771 0.48813836695034618 1 1 0.68192028468364885 0.80839867011854549 0.68649174659499257 0.68600703198516766 0.6864917465949647 0.78019141325921404 0.49972466465542442 0.78019141325930785 1 0.68192028468364885 0.80839867011854549 0.77683220420328725 0.81278569633583353 0.81664766512111064 0.84191918937756771 0.48813836695034618 1 1 0.59999999999894682 1 1 0.68192028468364885 0.80839867011854549 0.80839867011861499 0.68192028468377774 1 1 0.59999999999894682 1 1 0.68192028468364885 0.80839867011854549 0.80839867011861499 0.68192028468377774 1 1 0.79999999999947335 1 0.84191918937756771 0.48813836695034618 1 0.67320508075671459 0.53045230059073867 1 0.80839867011861499 0.68192028468377774 1 0.78019141325921404 0.49972466465542442 0.78019141325930785 0.84191918937756771 0.48813836695034618 1 0.80839867011861499 0.68192028468377774 1 1 0.68192028468364885 0.80839867011854549 0.78019141325921404 0.49972466465542442 0.78019141325930785 1 0.68192028468364885 0.80839867011854549 1 0.53045230059030524 0.6732050807565132 1 0.48813836695007229 0.84191918937727617 0.78019141325921404 0.49972466465542442 0.78019141325930785 1 0.68192028468364885 0.80839867011854549 1 0.48813836695007229 0.84191918937727617 0.84191918937756771 0.48813836695034618 1 0.78019141325921404 0.49972466465542442 0.78019141325930785 1 0.67939035495490308 0.61016512164639347 0.78019141325921404 0.49972466465542442 0.78019141325930785 0.7504488434426726 0.53051757989633308 0.49836643074154852 1 0.53045230059030524 0.6732050807565132 1 0.67939035495490308 0.61016512164639347 0.7504488434426726 0.53051757989633308 0.49836643074154852 0.68649174659499257 0.68600703198516766 0.6864917465949647 0.77374673111774417 0.78860835645735528 0.49829081152968557 1 0.67939035495490308 0.61016512164639347 0.68649174659499257 0.68600703198516766 0.6864917465949647 1 0.83791821520125753 0.69361520514217179 0.77374673111774417 0.78860835645735528 0.49829081152968557 1 0.68192028468364885 0.80839867011854549 1 0.67939035495490308 0.61016512164639347 0.68649174659499257 0.68600703198516766 0.6864917465949647 0.77683220420328725 0.81278569633583353 0.81664766512111064 1 0.67939035495490308 0.61016512164639347 1 0.68975022421527898 0.45812322962078778 0.7504488434426726 0.53051757989633308 0.49836643074154852 0.77374673111774417 0.78860835645735528 0.49829081152968557 0.7504488434426726 0.53051757989633308 0.49836643074154852 0.78019141325921404 0.49972466465542442 0.78019141325930785 1 0.67939035495490308 0.61016512164639347 0.68649174659499257 0.68600703198516766 0.6864917465949647 1 0.68192028468364885 0.80839867011854549 0.68649174659499257 0.68600703198516766 0.6864917465949647 1 0.67939035495490308 0.61016512164639347 0.78019141325921404 0.49972466465542442 0.78019141325930785 1 0.53045230059030524 0.6732050807565132 1 0.68192028468364885 0.80839867011854549 1 0.67939035495490308 0.61016512164639347 0.78019141325921404 0.49972466465542442 0.78019141325930785 1 0.67939035495490308 0.61016512164639347 1 0.50000000000229983 0.51961524226898759 1 0.53045230059030524 0.6732050807565132 0.7504488434426726 0.53051757989633308 0.49836643074154852 1 0.67939035495490308 0.61016512164639347 1 0.68975022421527898 0.45812322962078778 1 0.50000000000229983 0.51961524226898759 0.7504488434426726 0.53051757989633308 0.49836643074154852 1 0.67939035495490308 0.61016512164639347 1 0.83630110503662825 0.50803330197135588 1 0.68975022421527898 0.45812322962078778 0.77374673111774417 0.78860835645735528 0.49829081152968557 1 0.83791821520125753 0.69361520514217179 0.77374673111774417 0.78860835645735528 0.49829081152968557 0.68649174659499257 0.68600703198516766 0.6864917465949647 0.77683220420328725 0.81278569633583353 0.81664766512111064 0.68649174659499257 0.68600703198516766 0.6864917465949647 0.77374673111774417 0.78860835645735528 0.49829081152968557 0.81346205468287114 1 0.68420958956387889 0.77683220420328725 0.81278569633583353 0.81664766512111064 1 0.83791821520125753 0.69361520514217179 0.68649174659499257 0.68600703198516766 0.6864917465949647 1 0.67939035495490308 0.61016512164639347 0.77683220420328725 0.81278569633583353 0.81664766512111064 1 0.68192028468364885 0.80839867011854549 1 0.83791821520125753 0.69361520514217179 1 0.67939035495490308 0.61016512164639347 0.77683220420328725 0.81278569633583353 0.81664766512111064 1 0.83791821520125753 0.69361520514217179 0.81346205468287114 1 0.68420958956387889 0.77374673111774417 0.78860835645735528 0.49829081152968557 0.77683220420328725 0.81278569633583353 0.81664766512111064 1 0.83630110503662825 0.50803330197135588 1 0.67939035495490308 0.61016512164639347 1 0.83791821520125753 0.69361520514217179 0.77374673111774417 0.78860835645735528 0.49829081152968557 1 0.83791821520125753 0.69361520514217179 0.86762395692956074 1 0.5060815484123421 1 0.83630110503662825 0.50803330197135588 0.77374673111774417 0.78860835645735528 0.49829081152968557 1 1 0.59999999999894682 1 0.83630110503662825 0.50803330197135588 1 0.83791821520125753 0.69361520514217179 0.86762395692956074 1 0.5060815484123421 0.86762395692956074 1 0.5060815484123421 1 1 0.59999999999894682 1 0.83630110503662825 0.50803330197135588 1 1 0.3999999999989749 1 0.83791821520125753 0.69361520514217179 0.81346205468287114 1 0.68420958956387889 1 1 0.59999999999894682 0.86762395692956074 1 0.5060815484123421 0.86762395692956074 1 0.5060815484123421 0.81346205468287114 1 0.68420958956387889 0.68240285647621723 1 0.52310058211166854 0.77374673111774417 0.78860835645735528 0.49829081152968557 0.81346205468287114 1 0.68420958956387889 0.86762395692956074 1 0.5060815484123421 1 0.83791821520125753 0.69361520514217179 0.77374673111774417 0.78860835645735528 0.49829081152968557 1 0.83791821520125753 0.69361520514217179 0.81346205468287114 1 0.68420958956387889 1 1 0.79999999999947335 1 1 0.59999999999894682 1 1 0.79999999999947335 0.85358983848569092 1 0.85358983848569092 0.81346205468287114 1 0.68420958956387889 1 0.83791821520125753 0.69361520514217179 0.85358983848569092 1 0.85358983848569092 1 0.83791821520125753 0.69361520514217179 1 0.85358983848587056 0.85358983848587056 0.77683220420328725 0.81278569633583353 0.81664766512111064 0.85358983848569092 1 0.85358983848569092 1 1 0.79999999999947335 1 0.85358983848587056 0.85358983848587056 1 0.83791821520125753 0.69361520514217179 0.85358983848587056 0.85358983848587056 1 1 1 1 1 0.79999999999947335 1 1 0.85358983848587056 0.85358983848587056 0.85358983848587056 0.85358983848587056 1 0.79999999999947335 1 1 1 1 1 0.85358983848569092 1 0.85358983848569092 1 1 0.79999999999947335 1 0.85358983848587056 0.85358983848587056 1 1 1 0.85358983848569092 1 0.85358983848569092 1 0.85358983848587056 0.85358983848587056 0.85358983848587056 0.85358983848587056 1 1 1 1 0.85358983848569092 1 0.85358983848569092 0.85358983848587056 0.85358983848587056 1 1 0.79999999999947335 1 1 0.68192028468364885 0.80839867011854549 1 0.85358983848587056 0.85358983848587056 1 0.79999999999947335 1 1 0.68192028468364885 0.80839867011854549 0.80839867011861499 0.68192028468377774 1 0.85358983848587056 0.85358983848587056 1 0.85358983848587056 0.85358983848587056 1 1 0.85358983848587056 0.85358983848587056 1 0.68192028468364885 0.80839867011854549 0.77683220420328725 0.81278569633583353 0.81664766512111064 1 0.68192028468364885 0.80839867011854549 1 0.85358983848587056 0.85358983848587056 1 0.83791821520125753 0.69361520514217179 0.77683220420328725 0.81278569633583353 0.81664766512111064 0.69361520514218133 0.83791821520130205 1 0.85358983848587056 0.85358983848587056 1 0.80839867011861499 0.68192028468377774 1 0.77683220420328725 0.81278569633583353 0.81664766512111064 0.80839867011861499 0.68192028468377774 1 0.85358983848587056 0.85358983848587056 1 1 0.68192028468364885 0.80839867011854549 0.77683220420328725 0.81278569633583353 0.81664766512111064 0.85358983848587056 0.85358983848587056 1 0.79999999999947335 1 1 0.85358983848569092 1 0.85358983848569092 0.77683220420328725 0.81278569633583353 0.81664766512111064 0.69981550660938663 1 0.83057691269844081 0.85358983848569092 1 0.85358983848569092 0.79999999999947335 1 1 0.77683220420328725 0.81278569633583353 0.81664766512111064 0.85358983848587056 0.85358983848587056 1 0.69361520514218133 0.83791821520130205 1 0.79999999999947335 1 1 0.77683220420328725 0.81278569633583353 0.81664766512111064 1 0.85358983848587056 0.85358983848587056 0.85358983848587056 0.85358983848587056 1 0.85358983848569092 1 0.85358983848569092 0.77683220420328725 0.81278569633583353 0.81664766512111064 0.85358983848569092 1 0.85358983848569092 0.69981550660938663 1 0.83057691269844081 0.81346205468287114 1 0.68420958956387889 0.77683220420328725 0.81278569633583353 0.81664766512111064 0.81346205468287114 1 0.68420958956387889 1 0.83791821520125753 0.69361520514217179 0.85358983848569092 1 0.85358983848569092 0.77683220420328725 0.81278569633583353 0.81664766512111064 0.69361520514218133 0.83791821520130205 1 0.49911199724958061 0.77872228561593948 0.77895350115271889 0.69981550660938663 1 0.83057691269844081 0.77683220420328725 0.81278569633583353 0.81664766512111064 0.69361520514218133 0.83791821520130205 1 0.61016512164652226 0.67939035495506384 1 0.49911199724958061 0.77872228561593948 0.77895350115271889 0.77683220420328725 0.81278569633583353 0.81664766512111064 0.81346205468287114 1 0.68420958956387889 0.69981550660938663 1 0.83057691269844081 0.6123333432449789 1 0.67837347745467769 0.77683220420328725 0.81278569633583353 0.81664766512111064 0.6123333432449789 1 0.67837347745467769 0.69981550660938663 1 0.83057691269844081 0.49911199724958061 0.77872228561593948 0.77895350115271889 0.77683220420328725 0.81278569633583353 0.81664766512111064 0.69361520514218133 0.83791821520130205 1 0.69981550660938663 1 0.83057691269844081 0.79999999999947335 1 1 0.77683220420328725 0.81278569633583353 0.81664766512111064 0.50970031073508926 1 0.83534964916803001 0.59999999999894682 1 1 0.69361520514218133 0.83791821520130205 1 0.69981550660938663 1 0.83057691269844081 0.69981550660938663 1 0.83057691269844081 0.59999999999894682 1 1 0.69361520514218133 0.83791821520130205 1 0.79999999999947335 1 1 0.80839867011861499 0.68192028468377774 1 0.61016512164652226 0.67939035495506384 1 0.69361520514218133 0.83791821520130205 1 0.77683220420328725 0.81278569633583353 0.81664766512111064 0.50803330197137353 0.83630110503667787 1 0.69361520514218133 0.83791821520130205 1 0.61016512164652226 0.67939035495506384 1 0.49911199724958061 0.77872228561593948 0.77895350115271889 0.50803330197137353 0.83630110503667787 1 0.50970031073508926 1 0.83534964916803001 0.69361520514218133 0.83791821520130205 1 0.49911199724958061 0.77872228561593948 0.77895350115271889 0.59999999999894682 1 1 0.50803330197137353 0.83630110503667787 1 0.3999999999989749 1 1 0.50970031073508926 1 0.83534964916803001 0.69361520514218133 0.83791821520130205 1 0.50803330197137353 0.83630110503667787 1 0.59999999999894682 1 1 0.50970031073508926 1 0.83534964916803001 0.69361520514218133 0.83791821520130205 1 0.50970031073508926 1 0.83534964916803001 0.69981550660938663 1 0.83057691269844081 0.49911199724958061 0.77872228561593948 0.77895350115271889 0.50970031073508926 1 0.83534964916803001 0.6123333432449789 1 0.67837347745467769 0.69981550660938663 1 0.83057691269844081 0.49911199724958061 0.77872228561593948 0.77895350115271889 0.6123333432449789 1 0.67837347745467769 0.49983993748706529 0.75039103705932653 0.52967335724801234 0.68649174659499257 0.68600703198516766 0.6864917465949647 0.49911199724958061 0.77872228561593948 0.77895350115271889 0.6123333432449789 1 0.67837347745467769 0.49983993748706529 0.75039103705932653 0.52967335724801234 0.68240285647621723 1 0.52310058211166854 0.77374673111774417 0.78860835645735528 0.49829081152968557 0.6123333432449789 1 0.67837347745467769 0.45820186441573879 1 0.68969697123405882 0.49983993748706529 0.75039103705932653 0.52967335724801234 0.49911199724958061 0.77872228561593948 0.77895350115271889 0.45820186441573879 1 0.68969697123405882 0.6123333432449789 1 0.67837347745467769 0.50970031073508926 1 0.83534964916803001 0.49911199724958061 0.77872228561593948 0.77895350115271889 0.6123333432449789 1 0.67837347745467769 0.68649174659499257 0.68600703198516766 0.6864917465949647 0.49983993748706529 0.75039103705932653 0.52967335724801234 0.77374673111774417 0.78860835645735528 0.49829081152968557 0.81346205468287114 1 0.68420958956387889 0.6123333432449789 1 0.67837347745467769 0.68649174659499257 0.68600703198516766 0.6864917465949647 0.77683220420328725 0.81278569633583353 0.81664766512111064 0.6123333432449789 1 0.67837347745467769 0.49911199724958061 0.77872228561593948 0.77895350115271889 0.68649174659499257 0.68600703198516766 0.6864917465949647 0.77683220420328725 0.81278569633583353 0.81664766512111064 0.81346205468287114 1 0.68420958956387889 0.68649174659499257 0.68600703198516766 0.6864917465949647 0.6123333432449789 1 0.67837347745467769 0.77374673111774417 0.78860835645735528 0.49829081152968557 0.81346205468287114 1 0.68420958956387889 0.6123333432449789 1 0.67837347745467769 0.68240285647621723 1 0.52310058211166854 0.77374673111774417 0.78860835645735528 0.49829081152968557 0.6123333432449789 1 0.67837347745467769 0.45820186441573879 1 0.68969697123405882 0.51961524227008238 1 0.49999999999872219 0.49983993748706529 0.75039103705932653 0.52967335724801234 0.6123333432449789 1 0.67837347745467769 0.51961524227008238 1 0.49999999999872219 0.68240285647621723 1 0.52310058211166854 0.49983993748706529 0.75039103705932653 0.52967335724801234 0.68649174659499257 0.68600703198516766 0.6864917465949647 0.49983993748706529 0.75039103705932653 0.52967335724801234 0.49816183246753282 0.5307146639261795 0.75045686993209071 0.49911199724958061 0.77872228561593948 0.77895350115271889 0.68649174659499257 0.68600703198516766 0.6864917465949647 0.50000000000001332 0.49999999999999561 0.49999999999999561 0.7504488434426726 0.53051757989633308 0.49836643074154852 0.49816183246753282 0.5307146639261795 0.75045686993209071 0.68649174659499257 0.68600703198516766 0.6864917465949647 0.49816183246753282 0.5307146639261795 0.75045686993209071 0.7504488434426726 0.53051757989633308 0.49836643074154852 0.78019141325921404 0.49972466465542442 0.78019141325930785 0.50000000000001332 0.49999999999999561 0.49999999999999561 0.68649174659499257 0.68600703198516766 0.6864917465949647 0.7504488434426726 0.53051757989633308 0.49836643074154852 0.49983993748706529 0.75039103705932653 0.52967335724801234 0.7504488434426726 0.53051757989633308 0.49836643074154852 0.49983993748706529 0.75039103705932653 0.52967335724801234 0.68649174659499257 0.68600703198516766 0.6864917465949647 0.77374673111774417 0.78860835645735528 0.49829081152968557 0.68649174659499257 0.68600703198516766 0.6864917465949647 0.50000000000001332 0.49999999999999561 0.49999999999999561 0.49816183246753282 0.5307146639261795 0.75045686993209071 0.49983993748706529 0.75039103705932653 0.52967335724801234 0.78019141325921404 0.49972466465542442 0.78019141325930785 0.61016512164652226 0.67939035495506384 1 0.49816183246753282 0.5307146639261795 0.75045686993209071 0.67320508075671459 0.53045230059073867 1 0.78019141325921404 0.49972466465542442 0.78019141325930785 0.49816183246753282 0.5307146639261795 0.75045686993209071 0.61016512164652226 0.67939035495506384 1 0.68649174659499257 0.68600703198516766 0.6864917465949647 0.61016512164652226 0.67939035495506384 1 0.68649174659499257 0.68600703198516766 0.6864917465949647 0.80839867011861499 0.68192028468377774 1 0.78019141325921404 0.49972466465542442 0.78019141325930785 0.68649174659499257 0.68600703198516766 0.6864917465949647 0.49911199724958061 0.77872228561593948 0.77895350115271889 0.61016512164652226 0.67939035495506384 1 0.77683220420328725 0.81278569633583353 0.81664766512111064 0.68649174659499257 0.68600703198516766 0.6864917465949647 0.49816183246753282 0.5307146639261795 0.75045686993209071 0.61016512164652226 0.67939035495506384 1 0.49911199724958061 0.77872228561593948 0.77895350115271889 0.80839867011861499 0.68192028468377774 1 0.68649174659499257 0.68600703198516766 0.6864917465949647 0.61016512164652226 0.67939035495506384 1 0.77683220420328725 0.81278569633583353 0.81664766512111064 0.67320508075671459 0.53045230059073867 1 0.61016512164652226 0.67939035495506384 1 0.80839867011861499 0.68192028468377774 1 0.78019141325921404 0.49972466465542442 0.78019141325930785 0.45812322962090041 0.68975022421538157 1 0.61016512164652226 0.67939035495506384 1 0.49816183246753282 0.5307146639261795 0.75045686993209071 0.49911199724958061 0.77872228561593948 0.77895350115271889 0.50803330197137353 0.83630110503667787 1 0.61016512164652226 0.67939035495506384 1 0.45812322962090041 0.68975022421538157 1 0.49911199724958061 0.77872228561593948 0.77895350115271889 0.51961524226934941 0.50000000000250611 1 0.45812322962090041 0.68975022421538157 1 0.61016512164652226 0.67939035495506384 1 0.49816183246753282 0.5307146639261795 0.75045686993209071 0.67320508075671459 0.53045230059073867 1 0.51961524226934941 0.50000000000250611 1 0.61016512164652226 0.67939035495506384 1 0.49816183246753282 0.5307146639261795 0.75045686993209071 0.3115891413135391 0.68758981780459771 0.68521708032990558 0.2184393375098648 0.50004596894495223 0.77634962490704662 0.32446581821293602 0.60020898676440626 1 0.18453958615733529 0.77655623474864555 0.81613222483915937 0.32925244736146098 0.39615100178034629 1 0.32446581821293602 0.60020898676440626 1 0.51961524226934941 0.50000000000250611 1 0.49816183246753282 0.5307146639261795 0.75045686993209071 0.45812322962090041 0.68975022421538157 1 0.3115891413135391 0.68758981780459771 0.68521708032990558 0.31067093462947892 0.81480288849497895 1 0.49911199724958061 0.77872228561593948 0.77895350115271889 0.32925244736146098 0.39615100178034629 1 0.32446581821293602 0.60020898676440626 1 0.49816183246753282 0.5307146639261795 0.75045686993209071 0.2184393375098648 0.50004596894495223 0.77634962490704662 0.45812322962090041 0.68975022421538157 1 0.49816183246753282 0.5307146639261795 0.75045686993209071 0.3115891413135391 0.68758981780459771 0.68521708032990558 0.49911199724958061 0.77872228561593948 0.77895350115271889 0.32446581821293602 0.60020898676440626 1 0.3115891413135391 0.68758981780459771 0.68521708032990558 0.49816183246753282 0.5307146639261795 0.75045686993209071 0.2184393375098648 0.50004596894495223 0.77634962490704662 0.45812322962090041 0.68975022421538157 1 0.51961524226934941 0.50000000000250611 1 0.32446581821293602 0.60020898676440626 1 0.49816183246753282 0.5307146639261795 0.75045686993209071 0.31067093462947892 0.81480288849497895 1 0.45812322962090041 0.68975022421538157 1 0.32446581821293602 0.60020898676440626 1 0.3115891413135391 0.68758981780459771 0.68521708032990558 0.45812322962090041 0.68975022421538157 1 0.32446581821293602 0.60020898676440626 1 0.3115891413135391 0.68758981780459771 0.68521708032990558 0.49816183246753282 0.5307146639261795 0.75045686993209071 0.32446581821293602 0.60020898676440626 1 0.31067093462947892 0.81480288849497895 1 0.3115891413135391 0.68758981780459771 0.68521708032990558 0.18453958615733529 0.77655623474864555 0.81613222483915937 0.3115891413135391 0.68758981780459771 0.68521708032990558 0.50000000000001332 0.49999999999999561 0.49999999999999561 0.24769234054476261 0.52242103280823293 0.45098450226372488 0.49983993748706529 0.75039103705932653 0.52967335724801234 0.3115891413135391 0.68758981780459771 0.68521708032990558 0.49816183246753282 0.5307146639261795 0.75045686993209071 0.50000000000001332 0.49999999999999561 0.49999999999999561 0.49983993748706529 0.75039103705932653 0.52967335724801234 0.3115891413135391 0.68758981780459771 0.68521708032990558 0.49983993748706529 0.75039103705932653 0.52967335724801234 0.24769234054476261 0.52242103280823293 0.45098450226372488 0.22516916914780419 0.77057994845201627 0.48187244075707292 0.50000000000001332 0.49999999999999561 0.49999999999999561 0.3115891413135391 0.68758981780459771 0.68521708032990558 0.24769234054476261 0.52242103280823293 0.45098450226372488 0.2184393375098648 0.50004596894495223 0.77634962490704662 0.3115891413135391 0.68758981780459771 0.68521708032990558 0.50000000000001332 0.49999999999999561 0.49999999999999561 0.49816183246753282 0.5307146639261795 0.75045686993209071 0.2184393375098648 0.50004596894495223 0.77634962490704662 0.49816183246753282 0.5307146639261795 0.75045686993209071 0.49983993748706529 0.75039103705932653 0.52967335724801234 0.3115891413135391 0.68758981780459771 0.68521708032990558 0.49911199724958061 0.77872228561593948 0.77895350115271889 0.32448110831226962 1 0.6002015905153204 0.45820186441573879 1 0.68969697123405882 0.3115891413135391 0.68758981780459771 0.68521708032990558 0.49983993748706529 0.75039103705932653 0.52967335724801234 0.45820186441573879 1 0.68969697123405882 0.31085062173747541 1 0.81469961246428202 0.32448110831226962 1 0.6002015905153204 0.3115891413135391 0.68758981780459771 0.68521708032990558 0.45820186441573879 1 0.68969697123405882 0.3115891413135391 0.68758981780459771 0.68521708032990558 0.49983993748706529 0.75039103705932653 0.52967335724801234 0.49911199724958061 0.77872228561593948 0.77895350115271889 0.32448110831226962 1 0.6002015905153204 0.3115891413135391 0.68758981780459771 0.68521708032990558 0.31085062173747541 1 0.81469961246428202 0.18453958615733529 0.77655623474864555 0.81613222483915937 0.32448110831226962 1 0.6002015905153204 0.49983993748706529 0.75039103705932653 0.52967335724801234 0.3115891413135391 0.68758981780459771 0.68521708032990558 0.22516916914780419 0.77057994845201627 0.48187244075707292 0.45820186441573879 1 0.68969697123405882 0.31085062173747541 1 0.81469961246428202 0.3115891413135391 0.68758981780459771 0.68521708032990558 0.49911199724958061 0.77872228561593948 0.77895350115271889 0.32926555316115258 1 0.39615987727515128 0.49983993748706529 0.75039103705932653 0.52967335724801234 0.32448110831226962 1 0.6002015905153204 0.22516916914780419 0.77057994845201627 0.48187244075707292 0.32448110831226962 1 0.6002015905153204 0.3115891413135391 0.68758981780459771 0.68521708032990558 0.15900053892265181 1 0.69447607299016312 0.22516916914780419 0.77057994845201627 0.48187244075707292 0.32926555316115258 1 0.39615987727515128 0.51961524227008238 1 0.49999999999872219 0.32448110831226962 1 0.6002015905153204 0.49983993748706529 0.75039103705932653 0.52967335724801234 0.32448110831226962 1 0.6002015905153204 0.51961524227008238 1 0.49999999999872219 0.45820186441573879 1 0.68969697123405882 0.49983993748706529 0.75039103705932653 0.52967335724801234 0.45820186441573879 1 0.68969697123405882 0.50970031073508926 1 0.83534964916803001 0.31085062173747541 1 0.81469961246428202 0.49911199724958061 0.77872228561593948 0.77895350115271889 0.31085062173747541 1 0.81469961246428202 0.49911199724958061 0.77872228561593948 0.77895350115271889 0.31067093462947892 0.81480288849497895 1 0.18453958615733529 0.77655623474864555 0.81613222483915937 0.31085062173747541 1 0.81469961246428202 0.3115891413135391 0.68758981780459771 0.68521708032990558 0.49911199724958061 0.77872228561593948 0.77895350115271889 0.18453958615733529 0.77655623474864555 0.81613222483915937 0.50803330197137353 0.83630110503667787 1 0.31085062173747541 1 0.81469961246428202 0.50970031073508926 1 0.83534964916803001 0.49911199724958061 0.77872228561593948 0.77895350115271889 0.31067093462947892 0.81480288849497895 1 0.49911199724958061 0.77872228561593948 0.77895350115271889 0.3115891413135391 0.68758981780459771 0.68521708032990558 0.18453958615733529 0.77655623474864555 0.81613222483915937 0.31085062173747541 1 0.81469961246428202 0.3999999999989749 1 1 0.50803330197137353 0.83630110503667787 1 0.50970031073508926 1 0.83534964916803001 0.31085062173747541 1 0.81469961246428202 0.3999999999989749 1 1 0.31067093462947892 0.81480288849497895 1 0.50803330197137353 0.83630110503667787 1 0.31085062173747541 1 0.81469961246428202 0.50803330197137353 0.83630110503667787 1 0.31067093462947892 0.81480288849497895 1 0.49911199724958061 0.77872228561593948 0.77895350115271889 0.45812322962090041 0.68975022421538157 1 0.31067093462947892 0.81480288849497895 1 0.50803330197137353 0.83630110503667787 1 0.49911199724958061 0.77872228561593948 0.77895350115271889 0.3999999999989749 1 1 0.19999999999955789 1 1 0.31085062173747541 1 0.81469961246428202 0.31067093462947892 0.81480288849497895 1 0.15900053892265181 1 0.69447607299016312 0.31085062173747541 1 0.81469961246428202 0.1464101615132356 1 0.85358983848650494 0.18453958615733529 0.77655623474864555 0.81613222483915937 0.31085062173747541 1 0.81469961246428202 0.31067093462947892 0.81480288849497895 1 0.1464101615132356 1 0.85358983848650494 0.18453958615733529 0.77655623474864555 0.81613222483915937 0.31085062173747541 1 0.81469961246428202 0.19999999999955789 1 1 0.1464101615132356 1 0.85358983848650494 0.31067093462947892 0.81480288849497895 1 0.14641016151332509 0.85358983848655678 1 0.1464101615132356 1 0.85358983848650494 0.19999999999955789 1 1 0.31067093462947892 0.81480288849497895 1 0.31067093462947892 0.81480288849497895 1 0.15896804272141651 0.69449451837104537 1 0.14641016151332509 0.85358983848655678 1 0.18453958615733529 0.77655623474864555 0.81613222483915937 0.14641016151332509 0.85358983848655678 1 0.1464101615132356 1 0.85358983848650494 0.31067093462947892 0.81480288849497895 1 0.18453958615733529 0.77655623474864555 0.81613222483915937 0 0.85358983848682146 0.85358983848668035 0 0.69992182039579531 0.85173693729137989 0 0.80860557108920617 0.70542349973054763 0.18453958615733529 0.77655623474864555 0.81613222483915937 0.15900053892265181 1 0.69447607299016312 0 0.85358983848682146 0.85358983848668035 0 0.80860557108920617 0.70542349973054763 0.18453958615733529 0.77655623474864555 0.81613222483915937 0.18453958615733529 0.77655623474864555 0.81613222483915937 0 0.79999999999999982 1 0.15896804272141651 0.69449451837104537 1 0.14641016151332509 0.85358983848655678 1 0.1464101615132356 1 0.85358983848650494 0.14641016151332509 0.85358983848655678 1 0 0.85358983848682146 0.85358983848668035 0.18453958615733529 0.77655623474864555 0.81613222483915937 0 0.85358983848682146 0.85358983848668035 0 0.79999999999999982 1 0 0.69992182039579531 0.85173693729137989 0.18453958615733529 0.77655623474864555 0.81613222483915937 0 0.85358983848682146 0.85358983848668035 0.14641016151332509 0.85358983848655678 1 0 0.79999999999999982 1 0.18453958615733529 0.77655623474864555 0.81613222483915937 0 1 1 0 0.85358983848682146 0.85358983848668035 0.14641016151332509 0.85358983848655678 1 0 0.79999999999999982 1 0 0.85358983848682146 0.85358983848668035 0.1464101615132356 1 0.85358983848650494 0 1 1 0.14641016151332509 0.85358983848655678 1 0.19999999999955789 1 1 0 1 1 0.1464101615132356 1 0.85358983848650494 0.14641016151332509 0.85358983848655678 1 0.1464101615132356 1 0.85358983848650494 0 1 1 0 1 0.79999999999947335 0 0.85358983848682146 0.85358983848668035 0.1464101615132356 1 0.85358983848650494 0 0.85358983848682146 0.85358983848668035 0.15900053892265181 1 0.69447607299016312 0.18453958615733529 0.77655623474864555 0.81613222483915937 0.15900053892265181 1 0.69447607299016312 0 1 0.79999999999947335 0 0.80860557108920617 0.70542349973054763 0 0.85358983848682146 0.85358983848668035 0 1 0.79999999999947335 0.15900053892265181 1 0.69447607299016312 0.1464101615132356 1 0.85358983848650494 0 0.85358983848682146 0.85358983848668035 0 0.80860557108920617 0.70542349973054763 0 1 0.59999999999894682 0 1 0.79999999999947335 0.15900053892265181 1 0.69447607299016312 0.3115891413135391 0.68758981780459771 0.68521708032990558 0.22516916914780419 0.77057994845201627 0.48187244075707292 0 0.80860557108920617 0.70542349973054763 0.18453958615733529 0.77655623474864555 0.81613222483915937 0 0.80860557108920617 0.70542349973054763 0 0.83630110503664845 0.50803330197135654 0 1 0.59999999999894682 0.15900053892265181 1 0.69447607299016312 0.15900053892265181 1 0.69447607299016312 0.3115891413135391 0.68758981780459771 0.68521708032990558 0.32448110831226962 1 0.6002015905153204 0.18453958615733529 0.77655623474864555 0.81613222483915937 0.15900053892265181 1 0.69447607299016312 0.22516916914780419 0.77057994845201627 0.48187244075707292 0.3115891413135391 0.68758981780459771 0.68521708032990558 0.18453958615733529 0.77655623474864555 0.81613222483915937 0.15900053892265181 1 0.69447607299016312 0 0.80860557108920617 0.70542349973054763 0.22516916914780419 0.77057994845201627 0.48187244075707292 0.18453958615733529 0.77655623474864555 0.81613222483915937 0.15900053892265181 1 0.69447607299016312 0.32448110831226962 1 0.6002015905153204 0.31085062173747541 1 0.81469961246428202 0.18453958615733529 0.77655623474864555 0.81613222483915937 0.32448110831226962 1 0.6002015905153204 0.15900053892265181 1 0.69447607299016312 0.17226134197293 1 0.49836539647645101 0.22516916914780419 0.77057994845201627 0.48187244075707292 0 0.83630110503664845 0.50803330197135654 0.17226134197293 1 0.49836539647645101 0.15900053892265181 1 0.69447607299016312 0.22516916914780419 0.77057994845201627 0.48187244075707292 0 1 0.59999999999894682 0 1 0.3999999999989749 0.17226134197293 1 0.49836539647645101 0 0.83630110503664845 0.50803330197135654 0 0.83630110503664845 0.50803330197135654 0.17226134197293 1 0.49836539647645101 0 1 0.59999999999894682 0.15900053892265181 1 0.69447607299016312 0 0.83630110503664845 0.50803330197135654 0.15900053892265181 1 0.69447607299016312 0 0.80860557108920617 0.70542349973054763 0.22516916914780419 0.77057994845201627 0.48187244075707292 0 0.66416205381430016 0.59944234540882957 0 0.83630110503664845 0.50803330197135654 0 0.80860557108920617 0.70542349973054763 0.22516916914780419 0.77057994845201627 0.48187244075707292 0 0.66416205381430016 0.59944234540882957 0 0.80860557108920617 0.70542349973054763 0.3115891413135391 0.68758981780459771 0.68521708032990558 0.22516916914780419 0.77057994845201627 0.48187244075707292 0 0.66416205381430016 0.59944234540882957 0.3115891413135391 0.68758981780459771 0.68521708032990558 0 0.80860557108920617 0.70542349973054763 0.18453958615733529 0.77655623474864555 0.81613222483915937 0 0.66416205381430016 0.59944234540882957 0 0.80860557108920617 0.70542349973054763 0 0.60922248848335758 0.72722573386012812 0.18453958615733529 0.77655623474864555 0.81613222483915937 0 0.66416205381430016 0.59944234540882957 0.24769234054476261 0.52242103280823293 0.45098450226372488 0.3115891413135391 0.68758981780459771 0.68521708032990558 0.2184393375098648 0.50004596894495223 0.77634962490704662 0 0.66416205381430016 0.59944234540882957 0 0.60922248848335758 0.72722573386012812 0.3115891413135391 0.68758981780459771 0.68521708032990558 0.18453958615733529 0.77655623474864555 0.81613222483915937 0 0.66416205381430016 0.59944234540882957 0 0.46954769941369501 0.67320508075638175 0 0.50000000000237477 0.51961524226909872 0.2184393375098648 0.50004596894495223 0.77634962490704662 0 0.60922248848335758 0.72722573386012812 0 0.66416205381430016 0.59944234540882957 0.3115891413135391 0.68758981780459771 0.68521708032990558 0.2184393375098648 0.50004596894495223 0.77634962490704662 0 0.66416205381430016 0.59944234540882957 0.3115891413135391 0.68758981780459771 0.68521708032990558 0.24769234054476261 0.52242103280823293 0.45098450226372488 0.22516916914780419 0.77057994845201627 0.48187244075707292 0 0.66416205381430016 0.59944234540882957 0 0.50000000000237477 0.51961524226909872 0.24769234054476261 0.52242103280823293 0.45098450226372488 0.2184393375098648 0.50004596894495223 0.77634962490704662 0 0.68801781652248195 0.45664527743358641 0 0.83630110503664845 0.50803330197135654 0 0.66416205381430016 0.59944234540882957 0.22516916914780419 0.77057994845201627 0.48187244075707292 0 0.66416205381430016 0.59944234540882957 0 0.50000000000237477 0.51961524226909872 0 0.68801781652248195 0.45664527743358641 0.24769234054476261 0.52242103280823293 0.45098450226372488 0 0.60922248848335758 0.72722573386012812 0 0.46954769941369501 0.67320508075638175 0 0.66416205381430016 0.59944234540882957 0.2184393375098648 0.50004596894495223 0.77634962490704662 0 0.5118616330515301 0.84191918937737908 0 0.69992182039579531 0.85173693729137989 0.15896804272141651 0.69449451837104537 1 0.2184393375098648 0.50004596894495223 0.77634962490704662 0 0.60922248848335758 0.72722573386012812 0.2184393375098648 0.50004596894495223 0.77634962490704662 0.3115891413135391 0.68758981780459771 0.68521708032990558 0.18453958615733529 0.77655623474864555 0.81613222483915937 0.15896804272141651 0.69449451837104537 1 0.2184393375098648 0.50004596894495223 0.77634962490704662 0 0.69992182039579531 0.85173693729137989 0.18453958615733529 0.77655623474864555 0.81613222483915937 0 0.5118616330515301 0.84191918937737908 0 0.46954769941369501 0.67320508075638175 0 0.60922248848335758 0.72722573386012812 0.2184393375098648 0.50004596894495223 0.77634962490704662 0 0.5118616330515301 0.84191918937737908 0 0.60922248848335758 0.72722573386012812 0 0.69992182039579531 0.85173693729137989 0.2184393375098648 0.50004596894495223 0.77634962490704662 0.15896804272141651 0.69449451837104537 1 0.32446581821293602 0.60020898676440626 1 0.2184393375098648 0.50004596894495223 0.77634962490704662 0.18453958615733529 0.77655623474864555 0.81613222483915937 0 0.60922248848335758 0.72722573386012812 0 0.69992182039579531 0.85173693729137989 0.2184393375098648 0.50004596894495223 0.77634962490704662 0.18453958615733529 0.77655623474864555 0.81613222483915937 0 0.80860557108920617 0.70542349973054763 0 0.69992182039579531 0.85173693729137989 0 0.60922248848335758 0.72722573386012812 0.18453958615733529 0.77655623474864555 0.81613222483915937 0.15896804272141651 0.69449451837104537 1 0.32446581821293602 0.60020898676440626 1 0.17226134197275911 0.49836539647894412 1 0.2184393375098648 0.50004596894495223 0.77634962490704662 0.15896804272141651 0.69449451837104537 1 0.17226134197275911 0.49836539647894412 1 0 0.5118616330515301 0.84191918937737908 0.2184393375098648 0.50004596894495223 0.77634962490704662 0.32446581821293602 0.60020898676440626 1 0.15896804272141651 0.69449451837104537 1 0.31067093462947892 0.81480288849497895 1 0.18453958615733529 0.77655623474864555 0.81613222483915937 0.18453958615733529 0.77655623474864555 0.81613222483915937 0.15896804272141651 0.69449451837104537 1 0 0.79999999999999982 1 0 0.69992182039579531 0.85173693729137989 0 0.69992182039579531 0.85173693729137989 0 0.5118616330515301 0.84191918937737908 0.15896804272141651 0.69449451837104537 1 0 0.60000000000138687 1 0.15896804272141651 0.69449451837104537 1 0 0.79999999999999982 1 0 0.69992182039579531 0.85173693729137989 0 0.60000000000138687 1 0 0.60000000000138687 1 0 0.5118616330515301 0.84191918937737908 0.15896804272141651 0.69449451837104537 1 0.17226134197275911 0.49836539647894412 1 0 0.5118616330515301 0.84191918937737908 0 0.60000000000138687 1 0 0.40000000000166441 1 0.17226134197275911 0.49836539647894412 1 0.17226134197275911 0.49836539647894412 1 0 0.40000000000166441 1 0 0.5118616330515301 0.84191918937737908 0 0.31807971531776508 0.80839867011913336 0 0.40000000000166441 1 0.17226134197275911 0.49836539647894412 1 0.16929708765653109 0.30074819035870082 1 0 0.31807971531776508 0.80839867011913336 0 0.14641016151490169 0.85358983848532144 0 0.31807971531776508 0.80839867011913336 0.16929708765653109 0.30074819035870082 1 0.31426750628021272 0.31270343261798911 0.68761148188185484 0.16929708765653109 0.30074819035870082 1 0.31426750628021272 0.31270343261798911 0.68761148188185484 0 0.31807971531776508 0.80839867011913336 0.2184393375098648 0.50004596894495223 0.77634962490704662 0 0.5118616330515301 0.84191918937737908 0 0.31807971531776508 0.80839867011913336 0 0.46954769941369501 0.67320508075638175 0.2184393375098648 0.50004596894495223 0.77634962490704662 0 0.5118616330515301 0.84191918937737908 0.17226134197275911 0.49836539647894412 1 0 0.31807971531776508 0.80839867011913336 0.2184393375098648 0.50004596894495223 0.77634962490704662 0 0.31807971531776508 0.80839867011913336 0.16929708765653109 0.30074819035870082 1 0 0.40000000000166441 1 0 0.20000000000083221 1 0.17226134197275911 0.49836539647894412 1 0.32925244736146098 0.39615100178034629 1 0.16929708765653109 0.30074819035870082 1 0.2184393375098648 0.50004596894495223 0.77634962490704662 0.17226134197275911 0.49836539647894412 1 0.16929708765653109 0.30074819035870082 1 0 0.31807971531776508 0.80839867011913336 0.2184393375098648 0.50004596894495223 0.77634962490704662 0.31610726166461628 0.1880448979455934 1 0.16929708765653109 0.30074819035870082 1 0.32925244736146098 0.39615100178034629 1 0.31426750628021272 0.31270343261798911 0.68761148188185484 0.32446581821293602 0.60020898676440626 1 0.32925244736146098 0.39615100178034629 1 0.17226134197275911 0.49836539647894412 1 0.2184393375098648 0.50004596894495223 0.77634962490704662 0.45812322962173568 0.31024977578554058 1 0.31426750628021272 0.31270343261798911 0.68761148188185484 0.49816183246753282 0.5307146639261795 0.75045686993209071 0.50084626324420545 0.22238844715913 0.78084811589659187 0.32925244736146098 0.39615100178034629 1 0.49816183246753282 0.5307146639261795 0.75045686993209071 0.31426750628021272 0.31270343261798911 0.68761148188185484 0.2184393375098648 0.50004596894495223 0.77634962490704662 0.31610726166461628 0.1880448979455934 1 0.32925244736146098 0.39615100178034629 1 0.45812322962173568 0.31024977578554058 1 0.31426750628021272 0.31270343261798911 0.68761148188185484 0.45812322962173568 0.31024977578554058 1 0.31610726166461628 0.1880448979455934 1 0.31426750628021272 0.31270343261798911 0.68761148188185484 0.50084626324420545 0.22238844715913 0.78084811589659187 0.32925244736146098 0.39615100178034629 1 0.45812322962173568 0.31024977578554058 1 0.31426750628021272 0.31270343261798911 0.68761148188185484 0.49816183246753282 0.5307146639261795 0.75045686993209071 0.32925244736146098 0.39615100178034629 1 0.31426750628021272 0.31270343261798911 0.68761148188185484 0.16929708765653109 0.30074819035870082 1 0.2184393375098648 0.50004596894495223 0.77634962490704662 0.32925244736146098 0.39615100178034629 1 0.51961524226934941 0.50000000000250611 1 0.45812322962173568 0.31024977578554058 1 0.49816183246753282 0.5307146639261795 0.75045686993209071 0.31426750628021272 0.31270343261798911 0.68761148188185484 0.49816183246753282 0.5307146639261795 0.75045686993209071 0.50000000000001332 0.49999999999999561 0.49999999999999561 0.2184393375098648 0.50004596894495223 0.77634962490704662 0.24769234054476261 0.52242103280823293 0.45098450226372488 0.50073570207385831 0.24848280280289631 0.52886631355986169 0.31426750628021272 0.31270343261798911 0.68761148188185484 0.22088738526309029 0.22111069116742441 0.50004796911802929 0.31426750628021272 0.31270343261798911 0.68761148188185484 0.50073570207385831 0.24848280280289631 0.52886631355986169 0.49816183246753282 0.5307146639261795 0.75045686993209071 0.50084626324420545 0.22238844715913 0.78084811589659187 0.50000000000001332 0.49999999999999561 0.49999999999999561 0.31426750628021272 0.31270343261798911 0.68761148188185484 0.24769234054476261 0.52242103280823293 0.45098450226372488 0.50073570207385831 0.24848280280289631 0.52886631355986169 0.50000000000001332 0.49999999999999561 0.49999999999999561 0.49816183246753282 0.5307146639261795 0.75045686993209071 0.31426750628021272 0.31270343261798911 0.68761148188185484 0.50073570207385831 0.24848280280289631 0.52886631355986169 0.50000000000001332 0.49999999999999561 0.49999999999999561 0.24769234054476261 0.52242103280823293 0.45098450226372488 0.31426750628021272 0.31270343261798911 0.68761148188185484 0.2184393375098648 0.50004596894495223 0.77634962490704662 0.2184393375098648 0.50004596894495223 0.77634962490704662 0.31426750628021272 0.31270343261798911 0.68761148188185484 0 0.50000000000237477 0.51961524226909872 0.24769234054476261 0.52242103280823293 0.45098450226372488 0 0.31024977578556651 0.45812322962166352 0.24769234054476261 0.52242103280823293 0.45098450226372488 0 0.32043363027398297 0.61046998817722586 0.22088738526309029 0.22111069116742441 0.50004796911802929 0 0.32043363027398297 0.61046998817722586 0 0.50000000000237477 0.51961524226909872 0.31426750628021272 0.31270343261798911 0.68761148188185484 0.24769234054476261 0.52242103280823293 0.45098450226372488 0.2184393375098648 0.50004596894495223 0.77634962490704662 0 0.32043363027398297 0.61046998817722586 0 0.50000000000237477 0.51961524226909872 0.31426750628021272 0.31270343261798911 0.68761148188185484 0 0.32043363027398297 0.61046998817722586 0.24769234054476261 0.52242103280823293 0.45098450226372488 0.31426750628021272 0.31270343261798911 0.68761148188185484 0.22088738526309029 0.22111069116742441 0.50004796911802929 0.2184393375098648 0.50004596894495223 0.77634962490704662 0 0.50000000000237477 0.51961524226909872 0 0.32043363027398297 0.61046998817722586 0 0.46954769941369501 0.67320508075638175 0 0.16196943494415611 0.69380980080116506 0 0.32043363027398297 0.61046998817722586 0.31426750628021272 0.31270343261798911 0.68761148188185484 0.22088738526309029 0.22111069116742441 0.50004796911802929 0 0.32043363027398297 0.61046998817722586 0 0.31807971531776508 0.80839867011913336 0.31426750628021272 0.31270343261798911 0.68761148188185484 0.2184393375098648 0.50004596894495223 0.77634962490704662 0 0.16196943494415611 0.69380980080116506 0 0.32043363027398297 0.61046998817722586 0 0.31807971531776508 0.80839867011913336 0.31426750628021272 0.31270343261798911 0.68761148188185484 0 0.31024977578556651 0.45812322962166352 0 0.50000000000237477 0.51961524226909872 0 0.32043363027398297 0.61046998817722586 0.24769234054476261 0.52242103280823293 0.45098450226372488 0 0.32043363027398297 0.61046998817722586 0 0.46954769941369501 0.67320508075638175 0 0.31807971531776508 0.80839867011913336 0.2184393375098648 0.50004596894495223 0.77634962490704662 0 0.32043363027398297 0.61046998817722586 0 0.16275515618034081 0.50966790549591257 0 0.31024977578556651 0.45812322962166352 0.22088738526309029 0.22111069116742441 0.50004796911802929 0 0.16196943494415611 0.69380980080116506 0.14641016151479661 0 0.85358983848542624 0.18818969570926641 0 0.68364148842842287 0.31426750628021272 0.31270343261798911 0.68761148188185484 0 0.16196943494415611 0.69380980080116506 0.31426750628021272 0.31270343261798911 0.68761148188185484 0.18818969570926641 0 0.68364148842842287 0.22088738526309029 0.22111069116742441 0.50004796911802929 0 0.16196943494415611 0.69380980080116506 0.18818969570926641 0 0.68364148842842287 0 0.16275515618034081 0.50966790549591257 0.22088738526309029 0.22111069116742441 0.50004796911802929 0 0.16196943494415611 0.69380980080116506 0 0.16275515618034081 0.50966790549591257 0 0.32043363027398297 0.61046998817722586 0.22088738526309029 0.22111069116742441 0.50004796911802929 0 0 0.79999999999999982 0 0 0.60000000000138687 0 0.16196943494415611 0.69380980080116506 0.18818969570926641 0 0.68364148842842287 0 0 0.60000000000138687 0 0.16196943494415611 0.69380980080116506 0.18818969570926641 0 0.68364148842842287 0 0.16275515618034081 0.50966790549591257 0.18818969570926641 0 0.68364148842842287 0.16370661204827031 0 0.4886650857430957 0 0 0.60000000000138687 0 0.16275515618034081 0.50966790549591257 0.18818969570926641 0 0.68364148842842287 0.31030302876556398 0 0.54179813558513157 0.16370661204827031 0 0.4886650857430957 0.22088738526309029 0.22111069116742441 0.50004796911802929 0 0.16275515618034081 0.50966790549591257 0.18818969570926641 0 0.68364148842842287 0.16370661204827031 0 0.4886650857430957 0.22088738526309029 0.22111069116742441 0.50004796911802929 0.30074819035913852 0 0.83070291234383831 0.39615987727709562 0 0.67073444684008199 0.18818969570926641 0 0.68364148842842287 0.31426750628021272 0.31270343261798911 0.68761148188185484 0.31030302876556398 0 0.54179813558513157 0.31426750628021272 0.31270343261798911 0.68761148188185484 0.50073570207385831 0.24848280280289631 0.52886631355986169 0.22088738526309029 0.22111069116742441 0.50004796911802929 0.39615987727709562 0 0.67073444684008199 0.31030302876556398 0 0.54179813558513157 0.31426750628021272 0.31270343261798911 0.68761148188185484 0.50073570207385831 0.24848280280289631 0.52886631355986169 0.39615987727709562 0 0.67073444684008199 0.31426750628021272 0.31270343261798911 0.68761148188185484 0.30074819035913852 0 0.83070291234383831 0.50084626324420545 0.22238844715913 0.78084811589659187 0.18818969570926641 0 0.68364148842842287 0.31426750628021272 0.31270343261798911 0.68761148188185484 0.31030302876556398 0 0.54179813558513157 0.22088738526309029 0.22111069116742441 0.50004796911802929 0.6002015905170176 0 0.67551889168744117 0.50073570207385831 0.24848280280289631 0.52886631355986169 0.39615987727709562 0 0.67073444684008199 0.50084626324420545 0.22238844715913 0.78084811589659187 0.31030302876556398 0 0.54179813558513157 0.18818969570926641 0 0.68364148842842287 0.39615987727709562 0 0.67073444684008199 0.31426750628021272 0.31270343261798911 0.68761148188185484 0.39615987727709562 0 0.67073444684008199 0.50073570207385831 0.24848280280289631 0.52886631355986169 0.31426750628021272 0.31270343261798911 0.68761148188185484 0.50084626324420545 0.22238844715913 0.78084811589659187 0.39615987727709562 0 0.67073444684008199 0.6002015905170176 0 0.67551889168744117 0.50000000000250922 0 0.48038475773043671 0.50073570207385831 0.24848280280289631 0.52886631355986169 0.39615987727709562 0 0.67073444684008199 0.50000000000250922 0 0.48038475773043671 0.31030302876556398 0 0.54179813558513157 0.50073570207385831 0.24848280280289631 0.52886631355986169 0.49836539647917322 0 0.82773865802723501 0.6002015905170176 0 0.67551889168744117 0.39615987727709562 0 0.67073444684008199 0.50084626324420545 0.22238844715913 0.78084811589659187 0.30074819035913852 0 0.83070291234383831 0.14641016151432179 0.14641016151432179 1 0.31610726166461628 0.1880448979455934 1 0.31426750628021272 0.31270343261798911 0.68761148188185484 0.30074819035913852 0 0.83070291234383831 0.31426750628021272 0.31270343261798911 0.68761148188185484 0.31610726166461628 0.1880448979455934 1 0.50084626324420545 0.22238844715913 0.78084811589659187 0.30074819035913852 0 0.83070291234383831 0.31610726166461628 0.1880448979455934 1 0.49836539647917322 0 0.82773865802723501 0.50084626324420545 0.22238844715913 0.78084811589659187 0.39615987727709562 0 0.67073444684008199 0.30074819035913852 0 0.83070291234383831 0.49836539647917322 0 0.82773865802723501 0.50084626324420545 0.22238844715913 0.78084811589659187 0.31610726166461628 0.1880448979455934 1 0.40000000000166441 0 1 0.49836539647917322 0 0.82773865802723501 0.50966790549576724 0.1627551561802443 1 0.40000000000166441 0 1 0.49836539647917322 0 0.82773865802723501 0.30074819035913852 0 0.83070291234383831 0.31610726166461628 0.1880448979455934 1 0.31610726166461628 0.1880448979455934 1 0.50966790549576724 0.1627551561802443 1 0.49836539647917322 0 0.82773865802723501 0.50084626324420545 0.22238844715913 0.78084811589659187 0.45812322962173568 0.31024977578554058 1 0.50966790549576724 0.1627551561802443 1 0.31610726166461628 0.1880448979455934 1 0.50084626324420545 0.22238844715913 0.78084811589659187 0.40000000000166441 0 1 0.30074819035913852 0 0.83070291234383831 0.20000000000083221 0 1 0.31610726166461628 0.1880448979455934 1 0 0.14641016151490169 0.85358983848532144 0 0.16196943494415611 0.69380980080116506 0 0.31807971531776508 0.80839867011913336 0.31426750628021272 0.31270343261798911 0.68761148188185484 0.16929708765653109 0.30074819035870082 1 0.31610726166461628 0.1880448979455934 1 0.14641016151432179 0.14641016151432179 1 0.31426750628021272 0.31270343261798911 0.68761148188185484 0.14641016151432179 0.14641016151432179 1 0.20000000000083221 0 1 0.14641016151479661 0 0.85358983848542624 0.30074819035913852 0 0.83070291234383831 0.14641016151432179 0.14641016151432179 1 0.30074819035913852 0 0.83070291234383831 0.14641016151479661 0 0.85358983848542624 0.31426750628021272 0.31270343261798911 0.68761148188185484 0.14641016151432179 0.14641016151432179 1 0.20000000000083221 0 1 0.30074819035913852 0 0.83070291234383831 0.31610726166461628 0.1880448979455934 1 0.18818969570926641 0 0.68364148842842287 0.14641016151479661 0 0.85358983848542624 0.30074819035913852 0 0.83070291234383831 0.31426750628021272 0.31270343261798911 0.68761148188185484 0 0.14641016151490169 0.85358983848532144 0.16929708765653109 0.30074819035870082 1 0.14641016151432179 0.14641016151432179 1 0.31426750628021272 0.31270343261798911 0.68761148188185484 0.14641016151432179 0.14641016151432179 1 0.14641016151479661 0 0.85358983848542624 0 0.14641016151490169 0.85358983848532144 0.31426750628021272 0.31270343261798911 0.68761148188185484 0 0.16196943494415611 0.69380980080116506 0 0.14641016151490169 0.85358983848532144 0.14641016151479661 0 0.85358983848542624 0.31426750628021272 0.31270343261798911 0.68761148188185484 0 0.20000000000083221 1 0 0.31807971531776508 0.80839867011913336 0.16929708765653109 0.30074819035870082 1 0 0.14641016151490169 0.85358983848532144 0.14641016151432179 0.14641016151432179 1 0 0.20000000000083221 1 0.16929708765653109 0.30074819035870082 1 0 0.14641016151490169 0.85358983848532144 0 0.16196943494415611 0.69380980080116506 0.14641016151479661 0 0.85358983848542624 0 0 0.79999999999999982 0.18818969570926641 0 0.68364148842842287 0 0.14641016151490169 0.85358983848532144 0.14641016151479661 0 0.85358983848542624 0 0 0.79999999999999982 0 0.16196943494415611 0.69380980080116506 0 0 1 0 0.20000000000083221 1 0.14641016151432179 0.14641016151432179 1 0 0.14641016151490169 0.85358983848532144 0.14641016151479661 0 0.85358983848542624 0 0 0.79999999999999982 0 0 1 0 0.14641016151490169 0.85358983848532144 0 0 1 0.14641016151432179 0.14641016151432179 1 0.20000000000083221 0 1 0.14641016151479661 0 0.85358983848542624 0.14641016151479661 0 0.85358983848542624 0 0 1 0.14641016151432179 0.14641016151432179 1 0 0.14641016151490169 0.85358983848532144 
</DataArray>
</Points>
<Cells>
<DataArray type="UInt32" Name="connectivity" format="ascii">
0 1 2 3 4 5 6 7 8 9 10 11 12 13 14 15 16 17 18 19 20 21 22 23 24 25 26 27 28 29 30 31 32 33 34 35 36 37 38 39 40 41 42 43 44 45 46 47 48 49 50 51 52 53 54 55 56 57 58 59 60 61 62 63 64 65 66 67 68 69 70 71 72 73 74 75 76 77 78 79 80 81 82 83 84 85 86 87 88 89 90 91 92 93 94 95 96 97 98 99 100 101 102 103 104 105 106 107 108 109 110 111 112 113 114 115 116 117 118 119 120 121 122 123 124 125 126 127 128 129 130 131 132 133 134 135 136 137 138 139 140 141 142 143 144 145 146 147 148 149 150 151 152 153 154 155 156 157 158 159 160 161 162 163 164 165 166 167 168 169 170 171 172 173 174 175 176 177 178 179 180 181 182 183 184 185 186 187 188 189 190 191 192 193 194 195 196 197 198 199 200 201 202 203 204 205 206 207 208 209 210 211 212 213 214 215 216 217 218 219 220 221 222 223 224 225 226 227 228 229 230 231 232 233 234 235 236 237 238 239 240 241 242 243 244 245 246 247 248 249 250 251 252 253 254 255 256 257 258 259 260 261 262 263 264 265 266 267 268 269 270 271 272 273 274 275 276 277 278 279 280 281 282 283 284 285 286 287 288 289 290 291 292 293 294 295 296 297 298 299 300 301 302 303 304 305 306 307 308 309 310 311 312 313 314 315 316 317 318 319 320 321 322 323 324 325 326 327 328 329 330 331 332 333 334 335 336 337 338 339 340 341 342 343 344 345 346 347 348 349 350 351 352 353 354 355 356 357 358 359 360 361 362 363 364 365 366 367 368 369 370 371 372 373 374 375 376 377 378 379 380 381 382 383 384 385 386 387 388 389 390 391 392 393 394 395 396 397 398 399 400 401 402 403 404 405 406 407 408 409 410 411 412 413 414 415 416 417 418 419 420 421 422 423 424 425 426 427 428 429 430 431 432 433 434 435 436 437 438 439 440 441 442 443 444 445 446 447 448 449 450 451 452 453 454 455 456 457 458 459 460 461 462 463 464 465 466 467 468 469 470 471 472 473 474 475 476 477 478 479 480 481 482 483 484 485 486 487 488 489 490 491 492 493 494 495 496 497 498 499 500 501 502 503 504 505 506 507 508 509 510 511 512 513 514 515 516 517 518 519 520 521 522 523 524 525 526 527 528 529 530 531 532 533 534 535 536 537 538 539 540 541 542 543 544 545 546 547 548 549 550 551 552 553 554 555 556 557 558 559 560 561 562 563 564 565 566 567 568 569 570 571 572 573 574 575 576 577 578 579 580 581 582 583 584 585 586 587 588 589 590 591 592 593 594 595 596 597 598 599 600 601 602 603 604 605 606 607 608 609 610 611 612 613 614 615 616 617 618 619 620 621 622 623 624 625 626 627 628 629 630 631 632 633 634 635 636 637 638 639 640 641 642 643 644 645 646 647 648 649 650 651 652 653 654 655 656 657 658 659 660 661 662 663 664 665 666 667 668 669 670 671 672 673 674 675 676 677 678 679 680 681 682 683 684 685 686 687 688 689 690 691 692 693 694 695 696 697 698 699 700 701 702 703 704 705 706 707 708 709 710 711 712 713 714 715 716 717 718 719 720 721 722 723 724 725 726 727 728 729 730 731 732 733 734 735 736 737 738 739 740 741 742 743 744 745 746 747 748 749 750 751 752 753 754 755 756 757 758 759 760 761 762 763 764 765 766 767 768 769 770 771 772 773 774 775 776 777 778 779 780 781 782 783 784 785 786 787 788 789 790 791 792 793 794 795 796 797 798 799 800 801 802 803 804 805 806 807 808 809 810 811 812 813 814 815 816 817 818 819 820 821 822 823 824 825 826 827 828 829 830 831 832 833 834 835 836 837 838 839 840 841 842 843 844 845 846 847 848 849 850 851 852 853 854 855 856 857 858 859 860 861 862 863 864 865 866 867 868 869 870 871 872 873 874 875 876 877 878 879 880 881 882 883 884 885 886 887 888 889 890 891 892 893 894 895 896 897 898 899 900 901 902 903 904 905 906 907 908 909 910 911 912 913 914 915 916 917 918 919 920 921 922 923 924 925 926 927 928 929 930 931 932 933 934 935 936 937 938 939 940 941 942 943 944 945 946 947 948 949 950 951 952 953 954 955 956 957 958 959 960 961 962 963 964 965 966 967 968 969 970 971 972 973 974 975 976 977 978 979 980 981 982 983 984 985 986 987 988 989 990 991 992 993 994 995 996 997 998 999 1000 1001 1002 1003 1004 1005 1006 1007 1008 1009 1010 1011 1012 1013 1014 1015 1016 1017 1018 1019 1020 1021 1022 1023 1024 1025 1026 1027 1028 1029 1030 1031 1032 1033 1034 1035 1036 1037 1038 1039 1040 1041 1042 1043 1044 1045 1046 1047 1048 1049 1050 1051 1052 1053 1054 1055 1056 1057 1058 1059 1060 1061 1062 1063 1064 1065 1066 1067 1068 1069 1070 1071 1072 1073 1074 1075 1076 1077 1078 1079 1080 1081 1082 1083 1084 1085 1086 1087 1088 1089 1090 1091 1092 1093 1094 1095 1096 1097 1098 1099 1100 1101 1102 1103 1104 1105 1106 1107 1108 1109 1110 1111 1112 1113 1114 1115 1116 1117 1118 1119 1120 1121 1122 1123 1124 1125 1126 1127 1128 1129 1130 1131 1132 1133 1134 1135 1136 1137 1138 1139 1140 1141 1142 1143 1144 1145 1146 1147 1148 1149 1150 1151 1152 1153 1154 1155 1156 1157 1158 1159 1160 1161 1162 1163 1164 1165 1166 1167 1168 1169 1170 1171 1172 1173 1174 1175 1176 1177 1178 1179 1180 1181 1182 1183 1184 1185 1186 1187 1188 1189 1190 1191 1192 1193 1194 1195 1196 1197 1198 1199 1200 1201 1202 1203 1204 1205 1206 1207 1208 1209 1210 1211 1212 1213 1214 1215 1216 1217 1218 1219 1220 1221 1222 1223 1224 1225 1226 1227 1228 1229 1230 1231 1232 1233 1234 1235 1236 1237 1238 1239 1240 1241 1242 1243 1244 1245 1246 1247 1248 1249 1250 1251 1252 1253 1254 1255 1256 1257 1258 1259 1260 1261 1262 1263 1264 1265 1266 1267 1268 1269 1270 1271 1272 1273 1274 1275 1276 1277 1278 1279 1280 1281 1282 1283 1284 1285 1286 1287 1288 1289 1290 1291 1292 1293 1294 1295 1296 1297 1298 1299 1300 1301 1302 1303 1304 1305 1306 1307 1308 1309 1310 1311 1312 1313 1314 1315 1316 1317 1318 1319 1320 1321 1322 1323 1324 1325 1326 1327 1328 1329 1330 1331 1332 1333 1334 1335 1336 1337 1338 1339 1340 1341 1342 1343 1344 1345 1346 1347 1348 1349 1350 1351 1352 1353 1354 1355 1356 1357 1358 1359 1360 1361 1362 1363 1364 1365 1366 1367 1368 1369 1370 1371 1372 1373 1374 1375 1376 1377 1378 1379 1380 1381 1382 1383 1384 1385 1386 1387 1388 1389 1390 1391 1392 1393 1394 1395 1396 1397 1398 1399 1400 1401 1402 1403 1404 1405 1406 1407 1408 1409 1410 1411 1412 1413 1414 1415 1416 1417 1418 1419 1420 1421 1422 1423 1424 1425 1426 1427 1428 1429 1430 1431 1432 1433 1434 1435 1436 1437 1438 1439 1440 1441 1442 1443 1444 1445 1446 1447 1448 1449 1450 1451 1452 1453 1454 1455 1456 1457 1458 1459 1460 1461 1462 1463 1464 1465 1466 1467 1468 1469 1470 1471 1472 1473 1474 1475 1476 1477 1478 1479 1480 1481 1482 1483 1484 1485 1486 1487 1488 1489 1490 1491 1492 1493 1494 1495 1496 1497 1498 1499 1500 1501 1502 1503 1504 1505 1506 1507 1508 1509 1510 1511 1512 1513 1514 1515 1516 1517 1518 1519 1520 1521 1522 1523 1524 1525 1526 1527 1528 1529 1530 1531 1532 1533 1534 1535 1536 1537 1538 1539 1540 1541 1542 1543 1544 1545 1546 1547 1548 1549 1550 1551 1552 1553 1554 1555 1556 1557 1558 1559 1560 1561 1562 1563 1564 1565 1566 1567 1568 1569 1570 1571 1572 1573 1574 1575 1576 1577 1578 1579 1580 1581 1582 1583 1584 1585 1586 1587 1588 1589 1590 1591 1592 1593 1594 1595 1596 1597 1598 1599 1600 1601 1602 1603 1604 1605 1606 1607 1608 1609 1610 1611 1612 1613 1614 1615 1616 1617 1618 1619 1620 1621 1622 1623 1624 1625 1626 1627 1628 1629 1630 1631 1632 1633 1634 1635 1636 1637 1638 1639 1640 1641 1642 1643 1644 1645 1646 1647 1648 1649 1650 1651 1652 1653 1654 1655 1656 1657 1658 1659 1660 1661 1662 1663 1664 1665 1666 1667 1668 1669 1670 1671 1672 1673 1674 1675 1676 1677 1678 1679 1680 1681 1682 1683 1684 1685 1686 1687 1688 1689 1690 1691 1692 1693 1694 1695 1696 1697 1698 1699 1700 1701 1702 1703 1704 1705 1706 1707 1708 1709 1710 1711 1712 1713 1714 1715 1716 1717 1718 1719 1720 1721 1722 1723 1724 1725 1726 1727 1728 1729 1730 1731 1732 1733 1734 1735 1736 1737 1738 1739 1740 1741 1742 1743 1744 1745 1746 1747 1748 1749 1750 1751 1752 1753 1754 1755 1756 1757 1758 1759 1760 1761 1762 1763 1764 1765 1766 1767 1768 1769 1770 1771 1772 1773 1774 1775 1776 1777 1778 1779 1780 1781 1782 1783 1784 1785 1786 1787 1788 1789 1790 1791 1792 1793 1794 1795 1796 1797 1798 1799 1800 1801 1802 1803 1804 1805 1806 1807 1808 1809 1810 1811 1812 1813 1814 1815 1816 1817 1818 1819 1820 1821 1822 1823 1824 1825 1826 1827 1828 1829 1830 1831 1832 1833 1834 1835 1836 1837 1838 1839 1840 1841 1842 1843 1844 1845 1846 1847 1848 1849 1850 1851 1852 1853 1854 1855 1856 1857 1858 1859 1860 1861 1862 1863 1864 1865 1866 1867 1868 1869 1870 1871 1872 1873 1874 1875 1876 1877 1878 1879 1880 1881 1882 1883 1884 1885 1886 1887 1888 1889 1890 1891 1892 1893 1894 1895 1896 1897 1898 1899 1900 1901 1902 1903 1904 1905 1906 1907 1908 1909 1910 1911 1912 1913 1914 1915 1916 1917 1918 1919 1920 1921 1922 1923 1924 1925 1926 1927 1928 1929 1930 1931 1932 1933 1934 1935 1936 1937 1938 1939 1940 1941 1942 1943 1944 1945 1946 1947 1948 1949 1950 1951 1952 1953 1954 1955 1956 1957 1958 1959 1960 1961 1962 1963 1964 1965 1966 1967 1968 1969 1970 1971 1972 1973 1974 1975 1976 1977 1978 1979 1980 1981 1982 1983 1984 1985 1986 1987 1988 1989 1990 1991 1992 1993 1994 1995 1996 1997 1998 1999 2000 2001 2002 2003 2004 2005 2006 2007 2008 2009 2010 2011 2012 2013 2014 2015 2016 2017 2018 2019 2020 2021 2022 2023 2024 2025 2026 2027 2028 2029 2030 2031 2032 2033 2034 2035 2036 2037 2038 2039 2040 2041 2042 2043 2044 2045 2046 2047 2048 2049 2050 2051 2052 2053 2054 2055 2056 2057 2058 2059 2060 2061 2062 2063 2064 2065 2066 2067 2068 2069 2070 2071 2072 2073 2074 2075 2076 2077 2078 2079 2080 2081 2082 2083 2084 2085 2086 2087 2088 2089 2090 2091 2092 2093 2094 2095 2096 2097 2098 2099 2100 2101 2102 2103 2104 2105 2106 2107 2108 2109 2110 2111 2112 2113 2114 2115 2116 2117 2118 2119 2120 2121 2122 2123 2124 2125 2126 2127 2128 2129 2130 2131 2132 2133 2134 2135 2136 2137 2138 2139 2140 2141 2142 2143 2144 2145 2146 2147 2148 2149 2150 2151 2152 2153 2154 2155 2156 2157 2158 2159 2160 2161 2162 2163 2164 2165 2166 2167 2168 2169 2170 2171 2172 2173 2174 2175 2176 2177 2178 2179 2180 2181 2182 2183 2184 2185 2186 2187 2188 2189 2190 2191 2192 2193 2194 2195 2196 2197 2198 2199 2200 2201 2202 2203 2204 2205 2206 2207 2208 2209 2210 2211 2212 2213 2214 2215 2216 2217 2218 2219 2220 2221 2222 2223 2224 2225 2226 2227 2228 2229 2230 2231 2232 2233 2234 2235 2236 2237 2238 2239 2240 2241 2242 2243 2244 2245 2246 2247 2248 2249 2250 2251 2252 2253 2254 2255 2256 2257 2258 2259 2260 2261 2262 2263 2264 2265 2266 2267 2268 2269 2270 2271 2272 2273 2274 2275 2276 2277 2278 2279 2280 2281 2282 2283 2284 2285 2286 2287 2288 2289 2290 2291 2292 2293 2294 2295 2296 2297 2298 2299 2300 2301 2302 2303 2304 2305 2306 2307 2308 2309 2310 2311 2312 2313 2314 2315 2316 2317 2318 2319 2320 2321 2322 2323 2324 2325 2326 2327 2328 2329 2330 2331 2332 2333 2334 2335 2336 2337 2338 2339 2340 2341 2342 2343 2344 2345 2346 2347 2348 2349 2350 2351 2352 2353 2354 2355 2356 2357 2358 2359 2360 2361 2362 2363 2364 2365 2366 2367 2368 2369 2370 2371 2372 2373 2374 2375 2376 2377 2378 2379 2380 2381 2382 2383 2384 2385 2386 2387 2388 2389 2390 2391 2392 2393 2394 2395 2396 2397 2398 2399 2400 2401 2402 2403 2404 2405 2406 2407 2408 2409 2410 2411 2412 2413 2414 2415 2416 2417 2418 2419 2420 2421 2422 2423 2424 2425 2426 2427 2428 2429 2430 2431 2432 2433 2434 2435 2436 2437 2438 2439 2440 2441 2442 2443 2444 2445 2446 2447 2448 2449 2450 2451 2452 2453 2454 2455 2456 2457 2458 2459 2460 2461 2462 2463 2464 2465 2466 2467 2468 2469 2470 2471 2472 2473 2474 2475 2476 2477 2478 2479 2480 2481 2482 2483 2484 2485 2486 2487 2488 2489 2490 2491 2492 2493 2494 2495 2496 2497 2498 2499 2500 2501 2502 2503 2504 2505 2506 2507 2508 2509 2510 2511 2512 2513 2514 2515 2516 2517 2518 2519 2520 2521 2522 2523 2524 2525 2526 2527 2528 2529 2530 2531 2532 2533 2534 2535 2536 2537 2538 2539 2540 2541 2542 2543 2544 2545 2546 2547 2548 2549 2550 2551 2552 2553 2554 2555 2556 2557 2558 2559 2560 2561 2562 2563 2564 2565 2566 2567 2568 2569 2570 2571 2572 2573 2574 2575 2576 2577 2578 2579 2580 2581 2582 2583 2584 2585 2586 2587 2588 2589 2590 2591 2592 2593 2594 2595 2596 2597 2598 2599 2600 2601 2602 2603 2604 2605 2606 2607 2608 2609 2610 2611 2612 2613 2614 2615 2616 2617 2618 2619 2620 2621 2622 2623 2624 2625 2626 2627 2628 2629 2630 2631 2632 2633 2634 2635 2636 2637 2638 2639 2640 2641 2642 2643 2644 2645 2646 2647 2648 2649 2650 2651 2652 2653 2654 2655 2656 2657 2658 2659 2660 2661 2662 2663 2664 2665 2666 2667 2668 2669 2670 2671 2672 2673 2674 2675 2676 2677 2678 2679 2680 2681 2682 2683 2684 2685 2686 2687 2688 2689 2690 2691 2692 2693 2694 2695 2696 2697 2698 2699 2700 2701 2702 2703 2704 2705 2706 2707 2708 2709 2710 2711 2712 2713 2714 2715 2716 2717 2718 2719 2720 2721 2722 2723 2724 2725 2726 2727 2728 2729 2730 2731 2732 2733 2734 2735 2736 2737 2738 2739 2740 2741 2742 2743 2744 2745 2746 2747 2748 2749 2750 2751 2752 2753 2754 2755 2756 2757 2758 2759 2760 2761 2762 2763 2764 2765 2766 2767 2768 2769 2770 2771 2772 2773 2774 2775 2776 2777 2778 2779 2780 2781 2782 2783 2784 2785 2786 2787 2788 2789 2790 2791 2792 2793 2794 2795 2796 2797 2798 2799 2800 2801 2802 2803 2804 2805 2806 2807 2808 2809 2810 2811 2812 2813 2814 2815 2816 2817 2818 2819 2820 2821 2822 2823 2824 2825 2826 2827 2828 2829 2830 2831 2832 2833 2834 2835 2836 2837 2838 2839 2840 2841 2842 2843 2844 2845 2846 2847 2848 2849 2850 2851 2852 2853 2854 2855 2856 2857 2858 2859 2860 2861 2862 2863 2864 2865 2866 2867 2868 2869 2870 2871 2872 2873 2874 2875 
</DataArray>
<DataArray type="UInt32" Name="offsets" format="ascii">
4 8 12 16 20 24 28 32 36 40 44 48 52 56 60 64 68 72 76 80 84 88 92 96 100 104 108 112 116 120 124 128 132 136 140 144 148 152 156 160 164 168 172 176 180 184 188 192 196 200 204 208 212 216 220 224 228 232 236 240 244 248 252 256 260 264 268 272 276 280 284 288 292 296 300 304 308 312 316 320 324 328 332 336 340 344 348 352 356 360 364 368 372 376 380 384 388 392 396 400 404 408 412 416 420 424 428 432 436 440 444 448 452 456 460 464 468 472 476 480 484 488 492 496 500 504 508 512 516 520 524 528 532 536 540 544 548 552 556 560 564 568 572 576 580 584 588 592 596 600 604 608 612 616 620 624 628 632 636 640 644 648 652 656 660 664 668 672 676 680 684 688 692 696 700 704 708 712 716 720 724 728 732 736 740 744 748 752 756 760 764 768 772 776 780 784 788 792 796 800 804 808 812 816 820 824 828 832 836 840 844 848 852 856 860 864 868 872 876 880 884 888 892 896 900 904 908 912 916 920 924 928 932 936 940 944 948 952 956 960 964 968 972 976 980 984 988 992 996 1000 1004 1008 1012 1016 1020 1024 1028 1032 1036 1040 1044 1048 1052 1056 1060 1064 1068 1072 1076 1080 1084 1088 1092 1096 1100 1104 1108 1112 1116 1120 1124 1128 1132 1136 1140 1144 1148 1152 1156 1160 1164 1168 1172 1176 1180 1184 1188 1192 1196 1200 1204 1208 1212 1216 1220 1224 1228 1232 1236 1240 1244 1248 1252 1256 1260 1264 1268 1272 1276 1280 1284 1288 1292 1296 1300 1304 1308 1312 1316 1320 1324 1328 1332 1336 1340 1344 1348 1352 1356 1360 1364 1368 1372 1376 1380 1384 1388 1392 1396 1400 1404 1408 1412 1416 1420 1424 1428 1432 1436 1440 1444 1448 1452 1456 1460 1464 1468 1472 1476 1480 1484 1488 1492 1496 1500 1504 1508 1512 1516 1520 1524 1528 1532 1536 1540 1544 1548 1552 1556 1560 1564 1568 1572 1576 1580 1584 1588 1592 1596 1600 1604 1608 1612 1616 1620 1624 1628 1632 1636 1640 1644 1648 1652 1656 1660 1664 1668 1672 1676 1680 1684 1688 1692 1696 1700 1704 1708 1712 1716 1720 1724 1728 1732 1736 1740 1744 1748 1752 1756 1760 1764 1768 1772 1776 1780 1784 1788 1792 1796 1800 1804 1808 1812 1816 1820 1824 1828 1832 1836 1840 1844 1848 1852 1856 1860 1864 1868 1872 1876 1880 1884 1888 1892 1896 1900 1904 1908 1912 1916 1920 1924 1928 1932 1936 1940 1944 1948 1952 1956 1960 1964 1968 1972 1976 1980 1984 1988 1992 1996 2000 2004 2008 2012 2016 2020 2024 2028 2032 2036 2040 2044 2048 2052 2056 2060 2064 2068 2072 2076 2080 2084 2088 2092 2096 2100 2104 2108 2112 2116 2120 2124 2128 2132 2136 2140 2144 2148 2152 2156 2160 2164 2168 2172 2176 2180 2184 2188 2192 2196 2200 2204 2208 2212 2216 2220 2224 2228 2232 2236 2240 2244 2248 2252 2256 2260 2264 2268 2272 2276 2280 2284 2288 2292 2296 2300 2304 2308 2312 2316 2320 2324 2328 2332 2336 2340 2344 2348 2352 2356 2360 2364 2368 2372 2376 2380 2384 2388 2392 2396 2400 2404 2408 2412 2416 2420 2424 2428 2432 2436 2440 2444 2448 2452 2456 2460 2464 2468 2472 2476 2480 2484 2488 2492 2496 2500 2504 2508 2512 2516 2520 2524 2528 2532 2536 2540 2544 2548 2552 2556 2560 2564 2568 2572 2576 2580 2584 2588 2592 2596 2600 2604 2608 2612 2616 2620 2624 2628 2632 2636 2640 2644 2648 2652 2656 2660 2664 2668 2672 2676 2680 2684 2688 2692 2696 2700 2704 2708 2712 2716 2720 2724 2728 2732 2736 2740 2744 2748 2752 2756 2760 2764 2768 2772 2776 2780 2784 2788 2792 2796 2800 2804 2808 2812 2816 2820 2824 2828 2832 2836 2840 2844 2848 2852 2856 2860 2864 2868 2872 2876 
</DataArray>
<DataArray type="UInt32" Name="types" format="ascii">
10 10 10 10 10 10 10 10 10 10 10 10 10 10 10 10 10 10 10 10 10 10 10 10 10 10 10 10 10 10 10 10 10 10 10 10 10 10 10 10 10 10 10 10 10 10 10 10 10 10 10 10 10 10 10 10 10 10 10 10 10 10 10 10 10 10 10 10 10 10 10 10 10 10 10 10 10 10 10 10 10 10 10 10 10 10 10 10 10 10 10 10 10 10 10 10 10 10 10 10 10 10 10 10 10 10 10 10 10 10 10 10 10 10 10 10 10 10 10 10 10 10 10 10 10 10 10 10 10 10 10 10 10 10 10 10 10 10 10 10 10 10 10 10 10 10 10 10 10 10 10 10 10 10 10 10 10 10 10 10 10 10 10 10 10 10 10 10 10 10 10 10 10 10 10 10 10 10 10 10 10 10 10 10 10 10 10 10 10 10 10 10 10 10 10 10 10 10 10 10 10 10 10 10 10 10 10 10 10 10 10 10 10 10 10 10 10 10 10 10 10 10 10 10 10 10 10 10 10 10 10 10 10 10 10 10 10 10 10 10 10 10 10 10 10 10 10 10 10 10 10 10 10 10 10 10 10 10 10 10 10 10 10 10 10 10 10 10 10 10 10 10 10 10 10 10 10 10 10 10 10 10 10 10 10 10 10 10 10 10 10 10 10 10 10 10 10 10 10 10 10 10 10 10 10 10 10 10 10 10 10 10 10 10 10 10 10 10 10 10 10 10 10 10 10 10 10 10 10 10 10 10 10 10 10 10 10 10 10 10 10 10 10 10 10 10 10 10 10 10 10 10 10 10 10 10 10 10 10 10 10 10 10 10 10 10 10 10 10 10 10 10 10 10 10 10 10 10 10 10 10 10 10 10 10 10 10 10 10 10 10 10 10 10 10 10 10 10 10 10 10 10 10 10 10 10 10 10 10 10 10 10 10 10 10 10 10 10 10 10 10 10 10 10 10 10 10 10 10 10 10 10 10 10 10 10 10 10 10 10 10 10 10 10 10 10 10 10 10 10 10 10 10 10 10 10 10 10 10 10 10 10 10 10 10 10 10 10 10 10 10 10 10 10 10 10 10 10 10 10 10 10 10 10 10 10 10 10 10 10 10 10 10 10 10 10 10 10 10 10 10 10 10 10 10 10 10 10 10 10 10 10 10 10 10 10 10 10 10 10 10 10 10 10 10 10 10 10 10 10 10 10 10 10 10 10 10 10 10 10 10 10 10 10 10 10 10 10 10 10 10 10 10 10 10 10 10 10 10 10 10 10 10 10 10 10 10 10 10 10 10 10 10 10 10 10 10 10 10 10 10 10 10 10 10 10 10 10 10 10 10 10 10 10 10 10 10 10 10 10 10 10 10 10 10 10 10 10 10 10 10 10 10 10 10 10 10 10 10 10 10 10 10 10 10 10 10 10 10 10 10 10 10 10 10 10 10 10 10 10 10 10 10 10 10 10 10 10 10 10 10 10 10 10 10 10 10 10 10 10 10 10 10 10 10 10 10 10 10 10 10 10 10 10 10 10 10 10 10 10 10 10 10 10 10 10 10 10 10 10 10 10 10 10 10 10 10 10 10 10 10 10 10 10 10 10 10 10 10 10 10 10 10 10 10 10 10 10 10 
</DataArray>
</Cells>
<PointData Scalars="" Vectors="displacement," Tensors="">
<DataArray type="Float64" Name="displacement" NumberOfComponents="3" format="ascii">
0.07655523409736012 -5.3409470661240721e-07 -1.3624178612732926e-05 0.041010484191945085 -7.5913123109259771e-07 -1.3124630919922228e-05 0.035466771129193955 -1.7625860107432504e-06 -1.0487948417038182e-05 0.075719753065884424 -2.2739524163079256e-06 -0.29946994258231258 -4.4023985100627505e-09 -2.9030888473666142e-06 -1.3089371022992876e-05 -4.9043245213883244e-09 -2.8388678783444453e-06 -1.4129969424141803e-05 0.035466771129193955 -1.7625860107432504e-06 -1.0487948417032865e-05 -3.5529656238601892e-09 -2.3297569898787296e-06 -0.14024631926887285 -4.9043245213883244e-09 -2.8388678783444457e-06 -1.4129969424130454e-05 0.048445620578087857 -3.100094229903095e-06 -1.487419601934917e-05 0.035466771129193955 -1.7625860107432504e-06 -1.0487948417032865e-05 0.035468513736090029 -2.0763768560893646e-06 -0.14026042979880801 -3.5529656238601892e-09 -2.3297569898787296e-06 -0.14024631926887285 -5.1528647363427028e-09 -2.7054554556030956e-06 -0.19158601774165743 -4.9043245213883244e-09 -2.8388678783444457e-06 -1.4129969424130454e-05 0.035468513736090029 -2.0763768560893646e-06 -0.14026042979880801 -3.5529656238601892e-09 -2.3297569898787296e-06 -0.14024631926887285 -4.6615834095994966e-09 -4.2220424787379925e-07 -0.16217340008757203 -4.1694430608180564e-09 -2.7353170697785985e-06 -0.30279184161883732 0.075719753065884451 -2.2739524163079248e-06 -0.29946994258231246 0.076480286256856864 -2.7954855522213761e-06 -0.17871657631394786 0.035468513736090022 -2.0763768560893646e-06 -0.14026042979880798 0.041040342604059012 -2.6254105745182134e-06 -0.28749721394320349 0.075719753065884424 -2.2739524163079256e-06 -0.29946994258231258 -3.5529656238601892e-09 -2.3297569898787296e-06 -0.14024631926887285 -4.904324524258718e-09 -2.8388678783444453e-06 -1.4129969424124779e-05 0.035466771129193955 -1.7625860107432504e-06 -1.0487948417032865e-05 0.035468513736090029 -2.0763768560893646e-06 -0.14026042979880801 0.035466771129193955 -1.7625860107432504e-06 -1.0487948417032865e-05 0.035468513736090022 -2.0763768560893646e-06 -0.14026042979880804 0.076480286256856864 -2.7954855522213761e-06 -0.17871657631394786 0.075719753065884424 -2.2739524163079256e-06 -0.29946994258231258 0.035466771129193955 -1.7625860107432504e-06 -1.0487948417032865e-05 -4.6615834082295457e-09 -4.2220424787379835e-07 -0.162173400087572 -3.5529656211177902e-09 -2.32975698987873e-06 -0.14024631926887285 0.075719753065884424 -2.2739524163079256e-06 -0.29946994258231258 0.035466771129193955 -1.7625860107432504e-06 -1.0487948417032865e-05 -3.5529656235358112e-09 -2.3297569898787292e-06 -0.14024631926887282 0.035468513736090029 -2.0763768560893646e-06 -0.14026042979880801 0.075719753065884424 -2.2739524163079256e-06 -0.29946994258231258 -3.5529656238601892e-09 -2.3297569898787296e-06 -0.14024631926887285 0.041040342604059019 -2.6254105745182138e-06 -0.28749721394320349 0.035468513736090029 -2.0763768560893646e-06 -0.14026042979880801 0.075719753065884438 -2.273952416307926e-06 -0.29946994258231263 0.035468513736090029 -2.0763768560893646e-06 -0.14026042979880801 -3.5529656233856212e-09 -2.3297569898787296e-06 -0.14024631926887285 -5.1528647413142493e-09 -2.7054554556030956e-06 -0.19158601774165743 0.041040342604059012 -2.6254105745182134e-06 -0.28749721394320349 -4.1694430608180564e-09 -2.7353170697785985e-06 -0.30279184161883732 -5.1528647413142493e-09 -2.7054554556030956e-06 -0.19158601774165743 -3.5529656238601892e-09 -2.3297569898787296e-06 -0.14024631926887285 0.041040342604059012 -2.6254105745182134e-06 -0.28749721394320349 -3.5529656238601892e-09 -2.3297569898787296e-06 -0.14024631926887285 0.035466771129193955 -1.7625860107432504e-06 -1.0487948417032865e-05 -4.4023985100627505e-09 -2.9030888473666142e-06 -1.3089371022991967e-05 -4.6615834095994966e-09 -4.2220424787379925e-07 -0.16217340008757203 -4.6615834095994966e-09 -4.2220424787379925e-07 -0.16217340008757203 0.035466771129193962 -1.7625860107432495e-06 -1.0487948417073246e-05 -4.4023985100627505e-09 -2.9030888473666142e-06 -1.3089371022992876e-05 0.041010484191945085 -7.5913123109259771e-07 -1.3124630919922228e-05 0.048445620578087857 -3.100094229903095e-06 -1.487419601934917e-05 0.035466771129193948 -1.7625860107432506e-06 -1.0487948417048475e-05 0.076480286256856864 -2.7954855522213761e-06 -0.17871657631394786 0.07655523409736012 -5.3409470661240721e-07 -1.3624178612732926e-05 0.048445620578087857 -3.100094229903095e-06 -1.487419601934917e-05 0.035466771129193962 -1.7625860107432504e-06 -1.0487948417032733e-05 0.035468513736090022 -2.0763768560893641e-06 -0.14026042979880801 0.076480286256856864 -2.7954855522213761e-06 -0.17871657631394786 0.076480286256856864 -2.7954855522213761e-06 -0.17871657631394786 0.096846723828711651 -2.8387729662903635e-06 -1.7608835330759182e-05 0.048445620578087857 -3.100094229903095e-06 -1.4874196019357937e-05 0.07655523409736012 -5.3409470661240721e-07 -1.3624178612732926e-05 0.076480286256856864 -2.7954855522213761e-06 -0.17871657631394786 0.07655523409736012 -5.34094706612407e-07 -1.3624178612733609e-05 0.035466771129193941 -1.7625860107432506e-06 -1.048794841704175e-05 0.07571975306588441 -2.2739524163079256e-06 -0.29946994258231258 0.07655523409736012 -5.3409470661240721e-07 -1.3624178612732926e-05 0.07571975306588441 -2.2739524163079256e-06 -0.29946994258231252 0.07648028625685685 -2.7954855522213761e-06 -0.17871657631394788 0.12113982638209371 -2.1715693729983659e-06 -0.21643924141769175 0.07655523409736012 -5.3409470661240721e-07 -1.3624178612732926e-05 0.11955162873671171 -2.6254982855708601e-06 -0.12686836966405857 0.12335870178173106 -1.8469513286565759e-07 -1.2741953170499315e-05 0.12113982638209368 -2.1715693729983655e-06 -0.21643924141769177 0.07655523409736012 -5.3409470661240721e-07 -1.3624178612732926e-05 0.12335870178173106 -1.8469513286565793e-07 -1.2741953170528758e-05 0.11090233733902993 3.2469879433313457e-07 -1.0996362603020068e-05 0.12113982638209368 -2.1715693729983663e-06 -0.2164392414176918 0.11955162873671173 -2.6254982855708609e-06 -0.12686836966405865 0.096846723828711651 -2.8387729662903635e-06 -1.7608835330759182e-05 0.076555234097360134 -5.3409470661240796e-07 -1.3624178612670917e-05 0.12335870178173106 -1.8469513286565759e-07 -1.2741953170499315e-05 0.11955162873671173 -2.6254982855708609e-06 -0.12686836966405865 0.096846723828711651 -2.8387729662903635e-06 -1.7608835330759182e-05 0.076480286256856864 -2.7954855522213761e-06 -0.17871657631394786 0.076555234097360134 -5.3409470661240848e-07 -1.3624178612715752e-05 0.076480286256856864 -2.7954855522213761e-06 -0.17871657631394786 0.11545154690738514 -3.2147651429023473e-06 -0.30417941870583359 0.11955162873671173 -2.6254982855708609e-06 -0.12686836966405865 0.12113982638209368 -2.1715693729983659e-06 -0.21643924141769175 0.07655523409736012 -5.3409470661240721e-07 -1.3624178612732926e-05 0.076480286256856864 -2.7954855522213757e-06 -0.17871657631394783 0.11955162873671171 -2.6254982855708609e-06 -0.12686836966405871 0.12113982638209368 -2.1715693729983655e-06 -0.21643924141769183 0.075206165656308305 -2.2440235382937126e-06 -0.51906654840724031 0.12128451871389247 -1.8441525874522596e-06 -0.50682191844174851 0.077875863388046335 -2.4250545289591954e-06 -0.3711433978398479 0.053538598317341514 -3.0046741711332567e-06 -0.47902377862390799 0.077875863388046335 -2.4250545289591954e-06 -0.3711433978398479 0.075719753065884424 -2.2739524163079256e-06 -0.29946994258231258 0.041040342604059012 -2.6254105745182134e-06 -0.28749721394320349 0.053538598317341507 -3.0046741711332567e-06 -0.47902377862390799 0.077875863388046335 -2.4250545289591954e-06 -0.3711433978398479 0.12128451871389245 -1.8441525874522594e-06 -0.50682191844174851 0.075719753065884438 -2.2739524163079252e-06 -0.29946994258231258 0.053538598317341514 -3.0046741711332571e-06 -0.47902377862390805 0.077875863388046335 -2.4250545289591954e-06 -0.3711433978398479 0.12128451871389247 -1.8441525874522594e-06 -0.50682191844174829 0.11545154690738516 -3.2147651429023473e-06 -0.30417941870583365 0.12113982638209368 -2.1715693729983659e-06 -0.21643924141769175 0.077875863388046335 -2.4250545289591954e-06 -0.3711433978398479 0.075719753065884438 -2.273952416307926e-06 -0.29946994258231252 0.12128451871389247 -1.8441525874522594e-06 -0.50682191844174851 0.12113982638209365 -2.1715693729983663e-06 -0.21643924141769177 0.077875863388046335 -2.4250545289591954e-06 -0.3711433978398479 0.07648028625685685 -2.7954855522213761e-06 -0.17871657631394786 0.041040342604059012 -2.6254105745182134e-06 -0.28749721394320349 0.075719753065884424 -2.2739524163079256e-06 -0.29946994258231258 0.076480286256856864 -2.7954855522213761e-06 -0.17871657631394786 0.075719753065884424 -2.2739524163079256e-06 -0.29946994258231258 0.077875863388046335 -2.4250545289591954e-06 -0.3711433978398479 0.12113982638209368 -2.1715693729983659e-06 -0.21643924141769175 0.076480286256856864 -2.7954855522213761e-06 -0.17871657631394786 0.077875863388046335 -2.4250545289591954e-06 -0.3711433978398479 0.11545154690738516 -3.2147651429023481e-06 -0.30417941870583359 0.12113982638209368 -2.1715693729983659e-06 -0.21643924141769175 0.075206165656308305 -2.2440235382937126e-06 -0.51906654840724031 0.12107497653957426 -2.7783605062633566e-06 -0.46036296073355287 0.077875863388046335 -2.4250545289591954e-06 -0.3711433978398479 0.12128451871389247 -1.8441525874522596e-06 -0.50682191844174851 0.077875863388046335 -2.4250545289591954e-06 -0.3711433978398479 0.12107497653957426 -2.7783605062633566e-06 -0.46036296073355287 0.11545154690738514 -3.2147651429023473e-06 -0.30417941870583359 0.12128451871389247 -1.8441525874522594e-06 -0.50682191844174851 0.039681380553174453 -2.6174266156641071e-06 -0.46809725857407986 0.075206165656308305 -2.2440235382937126e-06 -0.51906654840724031 0.077875863388046335 -2.4250545289591954e-06 -0.3711433978398479 0.053538598317341514 -3.0046741711332567e-06 -0.47902377862390799 0.039681380553174453 -2.6174266156641071e-06 -0.46809725857407986 0.077875863388046335 -2.4250545289591954e-06 -0.3711433978398479 0.041040342604059012 -2.6254105745182134e-06 -0.28749721394320349 0.053538598317341514 -3.0046741711332567e-06 -0.47902377862390799 0.041040342604059012 -2.6254105745182134e-06 -0.28749721394320349 -3.5529656238601892e-09 -2.3297569898787296e-06 -0.14024631926887285 -4.1694430632897523e-09 -2.7353170697785985e-06 -0.30279184161883732 0.075719753065884424 -2.2739524163079252e-06 -0.29946994258231252 -4.1694430608180564e-09 -2.7353170697785985e-06 -0.30279184161883732 0.039681380553174446 -2.6174266156641071e-06 -0.46809725857407991 0.041040342604059012 -2.6254105745182134e-06 -0.28749721394320349 0.053538598317341528 -3.0046741711332567e-06 -0.47902377862390799 -4.1694430608180564e-09 -2.7353170697785985e-06 -0.30279184161883732 0.041040342604059005 -2.6254105745182134e-06 -0.28749721394320349 0.075719753065884424 -2.2739524163079256e-06 -0.29946994258231258 0.053538598317341507 -3.0046741711332567e-06 -0.47902377862390805 -3.6744827240492026e-09 -3.1532681665450355e-06 -0.38315254274947824 6.6125684398993157e-10 -3.5506865545665544e-06 -0.57470094041712472 0.039681380553174453 -2.6174266156641071e-06 -0.46809725857407986 -4.0026456527057945e-09 -3.9207046579678349e-06 -0.48818034533188442 -3.6744827240492026e-09 -3.1532681665450355e-06 -0.38315254274947824 -4.1694430608180564e-09 -2.7353170697785985e-06 -0.30279184161883732 0.039681380553174453 -2.6174266156641071e-06 -0.46809725857407986 0.041040342604059012 -2.6254105745182134e-06 -0.28749721394320349 0.039681380553174453 -2.6174266156641071e-06 -0.46809725857407986 -4.1694430575109594e-09 -2.7353170697785981e-06 -0.30279184161883727 -3.6744827239525804e-09 -3.1532681665450355e-06 -0.38315254274947824 -4.0026456527057945e-09 -3.9207046579678349e-06 -0.48818034533188442 -4.1694430608180564e-09 -2.7353170697785985e-06 -0.30279184161883732 -3.6744827166020256e-09 -3.1532681665450351e-06 -0.38315254274947824 -5.1528647413142493e-09 -2.7054554556030956e-06 -0.19158601774165743 0.041040342604059012 -2.6254105745182134e-06 -0.28749721394320349 -4.1694430608180564e-09 -2.7353170697785985e-06 -0.30279184161883732 -4.0026456527057945e-09 -3.9207046579678349e-06 -0.48818034533188442 0.039681380553174453 -2.6174266156641071e-06 -0.46809725857407986 0.053538598317341528 -3.0046741711332563e-06 -0.47902377862390799 -4.1694430608180564e-09 -2.7353170697785985e-06 -0.30279184161883732 7.8339492502589404e-12 -1.0590037087173681e-06 -0.43881229316218517 -4.0026456508022832e-09 -3.9207046579678349e-06 -0.48818034533188442 0.053538598317341528 -3.0046741711332567e-06 -0.47902377862390799 -4.6615834095994966e-09 -4.2220424787379925e-07 -0.16217340008757203 -4.5564545626073704e-09 -9.2218915989052491e-07 -0.31538128251606007 -4.1694430608180564e-09 -2.7353170697785985e-06 -0.30279184161883732 0.075719753065884424 -2.2739524163079256e-06 -0.29946994258231258 7.8339479279937966e-12 -1.0590037087173675e-06 -0.43881229316218523 0.075719753065884438 -2.2739524163079265e-06 -0.29946994258231246 0.060027364711824086 7.0602977455126429e-07 -0.43203750923262058 0.053538598317341514 -3.0046741711332567e-06 -0.47902377862390799 -4.1694430608180564e-09 -2.7353170697785985e-06 -0.30279184161883732 -4.556454559918576e-09 -9.2218915989052491e-07 -0.31538128251606007 7.833947759944113e-12 -1.0590037087173675e-06 -0.43881229316218523 0.075719753065884424 -2.2739524163079256e-06 -0.29946994258231258 -4.5564545626073704e-09 -9.2218915989052491e-07 -0.31538128251606007 0.060027364711824092 7.0602977455126429e-07 -0.43203750923262063 0.075719753065884424 -2.2739524163079256e-06 -0.29946994258231252 0.054134317643913743 -1.721097671539718e-07 -0.21407747536153537 7.8339479279937966e-12 -1.0590037087173675e-06 -0.43881229316218523 0.075719753065884424 -2.273952416307926e-06 -0.29946994258231252 -4.5564545626073704e-09 -9.2218915989052491e-07 -0.31538128251606007 0.060027364711824086 7.0602977455126429e-07 -0.43203750923262058 -4.6615834095994966e-09 -4.2220424787379925e-07 -0.16217340008757203 -4.5564545626073704e-09 -9.2218915989052491e-07 -0.31538128251606007 0.07571975306588441 -2.273952416307926e-06 -0.29946994258231263 0.054134317643913729 -1.7210976715397214e-07 -0.21407747536153549 -4.1694430608180564e-09 -2.7353170697785985e-06 -0.30279184161883732 0.075719753065884424 -2.2739524163079256e-06 -0.29946994258231263 7.8339472992752018e-12 -1.0590037087173673e-06 -0.43881229316218523 0.053538598317341528 -3.0046741711332576e-06 -0.47902377862390805 7.8339479279937966e-12 -1.0590037087173675e-06 -0.43881229316218523 -4.556454564476237e-09 -9.2218915989052501e-07 -0.31538128251606007 -5.9827251263489051e-09 2.0147014030134171e-06 -0.49769174428635815 0.060027364711824086 7.0602977455126429e-07 -0.43203750923262058 0.12109524713257877 4.4379650362839978e-07 -0.47916176081119366 0.12128451871389247 -1.8441525874522594e-06 -0.50682191844174862 0.075719753065884382 -2.273952416307926e-06 -0.29946994258231246 0.12113829682573164 -2.3614698327199858e-07 -0.239232051895749 0.060027364711824086 7.0602977455126429e-07 -0.43203750923262058 0.12113829682573163 -2.3614698327199937e-07 -0.23923205189574906 0.075719753065884424 -2.2739524163079252e-06 -0.29946994258231252 0.054134317643913743 -1.7210976715397145e-07 -0.21407747536153543 0.075719753065884424 -2.2739524163079256e-06 -0.29946994258231258 0.12113829682573164 -2.3614698327199855e-07 -0.23923205189574903 0.12128451871389247 -1.8441525874522594e-06 -0.5068219184417484 0.12113982638209368 -2.1715693729983659e-06 -0.21643924141769177 0.12109524713257877 4.4379650362839978e-07 -0.47916176081119366 0.060027364711824086 7.0602977455126429e-07 -0.43203750923262058 0.075719753065884451 -2.2739524163079269e-06 -0.29946994258231246 0.12128451871389247 -1.8441525874522594e-06 -0.50682191844174851 0.075719753065884424 -2.2739524163079256e-06 -0.29946994258231258 0.060027364711824086 7.0602977455126429e-07 -0.43203750923262058 0.12109524713257877 4.4379650362839946e-07 -0.47916176081119377 0.12113829682573164 -2.3614698327199853e-07 -0.23923205189574906 0.075719753065884424 -2.2739524163079256e-06 -0.29946994258231258 0.12128451871389245 -1.8441525874522594e-06 -0.50682191844174851 0.060027364711824086 7.0602977455126461e-07 -0.43203750923262058 0.053538598317341514 -3.0046741711332567e-06 -0.47902377862390799 0.079735159320306739 -2.3262654662799549e-06 -1.5135154884829458e-05 0.07571975306588441 -2.273952416307926e-06 -0.29946994258231258 0.11090233733902993 3.2469879433313473e-07 -1.0996362603021852e-05 0.12113829682573164 -2.3614698327199853e-07 -0.23923205189574906 0.079735159320306739 -2.3262654662799549e-06 -1.5135154884829458e-05 0.12113829682573164 -2.3614698327199853e-07 -0.23923205189574906 0.078576906214545092 2.2488226600460781e-07 -1.5873336083684027e-05 0.054134317643913743 -1.7210976715397145e-07 -0.21407747536153543 0.11090233733902993 3.2469879433313457e-07 -1.0996362603020068e-05 0.12113829682573164 -2.3614698327199853e-07 -0.23923205189574906 0.075719753065884424 -2.2739524163079248e-06 -0.29946994258231258 0.12113982638209371 -2.1715693729983655e-06 -0.21643924141769175 0.11090233733902993 3.2469879433313457e-07 -1.0996362603020068e-05 0.079735159320306739 -2.3262654662799549e-06 -1.5135154884829458e-05 0.07655523409736012 -5.3409470661240721e-07 -1.3624178612732926e-05 0.075719753065884424 -2.2739524163079256e-06 -0.29946994258231258 0.041010484191945085 -7.5913123109259771e-07 -1.3124630919922228e-05 0.07571975306588441 -2.2739524163079252e-06 -0.29946994258231258 0.079735159320306739 -2.3262654662799549e-06 -1.5135154884829458e-05 0.054134317643913743 -1.7210976715397145e-07 -0.21407747536153543 0.07655523409736012 -5.3409470661240721e-07 -1.3624178612732926e-05 0.11090233733902993 3.2469879433313457e-07 -1.0996362603020068e-05 0.07571975306588441 -2.2739524163079256e-06 -0.29946994258231258 0.12113982638209368 -2.1715693729983663e-06 -0.21643924141769175 0.079735159320306739 -2.3262654662799549e-06 -1.5135154884829458e-05 0.075719753065884438 -2.2739524163079282e-06 -0.29946994258231258 0.12113829682573164 -2.3614698327199853e-07 -0.23923205189574906 0.054134317643913757 -1.7210976715397055e-07 -0.21407747536153543 0.079735159320306739 -2.3262654662799549e-06 -1.5135154884829458e-05 0.041010484191945085 -7.591312310925976e-07 -1.3124630919918425e-05 0.07655523409736012 -5.3409470661240721e-07 -1.3624178612732926e-05 0.07571975306588441 -2.2739524163079256e-06 -0.29946994258231263 0.078576906214545092 2.2488226600460781e-07 -1.5873336083684027e-05 0.079735159320306739 -2.3262654662799549e-06 -1.5135154884829458e-05 0.125766218613582 -1.8976808236249367e-07 -1.4052465277840534e-05 0.12113829682573164 -2.3614698327199853e-07 -0.23923205189574906 0.125766218613582 -1.8976808236249367e-07 -1.4052465277840534e-05 0.079735159320306739 -2.3262654662799549e-06 -1.5135154884829458e-05 0.11090233733902993 3.2469879433313457e-07 -1.0996362603020068e-05 0.12113829682573164 -2.3614698327199853e-07 -0.23923205189574906 -4.6615834095994966e-09 -4.2220424787379925e-07 -0.16217340008757203 0.035466771129193955 -1.7625860107432504e-06 -1.0487948417032865e-05 0.041010484191945085 -7.5913123109259771e-07 -1.312463091991989e-05 0.075719753065884424 -2.2739524163079256e-06 -0.29946994258231258 -4.6615834095994966e-09 -4.2220424787379925e-07 -0.16217340008757203 0.07571975306588441 -2.2739524163079265e-06 -0.29946994258231258 0.041010484191945085 -7.591312310925976e-07 -1.3124630919913454e-05 0.054134317643913736 -1.7210976715397127e-07 -0.21407747536153543 0.041729965051753172 -1.2515047685583842e-07 -1.4304435806520704e-05 -5.5883955049116741e-09 1.0717461611882246e-07 -0.16501709778651977 0.041010484191945085 -7.5913123109259771e-07 -1.3124630919922228e-05 0.054134317643913743 -1.7210976715397145e-07 -0.21407747536153543 0.041729965051753172 -1.2515047685583842e-07 -1.4304435806520704e-05 0.041010484191945085 -7.5913123109259771e-07 -1.3124630919922228e-05 0.079735159320306739 -2.3262654662799549e-06 -1.5135154884829458e-05 0.054134317643913743 -1.7210976715397145e-07 -0.21407747536153543 -4.6615834095994966e-09 -4.2220424787379925e-07 -0.16217340008757203 -4.4023985100627505e-09 -2.9030888473666142e-06 -1.3089371022992876e-05 -5.4829375433929438e-09 -1.1785063716894077e-06 -1.6707105369131827e-05 0.041010484191945085 -7.5913123109259771e-07 -1.3124630919922228e-05 -4.6615834095994966e-09 -4.2220424787379925e-07 -0.16217340008757203 -5.4829375433929438e-09 -1.1785063716894077e-06 -1.6707105369131827e-05 -5.5883955073938131e-09 1.0717461611882242e-07 -0.16501709778651977 0.041010484191945085 -7.5913123109259771e-07 -1.3124630919922228e-05 -4.6615834095994966e-09 -4.2220424787379925e-07 -0.16217340008757203 0.041010484191945085 -7.5913123109259771e-07 -1.3124630919922228e-05 -5.5883955049116741e-09 1.0717461611882246e-07 -0.16501709778651977 0.054134317643913729 -1.721097671539714e-07 -0.21407747536153537 -4.6615834095994966e-09 -4.2220424787379925e-07 -0.16217340008757203 -5.5883955049116741e-09 1.0717461611882246e-07 -0.16501709778651977 -4.5564545634388913e-09 -9.2218915989052491e-07 -0.31538128251606007 0.054134317643913729 -1.721097671539715e-07 -0.21407747536153546 -5.5883955049116741e-09 1.0717461611882246e-07 -0.16501709778651977 -5.4829375457925774e-09 -1.1785063716894075e-06 -1.6707105369117671e-05 -4.9463720784612049e-09 1.1698798520742107e-06 -1.5596459360844269e-05 0.041729965051753172 -1.2515047685583842e-07 -1.4304435806520704e-05 0.041010484191945085 -7.5913123109259771e-07 -1.3124630919922228e-05 -5.4829375433929438e-09 -1.1785063716894077e-06 -1.6707105369131827e-05 -5.5883955049116741e-09 1.0717461611882246e-07 -0.16501709778651977 0.041729965051753172 -1.2515047685583842e-07 -1.4304435806520704e-05 -4.0781637104354544e-09 9.0081278043724985e-07 -0.15227800805966304 -3.4606767286769306e-09 -8.8646727427521898e-07 -0.31079243152681973 0.05413431764391375 -1.7210976715397119e-07 -0.21407747536153537 0.046660616727269982 9.6771683039611424e-07 -0.18450286744293476 0.038507988968078798 1.3699734664863255e-08 -1.3055843345173657e-05 -4.078163711014777e-09 9.0081278043724985e-07 -0.15227800805966304 0.054134317643913743 -1.721097671539714e-07 -0.21407747536153546 0.046660616727269982 9.6771683039611403e-07 -0.18450286744293479 -4.0781637104354544e-09 9.0081278043724985e-07 -0.15227800805966304 0.041729965051753172 -1.2515047685583842e-07 -1.4304435806520704e-05 -4.9463720782608303e-09 1.1698798520742107e-06 -1.5596459360843476e-05 0.038507988968078798 1.3699734664863255e-08 -1.3055843345173657e-05 0.078576906214545092 2.2488226600460781e-07 -1.5873336083684027e-05 0.038507988968078798 1.3699734664863255e-08 -1.3055843345173657e-05 0.05413431764391375 -1.7210976715397132e-07 -0.21407747536153546 0.046660616727269982 9.6771683039611424e-07 -0.18450286744293479 -4.9463720784612049e-09 1.1698798520742107e-06 -1.5596459360844269e-05 -5.5883955049116741e-09 1.0717461611882246e-07 -0.16501709778651977 0.041729965051753172 -1.2515047685583845e-07 -1.4304435806526186e-05 -4.0781637104354544e-09 9.0081278043724985e-07 -0.15227800805966304 -4.0781637104354544e-09 9.0081278043724985e-07 -0.15227800805966304 -4.9463720784612049e-09 1.1698798520742107e-06 -1.5596459360844269e-05 -5.1479993593761028e-09 5.3989973188145508e-07 -1.2688891289542218e-05 0.038507988968078798 1.3699734664863255e-08 -1.3055843345173657e-05 0.075231858488967088 2.1546695286790854e-07 -1.4134239729699535e-05 0.038507988968078805 1.3699734664863235e-08 -1.3055843345169369e-05 0.078576906214545092 2.2488226600460783e-07 -1.587333608368834e-05 0.046660616727269982 9.6771683039611424e-07 -0.18450286744293479 0.078576906214545092 2.2488226600460781e-07 -1.5873336083684027e-05 0.038507988968078798 1.3699734664863255e-08 -1.3055843345173657e-05 0.041729965051753172 -1.2515047685583842e-07 -1.4304435806520704e-05 0.054134317643913743 -1.7210976715397145e-07 -0.21407747536153543 0.038507988968078798 1.3699734664863255e-08 -1.3055843345173657e-05 -4.0781637115724845e-09 9.0081278043724985e-07 -0.15227800805966302 0.041729965051753172 -1.2515047685583842e-07 -1.4304435806520704e-05 0.054134317643913743 -1.7210976715397145e-07 -0.21407747536153543 -4.0781637104354544e-09 9.0081278043724985e-07 -0.15227800805966304 -5.0667095093980481e-09 3.0871764357923824e-06 -0.29758586769281159 -3.4606767286769306e-09 -8.8646727427521898e-07 -0.31079243152681973 0.046660616727269975 9.6771683039611467e-07 -0.18450286744293481 -5.5883955049116741e-09 1.0717461611882246e-07 -0.16501709778651977 -4.0781637104354544e-09 9.0081278043724985e-07 -0.15227800805966304 -3.4606767286769306e-09 -8.8646727427521898e-07 -0.31079243152681973 0.054134317643913743 -1.7210976715397145e-07 -0.21407747536153543 -5.5883955049116741e-09 1.0717461611882246e-07 -0.16501709778651977 0.041729965051753179 -1.2515047685583845e-07 -1.43044358065252e-05 -4.0781637104354544e-09 9.0081278043724985e-07 -0.15227800805966304 0.054134317643913743 -1.7210976715397145e-07 -0.21407747536153543 -3.4606767286769306e-09 -8.8646727427521898e-07 -0.31079243152681973 0.05456595252279841 2.9429763912987172e-06 -0.461617064766496 0.086828149731094165 8.1673347418510638e-07 -0.28772676920361895 0.046660616727269982 9.6771683039611382e-07 -0.18450286744293473 -3.4606767286769306e-09 -8.8646727427521898e-07 -0.31079243152681973 0.060027364711824099 7.0602977455126429e-07 -0.43203750923262052 -4.5564545626073704e-09 -9.2218915989052491e-07 -0.31538128251606007 0.054134317643913757 -1.721097671539715e-07 -0.2140774753615354 -3.4606767286769306e-09 -8.8646727427521898e-07 -0.31079243152681973 -5.0667095072157579e-09 3.0871764357923824e-06 -0.29758586769281159 0.05456595252279841 2.9429763912987168e-06 -0.46161706476649594 0.046660616727269975 9.6771683039611424e-07 -0.18450286744293476 0.086828149731094165 8.1673347418510638e-07 -0.28772676920361895 0.054134317643913757 -1.7210976715397105e-07 -0.21407747536153537 -3.4606767267871199e-09 -8.8646727427521898e-07 -0.31079243152681979 0.046660616727269968 9.6771683039611446e-07 -0.18450286744293473 -5.5883955049116741e-09 1.0717461611882246e-07 -0.16501709778651977 -3.4606767284375359e-09 -8.8646727427521888e-07 -0.31079243152681973 -4.5564545626073704e-09 -9.2218915989052491e-07 -0.31538128251606007 0.054134317643913743 -1.7210976715397145e-07 -0.21407747536153543 -3.4606767286769306e-09 -8.8646727427521898e-07 -0.31079243152681973 0.060027364711824086 7.0602977455126482e-07 -0.43203750923262058 0.086828149731094165 8.1673347418510638e-07 -0.28772676920361895 0.054565952522798417 2.9429763912987155e-06 -0.46161706476649594 0.086828149731094165 8.1673347418510638e-07 -0.28772676920361895 0.060027364711824079 7.0602977455126429e-07 -0.43203750923262058 -3.4606767360181619e-09 -8.8646727427521898e-07 -0.31079243152681979 0.054134317643913764 -1.7210976715397116e-07 -0.21407747536153546 -4.5564545626073704e-09 -9.2218915989052491e-07 -0.31538128251606007 -3.4606767320714979e-09 -8.8646727427521888e-07 -0.31079243152681973 -5.9827251263489051e-09 2.0147014030134171e-06 -0.49769174428635815 0.060027364711824086 7.0602977455126429e-07 -0.43203750923262058 8.8797792349235834e-11 1.1792428496078903e-06 -0.43739469092555044 -5.9827251263489051e-09 2.0147014030134171e-06 -0.49769174428635815 -3.4606767286769306e-09 -8.8646727427521898e-07 -0.31079243152681973 0.060027364711824086 7.0602977455126429e-07 -0.43203750923262058 -8.0150409157337139e-09 1.4003098075690487e-06 -0.5741490906291018 0.060027364711824092 7.0602977455126376e-07 -0.43203750923262058 8.8797792349235834e-11 1.1792428496078903e-06 -0.43739469092555044 0.054565952522798417 2.9429763912987164e-06 -0.46161706476649594 -3.4606767286769306e-09 -8.8646727427521898e-07 -0.31079243152681973 -5.0667095072157579e-09 3.0871764357923824e-06 -0.29758586769281159 8.8797787788085667e-11 1.1792428496078905e-06 -0.43739469092555044 0.054565952522798417 2.9429763912987164e-06 -0.46161706476649594 8.8797792349235834e-11 1.1792428496078903e-06 -0.43739469092555044 0.060027364711824086 7.060297745512644e-07 -0.43203750923262058 -3.4606767286769306e-09 -8.8646727427521898e-07 -0.31079243152681973 0.054565952522798417 2.9429763912987164e-06 -0.46161706476649594 0.041019468128930363 2.6452926383436951e-06 -0.28810582039570787 0.079764382264319519 3.0813947244894298e-06 -0.37955429743242058 0.054565952522798417 2.9429763912987164e-06 -0.46161706476649594 0.046660616727269982 9.6771683039611424e-07 -0.18450286744293479 -5.0667095072157579e-09 3.0871764357923824e-06 -0.29758586769281159 0.041019468128930363 2.6452926383436951e-06 -0.28810582039570787 0.054565952522798417 2.9429763912987164e-06 -0.46161706476649594 0.046660616727269982 9.6771683039611424e-07 -0.18450286744293479 0.041752655208073287 2.884515595231035e-06 -0.47738749530158897 -5.227453214089637e-09 4.6262925364545434e-06 -0.48661213951057392 -5.0667095061093467e-09 3.0871764357923824e-06 -0.29758586769281153 0.054565952522798417 2.942976391298716e-06 -0.46161706476649589 8.8797792349235834e-11 1.1792428496078903e-06 -0.43739469092555044 -5.0667095072157579e-09 3.0871764357923824e-06 -0.29758586769281159 -5.2274532012538651e-09 4.6262925364545434e-06 -0.48661213951057392 0.054565952522798417 2.9429763912987164e-06 -0.46161706476649594 0.041752655208073287 2.884515595231035e-06 -0.47738749530158897 -3.0541918927443426e-09 3.3805798242808134e-06 -0.38315215373088507 -5.0667095035717072e-09 3.0871764357923824e-06 -0.29758586769281153 -5.2274532012538651e-09 4.6262925364545434e-06 -0.48661213951057386 -5.0667095072157579e-09 3.0871764357923824e-06 -0.29758586769281159 0.041019468128930363 2.6452926383436951e-06 -0.28810582039570787 -3.0541918927443426e-09 3.3805798242808134e-06 -0.38315215373088507 0.041752655208073294 2.8845155952310346e-06 -0.47738749530158903 0.041752655208073287 2.884515595231035e-06 -0.47738749530158897 -5.0667095141844692e-09 3.0871764357923824e-06 -0.29758586769281153 0.041019468128930363 2.6452926383436951e-06 -0.28810582039570787 0.054565952522798403 2.9429763912987164e-06 -0.46161706476649594 0.041752655208073287 2.884515595231035e-06 -0.47738749530158897 0.041019468128930363 2.6452926383436951e-06 -0.28810582039570787 0.079764382264319519 3.0813947244894298e-06 -0.37955429743242058 0.054565952522798417 2.9429763912987164e-06 -0.46161706476649594 -3.0541918927443426e-09 3.3805798242808134e-06 -0.38315215373088507 -4.704399958565751e-09 2.6476510032684729e-06 -0.19158928808588632 0.041019468128930363 2.6452926383436951e-06 -0.28810582039570787 -5.0667095072157579e-09 3.0871764357923824e-06 -0.29758586769281159 0.041019468128930363 2.6452926383436951e-06 -0.28810582039570787 -4.7043999679058873e-09 2.6476510032684733e-06 -0.19158928808588635 -3.1632616870752812e-09 1.1931084877399089e-06 -0.14025166384964458 -5.0667095117698347e-09 3.0871764357923824e-06 -0.29758586769281159 0.035469400501360382 2.1200313243122046e-06 -0.14026480593136584 -4.704399958565751e-09 2.6476510032684729e-06 -0.19158928808588632 -3.1632616735449196e-09 1.1931084877399085e-06 -0.14025166384964458 0.041019468128930363 2.6452926383436951e-06 -0.28810582039570787 0.048442582095233042 3.0032337968546e-06 -1.4359064713892403e-05 -5.479592297395535e-09 2.8558895727386698e-06 -1.4371524187825031e-05 0.035462328785806962 5.2541538112369686e-07 -1.0463777668796763e-05 0.035469400501360382 2.1200313243122046e-06 -0.14026480593136584 -3.1632616737754582e-09 1.1931084877399083e-06 -0.14025166384964458 -5.4795922963456683e-09 2.8558895727386702e-06 -1.4371524187813683e-05 -4.704399958565751e-09 2.6476510032684729e-06 -0.19158928808588632 0.035469400501360382 2.1200313243122046e-06 -0.14026480593136584 -3.1632616737754582e-09 1.1931084877399083e-06 -0.14025166384964458 0.035462328785806962 5.2541538112369686e-07 -1.0463777668796763e-05 -5.4795922963456683e-09 2.8558895727386702e-06 -1.4371524187813683e-05 0.035469400501360382 2.1200313243122046e-06 -0.14026480593136584 0.035462328785806962 5.2541538112369686e-07 -1.0463777668796763e-05 -5.4795923003965454e-09 2.8558895727386702e-06 -1.4371524187828072e-05 -5.1479993620194949e-09 5.3989973188145519e-07 -1.268889128955267e-05 -3.1632616737754582e-09 1.1931084877399083e-06 -0.14025166384964458 -3.1632616737754582e-09 1.1931084877399083e-06 -0.14025166384964458 -4.0781637104354544e-09 9.0081278043724985e-07 -0.15227800805966304 0.038507988968078805 1.3699734664863225e-08 -1.3055843345179344e-05 0.046660616727269982 9.6771683039611424e-07 -0.18450286744293479 -5.1479993620194949e-09 5.3989973188145519e-07 -1.268889128955267e-05 0.038507988968078798 1.3699734664863255e-08 -1.3055843345173657e-05 0.035462328785806962 5.2541538112369686e-07 -1.0463777668796763e-05 -3.1632616737754582e-09 1.1931084877399083e-06 -0.14025166384964458 0.035469400501360382 2.1200313243122046e-06 -0.14026480593136584 -3.1632616749484205e-09 1.1931084877399085e-06 -0.14025166384964455 0.035462328785806962 5.2541538112369654e-07 -1.0463777668792365e-05 0.046660616727269982 9.6771683039611403e-07 -0.18450286744293476 0.038507988968078798 1.3699734664863255e-08 -1.3055843345173657e-05 -5.1479993620194949e-09 5.3989973188145519e-07 -1.268889128955267e-05 -4.0781637104354544e-09 9.0081278043724985e-07 -0.15227800805966304 -3.1632616737754582e-09 1.1931084877399083e-06 -0.14025166384964458 0.038507988968078798 1.3699734664863255e-08 -1.3055843345173657e-05 0.035462328785806962 5.2541538112369686e-07 -1.0463777668785424e-05 -3.1632616737754582e-09 1.1931084877399083e-06 -0.14025166384964458 0.046660616727269982 9.6771683039611424e-07 -0.18450286744293479 0.041019468128930363 2.6452926383436951e-06 -0.28810582039570787 -5.0667095170141399e-09 3.087176435792382e-06 -0.29758586769281159 -3.1632616783295349e-09 1.1931084877399087e-06 -0.1402516638496446 0.046660616727269982 9.6771683039611424e-07 -0.18450286744293479 -3.1632616737754582e-09 1.1931084877399083e-06 -0.14025166384964458 -5.0667095072157579e-09 3.0871764357923824e-06 -0.29758586769281159 -4.0781637104354544e-09 9.0081278043724985e-07 -0.15227800805966304 0.046660616727269982 9.6771683039611424e-07 -0.18450286744293479 0.035469400501360382 2.1200313243122046e-06 -0.14026480593136584 0.035462328785806969 5.2541538112369707e-07 -1.046377766884843e-05 0.075231858488967088 2.1546695286790852e-07 -1.4134239729724581e-05 0.046660616727269982 9.6771683039611403e-07 -0.18450286744293476 0.038507988968078798 1.3699734664863255e-08 -1.3055843345173657e-05 0.075231858488967088 2.1546695286790854e-07 -1.4134239729699535e-05 0.035462328785806962 5.2541538112369686e-07 -1.0463777668796763e-05 0.046660616727269982 9.6771683039611424e-07 -0.18450286744293479 0.035462328785806962 5.2541538112369686e-07 -1.0463777668796763e-05 0.075231858488967088 2.1546695286790854e-07 -1.4134239729699535e-05 0.048442582095233042 3.0032337968546e-06 -1.4359064713892403e-05 0.035469400501360382 2.1200313243122046e-06 -0.14026480593136584 0.076618487554476616 2.7724156563111423e-06 -0.18031645933102747 0.048442582095233049 3.0032337968546013e-06 -1.4359064713880678e-05 0.075231858488967088 2.1546695286790854e-07 -1.4134239729699535e-05 0.035469400501360382 2.1200313243122046e-06 -0.14026480593136584 0.075231858488967088 2.1546695286790854e-07 -1.4134239729699535e-05 0.076618487554476616 2.7724156563111423e-06 -0.18031645933102747 0.035469400501360375 2.1200313243122046e-06 -0.14026480593136578 0.046660616727269982 9.6771683039611403e-07 -0.18450286744293479 0.076618487554476616 2.7724156563111423e-06 -0.18031645933102747 0.041019468128930363 2.6452926383436951e-06 -0.28810582039570787 0.035469400501360382 2.1200313243122046e-06 -0.14026480593136584 0.046660616727269982 9.6771683039611424e-07 -0.18450286744293479 0.035469400501360382 2.1200313243122046e-06 -0.14026480593136584 0.041019468128930363 2.6452926383436951e-06 -0.28810582039570787 -3.1632616737754582e-09 1.1931084877399083e-06 -0.14025166384964458 0.046660616727269982 9.6771683039611424e-07 -0.18450286744293479 0.086828149731094165 8.1673347418510638e-07 -0.28772676920361895 0.046660616727269982 9.6771683039611424e-07 -0.18450286744293473 0.076618487554476616 2.7724156563111423e-06 -0.18031645933102747 0.12803068581260613 1.6242538292561076e-06 -0.19961717305518994 0.075231858488967088 2.1546695286790854e-07 -1.4134239729699535e-05 0.046660616727269982 9.6771683039611424e-07 -0.18450286744293479 0.086828149731094192 8.167334741851049e-07 -0.28772676920361895 0.12803068581260613 1.6242538292561076e-06 -0.19961717305518997 0.075231858488967088 2.1546695286790854e-07 -1.4134239729699535e-05 0.076618487554476616 2.7724156563111423e-06 -0.18031645933102741 0.046660616727269975 9.6771683039611403e-07 -0.18450286744293479 0.12803068581260613 1.6242538292561078e-06 -0.19961717305518997 0.075231858488967088 2.1546695286790854e-07 -1.4134239729699535e-05 0.096847192832037743 3.5407134836405248e-06 -1.6748428488071535e-05 0.048442582095233042 3.0032337968546e-06 -1.4359064713892403e-05 0.076618487554476616 2.7724156563111423e-06 -0.18031645933102747 0.075231858488967088 2.1546695286790854e-07 -1.4134239729699535e-05 0.12296405698024171 2.4374639354150683e-06 -1.3712384322947607e-05 0.076618487554476616 2.7724156563111423e-06 -0.18031645933102747 0.12803068581260613 1.6242538292561065e-06 -0.19961717305519 0.11054257679849104 3.161098413828906e-08 -1.0762458069153995e-05 0.12296405698024171 2.4374639354150695e-06 -1.3712384322918733e-05 0.075231858488967088 2.1546695286790852e-07 -1.4134239729695544e-05 0.12803068581260613 1.6242538292561078e-06 -0.19961717305518992 0.12375672077299725 2.6047421551871773e-06 -0.15689783656610404 0.076618487554476616 2.7724156563111423e-06 -0.18031645933102747 0.096847192832037743 3.5407134836405248e-06 -1.6748428488040808e-05 0.12296405698024171 2.4374639354150695e-06 -1.3712384322918733e-05 0.076618487554476616 2.7724156563111423e-06 -0.18031645933102747 0.075231858488967088 2.1546695286790812e-07 -1.4134239729740576e-05 0.096847192832037743 3.5407134836405248e-06 -1.6748428488071535e-05 0.12296405698024171 2.4374639354150695e-06 -1.3712384322918733e-05 0.12375672077299725 2.6047421551871773e-06 -0.15689783656610404 0.11093924966739163 2.1106828265233331e-06 -0.29735992769594866 0.076618487554476616 2.7724156563111423e-06 -0.18031645933102747 0.12803068581260613 1.6242538292561078e-06 -0.19961717305518994 0.12375672077299725 2.6047421551871773e-06 -0.15689783656610404 0.076618487554476616 2.7724156563111423e-06 -0.18031645933102747 0.12296405698024171 2.4374639354150691e-06 -1.3712384322925328e-05 0.12803068581260613 1.6242538292561078e-06 -0.19961717305518992 0.079764382264319519 3.0813947244894298e-06 -0.37955429743242058 0.086828149731094165 8.167334741851067e-07 -0.287726769203619 0.12106450667414995 6.4067641298831545e-07 -0.50759256102054406 0.054565952522798417 2.9429763912987164e-06 -0.46161706476649594 0.086828149731094165 8.1673347418510638e-07 -0.28772676920361895 0.054565952522798417 2.9429763912987164e-06 -0.46161706476649594 0.079764382264319519 3.0813947244894298e-06 -0.37955429743242058 0.046660616727269968 9.6771683039611424e-07 -0.18450286744293473 0.076618487554476616 2.7724156563111423e-06 -0.18031645933102747 0.11093924966739162 2.1106828265233327e-06 -0.29735992769594866 0.079764382264319519 3.0813947244894298e-06 -0.37955429743242058 0.086828149731094151 8.1673347418510564e-07 -0.28772676920361895 0.11093924966739162 2.1106828265233327e-06 -0.29735992769594866 0.086828149731094137 8.1673347418510617e-07 -0.287726769203619 0.076618487554476616 2.7724156563111423e-06 -0.18031645933102747 0.12803068581260613 1.6242538292561076e-06 -0.19961717305518994 0.076618487554476616 2.7724156563111423e-06 -0.18031645933102747 0.086828149731094192 8.1673347418510606e-07 -0.28772676920361895 0.079764382264319533 3.0813947244894302e-06 -0.37955429743242058 0.046660616727269982 9.6771683039611424e-07 -0.18450286744293479 0.11093924966739162 2.1106828265233327e-06 -0.29735992769594866 0.12106450667414989 6.4067641298831587e-07 -0.50759256102054406 0.086828149731094165 8.1673347418510617e-07 -0.287726769203619 0.12803068581260613 1.6242538292561076e-06 -0.19961717305518994 0.11093924966739162 2.1106828265233327e-06 -0.29735992769594866 0.079764382264319519 3.0813947244894298e-06 -0.37955429743242058 0.086828149731094165 8.1673347418510596e-07 -0.28772676920361895 0.12106450667414989 6.4067641298831587e-07 -0.50759256102054384 0.076618487554476616 2.7724156563111423e-06 -0.18031645933102747 0.079764382264319519 3.0813947244894298e-06 -0.37955429743242058 0.041019468128930363 2.6452926383436951e-06 -0.28810582039570787 0.046660616727269982 9.6771683039611424e-07 -0.18450286744293479 0.079764382264319519 3.0813947244894298e-06 -0.37955429743242058 0.078658422563229607 3.2123288513623153e-06 -0.575027737693666 0.041752655208073287 2.884515595231035e-06 -0.47738749530158897 0.054565952522798417 2.9429763912987164e-06 -0.46161706476649594 0.11093924966739162 2.1106828265233327e-06 -0.29735992769594866 0.1258241638725783 2.7548574110773318e-06 -0.4791785444913671 0.079764382264319519 3.0813947244894298e-06 -0.37955429743242058 0.1210645066741499 6.4067641298831598e-07 -0.50759256102054395 0.060027364711824086 7.0602977455126429e-07 -0.43203750923262058 0.12106450667414989 6.4067641298831598e-07 -0.50759256102054384 0.086828149731094165 8.167334741851067e-07 -0.28772676920361895 0.054565952522798424 2.9429763912987155e-06 -0.46161706476649589 0.086828149731094165 8.1673347418510638e-07 -0.28772676920361895 0.12109524713257878 4.437965036284001e-07 -0.47916176081119372 0.060027364711824086 7.0602977455126429e-07 -0.43203750923262058 0.12113829682573163 -2.3614698327199879e-07 -0.23923205189574898 0.086828149731094165 8.1673347418510638e-07 -0.28772676920361895 0.060027364711824086 7.0602977455126429e-07 -0.43203750923262058 0.12109524713257877 4.4379650362839978e-07 -0.4791617608111936 0.1210645066741499 6.4067641298831608e-07 -0.50759256102054395 0.086828149731094165 8.1673347418510638e-07 -0.28772676920361895 0.12113829682573164 -2.3614698327199853e-07 -0.23923205189574906 0.060027364711824079 7.0602977455126419e-07 -0.43203750923262052 0.054134317643913743 -1.7210976715397145e-07 -0.21407747536153543 0.086828149731094165 8.1673347418510638e-07 -0.28772676920361895 0.078576906214545092 2.2488226600460781e-07 -1.5873336083684027e-05 0.12113829682573164 -2.3614698327199853e-07 -0.23923205189574906 0.054134317643913743 -1.7210976715397145e-07 -0.21407747536153543 0.075231858488967088 2.1546695286790854e-07 -1.4134239729699535e-05 0.078576906214545092 2.2488226600460781e-07 -1.5873336083684027e-05 0.11054257679849104 3.161098413828906e-08 -1.0762458069153995e-05 0.086828149731094165 8.1673347418510659e-07 -0.287726769203619 0.078576906214545092 2.2488226600460781e-07 -1.5873336083684027e-05 0.054134317643913757 -1.7210976715397132e-07 -0.21407747536153543 0.086828149731094165 8.1673347418510628e-07 -0.287726769203619 0.046660616727269982 9.6771683039611424e-07 -0.18450286744293479 0.078576906214545092 2.2488226600460781e-07 -1.5873336083684027e-05 0.11054257679849104 3.1610984138289093e-08 -1.0762458069158384e-05 0.086828149731094165 8.1673347418510638e-07 -0.28772676920361895 0.12113829682573164 -2.3614698327199853e-07 -0.23923205189574906 0.075231858488967088 2.1546695286790854e-07 -1.4134239729699535e-05 0.078576906214545092 2.2488226600460781e-07 -1.5873336083684027e-05 0.086828149731094165 8.1673347418510628e-07 -0.28772676920361895 0.046660616727269982 9.6771683039611424e-07 -0.18450286744293479 0.11054257679849104 3.161098413828906e-08 -1.0762458069153995e-05 0.075231858488967088 2.1546695286790857e-07 -1.4134239729700003e-05 0.086828149731094165 8.1673347418510638e-07 -0.28772676920361895 0.12803068581260613 1.6242538292561074e-06 -0.19961717305518994 0.086828149731094165 8.1673347418510638e-07 -0.28772676920361895 0.12113829682573164 -2.3614698327199853e-07 -0.23923205189574906 0.11054257679849104 3.161098413828906e-08 -1.0762458069153995e-05 0.12803068581260613 1.6242538292561076e-06 -0.19961717305518994 0.041729965051753172 -1.2515047685583842e-07 -1.4304435806520704e-05 0.079735159320306739 -2.3262654662799549e-06 -1.5135154884829458e-05 0.078576906214545092 2.2488226600460781e-07 -1.5873336083684027e-05 0.054134317643913743 -1.7210976715397145e-07 -0.21407747536153543 0.078576906214545092 2.2488226600460781e-07 -1.5873336083684027e-05 0.125766218613582 -1.8976808236249367e-07 -1.4052465277840534e-05 0.11054257679849104 3.161098413828906e-08 -1.0762458069153995e-05 0.12113829682573164 -2.3614698327199853e-07 -0.23923205189574906 0.17583243782347105 2.4396180786110966e-06 -9.0122741607370503e-06 0.16561137383038008 8.0579818550018816e-07 -0.29810423083794724 0.14503348944936109 7.7961050971980248e-07 -1.0725074678369111e-05 0.18788427743250768 2.4617923339386237e-08 -0.20877931967353583 0.1656113738303801 8.0579818550019017e-07 -0.29810423083794724 0.12113829682573163 -2.3614698327199871e-07 -0.23923205189574909 0.14503348944936109 7.7961050971980238e-07 -1.0725074678361432e-05 0.18788427743250766 2.4617923339384467e-08 -0.2087793196735358 0.14503348944936109 7.7961050971980248e-07 -1.0725074678369111e-05 0.11054257679849104 3.1610984138289073e-08 -1.0762458069161452e-05 0.12113829682573163 -2.3614698327199839e-07 -0.23923205189574909 0.12803068581260613 1.624253829256108e-06 -0.19961717305519 0.125766218613582 -1.8976808236249367e-07 -1.4052465277840534e-05 0.16282491161603591 -1.2290058589789959e-06 -1.1066735101897228e-05 0.14503348944936109 7.7961050971980248e-07 -1.0725074678369111e-05 0.12113829682573164 -2.3614698327199853e-07 -0.23923205189574906 0.14503348944936109 7.7961050971980248e-07 -1.0725074678369111e-05 0.12113829682573163 -2.361469832719985e-07 -0.23923205189574906 0.1656113738303801 8.0579818550018996e-07 -0.29810423083794724 0.12803068581260607 1.6242538292561078e-06 -0.19961717305518997 0.14503348944936109 7.7961050971980248e-07 -1.0725074678369111e-05 0.12113829682573161 -2.3614698327199874e-07 -0.23923205189574906 0.16282491161603591 -1.2290058589789959e-06 -1.1066735101897228e-05 0.18788427743250763 2.4617923339384047e-08 -0.20877931967353577 0.14503348944936109 7.7961050971980248e-07 -1.0725074678369111e-05 0.12803068581260613 1.624253829256111e-06 -0.19961717305518992 0.1656113738303801 8.0579818550018985e-07 -0.29810423083794724 0.19718506434437494 5.2239534632500921e-06 -0.17722866536552209 0.14503348944936109 7.7961050971980248e-07 -1.0725074678369111e-05 0.11054257679849104 3.1610984138289066e-08 -1.0762458069160654e-05 0.125766218613582 -1.8976808236249367e-07 -1.4052465277840534e-05 0.12113829682573164 -2.3614698327199853e-07 -0.23923205189574906 0.14503348944936109 7.7961050971980248e-07 -1.0725074678369111e-05 0.1656113738303801 8.0579818550019017e-07 -0.29810423083794724 0.17583243782347105 2.4396180786110966e-06 -9.0122741607370503e-06 0.19718506434437494 5.2239534632500913e-06 -0.17722866536552209 0.11054257679849104 3.161098413828906e-08 -1.0762458069153995e-05 0.14503348944936109 7.7961050971980259e-07 -1.0725074678367643e-05 0.12296405698024171 2.4374639354150695e-06 -1.3712384322934696e-05 0.1280306858126061 1.6242538292561078e-06 -0.19961717305518992 0.14503348944936109 7.7961050971980248e-07 -1.0725074678369111e-05 0.17583243782347105 2.439618078611097e-06 -9.012274160732185e-06 0.17058498508181993 6.4541672978081239e-06 -1.3758269376051712e-05 0.19718506434437494 5.2239534632500913e-06 -0.17722866536552209 0.17583243782347105 2.4396180786110966e-06 -9.0122741607370503e-06 0.14503348944936109 7.7961050971980248e-07 -1.0725074678368856e-05 0.16282491161603591 -1.2290058589789959e-06 -1.1066735101889589e-05 0.18788427743250766 2.4617923339384431e-08 -0.2087793196735358 0.1656113738303801 8.0579818550019017e-07 -0.29810423083794724 0.12113829682573164 -2.3614698327199837e-07 -0.23923205189574898 0.086828149731094165 8.1673347418510638e-07 -0.28772676920361895 0.1280306858126061 1.6242538292561074e-06 -0.19961717305518994 0.1656113738303801 8.0579818550019017e-07 -0.29810423083794724 0.086828149731094151 8.1673347418510638e-07 -0.28772676920361889 0.12109524713257877 4.4379650362839978e-07 -0.47916176081119366 0.1210645066741499 6.4067641298831598e-07 -0.50759256102054395 0.12109524713257877 4.4379650362839978e-07 -0.47916176081119366 0.086828149731094165 8.1673347418510649e-07 -0.287726769203619 0.1656113738303801 8.0579818550019017e-07 -0.29810423083794724 0.12113829682573167 -2.3614698327199884e-07 -0.23923205189574909 0.12109524713257877 4.4379650362839978e-07 -0.47916176081119366 0.1656113738303801 8.0579818550019017e-07 -0.29810423083794724 0.18154383515722733 -5.878902529191647e-07 -0.47782469158651308 0.12113829682573167 -2.3614698327199916e-07 -0.23923205189574909 0.1656113738303801 8.0579818550019017e-07 -0.29810423083794724 0.1210645066741499 6.4067641298831598e-07 -0.50759256102054395 0.18154383515722733 -5.878902529191647e-07 -0.47782469158651308 0.18712845891779253 3.5416279715640605e-06 -0.4777629094909599 0.18154383515722733 -5.878902529191647e-07 -0.47782469158651308 0.12113829682573164 -2.36146983271999e-07 -0.23923205189574917 0.1656113738303801 8.0579818550019028e-07 -0.29810423083794718 0.18788427743250768 2.4617923339384487e-08 -0.2087793196735358 0.086828149731094165 8.1673347418510638e-07 -0.28772676920361895 0.1210645066741499 6.4067641298831598e-07 -0.50759256102054395 0.1656113738303801 8.0579818550019017e-07 -0.29810423083794724 0.12803068581260613 1.6242538292561076e-06 -0.19961717305518994 0.12109524713257877 4.4379650362839978e-07 -0.47916176081119366 0.1815438351572273 -5.8789025291916502e-07 -0.47782469158651314 0.1656113738303801 8.0579818550019017e-07 -0.29810423083794724 0.1210645066741499 6.4067641298831598e-07 -0.50759256102054395 0.1656113738303801 8.0579818550019017e-07 -0.29810423083794724 0.12803068581260613 1.6242538292561074e-06 -0.19961717305518994 0.14777995145842163 2.9199139778674731e-06 -0.3175399775340032 0.19718506434437494 5.2239534632500913e-06 -0.17722866536552209 0.14777995145842163 2.9199139778674731e-06 -0.3175399775340032 0.1210645066741499 6.4067641298831619e-07 -0.50759256102054384 0.1656113738303801 8.0579818550019017e-07 -0.29810423083794724 0.18712845891779253 3.5416279715640605e-06 -0.4777629094909599 0.14777995145842163 2.9199139778674731e-06 -0.3175399775340032 0.16514259358204131 3.2277593962860256e-06 -0.50147128883885139 0.12106450667414993 6.4067641298831714e-07 -0.50759256102054395 0.18712845891779253 3.5416279715640605e-06 -0.4777629094909599 0.20002400671424123 3.2080679910591359e-06 -0.30116358996883769 0.16561137383038008 8.0579818550018943e-07 -0.29810423083794724 0.14777995145842163 2.9199139778674718e-06 -0.3175399775340032 0.19718506434437494 5.2239534632500879e-06 -0.17722866536552223 0.11093924966739162 2.1106828265233327e-06 -0.29735992769594866 0.14777995145842163 2.9199139778674731e-06 -0.3175399775340032 0.1210645066741499 6.4067641298831598e-07 -0.50759256102054395 0.12803068581260613 1.6242538292561076e-06 -0.19961717305518994 0.14777995145842163 2.9199139778674731e-06 -0.3175399775340032 0.16561137383038013 8.0579818550019081e-07 -0.29810423083794729 0.20002400671424123 3.2080679910591359e-06 -0.30116358996883769 0.18712845891779253 3.5416279715640605e-06 -0.4777629094909599 0.1656113738303801 8.0579818550019017e-07 -0.29810423083794724 0.12106450667414992 6.4067641298831598e-07 -0.50759256102054395 0.14777995145842163 2.9199139778674731e-06 -0.3175399775340032 0.12803068581260613 1.6242538292561076e-06 -0.19961717305518997 0.14777995145842163 2.9199139778674731e-06 -0.3175399775340032 0.16514259358204131 3.2277593962860256e-06 -0.5014712888388515 0.1258241638725783 2.7548574110773318e-06 -0.4791785444913671 0.1210645066741499 6.4067641298831598e-07 -0.50759256102054395 0.1258241638725783 2.7548574110773318e-06 -0.4791785444913671 0.11093924966739162 2.1106828265233327e-06 -0.29735992769594866 0.14777995145842163 2.9199139778674731e-06 -0.3175399775340032 0.1210645066741499 6.4067641298831555e-07 -0.50759256102054395 0.16514259358204131 3.2277593962860256e-06 -0.5014712888388515 0.1477799514584216 2.9199139778674727e-06 -0.3175399775340032 0.20002400671424123 3.2080679910591359e-06 -0.30116358996883769 0.18712845891779253 3.5416279715640605e-06 -0.4777629094909599 0.12375672077299725 2.6047421551871773e-06 -0.15689783656610404 0.14777995145842163 2.9199139778674731e-06 -0.3175399775340032 0.11093924966739162 2.1106828265233327e-06 -0.29735992769594866 0.12803068581260613 1.6242538292561078e-06 -0.19961717305518994 0.12375672077299725 2.6047421551871773e-06 -0.15689783656610404 0.16926655948918967 2.6345995577649823e-06 -0.16238315182380605 0.14777995145842163 2.9199139778674731e-06 -0.3175399775340032 0.12803068581260613 1.6242538292561078e-06 -0.19961717305518994 0.16926655948918967 2.6345995577649823e-06 -0.16238315182380605 0.14777995145842163 2.9199139778674731e-06 -0.3175399775340032 0.12803068581260613 1.6242538292561082e-06 -0.19961717305518997 0.19718506434437494 5.2239534632500904e-06 -0.17722866536552206 0.16926655948918967 2.6345995577649823e-06 -0.16238315182380605 0.12803068581260615 1.6242538292561076e-06 -0.19961717305518994 0.17058498508181993 6.4541672978081247e-06 -1.3758269376053237e-05 0.19718506434437491 5.2239534632500921e-06 -0.17722866536552201 0.16926655948918967 2.6345995577649823e-06 -0.16238315182380605 0.12375672077299725 2.6047421551871773e-06 -0.15689783656610404 0.12296405698024174 2.4374639354150704e-06 -1.3712384322847959e-05 0.12803068581260613 1.624253829256108e-06 -0.19961717305518989 0.14503348944936109 7.7961050971980248e-07 -1.0725074678369111e-05 0.17058498508181993 6.4541672978081239e-06 -1.3758269376051712e-05 0.12803068581260613 1.6242538292561078e-06 -0.19961717305519 0.19718506434437494 5.2239534632500904e-06 -0.17722866536552212 0.14516692366542652 3.1322425903998982e-06 -1.7430445997069707e-05 0.16926655948918967 2.6345995577649823e-06 -0.16238315182380605 0.12375672077299725 2.6047421551871773e-06 -0.15689783656610404 0.12296405698024171 2.4374639354150695e-06 -1.3712384322918733e-05 0.12375672077299725 2.6047421551871773e-06 -0.15689783656610404 0.096847192832037743 3.5407134836405248e-06 -1.6748428488086388e-05 0.14516692366542652 3.1322425903998982e-06 -1.7430445997069707e-05 0.12296405698024171 2.4374639354150695e-06 -1.3712384322918733e-05 0.12296405698024171 2.4374639354150695e-06 -1.3712384322918733e-05 0.14503348944936109 7.7961050971980301e-07 -1.0725074678369371e-05 0.17058498508181993 6.4541672978081239e-06 -1.3758269376051712e-05 0.12803068581260613 1.6242538292561076e-06 -0.19961717305518994 0.16926655948918967 2.6345995577649823e-06 -0.16238315182380605 0.12296405698024171 2.4374639354150687e-06 -1.3712384322850747e-05 0.17058498508181993 6.4541672978081247e-06 -1.3758269376025957e-05 0.12803068581260613 1.6242538292561065e-06 -0.19961717305518989 0.14516692366542652 3.1322425903998982e-06 -1.7430445997069707e-05 0.19336418793999152 2.6830049990584669e-06 -1.4300572385048982e-05 0.16926655948918967 2.6345995577649823e-06 -0.16238315182380605 0.17058498508181993 6.4541672978081239e-06 -1.3758269376051712e-05 0.12296405698024171 2.4374639354150695e-06 -1.3712384322918733e-05 0.14516692366542652 3.1322425903998982e-06 -1.7430445997069707e-05 0.16926655948918967 2.6345995577649806e-06 -0.16238315182380617 0.17058498508181993 6.4541672978081239e-06 -1.3758269376051712e-05 0.16926655948918967 2.6345995577649823e-06 -0.16238315182380605 0.20002400671424123 3.2080679910591359e-06 -0.30116358996883769 0.14777995145842163 2.9199139778674731e-06 -0.3175399775340032 0.19718506434437497 5.2239534632500904e-06 -0.17722866536552212 0.20002400671424123 3.2080679910591359e-06 -0.30116358996883769 0.16926655948918967 2.6345995577649823e-06 -0.16238315182380605 0.20625795064103397 1.9720900758579154e-06 -0.14039864725227752 0.19718506434437494 5.2239534632500904e-06 -0.17722866536552206 0.16926655948918967 2.6345995577649823e-06 -0.16238315182380605 0.20625176337956766 4.3531322245200535e-06 -9.7258966438642973e-06 0.20625795064103397 1.9720900758579154e-06 -0.14039864725227752 0.19718506434437494 5.2239534632500904e-06 -0.17722866536552201 0.20625795064103397 1.9720900758579154e-06 -0.14039864725227752 0.24142112378429278 1.5294960022113542e-06 -0.14043154221929161 0.20002400671424123 3.2080679910591359e-06 -0.30116358996883769 0.19718506434437494 5.2239534632500913e-06 -0.17722866536552206 0.20625176337956766 4.3531322245200535e-06 -9.7258966438252084e-06 0.20625795064103397 1.9720900758579154e-06 -0.14039864725227752 0.19336418793999152 2.6830049990584669e-06 -1.4300572385048982e-05 0.16926655948918967 2.6345995577649823e-06 -0.16238315182380605 0.16926655948918967 2.6345995577649823e-06 -0.16238315182380605 0.19336418793999152 2.6830049990584665e-06 -1.4300572385048062e-05 0.20625176337956766 4.3531322245200535e-06 -9.7258966438252084e-06 0.17058498508181993 6.4541672978081239e-06 -1.3758269376051712e-05 0.20625176337956766 4.3531322245200535e-06 -9.7258966438252084e-06 0.17058498508181993 6.4541672978081239e-06 -1.3758269376053638e-05 0.20579896520849653 5.7278642091938434e-06 -1.0964107547807286e-05 0.19718506434437494 5.2239534632500913e-06 -0.17722866536552206 0.16926655948918967 2.6345995577649823e-06 -0.16238315182380605 0.17058498508181996 6.4541672978081222e-06 -1.3758269376109361e-05 0.20625176337956766 4.3531322245200535e-06 -9.7258966438464622e-06 0.19718506434437494 5.2239534632500913e-06 -0.17722866536552201 0.24142112378429278 1.529496002211354e-06 -0.14043154221929158 0.2414227227974603 -7.2529360705189481e-07 -0.15247388969464018 0.2414655988407193 -5.1801497529559129e-06 -0.29798012696406556 0.19718506434437494 5.2239534632500913e-06 -0.17722866536552209 0.20002400671424123 3.2080679910591359e-06 -0.30116358996883769 0.24142112378429278 1.5294960022113534e-06 -0.14043154221929158 0.2414655988407193 -5.1801497529559129e-06 -0.29798012696406556 0.19718506434437497 5.2239534632500896e-06 -0.17722866536552212 0.24142112378429278 1.529496002211354e-06 -0.14043154221929158 0.20625176337956766 4.3531322245200535e-06 -9.7258966438252084e-06 0.24140571605204408 -3.8105411130997888e-07 -1.2728122532332141e-05 0.19718506434437494 5.2239534632500913e-06 -0.17722866536552209 0.24140571605204408 -3.8105411130997888e-07 -1.2728122532332141e-05 0.19718506434437497 5.2239534632500896e-06 -0.17722866536552206 0.2414227227974603 -7.252936070518946e-07 -0.15247388969464018 0.24142112378429278 1.529496002211354e-06 -0.14043154221929158 0.20625176337956766 4.3531322245200535e-06 -9.7258966438252084e-06 0.24142112378429278 1.5294960022113538e-06 -0.14043154221929161 0.20625795064103397 1.972090075857915e-06 -0.14039864725227752 0.19718506434437494 5.2239534632500913e-06 -0.17722866536552206 0.20625176337956766 4.3531322245200535e-06 -9.7258966438252084e-06 0.20579896520849655 5.7278642091938442e-06 -1.0964107547798289e-05 0.24140571605204408 -3.8105411130997893e-07 -1.2728122532327642e-05 0.19718506434437494 5.2239534632500921e-06 -0.17722866536552206 0.24142112378429278 1.529496002211354e-06 -0.14043154221929158 0.20625795064103397 1.972090075857915e-06 -0.14039864725227752 0.24140417076438073 2.9308233476064202e-06 -1.4712673514852475e-05 0.20625176337956766 4.3531322245200535e-06 -9.7258966438252084e-06 0.24140763118397479 2.7399931067027449e-06 -0.1918180045302546 0.20625795064103397 1.9720900758579154e-06 -0.14039864725227752 0.24140417076438073 2.9308233476064202e-06 -1.4712673514852475e-05 0.24142112378429278 1.529496002211354e-06 -0.14043154221929158 0.24140417076438073 2.9308233476064202e-06 -1.4712673514852475e-05 0.24142112378429278 1.529496002211354e-06 -0.14043154221929158 0.20625176337956766 4.3531322245200535e-06 -9.7258966438252084e-06 0.24140571605204408 -3.8105411130997888e-07 -1.2728122532332141e-05 0.19336418793999152 2.6830049990584669e-06 -1.4300572385048982e-05 0.24140417076438073 2.9308233476064202e-06 -1.4712673514852475e-05 0.20625795064103397 1.9720900758579154e-06 -0.14039864725227752 0.20625176337956766 4.3531322245200535e-06 -9.7258966438252084e-06 0.20002400671424123 3.2080679910591359e-06 -0.30116358996883769 0.20625795064103397 1.9720900758579154e-06 -0.14039864725227752 0.24140763118397479 2.7399931067027449e-06 -0.1918180045302546 0.24142112378429278 1.529496002211354e-06 -0.14043154221929158 0.24140763118397479 2.7399931067027449e-06 -0.1918180045302546 0.2414655988407193 -5.1801497529559129e-06 -0.29798012696406556 0.2000240067142412 3.2080679910591363e-06 -0.30116358996883763 0.24142112378429278 1.529496002211354e-06 -0.14043154221929158 0.24146730518286708 2.5772612659585388e-06 -0.38364692865307054 0.2414655988407193 -5.1801497529559129e-06 -0.29798012696406556 0.20002400671424123 3.2080679910591359e-06 -0.30116358996883763 0.24140763118397479 2.7399931067027449e-06 -0.1918180045302546 0.20002400671424123 3.2080679910591359e-06 -0.30116358996883769 0.18712845891779251 3.5416279715640617e-06 -0.4777629094909599 0.1656113738303801 8.0579818550019017e-07 -0.29810423083794724 0.19718506434437488 5.2239534632500854e-06 -0.17722866536552209 0.2414655988407193 -5.1801497529559129e-06 -0.29798012696406556 0.18712845891779251 3.5416279715640596e-06 -0.4777629094909599 0.20002400671424123 3.2080679910591359e-06 -0.30116358996883769 0.19718506434437494 5.223953463250093e-06 -0.17722866536552201 0.2414655988407193 -5.1801497529559129e-06 -0.29798012696406556 0.1656113738303801 8.0579818550017355e-07 -0.29810423083794718 0.18712845891779256 3.5416279715640541e-06 -0.47776290949095995 0.19718506434437494 5.2239534632500887e-06 -0.17722866536552206 0.2414655988407193 -5.1801497529559129e-06 -0.29798012696406556 0.20973291366348504 2.6020701923536268e-06 -0.48531971031212051 0.20002400671424123 3.2080679910591359e-06 -0.30116358996883769 0.18712845891779253 3.5416279715640605e-06 -0.4777629094909599 0.16514259358204131 3.2277593962860256e-06 -0.5014712888388515 0.20002400671424123 3.2080679910591359e-06 -0.30116358996883769 0.20973291366348501 2.6020701923536298e-06 -0.48531971031212046 0.18712845891779253 3.5416279715640605e-06 -0.4777629094909599 0.20973291366348501 2.6020701923536298e-06 -0.48531971031212046 0.24146730518286708 2.5772612659585392e-06 -0.38364692865307054 0.2414655988407193 -5.1801497529559129e-06 -0.29798012696406556 0.20002400671424123 3.2080679910591359e-06 -0.30116358996883769 0.24146730518286708 2.5772612659585388e-06 -0.38364692865307054 0.24152476848348867 -3.5989879353480634e-06 -0.48729627978194517 0.20973291366348501 2.6020701923536298e-06 -0.48531971031212046 0.2414655988407193 -5.1801497529559129e-06 -0.29798012696406556 0.2414655988407193 -5.1801497529559129e-06 -0.29798012696406556 0.24152476848348867 -3.5989879353480634e-06 -0.48729627978194517 0.20973291366348501 2.6020701923536298e-06 -0.48531971031212046 0.18712845891779253 3.5416279715640605e-06 -0.4777629094909599 0.2414655988407193 -5.1801497529559129e-06 -0.29798012696406556 0.2415123552153855 4.5705914170582526e-06 -0.43941562075088764 0.24152476848348867 -3.5989879353480634e-06 -0.48729627978194517 0.18712845891779253 3.5416279715640605e-06 -0.4777629094909599 0.24146263221519748 1.258480028366175e-06 -0.31580051491724376 0.18154383515722733 -5.878902529191647e-07 -0.47782469158651303 0.24146160791428439 7.2390295223276304e-07 -0.31120372099398075 0.18788427743250766 2.4617923339384431e-08 -0.2087793196735358 0.24151235521538547 4.5705914170582509e-06 -0.43941562075088758 0.1656113738303801 8.0579818550019017e-07 -0.29810423083794724 0.24146160791428442 7.2390295223276304e-07 -0.31120372099398075 0.18154383515722733 -5.878902529191647e-07 -0.47782469158651308 0.2414655988407193 -5.1801497529559129e-06 -0.29798012696406556 0.16561137383038013 8.0579818550019123e-07 -0.29810423083794718 0.24151235521538547 4.57059141705825e-06 -0.43941562075088758 0.18712845891779253 3.5416279715640605e-06 -0.4777629094909599 0.24151235521538547 4.5705914170582509e-06 -0.43941562075088758 0.1656113738303801 8.0579818550019017e-07 -0.29810423083794724 0.18154383515722736 -5.8789025291916407e-07 -0.47782469158651314 0.18712845891779248 3.5416279715640596e-06 -0.4777629094909599 0.24151235521538547 4.5705914170582509e-06 -0.43941562075088758 0.2414655988407193 -5.1801497529559129e-06 -0.29798012696406556 0.24146160791428442 7.2390295223276304e-07 -0.31120372099398075 0.1656113738303801 8.0579818550019017e-07 -0.29810423083794724 0.1656113738303801 8.0579818550019017e-07 -0.29810423083794724 0.24146160791428439 7.2390295223276283e-07 -0.31120372099398075 0.18154383515722733 -5.878902529191647e-07 -0.47782469158651308 0.18788427743250766 2.4617923339384418e-08 -0.20877931967353577 0.2414655988407193 -5.1801497529559129e-06 -0.29798012696406556 0.24146160791428442 7.2390295223276347e-07 -0.31120372099398075 0.16561137383038008 8.0579818550018668e-07 -0.29810423083794729 0.19718506434437494 5.2239534632500913e-06 -0.17722866536552209 0.24146160791428442 7.2390295223276304e-07 -0.31120372099398075 0.18788427743250766 2.4617923339384431e-08 -0.2087793196735358 0.16561137383038013 8.0579818550018837e-07 -0.29810423083794735 0.19718506434437494 5.2239534632500887e-06 -0.17722866536552215 0.24151622986124935 2.6188611657207015e-06 -0.49839905763101411 0.24151235521538547 4.5705914170582509e-06 -0.43941562075088758 0.24146160791428442 7.2390295223276304e-07 -0.31120372099398075 0.18154383515722733 -5.878902529191647e-07 -0.47782469158651308 0.24146263221519748 1.258480028366175e-06 -0.31580051491724376 0.24151622986124935 2.6188611657207015e-06 -0.49839905763101411 0.24146160791428442 7.2390295223276304e-07 -0.31120372099398075 0.18154383515722738 -5.8789025291916407e-07 -0.47782469158651308 0.20344334980469941 4.6611954693622065e-06 -1.2545350991014042e-05 0.24141227813601648 3.3008169637568818e-08 -0.16521679643036091 0.2414227227974603 -7.2529360705189449e-07 -0.15247388969464018 0.18788427743250766 2.4617923339384431e-08 -0.2087793196735358 0.2414227227974603 -7.2529360705189449e-07 -0.15247388969464018 0.20579896520849658 5.7278642091938434e-06 -1.0964107547854811e-05 0.18788427743250766 2.4617923339384179e-08 -0.20877931967353583 0.19718506434437494 5.2239534632500913e-06 -0.17722866536552209 0.2414227227974603 -7.2529360705189449e-07 -0.15247388969464018 0.18788427743250766 2.4617923339383283e-08 -0.2087793196735358 0.24146160791428442 7.2390295223276304e-07 -0.31120372099398075 0.19718506434437494 5.2239534632500913e-06 -0.17722866536552209 0.2414227227974603 -7.2529360705189449e-07 -0.15247388969464018 0.24141227813601648 3.3008169637568295e-08 -0.16521679643036086 0.24146160791428442 7.2390295223276304e-07 -0.31120372099398075 0.18788427743250763 2.4617923339384371e-08 -0.20877931967353583 0.17583243782347105 2.4396180786110966e-06 -9.0122741607370503e-06 0.18788427743250766 2.4617923339384514e-08 -0.2087793196735358 0.20579896520849653 5.7278642091938442e-06 -1.09641075478073e-05 0.19718506434437494 5.2239534632500913e-06 -0.17722866536552209 0.17583243782347105 2.4396180786110966e-06 -9.0122741607370503e-06 0.1656113738303801 8.0579818550018996e-07 -0.29810423083794724 0.18788427743250763 2.4617923339383121e-08 -0.2087793196735358 0.19718506434437494 5.2239534632500913e-06 -0.17722866536552209 0.2414655988407193 -5.1801497529559129e-06 -0.29798012696406556 0.2414227227974603 -7.2529360705189449e-07 -0.15247388969464018 0.24146160791428442 7.2390295223276304e-07 -0.31120372099398075 0.19718506434437494 5.2239534632500913e-06 -0.17722866536552209 0.17583243782347105 2.4396180786110966e-06 -9.0122741607370503e-06 0.16282491161603591 -1.2290058589789959e-06 -1.1066735101891896e-05 0.20344334980469941 4.6611954693622065e-06 -1.2545350991021681e-05 0.18788427743250766 2.4617923339384431e-08 -0.2087793196735358 0.20344334980469941 4.6611954693622065e-06 -1.2545350991014042e-05 0.24142272279746033 -7.2529360705189523e-07 -0.15247388969464015 0.20579896520849655 5.7278642091938442e-06 -1.0964107547798289e-05 0.18788427743250766 2.4617923339384431e-08 -0.2087793196735358 0.17583243782347105 2.4396180786110966e-06 -9.0122741607370503e-06 0.20344334980469941 4.6611954693622065e-06 -1.2545350991015335e-05 0.20579896520849655 5.7278642091938442e-06 -1.0964107547794469e-05 0.18788427743250766 2.4617923339384431e-08 -0.2087793196735358 0.17058498508181993 6.4541672978081239e-06 -1.3758269376051712e-05 0.17583243782347105 2.4396180786110966e-06 -9.0122741607370503e-06 0.20579896520849655 5.7278642091938442e-06 -1.0964107547807288e-05 0.19718506434437494 5.2239534632500896e-06 -0.17722866536552212 0.2414227227974603 -7.2529360705189449e-07 -0.15247388969464018 0.20579896520849658 5.7278642091938426e-06 -1.0964107547780992e-05 0.24140571605204408 -3.8105411130997888e-07 -1.2728122532333708e-05 0.24139382851387084 -1.613509993248578e-08 -1.4189722944528394e-05 0.2414227227974603 -7.2529360705189449e-07 -0.15247388969464018 0.19718506434437491 5.2239534632500913e-06 -0.17722866536552209 0.24140571605204408 -3.8105411130997888e-07 -1.2728122532332141e-05 0.20579896520849658 5.7278642091938434e-06 -1.0964107547824274e-05 0.20344334980469941 4.6611954693622065e-06 -1.2545350991014042e-05 0.20579896520849655 5.7278642091938442e-06 -1.0964107547798289e-05 0.2414227227974603 -7.2529360705189449e-07 -0.15247388969464018 0.24139382851387084 -1.613509993248578e-08 -1.4189722944528394e-05 0.24139382851387084 -1.613509993248578e-08 -1.4189722944528394e-05 0.2414227227974603 -7.2529360705189449e-07 -0.15247388969464018 0.20344334980469941 4.6611954693622065e-06 -1.2545350991014042e-05 0.24141227813601648 3.3008169637568321e-08 -0.16521679643036091 0.24139029807242612 2.9063035568014912e-06 -1.7234177831084972e-05 0.24139382851387084 -1.6135099932486025e-08 -1.4189722944528394e-05 0.20344334980469941 4.6611954693622065e-06 -1.2545350991014042e-05 0.24141227813601648 3.3008169637568321e-08 -0.16521679643036091 0.19538644718502268 -1.9878829059399937e-06 -1.5116789270998311e-05 0.20625256303164397 -2.4006576401216363e-06 -1.0679990800348878e-05 0.24142817915922987 -2.9512914435956987e-07 -0.16238145843081919 0.16638010065939385 -1.2597920624679844e-06 -0.30070847915018512 0.19538644718502268 -1.9878829059399937e-06 -1.5116789270998311e-05 0.2413902980724261 2.9063035568014886e-06 -1.7234177831130482e-05 0.20344334980469941 4.6611954693622056e-06 -1.2545350991022775e-05 0.24141227813601648 3.3008169637568321e-08 -0.16521679643036091 0.24139029807242612 2.9063035568014912e-06 -1.7234177831084972e-05 0.19538644718502268 -1.9878829059399937e-06 -1.5116789270998311e-05 0.2414281791592299 -2.9512914435956939e-07 -0.16238145843081919 0.24141227813601648 3.3008169637568321e-08 -0.16521679643036091 0.19538644718502268 -1.9878829059399937e-06 -1.5116789270998311e-05 0.16638010065939388 -1.2597920624679851e-06 -0.30070847915018517 0.24142817915922987 -2.9512914435956971e-07 -0.16238145843081916 0.18788427743250768 2.4617923339384749e-08 -0.20877931967353577 0.20344334980469941 4.6611954693622065e-06 -1.2545350991014042e-05 0.16282491161603591 -1.2290058589789955e-06 -1.1066735101897031e-05 0.19538644718502268 -1.9878829059399937e-06 -1.5116789270998311e-05 0.18788427743250766 2.4617923339384431e-08 -0.2087793196735358 0.20344334980469941 4.6611954693622065e-06 -1.2545350991014042e-05 0.19538644718502268 -1.9878829059399937e-06 -1.5116789270998311e-05 0.24141227813601648 3.3008169637567686e-08 -0.16521679643036091 0.18788427743250766 2.4617923339384431e-08 -0.2087793196735358 0.19538644718502268 -1.9878829059399937e-06 -1.5116789270998311e-05 0.2414281791592299 -2.9512914435956982e-07 -0.16238145843081914 0.24141227813601648 3.3008169637568321e-08 -0.16521679643036091 0.18788427743250766 2.4617923339384431e-08 -0.2087793196735358 0.2414281791592299 -2.9512914435956939e-07 -0.16238145843081919 0.24146263221519748 1.258480028366175e-06 -0.31580051491724376 0.24141227813601651 3.300816963756846e-08 -0.16521679643036091 0.18788427743250766 2.4617923339384163e-08 -0.20877931967353583 0.2414281791592299 -2.9512914435956939e-07 -0.16238145843081919 0.19538644718502271 -1.9878829059399912e-06 -1.5116789271000418e-05 0.24139029807242612 2.9063035568014912e-06 -1.7234177831084972e-05 0.24140299480194682 4.6573274376499722e-06 -1.4716178319162876e-05 0.2414281791592299 -2.9512914435956939e-07 -0.16238145843081919 0.19538644718502265 -1.9878829059399954e-06 -1.5116789271042471e-05 0.24140299480194682 4.6573274376499722e-06 -1.4716178319162876e-05 0.20625256303164397 -2.4006576401216363e-06 -1.0679990800348878e-05 0.24140299480194682 4.6573274376499722e-06 -1.4716178319162876e-05 0.24143880885150182 4.4841669967749626e-06 -0.14044019712984915 0.2414281791592299 -2.9512914435956907e-07 -0.16238145843081919 0.20625256303164397 -2.4006576401216363e-06 -1.0679990800348878e-05 0.20075841049631635 -2.6276781207758183e-06 -0.28784209172891972 0.20627126993090095 -1.9796119310559565e-06 -0.14040019610102217 0.16589925238876704 -3.1815380137501549e-06 -0.16535878799935891 0.16638010065939388 -1.2597920624679851e-06 -0.30070847915018517 0.19538644718502268 -1.9878829059399937e-06 -1.5116789270998311e-05 0.16779144907589041 -3.4016295815494591e-06 -1.2943442932102076e-05 0.20625256303164397 -2.4006576401216363e-06 -1.0679990800348878e-05 0.16638010065939388 -1.2597920624679851e-06 -0.30070847915018512 0.24145790793386365 5.2949617429617988e-06 -0.30319274569957999 0.2414281791592299 -2.9512914435956939e-07 -0.16238145843081919 0.24143880885150182 4.4841669967749626e-06 -0.14044019712984915 0.16638010065939388 -1.2597920624679849e-06 -0.30070847915018517 0.24143880885150182 4.4841669967749626e-06 -0.14044019712984915 0.2414281791592299 -2.9512914435956929e-07 -0.16238145843081919 0.20625256303164399 -2.4006576401216354e-06 -1.0679990800368236e-05 0.1663801006593939 -1.2597920624679885e-06 -0.30070847915018506 0.24143880885150182 4.4841669967749626e-06 -0.14044019712984915 0.20627126993090095 -1.9796119310559565e-06 -0.14040019610102225 0.20075841049631632 -2.6276781207758209e-06 -0.28784209172891967 0.1663801006593939 -1.2597920624679829e-06 -0.30070847915018528 0.24143880885150182 4.4841669967749626e-06 -0.14044019712984915 0.20625256303164397 -2.4006576401216363e-06 -1.0679990800352857e-05 0.20627126993090095 -1.9796119310559565e-06 -0.14040019610102217 0.1663801006593939 -1.2597920624679844e-06 -0.30070847915018512 0.16779144907589041 -3.4016295815494591e-06 -1.2943442932107378e-05 0.20627126993090095 -1.9796119310559565e-06 -0.14040019610102217 0.20625256303164397 -2.4006576401216363e-06 -1.0679990800348878e-05 0.16638010065939388 -1.2597920624679849e-06 -0.30070847915018517 0.20627126993090095 -1.9796119310559565e-06 -0.14040019610102217 0.20075841049631635 -2.6276781207758183e-06 -0.28784209172891972 0.24141660625272263 -2.6684411464786406e-06 -0.1918178682570009 0.24143880885150182 4.4841669967749626e-06 -0.14044019712984915 0.20075841049631635 -2.6276781207758183e-06 -0.28784209172891972 0.24145790793386365 5.2949617429617988e-06 -0.30319274569957999 0.24141660625272263 -2.6684411464786406e-06 -0.1918178682570009 0.24143880885150182 4.4841669967749626e-06 -0.14044019712984915 0.20625256303164397 -2.4006576401216363e-06 -1.0679990800348878e-05 0.24141212913669968 -2.9256016126035295e-06 -1.4044029278364047e-05 0.20627126993090095 -1.9796119310559565e-06 -0.14040019610102217 0.19336831326004392 -2.7591688330168078e-06 -1.3083765624849711e-05 0.20627126993090095 -1.9796119310559565e-06 -0.14040019610102217 0.24141660625272263 -2.6684411464786406e-06 -0.1918178682570009 0.24141212913669968 -2.9256016126035287e-06 -1.404402927835036e-05 0.24143880885150182 4.4841669967749626e-06 -0.14044019712984915 0.24141212913669968 -2.9256016126035295e-06 -1.4044029278364047e-05 0.24143880885150182 4.4841669967749626e-06 -0.14044019712984915 0.24140299480194682 4.6573274376499722e-06 -1.4716178319151511e-05 0.20625256303164397 -2.4006576401216363e-06 -1.0679990800348878e-05 0.24143880885150182 4.4841669967749626e-06 -0.14044019712984915 0.24141212913669971 -2.9256016126035304e-06 -1.4044029278352679e-05 0.20627126993090095 -1.9796119310559565e-06 -0.14040019610102217 0.20625256303164397 -2.4006576401216363e-06 -1.0679990800348878e-05 0.16589925238876704 -3.1815380137501549e-06 -0.16535878799935891 0.16779144907589041 -3.4016295815494591e-06 -1.2943442932107378e-05 0.20627126993090095 -1.9796119310559569e-06 -0.14040019610102217 0.19336831326004392 -2.7591688330168078e-06 -1.3083765624849711e-05 0.20625256303164397 -2.4006576401216363e-06 -1.0679990800348878e-05 0.20627126993090095 -1.9796119310559565e-06 -0.14040019610102217 0.16779144907589041 -3.4016295815494595e-06 -1.2943442932113058e-05 0.19336831326004392 -2.7591688330168078e-06 -1.3083765624849711e-05 0.16589925238876704 -3.1815380137501549e-06 -0.16535878799935891 0.16638010065939393 -1.2597920624679842e-06 -0.30070847915018523 0.16779144907589039 -3.4016295815494586e-06 -1.2943442932084807e-05 0.12113982638209367 -2.1715693729983663e-06 -0.21643924141769172 0.16589925238876704 -3.1815380137501549e-06 -0.16535878799935891 0.20627126993090095 -1.9796119310559565e-06 -0.14040019610102217 0.16779144907589041 -3.4016295815494591e-06 -1.2943442932102901e-05 0.16638010065939385 -1.2597920624679838e-06 -0.30070847915018523 0.16779144907589041 -3.4016295815494591e-06 -1.2943442932107378e-05 0.16589925238876704 -3.1815380137501549e-06 -0.16535878799935888 0.14516756256376181 -2.6038089613208774e-06 -1.4775694302919101e-05 0.19336831326004392 -2.7591688330168078e-06 -1.3083765624849711e-05 0.11955162873671173 -2.6254982855708609e-06 -0.12686836966405865 0.096846723828711664 -2.8387729662903635e-06 -1.7608835330738521e-05 0.12335870178173106 -1.8469513286565759e-07 -1.2741953170499315e-05 0.14516756256376181 -2.6038089613208774e-06 -1.4775694302919101e-05 0.12335870178173106 -1.8469513286565759e-07 -1.2741953170499315e-05 0.16779144907589041 -3.4016295815494591e-06 -1.2943442932107378e-05 0.16589925238876704 -3.1815380137501549e-06 -0.16535878799935891 0.14516756256376181 -2.6038089613208774e-06 -1.4775694302919101e-05 0.16589925238876704 -3.1815380137501549e-06 -0.16535878799935891 0.11955162873671173 -2.6254982855708609e-06 -0.12686836966405865 0.12335870178173106 -1.8469513286565759e-07 -1.2741953170499315e-05 0.14516756256376181 -2.6038089613208774e-06 -1.4775694302919101e-05 0.11545154690738514 -3.2147651429023473e-06 -0.30417941870583359 0.16589925238876704 -3.1815380137501549e-06 -0.16535878799935894 0.11955162873671173 -2.6254982855708609e-06 -0.12686836966405865 0.12113982638209368 -2.1715693729983659e-06 -0.21643924141769175 0.11955162873671173 -2.6254982855708609e-06 -0.12686836966405865 0.16589925238876704 -3.1815380137501549e-06 -0.16535878799935891 0.12335870178173106 -1.8469513286565759e-07 -1.2741953170499315e-05 0.12113982638209368 -2.1715693729983659e-06 -0.21643924141769175 0.12335870178173106 -1.8469513286565759e-07 -1.2741953170499315e-05 0.16589925238876707 -3.1815380137501549e-06 -0.16535878799935888 0.16779144907589041 -3.4016295815494591e-06 -1.2943442932107378e-05 0.12113982638209368 -2.1715693729983663e-06 -0.21643924141769177 0.14769671904997198 -2.7708115355949685e-06 -1.2081779350443278e-05 0.12335870178173106 -1.8469513286565759e-07 -1.2741953170499315e-05 0.16779144907589041 -3.4016295815494591e-06 -1.2943442932107378e-05 0.12113982638209368 -2.1715693729983659e-06 -0.21643924141769175 0.14769671904997198 -2.7708115355949685e-06 -1.2081779350443278e-05 0.16638010065939385 -1.2597920624679851e-06 -0.30070847915018512 0.19538644718502268 -1.9878829059399937e-06 -1.5116789270998311e-05 0.18788427743250766 2.4617923339384431e-08 -0.2087793196735358 0.14769671904997198 -2.7708115355949685e-06 -1.2081779350443278e-05 0.16779144907589041 -3.4016295815494591e-06 -1.2943442932107378e-05 0.16638010065939388 -1.2597920624679851e-06 -0.30070847915018517 0.12113982638209368 -2.1715693729983659e-06 -0.21643924141769175 0.19538644718502268 -1.9878829059399937e-06 -1.5116789270998311e-05 0.14769671904997198 -2.7708115355949685e-06 -1.2081779350453881e-05 0.16779144907589041 -3.4016295815494591e-06 -1.2943442932107378e-05 0.16638010065939385 -1.2597920624679849e-06 -0.30070847915018512 0.14769671904997198 -2.7708115355949685e-06 -1.2081779350443278e-05 0.11090233733902993 3.2469879433313457e-07 -1.0996362603020068e-05 0.12335870178173106 -1.8469513286565762e-07 -1.2741953170491955e-05 0.12113982638209368 -2.1715693729983659e-06 -0.21643924141769175 0.11090233733902993 3.2469879433313457e-07 -1.0996362603020068e-05 0.14769671904997198 -2.7708115355949685e-06 -1.2081779350443278e-05 0.12113829682573164 -2.3614698327199853e-07 -0.23923205189574906 0.12113982638209368 -2.1715693729983659e-06 -0.21643924141769175 0.18788427743250766 2.4617923339384431e-08 -0.2087793196735358 0.14769671904997198 -2.7708115355949685e-06 -1.2081779350451799e-05 0.12113829682573163 -2.3614698327199842e-07 -0.23923205189574903 0.16282491161603591 -1.2290058589789959e-06 -1.1066735101897228e-05 0.16638010065939388 -1.2597920624679849e-06 -0.30070847915018517 0.12113829682573164 -2.3614698327199853e-07 -0.23923205189574906 0.14769671904997195 -2.7708115355949685e-06 -1.2081779350461008e-05 0.1211398263820937 -2.1715693729983659e-06 -0.21643924141769175 0.18788427743250766 2.4617923339384431e-08 -0.2087793196735358 0.12113829682573164 -2.3614698327199853e-07 -0.23923205189574906 0.14769671904997198 -2.7708115355949685e-06 -1.2081779350434585e-05 0.16638010065939388 -1.2597920624679846e-06 -0.30070847915018517 0.125766218613582 -1.8976808236249367e-07 -1.4052465277840534e-05 0.14769671904997198 -2.7708115355949685e-06 -1.2081779350441612e-05 0.16282491161603591 -1.2290058589789959e-06 -1.1066735101898893e-05 0.12113829682573164 -2.3614698327199853e-07 -0.23923205189574906 0.11090233733902993 3.2469879433313457e-07 -1.0996362603020068e-05 0.14769671904997198 -2.7708115355949685e-06 -1.2081779350443278e-05 0.125766218613582 -1.8976808236249367e-07 -1.4052465277840534e-05 0.12113829682573164 -2.3614698327199853e-07 -0.23923205189574906 0.14769671904997198 -2.7708115355949685e-06 -1.2081779350443278e-05 0.19538644718502268 -1.9878829059399937e-06 -1.5116789270998311e-05 0.16282491161603593 -1.2290058589789961e-06 -1.1066735101915773e-05 0.18788427743250766 2.4617923339384431e-08 -0.2087793196735358 0.16638010065939388 -1.2597920624679849e-06 -0.30070847915018517 0.18154383515722733 -5.8789025291916481e-07 -0.47782469158651308 0.12109524713257878 4.437965036283993e-07 -0.47916176081119372 0.12128451871389248 -1.8441525874522588e-06 -0.50682191844174851 0.18154383515722733 -5.878902529191647e-07 -0.47782469158651308 0.12128451871389247 -1.8441525874522594e-06 -0.50682191844174851 0.16638010065939388 -1.259792062467984e-06 -0.30070847915018512 0.18857526787330342 1.6495309227149189e-06 -0.47954935169784152 0.12109524713257877 4.4379650362839978e-07 -0.47916176081119366 0.18154383515722733 -5.878902529191647e-07 -0.47782469158651308 0.16638010065939388 -1.2597920624679844e-06 -0.30070847915018512 0.12113829682573163 -2.3614698327199861e-07 -0.23923205189574895 0.16638010065939388 -1.2597920624679849e-06 -0.30070847915018517 0.12113829682573164 -2.3614698327199863e-07 -0.23923205189574906 0.18154383515722733 -5.878902529191647e-07 -0.47782469158651308 0.18788427743250766 2.4617923339384431e-08 -0.2087793196735358 0.12128451871389247 -1.8441525874522594e-06 -0.50682191844174851 0.12113829682573161 -2.3614698327199874e-07 -0.23923205189574906 0.16638010065939385 -1.2597920624679853e-06 -0.30070847915018517 0.1211398263820937 -2.1715693729983663e-06 -0.21643924141769175 0.12109524713257877 4.4379650362839978e-07 -0.47916176081119366 0.16638010065939385 -1.2597920624679849e-06 -0.30070847915018517 0.12128451871389247 -1.8441525874522594e-06 -0.50682191844174851 0.12113829682573163 -2.3614698327199887e-07 -0.23923205189574898 0.20075841049631635 -2.6276781207758183e-06 -0.28784209172891972 0.16638010065939388 -1.2597920624679849e-06 -0.30070847915018517 0.161744131880416 -2.896307870953843e-06 -0.36937865152422017 0.18857526787330342 1.6495309227149197e-06 -0.47954935169784157 0.16589925238876704 -3.1815380137501549e-06 -0.16535878799935891 0.161744131880416 -2.896307870953843e-06 -0.36937865152422017 0.20075841049631635 -2.6276781207758183e-06 -0.28784209172891972 0.16638010065939388 -1.2597920624679849e-06 -0.30070847915018517 0.161744131880416 -2.896307870953843e-06 -0.36937865152422017 0.11545154690738514 -3.2147651429023473e-06 -0.30417941870583359 0.12128451871389247 -1.8441525874522596e-06 -0.5068219184417484 0.12113982638209368 -2.1715693729983663e-06 -0.21643924141769183 0.16691425336158036 -2.2294721707903534e-06 -0.51940081634502799 0.161744131880416 -2.896307870953843e-06 -0.36937865152422017 0.12128451871389248 -1.8441525874522596e-06 -0.50682191844174851 0.18857526787330342 1.6495309227149197e-06 -0.47954935169784152 0.16589925238876704 -3.1815380137501549e-06 -0.16535878799935891 0.161744131880416 -2.896307870953843e-06 -0.36937865152422017 0.16638010065939388 -1.2597920624679846e-06 -0.30070847915018512 0.12113982638209365 -2.1715693729983663e-06 -0.21643924141769172 0.161744131880416 -2.896307870953843e-06 -0.36937865152422017 0.12128451871389247 -1.8441525874522594e-06 -0.50682191844174851 0.16638010065939393 -1.2597920624679846e-06 -0.30070847915018517 0.1211398263820937 -2.1715693729983655e-06 -0.2164392414176918 0.16638010065939388 -1.2597920624679849e-06 -0.30070847915018517 0.12128451871389247 -1.8441525874522594e-06 -0.5068219184417484 0.161744131880416 -2.896307870953843e-06 -0.36937865152422017 0.18857526787330342 1.6495309227149197e-06 -0.47954935169784157 0.16589925238876704 -3.1815380137501549e-06 -0.16535878799935891 0.11545154690738514 -3.2147651429023473e-06 -0.30417941870583359 0.161744131880416 -2.896307870953843e-06 -0.36937865152422017 0.12113982638209371 -2.1715693729983659e-06 -0.21643924141769177 0.12107497653957426 -2.7783605062633566e-06 -0.46036296073355287 0.161744131880416 -2.896307870953843e-06 -0.36937865152422017 0.11545154690738514 -3.2147651429023473e-06 -0.30417941870583359 0.12128451871389247 -1.8441525874522594e-06 -0.50682191844174851 0.12107497653957426 -2.7783605062633566e-06 -0.46036296073355287 0.16691425336158036 -2.2294721707903534e-06 -0.51940081634502799 0.161744131880416 -2.896307870953843e-06 -0.36937865152422017 0.12128451871389247 -1.8441525874522594e-06 -0.50682191844174851 0.161744131880416 -2.896307870953843e-06 -0.36937865152422017 0.16691425336158036 -2.2294721707903534e-06 -0.51940081634502799 0.20196772717556558 -2.6229550943578698e-06 -0.47016128482612718 0.18857526787330342 1.6495309227149197e-06 -0.47954935169784157 0.24145790793386365 5.2949617429617988e-06 -0.30319274569957999 0.16638010065939388 -1.2597920624679849e-06 -0.30070847915018517 0.20075841049631635 -2.6276781207758187e-06 -0.28784209172891972 0.18857526787330342 1.6495309227149199e-06 -0.47954935169784157 0.24145790793386365 5.2949617429617988e-06 -0.30319274569957999 0.24143880885150182 4.4841669967749626e-06 -0.14044019712984915 0.20075841049631635 -2.6276781207758183e-06 -0.28784209172891972 0.16638010065939388 -1.2597920624679849e-06 -0.30070847915018517 0.20196772717556558 -2.6229550943578698e-06 -0.47016128482612718 0.20075841049631635 -2.6276781207758183e-06 -0.28784209172891972 0.161744131880416 -2.896307870953843e-06 -0.36937865152422017 0.18857526787330339 1.6495309227149195e-06 -0.47954935169784152 0.20196772717556558 -2.6229550943578698e-06 -0.47016128482612718 0.24145790793386365 5.2949617429617996e-06 -0.30319274569957999 0.20075841049631635 -2.6276781207758183e-06 -0.28784209172891972 0.18857526787330345 1.6495309227149201e-06 -0.47954935169784157 0.20075841049631635 -2.6276781207758183e-06 -0.28784209172891972 0.20196772717556558 -2.6229550943578685e-06 -0.47016128482612723 0.2414629946733472 -3.1383394441608088e-06 -0.38364692036927489 0.24145790793386365 5.2949617429617988e-06 -0.30319274569957999 0.20196772717556558 -2.6229550943578698e-06 -0.47016128482612718 0.24152674701940305 5.8893315403466787e-07 -0.48886514893660971 0.2415730463863188 -3.4860207369572197e-06 -0.57551462040372159 0.24146299467334723 -3.138339444160808e-06 -0.38364692036927489 0.24146299467334723 -3.138339444160808e-06 -0.38364692036927489 0.20196772717556558 -2.6229550943578698e-06 -0.47016128482612718 0.24152674701940305 5.8893315403466808e-07 -0.48886514893660971 0.24145790793386365 5.2949617429617988e-06 -0.30319274569957999 0.24145790793386365 5.2949617429617988e-06 -0.30319274569957999 0.24146299467334723 -3.1383394441608071e-06 -0.38364692036927489 0.20075841049631635 -2.6276781207758183e-06 -0.28784209172891972 0.24141660625272263 -2.6684411464786406e-06 -0.1918178682570009 0.24151660101917205 -2.7790639389916118e-06 -0.43941814465309603 0.24145790793386365 5.2949617429617988e-06 -0.30319274569957999 0.24152674701940305 5.8893315403466702e-07 -0.48886514893660971 0.18857526787330342 1.6495309227149197e-06 -0.47954935169784157 0.20196772717556558 -2.6229550943578698e-06 -0.47016128482612718 0.24152674701940308 5.8893315403466607e-07 -0.48886514893660982 0.24145790793386365 5.2949617429617988e-06 -0.30319274569957999 0.18857526787330339 1.6495309227149204e-06 -0.47954935169784146 0.24146263221519748 1.258480028366175e-06 -0.31580051491724376 0.16638010065939385 -1.2597920624679849e-06 -0.30070847915018523 0.18154383515722733 -5.8789025291916439e-07 -0.47782469158651303 0.18788427743250766 2.4617923339384431e-08 -0.2087793196735358 0.24146263221519748 1.258480028366175e-06 -0.31580051491724376 0.24145790793386365 5.2949617429617988e-06 -0.30319274569957999 0.24151660101917205 -2.7790639389916118e-06 -0.43941814465309603 0.16638010065939388 -1.2597920624679849e-06 -0.30070847915018517 0.24151660101917205 -2.7790639389916118e-06 -0.43941814465309603 0.1815438351572273 -5.8789025291916238e-07 -0.47782469158651319 0.16638010065939385 -1.2597920624679857e-06 -0.30070847915018512 0.18857526787330342 1.649530922714921e-06 -0.47954935169784157 0.2414281791592299 -2.9512914435956939e-07 -0.16238145843081919 0.24145790793386362 5.2949617429617988e-06 -0.30319274569957999 0.24146263221519748 1.258480028366175e-06 -0.31580051491724376 0.16638010065939388 -1.2597920624679849e-06 -0.30070847915018517 0.24151660101917205 -2.7790639389916118e-06 -0.43941814465309603 0.16638010065939388 -1.2597920624679859e-06 -0.30070847915018517 0.24145790793386365 5.2949617429617988e-06 -0.30319274569957999 0.18857526787330348 1.6495309227149208e-06 -0.47954935169784163 0.2414281791592299 -2.9512914435956939e-07 -0.16238145843081919 0.16638010065939388 -1.2597920624679851e-06 -0.30070847915018512 0.24146263221519748 1.258480028366175e-06 -0.31580051491724376 0.18788427743250766 2.4617923339384616e-08 -0.20877931967353575 0.24146263221519748 1.258480028366175e-06 -0.31580051491724376 0.16638010065939388 -1.2597920624679849e-06 -0.30070847915018517 0.24151660101917205 -2.7790639389916118e-06 -0.43941814465309603 0.18154383515722736 -5.8789025291916513e-07 -0.47782469158651303 0.24146160791428442 7.2390295223276304e-07 -0.31120372099398075 0.24141227813601648 3.3008169637568321e-08 -0.16521679643036091 0.24146263221519748 1.258480028366175e-06 -0.31580051491724376 0.18788427743250766 2.4617923339384431e-08 -0.2087793196735358 0.24146263221519748 1.258480028366175e-06 -0.31580051491724376 0.24151660101917205 -2.7790639389916118e-06 -0.43941814465309603 0.24151622986124935 2.6188611657207015e-06 -0.49839905763101411 0.18154383515722738 -5.8789025291916312e-07 -0.47782469158651314 0.24160641067443489 -6.8572828481985638e-07 -0.57507299852706806 0.18154383515722733 -5.878902529191647e-07 -0.47782469158651308 0.16646350854616201 -2.0835785267257604e-07 -0.6590201034416987 0.18892496730820893 -1.4339190761065503e-06 -0.74811311969306182 0.24160641067443489 -6.8572828481985638e-07 -0.57507299852706806 0.24172914405169246 -4.9780426022229566e-06 -0.69760497101914309 0.16646350854616201 -2.0835785267257416e-07 -0.6590201034416987 0.19758581377403422 -2.4243004699002382e-06 -0.78250171142923963 0.24160641067443489 -6.8572828481985638e-07 -0.57507299852706806 0.24164212032087687 2.1012133149993787e-06 -0.6457463500212195 0.24151622986124935 2.6188611657207015e-06 -0.49839905763101411 0.18154383515722733 -5.878902529191647e-07 -0.47782469158651308 0.24160641067443489 -6.8572828481985638e-07 -0.57507299852706806 0.18154383515722733 -5.8789025291916449e-07 -0.47782469158651308 0.24151660101917205 -2.7790639389916118e-06 -0.43941814465309603 0.18857526787330339 1.6495309227149197e-06 -0.47954935169784152 0.16646350854616201 -2.0835785267257604e-07 -0.6590201034416987 0.18857526787330339 1.6495309227149197e-06 -0.47954935169784157 0.24160641067443489 -6.8572828481985606e-07 -0.57507299852706806 0.19758581377403422 -2.4243004699002407e-06 -0.78250171142923974 0.24160641067443489 -6.8572828481985638e-07 -0.57507299852706806 0.16646350854616201 -2.0835785267257604e-07 -0.6590201034416987 0.18154383515722733 -5.8789025291916439e-07 -0.47782469158651314 0.18857526787330339 1.6495309227149197e-06 -0.47954935169784152 0.24164212032087687 2.1012133149993787e-06 -0.6457463500212195 0.1815438351572273 -5.8789025291916534e-07 -0.47782469158651308 0.24160641067443489 -6.8572828481985638e-07 -0.57507299852706806 0.1889249673082089 -1.4339190761065505e-06 -0.74811311969306182 0.24172914405169246 -4.9780426022229566e-06 -0.69760497101914309 0.24160641067443489 -6.8572828481985638e-07 -0.57507299852706806 0.16646350854616199 -2.0835785267258022e-07 -0.6590201034416987 0.18892496730820893 -1.4339190761065454e-06 -0.74811311969306171 0.24160641067443489 -6.8572828481985638e-07 -0.57507299852706806 0.24151622986124935 2.6188611657207015e-06 -0.49839905763101411 0.24151660101917205 -2.7790639389916118e-06 -0.43941814465309603 0.18154383515722733 -5.878902529191647e-07 -0.47782469158651308 0.24172914405169246 -4.9780426022229566e-06 -0.69760497101914309 0.2416421203208769 2.1012133149993783e-06 -0.6457463500212195 0.24160641067443489 -6.8572828481985638e-07 -0.57507299852706806 0.18892496730820893 -1.4339190761065503e-06 -0.74811311969306182 0.24160641067443489 -6.8572828481985638e-07 -0.57507299852706806 0.24169300610943345 3.0598166667032597e-06 -0.67689023655791003 0.24172914405169246 -4.9780426022229566e-06 -0.69760497101914309 0.19758581377403422 -2.4243004699002407e-06 -0.78250171142923974 0.24160641067443489 -6.8572828481985638e-07 -0.57507299852706806 0.24151660101917205 -2.7790639389916118e-06 -0.43941814465309603 0.24152674701940305 5.8893315403466702e-07 -0.48886514893660971 0.18857526787330342 1.6495309227149197e-06 -0.47954935169784157 0.24152674701940305 5.8893315403466702e-07 -0.48886514893660971 0.19714574461379444 -2.8338873739490965e-06 -0.66085103696463321 0.24169300610943345 3.0598166667032597e-06 -0.67689023655791003 0.18857526787330342 1.6495309227149212e-06 -0.47954935169784157 0.19714574461379444 -2.8338873739490961e-06 -0.66085103696463321 0.18857526787330336 1.6495309227149195e-06 -0.47954935169784152 0.16646350854616204 -2.083578526725749e-07 -0.65902010344169859 0.19758581377403422 -2.4243004699002407e-06 -0.78250171142923974 0.19714574461379444 -2.8338873739490961e-06 -0.66085103696463321 0.24169300610943345 3.0598166667032593e-06 -0.67689023655791014 0.18857526787330342 1.6495309227149184e-06 -0.47954935169784157 0.19758581377403422 -2.4243004699002407e-06 -0.78250171142923974 0.24169300610943345 3.0598166667032597e-06 -0.67689023655791003 0.24160641067443489 -6.8572828481985627e-07 -0.57507299852706806 0.18857526787330342 1.6495309227149197e-06 -0.47954935169784157 0.19758581377403422 -2.4243004699002407e-06 -0.78250171142923974 0.24152674701940305 5.8893315403466702e-07 -0.48886514893660971 0.24169300610943345 3.0598166667032597e-06 -0.67689023655791003 0.24160641067443489 -6.8572828481985638e-07 -0.57507299852706806 0.18857526787330342 1.6495309227149197e-06 -0.47954935169784157 0.24169300610943345 3.0598166667032597e-06 -0.67689023655791003 0.19714574461379444 -2.8338873739490961e-06 -0.66085103696463321 0.2415730463863188 -3.4860207369572197e-06 -0.57551462040372159 0.24177275853690849 -2.8471347816542877e-06 -0.76742082476276419 0.19714574461379444 -2.8338873739490961e-06 -0.66085103696463321 0.2415730463863188 -3.4860207369572197e-06 -0.57551462040372159 0.24152674701940305 5.8893315403466702e-07 -0.48886514893660971 0.24169300610943345 3.0598166667032597e-06 -0.67689023655791003 0.24152674701940305 5.8893315403466702e-07 -0.48886514893660971 0.24157304638631882 -3.4860207369572197e-06 -0.57551462040372159 0.19714574461379444 -2.8338873739490961e-06 -0.66085103696463321 0.20196772717556552 -2.6229550943578698e-06 -0.47016128482612707 0.19714574461379444 -2.8338873739490961e-06 -0.66085103696463321 0.20196772717556558 -2.6229550943578698e-06 -0.47016128482612718 0.16691425336158036 -2.2294721707903534e-06 -0.51940081634502799 0.18857526787330342 1.6495309227149197e-06 -0.47954935169784157 0.19714574461379444 -2.8338873739490961e-06 -0.66085103696463321 0.24152674701940305 5.8893315403466702e-07 -0.48886514893660971 0.20196772717556558 -2.6229550943578698e-06 -0.47016128482612718 0.18857526787330342 1.6495309227149197e-06 -0.47954935169784157 0.16691425336158036 -2.2294721707903534e-06 -0.51940081634502799 0.14540315448902705 -3.2176180512222211e-06 -0.64748095240150239 0.16646350854616201 -2.083578526725757e-07 -0.6590201034416987 0.12128451871389249 -1.844152587452259e-06 -0.50682191844174851 0.14540315448902705 -3.2176180512222211e-06 -0.64748095240150239 0.19714574461379444 -2.8338873739490961e-06 -0.66085103696463321 0.16691425336158036 -2.2294721707903534e-06 -0.51940081634502799 0.16646350854616201 -2.0835785267257604e-07 -0.6590201034416987 0.19714574461379444 -2.8338873739490961e-06 -0.66085103696463321 0.16691425336158036 -2.2294721707903534e-06 -0.51940081634502799 0.16646350854616204 -2.0835785267257392e-07 -0.6590201034416987 0.18857526787330342 1.6495309227149191e-06 -0.47954935169784157 0.16831791943737195 -2.6180894571714401e-06 -0.80627896380154851 0.16646350854616201 -2.0835785267257456e-07 -0.65902010344169859 0.14540315448902705 -3.2176180512222206e-06 -0.6474809524015025 0.12147862340182385 -5.2307797236195091e-06 -0.74829263440579552 0.16646350854616201 -2.0835785267257604e-07 -0.6590201034416987 0.16691425336158036 -2.2294721707903546e-06 -0.5194008163450281 0.12128451871389244 -1.8441525874522596e-06 -0.5068219184417484 0.18857526787330342 1.6495309227149197e-06 -0.47954935169784157 0.16646350854616201 -2.0835785267257604e-07 -0.6590201034416987 0.12128451871389245 -1.8441525874522594e-06 -0.50682191844174851 0.14540315448902705 -3.2176180512222219e-06 -0.64748095240150239 0.12147862340182385 -5.2307797236195091e-06 -0.74829263440579552 0.14540315448902705 -3.2176180512222211e-06 -0.64748095240150239 0.19714574461379444 -2.8338873739490961e-06 -0.66085103696463321 0.16646350854616201 -2.0835785267257604e-07 -0.6590201034416987 0.19758581377403422 -2.4243004699002407e-06 -0.78250171142923974 0.16691425336158036 -2.2294721707903534e-06 -0.51940081634502799 0.12107497653957426 -2.7783605062633566e-06 -0.46036296073355287 0.14540315448902705 -3.2176180512222211e-06 -0.64748095240150239 0.12128451871389247 -1.8441525874522598e-06 -0.50682191844174851 0.12109524713257877 4.4379650362839978e-07 -0.47916176081119366 0.16646350854616201 -2.0835785267257631e-07 -0.65902010344169859 0.12079159775729013 6.8531323351184874e-07 -0.71917573471247642 0.12128451871389247 -1.8441525874522594e-06 -0.50682191844174851 0.16646350854616201 -2.0835785267257604e-07 -0.6590201034416987 0.12109524713257876 4.4379650362839904e-07 -0.47916176081119366 0.1815438351572273 -5.8789025291916545e-07 -0.47782469158651303 0.12128451871389244 -1.8441525874522615e-06 -0.50682191844174829 0.16646350854616201 -2.0835785267257604e-07 -0.6590201034416987 0.1815438351572273 -5.8789025291916481e-07 -0.47782469158651308 0.12109524713257877 4.4379650362839978e-07 -0.47916176081119366 0.12079159775729018 6.8531323351184863e-07 -0.71917573471247642 0.18154383515722733 -5.878902529191647e-07 -0.47782469158651308 0.12079159775729016 6.8531323351184853e-07 -0.71917573471247631 0.16646350854616201 -2.0835785267257604e-07 -0.6590201034416987 0.18892496730820893 -1.4339190761065503e-06 -0.74811311969306182 0.12079159775729015 6.8531323351184884e-07 -0.71917573471247631 0.12128451871389247 -1.8441525874522594e-06 -0.50682191844174851 0.16646350854616201 -2.0835785267257604e-07 -0.6590201034416987 0.12147862340182385 -5.2307797236195091e-06 -0.74829263440579552 0.16646350854616201 -2.0835785267257604e-07 -0.6590201034416987 0.12128451871389245 -1.84415258745226e-06 -0.50682191844174851 0.18154383515722736 -5.878902529191646e-07 -0.47782469158651308 0.18857526787330342 1.6495309227149197e-06 -0.47954935169784157 0.11137931986420657 4.0548629573880344e-06 -0.95823089075307732 0.12079159775729015 6.8531323351184884e-07 -0.71917573471247631 0.14562527355444863 -8.604940316449057e-07 -0.95853327133204225 0.12147862340182385 -5.2307797236195091e-06 -0.74829263440579552 0.14562527355444863 -8.604940316449057e-07 -0.95853327133204225 0.16646350854616201 -2.0835785267257477e-07 -0.6590201034416987 0.1764568866953744 -4.3302035638650073e-07 -0.95879636580963779 0.19758581377403422 -2.4243004699002407e-06 -0.78250171142923974 0.14562527355444863 -8.604940316449057e-07 -0.95853327133204225 0.16646350854616201 -2.0835785267257604e-07 -0.6590201034416987 0.12079159775729016 6.8531323351184842e-07 -0.7191757347124762 0.18892496730820893 -1.4339190761065503e-06 -0.74811311969306182 0.14562527355444863 -8.604940316449057e-07 -0.95853327133204225 0.12147862340182385 -5.2307797236195091e-06 -0.74829263440579552 0.16646350854616201 -2.08357852672578e-07 -0.6590201034416987 0.19758581377403422 -2.4243004699002407e-06 -0.78250171142923974 0.14562527355444863 -8.604940316449057e-07 -0.95853327133204225 0.12079159775729018 6.8531323351185085e-07 -0.71917573471247631 0.16646350854616201 -2.0835785267257482e-07 -0.6590201034416987 0.12147862340182383 -5.2307797236195091e-06 -0.74829263440579552 0.14562527355444863 -8.604940316449057e-07 -0.95853327133204225 0.1764568866953744 -4.330203563865002e-07 -0.95879636580963779 0.16646350854616201 -2.0835785267257604e-07 -0.6590201034416987 0.18892496730820893 -1.4339190761065503e-06 -0.74811311969306182 0.14562527355444863 -8.604940316449057e-07 -0.95853327133204225 0.12079159775729018 6.8531323351184842e-07 -0.71917573471247631 0.16343604659739186 4.7508120218858713e-07 -0.95867060413363869 0.18892496730820893 -1.4339190761065503e-06 -0.74811311969306182 0.17126367451308733 -9.3291528318871976e-06 -0.95874249334404593 0.14562527355444863 -8.604940316449057e-07 -0.95853327133204225 0.1764568866953744 -4.3302035638650083e-07 -0.95879636580963779 0.19758581377403425 -2.424300469900239e-06 -0.78250171142923974 0.14562527355444863 -8.604940316449057e-07 -0.95853327133204225 0.16343604659739189 4.7508120218858697e-07 -0.9586706041336388 0.1764568866953744 -4.3302035638650083e-07 -0.95879636580963779 0.18892496730820893 -1.4339190761065503e-06 -0.74811311969306182 0.11137931986420657 4.0548629573880344e-06 -0.95823089075307732 0.12630950394758955 1.7471155067628488e-06 -0.95836334786265387 0.14562527355444863 -8.6049403164490559e-07 -0.95853327133204225 0.12079159775729015 6.8531323351184884e-07 -0.71917573471247631 0.16343604659739189 4.7508120218858697e-07 -0.9586706041336388 0.1456252735544486 -8.6049403164490506e-07 -0.95853327133204225 0.12630950394758958 1.7471155067628483e-06 -0.95836334786265387 0.12079159775729015 6.8531323351184884e-07 -0.71917573471247631 0.14562527355444863 -8.604940316449057e-07 -0.95853327133204225 0.12388583972399765 1.3896061553055777e-06 -0.9583435592961953 0.11137931986420657 4.0548629573880344e-06 -0.95823089075307732 0.12147862340182385 -5.2307797236195091e-06 -0.74829263440579552 0.12388583972399765 1.3896061553055773e-06 -0.9583435592961953 0.17126367451308733 -9.3291528318871976e-06 -0.95874249334404593 0.16831791943737195 -2.6180894571714405e-06 -0.80627896380154851 0.12147862340182383 -5.2307797236195074e-06 -0.74829263440579541 0.16646350854616201 -2.0835785267257604e-07 -0.6590201034416987 0.12147862340182385 -5.2307797236195091e-06 -0.74829263440579552 0.16831791943737195 -2.6180894571714401e-06 -0.80627896380154851 0.19758581377403422 -2.4243004699002407e-06 -0.78250171142923974 0.17126367451308733 -9.3291528318871976e-06 -0.95874249334404593 0.16831791943737195 -2.6180894571714413e-06 -0.80627896380154851 0.12147862340182386 -5.2307797236195091e-06 -0.74829263440579552 0.19758581377403422 -2.424300469900239e-06 -0.78250171142923974 0.17126367451308733 -9.3291528318871976e-06 -0.95874249334404593 0.12147862340182386 -5.2307797236195082e-06 -0.74829263440579552 0.14562527355444863 -8.604940316449057e-07 -0.95853327133204225 0.19758581377403422 -2.4243004699002378e-06 -0.78250171142923974 0.17126367451308733 -9.3291528318871976e-06 -0.95874249334404593 0.12388583972399765 1.3896061553055773e-06 -0.9583435592961953 0.14562527355444863 -8.604940316449057e-07 -0.95853327133204225 0.12147862340182386 -5.2307797236195074e-06 -0.74829263440579574 0.14540315448902705 -3.2176180512222211e-06 -0.64748095240150239 0.16646350854616199 -2.0835785267256932e-07 -0.65902010344169881 0.16831791943737195 -2.6180894571714401e-06 -0.80627896380154851 0.19758581377403422 -2.4243004699002407e-06 -0.78250171142923974 0.16831791943737195 -2.6180894571714401e-06 -0.80627896380154851 0.14540315448902705 -3.2176180512222215e-06 -0.64748095240150239 0.12090055895497535 -2.8771755442325016e-06 -0.79322865866484049 0.12147862340182385 -5.2307797236195091e-06 -0.74829263440579552 0.16831791943737195 -2.6180894571714401e-06 -0.80627896380154851 0.12090055895497535 -2.8771755442325016e-06 -0.79322865866484049 0.12388583972399764 1.3896061553055775e-06 -0.9583435592961953 0.12147862340182385 -5.2307797236195091e-06 -0.74829263440579552 0.14575863092919703 -3.1399495813080557e-06 -0.95851763640681931 0.12090055895497535 -2.8771755442325016e-06 -0.79322865866484049 0.12388583972399765 1.3896061553055773e-06 -0.9583435592961953 0.16831791943737195 -2.6180894571714401e-06 -0.80627896380154851 0.12388583972399765 1.3896061553055773e-06 -0.9583435592961953 0.097296724665363724 -3.366164972743011e-06 -0.95812077889224312 0.12090055895497535 -2.877175544232502e-06 -0.79322865866484049 0.14575863092919703 -3.1399495813080557e-06 -0.95851763640681931 0.12388583972399765 1.3896061553055773e-06 -0.9583435592961953 0.17126367451308733 -9.3291528318871976e-06 -0.95874249334404593 0.14575863092919703 -3.1399495813080548e-06 -0.9585176364068192 0.16831791943737195 -2.6180894571714401e-06 -0.80627896380154851 0.17126367451308733 -9.3291528318871976e-06 -0.95874249334404593 0.14575863092919703 -3.1399495813080561e-06 -0.95851763640681931 0.16831791943737195 -2.6180894571714401e-06 -0.80627896380154851 0.19403849322565175 -2.5448524810511352e-06 -0.95898793145907479 0.14540315448902705 -3.2176180512222211e-06 -0.64748095240150239 0.16831791943737198 -2.6180894571714401e-06 -0.80627896380154851 0.19714574461379444 -2.8338873739490961e-06 -0.66085103696463321 0.19758581377403422 -2.4243004699002407e-06 -0.78250171142923974 0.17126367451308733 -9.3291528318871976e-06 -0.95874249334404593 0.20692080169030594 -4.5648390485640563e-06 -0.95908542881380965 0.16831791943737195 -2.6180894571714392e-06 -0.8062789638015484 0.19758581377403425 -2.4243004699002403e-06 -0.78250171142923974 0.20692080169030594 -4.5648390485640563e-06 -0.95908542881380965 0.17126367451308733 -9.3291528318871976e-06 -0.95874249334404593 0.20645871739352542 -5.0186414013333238e-06 -0.95907334047583082 0.19758581377403422 -2.4243004699002407e-06 -0.78250171142923974 0.24169300610943345 3.0598166667032597e-06 -0.67689023655791003 0.19714574461379447 -2.8338873739490965e-06 -0.66085103696463332 0.20667514730463613 -2.103459833335091e-06 -0.81863981986171219 0.1975858137740342 -2.4243004699002416e-06 -0.78250171142923974 0.16831791943737195 -2.6180894571714401e-06 -0.80627896380154851 0.20667514730463615 -2.103459833335091e-06 -0.81863981986171219 0.19714574461379444 -2.8338873739490961e-06 -0.66085103696463321 0.19758581377403422 -2.4243004699002407e-06 -0.78250171142923974 0.20667514730463615 -2.103459833335091e-06 -0.81863981986171219 0.16831791943737195 -2.6180894571714401e-06 -0.80627896380154851 0.20692080169030594 -4.5648390485640563e-06 -0.95908542881380965 0.19758581377403422 -2.4243004699002407e-06 -0.78250171142923974 0.19403849322565175 -2.5448524810511352e-06 -0.95898793145907479 0.16831791943737193 -2.6180894571714401e-06 -0.8062789638015484 0.17126367451308733 -9.3291528318871976e-06 -0.95874249334404593 0.20692080169030594 -4.5648390485640563e-06 -0.95908542881380965 0.19403849322565175 -2.5448524810511352e-06 -0.95898793145907479 0.20667514730463618 -2.1034598333350906e-06 -0.8186398198617123 0.16831791943737195 -2.6180894571714401e-06 -0.80627896380154851 0.20692080169030594 -4.5648390485640563e-06 -0.95908542881380965 0.24210333147191834 -2.8765758739471079e-06 -0.95938617742871046 0.24186524750522792 2.1941500697783552e-06 -0.81885172425218999 0.20667514730463613 -2.1034598333350915e-06 -0.81863981986171219 0.20692080169030594 -4.5648390485640563e-06 -0.95908542881380965 0.19403849322565175 -2.5448524810511352e-06 -0.95898793145907479 0.24210333147191834 -2.8765758739471079e-06 -0.95938617742871046 0.20667514730463615 -2.103459833335091e-06 -0.81863981986171219 0.20692080169030594 -4.5648390485640563e-06 -0.95908542881380965 0.20692080169030594 -4.5648390485640563e-06 -0.95908542881380965 0.24210333147191834 -2.8765758739471079e-06 -0.95938617742871046 0.24186524750522792 2.1941500697783552e-06 -0.81885172425218999 0.24209736853986188 -3.4366958007107074e-07 -0.95935008852878678 0.20667514730463615 -2.103459833335091e-06 -0.81863981986171219 0.24186524750522792 2.1941500697783548e-06 -0.81885172425218999 0.24210333147191834 -2.8765758739471079e-06 -0.95938617742871046 0.24177275853690849 -2.8471347816542877e-06 -0.76742082476276419 0.20667514730463615 -2.103459833335091e-06 -0.81863981986171219 0.19714574461379444 -2.8338873739490961e-06 -0.66085103696463321 0.24169300610943345 3.059816666703258e-06 -0.67689023655791014 0.24177275853690849 -2.8471347816542877e-06 -0.76742082476276419 0.24169300610943345 3.0598166667032597e-06 -0.67689023655791003 0.24186524750522792 2.1941500697783557e-06 -0.81885172425218999 0.20667514730463615 -2.103459833335091e-06 -0.81863981986171219 0.24177275853690849 -2.8471347816542877e-06 -0.76742082476276419 0.24186524750522792 2.1941500697783552e-06 -0.81885172425218999 0.24186657363557929 7.3393906796609414e-07 -0.81705957225377279 0.24169300610943345 3.0598166667032597e-06 -0.67689023655791003 0.19758581377403422 -2.4243004699002407e-06 -0.78250171142923974 0.24169300610943345 3.0598166667032597e-06 -0.67689023655791003 0.20667514730463615 -2.103459833335091e-06 -0.81863981986171219 0.24186524750522792 2.1941500697783552e-06 -0.81885172425218999 0.19758581377403422 -2.4243004699002407e-06 -0.78250171142923974 0.20692080169030594 -4.5648390485640563e-06 -0.95908542881380965 0.20645871739352542 -5.0186414013333238e-06 -0.9590733404758307 0.24209736853986188 -3.4366958007107074e-07 -0.95935008852878678 0.19758581377403422 -2.4243004699002407e-06 -0.78250171142923974 0.24186524750522792 2.1941500697783552e-06 -0.81885172425218999 0.20692080169030591 -4.5648390485640563e-06 -0.95908542881380965 0.24209736853986188 -3.4366958007107074e-07 -0.95935008852878678 0.19758581377403422 -2.4243004699002407e-06 -0.78250171142923974 0.24186524750522792 2.1941500697783552e-06 -0.81885172425218999 0.24209736853986188 -3.4366958007107074e-07 -0.95935008852878678 0.24186657363557929 7.3393906796609414e-07 -0.81705957225377279 0.19758581377403422 -2.4243004699002407e-06 -0.78250171142923974 0.20667514730463615 -2.103459833335091e-06 -0.81863981986171219 0.20692080169030594 -4.5648390485640563e-06 -0.95908542881380965 0.24186524750522792 2.1941500697783552e-06 -0.81885172425218999 0.19758581377403425 -2.4243004699002403e-06 -0.78250171142923985 0.24209736853986188 -3.4366958007107074e-07 -0.95935008852878678 0.24186657363557931 7.3393906796609362e-07 -0.8170595722537729 0.20645871739352542 -5.0186414013333238e-06 -0.95907334047583082 0.24208536357935517 2.3070760244705329e-06 -0.95935746837004843 0.24209736853986188 -3.4366958007107074e-07 -0.95935008852878678 0.20645871739352542 -5.0186414013333247e-06 -0.95907334047583082 0.24186657363557929 7.3393906796609414e-07 -0.81705957225377279 0.1975858137740342 -2.4243004699002407e-06 -0.78250171142923963 0.24186657363557929 7.3393906796609414e-07 -0.81705957225377279 0.20645871739352542 -5.0186414013333238e-06 -0.95907334047583082 0.18892496730820893 -1.4339190761065507e-06 -0.74811311969306182 0.19758581377403428 -2.4243004699002399e-06 -0.78250171142923985 0.16646350854616201 -2.0835785267257604e-07 -0.6590201034416987 0.18892496730820893 -1.4339190761065501e-06 -0.74811311969306182 0.1764568866953744 -4.3302035638650041e-07 -0.9587963658096379 0.19758581377403422 -2.4243004699002407e-06 -0.78250171142923974 0.24172914405169246 -4.9780426022229566e-06 -0.69760497101914309 0.24186657363557929 7.3393906796609414e-07 -0.81705957225377279 0.18892496730820893 -1.4339190761065482e-06 -0.74811311969306182 0.1975858137740342 -2.424300469900242e-06 -0.78250171142923963 0.20645871739352542 -5.0186414013333238e-06 -0.95907334047583082 0.1764568866953744 -4.3302035638650083e-07 -0.95879636580963779 0.18892496730820893 -1.4339190761065503e-06 -0.74811311969306182 0.1975858137740342 -2.4243004699002416e-06 -0.78250171142923963 0.24172914405169246 -4.9780426022229566e-06 -0.69760497101914309 0.18892496730820896 -1.4339190761065513e-06 -0.74811311969306182 0.16646350854616204 -2.0835785267257623e-07 -0.6590201034416987 0.1975858137740342 -2.4243004699002403e-06 -0.78250171142923985 0.20645871739352542 -5.0186414013333238e-06 -0.95907334047583082 0.24186657363557929 7.3393906796609319e-07 -0.8170595722537729 0.24184013623276834 -4.660247966568719e-08 -0.80765378451861181 0.24208536357935517 2.3070760244705329e-06 -0.95935746837004843 0.1764568866953744 -4.3302035638650083e-07 -0.95879636580963779 0.20645871739352539 -5.0186414013333238e-06 -0.95907334047583093 0.17126367451308733 -9.3291528318871976e-06 -0.95874249334404593 0.19758581377403422 -2.4243004699002407e-06 -0.78250171142923974 0.24169300610943345 3.0598166667032597e-06 -0.67689023655791003 0.24186657363557929 7.3393906796609414e-07 -0.81705957225377279 0.24172914405169246 -4.9780426022229566e-06 -0.69760497101914309 0.19758581377403422 -2.4243004699002407e-06 -0.78250171142923974 0.20645871739352542 -5.0186414013333238e-06 -0.95907334047583082 0.24184013623276832 -4.6602479665689016e-08 -0.80765378451861192 0.24186657363557929 7.3393906796609414e-07 -0.81705957225377279 0.18892496730820893 -1.4339190761065503e-06 -0.74811311969306182 0.24186657363557929 7.3393906796609414e-07 -0.81705957225377279 0.24184013623276834 -4.6602479665688427e-08 -0.80765378451861181 0.24172914405169246 -4.9780426022229566e-06 -0.69760497101914309 0.18892496730820893 -1.4339190761065503e-06 -0.74811311969306182 0.24172914405169246 -4.9780426022229566e-06 -0.69760497101914309 0.24184013623276834 -4.6602479665687488e-08 -0.80765378451861181 0.24164212032087687 2.1012133149993787e-06 -0.6457463500212195 0.18892496730820893 -1.4339190761065503e-06 -0.74811311969306182 0.1764568866953744 -4.3302035638650083e-07 -0.95879636580963779 0.16343604659739189 4.7508120218858697e-07 -0.9586706041336388 0.204105697794635 6.0812112137524837e-08 -0.95906640851380187 0.18892496730820893 -1.4339190761065503e-06 -0.74811311969306182 0.204105697794635 6.081211213752489e-08 -0.95906640851380198 0.20645871739352542 -5.0186414013333238e-06 -0.95907334047583082 0.1764568866953744 -4.3302035638650083e-07 -0.95879636580963779 0.18892496730820893 -1.4339190761065503e-06 -0.74811311969306182 0.204105697794635 6.081211213752489e-08 -0.95906640851380198 0.24184013623276834 -4.660247966568719e-08 -0.80765378451861181 0.20645871739352542 -5.0186414013333238e-06 -0.95907334047583082 0.18892496730820893 -1.4339190761065503e-06 -0.74811311969306182 0.24208536357935517 2.3070760244705329e-06 -0.95935746837004843 0.24184013623276834 -4.660247966568719e-08 -0.80765378451861181 0.204105697794635 6.081211213752489e-08 -0.95906640851380198 0.24209220386001812 5.1327312727514473e-07 -0.95935433827634298 0.24184013623276834 -4.660247966568719e-08 -0.80765378451861181 0.20410569779463503 6.0812112137525856e-08 -0.95906640851380198 0.20645871739352545 -5.0186414013333247e-06 -0.95907334047583082 0.24208536357935517 2.3070760244705329e-06 -0.95935746837004843 0.19601363600990668 3.1757555466972555e-06 -0.95896389056476405 0.18892496730820899 -1.4339190761065414e-06 -0.74811311969306182 0.16624286811970296 -2.447253241805178e-06 -0.65811351797454076 0.18814599561655443 4.1877823102076048e-06 -0.78306462561741952 0.19601363600990668 3.1757555466972555e-06 -0.95896389056476405 0.24180452794682156 2.7570801731464992e-06 -0.77547716114641652 0.18892496730820893 -1.4339190761065503e-06 -0.74811311969306182 0.18814599561655443 4.1877823102076048e-06 -0.78306462561741952 0.24209220386001812 5.1327312727514473e-07 -0.95935433827634298 0.24184013623276834 -4.660247966568719e-08 -0.80765378451861181 0.204105697794635 6.081211213752489e-08 -0.95906640851380198 0.24180452794682156 2.7570801731464992e-06 -0.77547716114641652 0.16624286811970299 -2.4472532418051687e-06 -0.65811351797454065 0.18892496730820893 -1.4339190761065499e-06 -0.74811311969306193 0.24180452794682156 2.7570801731465009e-06 -0.77547716114641663 0.18814599561655443 4.1877823102076064e-06 -0.78306462561741952 0.204105697794635 6.081211213752489e-08 -0.95906640851380198 0.24209220386001812 5.1327312727514431e-07 -0.95935433827634309 0.24180452794682156 2.7570801731464992e-06 -0.77547716114641652 0.19601363600990668 3.1757555466972555e-06 -0.95896389056476405 0.24209220386001812 5.1327312727514473e-07 -0.95935433827634298 0.24180452794682156 2.7570801731464992e-06 -0.77547716114641652 0.19601363600990668 3.1757555466972555e-06 -0.95896389056476405 0.24209498587026276 5.7255551450517724e-07 -0.95935746839600722 0.204105697794635 6.081211213752489e-08 -0.95906640851380198 0.16343604659739189 4.7508120218858697e-07 -0.9586706041336388 0.19601363600990668 3.1757555466972555e-06 -0.95896389056476405 0.18892496730820893 -1.4339190761065503e-06 -0.74811311969306182 0.204105697794635 6.081211213752489e-08 -0.95906640851380198 0.19601363600990668 3.1757555466972555e-06 -0.95896389056476405 0.24180452794682156 2.7570801731464992e-06 -0.77547716114641652 0.18892496730820893 -1.4339190761065503e-06 -0.74811311969306182 0.24180452794682156 2.7570801731464992e-06 -0.77547716114641652 0.24164212032087684 2.1012133149993787e-06 -0.64574635002121938 0.24184013623276834 -4.660247966568719e-08 -0.80765378451861181 0.18892496730820893 -1.4339190761065503e-06 -0.74811311969306182 0.24180452794682156 2.7570801731464992e-06 -0.77547716114641652 0.24184013623276834 -4.660247966568719e-08 -0.80765378451861181 0.204105697794635 6.0812112137525075e-08 -0.95906640851380198 0.18892496730820893 -1.4339190761065503e-06 -0.74811311969306182 0.2416014122660908 3.9963036993402956e-06 -0.58528444487240816 0.18892496730820893 -1.4339190761065509e-06 -0.74811311969306171 0.18154383515722733 -5.8789025291916449e-07 -0.47782469158651308 0.24164212032087687 2.1012133149993787e-06 -0.6457463500212195 0.2416014122660908 3.9963036993402956e-06 -0.58528444487240816 0.18154383515722733 -5.8789025291916407e-07 -0.47782469158651303 0.16624286811970296 -2.4472532418051683e-06 -0.65811351797454054 0.18712845891779248 3.5416279715640605e-06 -0.47776290949095984 0.2416014122660908 3.9963036993402956e-06 -0.58528444487240816 0.16624286811970301 -2.447253241805167e-06 -0.65811351797454065 0.24169207644090632 -6.7023057916229628e-06 -0.66533687587733681 0.18712845891779251 3.5416279715640609e-06 -0.47776290949095984 0.24180452794682156 2.7570801731464992e-06 -0.77547716114641652 0.2416014122660908 3.9963036993402965e-06 -0.58528444487240805 0.16624286811970299 -2.4472532418051641e-06 -0.65811351797454065 0.18814599561655443 4.1877823102076048e-06 -0.78306462561741952 0.2416014122660908 3.9963036993402956e-06 -0.58528444487240816 0.24151235521538547 4.5705914170582509e-06 -0.43941562075088758 0.18154383515722733 -5.878902529191647e-07 -0.47782469158651308 0.18712845891779248 3.54162797156406e-06 -0.47776290949095979 0.18154383515722733 -5.878902529191647e-07 -0.47782469158651308 0.1889249673082089 -1.4339190761065507e-06 -0.74811311969306182 0.24160141226609083 3.9963036993402956e-06 -0.58528444487240816 0.16624286811970299 -2.4472532418051687e-06 -0.65811351797454065 0.24180452794682156 2.7570801731464992e-06 -0.77547716114641652 0.16624286811970299 -2.4472532418051687e-06 -0.65811351797454065 0.24160141226609083 3.9963036993402956e-06 -0.58528444487240827 0.18892496730820893 -1.4339190761065503e-06 -0.74811311969306182 0.24164212032087687 2.1012133149993787e-06 -0.6457463500212195 0.24180452794682156 2.7570801731464992e-06 -0.77547716114641652 0.2416014122660908 3.9963036993402956e-06 -0.58528444487240816 0.18892496730820893 -1.4339190761065511e-06 -0.74811311969306171 0.2416014122660908 3.9963036993402956e-06 -0.58528444487240816 0.24151622986124935 2.6188611657207015e-06 -0.49839905763101411 0.24164212032087687 2.1012133149993787e-06 -0.6457463500212195 0.18154383515722733 -5.878902529191647e-07 -0.47782469158651308 0.2416014122660908 3.9963036993402956e-06 -0.58528444487240816 0.24151235521538547 4.5705914170582509e-06 -0.43941562075088758 0.24151622986124935 2.618861165720701e-06 -0.49839905763101405 0.18154383515722733 -5.878902529191647e-07 -0.47782469158651308 0.2416014122660908 3.9963036993402956e-06 -0.58528444487240816 0.24152476848348867 -3.5989879353480638e-06 -0.48729627978194517 0.24151235521538547 4.5705914170582509e-06 -0.43941562075088758 0.18712845891779251 3.5416279715640617e-06 -0.4777629094909599 0.24169207644090632 -6.7023057916229628e-06 -0.66533687587733681 0.18712845891779253 3.5416279715640605e-06 -0.4777629094909599 0.16624286811970301 -2.4472532418051865e-06 -0.65811351797454065 0.18814599561655443 4.1877823102076048e-06 -0.78306462561741952 0.16624286811970299 -2.4472532418051687e-06 -0.65811351797454065 0.18712845891779256 3.5416279715640583e-06 -0.4777629094909599 0.19684835156175312 2.776581779649049e-06 -0.65610808148341082 0.18814599561655448 4.1877823102076166e-06 -0.78306462561741963 0.24169207644090632 -6.7023057916229628e-06 -0.66533687587733681 0.16624286811970299 -2.4472532418052195e-06 -0.65811351797454043 0.2416014122660908 3.9963036993402956e-06 -0.58528444487240816 0.18814599561655443 4.1877823102076048e-06 -0.78306462561741952 0.24180452794682156 2.7570801731464992e-06 -0.77547716114641652 0.24169207644090632 -6.7023057916229628e-06 -0.66533687587733681 0.2416014122660908 3.9963036993402956e-06 -0.58528444487240816 0.18814599561655443 4.1877823102076048e-06 -0.78306462561741952 0.24169207644090632 -6.7023057916229628e-06 -0.66533687587733681 0.19684835156175312 2.7765817796490385e-06 -0.65610808148341071 0.18712845891779253 3.5416279715640605e-06 -0.4777629094909599 0.18814599561655443 4.1877823102076048e-06 -0.78306462561741952 0.24152476848348867 -3.5989879353480634e-06 -0.48729627978194517 0.2416014122660908 3.9963036993402956e-06 -0.58528444487240816 0.24169207644090632 -6.7023057916229628e-06 -0.66533687587733681 0.18712845891779253 3.5416279715640605e-06 -0.4777629094909599 0.24169207644090632 -6.7023057916229628e-06 -0.66533687587733681 0.20973291366348498 2.6020701923536311e-06 -0.48531971031212046 0.24152476848348867 -3.5989879353480634e-06 -0.48729627978194517 0.18712845891779253 3.5416279715640605e-06 -0.4777629094909599 0.24158503483868382 2.8148586371480365e-06 -0.57552732644329629 0.24152476848348867 -3.5989879353480634e-06 -0.48729627978194517 0.24169207644090632 -6.7023057916229628e-06 -0.66533687587733681 0.20973291366348501 2.6020701923536298e-06 -0.48531971031212046 0.20973291366348501 2.6020701923536298e-06 -0.48531971031212046 0.24158503483868382 2.8148586371480365e-06 -0.57552732644329629 0.24152476848348867 -3.5989879353480634e-06 -0.48729627978194517 0.24146730518286708 2.5772612659585388e-06 -0.38364692865307054 0.24169207644090632 -6.7023057916229628e-06 -0.66533687587733681 0.19684835156175312 2.7765817796490372e-06 -0.65610808148341071 0.24158503483868382 2.8148586371480365e-06 -0.57552732644329629 0.20973291366348498 2.6020701923536268e-06 -0.48531971031212029 0.20973291366348501 2.6020701923536298e-06 -0.48531971031212046 0.19684835156175312 2.7765817796490376e-06 -0.65610808148341071 0.16514259358204131 3.2277593962860256e-06 -0.5014712888388515 0.18712845891779253 3.5416279715640605e-06 -0.4777629094909599 0.19684835156175312 2.776581779649038e-06 -0.65610808148341071 0.20973291366348501 2.6020701923536298e-06 -0.48531971031212046 0.24169207644090632 -6.7023057916229611e-06 -0.66533687587733681 0.18712845891779253 3.5416279715640605e-06 -0.4777629094909599 0.24169207644090632 -6.7023057916229628e-06 -0.66533687587733681 0.19684835156175312 2.7765817796490385e-06 -0.65610808148341082 0.24178053350168302 3.0655676873711695e-06 -0.76741622758712069 0.24158503483868382 2.8148586371480365e-06 -0.57552732644329629 0.24178053350168302 3.0655676873711695e-06 -0.76741622758712069 0.20668150042458686 2.0576594539911179e-06 -0.81863402778509675 0.19684835156175312 2.776581779649038e-06 -0.65610808148341071 0.24169207644090632 -6.7023057916229628e-06 -0.66533687587733681 0.20668150042458688 2.0576594539911175e-06 -0.81863402778509675 0.24169207644090632 -6.7023057916229628e-06 -0.66533687587733681 0.24186596910089625 -4.4249775555526017e-06 -0.81884582996707911 0.18814599561655443 4.1877823102076064e-06 -0.78306462561741963 0.20668150042458688 2.0576594539911175e-06 -0.81863402778509675 0.24178053350168302 3.0655676873711695e-06 -0.76741622758712069 0.24186596910089625 -4.4249775555526e-06 -0.818845829967079 0.24169207644090634 -6.7023057916229602e-06 -0.66533687587733703 0.20691308929659435 3.2475343046246785e-06 -0.95908974096454547 0.24209712839889114 2.8117503276422422e-06 -0.95937636587853825 0.24209498587026276 5.7255551450517724e-07 -0.95935746839600722 0.24186596910089625 -4.4249775555526009e-06 -0.81884582996707911 0.20691308929659435 3.2475343046246785e-06 -0.95908974096454547 0.19402065041192909 2.6749361789129471e-06 -0.95897127267588722 0.24209712839889114 2.8117503276422431e-06 -0.95937636587853825 0.20668150042458688 2.0576594539911175e-06 -0.81863402778509675 0.24178053350168302 3.0655676873711695e-06 -0.76741622758712069 0.24186596910089625 -4.4249775555526009e-06 -0.81884582996707911 0.24209712839889114 2.8117503276422431e-06 -0.95937636587853825 0.20668150042458688 2.0576594539911175e-06 -0.81863402778509675 0.24186596910089625 -4.4249775555526009e-06 -0.81884582996707911 0.20691308929659435 3.2475343046246793e-06 -0.95908974096454547 0.24209712839889114 2.8117503276422431e-06 -0.95937636587853825 0.20668150042458688 2.0576594539911175e-06 -0.81863402778509675 0.20691308929659435 3.2475343046246785e-06 -0.95908974096454547 0.24209498587026276 5.7255551450517724e-07 -0.95935746839600722 0.24180452794682156 2.7570801731464984e-06 -0.77547716114641652 0.24186596910089625 -4.4249775555526009e-06 -0.81884582996707911 0.24209498587026276 5.7255551450517724e-07 -0.95935746839600722 0.24180452794682156 2.7570801731464992e-06 -0.77547716114641652 0.19601363600990665 3.175755546697256e-06 -0.95896389056476405 0.20691308929659435 3.2475343046246785e-06 -0.95908974096454547 0.20691308929659435 3.2475343046246785e-06 -0.95908974096454547 0.24186596910089625 -4.4249775555526009e-06 -0.81884582996707911 0.24180452794682156 2.7570801731464992e-06 -0.77547716114641652 0.18814599561655443 4.1877823102076056e-06 -0.78306462561741952 0.24180452794682156 2.7570801731464992e-06 -0.77547716114641652 0.24186596910089625 -4.4249775555526009e-06 -0.81884582996707911 0.24169207644090632 -6.7023057916229628e-06 -0.66533687587733681 0.18814599561655443 4.1877823102076048e-06 -0.78306462561741952 0.16836350365078995 7.7250324757268939e-06 -0.95871173591338121 0.20691308929659435 3.2475343046246785e-06 -0.95908974096454547 0.19601363600990668 3.1757555466972555e-06 -0.95896389056476405 0.18814599561655443 4.1877823102076048e-06 -0.78306462561741952 0.19601363600990668 3.1757555466972555e-06 -0.95896389056476405 0.20691308929659435 3.2475343046246785e-06 -0.95908974096454547 0.24180452794682156 2.7570801731464992e-06 -0.77547716114641652 0.18814599561655443 4.1877823102076048e-06 -0.78306462561741952 0.20691308929659435 3.2475343046246785e-06 -0.95908974096454547 0.19402065041192909 2.6749361789129471e-06 -0.95897127267588722 0.20668150042458688 2.0576594539911175e-06 -0.81863402778509675 0.18814599561655443 4.1877823102076048e-06 -0.78306462561741952 0.16959969320096108 2.6270185839732199e-06 -0.79630082878032893 0.20668150042458688 2.0576594539911175e-06 -0.81863402778509675 0.19402065041192909 2.6749361789129471e-06 -0.95897127267588722 0.18814599561655443 4.1877823102076048e-06 -0.78306462561741952 0.20691308929659435 3.2475343046246785e-06 -0.95908974096454547 0.16836350365078995 7.7250324757268939e-06 -0.95871173591338121 0.19402065041192909 2.6749361789129471e-06 -0.95897127267588722 0.18814599561655443 4.1877823102076048e-06 -0.78306462561741952 0.24186596910089625 -4.4249775555526009e-06 -0.81884582996707911 0.20691308929659435 3.2475343046246793e-06 -0.95908974096454547 0.20668150042458686 2.0576594539911187e-06 -0.81863402778509664 0.1881459956165544 4.1877823102076056e-06 -0.78306462561741952 0.20668150042458688 2.0576594539911175e-06 -0.81863402778509675 0.16959969320096108 2.6270185839732199e-06 -0.79630082878032893 0.19684835156175312 2.776581779649038e-06 -0.65610808148341071 0.18814599561655446 4.1877823102076048e-06 -0.78306462561741963 0.19684835156175312 2.776581779649038e-06 -0.65610808148341071 0.24169207644090632 -6.7023057916229611e-06 -0.66533687587733681 0.20668150042458688 2.0576594539911175e-06 -0.81863402778509675 0.18814599561655443 4.1877823102076048e-06 -0.78306462561741952 0.16836350365078995 7.7250324757268939e-06 -0.95871173591338121 0.1210592672165802 2.9837173186239984e-06 -0.74647269430397634 0.16959969320096108 2.6270185839732199e-06 -0.79630082878032904 0.18814599561655443 4.1877823102076048e-06 -0.78306462561741952 0.16836350365078995 7.7250324757268939e-06 -0.95871173591338121 0.14819655578356944 1.7300424670032238e-06 -0.95855491694203521 0.1210592672165802 2.983717318623998e-06 -0.74647269430397645 0.18814599561655443 4.1877823102076048e-06 -0.78306462561741952 0.19684835156175312 2.776581779649038e-06 -0.65610808148341071 0.16959969320096108 2.6270185839732199e-06 -0.79630082878032893 0.14833238462121404 2.3962301441423969e-06 -0.65024399416211309 0.18814599561655443 4.1877823102076048e-06 -0.78306462561741952 0.14833238462121404 2.3962301441423969e-06 -0.65024399416211309 0.16959969320096108 2.6270185839732199e-06 -0.79630082878032893 0.1210592672165802 2.983717318623998e-06 -0.74647269430397645 0.18814599561655443 4.1877823102076048e-06 -0.78306462561741952 0.16836350365078995 7.7250324757268939e-06 -0.95871173591338121 0.16959969320096108 2.6270185839732194e-06 -0.79630082878032882 0.19402065041192909 2.6749361789129471e-06 -0.95897127267588722 0.18814599561655443 4.1877823102076048e-06 -0.78306462561741952 0.12365826057171642 2.6251152048680353e-06 -0.80054508482093678 0.14576392762640464 3.1655833391438872e-06 -0.95853586112108069 0.16836350365078998 7.7250324757268956e-06 -0.95871173591338121 0.16959969320096108 2.6270185839732199e-06 -0.79630082878032893 0.16959969320096108 2.6270185839732199e-06 -0.79630082878032893 0.14576392762640467 3.1655833391438876e-06 -0.95853586112108058 0.16836350365078995 7.7250324757268939e-06 -0.95871173591338121 0.19402065041192909 2.6749361789129471e-06 -0.95897127267588722 0.19601363600990668 3.1757555466972555e-06 -0.95896389056476405 0.14819655578356944 1.7300424670032238e-06 -0.95855491694203521 0.16836350365078995 7.7250324757268939e-06 -0.95871173591338121 0.18814599561655443 4.1877823102076048e-06 -0.78306462561741952 0.12348302752274444 -1.232472683219138e-06 -0.95832632601894885 0.16836350365078995 7.7250324757268939e-06 -0.95871173591338121 0.14819655578356944 1.7300424670032238e-06 -0.95855491694203521 0.1210592672165802 2.983717318623998e-06 -0.74647269430397645 0.12348302752274444 -1.232472683219138e-06 -0.95832632601894885 0.12365826057171642 2.6251152048680357e-06 -0.80054508482093678 0.16836350365078995 7.7250324757268939e-06 -0.95871173591338121 0.1210592672165802 2.983717318623998e-06 -0.74647269430397645 0.14576392762640464 3.1655833391438872e-06 -0.95853586112108069 0.12348302752274444 -1.232472683219138e-06 -0.95832632601894885 0.097307705126859378 3.5192596995923085e-06 -0.95814572496490202 0.12365826057171642 2.6251152048680353e-06 -0.80054508482093678 0.16836350365078995 7.7250324757268939e-06 -0.95871173591338121 0.12348302752274444 -1.232472683219138e-06 -0.95832632601894885 0.14576392762640464 3.1655833391438872e-06 -0.95853586112108069 0.1236582605717164 2.6251152048680361e-06 -0.80054508482093656 0.16836350365078995 7.7250324757268939e-06 -0.95871173591338121 0.12365826057171642 2.6251152048680361e-06 -0.80054508482093678 0.16959969320096108 2.6270185839732203e-06 -0.79630082878032893 0.12105926721658018 2.983717318623998e-06 -0.74647269430397645 0.12365826057171642 2.6251152048680353e-06 -0.80054508482093678 0.14833238462121404 2.3962301441423969e-06 -0.65024399416211309 0.16959969320096108 2.6270185839732199e-06 -0.79630082878032893 0.1210592672165802 2.983717318623998e-06 -0.74647269430397645 0.14833238462121404 2.3962301441423969e-06 -0.65024399416211309 0.12106450667414989 6.4067641298831672e-07 -0.50759256102054395 0.16624286811970299 -2.44725324180517e-06 -0.65811351797454065 0.12105926721658018 2.9837173186239997e-06 -0.74647269430397645 0.14833238462121404 2.3962301441423969e-06 -0.65024399416211309 0.12106450667414988 6.4067641298831502e-07 -0.50759256102054395 0.16514259358204131 3.2277593962860256e-06 -0.5014712888388515 0.18712845891779253 3.5416279715640605e-06 -0.4777629094909599 0.14833238462121404 2.3962301441423969e-06 -0.65024399416211309 0.11107684954465802 2.3213213459255757e-06 -0.66089818304294257 0.12106450667414992 6.4067641298831576e-07 -0.50759256102054395 0.1210592672165802 2.983717318623998e-06 -0.74647269430397645 0.11107684954465802 2.3213213459255757e-06 -0.66089818304294257 0.14833238462121404 2.3962301441423969e-06 -0.65024399416211309 0.12365826057171642 2.6251152048680353e-06 -0.80054508482093678 0.1210592672165802 2.983717318623998e-06 -0.74647269430397645 0.14833238462121404 2.3962301441423969e-06 -0.65024399416211309 0.16624286811970296 -2.4472532418051691e-06 -0.65811351797454054 0.1210645066741499 6.4067641298831629e-07 -0.50759256102054406 0.18712845891779253 3.5416279715640605e-06 -0.4777629094909599 0.19684835156175312 2.776581779649038e-06 -0.65610808148341071 0.14833238462121404 2.3962301441423961e-06 -0.65024399416211309 0.16624286811970296 -2.4472532418051704e-06 -0.65811351797454054 0.18814599561655443 4.1877823102076048e-06 -0.78306462561741952 0.14833238462121404 2.3962301441423969e-06 -0.65024399416211309 0.1210592672165802 2.983717318623998e-06 -0.74647269430397645 0.16624286811970299 -2.44725324180517e-06 -0.65811351797454054 0.18814599561655443 4.1877823102076048e-06 -0.78306462561741952 0.19684835156175312 2.776581779649038e-06 -0.65610808148341071 0.16624286811970299 -2.4472532418051687e-06 -0.65811351797454065 0.14833238462121404 2.3962301441423969e-06 -0.65024399416211309 0.18712845891779253 3.5416279715640579e-06 -0.47776290949095995 0.19684835156175312 2.776581779649038e-06 -0.65610808148341071 0.14833238462121404 2.3962301441423969e-06 -0.65024399416211309 0.16514259358204131 3.2277593962860252e-06 -0.50147128883885139 0.18712845891779253 3.5416279715640605e-06 -0.4777629094909599 0.14833238462121404 2.3962301441423969e-06 -0.65024399416211309 0.11107684954465802 2.3213213459255757e-06 -0.66089818304294257 0.1258241638725783 2.7548574110773318e-06 -0.4791785444913671 0.1210645066741499 6.4067641298831545e-07 -0.50759256102054395 0.14833238462121404 2.3962301441423969e-06 -0.65024399416211309 0.1258241638725783 2.7548574110773318e-06 -0.4791785444913671 0.16514259358204131 3.2277593962860256e-06 -0.5014712888388515 0.12106450667414993 6.4067641298831555e-07 -0.50759256102054406 0.16624286811970299 -2.4472532418051687e-06 -0.65811351797454065 0.12106450667414989 6.4067641298831619e-07 -0.50759256102054384 0.12079159775729015 6.8531323351184884e-07 -0.71917573471247631 0.1210592672165802 2.983717318623998e-06 -0.74647269430397645 0.16624286811970299 -2.4472532418051687e-06 -0.65811351797454065 0.12109524713257878 4.4379650362840052e-07 -0.47916176081119366 0.1815438351572273 -5.8789025291916513e-07 -0.47782469158651297 0.12079159775729015 6.8531323351184884e-07 -0.71917573471247631 0.16624286811970299 -2.4472532418051687e-06 -0.65811351797454065 0.12079159775729015 6.8531323351184884e-07 -0.71917573471247631 0.18154383515722733 -5.878902529191647e-07 -0.47782469158651308 0.18892496730820893 -1.4339190761065503e-06 -0.74811311969306182 0.12109524713257877 4.4379650362839978e-07 -0.47916176081119366 0.16624286811970299 -2.4472532418051683e-06 -0.65811351797454065 0.18154383515722733 -5.878902529191647e-07 -0.47782469158651308 0.1210645066741499 6.4067641298831598e-07 -0.50759256102054395 0.18154383515722733 -5.878902529191647e-07 -0.47782469158651308 0.1210645066741499 6.4067641298831513e-07 -0.50759256102054395 0.16624286811970299 -2.4472532418051687e-06 -0.65811351797454065 0.18712845891779259 3.5416279715640626e-06 -0.47776290949095995 0.16624286811970299 -2.4472532418051687e-06 -0.65811351797454065 0.12109524713257877 4.4379650362840025e-07 -0.47916176081119366 0.12079159775729013 6.8531323351184895e-07 -0.71917573471247631 0.12106450667414988 6.4067641298831735e-07 -0.50759256102054384 0.18892496730820893 -1.4339190761065503e-06 -0.74811311969306182 0.14819655578356944 1.7300424670032238e-06 -0.95855491694203532 0.12079159775729013 6.8531323351184905e-07 -0.7191757347124762 0.16343604659739192 4.7508120218858708e-07 -0.9586706041336388 0.18892496730820893 -1.4339190761065503e-06 -0.74811311969306182 0.12079159775729018 6.8531323351184778e-07 -0.71917573471247631 0.14819655578356944 1.7300424670032238e-06 -0.95855491694203521 0.16624286811970299 -2.4472532418051683e-06 -0.65811351797454065 0.14819655578356944 1.7300424670032238e-06 -0.95855491694203521 0.16624286811970299 -2.4472532418051683e-06 -0.65811351797454065 0.19601363600990668 3.1757555466972555e-06 -0.95896389056476405 0.18892496730820893 -1.4339190761065505e-06 -0.74811311969306193 0.16624286811970299 -2.4472532418051687e-06 -0.65811351797454065 0.1210592672165802 2.983717318623998e-06 -0.74647269430397645 0.14819655578356944 1.7300424670032233e-06 -0.9585549169420351 0.18814599561655443 4.1877823102076073e-06 -0.78306462561741941 0.16624286811970299 -2.4472532418051687e-06 -0.65811351797454065 0.12079159775729015 6.8531323351184895e-07 -0.71917573471247642 0.14819655578356941 1.7300424670032248e-06 -0.9585549169420351 0.12105926721658018 2.9837173186239984e-06 -0.74647269430397645 0.19601363600990668 3.1757555466972555e-06 -0.95896389056476405 0.16624286811970299 -2.4472532418051713e-06 -0.65811351797454065 0.14819655578356944 1.7300424670032238e-06 -0.95855491694203521 0.18814599561655443 4.1877823102076048e-06 -0.78306462561741952 0.16343604659739189 4.7508120218858697e-07 -0.9586706041336388 0.14819655578356944 1.7300424670032238e-06 -0.95855491694203521 0.19601363600990668 3.1757555466972555e-06 -0.95896389056476405 0.18892496730820893 -1.4339190761065503e-06 -0.74811311969306182 0.11137426113174066 -2.8785578080482941e-06 -0.95822916179417783 0.14819655578356944 1.7300424670032238e-06 -0.95855491694203521 0.12079159775729015 6.8531323351184884e-07 -0.71917573471247631 0.1210592672165802 2.983717318623998e-06 -0.74647269430397645 0.12348302752274444 -1.232472683219138e-06 -0.95832632601894885 0.14819655578356944 1.7300424670032248e-06 -0.95855491694203521 0.11137426113174066 -2.8785578080482941e-06 -0.95822916179417783 0.1210592672165802 2.983717318623998e-06 -0.74647269430397645 0.12630950394758958 1.7471155067628483e-06 -0.95836334786265387 0.11137426113174066 -2.8785578080482941e-06 -0.95822916179417783 0.14819655578356944 1.7300424670032238e-06 -0.95855491694203521 0.12079159775729015 6.8531323351184884e-07 -0.71917573471247631 0.16343604659739189 4.7508120218858697e-07 -0.9586706041336388 0.12630950394758958 1.7471155067628483e-06 -0.95836334786265387 0.14819655578356944 1.7300424670032238e-06 -0.95855491694203521 0.12079159775729015 6.8531323351184884e-07 -0.71917573471247631 0.075563517582288534 3.8448639034805009e-06 -0.65644568458368613 0.053023684985336897 -1.2270331206496071e-06 -0.74366698595089564 0.078941621342962065 1.8383525040581386e-06 -0.9580123946736917 0.044810312184358186 -2.8795917228010164e-06 -0.78174110017027132 0.080109984258658576 -2.6434126992899406e-06 -0.95802394965853555 0.078941621342962065 1.8383525040581386e-06 -0.9580123946736917 0.12630950394758958 1.7471155067628483e-06 -0.95836334786265387 0.12079159775729015 6.8531323351184853e-07 -0.7191757347124762 0.11137426113174066 -2.8785578080482941e-06 -0.95822916179417783 0.075563517582288534 3.8448639034805009e-06 -0.65644568458368613 0.075586218676697861 1.3887060231730246e-06 -0.95800551916316368 0.1210592672165802 2.983717318623998e-06 -0.74647269430397645 0.080109984258658576 -2.6434126992899406e-06 -0.95802394965853555 0.078941621342962065 1.8383525040581386e-06 -0.9580123946736917 0.12079159775729015 6.8531323351184916e-07 -0.7191757347124762 0.053023684985336918 -1.2270331206496056e-06 -0.74366698595089575 0.11137426113174066 -2.8785578080482941e-06 -0.95822916179417783 0.12079159775729015 6.853132335118481e-07 -0.71917573471247631 0.075563517582288534 3.8448639034805009e-06 -0.65644568458368613 0.1210592672165802 2.983717318623998e-06 -0.74647269430397645 0.078941621342962065 1.8383525040581386e-06 -0.9580123946736917 0.075563517582288534 3.8448639034805e-06 -0.65644568458368613 0.12079159775729013 6.8531323351185022e-07 -0.7191757347124762 0.053023684985336904 -1.227033120649606e-06 -0.74366698595089564 0.11137426113174066 -2.8785578080482941e-06 -0.95822916179417783 0.12630950394758958 1.7471155067628483e-06 -0.95836334786265387 0.078941621342962065 1.8383525040581386e-06 -0.9580123946736917 0.12079159775729015 6.8531323351184884e-07 -0.71917573471247631 0.075586218676697861 1.3887060231730246e-06 -0.95800551916316368 0.11137426113174066 -2.8785578080482941e-06 -0.95822916179417783 0.078941621342962065 1.8383525040581386e-06 -0.9580123946736917 0.075563517582288534 3.8448639034805009e-06 -0.65644568458368613 0.11137426113174066 -2.8785578080482941e-06 -0.95822916179417783 0.078941621342962065 1.8383525040581384e-06 -0.9580123946736917 0.075563517582288534 3.8448639034805009e-06 -0.65644568458368613 0.12079159775729015 6.8531323351184884e-07 -0.71917573471247631 0.078941621342962065 1.8383525040581386e-06 -0.9580123946736917 0.075586218676697847 1.3887060231730237e-06 -0.95800551916316368 0.075563517582288547 3.8448639034805034e-06 -0.65644568458368613 0.044810312184358193 -2.8795917228010159e-06 -0.78174110017027143 0.075563517582288534 3.8448639034805009e-06 -0.65644568458368613 0.12109524713257877 4.4379650362839883e-07 -0.4791617608111936 0.060027364711824092 7.0602977455126461e-07 -0.43203750923262058 0.1210645066741499 6.4067641298831524e-07 -0.50759256102054384 0.075563517582288534 3.8448639034805009e-06 -0.65644568458368613 0.12079159775729015 6.8531323351184874e-07 -0.71917573471247631 0.12109524713257878 4.4379650362839888e-07 -0.47916176081119366 0.1210645066741499 6.4067641298831524e-07 -0.50759256102054395 0.075563517582288534 3.8448639034805009e-06 -0.65644568458368613 0.12106450667414992 6.4067641298831534e-07 -0.50759256102054395 0.060027364711824086 7.0602977455126493e-07 -0.43203750923262058 0.05456595252279841 2.942976391298716e-06 -0.46161706476649589 0.12109524713257877 4.4379650362839978e-07 -0.47916176081119366 0.075563517582288534 3.8448639034805009e-06 -0.65644568458368613 0.060027364711824086 7.0602977455126429e-07 -0.43203750923262058 0.053023684985336904 -1.227033120649606e-06 -0.74366698595089564 0.075563517582288534 3.8448639034805009e-06 -0.65644568458368613 0.12109524713257877 4.4379650362839904e-07 -0.47916176081119366 0.12079159775729015 6.8531323351184884e-07 -0.71917573471247631 0.053023684985336897 -1.2270331206496071e-06 -0.74366698595089553 0.12079159775729015 6.8531323351184884e-07 -0.71917573471247631 0.12106450667414992 6.4067641298831629e-07 -0.50759256102054395 0.075563517582288534 3.8448639034805009e-06 -0.65644568458368613 0.1210592672165802 2.983717318623998e-06 -0.74647269430397645 0.078658422563229607 3.2123288513623153e-06 -0.575027737693666 0.11107684954465802 2.3213213459255757e-06 -0.66089818304294257 0.075563517582288534 3.8448639034805009e-06 -0.65644568458368613 0.12106450667414989 6.4067641298831693e-07 -0.50759256102054395 0.11107684954465802 2.3213213459255757e-06 -0.66089818304294257 0.075453336318544381 2.844021109035409e-06 -0.78048744343325238 0.078658422563229607 3.2123288513623153e-06 -0.575027737693666 0.075563517582288534 3.8448639034805009e-06 -0.65644568458368613 0.11107684954465802 2.3213213459255757e-06 -0.66089818304294257 0.075563517582288534 3.8448639034805009e-06 -0.65644568458368613 0.1210645066741499 6.4067641298831598e-07 -0.50759256102054395 0.1210592672165802 2.983717318623998e-06 -0.74647269430397645 0.078658422563229607 3.2123288513623153e-06 -0.575027737693666 0.075563517582288534 3.8448639034805009e-06 -0.65644568458368613 0.075453336318544395 2.8440211090354119e-06 -0.78048744343325249 0.044810312184358193 -2.8795917228010159e-06 -0.78174110017027143 0.078658422563229607 3.2123288513623153e-06 -0.575027737693666 0.12106450667414988 6.4067641298831704e-07 -0.50759256102054384 0.075563517582288547 3.8448639034805017e-06 -0.65644568458368613 0.054565952522798424 2.9429763912987164e-06 -0.46161706476649594 0.11107684954465802 2.3213213459255757e-06 -0.66089818304294257 0.075453336318544395 2.844021109035409e-06 -0.78048744343325249 0.07556351758228852 3.8448639034805009e-06 -0.65644568458368602 0.1210592672165802 2.983717318623998e-06 -0.74647269430397645 0.079764382264319519 3.0813947244894298e-06 -0.37955429743242058 0.12106450667414992 6.4067641298831534e-07 -0.50759256102054395 0.078658422563229607 3.2123288513623153e-06 -0.575027737693666 0.05456595252279841 2.9429763912987164e-06 -0.46161706476649594 0.078658422563229607 3.2123288513623153e-06 -0.575027737693666 0.075563517582288547 3.8448639034805017e-06 -0.65644568458368624 0.038575542430143626 2.6375042128227961e-06 -0.66520505566246446 0.05456595252279841 2.9429763912987164e-06 -0.46161706476649589 0.079764382264319519 3.0813947244894298e-06 -0.37955429743242058 0.1258241638725783 2.7548574110773318e-06 -0.4791785444913671 0.078658422563229607 3.2123288513623153e-06 -0.575027737693666 0.1210645066741499 6.4067641298831598e-07 -0.50759256102054395 0.078658422563229607 3.2123288513623153e-06 -0.575027737693666 0.1258241638725783 2.7548574110773318e-06 -0.4791785444913671 0.11107684954465802 2.3213213459255757e-06 -0.66089818304294257 0.1210645066741499 6.4067641298831661e-07 -0.50759256102054395 0.11107684954465802 2.3213213459255757e-06 -0.66089818304294257 0.12365826057171642 2.6251152048680353e-06 -0.80054508482093678 0.075453336318544381 2.844021109035409e-06 -0.78048744343325238 0.1210592672165802 2.983717318623998e-06 -0.74647269430397645 0.075453336318544381 2.844021109035409e-06 -0.78048744343325238 0.1210592672165802 2.9837173186239984e-06 -0.74647269430397634 0.075586218676697861 1.3887060231730246e-06 -0.95800551916316368 0.044810312184358193 -2.8795917228010159e-06 -0.78174110017027143 0.075453336318544381 2.844021109035409e-06 -0.78048744343325238 0.075563517582288534 3.8448639034805051e-06 -0.65644568458368602 0.12105926721658021 2.983717318623984e-06 -0.74647269430397656 0.044810312184358193 -2.8795917228010159e-06 -0.78174110017027143 0.12348302752274444 -1.232472683219138e-06 -0.95832632601894885 0.075453336318544367 2.8440211090354094e-06 -0.78048744343325249 0.12365826057171642 2.6251152048680353e-06 -0.80054508482093678 0.1210592672165802 2.983717318623998e-06 -0.74647269430397645 0.075586218676697861 1.3887060231730246e-06 -0.95800551916316368 0.12105926721658018 2.9837173186239806e-06 -0.74647269430397645 0.07556351758228852 3.8448639034805187e-06 -0.65644568458368635 0.044810312184358193 -2.8795917228010159e-06 -0.78174110017027143 0.075453336318544381 2.844021109035409e-06 -0.78048744343325238 0.097307705126859378 3.5192596995923085e-06 -0.95814572496490202 0.12348302752274444 -1.232472683219138e-06 -0.95832632601894885 0.12365826057171642 2.6251152048680353e-06 -0.80054508482093678 0.075453336318544381 2.844021109035409e-06 -0.78048744343325238 0.097307705126859378 3.5192596995923085e-06 -0.95814572496490202 0.075586218676697861 1.3887060231730246e-06 -0.95800551916316368 0.12348302752274444 -1.232472683219138e-06 -0.95832632601894885 0.075453336318544381 2.844021109035409e-06 -0.78048744343325238 0.12348302752274444 -1.232472683219138e-06 -0.95832632601894885 0.075586218676697861 1.3887060231730246e-06 -0.95800551916316368 0.1210592672165802 2.9837173186239993e-06 -0.74647269430397634 0.11137426113174066 -2.8785578080482941e-06 -0.95822916179417783 0.075586218676697861 1.3887060231730246e-06 -0.95800551916316368 0.12348302752274444 -1.2324726832191382e-06 -0.95832632601894885 0.1210592672165802 2.983717318623998e-06 -0.74647269430397645 0.097307705126859378 3.5192596995923085e-06 -0.95814572496490202 0.048704486772297585 2.875406162430813e-06 -0.95786317255472386 0.075453336318544381 2.844021109035409e-06 -0.78048744343325238 0.075586218676697861 1.3887060231730246e-06 -0.95800551916316368 0.038575542430143626 2.6375042128227961e-06 -0.66520505566246446 0.075453336318544381 2.844021109035409e-06 -0.78048744343325238 0.035561420813332599 2.1215117163672202e-06 -0.81758104773724738 0.044810312184358193 -2.8795917228010159e-06 -0.78174110017027143 0.075453336318544381 2.844021109035409e-06 -0.78048744343325238 0.075586218676697861 1.3887060231730246e-06 -0.95800551916316368 0.035561420813332599 2.1215117163672202e-06 -0.81758104773724738 0.044810312184358193 -2.8795917228010159e-06 -0.78174110017027143 0.075453336318544381 2.844021109035409e-06 -0.78048744343325238 0.048704486772297578 2.8754061624308121e-06 -0.95786317255472386 0.035561420813332599 2.1215117163672202e-06 -0.81758104773724738 0.075586218676697861 1.3887060231730246e-06 -0.95800551916316368 0.035642650530732276 -4.3673811589831372e-07 -0.95781776410707942 0.035561420813332599 2.1215117163672202e-06 -0.81758104773724738 0.048704486772297585 2.875406162430813e-06 -0.95786317255472386 0.075586218676697861 1.3887060231730246e-06 -0.95800551916316368 0.075586218676697861 1.3887060231730246e-06 -0.95800551916316368 0.038701648543169799 9.1022939997289729e-07 -0.95782915222569864 0.035642650530732276 -4.3673811589831372e-07 -0.95781776410707942 0.044810312184358193 -2.8795917228010159e-06 -0.78174110017027143 0.035642650530732276 -4.3673811589831372e-07 -0.95781776410707942 0.035561420813332592 2.1215117163672206e-06 -0.81758104773724738 0.075586218676697861 1.3887060231730243e-06 -0.95800551916316357 0.044810312184358186 -2.8795917228010172e-06 -0.78174110017027143 -1.2009074546654355e-09 5.3799144077217413e-07 -0.81753581684716548 2.0103891130939137e-09 -5.0566558425525805e-06 -0.81576913851637811 8.8521844193960764e-09 2.1819695456193831e-06 -0.6756398917376536 0.044810312184358193 -2.8795917228010159e-06 -0.78174110017027143 0.038575542430143626 2.6375042128227961e-06 -0.66520505566246446 -1.2009074529852369e-09 5.3799144077217371e-07 -0.81753581684716548 8.8521844207143079e-09 2.1819695456193822e-06 -0.67563989173765349 0.044810312184358186 -2.8795917228010155e-06 -0.78174110017027132 0.044810312184358193 -2.8795917228010159e-06 -0.78174110017027143 2.4335734123882458e-08 -3.8422747142534731e-07 -0.95775262691579055 0.038701648543169778 9.102293999728957e-07 -0.95782915222569864 0.035642650530732276 -4.3673811589831298e-07 -0.95781776410707931 0.035561420813332599 2.1215117163672202e-06 -0.81758104773724738 0.035642650530732276 -4.3673811589831367e-07 -0.95781776410707942 -1.2009074546654355e-09 5.3799144077217413e-07 -0.81753581684716548 0.044810312184358193 -2.8795917228010159e-06 -0.78174110017027143 -1.2009074546654355e-09 5.3799144077217413e-07 -0.81753581684716548 2.4335734116051499e-08 -3.842274714253488e-07 -0.95775262691579055 2.0103891130939137e-09 -5.0566558425525805e-06 -0.81576913851637811 0.044810312184358193 -2.8795917228010159e-06 -0.78174110017027143 -1.2009074546654355e-09 5.3799144077217413e-07 -0.81753581684716548 0.035642650530732276 -4.3673811589831372e-07 -0.95781776410707942 2.4335734117601295e-08 -3.8422747142534848e-07 -0.95775262691579055 0.044810312184358193 -2.8795917228010159e-06 -0.78174110017027143 1.8771638507240315e-08 2.901295453577903e-06 -0.95774186985318677 -1.2009074562111935e-09 5.3799144077217424e-07 -0.81753581684716559 0.035642650530732276 -4.3673811589831372e-07 -0.95781776410707942 2.4335734115766175e-08 -3.842274714253488e-07 -0.95775262691579055 -1.2009074546654355e-09 5.3799144077217413e-07 -0.81753581684716548 0.035561420813332599 2.1215117163672198e-06 -0.81758104773724738 1.8771638507240315e-08 2.901295453577903e-06 -0.95774186985318677 0.035642650530732276 -4.3673811589831372e-07 -0.95781776410707942 0.048704486772297585 2.875406162430813e-06 -0.95786317255472386 1.8771638508297356e-08 2.9012954535779035e-06 -0.95774186985318677 0.035561420813332599 2.1215117163672202e-06 -0.81758104773724738 0.035642650530732276 -4.3673811589831372e-07 -0.95781776410707942 0.035561420813332599 2.1215117163672202e-06 -0.81758104773724738 1.8771638507240315e-08 2.901295453577903e-06 -0.95774186985318677 -1.2860977812550445e-09 2.5614269187096406e-06 -0.76622662918404538 -1.2009074546654355e-09 5.3799144077217413e-07 -0.81753581684716548 0.035561420813332599 2.1215117163672202e-06 -0.81758104773724738 -1.2009074546559612e-09 5.3799144077217413e-07 -0.81753581684716548 0.038575542430143626 2.6375042128227961e-06 -0.66520505566246446 0.044810312184358193 -2.8795917228010159e-06 -0.78174110017027143 0.038575542430143626 2.6375042128227961e-06 -0.66520505566246446 -1.2860977905314067e-09 2.5614269187096418e-06 -0.76622662918404538 8.8521844193960764e-09 2.1819695456193831e-06 -0.6756398917376536 -1.2009074546654355e-09 5.3799144077217413e-07 -0.81753581684716548 -1.2860977783772019e-09 2.561426918709641e-06 -0.76622662918404538 0.038575542430143626 2.6375042128227961e-06 -0.66520505566246446 0.035561420813332599 2.1215117163672202e-06 -0.81758104773724738 -1.2009074546654355e-09 5.3799144077217413e-07 -0.81753581684716548 8.8521844193960764e-09 2.1819695456193831e-06 -0.6756398917376536 -8.787250163071337e-10 3.1532526781444839e-06 -0.57469698494212729 -1.2860977783772019e-09 2.561426918709641e-06 -0.76622662918404538 0.038575542430143626 2.6375042128227961e-06 -0.66520505566246446 0.075563517582288534 3.8448639034805009e-06 -0.65644568458368613 0.054565952522798417 2.9429763912987109e-06 -0.461617064766496 8.8521844102455828e-09 2.1819695456193941e-06 -0.6756398917376536 0.0448103121843582 -2.8795917228010159e-06 -0.78174110017027143 8.8521844193960764e-09 2.1819695456193831e-06 -0.6756398917376536 -5.2274531955626144e-09 4.6262925364545434e-06 -0.48661213951057392 -8.787250163071337e-10 3.1532526781444839e-06 -0.57469698494212729 0.038575542430143626 2.6375042128227961e-06 -0.66520505566246446 0.038575542430143626 2.6375042128227961e-06 -0.66520505566246446 0.075563517582288547 3.8448639034804966e-06 -0.65644568458368624 0.078658422563229607 3.2123288513623153e-06 -0.575027737693666 0.044810312184358193 -2.8795917228010159e-06 -0.78174110017027143 0.038575542430143626 2.6375042128227961e-06 -0.66520505566246446 0.054565952522798444 2.9429763912987253e-06 -0.461617064766496 0.075563517582288506 3.8448639034804916e-06 -0.65644568458368613 0.044810312184358193 -2.8795917228010159e-06 -0.78174110017027143 0.038575542430143626 2.6375042128227961e-06 -0.66520505566246446 8.852184430323852e-09 2.1819695456193814e-06 -0.6756398917376536 0.054565952522798417 2.9429763912987164e-06 -0.46161706476649594 0.044810312184358186 -2.8795917228010159e-06 -0.78174110017027143 0.038575542430143626 2.6375042128227961e-06 -0.66520505566246446 0.078658422563229607 3.2123288513623153e-06 -0.575027737693666 0.075453336318544381 2.844021109035409e-06 -0.78048744343325238 0.044810312184358193 -2.8795917228010159e-06 -0.78174110017027143 0.078658422563229607 3.2123288513623153e-06 -0.575027737693666 0.038575542430143626 2.6375042128227961e-06 -0.66520505566246446 0.041752655208073287 2.884515595231035e-06 -0.47738749530158897 0.054565952522798417 2.9429763912987164e-06 -0.46161706476649594 -5.2274532012538651e-09 4.6262925364545434e-06 -0.48661213951057392 0.041752655208073294 2.884515595231035e-06 -0.47738749530158897 0.038575542430143626 2.6375042128227961e-06 -0.66520505566246446 0.054565952522798417 2.9429763912987164e-06 -0.46161706476649594 -8.787250163071337e-10 3.1532526781444839e-06 -0.57469698494212729 -3.0541918878626696e-09 3.3805798242808134e-06 -0.38315215373088507 0.041752655208073287 2.884515595231035e-06 -0.47738749530158897 -5.2274532012538651e-09 4.6262925364545434e-06 -0.48661213951057392 -5.2274532012538651e-09 4.6262925364545434e-06 -0.48661213951057392 0.041752655208073301 2.884515595231035e-06 -0.47738749530158897 -8.787250163071337e-10 3.1532526781444839e-06 -0.57469698494212729 0.038575542430143626 2.6375042128227961e-06 -0.66520505566246446 -5.2274532012538651e-09 4.6262925364545434e-06 -0.48661213951057392 0.038575542430143626 2.6375042128227961e-06 -0.66520505566246446 8.8521844193960764e-09 2.1819695456193831e-06 -0.6756398917376536 0.054565952522798417 2.9429763912987164e-06 -0.46161706476649594 -8.0150409157337139e-09 1.4003098075690487e-06 -0.5741490906291018 -5.2274532012538651e-09 4.6262925364545434e-06 -0.48661213951057392 8.8521844193960764e-09 2.1819695456193831e-06 -0.6756398917376536 0.054565952522798417 2.9429763912987164e-06 -0.46161706476649594 -8.0150409157337139e-09 1.4003098075690487e-06 -0.5741490906291018 8.8521844204744404e-09 2.1819695456193831e-06 -0.6756398917376536 0.075563517582288534 3.8448639034805009e-06 -0.65644568458368602 0.054565952522798417 2.9429763912987164e-06 -0.46161706476649594 -8.0150409157337139e-09 1.4003098075690487e-06 -0.5741490906291018 0.075563517582288506 3.844863903480467e-06 -0.65644568458368635 8.8521844212034727e-09 2.1819695456193869e-06 -0.6756398917376536 0.0448103121843582 -2.8795917228010248e-06 -0.78174110017027143 -8.0150409157337139e-09 1.4003098075690487e-06 -0.5741490906291018 8.8521844193960764e-09 2.1819695456193831e-06 -0.6756398917376536 6.3280281725644692e-09 -3.0965753044535174e-06 -0.69652934801121147 0.044810312184358214 -2.8795917228010164e-06 -0.78174110017027143 -8.0150409157337139e-09 1.4003098075690487e-06 -0.5741490906291018 0.060027364711824092 7.0602977455126345e-07 -0.43203750923262052 0.075563517582288534 3.8448639034805009e-06 -0.65644568458368613 0.053023684985336904 -1.2270331206496071e-06 -0.74366698595089564 -8.0150409157337139e-09 1.4003098075690487e-06 -0.5741490906291018 6.3280281725644692e-09 -3.0965753044535174e-06 -0.69652934801121147 0.07556351758228852 3.8448639034804992e-06 -0.65644568458368624 0.0448103121843582 -2.8795917228010172e-06 -0.78174110017027154 -8.0150409157337139e-09 1.4003098075690487e-06 -0.5741490906291018 5.0122809857623703e-09 -1.7111411493542117e-06 -0.644809635903275 -5.9827251292875552e-09 2.0147014030134166e-06 -0.49769174428635815 0.053023684985336918 -1.2270331206496058e-06 -0.74366698595089553 6.3280281725644692e-09 -3.0965753044535174e-06 -0.69652934801121147 -8.0150409157337139e-09 1.4003098075690487e-06 -0.5741490906291018 0.075563517582288534 3.8448639034805009e-06 -0.65644568458368613 0.053023684985336904 -1.227033120649606e-06 -0.74366698595089564 -8.0150409157337139e-09 1.4003098075690487e-06 -0.5741490906291018 0.075563517582288534 3.8448639034805009e-06 -0.65644568458368613 0.060027364711824079 7.0602977455126355e-07 -0.43203750923262052 0.054565952522798417 2.9429763912987164e-06 -0.46161706476649594 -8.0150409157337139e-09 1.4003098075690487e-06 -0.5741490906291018 -5.9827251263489051e-09 2.0147014030134171e-06 -0.49769174428635815 0.060027364711824086 7.0602977455126429e-07 -0.43203750923262058 0.053023684985336911 -1.2270331206496073e-06 -0.74366698595089564 8.8797792349235834e-11 1.1792428496078903e-06 -0.43739469092555044 -5.227453201264324e-09 4.6262925364545434e-06 -0.48661213951057392 -8.0150409157337139e-09 1.4003098075690487e-06 -0.5741490906291018 0.054565952522798417 2.9429763912987164e-06 -0.46161706476649594 -8.0150409157337139e-09 1.4003098075690487e-06 -0.5741490906291018 -5.9827251263489051e-09 2.0147014030134171e-06 -0.49769174428635815 8.8797792349235834e-11 1.1792428496078903e-06 -0.43739469092555044 0.060027364711824086 7.0602977455126429e-07 -0.43203750923262058 6.3280281725644692e-09 -3.0965753044535174e-06 -0.69652934801121147 5.0122809857623703e-09 -1.7111411493542117e-06 -0.644809635903275 -8.0150409138060174e-09 1.4003098075690489e-06 -0.5741490906291018 0.053023684985336904 -1.227033120649606e-06 -0.74366698595089564 -1.1239825909044451e-09 -5.0641959921039077e-06 -0.80636888003096607 2.0103891130939137e-09 -5.0566558425525805e-06 -0.81576913851637811 0.038701648543169799 9.1022939997289729e-07 -0.95782915222569864 0.053023684985336911 -1.2270331206496058e-06 -0.74366698595089553 6.3280281725644692e-09 -3.0965753044535174e-06 -0.69652934801121147 0.053023684985336904 -1.2270331206496052e-06 -0.74366698595089564 0.075563517582288534 3.8448639034805009e-06 -0.65644568458368613 0.044810312184358193 -2.8795917228010168e-06 -0.78174110017027154 0.038701648543169799 9.1022939997289729e-07 -0.95782915222569864 0.053023684985336904 -1.2270331206496067e-06 -0.74366698595089564 2.0103891026276937e-09 -5.0566558425525805e-06 -0.81576913851637811 0.044810312184358193 -2.8795917228010151e-06 -0.78174110017027143 -1.1239825909044451e-09 -5.0641959921039077e-06 -0.80636888003096607 5.0122809857623703e-09 -1.7111411493542117e-06 -0.644809635903275 6.3280281725644692e-09 -3.0965753044535174e-06 -0.69652934801121147 0.053023684985336918 -1.227033120649605e-06 -0.74366698595089553 -1.1239825909044451e-09 -5.0641959921039077e-06 -0.80636888003096607 6.3280281725644692e-09 -3.0965753044535174e-06 -0.69652934801121147 2.0103891130939137e-09 -5.0566558425525805e-06 -0.81576913851637811 0.053023684985336918 -1.2270331206496062e-06 -0.74366698595089575 0.038701648543169799 9.1022939997289729e-07 -0.95782915222569864 0.078941621342962065 1.8383525040581388e-06 -0.9580123946736917 0.053023684985336904 -1.2270331206496067e-06 -0.74366698595089564 0.044810312184358193 -2.8795917228010155e-06 -0.78174110017027143 6.3280281725644692e-09 -3.0965753044535174e-06 -0.69652934801121147 2.0103891128743828e-09 -5.0566558425525805e-06 -0.81576913851637811 0.053023684985336897 -1.2270331206496067e-06 -0.74366698595089575 0.0448103121843582 -2.8795917228010155e-06 -0.78174110017027143 8.8521844193960764e-09 2.1819695456193831e-06 -0.6756398917376536 2.0103891130939137e-09 -5.0566558425525805e-06 -0.81576913851637811 6.3280281714231709e-09 -3.0965753044535174e-06 -0.69652934801121147 0.044810312184358193 -2.8795917228010159e-06 -0.78174110017027143 0.038701648543169799 9.1022939997289729e-07 -0.95782915222569864 0.078941621342962065 1.8383525040581386e-06 -0.95801239467369159 0.041934325869330324 -7.5889706695813931e-07 -0.95783098596825933 0.053023684985336904 -1.227033120649606e-06 -0.74366698595089564 0.038701648543169799 9.1022939997289729e-07 -0.95782915222569864 0.041934325869330324 -7.58897066958139e-07 -0.95783098596825944 -1.1239825909044451e-09 -5.0641959921039077e-06 -0.80636888003096607 0.053023684985336904 -1.227033120649606e-06 -0.74366698595089564 0.078941621342962065 1.8383525040581386e-06 -0.9580123946736917 0.038701648543169799 9.1022939997289729e-07 -0.95782915222569864 0.075586218676697875 1.3887060231730246e-06 -0.95800551916316368 0.044810312184358193 -2.8795917228010159e-06 -0.78174110017027143 0.044810312184358193 -2.8795917228010159e-06 -0.78174110017027143 0.038701648543169792 9.1022939997289729e-07 -0.95782915222569864 2.4335734123828929e-08 -3.8422747142534805e-07 -0.95775262691579055 2.0103891130939137e-09 -5.0566558425525805e-06 -0.81576913851637811 2.0103891130939137e-09 -5.0566558425525805e-06 -0.81576913851637811 -1.1239825909874665e-09 -5.0641959921039077e-06 -0.80636888003096607 0.038701648543169799 9.1022939997289729e-07 -0.95782915222569864 2.032851528868207e-08 -2.3431040132530643e-06 -0.95777864339124841 0.038701648543169799 9.1022939997289729e-07 -0.95782915222569864 2.4335734115766175e-08 -3.842274714253488e-07 -0.95775262691579055 2.010389109911445e-09 -5.0566558425525805e-06 -0.81576913851637811 2.032851528868207e-08 -2.3431040132530643e-06 -0.95777864339124841 2.032851528868207e-08 -2.3431040132530643e-06 -0.95777864339124841 -1.1239825909044451e-09 -5.0641959921039077e-06 -0.80636888003096607 0.038701648543169799 9.1022939997289729e-07 -0.95782915222569864 0.041934325869330324 -7.58897066958139e-07 -0.95783098596825944 -1.1239825909044451e-09 -5.0641959921039077e-06 -0.80636888003096607 2.032851528868207e-08 -2.3431040132530643e-06 -0.95777864339124841 2.5717899299550843e-08 -3.4673035003467895e-06 -0.95777800464065499 0.041934325869330324 -7.58897066958139e-07 -0.95783098596825944 0.041934325869330324 -7.58897066958139e-07 -0.95783098596825944 2.5717899302002298e-08 -3.4673035003467891e-06 -0.95777800464065499 -1.1239825837074018e-09 -5.064195992103906e-06 -0.80636888003096618 1.2884465956653118e-09 1.7292119825836574e-07 -0.77426163043730878 2.5717899302002298e-08 -3.4673035003467891e-06 -0.95777800464065499 0.041934325869330324 -7.58897066958139e-07 -0.95783098596825944 0.041224644872234491 5.6186691957114376e-07 -0.9578351695416748 1.2884466096322434e-09 1.7292119825836781e-07 -0.77426163043730889 6.9881585406611569e-09 -3.4013044081985558e-06 -0.81752971254695339 1.2884466096322434e-09 1.7292119825836781e-07 -0.77426163043730889 0.041224644872234491 5.6186691957114334e-07 -0.9578351695416748 0.076218862716690011 -2.7808281365947185e-06 -0.65873790968293677 0.041224644872234491 5.6186691957114376e-07 -0.9578351695416748 0.076218862716689983 -2.7808281365947155e-06 -0.65873790968293666 1.288446611612217e-09 1.7292119825836799e-07 -0.774261630437309 0.053023684985336897 -1.227033120649606e-06 -0.74366698595089564 -1.1239825909044451e-09 -5.0641959921039077e-06 -0.80636888003096607 1.288446610390993e-09 1.7292119825836762e-07 -0.77426163043730889 5.0122809857623703e-09 -1.7111411493542117e-06 -0.644809635903275 0.053023684985336918 -1.227033120649605e-06 -0.74366698595089553 -1.1239825909044451e-09 -5.0641959921039077e-06 -0.80636888003096607 0.041934325869330318 -7.5889706695813953e-07 -0.95783098596825944 1.288446610525062e-09 1.7292119825836791e-07 -0.77426163043730889 0.053023684985336911 -1.2270331206496062e-06 -0.74366698595089564 1.2884466096322434e-09 1.7292119825836781e-07 -0.77426163043730889 0.041224644872234491 5.6186691957114376e-07 -0.9578351695416748 2.5717899302002298e-08 -3.4673035003467891e-06 -0.95777800464065499 2.2915844866550328e-08 4.1357696993243197e-07 -0.9577738610958999 0.041934325869330324 -7.58897066958139e-07 -0.95783098596825944 0.080109984258658576 -2.6434126992899406e-06 -0.95802394965853555 0.041224644872234491 5.6186691957114376e-07 -0.9578351695416748 0.053023684985336904 -1.227033120649606e-06 -0.74366698595089564 0.041934325869330324 -7.58897066958139e-07 -0.95783098596825944 0.041224644872234491 5.6186691957114376e-07 -0.9578351695416748 1.2884466192589927e-09 1.7292119825836778e-07 -0.77426163043730878 0.053023684985336897 -1.227033120649606e-06 -0.74366698595089553 0.076919347792893403 1.9127802267241757e-06 -0.95800354960745926 0.041224644872234491 5.6186691957114376e-07 -0.9578351695416748 0.080109984258658576 -2.6434126992899406e-06 -0.95802394965853555 0.076218862716689983 -2.7808281365947155e-06 -0.65873790968293666 0.078941621342962065 1.8383525040581386e-06 -0.9580123946736917 0.080109984258658576 -2.6434126992899406e-06 -0.95802394965853555 0.041934325869330324 -7.58897066958139e-07 -0.95783098596825944 0.053023684985336904 -1.227033120649606e-06 -0.74366698595089564 0.11137931986420657 4.0548629573880344e-06 -0.95823089075307732 0.07621886271668997 -2.7808281365947117e-06 -0.65873790968293666 0.12079159775729015 6.8531323351184884e-07 -0.71917573471247631 0.12147862340182387 -5.2307797236195074e-06 -0.74829263440579574 0.080109984258658576 -2.6434126992899406e-06 -0.95802394965853555 0.12079159775729016 6.8531323351184927e-07 -0.71917573471247631 0.076218862716689983 -2.7808281365947155e-06 -0.65873790968293666 0.053023684985336918 -1.2270331206496062e-06 -0.74366698595089564 0.076919347792893403 1.9127802267241757e-06 -0.95800354960745926 0.080109984258658576 -2.6434126992899406e-06 -0.95802394965853555 0.11137931986420657 4.0548629573880344e-06 -0.95823089075307732 0.07621886271668997 -2.7808281365947155e-06 -0.65873790968293666 0.11137931986420657 4.0548629573880344e-06 -0.95823089075307732 0.076919347792893417 1.9127802267241757e-06 -0.95800354960745937 0.076218862716689983 -2.7808281365947155e-06 -0.65873790968293666 0.12147862340182385 -5.2307797236195099e-06 -0.74829263440579541 0.080109984258658576 -2.6434126992899406e-06 -0.95802394965853555 0.11137931986420657 4.0548629573880344e-06 -0.95823089075307732 0.076218862716689983 -2.7808281365947155e-06 -0.65873790968293666 0.12079159775729016 6.8531323351184927e-07 -0.71917573471247631 0.080109984258658576 -2.6434126992899406e-06 -0.95802394965853555 0.076218862716689983 -2.7808281365947155e-06 -0.65873790968293666 0.041224644872234491 5.6186691957114376e-07 -0.9578351695416748 0.053023684985336925 -1.2270331206496067e-06 -0.74366698595089575 0.080109984258658576 -2.6434126992899406e-06 -0.95802394965853555 0.12630950394758958 1.7471155067628477e-06 -0.95836334786265387 0.11137931986420657 4.0548629573880344e-06 -0.95823089075307732 0.12079159775729015 6.8531323351184884e-07 -0.71917573471247631 0.076218862716689983 -2.7808281365947155e-06 -0.65873790968293666 0.12079159775729015 6.8531323351184905e-07 -0.71917573471247631 0.12109524713257876 4.4379650362839994e-07 -0.47916176081119366 0.053023684985336897 -1.2270331206496058e-06 -0.74366698595089553 0.060027364711824086 7.0602977455126429e-07 -0.43203750923262058 0.12128451871389245 -1.8441525874522594e-06 -0.5068219184417484 0.076218862716689956 -2.7808281365947159e-06 -0.65873790968293655 0.053538598317341528 -3.0046741711332559e-06 -0.47902377862390799 0.076218862716689983 -2.7808281365947155e-06 -0.65873790968293666 0.12128451871389247 -1.8441525874522594e-06 -0.50682191844174851 0.12079159775729015 6.8531323351184821e-07 -0.71917573471247631 0.12147862340182385 -5.2307797236195091e-06 -0.74829263440579552 0.12109524713257877 4.4379650362839978e-07 -0.47916176081119366 0.076218862716689983 -2.7808281365947155e-06 -0.65873790968293666 0.060027364711824086 7.0602977455126429e-07 -0.43203750923262058 0.12128451871389247 -1.8441525874522594e-06 -0.50682191844174851 0.12109524713257877 4.4379650362839978e-07 -0.47916176081119366 0.12079159775729018 6.8531323351184948e-07 -0.71917573471247642 0.076218862716689997 -2.7808281365947155e-06 -0.65873790968293666 0.12128451871389247 -1.8441525874522594e-06 -0.50682191844174851 0.12109524713257877 4.4379650362839978e-07 -0.47916176081119366 0.060027364711824086 7.0602977455126429e-07 -0.43203750923262058 0.076218862716689983 -2.7808281365947155e-06 -0.65873790968293655 0.053023684985336904 -1.227033120649606e-06 -0.74366698595089564 0.053023684985336904 -1.227033120649606e-06 -0.74366698595089564 0.076218862716689983 -2.7808281365947155e-06 -0.65873790968293666 -5.9827251250813435e-09 2.0147014030134171e-06 -0.49769174428635815 0.060027364711824065 7.0602977455126461e-07 -0.43203750923262058 7.8339479279937966e-12 -1.0590037087173675e-06 -0.43881229316218523 0.060027364711824079 7.0602977455126461e-07 -0.43203750923262058 -5.5703166251563847e-10 -1.2660461722469582e-06 -0.58472071304815543 0.053538598317341514 -3.0046741711332567e-06 -0.47902377862390799 -5.5703166316870222e-10 -1.2660461722469582e-06 -0.58472071304815543 -5.9827251263489051e-09 2.0147014030134171e-06 -0.49769174428635815 0.076218862716689983 -2.780828136594713e-06 -0.65873790968293666 0.060027364711824086 7.0602977455126429e-07 -0.43203750923262058 0.053023684985336904 -1.227033120649606e-06 -0.74366698595089564 -5.5703164367717884e-10 -1.2660461722469567e-06 -0.58472071304815532 -5.9827251263489051e-09 2.0147014030134171e-06 -0.49769174428635815 0.076218862716689983 -2.7808281365947155e-06 -0.65873790968293666 -5.5703166316870222e-10 -1.2660461722469582e-06 -0.58472071304815543 0.060027364711824092 7.0602977455126408e-07 -0.43203750923262058 0.076218862716689983 -2.7808281365947155e-06 -0.65873790968293666 0.053538598317341521 -3.0046741711332576e-06 -0.47902377862390794 0.053023684985336904 -1.227033120649606e-06 -0.74366698595089564 -5.9827251263489051e-09 2.0147014030134171e-06 -0.49769174428635815 -5.570316650334224e-10 -1.2660461722469582e-06 -0.58472071304815543 5.0122809857623703e-09 -1.7111411493542117e-06 -0.644809635903275 -1.8195565842756297e-09 -5.5291820791271983e-06 -0.66452512375736672 -5.5703166316870222e-10 -1.2660461722469582e-06 -0.58472071304815543 0.076218862716689983 -2.7808281365947151e-06 -0.65873790968293655 0.053538598317341514 -3.0046741711332567e-06 -0.47902377862390799 -5.5703166316870222e-10 -1.2660461722469582e-06 -0.58472071304815543 1.2884466096322434e-09 1.7292119825836781e-07 -0.77426163043730889 0.076218862716689983 -2.7808281365947155e-06 -0.65873790968293666 0.053023684985336904 -1.227033120649606e-06 -0.74366698595089564 -1.8195565842756297e-09 -5.5291820791271983e-06 -0.66452512375736672 -5.5703166316870222e-10 -1.2660461722469582e-06 -0.58472071304815543 1.2884466109709756e-09 1.7292119825836786e-07 -0.77426163043730889 0.076218862716689983 -2.7808281365947155e-06 -0.65873790968293666 7.8339479279937966e-12 -1.0590037087173675e-06 -0.43881229316218523 -5.9827251263489051e-09 2.0147014030134171e-06 -0.49769174428635815 -5.5703166316870222e-10 -1.2660461722469582e-06 -0.58472071304815543 0.060027364711824086 7.0602977455126429e-07 -0.43203750923262058 -5.5703166316870222e-10 -1.2660461722469582e-06 -0.58472071304815543 5.0122809866375837e-09 -1.7111411493542117e-06 -0.644809635903275 1.2884466119680252e-09 1.7292119825836786e-07 -0.77426163043730889 0.053023684985336876 -1.2270331206496062e-06 -0.74366698595089553 -5.5703166316870222e-10 -1.2660461722469582e-06 -0.58472071304815543 -4.0026456527057945e-09 -3.9207046579678349e-06 -0.48818034533188442 7.8339469762382135e-12 -1.0590037087173675e-06 -0.43881229316218523 0.053538598317341528 -3.0046741711332567e-06 -0.47902377862390799 -1.8195565842756297e-09 -5.5291820791271983e-06 -0.66452512375736672 0.035564003005875061 -2.1201836063879928e-06 -0.81759276046537088 0.045650313466547618 -2.7558580129506635e-06 -0.65484723745682005 0.076218862716689983 -2.7808281365947155e-06 -0.65873790968293666 -1.8195565842756297e-09 -5.5291820791271983e-06 -0.66452512375736672 0.076218862716689983 -2.7808281365947155e-06 -0.65873790968293666 0.045650313466547618 -2.7558580129506631e-06 -0.65484723745681983 0.053538598317341514 -3.0046741711332567e-06 -0.47902377862390799 -1.8195565842756297e-09 -5.5291820791271983e-06 -0.66452512375736672 0.045650313466547611 -2.7558580129506635e-06 -0.65484723745681994 -4.0026456527057945e-09 -3.9207046579678349e-06 -0.48818034533188442 0.053538598317341514 -3.0046741711332567e-06 -0.47902377862390799 -1.8195565842756297e-09 -5.5291820791271983e-06 -0.66452512375736672 -4.0026456527057945e-09 -3.9207046579678349e-06 -0.48818034533188442 -5.5703166485391345e-10 -1.2660461722469582e-06 -0.58472071304815543 0.053538598317341514 -3.0046741711332567e-06 -0.47902377862390799 3.5495904495408615e-09 -3.0085920459119103e-06 -0.76622918736585877 6.6125684398993157e-10 -3.5506865545665544e-06 -0.57470094041712472 -1.8195565842756297e-09 -5.5291820791271983e-06 -0.66452512375736672 0.045650313466547618 -2.7558580129506635e-06 -0.65484723745681994 6.6125684398993157e-10 -3.5506865545665544e-06 -0.57470094041712472 -1.8195565842756297e-09 -5.5291820791271983e-06 -0.66452512375736672 0.045650313466547618 -2.7558580129506635e-06 -0.65484723745681994 -4.0026456527057945e-09 -3.9207046579678349e-06 -0.48818034533188442 0.045650313466547618 -2.7558580129506635e-06 -0.65484723745681994 0.039681380553174453 -2.6174266156641071e-06 -0.46809725857407986 6.6125684398993157e-10 -3.5506865545665544e-06 -0.57470094041712472 -4.0026456527057945e-09 -3.9207046579678349e-06 -0.48818034533188442 0.045650313466547618 -2.7558580129506635e-06 -0.65484723745681994 0.075206165656308305 -2.2440235382937126e-06 -0.51906654840724031 0.039681380553174453 -2.6174266156641071e-06 -0.46809725857407986 0.053538598317341514 -3.0046741711332567e-06 -0.47902377862390799 -4.0026456527057945e-09 -3.9207046579678349e-06 -0.48818034533188442 0.045650313466547611 -2.7558580129506631e-06 -0.65484723745681994 0.039681380553174453 -2.6174266156641071e-06 -0.46809725857407986 0.053538598317341521 -3.0046741711332563e-06 -0.47902377862390794 0.073015590750038148 -2.6491866407837806e-06 -0.79580357564232329 0.096047219300994885 -3.0517317069854669e-06 -0.64265937400629902 0.045650313466547618 -2.7558580129506635e-06 -0.65484723745681994 0.076218862716689983 -2.7808281365947155e-06 -0.65873790968293666 0.075206165656308305 -2.2440235382937126e-06 -0.51906654840724031 0.076218862716689997 -2.7808281365947151e-06 -0.65873790968293677 0.12128451871389245 -1.8441525874522598e-06 -0.50682191844174862 0.053538598317341514 -3.0046741711332563e-06 -0.47902377862390794 0.096047219300994885 -3.0517317069854669e-06 -0.64265937400629902 0.075206165656308305 -2.2440235382937126e-06 -0.51906654840724031 0.07621886271668997 -2.7808281365947147e-06 -0.65873790968293655 0.12128451871389247 -1.844152587452259e-06 -0.5068219184417484 0.096047219300994885 -3.0517317069854669e-06 -0.64265937400629902 0.076218862716689983 -2.7808281365947155e-06 -0.65873790968293666 0.073015590750038148 -2.6491866407837806e-06 -0.79580357564232329 0.12147862340182385 -5.2307797236195091e-06 -0.74829263440579552 0.045650313466547618 -2.7558580129506635e-06 -0.65484723745681994 0.076218862716689983 -2.7808281365947155e-06 -0.65873790968293666 0.075206165656308305 -2.2440235382937126e-06 -0.51906654840724031 0.053538598317341514 -3.0046741711332567e-06 -0.47902377862390799 0.14540315448902705 -3.2176180512222211e-06 -0.64748095240150239 0.12128451871389247 -1.844152587452259e-06 -0.5068219184417484 0.096047219300994885 -3.0517317069854669e-06 -0.64265937400629902 0.12147862340182385 -5.2307797236195091e-06 -0.74829263440579552 0.075206165656308305 -2.2440235382937126e-06 -0.51906654840724031 0.045650313466547625 -2.7558580129506635e-06 -0.65484723745681994 0.096047219300994885 -3.0517317069854669e-06 -0.64265937400629902 0.076218862716689983 -2.7808281365947155e-06 -0.65873790968293666 0.096047219300994885 -3.0517317069854669e-06 -0.64265937400629902 0.12128451871389247 -1.8441525874522585e-06 -0.50682191844174851 0.076218862716689983 -2.7808281365947142e-06 -0.65873790968293655 0.12147862340182385 -5.2307797236195091e-06 -0.74829263440579552 0.096047219300994885 -3.0517317069854669e-06 -0.64265937400629902 0.14540315448902705 -3.2176180512222211e-06 -0.64748095240150239 0.12107497653957426 -2.7783605062633566e-06 -0.46036296073355287 0.12128451871389247 -1.8441525874522594e-06 -0.50682191844174851 0.096047219300994885 -3.0517317069854669e-06 -0.64265937400629902 0.12107497653957426 -2.7783605062633566e-06 -0.46036296073355287 0.075206165656308305 -2.2440235382937126e-06 -0.51906654840724031 0.12128451871389248 -1.8441525874522594e-06 -0.50682191844174862 0.12090055895497535 -2.8771755442325016e-06 -0.79322865866484049 0.14540315448902705 -3.2176180512222211e-06 -0.64748095240150239 0.096047219300994885 -3.0517317069854669e-06 -0.64265937400629902 0.12147862340182385 -5.2307797236195091e-06 -0.74829263440579552 0.073015590750038148 -2.6491866407837806e-06 -0.79580357564232329 0.035666529660904119 2.029461387311799e-07 -0.95781819592009798 0.076919347792893403 1.9127802267241757e-06 -0.95800354960745926 0.076218862716689983 -2.7808281365947155e-06 -0.65873790968293666 0.073015590750038148 -2.6491866407837806e-06 -0.79580357564232329 0.076218862716689983 -2.7808281365947155e-06 -0.65873790968293666 0.076919347792893389 1.9127802267241761e-06 -0.95800354960745926 0.12147862340182382 -5.2307797236195082e-06 -0.74829263440579552 0.073015590750038148 -2.6491866407837806e-06 -0.79580357564232329 0.076919347792893403 1.9127802267241774e-06 -0.95800354960745926 0.12090055895497535 -2.8771755442325016e-06 -0.79322865866484049 0.12147862340182385 -5.2307797236195074e-06 -0.74829263440579552 0.096047219300994885 -3.0517317069854669e-06 -0.64265937400629902 0.073015590750038148 -2.6491866407837806e-06 -0.79580357564232329 0.12090055895497535 -2.8771755442325016e-06 -0.79322865866484049 0.12147862340182385 -5.2307797236195091e-06 -0.74829263440579552 0.076919347792893403 1.9127802267241757e-06 -0.95800354960745926 0.097296724665363724 -3.366164972743011e-06 -0.95812077889224312 0.12090055895497535 -2.8771755442325016e-06 -0.79322865866484049 0.12388583972399765 1.3896061553055773e-06 -0.9583435592961953 0.097296724665363724 -3.366164972743011e-06 -0.95812077889224312 0.12090055895497535 -2.8771755442325016e-06 -0.79322865866484049 0.073015590750038148 -2.6491866407837806e-06 -0.79580357564232329 0.076919347792893403 1.9127802267241757e-06 -0.95800354960745926 0.076919347792893403 1.9127802267241757e-06 -0.95800354960745926 0.12388583972399765 1.3896061553055773e-06 -0.9583435592961953 0.12090055895497535 -2.8771755442325016e-06 -0.79322865866484049 0.12147862340182385 -5.2307797236195082e-06 -0.74829263440579552 0.11137931986420657 4.0548629573880344e-06 -0.95823089075307732 0.12388583972399765 1.3896061553055773e-06 -0.9583435592961953 0.076919347792893403 1.9127802267241757e-06 -0.95800354960745926 0.12147862340182385 -5.2307797236195091e-06 -0.74829263440579552 0.097296724665363724 -3.366164972743011e-06 -0.95812077889224312 0.073015590750038148 -2.6491866407837806e-06 -0.79580357564232329 0.048695392688657066 -2.6405206971557206e-06 -0.95785682707284692 0.076919347792893403 1.9127802267241757e-06 -0.95800354960745926 6.9881585406611569e-09 -3.4013044081985558e-06 -0.81752971254695339 -1.819556582173984e-09 -5.5291820791271975e-06 -0.66452512375736661 1.2884466096322434e-09 1.7292119825836781e-07 -0.77426163043730889 0.076218862716689997 -2.7808281365947151e-06 -0.65873790968293655 0.041224644872234491 5.6186691957114376e-07 -0.9578351695416748 0.076919347792893403 1.9127802267241757e-06 -0.95800354960745915 0.035666529660904119 2.029461387311799e-07 -0.95781819592009798 0.076218862716689983 -2.7808281365947155e-06 -0.65873790968293666 0.035666529660904119 2.029461387311799e-07 -0.95781819592009798 0.048695392688657059 -2.6405206971557206e-06 -0.95785682707284692 0.035564003005875054 -2.1201836063879928e-06 -0.81759276046537088 0.073015590750038148 -2.6491866407837806e-06 -0.79580357564232329 0.035666529660904119 2.029461387311799e-07 -0.95781819592009798 0.073015590750038162 -2.649186640783781e-06 -0.79580357564232318 0.035564003005875054 -2.1201836063879928e-06 -0.81759276046537088 0.076218862716690011 -2.7808281365947155e-06 -0.65873790968293677 0.035666529660904119 2.029461387311799e-07 -0.95781819592009798 0.048695392688657066 -2.6405206971557206e-06 -0.95785682707284692 0.073015590750038148 -2.6491866407837806e-06 -0.79580357564232329 0.076919347792893403 1.9127802267241757e-06 -0.95800354960745926 0.045650313466547618 -2.7558580129506635e-06 -0.65484723745681994 0.035564003005875054 -2.1201836063879928e-06 -0.81759276046537088 0.073015590750038148 -2.6491866407837806e-06 -0.79580357564232329 0.076218862716689983 -2.7808281365947151e-06 -0.65873790968293666 6.9881585406611569e-09 -3.4013044081985558e-06 -0.81752971254695339 0.041224644872234477 5.618669195711426e-07 -0.9578351695416748 0.035666529660904119 2.029461387311798e-07 -0.95781819592009798 0.076218862716689997 -2.7808281365947151e-06 -0.65873790968293655 0.035666529660904119 2.029461387311799e-07 -0.95781819592009798 0.035564003005875054 -2.1201836063879928e-06 -0.81759276046537088 6.9881585406611569e-09 -3.4013044081985558e-06 -0.81752971254695339 0.076218862716689983 -2.7808281365947155e-06 -0.65873790968293666 -1.8195565842756297e-09 -5.5291820791271983e-06 -0.66452512375736672 6.9881585406611569e-09 -3.4013044081985558e-06 -0.81752971254695339 0.035564003005875054 -2.1201836063879928e-06 -0.81759276046537088 0.07621886271668997 -2.7808281365947155e-06 -0.65873790968293655 2.2915844866550328e-08 4.1357696993243197e-07 -0.9577738610958999 1.2884466096322434e-09 1.7292119825836781e-07 -0.77426163043730889 0.041224644872234491 5.6186691957114376e-07 -0.9578351695416748 6.9881585406611569e-09 -3.4013044081985558e-06 -0.81752971254695339 0.035666529660904119 2.029461387311799e-07 -0.95781819592009798 2.2915844865033689e-08 4.1357696993243144e-07 -0.95777386109589979 0.041224644872234491 5.6186691957114376e-07 -0.9578351695416748 6.9881585406611569e-09 -3.4013044081985558e-06 -0.81752971254695339 -1.8195565842756297e-09 -5.5291820791271983e-06 -0.66452512375736672 0.035564003005875061 -2.1201836063879924e-06 -0.81759276046537088 3.5495904495408615e-09 -3.0085920459119103e-06 -0.76622918736585877 0.045650313466547618 -2.7558580129506639e-06 -0.65484723745682005 6.9881585406611569e-09 -3.4013044081985558e-06 -0.81752971254695339 0.035564003005875061 -2.1201836063879928e-06 -0.81759276046537099 3.5495904495408619e-09 -3.0085920459119099e-06 -0.76622918736585877 -1.8195565842756297e-09 -5.5291820791271983e-06 -0.66452512375736672 1.5684366968098226e-08 -2.8480134153962629e-06 -0.95774447833690401 2.2915844866550335e-08 4.1357696993243276e-07 -0.9577738610958999 0.035666529660904119 2.029461387311799e-07 -0.95781819592009798 6.9881585406611569e-09 -3.4013044081985558e-06 -0.81752971254695339 0.035564003005875054 -2.1201836063879928e-06 -0.81759276046537088 3.5495904492755003e-09 -3.0085920459119103e-06 -0.76622918736585877 1.5684366968098226e-08 -2.8480134153962629e-06 -0.95774447833690401 6.9881585406611569e-09 -3.4013044081985558e-06 -0.81752971254695339 1.5684366968098226e-08 -2.8480134153962629e-06 -0.95774447833690401 0.035666529660904119 2.0294613873118051e-07 -0.95781819592009809 0.048695392688657066 -2.6405206971557206e-06 -0.95785682707284692 0.035564003005875054 -2.1201836063879928e-06 -0.81759276046537088 0.035564003005875054 -2.1201836063879928e-06 -0.81759276046537088 1.5684366968098226e-08 -2.8480134153962629e-06 -0.95774447833690401 0.035666529660904119 2.029461387311799e-07 -0.95781819592009798 6.9881585406611569e-09 -3.4013044081985558e-06 -0.81752971254695339 
</DataArray>
</PointData>
<CellData Scalars="" Vectors="" Tensors="stress,">
<DataArray type="Float64" Name="stress" NumberOfComponents="9" format="ascii">
0.0029121492940358262 8.4403393065279467e-06 1.7357892035255609e-05 8.4403393065279467e-06 -0.1988537593500227 -9.4438061499334297e-06 1.7357892035255609e-05 -9.4438061499334297e-06 -0.99720911150167613 0.0031003171802294061 3.1978151412533322e-06 8.1996643337977819e-06 3.1978151412533322e-06 -0.19876876936524132 3.7505787023749774e-06 8.1996643337977819e-06 3.7505787023749774e-06 -0.99694255848221047 0.0030624573043281922 5.4798812477943188e-06 9.432891761925541e-06 5.4798812477943188e-06 -0.19878710114481823 1.4629433896046197e-05 9.432891761925541e-06 1.4629433896046197e-05 -0.99704124939652738 0.0031003684129871046 1.8963837804482195e-06 -1.6918394552534188e-05 1.8963837804482195e-06 -0.1987760303358313 2.3517027538369824e-05 -1.6918394552534188e-05 2.3517027538369824e-05 -0.99699457124174984 0.0030946599703406408 -1.6398337377435283e-06 -7.5117797545931619e-05 -1.6398337377435283e-06 -0.19876448307840222 -1.5464201256129573e-05 -7.5117797545931619e-05 -1.5464201256129573e-05 -0.99698304542810323 0.0029404733975644248 9.4384362488951812e-06 -4.0541767785950977e-05 9.4384362488951812e-06 -0.19882520834589773 -1.672458612450578e-05 -4.0541767785950977e-05 -1.672458612450578e-05 -0.99708072578578388 0.0030924017088154176 -5.8567419535687939e-07 -1.2414538690497245e-05 -5.8567419535687939e-07 -0.19877903287111512 2.5538798956420417e-05 -1.2414538690497245e-05 2.5538798956420417e-05 -0.9970016173728059 0.0029334805615007231 1.2260418044319486e-05 -4.4099842280584389e-05 1.2260418044319486e-05 -0.1988367233945611 -8.6419856597519384e-06 -4.4099842280584389e-05 -8.6419856597519384e-06 -0.99712592977686554 0.0030636080617812422 -1.4254675885343627e-06 -5.3947409657972845e-05 -1.4254675885343627e-06 -0.19879493704773887 -9.2901856081906153e-06 -5.3947409657972845e-05 -9.2901856081906153e-06 -0.99710537442698677 0.0030642722543562095 -2.7129818643635169e-06 -5.073487314732894e-05 -2.7129818643635169e-06 -0.19880792386178681 -1.3162303606900627e-05 -5.073487314732894e-05 -1.3162303606900627e-05 -0.99710289441705335 0.0030608795623036089 -8.7702461227202801e-06 -3.94146940508322e-05 -8.7702461227202801e-06 -0.19879831623162042 -2.0648202162576457e-05 -3.94146940508322e-05 -2.0648202162576457e-05 -0.99705412095527568 0.0031004387068596095 7.5480278417004836e-06 -8.5518696816277995e-06 7.5480278417004836e-06 -0.19879010776434636 1.2557404221624768e-05 -8.5518696816277995e-06 1.2557404221624768e-05 -0.99705649537540175 0.0031415709740061359 8.829102389159354e-07 -3.8000044742858563e-05 8.829102389159354e-07 -0.19876915302962611 2.0538103183753709e-05 -3.8000044742858563e-05 2.0538103183753709e-05 -0.99699509578807177 0.0030993922701243043 4.9464807099160638e-06 2.0279531895150971e-06 4.9464807099160638e-06 -0.19876011321303219 -1.1353735044739022e-05 2.0279531895150971e-06 -1.1353735044739022e-05 -0.99695582062943355 0.0030937773957774367 2.8027830287820854e-06 5.2741018968459946e-06 2.8027830287820854e-06 -0.19876992429860341 -2.9447185209744803e-06 5.2741018968459946e-06 -2.9447185209744803e-06 -0.99696875517233785 0.0029209063470145582 -6.537690168272964e-06 -1.1270753868482517e-05 -6.537690168272964e-06 -0.19884777463137024 8.3620811775157378e-06 -1.1270753868482517e-05 8.3620811775157378e-06 -0.99721384946607472 0.0029473637600060942 -9.9344408827734198e-06 -6.5303603472344207e-05 -9.9344408827734198e-06 -0.19882861848666886 -8.3421515260084789e-06 -6.5303603472344207e-05 -8.3421515260084789e-06 -0.99712619358310406 0.0027778339612108175 2.4952861999796718e-05 2.5940526396398569e-05 2.4952861999796718e-05 -0.19888273048523605 6.6299451937522396e-06 2.5940526396398569e-05 6.6299451937522396e-06 -0.99725568097783213 0.0029035601709251901 1.5865723129865447e-05 1.1183283803187227e-05 1.5865723129865447e-05 -0.1988595449979135 3.7104299670520646e-06 1.1183283803187227e-05 3.7104299670520646e-06 -0.99722469608945885 0.0026151303560877173 1.2453739626312511e-05 -0.00011810941963319443 1.2453739626312511e-05 -0.19893224699385645 2.8183359372753111e-06 -0.00011810941963319443 2.8183359372753111e-06 -0.99729955838323303 0.0024840304340544017 2.668797531195884e-05 3.7061109135767822e-05 2.668797531195884e-05 -0.19901938250927467 -7.4148891670011707e-06 3.7061109135767822e-05 -7.4148891670011707e-06 -0.99761359121698023 0.0024807239943658299 2.2512306553613061e-05 3.909706155273558e-05 2.2512306553613061e-05 -0.19902350459992074 1.8535030525668647e-06 3.909706155273558e-05 1.8535030525668647e-06 -0.9976196464668704 0.0024834245129683311 -1.2627243973635148e-05 -1.0623446627644061e-05 -1.2627243973635148e-05 -0.19900349374253418 9.8773047485949137e-06 -1.0623446627644061e-05 9.8773047485949137e-06 -0.99757024213360157 0.0025091469536453193 -1.6136115963435621e-05 -9.3222954663352287e-05 -1.6136115963435621e-05 -0.19896748224821573 -2.802604871841711e-05 -9.3222954663352287e-05 -2.802604871841711e-05 -0.99741048787505271 0.0025058026180447002 2.1789318032056793e-05 -5.9759080842380907e-05 2.1789318032056793e-05 -0.19901113772893989 -6.53348488949268e-06 -5.9759080842380907e-05 -6.53348488949268e-06 -0.99757927550336245 0.0025390800027667026 2.5943709805435415e-05 -5.1245612044573119e-05 2.5943709805435415e-05 -0.19897025446057903 -3.5910438252795274e-05 -5.1245612044573119e-05 -3.5910438252795274e-05 -0.99741644260640538 0.0028533001586496867 -2.5717945784747162e-05 -0.00019625892426444747 -2.5717945784747162e-05 -0.19886991837624027 -2.5479858686949797e-05 -0.00019625892426444747 -2.5479858686949797e-05 -0.99719545351884886 0.0029640250262693568 6.7498447604109498e-06 -9.3837168957389139e-05 6.7498447604109498e-06 -0.19882351997197067 1.8063591866679385e-05 -9.3837168957389139e-05 1.8063591866679385e-05 -0.99708137653810902 0.0028322002870729834 2.4489072643483169e-06 -0.00024681722012098728 2.4489072643483169e-06 -0.19889498016444163 -3.8467739328362782e-06 -0.00024681722012098728 -3.8467739328362782e-06 -0.99730809552198885 0.0025393961731382531 3.5160275612110719e-05 -0.00014945502254340437 3.5160275612110719e-05 -0.19900182072779393 8.1716688349331434e-06 -0.00014945502254340437 8.1716688349331434e-06 -0.99757675800365897 0.0026275562995259905 1.2408361213896763e-05 -0.00011181677696436854 1.2408361213896763e-05 -0.19898326029200492 -1.8365525366464963e-05 -0.00011181677696436854 -1.8365525366464963e-05 -0.99754763216343623 0.0029365224223030367 4.4322402323133183e-06 -6.8119319635462361e-05 4.4322402323133183e-06 -0.19885676977587646 7.757631118598951e-06 -6.8119319635462361e-05 7.757631118598951e-06 -0.99722499407303844 0.0026307583659114179 2.6418264228670002e-06 -9.1425270539458037e-05 2.6418264228670002e-06 -0.1989327988777157 7.1668612021090483e-06 -9.1425270539458037e-05 7.1668612021090483e-06 -0.99729955158874728 0.0025661235637311746 2.1914525830609175e-05 -0.00013820961116373098 2.1914525830609175e-05 -0.19894277273893332 4.847240035471545e-05 -0.00013820961116373098 4.847240035471545e-05 -0.99731125161973566 0.0026267654720146805 3.6640455210195603e-05 -0.00020703589570381098 3.6640455210195603e-05 -0.1989214464019774 -2.2166853298255518e-05 -0.00020703589570381098 -2.2166853298255518e-05 -0.99725186491060835 0.002546013461698915 3.5263509349601583e-05 -0.00014442730250430191 3.5263509349601583e-05 -0.19899771556673407 2.8995845213763971e-07 -0.00014442730250430191 2.8995845213763971e-07 -0.99755032707219726 0.0030633980841648922 5.7520183587655069e-06 -0.00010593943748971046 5.7520183587655069e-06 -0.19881523517269728 9.8781916030299399e-06 -0.00010593943748971046 9.8781916030299399e-06 -0.9971278027518431 0.0030055454552815331 1.7622261532298342e-05 -0.00012532780941432176 1.7622261532298342e-05 -0.19880082837281227 -3.0759601719054785e-06 -0.00012532780941432176 -3.0759601719054785e-06 -0.9969992660067406 0.0031063290730602364 -1.3521076790512103e-05 -7.187849603984553e-05 -1.3521076790512103e-05 -0.19877465388643259 -1.3702514106594954e-05 -7.187849603984553e-05 -1.3702514106594954e-05 -0.99698303020639245 0.0031645576451402452 1.3211820124748523e-06 -4.9595041114347538e-05 1.3211820124748523e-06 -0.1987593451013191 -2.234479075113871e-05 -4.9595041114347538e-05 -2.234479075113871e-05 -0.99695382417456058 0.0031063831539613895 -1.6722491879598887e-05 -1.389865977270005e-05 -1.6722491879598887e-05 -0.19877848359036909 -1.3453455042236606e-05 -1.389865977270005e-05 -1.3453455042236606e-05 -0.99700234825073686 0.0032854852376661414 1.8053276887137955e-06 -6.7286941530575461e-05 1.8053276887137955e-06 -0.19871172661252434 1.39060449209083e-05 -6.7286941530575461e-05 1.39060449209083e-05 -0.99682723661453343 0.0032094467539815486 1.7578669651216772e-05 -1.0546712481074305e-05 1.7578669651216772e-05 -0.19874360885931019 1.2344265643282615e-05 -1.0546712481074305e-05 1.2344265643282615e-05 -0.99693891330630224 0.0032777734711931794 2.7608186002259939e-06 -6.0380431197493145e-05 2.7608186002259939e-06 -0.19871708520629638 2.0756232100238581e-05 -6.0380431197493145e-05 2.0756232100238581e-05 -0.99686049407098398 0.0031517362329432363 7.4859889893402402e-07 -4.7095351051407164e-05 7.4859889893402402e-07 -0.19875925480666934 1.1252417767032563e-05 -4.7095351051407164e-05 1.1252417767032563e-05 -0.99695412874986422 0.0032614388666598812 -2.5883454685683977e-06 -0.00010363522692413696 -2.5883454685683977e-06 -0.19872606629032116 -2.1562403062835855e-05 -0.00010363522692413696 -2.1562403062835855e-05 -0.99687879211460706 0.003265623752780944 -3.1936931736570673e-07 -0.00010761555790994581 -3.1936931736570673e-07 -0.19870232045108144 -2.7655633243472977e-06 -0.00010761555790994581 -2.7655633243472977e-06 -0.99686766487229317 0.0031015939828158978 -9.8823426588542071e-07 -8.133122420816985e-05 -9.8823426588542071e-07 -0.19876082680607393 -1.03419901020807e-06 -8.133122420816985e-05 -1.03419901020807e-06 -0.99695202189376309 0.0031932013516228208 2.9025878497578953e-06 -1.2036767861878239e-05 2.9025878497578953e-06 -0.19874902358711793 -6.2195950792931498e-06 -1.2036767861878239e-05 -6.2195950792931498e-06 -0.99700207409241881 0.0031107836114134813 -7.8624689065666466e-07 -8.0797389856168689e-05 -7.8624689065666466e-07 -0.19875233306438012 3.5741547338152824e-06 -8.0797389856168689e-05 3.5741547338152824e-06 -0.99691457319978349 0.0030942778280871885 2.7727443811691266e-05 -4.2802792800014644e-05 2.7727443811691266e-05 -0.19878471260653779 1.4461990132164093e-05 -4.2802792800014644e-05 1.4461990132164093e-05 -0.99707750495715275 0.0031308262306713464 3.701866212260741e-05 -6.2514596156332258e-05 3.701866212260741e-05 -0.19875317255661035 -1.8809765594207661e-05 -6.2514596156332258e-05 -1.8809765594207661e-05 -0.99694729531985149 0.0030924536601187325 3.7988966688332305e-06 -7.7768373739198204e-05 3.7988966688332305e-06 -0.19877471951003461 2.8424879289945526e-05 -7.7768373739198204e-05 2.8424879289945526e-05 -0.99699775974875537 0.0031608731302671389 -5.9059988741443325e-05 -4.1951899243053425e-05 -5.9059988741443325e-05 -0.19874618867649718 2.7623834154000271e-05 -4.1951899243053425e-05 2.7623834154000271e-05 -0.9969563059895119 0.0032387617687327785 -1.8049475581938319e-06 -0.00013090120682868189 -1.8049475581938319e-06 -0.19870531982789069 3.3887900938056603e-05 -0.00013090120682868189 3.3887900938056603e-05 -0.99683338125362164 0.0025838245569606566 -6.6184020235399507e-06 -8.7206909177406366e-05 -6.6184020235399507e-06 -0.19899106265571503 -4.0724274023573592e-06 -8.7206909177406366e-05 -4.0724274023573592e-06 -0.99758560817617181 0.0027093268001864568 -3.0058547736764293e-05 -6.8106704832093801e-05 -3.0058547736764293e-05 -0.19887698722266739 -3.7692077179130035e-06 -6.8106704832093801e-05 -3.7692077179130035e-06 -0.99715834989523766 0.0025954712586792605 -1.0510601717481123e-05 -9.665994557772617e-05 -1.0510601717481123e-05 -0.19898582287432165 5.986629655785336e-06 -9.665994557772617e-05 5.986629655785336e-06 -0.99756185378305817 0.002761010469494618 -1.3413076606420906e-05 -0.00021667225394328415 -1.3413076606420906e-05 -0.19890688388633332 6.5989644182362639e-06 -0.00021667225394328415 6.5989644182362639e-06 -0.99734443452747579 0.0026711566384491348 -4.7839344112099825e-05 -0.00014704725458210277 -4.7839344112099825e-05 -0.19896918897176319 6.9923215088640855e-05 -0.00014704725458210277 6.9923215088640855e-05 -0.99758499729886418 0.0028333480357898844 6.6818978281667491e-06 -0.00024446600078320557 6.6818978281667491e-06 -0.19888201365020924 -3.1464318672735914e-06 -0.00024446600078320557 -3.1464318672735914e-06 -0.99730685110384631 0.0025686934955135299 6.0928976578159972e-07 -3.972284230402412e-05 6.0928976578159972e-07 -0.1989689403467321 -0.00011267681887050518 -3.972284230402412e-05 -0.00011267681887050518 -0.99738012674468135 0.0026931914356158326 7.2022724742036769e-08 -0.00012920541983457712 7.2022724742036769e-08 -0.19891388256622947 -2.677342360373966e-06 -0.00012920541983457712 -2.677342360373966e-06 -0.99732523329936673 0.0025366168566924585 -5.7319572476519239e-06 -0.00015469309716126256 -5.7319572476519239e-06 -0.19898910646777346 7.3180287651908316e-07 -0.00015469309716126256 7.3180287651908316e-07 -0.99752304736611985 0.0026029284413026654 7.437037103945485e-06 3.4971473440521068e-05 7.437037103945485e-06 -0.19894724644198081 -4.3621828554990969e-06 3.4971473440521068e-05 -4.3621828554990969e-06 -0.99729160697692565 0.0028970889499710592 -1.31609942349746e-05 5.6241211601193442e-06 -1.31609942349746e-05 -0.1988550179486856 2.8032935090516187e-05 5.6241211601193442e-06 2.8032935090516187e-05 -0.99719885228411187 0.0025739286736726485 1.290182403695831e-06 -7.175611253656955e-05 1.290182403695831e-06 -0.19896346043843255 0.00011706371610925581 -7.175611253656955e-05 0.00011706371610925581 -0.99742422311953483 0.0026774769731912132 -5.0807630396589832e-05 -0.00011239292504555687 -5.0807630396589832e-05 -0.19891192040748651 -2.7931120586022207e-05 -0.00011239292504555687 -2.7931120586022207e-05 -0.99730306113857992 0.0028845262096983681 -7.1814549441577055e-06 2.4391805424882368e-05 -7.1814549441577055e-06 -0.19887585872818472 -3.7409887315086858e-06 2.4391805424882368e-05 -3.7409887315086858e-06 -0.99722229047894795 0.0024898399420945072 1.7312738908851936e-07 3.2007902987345176e-05 1.7312738908851936e-07 -0.19900729037690656 -7.509090663221109e-07 3.2007902987345176e-05 -7.509090663221109e-07 -0.99758931207620949 0.0025020642309592778 -7.7582630358390824e-06 3.5226251314747751e-05 -7.7582630358390824e-06 -0.19902568798716014 -9.0471591232298106e-06 3.5226251314747751e-05 -9.0471591232298106e-06 -0.99759194539297091 0.0030578403708117208 -3.3454428431035742e-06 -5.123947842317067e-05 -3.3454428431035742e-06 -0.19880520215199604 -5.4355712798825895e-07 -5.123947842317067e-05 -5.4355712798825895e-07 -0.99711999781502803 0.003056880869130715 4.0281661670616009e-06 -5.2047615592265908e-05 4.0281661670616009e-06 -0.19880563362426687 1.8712830917477774e-05 -5.2047615592265908e-05 1.8712830917477774e-05 -0.99712167846098954 0.0030792042941711895 2.335403311780457e-06 -2.7842052493898262e-05 2.335403311780457e-06 -0.1987969547903311 -2.0338026026226266e-06 -2.7842052493898262e-05 -2.0338026026226266e-06 -0.99708012093315379 0.0028935286560040629 -9.9942533014823616e-07 1.452807225873086e-05 -9.9942533014823616e-07 -0.19884627342485581 -1.439972469216534e-06 1.452807225873086e-05 -1.439972469216534e-06 -0.99714182264104878 0.0030927356088533775 3.1362523607207983e-06 4.399135954579676e-06 3.1362523607207983e-06 -0.19876656132515411 -3.5692129584241961e-06 4.399135954579676e-06 -3.5692129584241961e-06 -0.99696865679651558 0.0030903576047613679 1.6626147717935329e-06 3.345747029800814e-06 1.6626147717935329e-06 -0.19877396789546226 -6.8402187243798984e-06 3.345747029800814e-06 -6.8402187243798984e-06 -0.99697314224435207 0.0030819272213355453 -6.9655485707844887e-07 -2.6218028040869701e-05 -6.9655485707844887e-07 -0.1987935860889849 -8.5870917197177626e-06 -2.6218028040869701e-05 -8.5870917197177626e-06 -0.99706321228289985 0.003118169630818679 -1.0812251378130917e-07 -4.3088461514295684e-05 -1.0812251378130917e-07 -0.19875985022982978 -1.1529826950639616e-05 -4.3088461514295684e-05 -1.1529826950639616e-05 -0.99693117228872974 0.0030976299910358274 -2.4473876555029113e-07 4.489434752857152e-06 -2.4473876555029113e-07 -0.19876594113921839 2.6299384331452026e-06 4.489434752857152e-06 2.6299384331452026e-06 -0.99698604534272195 0.0030925916225252826 4.7690129565155936e-06 5.5988855278166486e-06 4.7690129565155936e-06 -0.19877475551103035 -2.3505062693052152e-07 5.5988855278166486e-06 -2.3505062693052152e-07 -0.99698208580779213 0.0031353031711630897 8.1556029653840947e-06 -4.6037381017355328e-05 8.1556029653840947e-06 -0.19875306569437121 4.0552584065212116e-06 -4.6037381017355328e-05 4.0552584065212116e-06 -0.99691686105901434 0.003094451057510661 7.7042770024928303e-06 -2.6949133474590825e-05 7.7042770024928303e-06 -0.19878990188881659 4.2422006247821997e-06 -2.6949133474590825e-05 4.2422006247821997e-06 -0.99706575006101583 0.0030969434068570103 -6.8449205349511321e-06 7.1248226717834366e-06 -6.8449205349511321e-06 -0.19877179840631945 2.2272752638458873e-06 7.1248226717834366e-06 2.2272752638458873e-06 -0.99695696880067408 0.0029229865818475032 4.6860901803591821e-06 2.1381907188117166e-05 4.6860901803591821e-06 -0.19883591925242317 6.8307612407503271e-06 2.1381907188117166e-05 6.8307612407503271e-06 -0.99712715267749097 0.0030997581930898022 -2.2000594879532589e-06 1.0995668524277358e-05 -2.2000594879532589e-06 -0.19877045077938432 1.1697858749382117e-05 1.0995668524277358e-05 1.1697858749382117e-05 -0.99697090966354407 0.0030888282950697924 -2.250693556538897e-06 3.0609749314022524e-06 -2.250693556538897e-06 -0.19877823716375187 6.1323470412438409e-06 3.0609749314022524e-06 6.1323470412438409e-06 -0.99696426461082421 0.0029023579499912189 -9.8336254366752171e-06 2.6790572589183478e-05 -9.8336254366752171e-06 -0.19884538422013848 4.9942143402067636e-06 2.6790572589183478e-05 4.9942143402067636e-06 -0.99712947707180055 0.0029038455799110796 -7.0400940726225364e-06 1.1990557261603333e-05 -7.0400940726225364e-06 -0.19884621117374252 1.9925652335725534e-06 1.1990557261603333e-05 1.9925652335725534e-06 -0.99713903319749209 0.0030707253799960865 -5.6274840338222809e-06 -3.6856599313739302e-05 -5.6274840338222809e-06 -0.19880091800991409 2.5682653821343382e-07 -3.6856599313739302e-05 2.5682653821343382e-07 -0.99707725484156728 0.0031430175847544928 -3.1494822419906346e-06 -3.980543388393265e-05 -3.1494822419906346e-06 -0.1987410413081305 -1.2664883416002581e-05 -3.980543388393265e-05 -1.2664883416002581e-05 -0.99694072587887972 0.0031236874781905843 2.7551379105666211e-07 -4.5775980185736032e-05 2.7551379105666211e-07 -0.19875374991329864 1.1157673855267947e-05 -4.5775980185736032e-05 1.1157673855267947e-05 -0.99690967539514763 0.0030793984644378325 -3.8217013669527006e-07 -2.8123516944311699e-05 -3.8217013669527006e-07 -0.19879623625143389 1.0481624019349767e-05 -2.8123516944311699e-05 1.0481624019349767e-05 -0.99708080022732282 0.0029906501421368969 7.0805412525489948e-05 -8.3071242130181022e-05 7.0805412525489948e-05 -0.19880110243585067 3.7695644218183055e-05 -8.3071242130181022e-05 3.7695644218183055e-05 -0.99706809429225096 0.0031275108943021324 2.9181343925982525e-06 -3.9358154377500121e-05 2.9181343925982525e-06 -0.19878851820852073 8.6389729749974942e-06 -3.9358154377500121e-05 8.6389729749974942e-06 -0.99707136771609162 0.0031429003961489788 -6.133283335140087e-08 -4.9281728852795803e-05 -6.133283335140087e-08 -0.19876116203540159 -1.205641336815208e-05 -4.9281728852795803e-05 -1.205641336815208e-05 -0.99704372626078219 0.002998186356686694 -1.5004494817562602e-07 -0.00014862456828813875 -1.5004494817562602e-07 -0.19883207681904358 -9.5827689849947717e-06 -0.00014862456828813875 -9.5827689849947717e-06 -0.99717948050703287 0.0031254001905417494 1.0586008270378655e-07 -4.6480529199810494e-05 1.0586008270378655e-07 -0.19875489201213109 6.139192917253844e-06 -4.6480529199810494e-05 6.139192917253844e-06 -0.99689996816267401 0.003078958559360967 -1.7940725325548498e-05 -1.6823637248947199e-05 -1.7940725325548498e-05 -0.19877565678939285 7.0182330652590608e-06 -1.6823637248947199e-05 7.0182330652590608e-06 -0.99699693193396066 0.0030760152018199094 -5.1774906886079371e-05 -4.6012346892956857e-05 -5.1774906886079371e-05 -0.19879934283949877 -2.5655627239939971e-05 -4.6012346892956857e-05 -2.5655627239939971e-05 -0.9970747317821308 0.0032427873992176837 -4.7153993108046597e-07 -0.00012581481912299353 -4.7153993108046597e-07 -0.19871218095276144 1.5775237179528612e-05 -0.00012581481912299353 1.5775237179528612e-05 -0.99680634300085691 0.0032296838727081667 -4.5709220868154234e-07 -0.00012779509354898799 -4.5709220868154234e-07 -0.19872518861608046 -2.2576381601302487e-05 -0.00012779509354898799 -2.2576381601302487e-05 -0.99685886038313054 0.003242870347895957 -3.503102651688069e-06 -0.00011394855839841345 -3.503102651688069e-06 -0.19869795336477458 -6.6170127972497994e-06 -0.00011394855839841345 -6.6170127972497994e-06 -0.99677770686467326 0.003212225480123343 2.5214075406813185e-07 -0.00010696114913633092 2.5214075406813185e-07 -0.19871645728227738 -1.0320739437144621e-05 -0.00010696114913633092 -1.0320739437144621e-05 -0.99688812262609883 0.0032093728379431474 -4.3234003505772417e-06 -0.00010601056406511766 -4.3234003505772417e-06 -0.19873161510189924 2.7220800544736079e-06 -0.00010601056406511766 2.7220800544736079e-06 -0.99690782064191041 0.0029973620484270713 -1.1853318312507625e-05 -0.00011746021375688698 -1.1853318312507625e-05 -0.19880903144770171 -8.6358193584490373e-06 -0.00011746021375688698 -8.6358193584490373e-06 -0.99706217963536126 0.0031366002214769095 -5.0550291751992505e-06 -4.6196464888098587e-05 -5.0550291751992505e-06 -0.19877912491780536 3.711947636708679e-06 -4.6196464888098587e-05 3.711947636708679e-06 -0.99704854834983681 0.0032232851885431527 1.2677748653564619e-05 -0.00010790243740799177 1.2677748653564619e-05 -0.19873188501496231 2.6097777510503128e-05 -0.00010790243740799177 2.6097777510503128e-05 -0.99687015050541694 0.0032198418318984956 -2.6893668883434966e-07 -0.00011247765874966564 -2.6893668883434966e-07 -0.19870666342087095 2.4952981685366638e-06 -0.00011247765874966564 2.4952981685366638e-06 -0.99685990767288968 0.0032668122803303223 -3.109942494617126e-06 -6.1151177066287588e-05 -3.109942494617126e-06 -0.19871821547082757 -2.1005711594579424e-05 -6.1151177066287588e-05 -2.1005711594579424e-05 -0.99684639962442922 0.0032028495532753221 -1.6587555839170524e-05 -1.5106420478971927e-05 -1.6587555839170524e-05 -0.19874371858563478 -1.1367573331866332e-05 -1.5106420478971927e-05 -1.1367573331866332e-05 -0.9969263140759439 0.0031382369461943928 6.348706103665444e-06 -5.8268619293255774e-05 6.348706103665444e-06 -0.19876133291153816 2.8444239287384043e-05 -5.8268619293255774e-05 2.8444239287384043e-05 -0.99694119254973523 0.0030039807080566531 -3.8370785163379361e-06 -0.00012862659609669258 -3.8370785163379361e-06 -0.1987934589061551 1.194308490548579e-05 -0.00012862659609669258 1.194308490548579e-05 -0.99697190873266039 0.0031546790023752602 -9.1160918198824016e-07 -4.545915418341373e-05 -9.1160918198824016e-07 -0.19875617295285247 -1.1133674491126122e-05 -4.545915418341373e-05 -1.1133674491126122e-05 -0.99693462701788138 0.0031482104975992797 -3.1753201754043824e-06 -3.8331788378975773e-05 -3.1753201754043824e-06 -0.19875811623042322 -1.4504641809465202e-05 -3.8331788378975773e-05 -1.4504641809465202e-05 -0.99696508935920036 0.0031125044334633922 -6.0618288539377617e-06 -1.1474112738885101e-05 -6.0618288539377617e-06 -0.19877439263709601 -1.0367325740057165e-05 -1.1474112738885101e-05 -1.0367325740057165e-05 -0.99702730567018272 0.0030389060797378353 5.9465656980549604e-07 1.9863566787629792e-05 5.9465656980549604e-07 -0.19879133035130828 -1.3496180890899472e-05 1.9863566787629792e-05 -1.3496180890899472e-05 -0.99707882861559693 0.0031049750119079844 -1.6653155533388326e-06 -2.2372823892280458e-05 -1.6653155533388326e-06 -0.19877021536051687 -1.5460261632849193e-05 -2.2372823892280458e-05 -1.5460261632849193e-05 -0.99700763088033173 0.0030722050174492865 8.0621797297582725e-06 -3.0739885191477523e-06 8.0621797297582725e-06 -0.19878218302347794 -2.4357931257129595e-05 -3.0739885191477523e-06 -2.4357931257129595e-05 -0.99703874122347291 0.0030593417920009025 -1.8079764597262417e-06 7.6214181078703883e-06 -1.8079764597262417e-06 -0.1987745463840849 -3.4125922092697454e-06 7.6214181078703883e-06 -3.4125922092697454e-06 -0.99698997345844687 0.003103740771569885 5.932518998981804e-07 -2.026795942566828e-05 5.932518998981804e-07 -0.19878787557092886 -6.2569996216489676e-06 -2.026795942566828e-05 -6.2569996216489676e-06 -0.99705398309398441 0.0030643139736977187 -1.0666947210135326e-05 7.4604448766929859e-06 -1.0666947210135326e-05 -0.19878405530746607 8.4670860817330016e-06 7.4604448766929859e-06 8.4670860817330016e-06 -0.99700018302152849 0.0030903152406406009 -1.7826227904698953e-06 -9.5634909269559643e-06 -1.7826227904698953e-06 -0.19879200326459606 -3.9031966944935714e-06 -9.5634909269559643e-06 -3.9031966944935714e-06 -0.99708123007444804 0.0030851167703689619 -7.8799702001672012e-07 -4.7117389341821969e-06 -7.8799702001672012e-07 -0.19877755473077841 -4.1226849226694284e-06 -4.7117389341821969e-06 -4.1226849226694284e-06 -0.99698353001123352 0.0030856905252273359 -9.2280547562542153e-06 -8.4796106458728815e-06 -9.2280547562542153e-06 -0.19879464492294655 6.1223979554575481e-06 -8.4796106458728815e-06 6.1223979554575481e-06 -0.99707467454736731 0.0031366869820409968 2.5148554068673572e-06 -4.3873752761547369e-05 2.5148554068673572e-06 -0.19876430016051194 -8.8872526062822033e-06 -4.3873752761547369e-05 -8.8872526062822033e-06 -0.99696523270445403 0.0031348278530436424 -1.2409399360664903e-06 -4.1914105604945462e-05 -1.2409399360664903e-06 -0.19876231199544514 -2.4320723090998086e-07 -4.1914105604945462e-05 -2.4320723090998086e-07 -0.99696038574256152 0.0029096297486465306 -1.3504732978287168e-05 2.3626299273132867e-05 -1.3504732978287168e-05 -0.19883914693283752 -1.3128134851436712e-07 2.3626299273132867e-05 -1.3128134851436712e-07 -0.99713574489824108 0.0029102652960728559 -1.447478213235026e-05 2.535649836673843e-05 -1.447478213235026e-05 -0.19884064899897463 7.7569545985389538e-06 2.535649836673843e-05 7.7569545985389538e-06 -0.9971291389254745 0.0029331920579950821 1.5221483667652775e-05 -5.2664845689687433e-06 1.5221483667652775e-05 -0.19882023230205767 -9.2842527483723221e-06 -5.2664845689687433e-06 -9.2842527483723221e-06 -0.99711541946014681 0.0029233626335798957 1.7206193245221201e-05 -6.0970005599569888e-05 1.7206193245221201e-05 -0.19883113857912479 -4.2401240252121219e-05 -6.0970005599569888e-05 -4.2401240252121219e-05 -0.99716890854486184 0.0028886406435990608 -1.2062748544941085e-05 -2.8122863011667554e-05 -1.2062748544941085e-05 -0.19886127487964961 -1.7634482206985158e-05 -2.8122863011667554e-05 -1.7634482206985158e-05 -0.99723003234713681 0.0029394689561738629 -1.3280778529356794e-05 -5.4665729261771379e-05 -1.3280778529356794e-05 -0.19881594604867581 -8.7847896568793438e-06 -5.4665729261771379e-05 -8.7847896568793438e-06 -0.99705133498231269 0.0031074802802141116 -3.0027841496170155e-06 -2.0771793030283092e-05 -3.0027841496170155e-06 -0.19877766929571117 -9.4007666728845862e-07 -2.0771793030283092e-05 -9.4007666728845862e-07 -0.99702555302568596 0.0026698033537569943 3.9922334722760897e-05 7.1469652594580158e-05 3.9922334722760897e-05 -0.19890191595054907 4.3656593498309082e-06 7.1469652594580158e-05 4.3656593498309082e-06 -0.99721561275795434 0.0026904088469014431 -0.00022870659682689936 -0.00014838999727118107 -0.00022870659682689936 -0.19891898156743751 -6.3661125192515655e-05 -0.00014838999727118107 -6.3661125192515655e-05 -0.99735716703338106 0.0026615419552059871 3.1279344686196804e-05 -0.00010896101553542481 3.1279344686196804e-05 -0.19892775679805172 4.1418358038558534e-06 -0.00010896101553542481 4.1418358038558534e-06 -0.9973376896621009 0.0027859067441203811 -8.6870102484559603e-06 2.7044737747477638e-05 -8.6870102484559603e-06 -0.19888608889228632 -4.6838999713887968e-06 2.7044737747477638e-05 -4.6838999713887968e-06 -0.99729964580219344 0.0025319673732465686 9.4017865848099176e-06 1.0497455109108322e-05 9.4017865848099176e-06 -0.19899637253724969 8.7858862583611863e-05 1.0497455109108322e-05 8.7858862583611863e-05 -0.99758952040337834 0.0025238669879260045 -1.5578535894630533e-05 1.5422744045769064e-05 -1.5578535894630533e-05 -0.19901188105617357 -9.8223805697198453e-06 1.5422744045769064e-05 -9.8223805697198453e-06 -0.99764730470516083 0.0024651355754216507 2.2565063645007033e-06 -0.00010292098240707189 2.2565063645007033e-06 -0.19899561568588489 -6.6443800116292151e-05 -0.00010292098240707189 -6.6443800116292151e-05 -0.99747211451691586 0.0025876202502278832 3.033087757377081e-05 4.2398135301894739e-07 3.033087757377081e-05 -0.19893777813450578 -6.5438997073529426e-06 4.2398135301894739e-07 -6.5438997073529426e-06 -0.99734260717985446 0.0024797775196647442 -1.4438871127549751e-05 -5.5784545917592077e-06 -1.4438871127549751e-05 -0.19900798066059702 7.2331652236079513e-06 -5.5784545917592077e-06 7.2331652236079513e-06 -0.99753848746035823 0.0024321399931270804 -2.980699245412347e-05 -7.8988990679602911e-05 -2.980699245412347e-05 -0.19903817448486646 -6.7441632356501913e-07 -7.8988990679602911e-05 -6.7441632356501913e-07 -0.9976428655934364 0.0028387001453267779 2.1435642558655378e-06 -0.0002373134794431131 2.1435642558655378e-06 -0.19890016280017725 6.6754426681914225e-06 -0.0002373134794431131 6.6754426681914225e-06 -0.9973679369875228 0.0029057422644145903 4.4663594694290226e-06 -0.00010540776062611945 4.4663594694290226e-06 -0.19883143280509946 -1.244254538942946e-05 -0.00010540776062611945 -1.244254538942946e-05 -0.99708730851976002 0.0026308074660537084 -1.296547674239413e-05 -0.00012997223542043912 -1.296547674239413e-05 -0.19891589918308411 -8.211019451531687e-06 -0.00012997223542043912 -8.211019451531687e-06 -0.99724200746117919 0.0025361321659685965 -4.6018253391253959e-06 -5.4280553361818473e-05 -4.6018253391253959e-06 -0.19897174347729907 -2.6420909384705649e-05 -5.4280553361818473e-05 -2.6420909384705649e-05 -0.99741792206237889 0.0028423829779311051 -2.5965222690815437e-07 -5.5522336525060112e-05 -2.5965222690815437e-07 -0.19886451266389921 9.0410983213246032e-07 -5.5522336525060112e-05 9.0410983213246032e-07 -0.99720124821459954 0.0025311432856155724 -9.4631050817620334e-06 -7.72619096628957e-05 -9.4631050817620334e-06 -0.19900646603447744 -8.3885726471222277e-06 -7.72619096628957e-05 -8.3885726471222277e-06 -0.99758329295290038 0.0026256621326605778 -2.0817462524296421e-05 -0.00015885962025041778 -2.0817462524296421e-05 -0.19896188660620717 1.4534389541964732e-05 -0.00015885962025041778 1.4534389541964732e-05 -0.99746695184354761 0.0029419911278655494 -2.0770684170741368e-05 -7.5126375598366657e-05 -2.0770684170741368e-05 -0.19883927690283407 1.0526963918788823e-05 -7.5126375598366657e-05 1.0526963918788823e-05 -0.99717370243521841 0.0030792189903383477 1.9907787912018965e-06 -0.00010812727096376484 1.9907787912018965e-06 -0.19881748865895221 5.0386084818887511e-06 -0.00010812727096376484 5.0386084818887511e-06 -0.99716710070288128 0.0025825726245888303 -3.3743054192024774e-05 -0.00019197354245670262 -3.3743054192024774e-05 -0.19898394097472372 -1.2747213843700145e-05 -0.00019197354245670262 -1.2747213843700145e-05 -0.99754919618686122 0.0028315557780296818 -2.2703441009808603e-05 -0.00023026970145501036 -2.2703441009808603e-05 -0.19889917980470467 3.6008395366549095e-06 -0.00023026970145501036 3.6008395366549095e-06 -0.99736718224587073 0.0027052388320561171 4.3953966237543194e-05 -0.00017134941829944489 4.3953966237543194e-05 -0.19896425903968082 -4.9968353459661774e-05 -0.00017134941829944489 -4.9968353459661774e-05 -0.99754320988227285 0.0027544423467885659 7.4676451736700494e-06 -0.00021763606349239906 7.4676451736700494e-06 -0.19892612700680301 1.1153730762325509e-06 -0.00021763606349239906 1.1153730762325509e-06 -0.99738924517651117 0.002730331953037568 3.4002970923925722e-05 -7.3434325253141086e-05 3.4002970923925722e-05 -0.19888126250656246 -1.9247991444315549e-06 -7.3434325253141086e-05 -1.9247991444315549e-06 -0.99715531663639023 0.0027072072141764575 4.6428344244124238e-05 -0.00010624103070583368 4.6428344244124238e-05 -0.19891436023399867 1.3912285948103342e-05 -0.00010624103070583368 1.3912285948103342e-05 -0.99730259483643779 0.0025995557205449882 -1.725123614626178e-05 5.0655707037726308e-05 -1.725123614626178e-05 -0.198952202746081 5.1360822172313586e-06 5.0655707037726308e-05 5.1360822172313586e-06 -0.99735990833434462 0.0028692324315612132 1.7747436466728583e-06 -6.8052459385181674e-05 1.7747436466728583e-06 -0.19887218731119219 -8.5988000667058806e-06 -6.8052459385181674e-05 -8.5988000667058806e-06 -0.9972519210551879 0.0025431139183959769 7.612281736644375e-06 -1.8352585135772426e-06 7.612281736644375e-06 -0.19897260325553304 7.397648245810462e-05 -1.8352585135772426e-06 7.397648245810462e-05 -0.99741798625431222 0.0028416382868436951 -1.2099467214191727e-05 -5.7873237880423645e-05 -1.2099467214191727e-05 -0.19888524393574097 -1.0187481839576962e-06 -5.7873237880423645e-05 -1.0187481839576962e-06 -0.99726683038050645 0.002524324883328731 -4.0322953887421394e-05 -5.4725967935376207e-05 -4.0322953887421394e-05 -0.19897890387222217 -0.00010855259113978777 -5.4725967935376207e-05 -0.00010855259113978777 -0.99744708970510387 0.0024417561025908002 -5.4060244269591876e-06 -0.0001397380583865182 -5.4060244269591876e-06 -0.19901390274361774 3.6304477327164797e-06 -0.0001397380583865182 3.6304477327164797e-06 -0.99754098701734972 0.0028909700487146361 -1.414016289886682e-06 1.5605442059915885e-05 -1.414016289886682e-06 -0.19883764058545894 -1.2821572826143471e-06 1.5605442059915885e-05 -1.2821572826143471e-06 -0.9971409829134249 0.002501706134551418 7.7985265545941542e-06 3.9681378687883279e-05 7.7985265545941542e-06 -0.19901593594797318 1.0269238022151088e-05 3.9681378687883279e-05 1.0269238022151088e-05 -0.99758419869288317 0.0015857129718873514 7.3210883544945986e-05 0.00012290666252889881 7.3210883544945986e-05 -0.19930872503438063 0.00010678116888285238 0.00012290666252889881 0.00010678116888285238 -0.99821921250369949 0.0017365535035684457 9.1684948071169353e-05 -0.00010375510866195148 9.1684948071169353e-05 -0.19925077034843566 -3.1298461410644851e-05 -0.00010375510866195148 -3.1298461410644851e-05 -0.99801333234459833 0.0021747662505532672 6.8852404947187865e-06 4.4495921324300136e-05 6.8852404947187865e-06 -0.19910364160294988 -1.6668609329362205e-05 4.4495921324300136e-05 -1.6668609329362205e-05 -0.99772097864153175 0.0019130491474110833 1.2477200116929344e-05 2.3057172504700635e-05 1.2477200116929344e-05 -0.19915533192567481 4.2821832386100634e-06 2.3057172504700635e-05 4.2821832386100634e-06 -0.99773164219618726 0.0020289233374536711 5.3774320183542989e-06 -0.00015394133526153153 5.3774320183542989e-06 -0.19917339156273955 -1.003832490309442e-05 -0.00015394133526153153 -1.003832490309442e-05 -0.99792544962479313 0.0017281678186089611 -5.5703650998446479e-07 -0.00017400581831789053 -5.5703650998446479e-07 -0.19925786360482023 -5.8298228421821419e-05 -0.00017400581831789053 -5.8298228421821419e-05 -0.99806964731403447 0.0015830181433594409 -0.00017376606623846415 -3.3509770305972797e-05 -0.00017376606623846415 -0.1992787657459249 5.8837924238441808e-05 -3.3509770305972797e-05 5.8837924238441808e-05 -0.99808887751260777 0.0021718575953545427 -3.0476958971506277e-05 1.7452634216948451e-05 -3.0476958971506277e-05 -0.19909620423226415 8.0218717458200919e-06 1.7452634216948451e-05 8.0218717458200919e-06 -0.99766840648798194 0.0014306478814388249 -8.3714773926985356e-05 6.5935942942463299e-05 -8.3714773926985356e-05 -0.19933343783774737 -9.3670536976564467e-05 6.5935942942463299e-05 -9.3670536976564467e-05 -0.99816448891859921 0.0021824341729109742 2.7890106530452593e-05 3.4827523453335578e-05 2.7890106530452593e-05 -0.19909612204572966 -8.5869775432099927e-06 3.4827523453335578e-05 -8.5869775432099927e-06 -0.99773114845951771 0.001496486791884355 2.5743476051240949e-05 -1.8879450180758069e-05 2.5743476051240949e-05 -0.19935254939199692 -1.6560031480418909e-05 -1.8879450180758069e-05 -1.6560031480418909e-05 -0.99837232758568861 0.0014458249100619547 -2.4022362291230922e-05 3.8188692781399631e-05 -2.4022362291230922e-05 -0.19936476881673393 5.8684342404761089e-07 3.8188692781399631e-05 5.8684342404761089e-07 -0.99836073228746636 0.0022323544782176241 -1.6609134029830484e-05 -0.00029751181258988804 -1.6609134029830484e-05 -0.19910859561542771 -6.1226502669209371e-06 -0.00029751181258988804 -6.1226502669209371e-06 -0.99780234108751165 0.0022613244427107659 -5.4322333747287046e-06 -4.7842654073492613e-05 -5.4322333747287046e-06 -0.19906788737235936 5.3065913492300609e-06 -4.7842654073492613e-05 5.3065913492300609e-06 -0.99760527876354121 0.0022448418228993017 -6.4455752108961799e-05 -0.0001068165982284321 -6.4455752108961799e-05 -0.19908042147573948 -1.7044852348713224e-05 -0.0001068165982284321 -1.7044852348713224e-05 -0.99766763909878764 0.0019669982214488013 2.1410692559856533e-05 -0.00031066244520174674 2.1410692559856533e-05 -0.19915527123403604 0.00015369209212501289 -0.00031066244520174674 0.00015369209212501289 -0.9977872628242217 0.001743178475621443 -5.3397997623100277e-05 -0.00034884665743140086 -5.3397997623100277e-05 -0.19926220038907316 1.8770141326673873e-05 -0.00034884665743140086 1.8770141326673873e-05 -0.9981302525952821 0.0016905709009710779 5.8024793475980185e-05 -4.370870362302437e-05 5.8024793475980185e-05 -0.19932142595072094 1.8500621150274732e-05 -4.370870362302437e-05 1.8500621150274732e-05 -0.99832576103783666 0.0022801462778454101 0.00018532487478508476 -9.2973652299800646e-05 0.00018532487478508476 -0.19906438670065713 5.6782309128977637e-05 -9.2973652299800646e-05 5.6782309128977637e-05 -0.99763211042074618 0.0018959733269330314 2.8512619546426608e-06 -0.00031216720298761491 2.8512619546426608e-06 -0.1992368831863619 2.2122470886953849e-05 -0.00031216720298761491 2.2122470886953849e-05 -0.9980871495423782 0.0016033795232645032 -3.4539612052588579e-05 7.9792506012282827e-05 -3.4539612052588579e-05 -0.19930196576487197 1.6944207132080225e-05 7.9792506012282827e-05 1.6944207132080225e-05 -0.99816572832430528 0.0017376175994126553 -1.282457720332872e-05 -0.0003565679442403269 -1.282457720332872e-05 -0.19925778599274119 -3.4996519514801649e-05 -0.0003565679442403269 -3.4996519514801649e-05 -0.9980702868250908 0.0017504936761333911 7.9782671187175869e-05 -0.00023970738742740139 7.9782671187175869e-05 -0.19925057245162009 -2.2240347819613149e-05 -0.00023970738742740139 -2.2240347819613149e-05 -0.99801860908650708 0.0013927654127207645 -4.8170180761761809e-05 -7.4291465392346823e-05 -4.8170180761761809e-05 -0.19941148379087853 -4.4672740662742016e-06 -7.4291465392346823e-05 -4.4672740662742016e-06 -0.99849234536649889 0.0022262319175690715 -3.9019825111352737e-05 -0.00014015407648750727 -3.9019825111352737e-05 -0.19908452451114883 -2.1669850893080156e-05 -0.00014015407648750727 -2.1669850893080156e-05 -0.99767459451677842 0.001402261475943356 -4.3896993765589968e-05 -0.00013552581989098589 -4.3896993765589968e-05 -0.19939336575574984 1.0600158717746777e-05 -0.00013552581989098589 1.0600158717746777e-05 -0.99840202593859395 0.0019893517877145606 -4.1910098512845654e-06 -0.00016558092706581151 -4.1910098512845654e-06 -0.19914214869350896 -1.2607257319399712e-05 -0.00016558092706581151 -1.2607257319399712e-05 -0.99773549856285071 0.00208242760659616 -1.4596604840932009e-05 -0.00029213656558346734 -1.4596604840932009e-05 -0.19916092843385691 -1.6452370411146333e-05 -0.00029213656558346734 -1.6452370411146333e-05 -0.99792862528387793 0.0022176528811036211 -1.4090815321585881e-05 -0.00011105690147328318 -1.4090815321585881e-05 -0.19908241579189803 -1.8445397071187308e-05 -0.00011105690147328318 -1.8445397071187308e-05 -0.9976711188314763 0.0014576925267911767 3.1398041635616849e-05 -4.2116647410717079e-05 3.1398041635616849e-05 -0.19935834509845263 5.6371832134582966e-05 -4.2116647410717079e-05 5.6371832134582966e-05 -0.9982444183428596 0.0022242873188105805 -2.524182176028256e-05 -0.00016360005324733695 -2.524182176028256e-05 -0.19909379504647423 -1.235526115411778e-05 -0.00016360005324733695 -1.235526115411778e-05 -0.99771760394906051 0.0019237499176673056 -2.3458412772953429e-05 9.8613639654722418e-06 -2.3458412772953429e-05 -0.19920334668234013 -1.5961969546784971e-05 9.8613639654722418e-06 -1.5961969546784971e-05 -0.99796596396587622 0.0015993338894531584 6.5681151088214595e-05 -8.2224773616856872e-05 6.5681151088214595e-05 -0.19930175279998741 6.853756773644859e-06 -8.2224773616856872e-05 6.853756773644859e-06 -0.998087145346505 0.0015661953808270845 5.7388587891650197e-05 -0.00014938838172079416 5.7388587891650197e-05 -0.1993257507214308 -5.8527045666834088e-06 -0.00014938838172079416 -5.8527045666834088e-06 -0.99816059365902021 0.0019827071205898161 -4.0325830363020474e-05 -7.2728390992950892e-05 -4.0325830363020474e-05 -0.1991500746348088 -1.2735973808908341e-06 -7.2728390992950892e-05 -1.2735973808908341e-06 -0.99775342091730279 0.0015769037793723628 1.6987583101829393e-05 -0.00014983986834160579 1.6987583101829393e-05 -0.19927953438578896 7.8874303484910424e-05 -0.00014983986834160579 7.8874303484910424e-05 -0.99812224147517581 0.0019554788403955137 1.3126223569736957e-05 -0.00012478630113493816 1.3126223569736957e-05 -0.19918049343629024 4.5981659743156894e-05 -0.00012478630113493816 4.5981659743156894e-05 -0.9978784615029771 0.0022488787728730418 -4.1993048999097141e-05 2.6989951521483034e-05 -4.1993048999097141e-05 -0.19907883999099482 -1.0468915479696393e-05 2.6989951521483034e-05 -1.0468915479696393e-05 -0.9976700369810364 0.0018404632077422267 -3.4036268241061474e-05 3.2992345772240089e-05 -3.4036268241061474e-05 -0.19917280115525285 -8.4897027593711255e-06 3.2992345772240089e-05 -8.4897027593711255e-06 -0.99781487830326254 0.0018376769230002421 7.6192265699869255e-06 3.1741026306812692e-05 7.6192265699869255e-06 -0.19921624431232282 -8.3061851065713288e-05 3.1741026306812692e-05 -8.3061851065713288e-05 -0.99785885760502702 0.0014836351348281873 -2.8017921451804358e-05 7.6318597116704941e-05 -2.8017921451804358e-05 -0.1993537940726276 -5.0749457192235945e-06 7.6318597116704941e-05 -5.0749457192235945e-06 -0.99815963712571254 0.0017998775108281954 4.5007937025520277e-05 -4.225396098743995e-08 4.5007937025520277e-05 -0.19925999340861264 -1.4716235988300369e-05 -4.225396098743995e-08 -1.4716235988300369e-05 -0.99806653087719888 0.0014214768716471204 3.0921504784140767e-05 -0.0002007681812733475 3.0921504784140767e-05 -0.19937740055189709 -4.531712251265585e-05 -0.0002007681812733475 -4.531712251265585e-05 -0.99825541842485455 0.0010917298299910616 -1.7448600973051647e-05 -1.0878933867197738e-05 -1.7448600973051647e-05 -0.19950649795983183 2.5145002366944169e-06 -1.0878933867197738e-05 2.5145002366944169e-06 -0.99856012085658674 0.0010674509549473687 -2.7151400457230257e-05 -7.2997033450476756e-05 -2.7151400457230257e-05 -0.19951324527193426 -1.0254483474581022e-06 -7.2997033450476756e-05 -1.0254483474581022e-06 -0.99856298757102124 0.00053515625023407148 7.802368681693389e-06 -2.4152587299930417e-05 7.802368681693389e-06 -0.19964250897943273 -9.4812213741191087e-07 -2.4152587299930417e-05 -9.4812213741191087e-07 -0.99869142449864012 0.0010817629216205993 2.5226931302422013e-05 -0.00011760385390419126 2.5226931302422013e-05 -0.19948243921583403 -5.3843135450426516e-05 -0.00011760385390419126 -5.3843135450426516e-05 -0.9984281845824754 0.001166721308768752 2.8341649510208433e-05 1.2461139344367332e-05 2.8341649510208433e-05 -0.19942707376500871 -1.0475834514473306e-05 1.2461139344367332e-05 -1.0475834514473306e-05 -0.99822740244854535 0.0011149283148221834 1.3617809199074781e-05 7.3506030477545127e-05 1.3617809199074781e-05 -0.1994822279165557 2.6868856879262296e-06 7.3506030477545127e-05 2.6868856879262296e-06 -0.99848203101789412 0.0011524124105136146 -1.7880721101264246e-05 4.4840127419384923e-05 -1.7880721101264246e-05 -0.19947097398167704 5.800782247844527e-05 4.4840127419384923e-05 5.800782247844527e-05 -0.99842421966265216 0.00049920296120697927 -8.8162809518922914e-06 -4.9196397729489583e-06 -8.8162809518922914e-06 -0.19968453616649728 -2.2276379395856638e-05 -4.9196397729489583e-06 -2.2276379395856638e-05 -0.99897766522588816 0.00052369862428741643 -2.3322794156847181e-05 -3.1223363770704893e-05 -2.3322794156847181e-05 -0.19966765979684037 4.038690347135665e-05 -3.1223363770704893e-05 4.038690347135665e-05 -0.99893406029639786 0.00045419109745982456 3.5382657229967912e-05 -2.7361507120043926e-05 3.5382657229967912e-05 -0.19965340486028871 -0.00012223068718708596 -2.7361507120043926e-05 -0.00012223068718708596 -0.99880836272517048 0.00048581905787037361 -1.0974271890516032e-05 -6.9939098822024981e-05 -1.0974271890516032e-05 -0.19967037456601694 -1.0017979138465805e-06 -6.9939098822024981e-05 -1.0017979138465805e-06 -0.9989115703845679 0.00051208015112946814 -1.5502738788493247e-06 -8.3871517700173648e-05 -1.5502738788493247e-06 -0.19964905095622373 -4.4662795383176856e-06 -8.3871517700173648e-05 -4.4662795383176856e-06 -0.99869454479506792 0.00046480828212158709 6.5693502349321443e-06 7.4408068372090741e-06 6.5693502349321443e-06 -0.19964621527075599 9.1081358394349524e-07 7.4408068372090741e-06 9.1081358394349524e-07 -0.99865329149073934 0.00043218719251668272 -1.7972712843732335e-05 -2.0976262643187306e-05 -1.7972712843732335e-05 -0.19968074530497074 3.432967058548016e-05 -2.0976262643187306e-05 3.432967058548016e-05 -0.99881918477599896 0.00035387691980230825 -3.8706276068736466e-05 -6.6271914678551192e-05 -3.8706276068736466e-05 -0.19969765031651204 1.9736649136903317e-05 -6.6271914678551192e-05 1.9736649136903317e-05 -0.99888521396516072 0.0003762196750833839 -1.4166823292063226e-05 3.496969854400258e-05 -1.4166823292063226e-05 -0.19969592575068576 -1.2227547425721334e-06 3.496969854400258e-05 -1.2227547425721334e-06 -0.998938645364985 0.00054070492985602847 -4.3028154292719791e-05 6.0294140887604008e-05 -4.3028154292719791e-05 -0.19963501820679225 -1.5545413364924404e-05 6.0294140887604008e-05 -1.5545413364924404e-05 -0.99866102775365628 0.00034129475632628525 -5.971330154884815e-05 -3.4896132455886075e-05 -5.971330154884815e-05 -0.19967352609042094 9.7057072961925783e-07 -3.4896132455886075e-05 9.7057072961925783e-07 -0.99873608768704858 0.00033791843282104939 -8.4348705143614749e-05 -6.851640111454893e-05 -8.4348705143614749e-05 -0.19970928000387311 2.0536283962646618e-05 -6.851640111454893e-05 2.0536283962646618e-05 -0.99899117801348725 0.00038686597623882601 -5.748155848348268e-05 -4.7328577189004184e-05 -5.748155848348268e-05 -0.19968103802295462 2.8213492541506735e-05 -4.7328577189004184e-05 2.8213492541506735e-05 -0.99900345502621901 0.0012197530869295647 2.1475721337197663e-06 -8.5223318309513019e-05 2.1475721337197663e-06 -0.19946210052003838 -9.3613084632959698e-06 -8.5223318309513019e-05 -9.3613084632959698e-06 -0.99847175536114552 0.00065645755015564244 -7.5900024695690635e-06 -0.00013614645138401715 -7.5900024695690635e-06 -0.1995918244118311 -1.1792347937050751e-05 -0.00013614645138401715 -1.1792347937050751e-05 -0.99861752204704657 0.00056408652597436659 0.00026591324267869197 -0.00015798348102358251 0.00026591324267869197 -0.19948969129972954 1.3663311107525722e-05 -0.00015798348102358251 1.3663311107525722e-05 -0.99861972157354995 0.00075706495271300744 4.6272247224732324e-05 -0.00011613085871164941 4.6272247224732324e-05 -0.19958952836915783 -5.1834711120690713e-05 -0.00011613085871164941 -5.1834711120690713e-05 -0.9987620971747635 0.0011461048168730503 -1.7015751056052547e-06 -0.00026610646738567389 -1.7015751056052547e-06 -0.1994945109822675 -2.0866165404420656e-06 -0.00026610646738567389 -2.0866165404420656e-06 -0.99860487103877138 0.00035353185278413912 -8.1152577240475578e-05 -2.1865785199137733e-05 -8.1152577240475578e-05 -0.19966393718826897 3.8034717780854876e-06 -2.1865785199137733e-05 3.8034717780854876e-06 -0.99888909384457247 0.00020098390047712522 -5.8405535076503532e-05 -0.00013709118572236001 -5.8405535076503532e-05 -0.19975043897550138 5.0031279635487369e-05 -0.00013709118572236001 5.0031279635487369e-05 -0.99915383662324819 0.00063238043973310593 5.8078959151653069e-05 -0.0002267638396152849 5.8078959151653069e-05 -0.19967022143751703 -9.4451897038050348e-06 -0.0002267638396152849 -9.4451897038050348e-06 -0.99903561261729223 0.00065672794102455967 -1.5607838120486839e-05 -0.00021734865525269154 -1.5607838120486839e-05 -0.19973806003442673 -9.7241883185716915e-06 -0.00021734865525269154 -9.7241883185716915e-06 -0.99904339366529449 0.00064106272633787653 2.4667405132892549e-06 -9.1347974839173229e-05 2.4667405132892549e-06 -0.1995929493063702 1.4443286419401485e-05 -9.1347974839173229e-05 1.4443286419401485e-05 -0.99859254387185381 0.0007401799607378301 -2.870156299893397e-05 -5.0212397818966137e-05 -2.870156299893397e-05 -0.19959079918627706 -0.00012304920220029825 -5.0212397818966137e-05 -0.00012304920220029825 -0.99882218053855909 0.00079220878655084093 1.9457558732818191e-05 -0.00010639241797033572 1.9457558732818191e-05 -0.19961537572751253 0.00014642748767057512 -0.00010639241797033572 0.00014642748767057512 -0.99869215337992401 0.00082271553162083233 -2.2042758793056776e-05 -0.00011114776556031547 -2.2042758793056776e-05 -0.19951277230810871 9.7471402608073632e-06 -0.00011114776556031547 9.7471402608073632e-06 -0.99846148958851444 0.00071569662405207568 1.3472860246392381e-05 -4.9384568690580277e-05 1.3472860246392381e-05 -0.19968628588517862 1.6329539276327409e-06 -4.9384568690580277e-05 1.6329539276327409e-06 -0.99902411087752685 0.0007546164816780998 -0.00010849907637936006 -7.4587017967420177e-05 -0.00010849907637936006 -0.19955497393772945 1.1156995331107478e-05 -7.4587017967420177e-05 1.1156995331107478e-05 -0.9985612918804202 0.00082991943519672429 3.2152971905975133e-06 -0.00023085443068323296 3.2152971905975133e-06 -0.19958690972282567 -3.3889257709439347e-05 -0.00023085443068323296 -3.3889257709439347e-05 -0.99860630080222457 0.00084752530302362183 -6.72398149238712e-06 -0.0002399383777134112 -6.72398149238712e-06 -0.19952295046070417 5.9922941497425608e-06 -0.0002399383777134112 5.9922941497425608e-06 -0.99854194697976051 0.00055088766235567022 4.066949805659932e-05 -0.0001857603629178417 4.066949805659932e-05 -0.19968888111837946 1.6316666968663185e-06 -0.0001857603629178417 1.6316666968663185e-06 -0.99907586380630242 0.00054424536926811484 5.5824426182051721e-06 -0.00020215081024521631 5.5824426182051721e-06 -0.1997055514496045 1.4405079795998255e-05 -0.00020215081024521631 1.4405079795998255e-05 -0.99905989702790987 0.0005248482733608284 2.0505618218823767e-05 -8.9246854981683832e-05 2.0505618218823767e-05 -0.19963035059341272 -1.6130112990574846e-05 -8.9246854981683832e-05 -1.6130112990574846e-05 -0.99864948236693296 0.00055874120096635616 3.4579581203616927e-06 -7.5440017550915117e-05 3.4579581203616927e-06 -0.19960044600297494 -8.7147082138971932e-06 -7.5440017550915117e-05 -8.7147082138971932e-06 -0.9986632864917766 0.00052705916218359627 1.441789510051664e-05 -1.0033248611568402e-05 1.441789510051664e-05 -0.1996603408466292 -3.0580352004538902e-06 -1.0033248611568402e-05 -3.0580352004538902e-06 -0.99894917005113582 0.00050329057701414825 3.0565005765101602e-05 -3.7079786925353631e-06 3.0565005765101602e-05 -0.19969563661069611 -1.2119855877783248e-05 -3.7079786925353631e-06 -1.2119855877783248e-05 -0.99896445220421715 0.0011028618699009674 -1.8752246556583771e-06 7.5774840772646623e-05 -1.8752246556583771e-06 -0.19945663320833112 -1.6217186669720274e-05 7.5774840772646623e-05 -1.6217186669720274e-05 -0.99846594089242047 0.001173829670179833 -3.9435959455185678e-06 -7.6940465464414576e-05 -3.9435959455185678e-06 -0.19941560603903008 9.9380950102367915e-06 -7.6940465464414576e-05 9.9380950102367915e-06 -0.99833053872620514 0.00050130769379752582 -4.4977073211017701e-06 -1.5364075236723451e-05 -4.4977073211017701e-06 -0.19972157237579563 -1.7412700533014913e-05 -1.5364075236723451e-05 -1.7412700533014913e-05 -0.99896929821266078 0.0011798303936871868 1.9308866552391867e-05 6.7933624602520572e-05 1.9308866552391867e-05 -0.19943281328408702 3.6783369001124822e-06 6.7933624602520572e-05 3.6783369001124822e-06 -0.99841456557683461 0.00059835047338599456 -1.3358305988973105e-05 -9.7292677244176229e-05 -1.3358305988973105e-05 -0.19960131564922234 -1.5502129869469916e-06 -9.7292677244176229e-05 -1.5502129869469916e-06 -0.99863740944659662 0.0011243102244425374 -7.0599080014130087e-06 5.7229773704054584e-05 -7.0599080014130087e-06 -0.19945743191183388 -1.9067823352276792e-06 5.7229773704054584e-05 -1.9067823352276792e-06 -0.99843378463935928 0.0010882791288219784 4.0744074227249064e-06 6.8892009896088347e-05 4.0744074227249064e-06 -0.19945573478036635 -1.3788296682532834e-05 6.8892009896088347e-05 -1.3788296682532834e-05 -0.99847357358033695 0.00039213411910198591 8.1108590218853968e-06 5.3999814782258409e-05 8.1108590218853968e-06 -0.19970868835041011 1.6381555299540418e-06 5.3999814782258409e-05 1.6381555299540418e-06 -0.99892645289586801 0.00049993145953163183 -3.0223570816718286e-05 -2.9775513969092853e-05 -3.0223570816718286e-05 -0.19965902123876908 8.5148891812837966e-05 -2.9775513969092853e-05 8.5148891812837966e-05 -0.99875962326048007 0.00034441626775587482 -1.7095977731892808e-05 7.1065462535745488e-05 -1.7095977731892808e-05 -0.19971121124217167 1.4176048673444965e-07 7.1065462535745488e-05 1.4176048673444965e-07 -0.99893763733292007 0.00030416615934511504 1.4866644593850642e-05 6.2788955913661848e-05 1.4866644593850642e-05 -0.19972831681856501 -1.3423302063164666e-05 6.2788955913661848e-05 -1.3423302063164666e-05 -0.99892571399756336 0.00033676834156465274 -1.5787296968323115e-06 4.10950161890996e-05 -1.5787296968323115e-06 -0.19972563766433343 2.8693036180643982e-06 4.10950161890996e-05 2.8693036180643982e-06 -0.99889189569681347 0.00072752640705961436 -9.532847670573963e-06 -0.00013996414496320053 -9.532847670573963e-06 -0.19955327983979054 -4.0359995082561717e-05 -0.00013996414496320053 -4.0359995082561717e-05 -0.99851291194744296 0.00037323857198978683 2.4770060929779141e-05 3.4289715419767911e-05 2.4770060929779141e-05 -0.19966781230018024 -7.799715135342787e-06 3.4289715419767911e-05 -7.799715135342787e-06 -0.99887370556702493 0.00042355416966780024 -2.4320743968075832e-05 6.1603335846149854e-05 -2.4320743968075832e-05 -0.199689393786976 8.3245956605249027e-06 6.1603335846149854e-05 8.3245956605249027e-06 -0.99888015897396421 0.00073880951045257083 5.3313723269855678e-05 -0.00013657218627150317 5.3313723269855678e-05 -0.19954718141948485 -1.9907267388485916e-05 -0.00013657218627150317 -1.9907267388485916e-05 -0.99850774331596037 0.0012082556711316417 -1.835750335031857e-05 6.9200444778024973e-05 -1.835750335031857e-05 -0.19940962204479673 1.6270265205008729e-06 6.9200444778024973e-05 1.6270265205008729e-06 -0.99840414209478312 0.00053663336178011445 1.1153476329032713e-05 -8.9228206819780276e-05 1.1153476329032713e-05 -0.19958448868905115 1.2986356618553685e-05 -8.9228206819780276e-05 1.2986356618553685e-05 -0.99863396815577166 0.00055234785317520574 -3.3466181250193857e-05 -4.7605665142724796e-05 -3.3466181250193857e-05 -0.199612297369894 1.7791912017395273e-05 -4.7605665142724796e-05 1.7791912017395273e-05 -0.99862152181638153 0.00049122145643870629 -3.4417728265548153e-05 -1.0599850149672907e-05 -3.4417728265548153e-05 -0.19970068971136828 2.0234129893548225e-05 -1.0599850149672907e-05 2.0234129893548225e-05 -0.99900231227490277 0.00040307354607359953 -1.424864625111892e-05 7.5362169191210915e-05 -1.424864625111892e-05 -0.19971179085704099 -1.5263710262129553e-05 7.5362169191210915e-05 -1.5263710262129553e-05 -0.99891825223425756 0.00039555723666616989 -1.8616291111291502e-05 7.6883024125201879e-05 -1.8616291111291502e-05 -0.19968802587817563 -2.8183016902179564e-05 7.6883024125201879e-05 -2.8183016902179564e-05 -0.99890452710398314 0.00037316618747053332 -1.7015228568436844e-05 6.5725520824169421e-05 -1.7015228568436844e-05 -0.19974985428530137 2.1008146601386724e-05 6.5725520824169421e-05 2.1008146601386724e-05 -0.9989764086364088 0.0012227631648462634 1.33558944803972e-05 -3.5151817856959866e-05 1.33558944803972e-05 -0.19944913858748026 2.9478509014080334e-05 -3.5151817856959866e-05 2.9478509014080334e-05 -0.99850603465670751 0.0011809770103583528 3.2623008670342645e-05 4.5612508823168071e-05 3.2623008670342645e-05 -0.19941543991569494 -7.4015426991903243e-06 4.5612508823168071e-05 -7.4015426991903243e-06 -0.99827897792718712 0.00071324037917638861 -3.383758667369903e-05 -0.00012669961714706357 -3.383758667369903e-05 -0.19966670628733893 3.0728734106255651e-05 -0.00012669961714706357 3.0728734106255651e-05 -0.99888241745848239 0.0007044184359775163 -2.0569058197517913e-05 -0.00014336547291426971 -2.0569058197517913e-05 -0.19961754287354433 2.2269088146786853e-05 -0.00014336547291426971 2.2269088146786853e-05 -0.99861423219782131 0.00073166728521004143 -6.0539127921486904e-05 -8.4154762745203282e-05 -6.0539127921486904e-05 -0.19956386283645264 2.1180663134168221e-05 -8.4154762745203282e-05 2.1180663134168221e-05 -0.99863489137539718 0.00069078036112096841 -4.0428794941430228e-05 -0.00013135913352116391 -4.0428794941430228e-05 -0.1995730427677207 2.2860886597836361e-05 -0.00013135913352116391 2.2860886597836361e-05 -0.99861436308823248 0.001148790278994366 3.9661783985777341e-06 6.6812693785580496e-05 3.9661783985777341e-06 -0.19944323682264872 6.8350635617386857e-05 6.6812693785580496e-05 6.8350635617386857e-05 -0.99837869482731056 0.00035550361198183333 7.2587341095516864e-05 -6.4435751298108634e-05 7.2587341095516864e-05 -0.19962316616747489 -2.2248038516858859e-05 -6.4435751298108634e-05 -2.2248038516858859e-05 -0.99870706656979147 0.00030098952925400324 7.1999786787162182e-05 -0.00011249692930156985 7.1999786787162182e-05 -0.19967793018445473 -5.2629689123284695e-05 -0.00011249692930156985 -5.2629689123284695e-05 -0.99892280184025495 0.00056083864754352219 3.0810329947225186e-05 8.2394222605339609e-05 3.0810329947225186e-05 -0.19961943311290176 9.9185656747440312e-06 8.2394222605339609e-05 9.9185656747440312e-06 -0.99867177056261192 0.00032940909963452574 6.4443680607705021e-05 -5.8952170560392044e-05 6.4443680607705021e-05 -0.1996619189435232 -4.5023129036980691e-05 -5.8952170560392044e-05 -4.5023129036980691e-05 -0.99888562310951057 0.00036314887504051323 -4.7260260511228485e-06 8.3983316410542907e-05 -4.7260260511228485e-06 -0.19968744788150922 3.8892793031473111e-06 8.3983316410542907e-05 3.8892793031473111e-06 -0.99898996150884201 0.0004740673670406669 1.9795487763930126e-05 2.8765471031351422e-06 1.9795487763930126e-05 -0.1996489852716338 -4.0989548941884289e-05 2.8765471031351422e-06 -4.0989548941884289e-05 -0.99883832838798192 0.0012136370440555921 -1.7374588781243538e-05 -0.00010933200750782286 -1.7374588781243538e-05 -0.19943874146458315 -6.9114739246955564e-05 -0.00010933200750782286 -6.9114739246955564e-05 -0.99841231318779489 0.001095682334563609 -4.001763067349238e-05 1.6946301136706303e-05 -4.001763067349238e-05 -0.1994899605371889 5.7801809775006338e-06 1.6946301136706303e-05 5.7801809775006338e-06 -0.99854623644890672 0.0018879733062223377 2.2468637734358048e-05 -0.00011445202039900293 2.2468637734358048e-05 -0.19924036698745454 -8.34974233955392e-06 -0.00011445202039900293 -8.34974233955392e-06 -0.99810924932369427 0.0012698171271716963 2.9937004914852333e-05 -5.6132701641391225e-05 2.9937004914852333e-05 -0.19939413498291231 -9.4668028132183224e-06 -5.6132701641391225e-05 -9.4668028132183224e-06 -0.99825923022571605 0.0015054511608568427 3.9221875742384428e-05 6.2386469588666802e-05 3.9221875742384428e-05 -0.19933473993954007 1.4375834458524188e-06 6.2386469588666802e-05 1.4375834458524188e-06 -0.9981567716600559 0.0022670920529606091 4.0816120884517311e-05 4.9380602458335069e-05 4.0816120884517311e-05 -0.19905680637444162 8.806478704021054e-06 4.9380602458335069e-05 8.806478704021054e-06 -0.99762870173717877 0.0018340828813930303 -3.8232841234927125e-05 -2.214525519962689e-06 -3.8232841234927125e-05 -0.19924153797513308 7.1910361234544943e-06 -2.214525519962689e-06 7.1910361234544943e-06 -0.9980676711869757 0.001987033858863489 -7.3517626739734866e-06 -0.00012155021390164471 -7.3517626739734866e-06 -0.19917041407495875 -4.9884783988815272e-05 -0.00012155021390164471 -4.9884783988815272e-05 -0.99790661901446376 0.0020087839759656556 3.4169962076956388e-05 -8.7528048350965504e-05 3.4169962076956388e-05 -0.19913572008981853 -5.8581221723530419e-06 -8.7528048350965504e-05 -5.8581221723530419e-06 -0.99770594463912154 0.0019987720264074971 3.5005919906961756e-05 -8.4577241286229454e-05 3.5005919906961756e-05 -0.19914345752329626 -1.4405249667559517e-06 -8.4577241286229454e-05 -1.4405249667559517e-06 -0.99774962711710347 0.0018928531612109056 -2.9710044789021222e-06 3.1351067359056909e-05 -2.9710044789021222e-06 -0.19919459860673019 0.00010113376656273321 3.1351067359056909e-05 0.00010113376656273321 -0.99782256593479057 0.0019088707445229502 3.1855466970398662e-05 2.3425819436689483e-05 3.1855466970398662e-05 -0.19917601369523796 -1.4663004769672001e-06 2.3425819436689483e-05 -1.4663004769672001e-06 -0.99776284584368935 0.0014267880213173585 -1.7512923686868933e-05 6.887046754061512e-05 -1.7512923686868933e-05 -0.19935358069522682 -5.1686283376262132e-05 6.887046754061512e-05 -5.1686283376262132e-05 -0.99822973448142105 0.0018866232831336177 4.8347391508524164e-05 -0.00010710398385410658 4.8347391508524164e-05 -0.19922493864819962 -7.1334300636799464e-05 -0.00010710398385410658 -7.1334300636799464e-05 -0.99803207327815224 0.0014264868744830461 -3.6694043512506089e-05 6.9183484892545663e-05 -3.6694043512506089e-05 -0.19935418345154346 5.4043853571263811e-07 6.9183484892545663e-05 5.4043853571263811e-07 -0.99822790070875511 0.0021578604508437071 -2.8883241300437437e-05 3.7321428174299622e-05 -2.8883241300437437e-05 -0.19911229046131934 1.1549712273147683e-07 3.7321428174299622e-05 1.1549712273147683e-07 -0.99770149330330127 0.0021597905818404595 -1.7228131924821997e-05 4.2511715565636543e-05 -1.7228131924821997e-05 -0.19909928022184231 5.2622725554840599e-06 4.2511715565636543e-05 5.2622725554840599e-06 -0.99769524948848343 0.0017229550361684983 -8.9879204056752786e-06 -0.00018942703195676648 -8.9879204056752786e-06 -0.199265253838638 7.8799733248543483e-05 -0.00018942703195676648 7.8799733248543483e-05 -0.99810024914695283 0.0019904913749825767 -7.4191197314388303e-06 -0.00017271891820674901 -7.4191197314388303e-06 -0.19918828219624551 1.744463952302322e-05 -0.00017271891820674901 1.744463952302322e-05 -0.99796680789587033 0.0017782430784021308 -9.3259410923456269e-05 -0.00012620801236246093 -9.3259410923456269e-05 -0.19924231635847692 4.9274711535152171e-05 -0.00012620801236246093 4.9274711535152171e-05 -0.99803569039539852 0.0018940350334497591 -2.4380814524921022e-05 1.7178896744954881e-05 -2.4380814524921022e-05 -0.19915645258652137 -1.4527779520237156e-07 1.7178896744954881e-05 -1.4527779520237156e-07 -0.99773715404697172 0.0021575348938682737 1.9468066295280918e-05 2.028527248067218e-05 1.9468066295280918e-05 -0.19909985454807966 -6.4185892782313053e-06 2.028527248067218e-05 -6.4185892782313053e-06 -0.99767660350437504 0.0013961871611287147 3.6580375495048268e-05 2.4384272733399184e-05 3.6580375495048268e-05 -0.19938411484527022 6.5795074108372911e-06 2.4384272733399184e-05 6.5795074108372911e-06 -0.99835992329649703 0.0019118620127913655 -1.0964313836138066e-05 -0.00028625777286983567 -1.0964313836138066e-05 -0.19921854030380565 -2.0728564922078974e-05 -0.00028625777286983567 -2.0728564922078974e-05 -0.99804732805297669 0.001728844800971685 5.0275747266696027e-05 -0.00033564513782746719 5.0275747266696027e-05 -0.19928215275083144 -8.9995299616951741e-06 -0.00033564513782746719 -8.9995299616951741e-06 -0.99810961294729195 0.0019984709981178961 -1.0336932908540238e-05 -0.00027136091707929966 -1.0336932908540238e-05 -0.19913706921446361 -0.00013563181793369017 -0.00027136091707929966 -0.00013563181793369017 -0.99769530363329162 0.0017251254052020604 -4.2998233869171849e-05 -2.8883271620427919e-05 -4.2998233869171849e-05 -0.19931156882791204 -4.5373070443055497e-06 -2.8883271620427919e-05 -4.5373070443055497e-06 -0.99831029701271445 0.001989213180407845 -1.2208693717097568e-05 -0.00015322584331739497 -1.2208693717097568e-05 -0.1991373559541734 5.9837262064155183e-06 -0.00015322584331739497 5.9837262064155183e-06 -0.99771325940832056 0.0019894393647802988 -8.1201991310915618e-06 -0.0001564227067197832 -8.1201991310915618e-06 -0.19913970845890827 -4.2850186316722993e-06 -0.0001564227067197832 -4.2850186316722993e-06 -0.99773442188193151 0.0013197365713571996 2.6450380806934538e-05 -0.00013787251524638444 2.6450380806934538e-05 -0.19940954620385654 -2.3723125100238995e-05 -0.00013787251524638444 -2.3723125100238995e-05 -0.99840759935666146 0.0013150402395611174 1.6028486530068647e-05 -0.00013701572513868943 1.6028486530068647e-05 -0.19937621827234761 -1.4732656131333233e-05 -0.00013701572513868943 -1.4732656131333233e-05 -0.99822315284609842 0.0021354540110358478 5.3884095006306419e-05 -0.00017720108295057879 5.3884095006306419e-05 -0.1991036677961226 1.0956576967757758e-05 -0.00017720108295057879 1.0956576967757758e-05 -0.99767865616117279 0.0017204215987643018 -7.0959930558018685e-05 -0.00021984087441195843 -7.0959930558018685e-05 -0.19927504070173807 1.163608271281813e-05 -0.00021984087441195843 1.163608271281813e-05 -0.99815716134856114 0.0018767289285186832 6.5579876005640084e-06 -8.1460830636925774e-05 6.5579876005640084e-06 -0.19923416979689818 -1.6411797120283872e-05 -8.1460830636925774e-05 -1.6411797120283872e-05 -0.99807487155730046 0.001962853054106678 7.0788690634623277e-06 -0.00016146697909341645 7.0788690634623277e-06 -0.19914703400158726 1.8156056088229622e-05 -0.00016146697909341645 1.8156056088229622e-05 -0.99772399576569926 0.0017169596712098834 3.3879399195787444e-06 -0.0003548531786130571 3.3879399195787444e-06 -0.19926950289317291 2.7242212104344743e-06 -0.0003548531786130571 2.7242212104344743e-06 -0.9980997556943535 0.0020355956746105353 5.8354670425577396e-05 -0.0001191947796940207 5.8354670425577396e-05 -0.19919622875726156 -5.2989684032000994e-05 -0.0001191947796940207 -5.2989684032000994e-05 -0.99804388237439556 0.0021216854500221149 3.3129663652449341e-05 -0.00015768209146027612 3.3129663652449341e-05 -0.19910113070614466 -8.5961931806100011e-07 -0.00015768209146027612 -8.5961931806100011e-07 -0.99764361766733067 0.0020732451693586951 2.4995316538677807e-05 -0.00021035472794694865 2.4995316538677807e-05 -0.19919843675975724 3.3166149074115303e-05 -0.00021035472794694865 3.3166149074115303e-05 -0.9980802553023973 0.0012963826835147851 -8.3338810716926345e-06 -0.00018187043745965248 -8.3338810716926345e-06 -0.19937533953294678 5.3702917917064497e-06 -0.00018187043745965248 5.3702917917064497e-06 -0.99826736660590565 0.00076038250533394525 -6.2578505226803207e-05 -3.6278761833076489e-05 -6.2578505226803207e-05 -0.19954682654548517 -3.488102472450072e-06 -3.6278761833076489e-05 -3.488102472450072e-06 -0.99857665441897492 0.00069728329485293367 -5.6937825763796121e-05 -0.00012996768715095586 -5.6937825763796121e-05 -0.19961545224089644 -1.4261126511372346e-06 -0.00012996768715095586 -1.4261126511372346e-06 -0.9988594247614313 0.0013042881991604215 4.6582557412569968e-06 -0.00015507298828953964 4.6582557412569968e-06 -0.19944002860153517 3.0968282233700961e-05 -0.00015507298828953964 3.0968282233700961e-05 -0.99860321615496417 0.00067132341271135612 -4.786216958688432e-05 -0.00010870294812270753 -4.786216958688432e-05 -0.19959399919992105 4.0995868859527995e-05 -0.00010870294812270753 4.0995868859527995e-05 -0.99876303769486885 0.00035890016717594203 4.9621981773469344e-05 -6.6402294309542143e-05 4.9621981773469344e-05 -0.19965119311692625 5.899667007813747e-06 -6.6402294309542143e-05 5.899667007813747e-06 -0.99883932969598277 0.00038527033176549708 7.019795578760705e-06 -5.8213616838553861e-05 7.019795578760705e-06 -0.19974079445455617 -2.5261687042865688e-05 -5.8213616838553861e-05 -2.5261687042865688e-05 -0.99920960499692635 0.00030262886637993924 5.2451564594272149e-05 -0.00011402329191717575 5.2451564594272149e-05 -0.199732811070508 -5.4412475434972851e-05 -0.00011402329191717575 -5.4412475434972851e-05 -0.99914720947911384 0.00038004855208045862 3.1165032887619254e-05 -6.8768169123822886e-05 3.1165032887619254e-05 -0.19968129309130978 -2.5679838990266823e-05 -6.8768169123822886e-05 -2.5679838990266823e-05 -0.99900550947201205 0.00064703987735403867 1.9128254675461364e-05 -0.00019097837895210024 1.9128254675461364e-05 -0.19971492516483114 -3.1985066359929704e-06 -0.00019097837895210024 -3.1985066359929704e-06 -0.99905751399652298 0.00060830559298670484 -5.4657170789020772e-05 -0.00019782401735746191 -5.4657170789020772e-05 -0.19966794757015771 1.3448623469636267e-05 -0.00019782401735746191 1.3448623469636267e-05 -0.99905155910582488 0.00077748518490261542 0.00010498320313584959 -0.00010179745632828141 0.00010498320313584959 -0.19955331457525316 5.5759873968663776e-06 -0.00010179745632828141 5.5759873968663776e-06 -0.99855607146466241 0.00071458922251788071 4.5657778416014704e-06 -1.7768537266260598e-05 4.5657778416014704e-06 -0.19967880418108686 -1.4660561775015069e-05 -1.7768537266260598e-05 -1.4660561775015069e-05 -0.99902504233079581 0.00083777372664561867 9.7247703932100889e-06 -9.8060250795173332e-05 9.7247703932100889e-06 -0.1995281806603269 4.3751697819116586e-06 -9.8060250795173332e-05 4.3751697819116586e-06 -0.99843677810642228 0.00074743277817995724 9.1054875541731647e-06 -0.00010518158112515774 9.1054875541731647e-06 -0.19965510984782781 9.7571252114514451e-06 -0.00010518158112515774 9.7571252114514451e-06 -0.9989190162772863 0.00078212282450418336 -9.6378285310724591e-06 -7.2961556061346133e-05 -9.6378285310724591e-06 -0.19963530982472816 -0.00015213589082541112 -7.2961556061346133e-05 -0.00015213589082541112 -0.99869177232303707 0.0007377130418786404 7.2613602126892513e-05 -0.00013095624641372428 7.2613602126892513e-05 -0.19961104944546287 -5.6226745704546222e-05 -0.00013095624641372428 -5.6226745704546222e-05 -0.99882755414930668 0.00075286532189855482 2.2595886318984913e-05 -3.348770158231873e-05 2.2595886318984913e-05 -0.19959821788862886 9.8832435885487513e-05 -3.348770158231873e-05 9.8832435885487513e-05 -0.99883524622458264 0.00050160419184092087 1.5927844765459865e-06 1.2274986849025726e-05 1.5927844765459865e-06 -0.19970392750419227 1.4037279958523108e-05 1.2274986849025726e-05 1.4037279958523108e-05 -0.99900886963680424 0.00053321343978562918 -3.9840086170404083e-05 -0.00017652390117861572 -3.9840086170404083e-05 -0.1996719728540598 3.8957502842551506e-06 -0.00017652390117861572 3.8957502842551506e-06 -0.99905179566740365 0.00096451670725306027 0.00014158386476225218 -0.00011334776977800498 0.00014158386476225218 -0.19954775803532943 -7.4338606261936668e-05 -0.00011334776977800498 -7.4338606261936668e-05 -0.99868380514002997 0.00099906916400072099 -0.00014010289731464912 -4.4907300922492066e-05 -0.00014010289731464912 -0.1996316209745907 -7.0271385458786639e-05 -4.4907300922492066e-05 -7.0271385458786639e-05 -0.99905386499555071 0.00043745632294289738 -5.0670544100564592e-05 4.1332119678827439e-05 -5.0670544100564592e-05 -0.19974197347579625 2.8670897725846523e-05 4.1332119678827439e-05 2.8670897725846523e-05 -0.99923161236752156 0.00068455678435457024 1.1102812009353788e-05 -8.2910884740883262e-05 1.1102812009353788e-05 -0.19970519855022345 -2.6567864022108978e-06 -8.2910884740883262e-05 -2.6567864022108978e-06 -0.9991684647200636 0.0010503855464597533 -0.00027920072289082994 -0.00011006818847109079 -0.00027920072289082994 -0.19953658923093814 0.00013661573522782966 -0.00011006818847109079 0.00013661573522782966 -0.99873279489967692 0.00091873180114210307 1.7817859298099407e-05 -0.00025166941313559121 1.7817859298099407e-05 -0.19952860279051809 -2.0943748405888307e-05 -0.00025166941313559121 -2.0943748405888307e-05 -0.99852390100512789 0.00056950600988758815 -4.7878665257718411e-05 -8.7786406969381225e-05 -4.7878665257718411e-05 -0.19962591694114717 -3.3716857534782374e-05 -8.7786406969381225e-05 -3.3716857534782374e-05 -0.9987757132480839 0.00082660025827352435 0.00014413787214027443 -0.00019222556633408105 0.00014413787214027443 -0.19965555205110386 4.1907425675891119e-05 -0.00019222556633408105 4.1907425675891119e-05 -0.99921703955875252 0.00044174322935941479 -8.5690859926970019e-05 -3.0149179008676086e-05 -8.5690859926970019e-05 -0.19973447213692685 3.3626615250859082e-05 -3.0149179008676086e-05 3.3626615250859082e-05 -0.9992397058547331 0.00058353906664909694 -9.4559768500774831e-05 -9.6181767355263403e-05 -9.4559768500774831e-05 -0.19970208778686671 2.130175642922616e-05 -9.6181767355263403e-05 2.130175642922616e-05 -0.99925548080025894 0.00047009395331620851 3.9133465148782203e-05 -0.00017040958844649623 3.9133465148782203e-05 -0.19979236010067802 -2.0741927201584076e-05 -0.00017040958844649623 -2.0741927201584076e-05 -0.99923968151381493 0.00063142113461059357 5.587867157993419e-05 -9.0994935547428213e-05 5.587867157993419e-05 -0.19972707429219214 -1.4320088201902337e-06 -9.0994935547428213e-05 -1.4320088201902337e-06 -0.99918373055977916 0.00059022860716916037 -1.0434520498652231e-05 -1.0931222935939289e-05 -1.0434520498652231e-05 -0.19968468294939834 -8.3728998806154031e-05 -1.0931222935939289e-05 -8.3728998806154031e-05 -0.99915340243125961 0.0017396342290409983 4.3293256745897526e-05 -0.00025848534698447168 4.3293256745897526e-05 -0.19934723023506629 -1.1376382003325247e-05 -0.00025848534698447168 -1.1376382003325247e-05 -0.99852261092178285 0.00058192894042441434 2.5811057826486022e-05 -7.5681679302164184e-05 2.5811057826486022e-05 -0.19964309838928929 -4.3643578682139861e-06 -7.5681679302164184e-05 -4.3643578682139861e-06 -0.99885014872868982 0.00057690830793533099 4.5234629283968712e-05 -6.2727322012734454e-05 4.5234629283968712e-05 -0.19969437483480013 8.2060425021901473e-05 -6.2727322012734454e-05 8.2060425021901473e-05 -0.99886636741427237 0.00058537459242147261 5.0281303281897329e-06 7.1438199427120708e-06 5.0281303281897329e-06 -0.19973634769590598 -3.3199047737575427e-06 7.1438199427120708e-06 -3.3199047737575427e-06 -0.99919186366719748 0.00040450246206247265 3.0664274666316895e-05 -4.5295283658153274e-05 3.0664274666316895e-05 -0.19976735789206967 1.3458830770418651e-05 -4.5295283658153274e-05 1.3458830770418651e-05 -0.99940359287868841 0.00035886722791955705 7.2044473239338968e-05 -8.3079982918565776e-05 7.2044473239338968e-05 -0.19974504727637554 -2.4914099255091138e-05 -8.3079982918565776e-05 -2.4914099255091138e-05 -0.9992323128682763 0.0003656202019958199 3.7658601623155866e-05 -8.1447686667124319e-05 3.7658601623155866e-05 -0.19968661716109548 4.0276800891692055e-05 -8.1447686667124319e-05 4.0276800891692055e-05 -0.99891972655663208 0.0013046311139604111 -3.2921331076331674e-06 -0.00011110676213621495 -3.2921331076331674e-06 -0.19946115413384258 -4.8359274603670954e-06 -0.00011110676213621495 -4.8359274603670954e-06 -0.99870339750534309 0.00063645042263868468 -6.4321261009391071e-05 -4.8306419493826525e-05 -6.4321261009391071e-05 -0.19962265661801995 1.7329630244700134e-05 -4.8306419493826525e-05 1.7329630244700134e-05 -0.99884713466489139 0.0019693989747173735 -3.3523207763668136e-06 -0.00016245057245112271 -3.3523207763668136e-06 -0.19919738331199716 -3.9519335577636872e-05 -0.00016245057245112271 -3.9519335577636872e-05 -0.99799376100860226 0.0016706039125642391 2.1724090306297353e-05 -0.00035432412049621331 2.1724090306297353e-05 -0.19931424584804014 -1.0797733991374514e-06 -0.00035432412049621331 -1.0797733991374514e-06 -0.99828808839478267 0.0013963787228222779 -9.9019340184284627e-06 -0.0001979383160913839 -9.9019340184284627e-06 -0.1994157217269874 3.0454625593534512e-05 -0.0001979383160913839 3.0454625593534512e-05 -0.99853432635929629 0.0020926402430857527 -1.8287666315092744e-05 -0.0003036108025951112 -1.8287666315092744e-05 -0.19920465191241343 1.8010775259313938e-05 -0.0003036108025951112 1.8010775259313938e-05 -0.99813658542199546 0.0017529345949957031 -4.1800720548529866e-05 -1.4756682550909339e-05 -4.1800720548529866e-05 -0.19929313149087269 9.5654746901097099e-09 -1.4756682550909339e-05 9.5654746901097099e-09 -0.99827217353988518 0.0020810907563312275 -2.7837292095693676e-06 -0.00027855569869172925 -2.7837292095693676e-06 -0.1991180499181745 -2.0324470208332723e-05 -0.00027855569869172925 -2.0324470208332723e-05 -0.99769684909364553 0.0015655780036185618 1.8739524775541108e-05 -0.00019073099189165221 1.8739524775541108e-05 -0.19939930763233926 -1.7490030180880578e-06 -0.00019073099189165221 -1.7490030180880578e-06 -0.99860912215787678 0.0020074739002993169 -2.1035861238217044e-06 -9.369032883033146e-05 -2.1035861238217044e-06 -0.19916861707399991 1.2318164950064769e-05 -9.369032883033146e-05 1.2318164950064769e-05 -0.99787366558513835 0.0021575650850313433 9.8772893246983364e-06 -0.00031667496795251271 9.8772893246983364e-06 -0.19909955651625993 -6.2742087288958359e-06 -0.00031667496795251271 -6.2742087288958359e-06 -0.99770085154469412 0.0018554868821786252 1.3508023188565687e-05 -7.1937274496156056e-05 1.3508023188565687e-05 -0.19927010652189081 -2.2732970273886544e-05 -7.1937274496156056e-05 -2.2732970273886544e-05 -0.99825850548800021 0.0019892877855537394 -4.6491087935910729e-05 -0.00015759357282407738 -4.6491087935910729e-05 -0.19915871401808316 0.00013148352516256789 -0.00015759357282407738 0.00013148352516256789 -0.99778406265346198 0.0019753552503559701 -1.7249222849713194e-05 -0.00033640242629351391 -1.7249222849713194e-05 -0.19928010419513031 -3.9474771761360827e-06 -0.00033640242629351391 -3.9474771761360827e-06 -0.99836753152585356 0.0021022494248296164 -2.0317448529993713e-05 -0.00028058542635567285 -2.0317448529993713e-05 -0.19909910807836295 -1.8707169712417482e-05 -0.00028058542635567285 -1.8707169712417482e-05 -0.99768856679954565 0.0017664647388337951 5.4352684019538348e-05 -6.0368612076366901e-05 5.4352684019538348e-05 -0.19930349162796634 -1.3079848970920516e-05 -6.0368612076366901e-05 -1.3079848970920516e-05 -0.99825334144614164 0.0028999331167424147 -1.9339589098653697e-05 -0.00041484778158557001 -1.9339589098653697e-05 -0.19890983490607617 -8.524905712903319e-06 -0.00041484778158557001 -8.524905712903319e-06 -0.99755629891483855 0.0017123338590074866 0.00017378468740538035 -0.00032613744687948198 0.00017378468740538035 -0.19929347108918499 -0.00013441382160683801 -0.00032613744687948198 -0.00013441382160683801 -0.99825310870389505 0.001955610121145035 -0.00011311917833571948 -0.0001245517438366317 -0.00011311917833571948 -0.19923004190162447 -5.0265717043029845e-05 -0.0001245517438366317 -5.0265717043029845e-05 -0.99810091875438967 0.0018901238547771038 0.00027798255008000669 -0.00019455459511608098 0.00027798255008000669 -0.19921853601276895 6.9061535857839473e-05 -0.00019455459511608098 6.9061535857839473e-05 -0.99815634603651171 0.0023400862884181972 1.0518769216439932e-05 -6.8490962515932452e-05 1.0518769216439932e-05 -0.19910982510995145 -2.7892420436881338e-05 -6.8490962515932452e-05 -2.7892420436881338e-05 -0.99798673975189978 0.0020399126615152086 -0.00014294851699139821 -0.00037602572349393348 -0.00014294851699139821 -0.19926400922692289 0.00012956442098310816 -0.00037602572349393348 0.00012956442098310816 -0.99830460242843611 0.0019697431511551677 4.3386493524062391e-05 -4.2692253632292676e-06 4.3386493524062391e-05 -0.19921619432409277 -4.8403033106936277e-05 -4.2692253632292676e-06 -4.8403033106936277e-05 -0.99809807046713317 0.0018822459035319206 -4.5222017341581277e-05 -0.00013538729885143042 -4.5222017341581277e-05 -0.19928078724388221 -3.7083595107345602e-05 -0.00013538729885143042 -3.7083595107345602e-05 -0.99851812468516066 0.0017828312149620329 6.113704490749826e-05 -0.000255091036568178 6.113704490749826e-05 -0.1993278555375122 4.0269762194400371e-05 -0.000255091036568178 4.0269762194400371e-05 -0.99845552402729787 0.0028600298449190653 7.2645905122950229e-05 -0.00034079836192058011 7.2645905122950229e-05 -0.19893577492969494 7.28587192466712e-07 -0.00034079836192058011 7.28587192466712e-07 -0.99753414191291867 0.0023859254061185942 -4.2315589868407449e-06 -0.0002836724982047123 -4.2315589868407449e-06 -0.19904273568003039 2.5997779216746508e-05 -0.0002836724982047123 2.5997779216746508e-05 -0.99765363835582566 0.0029156333359127151 -7.5552909572179441e-05 -0.00039449768068777757 -7.5552909572179441e-05 -0.19892809722695093 2.0306466472774787e-05 -0.00039449768068777757 2.0306466472774787e-05 -0.99758397119251452 0.0023152401660107014 5.7831047861409195e-05 -0.0002896699993069074 5.7831047861409195e-05 -0.19914982747627619 -9.229963946444375e-05 -0.0002896699993069074 -9.229963946444375e-05 -0.99782375653385946 0.0019327050821336123 -0.00011082864547433109 -0.00049540504892287007 -0.00011082864547433109 -0.19928319822842466 -1.7438848673334562e-05 -0.00049540504892287007 -1.7438848673334562e-05 -0.99829610350586773 0.0017954824482515619 -2.344724255531932e-05 8.5554745130611565e-06 -2.344724255531932e-05 -0.19930641417861117 -1.1467665971931496e-05 8.5554745130611565e-06 -1.1467665971931496e-05 -0.99828016839620259 0.0018302412673385504 -7.2574135588680041e-05 -1.2036136007864684e-06 -7.2574135588680041e-05 -0.19921006080893811 9.7991953721732195e-05 -1.2036136007864684e-06 9.7991953721732195e-05 -0.99821387728868105 0.0023604411947865112 2.3167452573652444e-05 -0.00031021091622623898 2.3167452573652444e-05 -0.19905958536978707 -2.3099130737058715e-06 -0.00031021091622623898 -2.3099130737058715e-06 -0.99774163960972784 0.0014047143571547238 3.2586557921572578e-05 -0.00022009436673897653 3.2586557921572578e-05 -0.19934491841290547 4.6452835933186165e-05 -0.00022009436673897653 4.6452835933186165e-05 -0.99820680465579592 0.0023070630819175264 2.6295165574576915e-05 -0.00040327936677297949 2.6295165574576915e-05 -0.19914930002386499 -1.8668175839176016e-05 -0.00040327936677297949 -1.8668175839176016e-05 -0.99800373152063582 0.0023324176908298133 7.3835023003258031e-05 -0.00018173721099301599 7.3835023003258031e-05 -0.19908850219307606 1.2799267958385485e-05 -0.00018173721099301599 1.2799267958385485e-05 -0.99775264452250889 0.0022825409400574204 -0.00010688506865455293 -6.5493074958844488e-06 -0.00010688506865455293 -0.1990874787050837 4.3957245879577833e-05 -6.5493074958844488e-06 4.3957245879577833e-05 -0.99786320363388681 0.0030313387763242217 4.0245438153042119e-05 -0.00026794851838118916 4.0245438153042119e-05 -0.19886955544127849 -1.4143503759278531e-05 -0.00026794851838118916 -1.4143503759278531e-05 -0.99752140727461525 0.0023300813681343957 -0.00010833876106412053 -0.00010599887003626129 -0.00010833876106412053 -0.19914435684341214 -3.8022051962904868e-05 -0.00010599887003626129 -3.8022051962904868e-05 -0.99804018918459825 0.0018592618405797179 1.7889215449952774e-07 -0.00033206221441073325 1.7889215449952774e-07 -0.19933516769634163 5.0767223001457751e-05 -0.00033206221441073325 5.0767223001457751e-05 -0.99836508052049888 0.0016143955423507661 -1.8539296209923722e-05 -0.00013189511638334039 -1.8539296209923722e-05 -0.19934984944809864 -4.8267109385768947e-05 -0.00013189511638334039 -4.8267109385768947e-05 -0.99836509711887311 0.0014182270025063781 3.5363686055007082e-05 -0.00030032482671593641 3.5363686055007082e-05 -0.19947350936629016 0.00011508469330068216 -0.00030032482671593641 0.00011508469330068216 -0.99870253892628424 0.0013441910314417882 -2.9002397789564347e-05 -0.0003551927612532868 -2.9002397789564347e-05 -0.19949571181708237 1.3240297457084438e-05 -0.0003551927612532868 1.3240297457084438e-05 -0.99880987905800822 0.00060824888974261859 -9.6635748952967413e-06 -5.4726586067976868e-05 -9.6635748952967413e-06 -0.19969003639686869 5.3399071019866184e-05 -5.4726586067976868e-05 5.3399071019866184e-05 -0.99907358768920196 0.0013453024692349214 1.3412441690888178e-05 -0.00034837010578672722 1.3412441690888178e-05 -0.19948188911843845 2.6141801715562352e-05 -0.00034837010578672722 2.6141801715562352e-05 -0.99875318781336997 0.0012450648691014754 5.2816802006611727e-05 -9.2942621142608206e-05 5.2816802006611727e-05 -0.19954485100550867 7.9429423489596473e-06 -9.2942621142608206e-05 7.9429423489596473e-06 -0.9989541452882964 0.0013712348397534324 -7.8554057493408818e-05 -0.00017902539604941481 -7.8554057493408818e-05 -0.19945723517770242 6.1698531033993476e-05 -0.00017902539604941481 6.1698531033993476e-05 -0.99854226377094157 0.0012267297214739736 -7.9821094515647337e-05 3.7768398929660663e-05 -7.9821094515647337e-05 -0.19955225566393653 -6.4107036452654143e-06 3.7768398929660663e-05 -6.4107036452654143e-06 -0.99891284726569873 0.00048671024779001204 1.9289832373167348e-05 -4.1143905956442239e-05 1.9289832373167348e-05 -0.19977836444554964 0.00011570252255221902 -4.1143905956442239e-05 0.00011570252255221902 -0.99942308789951895 0.00054425152103210195 8.9105660584896572e-06 -0.00014017632002705227 8.9105660584896572e-06 -0.19973689922915216 2.4708136903583977e-05 -0.00014017632002705227 2.4708136903583977e-05 -0.99916279932235064 0.00039174268936137402 -2.341282037112579e-06 -0.00011557402814066364 -2.341282037112579e-06 -0.19982381403070226 6.6031387006004749e-05 -0.00011557402814066364 6.6031387006004749e-05 -0.9995741355002199 0.00042007114311481963 8.9948608675983226e-06 6.8386822226429445e-05 8.9948608675983226e-06 -0.19982296780654241 1.7189666209560528e-05 6.8386822226429445e-05 1.7189666209560528e-05 -0.9997073426598897 0.00037866989554374841 6.2575810398115601e-05 -5.0218616625130608e-05 6.2575810398115601e-05 -0.19971375785088247 7.2528442930153147e-05 -5.0218616625130608e-05 7.2528442930153147e-05 -0.99911469075701098 0.00029489243191038739 7.5600674891740754e-05 -8.3728193224219538e-05 7.5600674891740754e-05 -0.19981754363312909 -9.1021765356025242e-06 -8.3728193224219538e-05 -9.1021765356025242e-06 -0.99954721685133485 0.00056593950189309794 1.902236665514672e-05 -0.00011730935702103373 1.902236665514672e-05 -0.19978664924700817 3.4566358556305937e-05 -0.00011730935702103373 3.4566358556305937e-05 -0.99945114545207581 0.00053967860505932386 -4.9093557624140977e-06 -0.00013447986243519949 -4.9093557624140977e-06 -0.19978487999372874 9.4944299884325289e-06 -0.00013447986243519949 9.4944299884325289e-06 -0.99947537741015768 0.00053481326789373007 -3.3228739497693591e-05 -9.9009674892958088e-05 -3.3228739497693591e-05 -0.19971777367252419 1.5760168278915188e-05 -9.9009674892958088e-05 1.5760168278915188e-05 -0.99911071140321805 0.00046053160429238016 -1.6744429440601021e-05 -2.5105738698183444e-05 -1.6744429440601021e-05 -0.19977732692344141 -0.00016293417938939569 -2.5105738698183444e-05 -0.00016293417938939569 -0.99934827599319087 0.00046309552276668775 2.1470236635457322e-05 5.5048259188117399e-05 2.1470236635457322e-05 -0.19982243003614308 3.2229223320801026e-05 5.5048259188117399e-05 3.2229223320801026e-05 -0.9995269021664992 0.00054191461838737354 2.5479008393018036e-05 5.3225580940230444e-05 2.5479008393018036e-05 -0.19972479091703099 2.2148456693571461e-05 5.3225580940230444e-05 2.2148456693571461e-05 -0.99916839704516658 0.00044652586422500029 -8.1445332550520304e-06 -0.00015640310209086294 -8.1445332550520304e-06 -0.19982070120877671 -1.4675460737079149e-05 -0.00015640310209086294 -1.4675460737079149e-05 -0.99961630054822237 0.00054821671057325716 1.2429159087864643e-06 -2.6518021667865099e-05 1.2429159087864643e-06 -0.19976057846048567 0.00015495909893181725 -2.6518021667865099e-05 0.00015495909893181725 -0.99929827477915767 0.00058565647869757154 7.7154203494834753e-06 3.276172915434028e-05 7.7154203494834753e-06 -0.19970533723882167 -2.4230286551851776e-05 3.276172915434028e-05 -2.4230286551851776e-05 -0.99913025468398375 0.0011966028491982054 3.0802764463109774e-06 -0.00011624293684220355 3.0802764463109774e-06 -0.19946225071380719 1.9662537531495161e-06 -0.00011624293684220355 1.9662537531495161e-06 -0.99851526442940619 0.00063873403002134843 -1.8622992512941549e-05 -0.00013605584060372156 -1.8622992512941549e-05 -0.19973763440439418 -4.2515546252452907e-06 -0.00013605584060372156 -4.2515546252452907e-06 -0.99938095007706318 0.0014007330309185884 1.180697428113594e-05 -0.00039215888987009784 1.180697428113594e-05 -0.19946535680142807 -5.3897136379044142e-05 -0.00039215888987009784 -5.3897136379044142e-05 -0.99871686772309642 0.00089682430352944209 3.8181959788904042e-06 9.1460566287104687e-05 3.8181959788904042e-06 -0.19960071971589333 1.2283342208929682e-06 9.1460566287104687e-05 1.2283342208929682e-06 -0.99890783089416679 0.0004522926445542641 -4.0122048349903982e-06 -0.00014192548591207554 -4.0122048349903982e-06 -0.19982963619149774 -3.0894653893553947e-05 -0.00014192548591207554 -3.0894653893553947e-05 -0.9995831019713739 0.001312637946577988 -1.8231187343068347e-05 -0.00033798998402745362 -1.8231187343068347e-05 -0.19944953807661991 -2.4752692863172499e-05 -0.00033798998402745362 -2.4752692863172499e-05 -0.99878546159431902 0.00056878615429345469 3.7082615414858215e-05 -0.00011560348023409439 3.7082615414858215e-05 -0.19980285018931199 -4.2932396859818311e-07 -0.00011560348023409439 -4.2932396859818311e-07 -0.99937330540151281 0.00053072096292894333 -2.0602011697803547e-05 7.0267186076389265e-06 -2.0602011697803547e-05 -0.19973257044048387 -3.8647847724108952e-05 7.0267186076389265e-06 -3.8647847724108952e-05 -0.99916614080068689 0.00060261981978060319 -3.8552260235273082e-05 -0.00015250421046131279 -3.8552260235273082e-05 -0.19976226718463863 -1.4797249126868861e-05 -0.00015250421046131279 -1.4797249126868861e-05 -0.99940483259343793 0.00056253028179176212 -7.4221261994419696e-05 -0.00010547776686187227 -7.4221261994419696e-05 -0.19973413068089663 5.5547965478464079e-06 -0.00010547776686187227 5.5547965478464079e-06 -0.99948654352420263 0.0014496840208173545 1.6609338061926732e-05 -0.00040836749183448262 1.6609338061926732e-05 -0.19943422408531486 -2.5963286653940543e-07 -0.00040836749183448262 -2.5963286653940543e-07 -0.99865154282758084 0.0014201612403906827 2.2383994372929333e-05 -0.00037830593563636938 2.2383994372929333e-05 -0.19942535731398647 -2.8848417862742393e-05 -0.00037830593563636938 -2.8848417862742393e-05 -0.99867734060392399 0.00052359389800749057 1.5930993747459797e-05 4.3367824340112548e-05 1.5930993747459797e-05 -0.19969473187771292 -1.4130296589857927e-05 4.3367824340112548e-05 -1.4130296589857927e-05 -0.99913384271981576 0.000398879478564651 1.8087624392289186e-05 -0.00010922326931828152 1.8087624392289186e-05 -0.19983677805252364 1.0641189754023728e-05 -0.00010922326931828152 1.0641189754023728e-05 -0.99953792466875235 0.0003957245646777352 2.5662074362667234e-05 -0.00012767978635430666 2.5662074362667234e-05 -0.19980735735143518 -1.2588066327895442e-05 -0.00012767978635430666 -1.2588066327895442e-05 -0.99957542895542861 0.00076958558249984321 -1.2207709706028738e-05 4.107678492015765e-05 -1.2207709706028738e-05 -0.19960013552134437 1.1746119432665125e-05 4.107678492015765e-05 1.1746119432665125e-05 -0.9988629860152427 0.00075730892581915565 -3.0839601374936584e-05 9.0199872838647721e-06 -3.0839601374936584e-05 -0.1996020163720168 1.3615592515447972e-05 9.0199872838647721e-06 1.3615592515447972e-05 -0.99885381554903363 0.00036242509097872411 3.1410481195601112e-05 -0.00013093395225172166 3.1410481195601112e-05 -0.19982635713485097 1.47874204463605e-05 -0.00013093395225172166 1.47874204463605e-05 -0.99956139187113191 0.00077051619741697053 -3.1664110137190018e-05 1.210881379609674e-05 -3.1664110137190018e-05 -0.19959141555734705 2.3257432742451734e-05 1.210881379609674e-05 2.3257432742451734e-05 -0.99879695277211678 0.00057929124720923486 -7.4322906489248476e-05 -0.00021995799819718442 -7.4322906489248476e-05 -0.19975747100664643 7.7181530899750328e-05 -0.00021995799819718442 7.7181530899750328e-05 -0.99944045914417945 0.0006385176967522721 5.8680968596764421e-08 -0.00022380321455317542 5.8680968596764421e-08 -0.1997761079962298 -1.1347782116866156e-05 -0.00022380321455317542 -1.1347782116866156e-05 -0.99952053973758215 0.001422867205981615 -2.5654342923108342e-05 -0.00039330217921051958 -2.5654342923108342e-05 -0.19943079610391057 5.6671776571981525e-05 -0.00039330217921051958 5.6671776571981525e-05 -0.99865864509168123 0.00077470147096014852 -6.3119735828637866e-05 -3.6151961323005466e-05 -6.3119735828637866e-05 -0.19963265042309108 0.00010767273042885939 -3.6151961323005466e-05 0.00010767273042885939 -0.99902204096553193 0.00055018854961041974 1.2417576624448368e-05 -8.4057397078618479e-05 1.2417576624448368e-05 -0.19977495300853743 1.507418695800844e-05 -8.4057397078618479e-05 1.507418695800844e-05 -0.99948906555428385 0.00052467783780185684 4.0166486768783499e-05 4.6891191725739745e-05 4.0166486768783499e-05 -0.19970548850696157 4.684428538487273e-05 4.6891191725739745e-05 4.684428538487273e-05 -0.99912973487207779 0.00055369773723518145 4.0845130796274418e-05 -8.2305259414106047e-05 4.0845130796274418e-05 -0.19963039847251701 2.640240373619207e-05 -8.2305259414106047e-05 2.640240373619207e-05 -0.99876269711118515 0.00088691064391116514 -2.2324694128733358e-05 -0.0002644456812463114 -2.2324694128733358e-05 -0.19950767209997872 1.8041786390088355e-05 -0.0002644456812463114 1.8041786390088355e-05 -0.99849760135868793 0.00088482147862778415 9.5315289287413853e-05 -0.00020622564022670931 9.5315289287413853e-05 -0.19959801507877017 -9.9421928253518033e-05 -0.00020622564022670931 -9.9421928253518033e-05 -0.99867080818506038 0.00086296081511573475 0.0001132426021215417 -0.00010567088170796574 0.0001132426021215417 -0.19962086288778635 0.00013222178171456989 -0.00010567088170796574 0.00013222178171456989 -0.99919329874748752 0.000662382576267391 -2.3197529946412279e-05 -0.00010061547883977173 -2.3197529946412279e-05 -0.19969304688759582 1.2414996325982308e-05 -0.00010061547883977173 1.2414996325982308e-05 -0.99920281611373829 0.00091106734748003237 -0.00015138885116895104 -0.00016158211463734862 -0.00015138885116895104 -0.1995450903053948 9.0687641355113868e-05 -0.00016158211463734862 9.0687641355113868e-05 -0.99864596102312975 0.0008428591235374594 -8.1679686270279159e-05 -0.00010640127910354485 -8.1679686270279159e-05 -0.19967080474488572 -4.6107905869785526e-05 -0.00010640127910354485 -4.6107905869785526e-05 -0.99920183807344853 0.00050119245431023973 7.1283348506226212e-05 -9.6035991174803215e-05 7.1283348506226212e-05 -0.19974671685415124 -6.1093701899883612e-05 -9.6035991174803215e-05 -6.1093701899883612e-05 -0.99928489629017703 0.00047693298434436926 3.4373196261165676e-05 1.4326867851410796e-05 3.4373196261165676e-05 -0.19973163457752352 -4.3151164378252282e-05 1.4326867851410796e-05 -4.3151164378252282e-05 -0.99918721985793013 0.00049204978577690323 7.8115096159500576e-05 -6.8508471832484652e-05 7.8115096159500576e-05 -0.1997430190072261 -2.8104544645302099e-05 -6.8508471832484652e-05 -2.8104544645302099e-05 -0.99925347652451568 0.00062029752232239943 -5.5082810723788869e-05 -0.0001042524859722338 -5.5082810723788869e-05 -0.19977485366326864 5.2776028304224454e-06 -0.0001042524859722338 5.2776028304224454e-06 -0.99922844473277728 0.00065951095031635543 0.0002614745250593251 -0.00012392126873939091 0.0002614745250593251 -0.19951142252423093 -0.00012169522288063561 -0.00012392126873939091 -0.00012169522288063561 -0.99872994105801038 0.0018188535362535507 -1.1275422177914342e-05 -0.00028101216728870781 -1.1275422177914342e-05 -0.19936004847195199 1.7942797150283241e-05 -0.00028101216728870781 1.7942797150283241e-05 -0.99848847189573142 0.0009913019390395128 -3.5120773322608419e-05 6.6177427355040841e-05 -3.5120773322608419e-05 -0.19971683211142777 1.9937847737683256e-05 6.6177427355040841e-05 1.9937847737683256e-05 -0.99881823016680826 0.0006906242328674761 -4.895172590538508e-06 -0.00016393054916163941 -4.895172590538508e-06 -0.19977771173513525 3.138515916978335e-05 -0.00016393054916163941 3.138515916978335e-05 -0.99925602934954005 0.00073508941095712377 3.3981927337421259e-06 -0.00012036553032290787 3.3981927337421259e-06 -0.19959980987585157 -1.3631875100728053e-05 -0.00012036553032290787 -1.3631875100728053e-05 -0.99875126272202497 0.00056330979879215537 3.3064464907047654e-05 2.7665247659847125e-05 3.3064464907047654e-05 -0.19978815874017664 1.0606256251044499e-05 2.7665247659847125e-05 1.0606256251044499e-05 -0.9992093282074701 0.00056802122810116007 5.3415889216091571e-05 3.3444863828391291e-05 5.3415889216091571e-05 -0.19971410272087467 -1.8210944192187384e-05 3.3444863828391291e-05 -1.8210944192187384e-05 -0.99919297736833557 0.0001657961270311592 -5.2182352794634892e-05 4.3621897655610198e-05 -5.2182352794634892e-05 -0.19977518501253499 -1.1001489095829875e-05 4.3621897655610198e-05 -1.1001489095829875e-05 -0.99928579249749561 0.00039996367999517446 1.5922222734443649e-05 -7.5995466082057206e-05 1.5922222734443649e-05 -0.19973530538142703 5.5508818389005121e-06 -7.5995466082057206e-05 5.5508818389005121e-06 -0.99926905729154969 0.00041680868243143543 -0.0001106192747871073 -0.00012736129335688684 -0.0001106192747871073 -0.19964557142856831 6.1124176454874224e-05 -0.00012736129335688684 6.1124176454874224e-05 -0.99894174551349391 0.0011702241627766508 -2.1687296669798239e-05 -1.2994669228660882e-05 -2.1687296669798239e-05 -0.19951805058081631 3.4579827241643102e-06 -1.2994669228660882e-05 3.4579827241643102e-06 -0.99874577371783746 0.00076181043802045489 3.2154554245541922e-05 -0.00011350966209144886 3.2154554245541922e-05 -0.19961166828346427 2.3874370933096856e-05 -0.00011350966209144886 2.3874370933096856e-05 -0.99888609707418596 0.00046798916610935049 -3.9610623951876571e-05 -6.9988892465233654e-05 -3.9610623951876571e-05 -0.19970535566224246 -2.2729305347302109e-05 -6.9988892465233654e-05 -2.2729305347302109e-05 -0.99929197901582301 0.00040376195676194993 -8.744744235195638e-05 -4.9923180871047634e-05 -8.744744235195638e-05 -0.19967220197581437 -8.4126792400551764e-05 -4.9923180871047634e-05 -8.4126792400551764e-05 -0.9990838405421032 0.00067764962844414633 6.1774200083149628e-05 -0.00017243647884757074 6.1774200083149628e-05 -0.19974003445431304 -9.0312968814565409e-06 -0.00017243647884757074 -9.0312968814565409e-06 -0.99939208331673002 0.00028006873675501254 -7.045646599623012e-05 -0.00012687363364505266 -7.045646599623012e-05 -0.19978720683326801 1.9367982783791149e-05 -0.00012687363364505266 1.9367982783791149e-05 -0.99948820586154419 0.00040756859203527895 -1.4415795165080414e-06 -0.00012294268038925971 -1.4415795165080414e-06 -0.19983372098265106 -2.3439840032279946e-05 -0.00012294268038925971 -2.3439840032279946e-05 -0.99963215337561984 0.00062869975125168232 -2.9270731917637991e-05 -0.0002144243453818806 -2.9270731917637991e-05 -0.19969300896944531 3.0103295668104657e-05 -0.0002144243453818806 3.0103295668104657e-05 -0.99907544194518216 0.00041418264799397697 9.552100496755775e-07 3.9841594084766285e-05 9.552100496755775e-07 -0.19980212249786611 -1.7494975995790973e-05 3.9841594084766285e-05 -1.7494975995790973e-05 -0.99967827942453447 0.0004684602711703123 -1.0455778933704586e-05 -5.076908237677813e-05 -1.0455778933704586e-05 -0.19977510034722901 -9.4477916187774014e-05 -5.076908237677813e-05 -9.4477916187774014e-05 -0.99944721394300773 0.00037785078184560117 -3.5154769144333533e-05 -0.00011615800275510679 -3.5154769144333533e-05 -0.19989314396833902 1.1255009672250793e-05 -0.00011615800275510679 1.1255009672250793e-05 -0.99961179302537184 0.00053980247459173292 8.2020064147730548e-05 -0.00022008328193612314 8.2020064147730548e-05 -0.19976865929685661 -0.00010164188771799587 -0.00022008328193612314 -0.00010164188771799587 -0.99940694036788358 0.00065488832269122721 -5.2936666829577629e-05 8.7292744111344689e-05 -5.2936666829577629e-05 -0.19975810657690385 -2.2821213902068926e-05 8.7292744111344689e-05 -2.2821213902068926e-05 -0.99921095962990236 0.00068502030386530244 1.6875840846324402e-05 -0.00016851889375057993 1.6875840846324402e-05 -0.19979014373242188 -2.0931109240840406e-06 -0.00016851889375057993 -2.0931109240840406e-06 -0.99940178587322936 0.0013473241240697931 1.1920910529251788e-05 -0.00036936840017912087 1.1920910529251788e-05 -0.1994522601212203 -4.5364751943388626e-05 -0.00036936840017912087 -4.5364751943388626e-05 -0.99864858543116597 0.00085599502653799231 6.2913399337199876e-05 -1.4933394006044765e-05 6.2913399337199876e-05 -0.19963513340984596 -0.00012730697551488479 -1.4933394006044765e-05 -0.00012730697551488479 -0.99904092031253589 0.00092680892781915603 6.498594189739574e-06 -0.00014642195822744952 6.498594189739574e-06 -0.19961737194637563 3.8708527743014365e-05 -0.00014642195822744952 3.8708527743014365e-05 -0.99897620868374304 0.0012249869059004492 -4.0337193346896975e-05 1.0112806681505937e-06 -4.0337193346896975e-05 -0.19952553064160949 -1.3513308338541918e-05 1.0112806681505937e-06 -1.3513308338541918e-05 -0.99880149647562089 0.0013292510178044559 4.7336292695112236e-05 -0.00037809477469008534 4.7336292695112236e-05 -0.1994816156785868 -1.8638057999176283e-05 -0.00037809477469008534 -1.8638057999176283e-05 -0.99866900178469109 0.00063390322535739063 2.5963820935757085e-05 7.3609345041081298e-05 2.5963820935757085e-05 -0.19971155100129001 -2.1046292893789342e-05 7.3609345041081298e-05 -2.1046292893789342e-05 -0.99920774694197068 0.001350827722088388 1.887630316489883e-06 -0.0003073246853052547 1.887630316489883e-06 -0.19949108561306872 -1.6670777384764079e-05 -0.0003073246853052547 -1.6670777384764079e-05 -0.99875932939368273 0.00077969176505493509 5.8707673692293363e-05 -8.2451895233814909e-05 5.8707673692293363e-05 -0.19963860252815441 -7.6472822244877392e-05 -8.2451895233814909e-05 -7.6472822244877392e-05 -0.9990032571708134 0.001833870739774035 4.003785167001384e-05 -2.2255291158845836e-06 4.003785167001384e-05 -0.1992821137619567 -8.007191418579751e-06 -2.2255291158845836e-06 -8.007191418579751e-06 -0.99819982868837442 0.0018424967642093337 7.4329560585329648e-05 -4.9238774042503763e-06 7.4329560585329648e-05 -0.19922646707197711 -5.1244930660110377e-05 -4.9238774042503763e-06 -5.1244930660110377e-05 -0.9981697128111775 0.0016357866074365734 3.1342168982051001e-05 -9.6139324701427498e-05 3.1342168982051001e-05 -0.19935930707559757 3.8410228567542504e-05 -9.6139324701427498e-05 3.8410228567542504e-05 -0.99839433939953626 0.0019310857523298086 7.4789394493863701e-05 -0.00027482627231045775 7.4789394493863701e-05 -0.19924780554006705 -1.9398894583799731e-05 -0.00027482627231045775 -1.9398894583799731e-05 -0.99813986400963817 0.0015680679312827239 3.1599584924711646e-07 -0.00023080713906842298 3.1599584924711646e-07 -0.1993972308783879 -8.6957831788136986e-05 -0.00023080713906842298 -8.6957831788136986e-05 -0.99846573817761453 0.0022629136702841945 6.8403376844632148e-05 -1.4495225390209754e-05 6.8403376844632148e-05 -0.19917158612635066 3.4621409868873521e-05 -1.4495225390209754e-05 3.4621409868873521e-05 -0.99798045483901587 0.0017358198609340736 -3.1256426505357128e-05 -0.00029699627736046175 -3.1256426505357128e-05 -0.19935848131677192 -7.1080242441512453e-05 -0.00029699627736046175 -7.1080242441512453e-05 -0.99838048901349286 0.001655401870013673 0.00010198704761518734 -0.00021352912761397197 0.00010198704761518734 -0.19932679666844311 4.7988881490823587e-05 -0.00021352912761397197 4.7988881490823587e-05 -0.99846042208452879 0.0025017120601947829 -1.7765014203475005e-05 -0.00035395773407538925 -1.7765014203475005e-05 -0.19901896775790029 3.342358387214972e-05 -0.00035395773407538925 3.342358387214972e-05 -0.99765887929000874 0.0025082639048955579 -3.9574395660213364e-05 -0.00034781777222292129 -3.9574395660213364e-05 -0.19902191011952353 -1.7760559106738683e-05 -0.00034781777222292129 -1.7760559106738683e-05 -0.99762546234885363 0.0029635821981512933 -3.0118543586992762e-06 -0.00023641612064695394 -3.0118543586992762e-06 -0.19891412802807151 -7.4937701128430234e-05 -0.00023641612064695394 -7.4937701128430234e-05 -0.99767352346997384 0.0024784284020520353 0.00012241740062010812 -0.00018644650996540654 0.00012241740062010812 -0.19905040656549566 -5.7089888567229963e-05 -0.00018644650996540654 -5.7089888567229963e-05 -0.99772920546437227 0.0022496526984497889 -7.1466395560320294e-05 -0.00014900125532532962 -7.1466395560320294e-05 -0.19916096064837918 2.7169943010774134e-05 -0.00014900125532532962 2.7169943010774134e-05 -0.99801697821570601 0.0022409552314086589 -1.1952453016942315e-05 -0.00038208976404319195 -1.1952453016942315e-05 -0.1991533671633211 1.6159594671050215e-05 -0.00038208976404319195 1.6159594671050215e-05 -0.99799777914912768 0.0021193560723614668 -4.8857180331457847e-06 -0.00026569763641881572 -4.8857180331457847e-06 -0.19910051193975631 -7.2644419977230257e-06 -0.00026569763641881572 -7.2644419977230257e-06 -0.99767701499760575 0.0017784370864670218 7.2764954581506122e-05 -0.00013057808295602324 7.2764954581506122e-05 -0.19925004266932239 -2.0882943977507118e-05 -0.00013057808295602324 -2.0882943977507118e-05 -0.99804348722104019 0.00243867145836274 -5.4745600985125365e-05 -0.00024051656350319861 -5.4745600985125365e-05 -0.19903062292696727 -1.5586532277511722e-05 -0.00024051656350319861 -1.5586532277511722e-05 -0.99759664003954862 0.0024437282895597434 -2.1291399584525136e-05 -0.00016082799751007681 -2.1291399584525136e-05 -0.19904001594414189 -2.4878254822890966e-05 -0.00016082799751007681 -2.4878254822890966e-05 -0.99763317875848667 0.0018069167893303706 -9.6856542086406866e-06 -2.6655087665083954e-05 -9.6856542086406866e-06 -0.19925975285586223 1.3535673894532474e-05 -2.6655087665083954e-05 1.3535673894532474e-05 -0.99818729762112768 0.0015942156052184409 -2.1631076794557729e-05 -0.00016750331413828423 -2.1631076794557729e-05 -0.19938505624266711 -5.2297862423167363e-06 -0.00016750331413828423 -5.2297862423167363e-06 -0.99860211231700013 0.0019743405790353385 1.5587286265860188e-06 -0.00039039356942616177 1.5587286265860188e-06 -0.19923746894300942 -2.9081033884881258e-05 -0.00039039356942616177 -2.9081033884881258e-05 -0.99824048723048975 0.0016293009020285076 -2.1787583924765122e-05 -0.00021307026004891219 -2.1787583924765122e-05 -0.1993534290314678 -2.7853659314406448e-05 -0.00021307026004891219 -2.7853659314406448e-05 -0.9984736950788653 0.0016850331756763648 6.3783434332053703e-05 -0.00031350129680769029 6.3783434332053703e-05 -0.19931634278436627 -8.9217088584336857e-05 -0.00031350129680769029 -8.9217088584336857e-05 -0.99826629523210597 0.0024029253001649487 -9.0303847121274179e-06 -0.00031635097523688427 -9.0303847121274179e-06 -0.19904959353194762 1.704316843653686e-06 -0.00031635097523688427 1.704316843653686e-06 -0.99769181800423556 0.0019980981241352613 1.0889438680676559e-05 -9.5950456425963893e-05 1.0889438680676559e-05 -0.19919070198636413 -2.0372768328225099e-05 -9.5950456425963893e-05 -2.0372768328225099e-05 -0.99799033423949091 0.0021497666150738226 2.3212153159246916e-05 -0.00025517344190983948 2.3212153159246916e-05 -0.19909741235676448 2.4122811451032788e-05 -0.00025517344190983948 2.4122811451032788e-05 -0.99767874439047666 0.0019666218302309968 9.0859581756860694e-05 -0.00013483199601491136 9.0859581756860694e-05 -0.19916176568729038 -0.00019070660971176601 -0.00013483199601491136 -0.00019070660971176601 -0.9976934281236769 0.0019866981433479536 2.8776854288450707e-05 -0.00032922007235991479 2.8776854288450707e-05 -0.19928607089618633 2.1761728877467412e-05 -0.00032922007235991479 2.1761728877467412e-05 -0.99836026777794551 0.0018835353684046874 -2.7050666216891743e-05 -6.1293010498564282e-05 -2.7050666216891743e-05 -0.19925902737672641 2.3312787803764223e-05 -6.1293010498564282e-05 2.3312787803764223e-05 -0.99819051088976218 0.0018158108847637355 -5.7567354992021557e-05 -5.0663796026251262e-05 -5.7567354992021557e-05 -0.1992593890167868 9.6239077623794245e-06 -5.0663796026251262e-05 9.6239077623794245e-06 -0.9981899839562558 0.0022005593948210139 -2.176249785000489e-05 -0.00029568168178206733 -2.176249785000489e-05 -0.19909844671134336 9.4139717679020407e-06 -0.00029568168178206733 9.4139717679020407e-06 -0.9976962223783119 0.0019291303844108931 -6.3221991963205963e-05 1.7070475752611891e-05 -6.3221991963205963e-05 -0.19923505934071106 5.8071633263878653e-05 1.7070475752611891e-05 5.8071633263878653e-05 -0.9981309170143815 0.0020172747705240468 0.00013297219124539089 -0.00011454797356877378 0.00013297219124539089 -0.19922649673504433 7.0426459707118028e-05 -0.00011454797356877378 7.0426459707118028e-05 -0.99812715177350153 0.0016764538495288202 6.7601655726534152e-05 -0.00037250947517369556 6.7601655726534152e-05 -0.19933026638063864 -7.2354258309204056e-05 -0.00037250947517369556 -7.2354258309204056e-05 -0.99835698164632725 0.001994401388378142 -0.00022685321029310284 -0.00016644937248433411 -0.00022685321029310284 -0.19919228485841856 -6.918354662177606e-05 -0.00016644937248433411 -6.918354662177606e-05 -0.99815645040305201 0.0023458805100626534 -7.1352485746178624e-06 -6.4358090711591487e-05 -7.1352485746178624e-06 -0.19912831028973091 4.2790149645144382e-05 -6.4358090711591487e-05 4.2790149645144382e-05 -0.9980292983973108 0.0016923430190381207 -0.00012707485268626041 -0.00037833396090862503 -0.00012707485268626041 -0.19929809006683771 0.00010986508549581941 -0.00037833396090862503 0.00010986508549581941 -0.99833950574458574 0.0016620144049275254 -8.9546146400559603e-05 -0.00024302833814093816 -8.9546146400559603e-05 -0.19934403965828174 -3.5583944901662612e-05 -0.00024302833814093816 -3.5583944901662612e-05 -0.99843946796062699 0.0028925707953560975 2.3159618829469431e-05 -0.00043088921532814795 2.3159618829469431e-05 -0.19892062726420867 1.78660844163403e-05 -0.00043088921532814795 1.78660844163403e-05 -0.99755082741702195 0.0028993323506625313 7.1801775933594001e-05 -0.00041040754371701738 7.1801775933594001e-05 -0.19892897995313841 1.8592700913977467e-05 -0.00041040754371701738 1.8592700913977467e-05 -0.99754867493871213 0.0028740756226628417 -8.3871188979034878e-05 -0.00036561648877908581 -8.3871188979034878e-05 -0.19894622642761717 5.4328844351081429e-06 -0.00036561648877908581 5.4328844351081429e-06 -0.99753079082525486 0.0023811105666223797 -6.7700408971108393e-06 -0.00027414723382901407 -6.7700408971108393e-06 -0.19905398518214612 -2.4569985557665319e-05 -0.00027414723382901407 -2.4569985557665319e-05 -0.99767373458753061 0.0037125968539498677 -1.7014820241423682e-07 -5.2589208148212663e-05 -1.7014820241423682e-07 -0.19864859318434791 5.0911653468599383e-06 -5.2589208148212663e-05 5.0911653468599383e-06 -0.99695913527697755 0.0034762009894616641 -8.9213828465058553e-06 -0.00022864629408259063 -8.9213828465058553e-06 -0.19876329023581119 8.6109217477953193e-06 -0.00022864629408259063 8.6109217477953193e-06 -0.99740375152558292 0.0031406719728237498 -0.0001814823346080079 -0.00014112333181715009 -0.0001814823346080079 -0.19879393542367724 0.00010362110867645491 -0.00014112333181715009 0.00010362110867645491 -0.99723516320250138 0.0032236788517003845 -1.4936491451273901e-05 -4.5722245473722722e-05 -1.4936491451273901e-05 -0.19872946046137074 1.3387803193411207e-05 -4.5722245473722722e-05 1.3387803193411207e-05 -0.99698133312965798 0.0028004533860169212 1.1708720016597153e-05 -2.6280656433286254e-05 1.1708720016597153e-05 -0.19890651999687464 5.6862023094517156e-06 -2.6280656433286254e-05 5.6862023094517156e-06 -0.99739184095899591 0.003163423708102242 0.00011005705614118283 -0.00010053153296762929 0.00011005705614118283 -0.19875084850376332 6.3565753299243966e-05 -0.00010053153296762929 6.3565753299243966e-05 -0.99704378560813056 0.0034489298412966329 -3.1565515306561988e-05 -0.00020076594052920171 -3.1565515306561988e-05 -0.19882169243516212 6.298944156379882e-05 -0.00020076594052920171 6.298944156379882e-05 -0.9974102623429264 0.0035394589155403056 -2.8438176702713318e-05 -0.00032540681059889387 -2.8438176702713318e-05 -0.19869649732723582 -3.1433914339906721e-05 -0.00032540681059889387 -3.1433914339906721e-05 -0.99700102656634382 0.0032172576087170501 0.00014397957450568063 -0.0002195978044394753 0.00014397957450568063 -0.19879989784408125 -0.00011344999592011185 -0.0002195978044394753 -0.00011344999592011185 -0.99714524063434951 0.0037314659279344617 8.6450585734458892e-06 -7.0144349856082755e-05 8.6450585734458892e-06 -0.19864625257318194 -1.5663581329428133e-05 -7.0144349856082755e-05 -1.5663581329428133e-05 -0.99696679780403363 0.002792075550766604 -4.4006841742249936e-06 -0.00015546672464356037 -4.4006841742249936e-06 -0.1988536709716624 -7.7861764866682392e-06 -0.00015546672464356037 -7.7861764866682392e-06 -0.99705532026800903 0.0028974873754012559 -2.1690650379690232e-05 -0.00022353833512855914 -2.1690650379690232e-05 -0.19892395611023522 9.3985264364437882e-06 -0.00022353833512855914 9.3985264364437882e-06 -0.99752069698017287 0.0028606987400470185 -3.9857059066524371e-05 -0.00013760429398612661 -3.9857059066524371e-05 -0.19882803188925857 -1.1136569303404897e-05 -0.00013760429398612661 -1.1136569303404897e-05 -0.99703437850453724 0.0028266882461376319 4.3854285450447273e-05 -0.00019002876777590716 4.3854285450447273e-05 -0.19881994850257256 -1.299122297027111e-05 -0.00019002876777590716 -1.299122297027111e-05 -0.99704693510181941 0.0030409853794194225 4.4529512401519123e-05 -0.00024791331139317752 4.4529512401519123e-05 -0.19886252932141624 -1.1794100519768591e-05 -0.00024791331139317752 -1.1794100519768591e-05 -0.9974741195091319 0.0029664704475038661 2.5187053108963504e-05 -0.00017278127100428531 2.5187053108963504e-05 -0.19889313259070418 2.3790468512085994e-05 -0.00017278127100428531 2.3790468512085994e-05 -0.99747388384716129 0.0028529707860475151 1.6918120223098918e-05 -0.00017344204522051765 1.6918120223098918e-05 -0.19889630051357166 -3.1665989572576825e-05 -0.00017344204522051765 -3.1665989572576825e-05 -0.99733622140792777 0.0029480949101499121 1.257835077699041e-05 -0.00025156178861984735 1.257835077699041e-05 -0.19883409673204766 -1.0710270836877811e-05 -0.00025156178861984735 -1.0710270836877811e-05 -0.99710675277845917 0.0030194103599316957 -2.0106991241236397e-05 -0.00015701110962762499 -2.0106991241236397e-05 -0.19888806341929199 1.4083943900011775e-08 -0.00015701110962762499 1.4083943900011775e-08 -0.99745560411226153 0.003421650898948761 3.2189151622576141e-05 -0.00017480639127054332 3.2189151622576141e-05 -0.1987150549386788 -1.0765848408395007e-05 -0.00017480639127054332 -1.0765848408395007e-05 -0.99697823956211362 0.0028624544071575997 8.6317895259656736e-06 -0.00011783720672042808 8.6317895259656736e-06 -0.19883143508617185 -9.1816449457327032e-07 -0.00011783720672042808 -9.1816449457327032e-07 -0.99702375307346358 0.0030981764136986945 -2.2280979912476344e-05 -0.00022302541503327333 -2.2280979912476344e-05 -0.1988319098655903 1.8592684827845041e-05 -0.00022302541503327333 1.8592684827845041e-05 -0.99724073847474459 0.0028453848165258776 3.6970977153426343e-05 -0.00016603227870126691 3.6970977153426343e-05 -0.19887204548936074 2.9792671167760965e-05 -0.00016603227870126691 2.9792671167760965e-05 -0.99722792168999363 0.003231346467524876 -9.5450589441253063e-06 -0.00019923027265594806 -9.5450589441253063e-06 -0.19873854644117173 -1.5462209693728468e-06 -0.00019923027265594806 -1.5462209693728468e-06 -0.99691549890570208 0.0025932217866146967 -2.6440165057972984e-05 -0.00020829708212533049 -2.6440165057972984e-05 -0.19893113877479129 1.9861746358706966e-06 -0.00020829708212533049 1.9861746358706966e-06 -0.99729242639620574 0.002744710790717475 -1.5552142770016454e-05 -9.9798154798880212e-05 -1.5552142770016454e-05 -0.19893485360734076 -6.2326058958284136e-06 -9.9798154798880212e-05 -6.2326058958284136e-06 -0.99746082970881034 0.0030826025833288195 -1.2108494618335876e-05 -0.00027486362290130018 -1.2108494618335876e-05 -0.19887503354831493 -2.5864297334754482e-05 -0.00027486362290130018 -2.5864297334754482e-05 -0.99744672040963778 0.0033708685320389398 3.2317312573329655e-05 -3.6942695650354906e-05 3.2317312573329655e-05 -0.19870705019378665 4.0478887810113662e-05 -3.6942695650354906e-05 4.0478887810113662e-05 -0.99697972387942357 0.0031811184269523451 4.7743362828211323e-05 -0.00035606569952162381 4.7743362828211323e-05 -0.19882215397612457 2.4703838668038713e-05 -0.00035606569952162381 2.4703838668038713e-05 -0.9973832686055335 0.0030067529108961377 -6.6877963201953042e-05 -4.9349720192465307e-05 -6.6877963201953042e-05 -0.1988998496683223 -2.9408289458077164e-05 -4.9349720192465307e-05 -2.9408289458077164e-05 -0.99752316021638254 0.00341155417013983 -0.00045703783247241054 6.2038430738375894e-05 -0.00045703783247241054 -0.19877423020093166 -0.00018375357085176347 6.2038430738375894e-05 -0.00018375357085176347 -0.99688046098876537 0.003064578157903064 -4.4298605071540767e-06 3.0557466532687982e-06 -4.4298605071540767e-06 -0.19880845173706341 8.4164157777566473e-05 3.0557466532687982e-06 8.4164157777566473e-05 -0.99724683522588542 0.0035212634267982601 9.4997859729173268e-05 -0.00018039475689191065 9.4997859729173268e-05 -0.19867806911719232 1.6457114718093635e-05 -0.00018039475689191065 1.6457114718093635e-05 -0.99700612657578525 0.0034382972680579993 6.7163807141634664e-05 -0.00019575192428376853 6.7163807141634664e-05 -0.19879020626192534 -0.00012073744953711163 -0.00019575192428376853 -0.00012073744953711163 -0.99734682873910163 0.0034579651584272231 -1.7024112495695612e-05 -0.0001817326536415198 -1.7024112495695612e-05 -0.19876791483483958 -5.6821753919411577e-05 -0.0001817326536415198 -5.6821753919411577e-05 -0.99737935043143278 0.0038877013887663736 3.0783195561485557e-05 -0.00016223665557246747 3.0783195561485557e-05 -0.19861741554881385 -3.0636415660367788e-05 -0.00016223665557246747 -3.0636415660367788e-05 -0.99702453637494148 0.0035851841256866468 -1.025701365184942e-05 -0.00027950216940531014 -1.025701365184942e-05 -0.19860584607269605 -3.3622690547296941e-06 -0.00027950216940531014 -3.3622690547296941e-06 -0.99673195067274367 0.0036710679475633334 -4.0002264954678722e-05 -5.7498454609838934e-05 -4.0002264954678722e-05 -0.19863829403519873 1.6681205616375649e-05 -5.7498454609838934e-05 1.6681205616375649e-05 -0.99696957413682696 0.0037299245498216838 -2.1251556675192891e-05 -2.0267004574581193e-05 -2.1251556675192891e-05 -0.19859736085928004 8.6300465109268032e-05 -2.0267004574581193e-05 8.6300465109268032e-05 -0.99677229819711455 0.0042079963494101591 8.5694763421184948e-05 -0.00015590653031871682 8.5694763421184948e-05 -0.19845832803298569 4.1344912560581371e-05 -0.00015590653031871682 4.1344912560581371e-05 -0.99658502949593952 0.0041084729479299309 -1.021307547831078e-05 -0.00023648634134532109 -1.021307547831078e-05 -0.19853438744970497 -2.2695244261683456e-07 -0.00023648634134532109 -2.2695244261683456e-07 -0.99674174336378307 0.0041288356525942538 1.0847522228010564e-05 -0.0002433324803986503 1.0847522228010564e-05 -0.1984959338561022 -6.0456510257989038e-06 -0.0002433324803986503 -6.0456510257989038e-06 -0.99672917571199138 0.0037861429689389769 -3.2259568531134348e-06 -0.00016787284436814431 -3.2259568531134348e-06 -0.19853513304166848 1.1986060023845557e-05 -0.00016787284436814431 1.1986060023845557e-05 -0.99664518524101098 0.0037259272610774552 -6.1773640304708607e-05 -0.00014824950303338191 -6.1773640304708607e-05 -0.19857452998894942 2.2797010322817002e-05 -0.00014824950303338191 2.2797010322817002e-05 -0.99667093861592981 0.0044574160175454569 -3.6283436354853182e-06 7.150262868504953e-05 -3.6283436354853182e-06 -0.19842265281285432 2.1973701491262432e-05 7.150262868504953e-05 2.1973701491262432e-05 -0.9965293991117381 0.0038731763952246645 -1.5728664337834753e-05 5.3784251534905181e-05 -1.5728664337834753e-05 -0.19854099803478642 3.805883436247548e-05 5.3784251534905181e-05 3.805883436247548e-05 -0.99667962770582852 0.0037903625712527589 -8.1656751370487132e-07 -0.00016651087329666581 -8.1656751370487132e-07 -0.19853124468546945 2.4086649251575665e-05 -0.00016651087329666581 2.4086649251575665e-05 -0.99662820101376326 0.004174846098862206 0.00029824778615284195 -7.1237377537114455e-05 0.00029824778615284195 -0.19845501604291482 -8.9404689571637164e-06 -7.1237377537114455e-05 -8.9404689571637164e-06 -0.99656324152631104 0.004475608049990587 -2.66641630251336e-06 -0.00019350743565493822 -2.66641630251336e-06 -0.19838043092411461 2.2291402077323497e-05 -0.00019350743565493822 2.2291402077323497e-05 -0.99645990074368918 0.0041534450833912162 -0.0001180534210482337 -5.6740503594499003e-05 -0.0001180534210482337 -0.19847118687402021 4.3354825791652729e-05 -5.6740503594499003e-05 4.3354825791652729e-05 -0.99659341654822375 0.0044970272567244063 3.2711813895199845e-05 1.1222324800108652e-05 3.2711813895199845e-05 -0.19841936462412257 -3.4562307531516012e-05 1.1222324800108652e-05 -3.4562307531516012e-05 -0.99670719911142402 0.0038872810560997006 -1.4960637307360304e-06 -0.00010828538510221364 -1.4960637307360304e-06 -0.1985081780117246 -1.9686737493529449e-05 -0.00010828538510221364 -1.9686737493529449e-05 -0.99650038273431019 0.0038504453561793717 -1.1650459396036242e-06 -4.7150830284614642e-05 -1.1650459396036242e-06 -0.19853295743122959 3.1551984756017504e-05 -4.7150830284614642e-05 3.1551984756017504e-05 -0.99662162686641598 0.0035564177227602745 -3.6157860643199265e-06 -8.9293995848782615e-05 -3.6157860643199265e-06 -0.19861344619182142 -3.8322965216552873e-05 -8.9293995848782615e-05 -3.8322965216552873e-05 -0.99666756393198686 0.0037509943442539662 4.0197462967100734e-05 1.81400501784168e-05 4.0197462967100734e-05 -0.19856417792969361 -3.6438372752911619e-05 1.81400501784168e-05 -3.6438372752911619e-05 -0.99663479483375372 0.0035571830250757941 -6.4057413883049066e-07 -8.7074645986229271e-05 -6.4057413883049066e-07 -0.19861716196314816 -3.5455918449001089e-05 -8.7074645986229271e-05 -3.5455918449001089e-05 -0.99666021699468343 0.0036245579387892413 0.00019440757954297945 1.63289114671894e-05 0.00019440757954297945 -0.19872164067686382 0.00024881375357654889 1.63289114671894e-05 0.00024881375357654889 -0.99677347850962561 0.0035561790018964479 1.7747898039205875e-06 -8.7513452753595899e-05 1.7747898039205875e-06 -0.19862257819616122 -3.9058809755188051e-05 -8.7513452753595899e-05 -3.9058809755188051e-05 -0.99665960813158605 0.0033132095239531978 -1.6577502255202777e-05 -0.00013829407297638596 -1.6577502255202777e-05 -0.19872460050365692 -2.7050802899442061e-05 -0.00013829407297638596 -2.7050802899442061e-05 -0.99683150449491009 0.003154566286494298 -2.5910628261962593e-06 -0.00021134923502019731 -2.5910628261962593e-06 -0.19872691180523197 -1.6323356768044306e-05 -0.00021134923502019731 -1.6323356768044306e-05 -0.99691813698927245 0.0035573786386257078 -6.9686944989998869e-06 -2.5337536203373645e-05 -6.9686944989998869e-06 -0.19862996543777134 1.0167676475103526e-05 -2.5337536203373645e-05 1.0167676475103526e-05 -0.9967703049521428 0.0033498746533338064 2.8877866703489666e-05 -0.00013131343379613192 2.8877866703489666e-05 -0.19870251475031209 -3.7737457237119187e-05 -0.00013131343379613192 -3.7737457237119187e-05 -0.99698315765274304 0.0032077550407967337 9.5881904553959546e-06 -0.00021215978772548549 9.5881904553959546e-06 -0.1987306874006507 -2.0231745272103474e-05 -0.00021215978772548549 -2.0231745272103474e-05 -0.99686360634423909 0.0032561229101633511 8.3919846541322014e-06 -2.6287906706778941e-05 8.3919846541322014e-06 -0.1987149675279159 2.1182399297048349e-05 -2.6287906706778941e-05 2.1182399297048349e-05 -0.99682079210322017 0.0032739987705894258 -9.209240940165886e-07 -6.875060227162777e-05 -9.209240940165886e-07 -0.1987160743868811 -1.6043795442177711e-05 -6.875060227162777e-05 -1.6043795442177711e-05 -0.99681257117960387 0.0034032586569281431 -4.7034191623926231e-05 1.3445048351212741e-05 -4.7034191623926231e-05 -0.19868338940727293 -1.6390857434211981e-05 1.3445048351212741e-05 -1.6390857434211981e-05 -0.99677920709305923 0.0033137464805803249 7.4721845222731748e-05 -9.9876433425127864e-05 7.4721845222731748e-05 -0.19867227307891713 -1.9061890693228278e-05 -9.9876433425127864e-05 -1.9061890693228278e-05 -0.99671148028652212 0.0032531574410377129 -2.0022329803281912e-06 -0.00010596405021090494 -2.0022329803281912e-06 -0.19868021637679467 -3.197712075020398e-06 -0.00010596405021090494 -3.197712075020398e-06 -0.99671996021140608 0.0033446038966848946 -4.6806877235490492e-05 -0.00011994363352671455 -4.6806877235490492e-05 -0.19871461260441325 7.1360370202055989e-05 -0.00011994363352671455 7.1360370202055989e-05 -0.99693413002760822 0.0033394454854609457 -0.00017880419284528913 3.8522449542166548e-05 -0.00017880419284528913 -0.19859407134481488 -5.8236305749748141e-05 3.8522449542166548e-05 -5.8236305749748141e-05 -0.99658223906022947 0.0037822940099043745 -3.4543275717564346e-06 -0.00016789362403035746 -3.4543275717564346e-06 -0.19854967355377284 9.5393751902150825e-06 -0.00016789362403035746 9.5393751902150825e-06 -0.99664937414292432 0.0033246695228774659 -4.0813592031543497e-05 -7.0387815519046271e-05 -4.0813592031543497e-05 -0.19869493185574016 -6.3919938905643292e-05 -7.0387815519046271e-05 -6.3919938905643292e-05 -0.99690725420146964 0.0033671418981541246 0.0001485145095409275 -0.00014926306807344636 0.0001485145095409275 -0.19866939273710277 4.3196679759383017e-05 -0.00014926306807344636 4.3196679759383017e-05 -0.99671734979392679 0.0036406993612111416 4.9643652596484822e-06 -0.00011594479905863153 4.9643652596484822e-06 -0.19863540649274214 4.4204061619979029e-06 -0.00011594479905863153 4.4204061619979029e-06 -0.9968544585881669 0.0034939283880609517 -0.00015244779214680274 -0.00025916600798170375 -0.00015244779214680274 -0.19865812933169791 -5.7119036822150804e-05 -0.00025916600798170375 -5.7119036822150804e-05 -0.99679346045205586 0.0033013617056096289 -9.3707712988504854e-06 -8.6149074371710821e-05 -9.3707712988504854e-06 -0.19873713695456868 2.3861108681133558e-06 -8.6149074371710821e-05 2.3861108681133558e-06 -0.99703115908793838 0.0033082105255102245 -5.6064106649266252e-05 -2.7759877379573972e-05 -5.6064106649266252e-05 -0.19871778761002773 2.4700134140798191e-06 -2.7759877379573972e-05 2.4700134140798191e-06 -0.99689451395526851 0.0032406437834198165 -2.6202906115142626e-07 -0.00011203534203596544 -2.6202906115142626e-07 -0.19868576294809848 -8.4427928525032669e-06 -0.00011203534203596544 -8.4427928525032669e-06 -0.99677679368880323 0.0032473533735547511 -1.9402228524186689e-06 -0.00012077935776111381 -1.9402228524186689e-06 -0.19871151062818082 -1.8998230883693346e-05 -0.00012077935776111381 -1.8998230883693346e-05 -0.99678411829604885 0.0036904232066796716 7.3831383462125244e-06 -0.00015602644057888249 7.3831383462125244e-06 -0.19858914996793819 2.876697484366364e-05 -0.00015602644057888249 2.876697484366364e-05 -0.99665199963039264 0.0038738759056492489 -3.3222594310165373e-06 6.3242321648226962e-05 -3.3222594310165373e-06 -0.19855325840886762 1.1631508436291127e-05 6.3242321648226962e-05 1.1631508436291127e-05 -0.9966361370232244 0.0035715087858732009 -9.9475822355996005e-06 3.9917618448456066e-05 -9.9475822355996005e-06 -0.19858956988694199 -9.974097465392795e-06 3.9917618448456066e-05 -9.974097465392795e-06 -0.99652557168877021 0.003887286453061245 7.0517229897797235e-06 6.4783341983454257e-05 7.0517229897797235e-06 -0.1985609670875198 2.7811784033549003e-05 6.4783341983454257e-05 2.7811784033549003e-05 -0.99665900232906202 0.003705741090200998 4.8662404154542636e-06 -0.00016663528480442835 4.8662404154542636e-06 -0.19857857976913934 2.5083911221468469e-05 -0.00016663528480442835 2.5083911221468469e-05 -0.9965862785982369 0.0036903329781146077 5.2969320133849223e-06 -0.00017555749332065496 5.2969320133849223e-06 -0.19859117924478842 -2.6005961846209402e-06 -0.00017555749332065496 -2.6005961846209402e-06 -0.99665070917695076 0.004101091583001093 8.7768696831614021e-06 -0.00021534560891267596 8.7768696831614021e-06 -0.19853634345961413 -2.1744122042921532e-06 -0.00021534560891267596 -2.1744122042921532e-06 -0.99674121554143724 0.0037331300837653014 3.2816926198070176e-05 -0.00018721824591527714 3.2816926198070176e-05 -0.19858926970043633 1.2242140885243558e-05 -0.00018721824591527714 1.2242140885243558e-05 -0.99666578855503829 0.0037816274515805048 -1.6562096950498433e-06 -0.0001674862970122426 -1.6562096950498433e-06 -0.19855109931781745 6.3417029056989094e-06 -0.0001674862970122426 6.3417029056989094e-06 -0.99665175797871086 0.0041007792495852957 3.4782839226001763e-06 -0.00021949008606858555 3.4782839226001763e-06 -0.19851122880030603 -2.6635886310355517e-05 -0.00021949008606858555 -2.6635886310355517e-05 -0.99670316091921363 0.0038818697496763033 6.5039986816886078e-07 6.1529368812429652e-05 6.5039986816886078e-07 -0.19853413583514634 -5.4316954147676233e-06 6.1529368812429652e-05 -5.4316954147676233e-06 -0.99660187486863849 0.0040836239104622418 -5.9871137509572399e-07 -0.0002254504047196626 -5.9871137509572399e-07 -0.19853593394163505 -8.4079514959256585e-06 -0.0002254504047196626 -8.4079514959256585e-06 -0.996754289722241 0.0040924353883832199 -0.00021254697951952217 -2.8252980242893244e-05 -0.00021254697951952217 -0.19849074436739322 4.8534339945005556e-05 -2.8252980242893244e-05 4.8534339945005556e-05 -0.99658641010580329 0.0044475600902302848 8.7503464475994727e-06 -0.00013664419203074374 8.7503464475994727e-06 -0.19843267079477944 1.4630291812506302e-05 -0.00013664419203074374 1.4630291812506302e-05 -0.9966064927114795 0.0044716135396030143 6.1097265084301133e-06 -0.00016454858270908979 6.1097265084301133e-06 -0.19839971343167395 6.4577322960390759e-05 -0.00016454858270908979 6.4577322960390759e-05 -0.99651915261151869 0.0044431555691273328 1.3620929118965577e-05 -0.00013358340627167564 1.3620929118965577e-05 -0.19841955777418518 8.1291723352805434e-08 -0.00013358340627167564 8.1291723352805434e-08 -0.9965885151119207 0.0044290153636261653 5.202494590500504e-06 -0.00012732883854171817 5.202494590500504e-06 -0.19842813781076996 4.5356427182952075e-06 -0.00012732883854171817 4.5356427182952075e-06 -0.99659780940465303 0.0044196664028123278 1.2634916433249569e-05 -0.0001265170244940661 1.2634916433249569e-05 -0.19846353862758714 -6.1070742298774405e-06 -0.0001265170244940661 -6.1070742298774405e-06 -0.99660918283758848 0.0044595509426115232 -1.7137961068275712e-05 -0.00012344762710947421 -1.7137961068275712e-05 -0.19843703990253836 4.1630315847918098e-06 -0.00012344762710947421 4.1630315847918098e-06 -0.9966098551350937 0.003742899541794964 6.936145696304404e-05 7.0712670827144386e-05 6.936145696304404e-05 -0.19855671331409108 -2.1924558390756799e-05 7.0712670827144386e-05 -2.1924558390756799e-05 -0.99664243935510344 0.0037338327668798091 2.4897262031959809e-05 6.9842049850263321e-05 2.4897262031959809e-05 -0.19858057637623225 1.9146800670055697e-05 6.9842049850263321e-05 1.9146800670055697e-05 -0.99664341247397459 0.0037082248786428629 5.0486264011034776e-06 -0.00016553605591096421 5.0486264011034776e-06 -0.19859458444108746 -2.4305606079855213e-05 -0.00016553605591096421 -2.4305606079855213e-05 -0.99655785842228273 0.0038659602691779593 -3.3650671976656669e-05 6.062559950059665e-05 -3.3650671976656669e-05 -0.19857757941952336 -9.7321236437186709e-06 6.062559950059665e-05 -9.7321236437186709e-06 -0.9966139360324906 0.0045012881802183324 5.1822614979513865e-06 -0.00014570195778840223 5.1822614979513865e-06 -0.19843538675207972 -1.3091754036631542e-05 -0.00014570195778840223 -1.3091754036631542e-05 -0.99658119992886052 0.0040831666526821575 -3.0008195382841679e-05 -0.00024438250646152682 -3.0008195382841679e-05 -0.19853427644300636 1.580187820726664e-05 -0.00024438250646152682 1.580187820726664e-05 -0.99672234642933555 0.0038246610313761309 -2.1805732635711709e-05 3.689190786215768e-05 -2.1805732635711709e-05 -0.19856772693572944 1.2578194379841284e-05 3.689190786215768e-05 1.2578194379841284e-05 -0.99662992091765856 0.0040133140781400956 -1.3370963356141162e-05 -0.00015208322063209323 -1.3370963356141162e-05 -0.19860122393399715 -7.4516337236207875e-06 -0.00015208322063209323 -7.4516337236207875e-06 -0.99691225667413219 0.0041152011774476804 -8.1404331858613914e-06 -0.00024535823146809577 -8.1404331858613914e-06 -0.19849694894078207 1.2902055709668181e-05 -0.00024535823146809577 1.2902055709668181e-05 -0.99671003530925484 0.0027568256119739343 -1.2483532033387736e-05 -3.031848225187872e-05 -1.2483532033387736e-05 -0.19890838859677606 3.779326115616044e-06 -3.031848225187872e-05 3.779326115616044e-06 -0.99740879348408606 0.0032124443815543247 -0.00010472759452672317 -8.579988123313953e-05 -0.00010472759452672317 -0.19876020553575136 -6.0734201937640009e-05 -8.579988123313953e-05 -6.0734201937640009e-05 -0.99707561044579451 0.0034922252148873456 1.7013206750233878e-05 -0.00032845990072738473 1.7013206750233878e-05 -0.19873149648016575 3.5166156465982201e-06 -0.00032845990072738473 3.5166156465982201e-06 -0.99702890995374771 0.0030790320994670273 0.00016930897767964627 -0.00015175500191166869 0.00016930897767964627 -0.1988022594024893 -0.000111660305950112 -0.00015175500191166869 -0.000111660305950112 -0.99724645406194545 0.0032467246415292528 -0.00011154949869497136 -0.00023684575110183292 -0.00011154949869497136 -0.19879883045666696 8.1866500296068345e-05 -0.00023684575110183292 8.1866500296068345e-05 -0.99714822350803867 0.0039200368721122036 4.8618580690286987e-05 -0.00013958988653639537 4.8618580690286987e-05 -0.19859882136111098 -5.7012098449327198e-05 -0.00013958988653639537 -5.7012098449327198e-05 -0.99690315558964226 0.0034107194482033698 3.2549234347257104e-05 -0.00018684330220475331 3.2549234347257104e-05 -0.19883334540213871 -6.1621507158271527e-05 -0.00018684330220475331 -6.1621507158271527e-05 -0.99745817964112238 0.0030678184686679377 -5.1443459738502932e-05 -0.00023717221257668619 -5.1443459738502932e-05 -0.19886974039818323 -1.2795530337506023e-06 -0.00023717221257668619 -1.2795530337506023e-06 -0.99747311723376009 0.0028690519207675291 2.9377896030689594e-05 -0.00013032161813442134 2.9377896030689594e-05 -0.19881699808212994 1.2889794905990293e-05 -0.00013032161813442134 1.2889794905990293e-05 -0.99700907677129824 0.0029490179317469556 -2.2107136937091766e-05 -0.00019446555118030062 -2.2107136937091766e-05 -0.19888749582592224 -1.7956836904753359e-05 -0.00019446555118030062 -1.7956836904753359e-05 -0.99747679416351609 0.002798395327051284 -1.7387076897255115e-06 -0.00014689023376099342 -1.7387076897255115e-06 -0.19883665164888875 1.506590619404502e-05 -0.00014689023376099342 1.506590619404502e-05 -0.99702267623343621 0.0028782559410893138 1.1858715047966813e-05 -0.00023981786498039614 1.1858715047966813e-05 -0.19891911659096356 -5.9888547704334272e-06 -0.00023981786498039614 -5.9888547704334272e-06 -0.99751938636885318 0.0028038847683519164 -5.7636295596720409e-05 -0.00019649135852493893 -5.7636295596720409e-05 -0.19883851093302063 2.2862139263946091e-06 -0.00019649135852493893 2.2862139263946091e-06 -0.99705236867118829 0.0032979827357000335 2.1098009686874492e-05 -2.7771914137497689e-05 2.1098009686874492e-05 -0.1987101576951455 6.8503111089968094e-05 -2.7771914137497689e-05 6.8503111089968094e-05 -0.99688520955051918 0.0032632754693801766 -1.2267230529395039e-05 -0.00010782904987516329 -1.2267230529395039e-05 -0.19870049377908541 3.5529927153721275e-06 -0.00010782904987516329 3.5529927153721275e-06 -0.99682707855632435 0.0032725610493902213 8.0321521436654101e-05 8.4463792462963205e-06 8.0321521436654101e-05 -0.19874089588599109 -1.8237134096654728e-05 8.4463792462963205e-06 -1.8237134096654728e-05 -0.99708237739580952 0.0033877941035148629 4.625288920633094e-05 -8.785757925422466e-05 4.625288920633094e-05 -0.19866554795936853 3.0799631815014994e-05 -8.785757925422466e-05 3.0799631815014994e-05 -0.99677876973190171 0.0033258440766915642 -2.9382789436357658e-06 -7.3987714197892851e-05 -2.9382789436357658e-06 -0.1987298428247799 -6.9523842286534077e-06 -7.3987714197892851e-05 -6.9523842286534077e-06 -0.99703600606772191 0.0036395598787375416 5.0511931518313775e-06 -0.00011428619073106105 5.0511931518313775e-06 -0.19863710322319217 -2.7293548159335046e-06 -0.00011428619073106105 -2.7293548159335046e-06 -0.99685840129197612 0.0033665081377064476 3.2807594309069709e-05 -0.00010369742952087702 3.2807594309069709e-05 -0.19869224666835905 -6.8442498003584706e-05 -0.00010369742952087702 -6.8442498003584706e-05 -0.99693950119870545 0.0034764680833203904 9.9894519643905477e-05 -0.00019052037685387407 9.9894519643905477e-05 -0.1986339262989428 1.2874791044170664e-05 -0.00019052037685387407 1.2874791044170664e-05 -0.99665349947669923 0.0034785584214265253 -2.4672333841003876e-06 -0.00019216361997953513 -2.4672333841003876e-06 -0.1986028532412456 -6.4789786382579706e-06 -0.00019216361997953513 -6.4789786382579706e-06 -0.99664742336800405 0.0032386375598174588 -3.1439936286748126e-06 -0.00013139632720193806 -3.1439936286748126e-06 -0.1987026043781136 3.0029650510354777e-05 -0.00013139632720193806 3.0029650510354777e-05 -0.99683669713711742 0.0037015170619771887 -1.2917838525044161e-07 -0.00015490278525653878 -1.2917838525044161e-07 -0.1985857332957619 -3.1476944389985384e-05 -0.00015490278525653878 -3.1476944389985384e-05 -0.99660011593357423 0.0032770288260699498 -3.4451463733218884e-07 -0.00010844581698299383 -3.4451463733218884e-07 -0.19869057636528031 3.639032481350668e-06 -0.00010844581698299383 3.639032481350668e-06 -0.9968223860363703 0.0034702286071933292 -1.3106452864338665e-05 -5.8371800938372687e-05 -1.3106452864338665e-05 -0.19866241989929195 -4.4770584587294771e-05 -5.8371800938372687e-05 -4.4770584587294771e-05 -0.99675914868905591 0.003421050652686497 -1.2197536092360349e-05 -0.00010050983990376322 -1.2197536092360349e-05 -0.19870886029788604 -4.6555111390147313e-05 -0.00010050983990376322 -4.6555111390147313e-05 -0.99694326144314616 0.0033435586178099754 -7.0163558952008578e-05 -0.00011230554680885518 -7.0163558952008578e-05 -0.19868565969252719 2.0220557085615098e-05 -0.00011230554680885518 2.0220557085615098e-05 -0.9967251941287204 0.003301017762816336 -8.8414967573444408e-07 -0.00010113751657214731 -8.8414967573444408e-07 -0.19866337048627425 -2.0850008211059645e-05 -0.00010113751657214731 -2.0850008211059645e-05 -0.99672966562436871 0.0035136526603219975 1.2479962452136297e-06 -0.00010573566059135509 1.2479962452136297e-06 -0.19864453688421402 3.1871093068014389e-05 -0.00010573566059135509 3.1871093068014389e-05 -0.99666741159508954 0.0035112139621990002 3.3738549179372503e-06 -0.00010287918000329022 3.3738549179372503e-06 -0.19864143770173115 3.0813293237730299e-05 -0.00010287918000329022 3.0813293237730299e-05 -0.9966827102252287 0.0033966678393402699 3.9580321463062126e-05 -1.1536702429149059e-05 3.9580321463062126e-05 -0.19869233954836124 4.4206188407613922e-06 -1.1536702429149059e-05 4.4206188407613922e-06 -0.99684335274706704 0.0031393273300230895 5.7005364597264986e-06 -0.00015188523280484922 5.7005364597264986e-06 -0.19874649409974332 1.3091449461932747e-05 -0.00015188523280484922 1.3091449461932747e-05 -0.99685951947661655 0.0032758931492637283 -7.4466027311586694e-06 -2.9319212727973998e-05 -7.4466027311586694e-06 -0.19872099064668064 -1.9665351509323692e-05 -2.9319212727973998e-05 -1.9665351509323692e-05 -0.99686613671211721 0.003225703882822506 1.2227584069668491e-05 -0.00010928622441519487 1.2227584069668491e-05 -0.19874353391315358 2.4799386447837968e-05 -0.00010928622441519487 2.4799386447837968e-05 -0.99694551556550426 0.0028801507045016495 -1.1952858716605354e-05 -0.00010957466676908556 -1.1952858716605354e-05 -0.19882066694164202 -1.4033124334345004e-05 -0.00010957466676908556 -1.4033124334345004e-05 -0.99697491729551801 0.0028398825590487675 -1.8157354829106756e-05 -0.00016027722731570826 -1.8157354829106756e-05 -0.19887131679881831 2.4852604713410109e-05 -0.00016027722731570826 2.4852604713410109e-05 -0.99720259547436552 0.0031032449750602042 2.9331244940782379e-06 -0.00028482325596090874 2.9331244940782379e-06 -0.19882520566616357 -1.5200671051707193e-05 -0.00028482325596090874 -1.5200671051707193e-05 -0.99721934508756371 0.0031925853216706601 2.2187148626502896e-05 -0.00016608833398579215 2.2187148626502896e-05 -0.19874900977391652 -8.2732735023349768e-06 -0.00016608833398579215 -8.2732735023349768e-06 -0.99692883726071146 0.0025602648474198908 6.6098812693424536e-05 -0.0001998100398938607 6.6098812693424536e-05 -0.1990049082448444 9.5454026627361799e-06 -0.0001998100398938607 9.5454026627361799e-06 -0.99757095328491419 0.003162809030880509 1.6992392655467964e-05 -0.00024414379286152865 1.6992392655467964e-05 -0.19878995181456605 2.4285942515023251e-05 -0.00024414379286152865 2.4285942515023251e-05 -0.99711599981174137 0.0029687936048087282 -4.9483193600678207e-06 -0.00018443563286352216 -4.9483193600678207e-06 -0.19890052098448474 -4.271551820311803e-07 -0.00018443563286352216 -4.271551820311803e-07 -0.99747090127028315 0.0025558927932651798 1.4582837226721311e-05 -0.00028789199425980141 1.4582837226721311e-05 -0.19900768505847721 4.1930789629329723e-06 -0.00028789199425980141 4.1930789629329723e-06 -0.99761493826707248 0.0027201006919469473 9.2778578992043175e-06 -8.2623129496806058e-05 9.2778578992043175e-06 -0.19891567002245025 -1.6830995455463515e-05 -8.2623129496806058e-05 -1.6830995455463515e-05 -0.99732083019199491 0.0025603862520134912 3.2721647802725918e-05 -0.00013140233748409891 3.2721647802725918e-05 -0.19900777793570301 1.1251482947116642e-05 -0.00013140233748409891 1.1251482947116642e-05 -0.99754816382240064 0.0039675203460554642 5.7606110303418563e-05 -9.6012206457996019e-05 5.7606110303418563e-05 -0.19858035368458476 9.0222357098657113e-06 -9.6012206457996019e-05 9.0222357098657113e-06 -0.99690645140072776 0.0030305536411736195 6.6381987501162669e-05 -0.00015489931934764556 6.6381987501162669e-05 -0.19881207510614346 1.3202504931295045e-05 -0.00015489931934764556 1.3202504931295045e-05 -0.99713551064611017 0.0031282550533754394 4.1087894967364461e-05 -0.00015703255483546369 4.1087894967364461e-05 -0.19881353527621404 4.3768894681273096e-05 -0.00015703255483546369 4.3768894681273096e-05 -0.99717615762859113 0.0030915116486146532 4.8751169236592252e-06 -0.00032867292396820957 4.8751169236592252e-06 -0.19885033766370352 2.2550276453481288e-05 -0.00032867292396820957 2.2550276453481288e-05 -0.99729229113991602 0.0034191044199810561 -4.9541351913556203e-05 -0.00010629436551878868 -4.9541351913556203e-05 -0.19874809876484423 -7.1849720834515907e-05 -0.00010629436551878868 -7.1849720834515907e-05 -0.99730224794604316 0.0031583030241771892 -0.00010570345810395015 5.8835608860441369e-06 -0.00010570345810395015 -0.19876212375382296 9.2045277293451022e-06 5.8835608860441369e-06 9.2045277293451022e-06 -0.99710659423017312 0.003404653482315223 6.4359237032043839e-05 -0.00020721873200577057 6.4359237032043839e-05 -0.19882022481770301 1.2996008112997615e-05 -0.00020721873200577057 1.2996008112997615e-05 -0.9974837681623856 0.0034000072352069477 1.4192761045102609e-06 -0.00021589342442274173 1.4192761045102609e-06 -0.19878948388368578 8.0120048135512434e-05 -0.00021589342442274173 8.0120048135512434e-05 -0.99743715159067792 0.0039042855654629616 1.8690108026471542e-05 -0.00015049531559396812 1.8690108026471542e-05 -0.19857921923009281 1.3548825104514606e-05 -0.00015049531559396812 1.3548825104514606e-05 -0.99693265235520201 0.0034834450522478466 -1.2241528963932811e-06 -0.0001885079987766769 -1.2241528963932811e-06 -0.19860294149899449 -1.0280766677750464e-05 -0.0001885079987766769 -1.0280766677750464e-05 -0.99662298333691268 0.0040170316328912437 -1.1642895068031834e-05 -0.00012915175598737783 -1.1642895068031834e-05 -0.19857062685536586 2.8862446978639156e-05 -0.00012915175598737783 2.8862446978639156e-05 -0.99687447986494115 0.003731104372555194 -5.3431437033916012e-05 -7.1184605201501938e-06 -5.3431437033916012e-05 -0.1985720187594433 -1.9358223273480135e-05 -7.1184605201501938e-06 -1.9358223273480135e-05 -0.99668143958821265 0.003668288288314725 1.8982178073852954e-05 -8.5563470064456415e-05 1.8982178073852954e-05 -0.19862468790645199 3.2400340396310234e-05 -8.5563470064456415e-05 3.2400340396310234e-05 -0.99681545417433282 0.0040479227569628629 -1.4844189222068831e-06 -2.0094707864792838e-05 -1.4844189222068831e-06 -0.19851677879210505 -5.0744509359046397e-05 -2.0094707864792838e-05 -5.0744509359046397e-05 -0.99673784152524281 0.0036106387860528888 -4.4695038067741645e-05 -0.00022586658646872593 -4.4695038067741645e-05 -0.19864386026364883 2.8165384155398598e-05 -0.00022586658646872593 2.8165384155398598e-05 -0.99683536061857025 0.0038694453320329281 6.8370724620939135e-07 8.3984055802677204e-05 6.8370724620939135e-07 -0.1985497678533511 -8.540205512386212e-06 8.3984055802677204e-05 -8.540205512386212e-06 -0.99662288211038286 0.0038654120237257006 2.3151080735181479e-06 8.830205447246664e-05 2.3151080735181479e-06 -0.19855280171036516 -1.941925164344882e-05 8.830205447246664e-05 -1.941925164344882e-05 -0.99663331972659308 0.0036126618988741033 -0.00010286182665963388 -0.00020138805551017658 -0.00010286182665963388 -0.19859620701537217 -6.0490367008725343e-06 -0.00020138805551017658 -6.0490367008725343e-06 -0.99659456897791276 0.004499171660427459 -5.8969125948382238e-06 -0.00012465828762908693 -5.8969125948382238e-06 -0.19840030288155863 -3.6995672032080762e-05 -0.00012465828762908693 -3.6995672032080762e-05 -0.99662692047150792 0.0045586439852405292 -4.4519587280660787e-05 -0.00011932953458637652 -4.4519587280660787e-05 -0.19841257137911095 -1.5228221569518752e-05 -0.00011932953458637652 -1.5228221569518752e-05 -0.99663354175530117 0.0037320840740837635 9.3531676079806813e-05 2.2442203900907565e-05 9.3531676079806813e-05 -0.19859801105855235 2.0273027482531347e-05 2.2442203900907565e-05 2.0273027482531347e-05 -0.99666006416255648 0.0038985628805749961 6.0694114464478374e-07 -0.00013311746634958599 6.0694114464478374e-07 -0.19852969549374011 5.153955286085754e-05 -0.00013311746634958599 5.153955286085754e-05 -0.99651055657807319 0.0046144089954225365 1.9027694779680781e-06 -0.00014853796173541767 1.9027694779680781e-06 -0.19837765489765014 -5.284449803855118e-05 -0.00014853796173541767 -5.284449803855118e-05 -0.99658422324330687 0.0039019484721878328 2.4063920294489352e-06 -0.00013431633493410366 2.4063920294489352e-06 -0.19852270780450687 4.5420127419593115e-05 -0.00013431633493410366 4.5420127419593115e-05 -0.99650060672168905 0.0044754340006194493 5.4572176732185464e-05 3.5794321591176015e-06 5.4572176732185464e-05 -0.19840546936833414 2.2628965215876207e-05 3.5794321591176015e-06 2.2628965215876207e-05 -0.9966017857307552 0.0042532800061643172 0.0001520415292370439 -4.8707556969729282e-05 0.0001520415292370439 -0.19845561276770018 -1.1089343200376689e-05 -4.8707556969729282e-05 -1.1089343200376689e-05 -0.99656156440336785 
</DataArray>
</CellData>
</Piece>
</UnstructuredGrid>
</VTKFile>
