<?xml version="1.0"?>
<VTKFile type="UnstructuredGrid" version="0.1" byte_order="LittleEndian">
<UnstructuredGrid>
<Piece NumberOfPoints="2876" NumberOfCells="719">
<Points>
<DataArray type="Float64" NumberOfComponents="3" format="ascii">
0.31610726166346748 0.18804489794572149 0 0.16929708765618309 0.30074819035915368 0 0.14641016151452901 0.14641016151487049 0 0.312576188949791 0.31458070521983672 0.3125761889497819 0 0.20000000000083221 0 0 0 0 0.14641016151452901 0.14641016151487049 0 0 0.14641016151432179 0.14641016151432179 0 0 0 0.19999999999955789 0 0 0.14641016151452901 0.14641016151487049 0 0.1464101615145241 0 0.14641016151486561 0 0.14641016151432179 0.14641016151432179 0 0 0.20000000000083221 0 0 0 0.1464101615145241 0 0.14641016151486561 0 0.14641016151432179 0.14641016151432179 0 0.30074819035869899 0.1692970876565193 0 0.18804489794560331 0.31610726166461361 0.312576188949791 0.31458070521983672 0.3125761889497819 0.31578456131778371 0 0.1865278143482666 0.1464101615145241 0 0.14641016151486561 0.16938214347656569 0 0.30011357660650623 0.312576188949791 0.31458070521983672 0.3125761889497819 0 0.14641016151432179 0.14641016151432179 0 0 0 0.14641016151452901 0.14641016151487049 0 0.1464101615145241 0 0.14641016151486561 0.14641016151452901 0.14641016151487049 0 0.1464101615145241 0 0.14641016151486561 0.31578456131778371 0 0.1865278143482666 0.312576188949791 0.31458070521983672 0.3125761889497819 0.14641016151452901 0.14641016151487049 0 0 0.30074819035869899 0.1692970876565193 0 0.14641016151432179 0.14641016151432179 0.312576188949791 0.31458070521983672 0.3125761889497819 0.14641016151452901 0.14641016151487049 0 0 0.14641016151432179 0.14641016151432179 0.1464101615145241 0 0.14641016151486561 0.312576188949791 0.31458070521983672 0.3125761889497819 0 0.14641016151432179 0.14641016151432179 0.16938214347656569 0 0.30011357660650623 0.1464101615145241 0 0.14641016151486561 0.312576188949791 0.31458070521983672 0.3125761889497819 0.1464101615145241 0 0.14641016151486561 0 0.14641016151432179 0.14641016151432179 0 0 0.20000000000083221 0.16938214347656569 0 0.30011357660650623 0 0.18804489794560331 0.31610726166461361 0 0 0.20000000000083221 0 0.14641016151432179 0.14641016151432179 0.16938214347656569 0 0.30011357660650623 0 0.14641016151432179 0.14641016151432179 0.14641016151452901 0.14641016151487049 0 0 0.20000000000083221 0 0 0.30074819035869899 0.1692970876565193 0 0.30074819035869899 0.1692970876565193 0.14641016151452901 0.14641016151487049 0 0 0.20000000000083221 0 0.16929708765618309 0.30074819035915368 0 0.19999999999955789 0 0 0.14641016151452901 0.14641016151487049 0 0.31578456131778371 0 0.1865278143482666 0.31610726166346748 0.18804489794572149 0 0.19999999999955789 0 0 0.14641016151452901 0.14641016151487049 0 0.1464101615145241 0 0.14641016151486561 0.31578456131778371 0 0.1865278143482666 0.31578456131778371 0 0.1865278143482666 0.3999999999989749 0 0 0.19999999999955789 0 0 0.31610726166346748 0.18804489794572149 0 0.31578456131778371 0 0.1865278143482666 0.31610726166346748 0.18804489794572149 0 0.14641016151452901 0.14641016151487049 0 0.312576188949791 0.31458070521983672 0.3125761889497819 0.31610726166346748 0.18804489794572149 0 0.312576188949791 0.31458070521983672 0.3125761889497819 0.31578456131778371 0 0.1865278143482666 0.5003997205654479 0.21136633249797621 0.2258422409314382 0.31610726166346748 0.18804489794572149 0 0.49391845158624981 0 0.1323760430705655 0.50966790549376417 0.16275515618023731 0 0.5003997205654479 0.21136633249797621 0.2258422409314382 0.31610726166346748 0.18804489794572149 0 0.50966790549376417 0.16275515618023731 0 0.45812322962036273 0.31024977578535839 0 0.5003997205654479 0.21136633249797621 0.2258422409314382 0.49391845158624981 0 0.1323760430705655 0.3999999999989749 0 0 0.31610726166346748 0.18804489794572149 0 0.50966790549376417 0.16275515618023731 0 0.49391845158624981 0 0.1323760430705655 0.3999999999989749 0 0 0.31578456131778371 0 0.1865278143482666 0.31610726166346748 0.18804489794572149 0 0.31578456131778371 0 0.1865278143482666 0.47688326899416439 0 0.31741132792405607 0.49391845158624981 0 0.1323760430705655 0.5003997205654479 0.21136633249797621 0.2258422409314382 0.31610726166346748 0.18804489794572149 0 0.31578456131778371 0 0.1865278143482666 0.49391845158624981 0 0.1323760430705655 0.5003997205654479 0.21136633249797621 0.2258422409314382 0.31030302876556398 0 0.54179813558513157 0.50073570207385831 0.24848280280289631 0.52886631355986169 0.32146143392436449 0 0.38738071487621961 0.22088738526309029 0.22111069116742441 0.50004796911802929 0.32146143392436449 0 0.38738071487621961 0.312576188949791 0.31458070521983672 0.3125761889497819 0.16938214347656569 0 0.30011357660650623 0.22088738526309029 0.22111069116742441 0.50004796911802929 0.32146143392436449 0 0.38738071487621961 0.50073570207385831 0.24848280280289631 0.52886631355986169 0.312576188949791 0.31458070521983672 0.3125761889497819 0.22088738526309029 0.22111069116742441 0.50004796911802929 0.32146143392436449 0 0.38738071487621961 0.50073570207385831 0.24848280280289631 0.52886631355986169 0.47688326899416439 0 0.31741132792405607 0.5003997205654479 0.21136633249797621 0.2258422409314382 0.32146143392436449 0 0.38738071487621961 0.312576188949791 0.31458070521983672 0.3125761889497819 0.50073570207385831 0.24848280280289631 0.52886631355986169 0.5003997205654479 0.21136633249797621 0.2258422409314382 0.32146143392436449 0 0.38738071487621961 0.31578456131778371 0 0.1865278143482666 0.16938214347656569 0 0.30011357660650623 0.312576188949791 0.31458070521983672 0.3125761889497819 0.31578456131778371 0 0.1865278143482666 0.312576188949791 0.31458070521983672 0.3125761889497819 0.32146143392436449 0 0.38738071487621961 0.5003997205654479 0.21136633249797621 0.2258422409314382 0.31578456131778371 0 0.1865278143482666 0.32146143392436449 0 0.38738071487621961 0.47688326899416439 0 0.31741132792405607 0.5003997205654479 0.21136633249797621 0.2258422409314382 0.31030302876556398 0 0.54179813558513157 0.50000000000250922 0 0.48038475773043671 0.32146143392436449 0 0.38738071487621961 0.50073570207385831 0.24848280280289631 0.52886631355986169 0.32146143392436449 0 0.38738071487621961 0.50000000000250922 0 0.48038475773043671 0.47688326899416439 0 0.31741132792405607 0.50073570207385831 0.24848280280289631 0.52886631355986169 0.16370661204827031 0 0.4886650857430957 0.31030302876556398 0 0.54179813558513157 0.32146143392436449 0 0.38738071487621961 0.22088738526309029 0.22111069116742441 0.50004796911802929 0.16370661204827031 0 0.4886650857430957 0.32146143392436449 0 0.38738071487621961 0.16938214347656569 0 0.30011357660650623 0.22088738526309029 0.22111069116742441 0.50004796911802929 0.16938214347656569 0 0.30011357660650623 0 0.14641016151432179 0.14641016151432179 0 0.18804489794560331 0.31610726166461361 0.312576188949791 0.31458070521983672 0.3125761889497819 0 0.18804489794560331 0.31610726166461361 0.16370661204827031 0 0.4886650857430957 0.16938214347656569 0 0.30011357660650623 0.22088738526309029 0.22111069116742441 0.50004796911802929 0 0.18804489794560331 0.31610726166461361 0.16938214347656569 0 0.30011357660650623 0.312576188949791 0.31458070521983672 0.3125761889497819 0.22088738526309029 0.22111069116742441 0.50004796911802929 0 0 0.40000000000166441 0 0 0.60000000000138687 0.16370661204827031 0 0.4886650857430957 0 0.16275515618034081 0.50966790549591257 0 0 0.40000000000166441 0 0.18804489794560331 0.31610726166461361 0.16370661204827031 0 0.4886650857430957 0.16938214347656569 0 0.30011357660650623 0.16370661204827031 0 0.4886650857430957 0 0.18804489794560331 0.31610726166461361 0 0 0.40000000000166441 0 0.16275515618034081 0.50966790549591257 0 0.18804489794560331 0.31610726166461361 0 0 0.40000000000166441 0 0 0.20000000000083221 0.16938214347656569 0 0.30011357660650623 0 0.18804489794560331 0.31610726166461361 0 0.16275515618034081 0.50966790549591257 0.16370661204827031 0 0.4886650857430957 0.22088738526309029 0.22111069116742441 0.50004796911802929 0 0.18804489794560331 0.31610726166461361 0 0.31024977578556651 0.45812322962166352 0 0.16275515618034081 0.50966790549591257 0.22088738526309029 0.22111069116742441 0.50004796911802929 0 0.30074819035869899 0.1692970876565193 0 0.39615100178029522 0.32925244736138171 0 0.18804489794560331 0.31610726166461361 0.312576188949791 0.31458070521983672 0.3125761889497819 0 0.31024977578556651 0.45812322962166352 0.312576188949791 0.31458070521983672 0.3125761889497819 0.24769234054476261 0.52242103280823293 0.45098450226372488 0.22088738526309029 0.22111069116742441 0.50004796911802929 0 0.18804489794560331 0.31610726166461361 0 0.39615100178029522 0.32925244736138171 0 0.31024977578556651 0.45812322962166352 0.312576188949791 0.31458070521983672 0.3125761889497819 0 0.39615100178029522 0.32925244736138171 0.24769234054476261 0.52242103280823293 0.45098450226372488 0.312576188949791 0.31458070521983672 0.3125761889497819 0.22345881830598399 0.5062398304147856 0.22345881830602041 0 0.31024977578556651 0.45812322962166352 0.312576188949791 0.31458070521983672 0.3125761889497819 0 0.39615100178029522 0.32925244736138171 0.24769234054476261 0.52242103280823293 0.45098450226372488 0 0.30074819035869899 0.1692970876565193 0 0.39615100178029522 0.32925244736138171 0.312576188949791 0.31458070521983672 0.3125761889497819 0.22345881830598399 0.5062398304147856 0.22345881830602041 0 0.18804489794560331 0.31610726166461361 0.312576188949791 0.31458070521983672 0.3125761889497819 0 0.31024977578556651 0.45812322962166352 0.22088738526309029 0.22111069116742441 0.50004796911802929 0 0.31024977578556651 0.45812322962166352 0 0.39615100178029522 0.32925244736138171 0 0.50000000000237477 0.51961524226909872 0.24769234054476261 0.52242103280823293 0.45098450226372488 0.50000000000001332 0.49999999999999561 0.49999999999999561 0.50073570207385831 0.24848280280289631 0.52886631355986169 0.312576188949791 0.31458070521983672 0.3125761889497819 0.5004045312576143 0.47050700646456922 0.24963111222780321 0.24769234054476261 0.52242103280823293 0.45098450226372488 0.5004045312576143 0.47050700646456922 0.24963111222780321 0.312576188949791 0.31458070521983672 0.3125761889497819 0.22345881830598399 0.5062398304147856 0.22345881830602041 0.312576188949791 0.31458070521983672 0.3125761889497819 0.5004045312576143 0.47050700646456922 0.24963111222780321 0.50073570207385831 0.24848280280289631 0.52886631355986169 0.5003997205654479 0.21136633249797621 0.2258422409314382 0.50000000000001332 0.49999999999999561 0.49999999999999561 0.24769234054476261 0.52242103280823293 0.45098450226372488 0.312576188949791 0.31458070521983672 0.3125761889497819 0.50073570207385831 0.24848280280289631 0.52886631355986169 0.312576188949791 0.31458070521983672 0.3125761889497819 0.24769234054476261 0.52242103280823293 0.45098450226372488 0.50000000000001332 0.49999999999999561 0.49999999999999561 0.5004045312576143 0.47050700646456922 0.24963111222780321 0.312576188949791 0.31458070521983672 0.3125761889497819 0.50073570207385831 0.24848280280289631 0.52886631355986169 0.24769234054476261 0.52242103280823293 0.45098450226372488 0.22088738526309029 0.22111069116742441 0.50004796911802929 0.32925244736090059 0.39615100178043078 0 0.312576188949791 0.31458070521983672 0.3125761889497819 0.45812322962036273 0.31024977578535839 0 0.5004045312576143 0.47050700646456922 0.24963111222780321 0.32925244736090059 0.39615100178043078 0 0.5004045312576143 0.47050700646456922 0.24963111222780321 0.32446581821364329 0.60020898676454815 0 0.22345881830598399 0.5062398304147856 0.22345881830602041 0.45812322962036273 0.31024977578535839 0 0.5004045312576143 0.47050700646456922 0.24963111222780321 0.312576188949791 0.31458070521983672 0.3125761889497819 0.5003997205654479 0.21136633249797621 0.2258422409314382 0.45812322962036273 0.31024977578535839 0 0.32925244736090059 0.39615100178043078 0 0.31610726166346748 0.18804489794572149 0 0.312576188949791 0.31458070521983672 0.3125761889497819 0.16929708765618309 0.30074819035915368 0 0.312576188949791 0.31458070521983672 0.3125761889497819 0.32925244736090059 0.39615100178043078 0 0.22345881830598399 0.5062398304147856 0.22345881830602041 0.31610726166346748 0.18804489794572149 0 0.45812322962036273 0.31024977578535839 0 0.312576188949791 0.31458070521983672 0.3125761889497819 0.5003997205654479 0.21136633249797621 0.2258422409314382 0.32925244736090059 0.39615100178043078 0 0.312576188949791 0.31458070521983672 0.3125761889497819 0.5004045312576143 0.47050700646456922 0.24963111222780321 0.22345881830598399 0.5062398304147856 0.22345881830602041 0.32925244736090059 0.39615100178043078 0 0.16929708765618309 0.30074819035915368 0 0.31610726166346748 0.18804489794572149 0 0.312576188949791 0.31458070521983672 0.3125761889497819 0.32446581821364329 0.60020898676454815 0 0.32925244736090059 0.39615100178043078 0 0.51961524226956368 0.5000000000025091 0 0.5004045312576143 0.47050700646456922 0.24963111222780321 0.51961524226956368 0.5000000000025091 0 0.32925244736090059 0.39615100178043078 0 0.45812322962036273 0.31024977578535839 0 0.5004045312576143 0.47050700646456922 0.24963111222780321 0 0.30074819035869899 0.1692970876565193 0.14641016151452901 0.14641016151487049 0 0.16929708765618309 0.30074819035915368 0 0.312576188949791 0.31458070521983672 0.3125761889497819 0 0.30074819035869899 0.1692970876565193 0.312576188949791 0.31458070521983672 0.3125761889497819 0.16929708765618309 0.30074819035915368 0 0.22345881830598399 0.5062398304147856 0.22345881830602041 0.17226134197279269 0.49836539647922029 0 0 0.49836539647891548 0.17226134197271731 0.16929708765618309 0.30074819035915368 0 0.22345881830598399 0.5062398304147856 0.22345881830602041 0.17226134197279269 0.49836539647922029 0 0.16929708765618309 0.30074819035915368 0 0.32925244736090059 0.39615100178043078 0 0.22345881830598399 0.5062398304147856 0.22345881830602041 0 0.30074819035869899 0.1692970876565193 0 0.20000000000083221 0 0 0.40000000000166441 0 0.16929708765618309 0.30074819035915368 0 0 0.30074819035869899 0.1692970876565193 0 0.40000000000166441 0 0 0.49836539647891548 0.17226134197271731 0.16929708765618309 0.30074819035915368 0 0 0.30074819035869899 0.1692970876565193 0.16929708765618309 0.30074819035915368 0 0 0.49836539647891548 0.17226134197271731 0.22345881830598399 0.5062398304147856 0.22345881830602041 0 0.30074819035869899 0.1692970876565193 0 0.49836539647891548 0.17226134197271731 0 0.39615100178029522 0.32925244736138171 0.22345881830598399 0.5062398304147856 0.22345881830602041 0 0.49836539647891548 0.17226134197271731 0 0.40000000000166441 0 0 0.60000000000138687 0 0.17226134197279269 0.49836539647922029 0 0.16929708765618309 0.30074819035915368 0 0 0.40000000000166441 0 0 0.49836539647891548 0.17226134197271731 0.17226134197279269 0.49836539647922029 0 0 0.69449451837103049 0.15896804272139439 0 0.60020898676435996 0.32446581821286191 0.22345881830598399 0.5062398304147856 0.22345881830602041 0.19259015428765269 0.77719169076434647 0.19259015428773721 0.1589680427220837 0.69449451837091269 0 0 0.69449451837103049 0.15896804272139439 0.22345881830598399 0.5062398304147856 0.22345881830602041 0.19259015428765269 0.77719169076434647 0.19259015428773721 0 0.69449451837103049 0.15896804272139439 0.17226134197279269 0.49836539647922029 0 0 0.60000000000138687 0 0.1589680427220837 0.69449451837091269 0 0.32446581821364329 0.60020898676454815 0 0.1589680427220837 0.69449451837091269 0 0.22345881830598399 0.5062398304147856 0.22345881830602041 0.19259015428765269 0.77719169076434647 0.19259015428773721 0 0.60000000000138687 0 0 0.49836539647891548 0.17226134197271731 0.17226134197279269 0.49836539647922029 0 0 0.69449451837103049 0.15896804272139439 0 0.69449451837103049 0.15896804272139439 0 0.60000000000138687 0 0 0.79999999999999982 0 0.1589680427220837 0.69449451837091269 0 0.31067093463127438 0.81480288849489035 0 0.1589680427220837 0.69449451837091269 0 0.32446581821364329 0.60020898676454815 0 0.19259015428765269 0.77719169076434647 0.19259015428773721 0.32446581821364329 0.60020898676454815 0 0.1589680427220837 0.69449451837091269 0 0.17226134197279269 0.49836539647922029 0 0.22345881830598399 0.5062398304147856 0.22345881830602041 0.1589680427220837 0.69449451837091269 0 0 0.69449451837103049 0.15896804272139439 0.17226134197279269 0.49836539647922029 0 0.22345881830598399 0.5062398304147856 0.22345881830602041 0 0.69449451837103049 0.15896804272139439 0 0.81480288849496429 0.31067093462946233 0 0.60020898676435996 0.32446581821286191 0.19259015428765269 0.77719169076434647 0.19259015428773721 0 0.49836539647891548 0.17226134197271731 0 0.69449451837103049 0.15896804272139439 0 0.60020898676435996 0.32446581821286191 0.22345881830598399 0.5062398304147856 0.22345881830602041 0 0.49836539647891548 0.17226134197271731 0.17226134197279269 0.49836539647922029 0 0 0.69449451837103049 0.15896804272139439 0.22345881830598399 0.5062398304147856 0.22345881830602041 0 0.60020898676435996 0.32446581821286191 0.22516916914780419 0.77057994845201627 0.48187244075707292 0.35848654557803328 0.70013656506632282 0.30029870175293161 0.19259015428765269 0.77719169076434647 0.19259015428773721 0 0.60020898676435996 0.32446581821286191 0.24769234054476261 0.52242103280823293 0.45098450226372488 0 0.39615100178029522 0.32925244736138171 0.22345881830598399 0.5062398304147856 0.22345881830602041 0 0.60020898676435996 0.32446581821286191 0 0.81480288849496429 0.31067093462946233 0.22516916914780419 0.77057994845201627 0.48187244075707292 0.19259015428765269 0.77719169076434647 0.19259015428773721 0.35848654557803328 0.70013656506632282 0.30029870175293161 0.22345881830598399 0.5062398304147856 0.22345881830602041 0 0.60020898676435996 0.32446581821286191 0.19259015428765269 0.77719169076434647 0.19259015428773721 0 0.49836539647891548 0.17226134197271731 0 0.60020898676435996 0.32446581821286191 0 0.39615100178029522 0.32925244736138171 0.22345881830598399 0.5062398304147856 0.22345881830602041 0 0.60020898676435996 0.32446581821286191 0.24769234054476261 0.52242103280823293 0.45098450226372488 0.35848654557803328 0.70013656506632282 0.30029870175293161 0.22516916914780419 0.77057994845201627 0.48187244075707292 0.35848654557803328 0.70013656506632282 0.30029870175293161 0.24769234054476261 0.52242103280823293 0.45098450226372488 0 0.60020898676435996 0.32446581821286191 0.22345881830598399 0.5062398304147856 0.22345881830602041 0 0.39615100178029522 0.32925244736138171 0 0.60020898676435996 0.32446581821286191 0 0.50000000000237477 0.51961524226909872 0.24769234054476261 0.52242103280823293 0.45098450226372488 0 0.68801781652248195 0.45664527743358641 0 0.50000000000237477 0.51961524226909872 0 0.60020898676435996 0.32446581821286191 0.24769234054476261 0.52242103280823293 0.45098450226372488 0 0.66416205381430016 0.59944234540882957 0.24769234054476261 0.52242103280823293 0.45098450226372488 0 0.68801781652248195 0.45664527743358641 0.22516916914780419 0.77057994845201627 0.48187244075707292 0 0.60020898676435996 0.32446581821286191 0 0.81480288849496429 0.31067093462946233 0 0.68801781652248195 0.45664527743358641 0.22516916914780419 0.77057994845201627 0.48187244075707292 0 0.68801781652248195 0.45664527743358641 0.24769234054476261 0.52242103280823293 0.45098450226372488 0 0.60020898676435996 0.32446581821286191 0.22516916914780419 0.77057994845201627 0.48187244075707292 0.16929708765615539 1 0.30074819035677097 0.32926555316115258 1 0.39615987727515128 0.22516916914780419 0.77057994845201627 0.48187244075707292 0.19259015428765269 0.77719169076434647 0.19259015428773721 0 0.81480288849496429 0.31067093462946233 0.16929708765615539 1 0.30074819035677097 0.22516916914780419 0.77057994845201627 0.48187244075707292 0.19259015428765269 0.77719169076434647 0.19259015428773721 0.17226134197293 1 0.49836539647645101 0 0.83630110503664845 0.50803330197135654 0 0.81480288849496429 0.31067093462946233 0.22516916914780419 0.77057994845201627 0.48187244075707292 0 0.68801781652248195 0.45664527743358641 0 0.81480288849496429 0.31067093462946233 0 0.83630110503664845 0.50803330197135654 0.22516916914780419 0.77057994845201627 0.48187244075707292 0.17226134197293 1 0.49836539647645101 0 1 0.3999999999989749 0 0.81480288849496429 0.31067093462946233 0 0.83630110503664845 0.50803330197135654 0 0.81480288849496429 0.31067093462946233 0.16929708765615539 1 0.30074819035677097 0 1 0.3999999999989749 0.17226134197293 1 0.49836539647645101 0.17226134197293 1 0.49836539647645101 0 0.81480288849496429 0.31067093462946233 0.16929708765615539 1 0.30074819035677097 0.22516916914780419 0.77057994845201627 0.48187244075707292 0.17226134197293 1 0.49836539647645101 0.16929708765615539 1 0.30074819035677097 0.32926555316115258 1 0.39615987727515128 0.22516916914780419 0.77057994845201627 0.48187244075707292 0 1 0.3999999999989749 0 1 0.19999999999955789 0.16929708765615539 1 0.30074819035677097 0 0.81480288849496429 0.31067093462946233 0.16929708765615539 1 0.30074819035677097 0 1 0.19999999999955789 0 0.85358983848655678 0.14641016151332509 0 0.81480288849496429 0.31067093462946233 0.14641016151352521 1 0.1464101615131837 0 1 0.19999999999955789 0 0.85358983848655678 0.14641016151332509 0.16929708765615539 1 0.30074819035677097 0.20000000000083221 1 0 0 1 0 0.14641016151479211 0.85358983848543113 0 0.14641016151352521 1 0.1464101615131837 0 0.85358983848655678 0.14641016151332509 0 1 0 0 1 0.19999999999955789 0.14641016151352521 1 0.1464101615131837 0 0.85358983848655678 0.14641016151332509 0.14641016151479211 0.85358983848543113 0 0 1 0 0.14641016151352521 1 0.1464101615131837 0.14641016151479211 0.85358983848543113 0 0 1 0 0 0.79999999999999982 0 0 0.85358983848655678 0.14641016151332509 0 0.85358983848655678 0.14641016151332509 0 0.69449451837103049 0.15896804272139439 0.1589680427220837 0.69449451837091269 0 0.19259015428765269 0.77719169076434647 0.19259015428773721 0 0.79999999999999982 0 0.1589680427220837 0.69449451837091269 0 0.14641016151479211 0.85358983848543113 0 0 0.85358983848655678 0.14641016151332509 0.14641016151352521 1 0.1464101615131837 0 0.85358983848655678 0.14641016151332509 0.14641016151479211 0.85358983848543113 0 0.19259015428765269 0.77719169076434647 0.19259015428773721 0.1589680427220837 0.69449451837091269 0 0 0.79999999999999982 0 0 0.69449451837103049 0.15896804272139439 0 0.85358983848655678 0.14641016151332509 0.1589680427220837 0.69449451837091269 0 0.14641016151479211 0.85358983848543113 0 0 0.85358983848655678 0.14641016151332509 0.19259015428765269 0.77719169076434647 0.19259015428773721 0.16929708765615539 1 0.30074819035677097 0 0.81480288849496429 0.31067093462946233 0 0.85358983848655678 0.14641016151332509 0.19259015428765269 0.77719169076434647 0.19259015428773721 0 0.85358983848655678 0.14641016151332509 0 0.81480288849496429 0.31067093462946233 0 0.69449451837103049 0.15896804272139439 0.19259015428765269 0.77719169076434647 0.19259015428773721 0.14641016151352521 1 0.1464101615131837 0.14641016151479211 0.85358983848543113 0 0.31067093463127438 0.81480288849489035 0 0.19259015428765269 0.77719169076434647 0.19259015428773721 0.1589680427220837 0.69449451837091269 0 0.31067093463127438 0.81480288849489035 0 0.14641016151479211 0.85358983848543113 0 0.19259015428765269 0.77719169076434647 0.19259015428773721 0.14641016151479211 0.85358983848543113 0 0.31067093463127438 0.81480288849489035 0 0.20000000000083221 1 0 0.14641016151352521 1 0.1464101615131837 0.31635851157303152 1 0.18818969570840721 0.20000000000083221 1 0 0.31067093463127438 0.81480288849489035 0 0.14641016151352521 1 0.1464101615131837 0.31067093463127438 0.81480288849489035 0 0.31635851157303152 1 0.18818969570840721 0.14641016151352521 1 0.1464101615131837 0.19259015428765269 0.77719169076434647 0.19259015428773721 0.31635851157303152 1 0.18818969570840721 0.16929708765615539 1 0.30074819035677097 0.14641016151352521 1 0.1464101615131837 0.19259015428765269 0.77719169076434647 0.19259015428773721 0.14641016151352521 1 0.1464101615131837 0.16929708765615539 1 0.30074819035677097 0 0.85358983848655678 0.14641016151332509 0.19259015428765269 0.77719169076434647 0.19259015428773721 0.35848654557803328 0.70013656506632282 0.30029870175293161 0.19259015428765269 0.77719169076434647 0.19259015428773721 0.31635851157303152 1 0.18818969570840721 0.52894546611500048 0.79133000140429866 0.2082794184507949 0.31067093463127438 0.81480288849489035 0 0.19259015428765269 0.77719169076434647 0.19259015428773721 0.35848654557803328 0.70013656506632282 0.30029870175293161 0.52894546611500048 0.79133000140429866 0.2082794184507949 0.31067093463127438 0.81480288849489035 0 0.31635851157303152 1 0.18818969570840721 0.19259015428765269 0.77719169076434647 0.19259015428773721 0.52894546611500048 0.79133000140429866 0.2082794184507949 0.31067093463127438 0.81480288849489035 0 0.40000000000166441 1 0 0.20000000000083221 1 0 0.31635851157303152 1 0.18818969570840721 0.31067093463127438 0.81480288849489035 0 0.50803330197353713 0.83630110503668265 0 0.31635851157303152 1 0.18818969570840721 0.52894546611500048 0.79133000140429866 0.2082794184507949 0.45664527743509797 0.68801781652245086 0 0.50803330197353713 0.83630110503668265 0 0.31067093463127438 0.81480288849489035 0 0.52894546611500048 0.79133000140429866 0.2082794184507949 0.51133491425992716 1 0.16370661204795281 0.31635851157303152 1 0.18818969570840721 0.40000000000166441 1 0 0.50803330197353713 0.83630110503668265 0 0.31635851157303152 1 0.18818969570840721 0.31067093463127438 0.81480288849489035 0 0.40000000000166441 1 0 0.50803330197353713 0.83630110503668265 0 0.51133491425992716 1 0.16370661204795281 0.45820186441796368 1 0.31030302876579191 0.31635851157303152 1 0.18818969570840721 0.52894546611500048 0.79133000140429866 0.2082794184507949 0.51133491425992716 1 0.16370661204795281 0.31635851157303152 1 0.18818969570840721 0.50803330197353713 0.83630110503668265 0 0.52894546611500048 0.79133000140429866 0.2082794184507949 0.32926555316115258 1 0.39615987727515128 0.35848654557803328 0.70013656506632282 0.30029870175293161 0.49983993748706529 0.75039103705932653 0.52967335724801234 0.22516916914780419 0.77057994845201627 0.48187244075707292 0.35848654557803328 0.70013656506632282 0.30029870175293161 0.22516916914780419 0.77057994845201627 0.48187244075707292 0.32926555316115258 1 0.39615987727515128 0.19259015428765269 0.77719169076434647 0.19259015428773721 0.31635851157303152 1 0.18818969570840721 0.45820186441796368 1 0.31030302876579191 0.32926555316115258 1 0.39615987727515128 0.35848654557803328 0.70013656506632282 0.30029870175293161 0.45820186441796368 1 0.31030302876579191 0.35848654557803328 0.70013656506632282 0.30029870175293161 0.31635851157303152 1 0.18818969570840721 0.52894546611500048 0.79133000140429866 0.2082794184507949 0.31635851157303152 1 0.18818969570840721 0.35848654557803328 0.70013656506632282 0.30029870175293161 0.32926555316115258 1 0.39615987727515128 0.19259015428765269 0.77719169076434647 0.19259015428773721 0.45820186441796368 1 0.31030302876579191 0.49983993748706529 0.75039103705932653 0.52967335724801234 0.35848654557803328 0.70013656506632282 0.30029870175293161 0.52894546611500048 0.79133000140429866 0.2082794184507949 0.45820186441796368 1 0.31030302876579191 0.32926555316115258 1 0.39615987727515128 0.35848654557803328 0.70013656506632282 0.30029870175293161 0.49983993748706529 0.75039103705932653 0.52967335724801234 0.31635851157303152 1 0.18818969570840721 0.32926555316115258 1 0.39615987727515128 0.16929708765615539 1 0.30074819035677097 0.19259015428765269 0.77719169076434647 0.19259015428773721 0.32926555316115258 1 0.39615987727515128 0.32448110831226962 1 0.6002015905153204 0.17226134197293 1 0.49836539647645101 0.22516916914780419 0.77057994845201627 0.48187244075707292 0.45820186441796368 1 0.31030302876579191 0.51961524227008238 1 0.49999999999872219 0.32926555316115258 1 0.39615987727515128 0.49983993748706529 0.75039103705932653 0.52967335724801234 0.24769234054476261 0.52242103280823293 0.45098450226372488 0.49983993748706529 0.75039103705932653 0.52967335724801234 0.35848654557803328 0.70013656506632282 0.30029870175293161 0.22516916914780419 0.77057994845201627 0.48187244075707292 0.35848654557803328 0.70013656506632282 0.30029870175293161 0.50000000000001332 0.49999999999999561 0.49999999999999561 0.24769234054476261 0.52242103280823293 0.45098450226372488 0.5004045312576143 0.47050700646456922 0.24963111222780321 0.35848654557803328 0.70013656506632282 0.30029870175293161 0.24769234054476261 0.52242103280823293 0.45098450226372488 0.50000000000001332 0.49999999999999561 0.49999999999999561 0.49983993748706529 0.75039103705932653 0.52967335724801234 0.35848654557803328 0.70013656506632282 0.30029870175293161 0.5004045312576143 0.47050700646456922 0.24963111222780321 0.24769234054476261 0.52242103280823293 0.45098450226372488 0.22345881830598399 0.5062398304147856 0.22345881830602041 0.35848654557803328 0.70013656506632282 0.30029870175293161 0.32446581821364329 0.60020898676454815 0 0.5004045312576143 0.47050700646456922 0.24963111222780321 0.22345881830598399 0.5062398304147856 0.22345881830602041 0.31067093463127438 0.81480288849489035 0 0.32446581821364329 0.60020898676454815 0 0.45664527743509797 0.68801781652245086 0 0.35848654557803328 0.70013656506632282 0.30029870175293161 0.32446581821364329 0.60020898676454815 0 0.22345881830598399 0.5062398304147856 0.22345881830602041 0.35848654557803328 0.70013656506632282 0.30029870175293161 0.19259015428765269 0.77719169076434647 0.19259015428773721 0.32446581821364329 0.60020898676454815 0 0.45664527743509797 0.68801781652245086 0 0.35848654557803328 0.70013656506632282 0.30029870175293161 0.5004045312576143 0.47050700646456922 0.24963111222780321 0.31067093463127438 0.81480288849489035 0 0.32446581821364329 0.60020898676454815 0 0.35848654557803328 0.70013656506632282 0.30029870175293161 0.19259015428765269 0.77719169076434647 0.19259015428773721 0.45664527743509797 0.68801781652245086 0 0.31067093463127438 0.81480288849489035 0 0.35848654557803328 0.70013656506632282 0.30029870175293161 0.52894546611500048 0.79133000140429866 0.2082794184507949 0.35848654557803328 0.70013656506632282 0.30029870175293161 0.5004045312576143 0.47050700646456922 0.24963111222780321 0.45664527743509797 0.68801781652245086 0 0.52894546611500048 0.79133000140429866 0.2082794184507949 0.17226134197279269 0.49836539647922029 0 0.32925244736090059 0.39615100178043078 0 0.32446581821364329 0.60020898676454815 0 0.22345881830598399 0.5062398304147856 0.22345881830602041 0.32446581821364329 0.60020898676454815 0 0.51961524226956368 0.5000000000025091 0 0.45664527743509797 0.68801781652245086 0 0.5004045312576143 0.47050700646456922 0.24963111222780321 0.72722573386132172 0.60922248848163563 0 0.68456408135056701 0.68607101396845627 0.31096060989957619 0.59944234541082553 0.66416205381394655 0 0.77713227489941183 0.50036915849493024 0.21774643624003751 0.68456408135056701 0.68607101396845627 0.31096060989957619 0.5004045312576143 0.47050700646456922 0.24963111222780321 0.59944234541082553 0.66416205381394655 0 0.77713227489941183 0.50036915849493024 0.21774643624003751 0.59944234541082553 0.66416205381394655 0 0.45664527743509797 0.68801781652245086 0 0.5004045312576143 0.47050700646456922 0.24963111222780321 0.52894546611500048 0.79133000140429866 0.2082794184507949 0.51961524226956368 0.5000000000025091 0 0.67320508075660079 0.46954769941202479 0 0.59944234541082553 0.66416205381394655 0 0.5004045312576143 0.47050700646456922 0.24963111222780321 0.59944234541082553 0.66416205381394655 0 0.5004045312576143 0.47050700646456922 0.24963111222780321 0.68456408135056701 0.68607101396845627 0.31096060989957619 0.52894546611500048 0.79133000140429866 0.2082794184507949 0.59944234541082553 0.66416205381394655 0 0.5004045312576143 0.47050700646456922 0.24963111222780321 0.67320508075660079 0.46954769941202479 0 0.77713227489941183 0.50036915849493024 0.21774643624003751 0.59944234541082553 0.66416205381394655 0 0.52894546611500048 0.79133000140429866 0.2082794184507949 0.68456408135056701 0.68607101396845627 0.31096060989957619 0.81582077266975173 0.77657922508894406 0.18483084990574741 0.59944234541082553 0.66416205381394655 0 0.45664527743509797 0.68801781652245086 0 0.51961524226956368 0.5000000000025091 0 0.5004045312576143 0.47050700646456922 0.24963111222780321 0.59944234541082553 0.66416205381394655 0 0.68456408135056701 0.68607101396845627 0.31096060989957619 0.72722573386132172 0.60922248848163563 0 0.81582077266975173 0.77657922508894406 0.18483084990574741 0.45664527743509797 0.68801781652245086 0 0.59944234541082553 0.66416205381394655 0 0.50803330197353713 0.83630110503668265 0 0.52894546611500048 0.79133000140429866 0.2082794184507949 0.59944234541082553 0.66416205381394655 0 0.72722573386132172 0.60922248848163563 0 0.7054234997318658 0.80860557108880304 0 0.81582077266975173 0.77657922508894406 0.18483084990574741 0.72722573386132172 0.60922248848163563 0 0.59944234541082553 0.66416205381394655 0 0.67320508075660079 0.46954769941202479 0 0.77713227489941183 0.50036915849493024 0.21774643624003751 0.68456408135056701 0.68607101396845627 0.31096060989957619 0.5004045312576143 0.47050700646456922 0.24963111222780321 0.35848654557803328 0.70013656506632282 0.30029870175293161 0.52894546611500048 0.79133000140429866 0.2082794184507949 0.68456408135056701 0.68607101396845627 0.31096060989957619 0.35848654557803328 0.70013656506632282 0.30029870175293161 0.50000000000001332 0.49999999999999561 0.49999999999999561 0.49983993748706529 0.75039103705932653 0.52967335724801234 0.50000000000001332 0.49999999999999561 0.49999999999999561 0.35848654557803328 0.70013656506632282 0.30029870175293161 0.68456408135056701 0.68607101396845627 0.31096060989957619 0.5004045312576143 0.47050700646456922 0.24963111222780321 0.50000000000001332 0.49999999999999561 0.49999999999999561 0.68456408135056701 0.68607101396845627 0.31096060989957619 0.7504488434426726 0.53051757989633308 0.49836643074154852 0.5004045312576143 0.47050700646456922 0.24963111222780321 0.68456408135056701 0.68607101396845627 0.31096060989957619 0.49983993748706529 0.75039103705932653 0.52967335724801234 0.7504488434426726 0.53051757989633308 0.49836643074154852 0.77374673111774417 0.78860835645735528 0.49829081152968557 0.7504488434426726 0.53051757989633308 0.49836643074154852 0.5004045312576143 0.47050700646456922 0.24963111222780321 0.68456408135056701 0.68607101396845627 0.31096060989957619 0.77713227489941183 0.50036915849493024 0.21774643624003751 0.35848654557803328 0.70013656506632282 0.30029870175293161 0.49983993748706529 0.75039103705932653 0.52967335724801234 0.68456408135056701 0.68607101396845627 0.31096060989957619 0.52894546611500048 0.79133000140429866 0.2082794184507949 0.50000000000001332 0.49999999999999561 0.49999999999999561 0.7504488434426726 0.53051757989633308 0.49836643074154852 0.68456408135056701 0.68607101396845627 0.31096060989957619 0.49983993748706529 0.75039103705932653 0.52967335724801234 0.68456408135056701 0.68607101396845627 0.31096060989957619 0.52894546611500048 0.79133000140429866 0.2082794184507949 0.61068558124908323 1 0.33127740899601937 0.81582077266975173 0.77657922508894406 0.18483084990574741 0.61068558124908323 1 0.33127740899601937 0.49983993748706529 0.75039103705932653 0.52967335724801234 0.68456408135056701 0.68607101396845627 0.31096060989957619 0.77374673111774417 0.78860835645735528 0.49829081152968557 0.61068558124908323 1 0.33127740899601937 0.68240285647621723 1 0.52310058211166854 0.49983993748706529 0.75039103705932653 0.52967335724801234 0.77374673111774417 0.78860835645735528 0.49829081152968557 0.82751535738810444 1 0.31407731390515509 0.68456408135056701 0.68607101396845627 0.31096060989957619 0.61068558124908323 1 0.33127740899601937 0.81582077266975173 0.77657922508894406 0.18483084990574741 0.45820186441796368 1 0.31030302876579191 0.61068558124908323 1 0.33127740899601937 0.49983993748706529 0.75039103705932653 0.52967335724801234 0.52894546611500048 0.79133000140429866 0.2082794184507949 0.61068558124908323 1 0.33127740899601937 0.68456408135056701 0.68607101396845627 0.31096060989957619 0.82751535738810444 1 0.31407731390515509 0.77374673111774417 0.78860835645735528 0.49829081152968557 0.68456408135056701 0.68607101396845627 0.31096060989957619 0.49983993748706529 0.75039103705932653 0.52967335724801234 0.61068558124908323 1 0.33127740899601937 0.52894546611500048 0.79133000140429866 0.2082794184507949 0.61068558124908323 1 0.33127740899601937 0.68240285647621723 1 0.52310058211166854 0.51961524227008238 1 0.49999999999872219 0.49983993748706529 0.75039103705932653 0.52967335724801234 0.51961524227008238 1 0.49999999999872219 0.45820186441796368 1 0.31030302876579191 0.61068558124908323 1 0.33127740899601937 0.49983993748706529 0.75039103705932653 0.52967335724801234 0.68240285647621723 1 0.52310058211166854 0.61068558124908323 1 0.33127740899601937 0.82751535738810444 1 0.31407731390515509 0.77374673111774417 0.78860835645735528 0.49829081152968557 0.51133491425992716 1 0.16370661204795281 0.61068558124908323 1 0.33127740899601937 0.45820186441796368 1 0.31030302876579191 0.52894546611500048 0.79133000140429866 0.2082794184507949 0.51133491425992716 1 0.16370661204795281 0.69988642339594154 1 0.16938214347578889 0.61068558124908323 1 0.33127740899601937 0.52894546611500048 0.79133000140429866 0.2082794184507949 0.69988642339594154 1 0.16938214347578889 0.61068558124908323 1 0.33127740899601937 0.52894546611500048 0.79133000140429866 0.2082794184507949 0.81582077266975173 0.77657922508894406 0.18483084990574741 0.69988642339594154 1 0.16938214347578889 0.52894546611500048 0.79133000140429866 0.2082794184507949 0.7054234997318658 0.80860557108880304 0 0.81582077266975173 0.77657922508894406 0.18483084990574741 0.69988642339594154 1 0.16938214347578889 0.51133491425992716 1 0.16370661204795281 0.50803330197353713 0.83630110503668265 0 0.52894546611500048 0.79133000140429866 0.2082794184507949 0.59944234541082553 0.66416205381394655 0 0.7054234997318658 0.80860557108880304 0 0.52894546611500048 0.79133000140429866 0.2082794184507949 0.81582077266975173 0.77657922508894406 0.18483084990574741 0.60000000000138687 1 0 0.69988642339594154 1 0.16938214347578889 0.51133491425992716 1 0.16370661204795281 0.50803330197353713 0.83630110503668265 0 0.51133491425992716 1 0.16370661204795281 0.40000000000166441 1 0 0.60000000000138687 1 0 0.50803330197353713 0.83630110503668265 0 0.50803330197353713 0.83630110503668265 0 0.59944234541082553 0.66416205381394655 0 0.7054234997318658 0.80860557108880304 0 0.52894546611500048 0.79133000140429866 0.2082794184507949 0.69988642339594154 1 0.16938214347578889 0.50803330197353713 0.83630110503668265 0 0.7054234997318658 0.80860557108880304 0 0.52894546611500048 0.79133000140429866 0.2082794184507949 0.60000000000138687 1 0 0.79999999999999982 1 0 0.69988642339594154 1 0.16938214347578889 0.7054234997318658 0.80860557108880304 0 0.50803330197353713 0.83630110503668265 0 0.60000000000138687 1 0 0.69988642339594154 1 0.16938214347578889 0.7054234997318658 0.80860557108880304 0 0.69988642339594154 1 0.16938214347578889 0.82751535738810444 1 0.31407731390515509 0.61068558124908323 1 0.33127740899601937 0.81582077266975173 0.77657922508894406 0.18483084990574741 0.82751535738810444 1 0.31407731390515509 0.69988642339594154 1 0.16938214347578889 0.85358983848665693 1 0.14641016151322461 0.81582077266975173 0.77657922508894406 0.18483084990574741 0.69988642339594154 1 0.16938214347578889 0.85358983848666903 0.85358983848666903 0 0.85358983848665693 1 0.14641016151322461 0.81582077266975173 0.77657922508894406 0.18483084990574741 0.85358983848665693 1 0.14641016151322461 1 0.85358983848655678 0.14641016151332509 0.82751535738810444 1 0.31407731390515509 0.81582077266975173 0.77657922508894406 0.18483084990574741 0.85358983848666903 0.85358983848666903 0 0.85358983848665693 1 0.14641016151322461 0.79999999999999982 1 0 0.69988642339594154 1 0.16938214347578889 0.69988642339594154 1 0.16938214347578889 0.79999999999999982 1 0 0.85358983848666903 0.85358983848666903 0 0.7054234997318658 0.80860557108880304 0 0.85358983848666903 0.85358983848666903 0 0.7054234997318658 0.80860557108880304 0 0.85173693729186062 0.69992182039541118 0 0.81582077266975173 0.77657922508894406 0.18483084990574741 0.69988642339594154 1 0.16938214347578889 0.7054234997318658 0.80860557108880304 0 0.85358983848666903 0.85358983848666903 0 0.81582077266975173 0.77657922508894406 0.18483084990574741 1 0.85358983848655678 0.14641016151332509 1 0.69449451837101916 0.15896804272136739 1 0.8148028884949543 0.31067093462944562 0.81582077266975173 0.77657922508894406 0.18483084990574741 0.82751535738810444 1 0.31407731390515509 1 0.85358983848655678 0.14641016151332509 1 0.8148028884949543 0.31067093462944562 0.81582077266975173 0.77657922508894406 0.18483084990574741 1 0.85358983848655678 0.14641016151332509 0.85358983848666903 0.85358983848666903 0 1 0.79999999999999982 0 0.81582077266975173 0.77657922508894406 0.18483084990574741 1 0.79999999999999982 0 0.81582077266975173 0.77657922508894406 0.18483084990574741 1 0.69449451837101916 0.15896804272136739 1 0.85358983848655678 0.14641016151332509 0.85358983848666903 0.85358983848666903 0 1 0.85358983848655678 0.14641016151332509 0.85358983848665693 1 0.14641016151322461 0.81582077266975173 0.77657922508894406 0.18483084990574741 0.85358983848666903 0.85358983848666903 0 0.85173693729186062 0.69992182039541118 0 1 0.79999999999999982 0 0.81582077266975173 0.77657922508894406 0.18483084990574741 1 0.85358983848655678 0.14641016151332509 0.85358983848665693 1 0.14641016151322461 1 1 0 0.85358983848666903 0.85358983848666903 0 1 1 0.19999999999955789 0.85358983848665693 1 0.14641016151322461 1 1 0 1 0.85358983848655678 0.14641016151332509 1 1 0 1 0.85358983848655678 0.14641016151332509 0.85358983848666903 0.85358983848666903 0 1 0.79999999999999982 0 0.79999999999999982 1 0 1 1 0 0.85358983848665693 1 0.14641016151322461 0.85358983848666903 0.85358983848666903 0 0.82751535738810444 1 0.31407731390515509 0.85358983848665693 1 0.14641016151322461 1 1 0.19999999999955789 1 0.85358983848655678 0.14641016151332509 1 1 0.19999999999955789 1 0.8148028884949543 0.31067093462944562 0.82751535738810444 1 0.31407731390515509 1 0.85358983848655678 0.14641016151332509 1 1 0.3999999999989749 1 0.8148028884949543 0.31067093462944562 0.82751535738810444 1 0.31407731390515509 1 1 0.19999999999955789 0.82751535738810444 1 0.31407731390515509 0.77374673111774417 0.78860835645735528 0.49829081152968557 0.68456408135056701 0.68607101396845627 0.31096060989957619 0.81582077266975173 0.77657922508894406 0.18483084990574741 1 0.8148028884949543 0.31067093462944562 0.77374673111774417 0.78860835645735528 0.49829081152968557 0.82751535738810444 1 0.31407731390515509 0.81582077266975173 0.77657922508894406 0.18483084990574741 1 0.8148028884949543 0.31067093462944562 0.68456408135056701 0.68607101396845627 0.31096060989957619 0.77374673111774417 0.78860835645735528 0.49829081152968557 0.81582077266975173 0.77657922508894406 0.18483084990574741 1 0.8148028884949543 0.31067093462944562 0.86762395692956074 1 0.5060815484123421 0.82751535738810444 1 0.31407731390515509 0.77374673111774417 0.78860835645735528 0.49829081152968557 0.68240285647621723 1 0.52310058211166854 0.82751535738810444 1 0.31407731390515509 0.86762395692956074 1 0.5060815484123421 0.77374673111774417 0.78860835645735528 0.49829081152968557 0.86762395692956074 1 0.5060815484123421 1 1 0.3999999999989749 1 0.8148028884949543 0.31067093462944562 0.82751535738810444 1 0.31407731390515509 1 1 0.3999999999989749 1 0.83630110503662825 0.50803330197135588 0.86762395692956074 1 0.5060815484123421 1 0.8148028884949543 0.31067093462944562 1 0.8148028884949543 0.31067093462944562 1 0.83630110503662825 0.50803330197135588 0.86762395692956074 1 0.5060815484123421 0.77374673111774417 0.78860835645735528 0.49829081152968557 1 0.8148028884949543 0.31067093462944562 1 0.68975022421527898 0.45812322962078778 1 0.83630110503662825 0.50803330197135588 0.77374673111774417 0.78860835645735528 0.49829081152968557 1 0.39615100178016449 0.32925244736082498 0.7504488434426726 0.53051757989633308 0.49836643074154852 1 0.60020898676431722 0.32446581821274012 0.77713227489941183 0.50036915849493024 0.21774643624003751 1 0.68975022421527898 0.45812322962078778 0.68456408135056701 0.68607101396845627 0.31096060989957619 1 0.60020898676431722 0.32446581821274012 0.7504488434426726 0.53051757989633308 0.49836643074154852 1 0.8148028884949543 0.31067093462944562 0.68456408135056701 0.68607101396845627 0.31096060989957619 1 0.68975022421527898 0.45812322962078778 0.77374673111774417 0.78860835645735528 0.49829081152968557 1 0.68975022421527898 0.45812322962078778 0.68456408135056701 0.68607101396845627 0.31096060989957619 0.7504488434426726 0.53051757989633308 0.49836643074154852 0.77374673111774417 0.78860835645735528 0.49829081152968557 1 0.68975022421527898 0.45812322962078778 1 0.8148028884949543 0.31067093462944562 1 0.60020898676431722 0.32446581821274012 0.68456408135056701 0.68607101396845627 0.31096060989957619 0.68456408135056701 0.68607101396845627 0.31096060989957619 1 0.60020898676431722 0.32446581821274012 0.7504488434426726 0.53051757989633308 0.49836643074154852 0.77713227489941183 0.50036915849493024 0.21774643624003751 1 0.8148028884949543 0.31067093462944562 1 0.60020898676431722 0.32446581821274012 0.68456408135056701 0.68607101396845627 0.31096060989957619 0.81582077266975173 0.77657922508894406 0.18483084990574741 1 0.60020898676431722 0.32446581821274012 0.77713227489941183 0.50036915849493024 0.21774643624003751 0.68456408135056701 0.68607101396845627 0.31096060989957619 0.81582077266975173 0.77657922508894406 0.18483084990574741 1 0.50000000000229983 0.51961524226898759 1 0.68975022421527898 0.45812322962078778 1 0.60020898676431722 0.32446581821274012 0.7504488434426726 0.53051757989633308 0.49836643074154852 1 0.39615100178016449 0.32925244736082498 1 0.50000000000229983 0.51961524226898759 1 0.60020898676431722 0.32446581821274012 0.7504488434426726 0.53051757989633308 0.49836643074154852 0.84191918937744659 0.51186163305076127 0 1 0.49836539647890021 0.17226134197269399 1 0.69449451837101916 0.15896804272136739 0.77713227489941183 0.50036915849493024 0.21774643624003751 1 0.69449451837101916 0.15896804272136739 0.85173693729186062 0.69992182039541118 0 0.77713227489941183 0.50036915849493024 0.21774643624003751 0.81582077266975173 0.77657922508894406 0.18483084990574741 1 0.69449451837101916 0.15896804272136739 0.77713227489941183 0.50036915849493024 0.21774643624003751 1 0.60020898676431722 0.32446581821274012 0.81582077266975173 0.77657922508894406 0.18483084990574741 1 0.69449451837101916 0.15896804272136739 1 0.49836539647890021 0.17226134197269399 1 0.60020898676431722 0.32446581821274012 0.77713227489941183 0.50036915849493024 0.21774643624003751 0.72722573386132172 0.60922248848163563 0 0.77713227489941183 0.50036915849493024 0.21774643624003751 0.85173693729186062 0.69992182039541118 0 0.81582077266975173 0.77657922508894406 0.18483084990574741 0.72722573386132172 0.60922248848163563 0 0.68456408135056701 0.68607101396845627 0.31096060989957619 0.77713227489941183 0.50036915849493024 0.21774643624003751 0.81582077266975173 0.77657922508894406 0.18483084990574741 1 0.8148028884949543 0.31067093462944562 1 0.69449451837101916 0.15896804272136739 1 0.60020898676431722 0.32446581821274012 0.81582077266975173 0.77657922508894406 0.18483084990574741 0.72722573386132172 0.60922248848163563 0 0.67320508075660079 0.46954769941202479 0 0.84191918937744659 0.51186163305076127 0 0.77713227489941183 0.50036915849493024 0.21774643624003751 0.84191918937744659 0.51186163305076127 0 1 0.69449451837101916 0.15896804272136739 0.85173693729186062 0.69992182039541118 0 0.77713227489941183 0.50036915849493024 0.21774643624003751 0.72722573386132172 0.60922248848163563 0 0.84191918937744659 0.51186163305076127 0 0.85173693729186062 0.69992182039541118 0 0.77713227489941183 0.50036915849493024 0.21774643624003751 0.7054234997318658 0.80860557108880304 0 0.72722573386132172 0.60922248848163563 0 0.85173693729186062 0.69992182039541118 0 0.81582077266975173 0.77657922508894406 0.18483084990574741 1 0.69449451837101916 0.15896804272136739 0.85173693729186062 0.69992182039541118 0 1 0.79999999999999982 0 1 0.60000000000138687 0 1 0.69449451837101916 0.15896804272136739 0.81582077266975173 0.77657922508894406 0.18483084990574741 1 0.79999999999999982 0 0.85173693729186062 0.69992182039541118 0 0.84191918937744659 0.51186163305076127 0 0.85173693729186062 0.69992182039541118 0 1 0.69449451837101916 0.15896804272136739 1 0.60000000000138687 0 1 0.60000000000138687 0 1 0.69449451837101916 0.15896804272136739 0.84191918937744659 0.51186163305076127 0 1 0.49836539647890021 0.17226134197269399 1 0.40000000000166441 0 1 0.60000000000138687 0 0.84191918937744659 0.51186163305076127 0 1 0.49836539647890021 0.17226134197269399 0.80839867011859301 0.31807971531731721 0 0.85358983848570813 0.1464101615143738 0 1 0.30074819035868428 0.16929708765640439 0.68777432594363841 0.31447353261427252 0.31366778418247038 0.80839867011859301 0.31807971531731721 0 1 0.40000000000166441 0 0.84191918937744659 0.51186163305076127 0 1 0.49836539647890021 0.17226134197269399 1 0.40000000000166441 0 0.80839867011859301 0.31807971531731721 0 1 0.30074819035868428 0.16929708765640439 1 0.49836539647890021 0.17226134197269399 0.80839867011859301 0.31807971531731721 0 0.68777432594363841 0.31447353261427252 0.31366778418247038 1 0.30074819035868428 0.16929708765640439 0.77713227489941183 0.50036915849493024 0.21774643624003751 0.84191918937744659 0.51186163305076127 0 0.67320508075660079 0.46954769941202479 0 0.80839867011859301 0.31807971531731721 0 0.77713227489941183 0.50036915849493024 0.21774643624003751 0.84191918937744659 0.51186163305076127 0 0.80839867011859301 0.31807971531731721 0 1 0.49836539647890021 0.17226134197269399 0.77713227489941183 0.50036915849493024 0.21774643624003751 0.80839867011859301 0.31807971531731721 0 1 0.30074819035868428 0.16929708765640439 1 0.49836539647890021 0.17226134197269399 0.77713227489941183 0.50036915849493024 0.21774643624003751 1 0.30074819035868428 0.16929708765640439 1 0.39615100178016449 0.32925244736082498 1 0.49836539647890021 0.17226134197269399 0.77713227489941183 0.50036915849493024 0.21774643624003751 1 0.30074819035868428 0.16929708765640439 0.80839867011859301 0.31807971531731721 0 1 0.40000000000166441 0 1 0.20000000000083221 0 1 0.30074819035868428 0.16929708765640439 0.80839867011859301 0.31807971531731721 0 1 0.20000000000083221 0 0.85358983848570813 0.1464101615143738 0 1 0.20000000000083221 0 1 0.14641016151453831 0.14641016151419689 1 0.30074819035868428 0.16929708765640439 0.85358983848570813 0.1464101615143738 0 0.83057691269884504 0 0.30018449338884379 0.85358983848650494 0 0.1464101615132356 0.68592116352011878 0 0.1724872797865501 0.68777432594363841 0.31447353261427252 0.31366778418247038 0.80839867011859301 0.31807971531731721 0 0.69380980079964416 0.1619694349440581 0 0.85358983848570813 0.1464101615143738 0 0.68777432594363841 0.31447353261427252 0.31366778418247038 1 0.18804489794556911 0.3161072616634244 1 0.30074819035868428 0.16929708765640439 1 0.14641016151453831 0.14641016151419689 0.68777432594363841 0.31447353261427252 0.31366778418247038 1 0.14641016151453831 0.14641016151419689 1 0.30074819035868428 0.16929708765640439 0.85358983848570813 0.1464101615143738 0 0.68777432594363841 0.31447353261427252 0.31366778418247038 1 0.14641016151453831 0.14641016151419689 0.85358983848650494 0 0.1464101615132356 0.83057691269884504 0 0.30018449338884379 0.68777432594363841 0.31447353261427252 0.31366778418247038 1 0.14641016151453831 0.14641016151419689 0.85358983848570813 0.1464101615143738 0 0.85358983848650494 0 0.1464101615132356 0.68777432594363841 0.31447353261427252 0.31366778418247038 0.69380980079964416 0.1619694349440581 0 0.85358983848650494 0 0.1464101615132356 0.85358983848570813 0.1464101615143738 0 0.68777432594363841 0.31447353261427252 0.31366778418247038 0.85358983848650494 0 0.1464101615132356 0.83057691269884504 0 0.30018449338884379 1 0 0.19999999999955789 1 0.14641016151453831 0.14641016151419689 0.83057691269884504 0 0.30018449338884379 1 0.18804489794556911 0.3161072616634244 1 0 0.19999999999955789 1 0.14641016151453831 0.14641016151419689 0.85358983848570813 0.1464101615143738 0 1 0 0 0.85358983848650494 0 0.1464101615132356 0.79999999999947335 0 0 0.85358983848650494 0 0.1464101615132356 1 0 0.19999999999955789 1 0 0 1 0.14641016151453831 0.14641016151419689 1 0 0 1 0.14641016151453831 0.14641016151419689 1 0.20000000000083221 0 0.85358983848570813 0.1464101615143738 0 1 0.14641016151453831 0.14641016151419689 1 0 0 0.85358983848650494 0 0.1464101615132356 0.85358983848570813 0.1464101615143738 0 0.68592116352011878 0 0.1724872797865501 0.69380980079964416 0.1619694349440581 0 0.85358983848650494 0 0.1464101615132356 0.79999999999947335 0 0 0.85358983848570813 0.1464101615143738 0 0.85358983848650494 0 0.1464101615132356 0.69380980079964416 0.1619694349440581 0 0.79999999999947335 0 0 0.68592116352011878 0 0.1724872797865501 0.68777432594363841 0.31447353261427252 0.31366778418247038 0.69380980079964416 0.1619694349440581 0 0.5003997205654479 0.21136633249797621 0.2258422409314382 0.68592116352011878 0 0.1724872797865501 0.85358983848650494 0 0.1464101615132356 0.69380980079964416 0.1619694349440581 0 0.68777432594363841 0.31447353261427252 0.31366778418247038 0.69380980079964416 0.1619694349440581 0 0.68592116352011878 0 0.1724872797865501 0.59999999999894682 0 0 0.79999999999947335 0 0 0.49391845158624981 0 0.1323760430705655 0.3999999999989749 0 0 0.50966790549376417 0.16275515618023731 0 0.59999999999894682 0 0 0.50966790549376417 0.16275515618023731 0 0.69380980079964416 0.1619694349440581 0 0.68592116352011878 0 0.1724872797865501 0.59999999999894682 0 0 0.68592116352011878 0 0.1724872797865501 0.49391845158624981 0 0.1323760430705655 0.50966790549376417 0.16275515618023731 0 0.59999999999894682 0 0 0.47688326899416439 0 0.31741132792405607 0.68592116352011878 0 0.1724872797865501 0.49391845158624981 0 0.1323760430705655 0.5003997205654479 0.21136633249797621 0.2258422409314382 0.49391845158624981 0 0.1323760430705655 0.68592116352011878 0 0.1724872797865501 0.50966790549376417 0.16275515618023731 0 0.5003997205654479 0.21136633249797621 0.2258422409314382 0.50966790549376417 0.16275515618023731 0 0.68592116352011878 0 0.1724872797865501 0.69380980079964416 0.1619694349440581 0 0.5003997205654479 0.21136633249797621 0.2258422409314382 0.6104699881764214 0.32043363027358418 0 0.50966790549376417 0.16275515618023731 0 0.69380980079964416 0.1619694349440581 0 0.5003997205654479 0.21136633249797621 0.2258422409314382 0.6104699881764214 0.32043363027358418 0 0.68777432594363841 0.31447353261427252 0.31366778418247038 0.80839867011859301 0.31807971531731721 0 0.77713227489941183 0.50036915849493024 0.21774643624003751 0.6104699881764214 0.32043363027358418 0 0.69380980079964416 0.1619694349440581 0 0.68777432594363841 0.31447353261427252 0.31366778418247038 0.5003997205654479 0.21136633249797621 0.2258422409314382 0.80839867011859301 0.31807971531731721 0 0.6104699881764214 0.32043363027358418 0 0.69380980079964416 0.1619694349440581 0 0.68777432594363841 0.31447353261427252 0.31366778418247038 0.6104699881764214 0.32043363027358418 0 0.45812322962036273 0.31024977578535839 0 0.50966790549376417 0.16275515618023731 0 0.5003997205654479 0.21136633249797621 0.2258422409314382 0.45812322962036273 0.31024977578535839 0 0.6104699881764214 0.32043363027358418 0 0.5004045312576143 0.47050700646456922 0.24963111222780321 0.5003997205654479 0.21136633249797621 0.2258422409314382 0.77713227489941183 0.50036915849493024 0.21774643624003751 0.6104699881764214 0.32043363027358418 0 0.5004045312576143 0.47050700646456922 0.24963111222780321 0.67320508075660079 0.46954769941202479 0 0.68777432594363841 0.31447353261427252 0.31366778418247038 0.5004045312576143 0.47050700646456922 0.24963111222780321 0.6104699881764214 0.32043363027358418 0 0.5003997205654479 0.21136633249797621 0.2258422409314382 0.77713227489941183 0.50036915849493024 0.21774643624003751 0.5004045312576143 0.47050700646456922 0.24963111222780321 0.6104699881764214 0.32043363027358418 0 0.68777432594363841 0.31447353261427252 0.31366778418247038 0.51961524226956368 0.5000000000025091 0 0.6104699881764214 0.32043363027358418 0 0.67320508075660079 0.46954769941202479 0 0.5004045312576143 0.47050700646456922 0.24963111222780321 0.45812322962036273 0.31024977578535839 0 0.6104699881764214 0.32043363027358418 0 0.51961524226956368 0.5000000000025091 0 0.5004045312576143 0.47050700646456922 0.24963111222780321 0.6104699881764214 0.32043363027358418 0 0.80839867011859301 0.31807971531731721 0 0.67320508075660079 0.46954769941202479 0 0.77713227489941183 0.50036915849493024 0.21774643624003751 0.68777432594363841 0.31447353261427252 0.31366778418247038 0.7504488434426726 0.53051757989633308 0.49836643074154852 0.50000000000001332 0.49999999999999561 0.49999999999999561 0.50073570207385831 0.24848280280289631 0.52886631355986169 0.7504488434426726 0.53051757989633308 0.49836643074154852 0.50073570207385831 0.24848280280289631 0.52886631355986169 0.68777432594363841 0.31447353261427252 0.31366778418247038 0.77973766487723961 0.22090161127815711 0.50014622462635805 0.50000000000001332 0.49999999999999561 0.49999999999999561 0.7504488434426726 0.53051757989633308 0.49836643074154852 0.68777432594363841 0.31447353261427252 0.31366778418247038 0.5004045312576143 0.47050700646456922 0.24963111222780321 0.68777432594363841 0.31447353261427252 0.31366778418247038 0.5004045312576143 0.47050700646456922 0.24963111222780321 0.7504488434426726 0.53051757989633308 0.49836643074154852 0.77713227489941183 0.50036915849493024 0.21774643624003751 0.50073570207385831 0.24848280280289631 0.52886631355986169 0.5004045312576143 0.47050700646456922 0.24963111222780321 0.68777432594363841 0.31447353261427252 0.31366778418247038 0.5003997205654479 0.21136633249797621 0.2258422409314382 0.50000000000001332 0.49999999999999561 0.49999999999999561 0.68777432594363841 0.31447353261427252 0.31366778418247038 0.50073570207385831 0.24848280280289631 0.52886631355986169 0.5004045312576143 0.47050700646456922 0.24963111222780321 0.83057691269884504 0 0.30018449338884379 0.68777432594363841 0.31447353261427252 0.31366778418247038 0.66852282575985944 0 0.3853248791658106 0.77973766487723961 0.22090161127815711 0.50014622462635805 0.68592116352011878 0 0.1724872797865501 0.66852282575985944 0 0.3853248791658106 0.83057691269884504 0 0.30018449338884379 0.68777432594363841 0.31447353261427252 0.31366778418247038 0.66852282575985944 0 0.3853248791658106 0.47688326899416439 0 0.31741132792405607 0.50073570207385831 0.24848280280289631 0.52886631355986169 0.5003997205654479 0.21136633249797621 0.2258422409314382 0.68969697123394857 0 0.54179813558228873 0.66852282575985944 0 0.3853248791658106 0.50073570207385831 0.24848280280289631 0.52886631355986169 0.77973766487723961 0.22090161127815711 0.50014622462635805 0.68592116352011878 0 0.1724872797865501 0.66852282575985944 0 0.3853248791658106 0.68777432594363841 0.31447353261427252 0.31366778418247038 0.5003997205654479 0.21136633249797621 0.2258422409314382 0.66852282575985944 0 0.3853248791658106 0.50073570207385831 0.24848280280289631 0.52886631355986169 0.68777432594363841 0.31447353261427252 0.31366778418247038 0.5003997205654479 0.21136633249797621 0.2258422409314382 0.68777432594363841 0.31447353261427252 0.31366778418247038 0.50073570207385831 0.24848280280289631 0.52886631355986169 0.66852282575985944 0 0.3853248791658106 0.77973766487723961 0.22090161127815711 0.50014622462635805 0.68592116352011878 0 0.1724872797865501 0.47688326899416439 0 0.31741132792405607 0.66852282575985944 0 0.3853248791658106 0.5003997205654479 0.21136633249797621 0.2258422409314382 0.50000000000250922 0 0.48038475773043671 0.66852282575985944 0 0.3853248791658106 0.47688326899416439 0 0.31741132792405607 0.50073570207385831 0.24848280280289631 0.52886631355986169 0.50000000000250922 0 0.48038475773043671 0.68969697123394857 0 0.54179813558228873 0.66852282575985944 0 0.3853248791658106 0.50073570207385831 0.24848280280289631 0.52886631355986169 0.66852282575985944 0 0.3853248791658106 0.68969697123394857 0 0.54179813558228873 0.83534964916824084 0 0.4902996892628636 0.77973766487723961 0.22090161127815711 0.50014622462635805 1 0.18804489794556911 0.3161072616634244 0.68777432594363841 0.31447353261427252 0.31366778418247038 0.83057691269884504 0 0.30018449338884379 0.77973766487723961 0.22090161127815711 0.50014622462635805 1 0.18804489794556911 0.3161072616634244 1 0.14641016151453831 0.14641016151419689 0.83057691269884504 0 0.30018449338884379 0.68777432594363841 0.31447353261427252 0.31366778418247038 0.83534964916824084 0 0.4902996892628636 0.83057691269884504 0 0.30018449338884379 0.66852282575985944 0 0.3853248791658106 0.77973766487723961 0.22090161127815711 0.50014622462635805 0.83534964916824084 0 0.4902996892628636 1 0.18804489794556911 0.3161072616634244 0.83057691269884504 0 0.30018449338884379 0.77973766487723961 0.22090161127815711 0.50014622462635805 0.83057691269884504 0 0.30018449338884379 0.83534964916824084 0 0.4902996892628636 1 0 0.3999999999989749 1 0.18804489794556911 0.3161072616634244 0.83534964916824084 0 0.4902996892628636 1 0.162755156180173 0.50966790549372887 1 0 0.59999999999894682 1 0 0.3999999999989749 1 0 0.3999999999989749 0.83534964916824084 0 0.4902996892628636 1 0.162755156180173 0.50966790549372887 1 0.18804489794556911 0.3161072616634244 1 0.18804489794556911 0.3161072616634244 1 0 0.3999999999989749 0.83057691269884504 0 0.30018449338884379 1 0 0.19999999999955789 1 0.31024977578542368 0.45812322962028301 1 0.18804489794556911 0.3161072616634244 1 0.162755156180173 0.50966790549372887 0.77973766487723961 0.22090161127815711 0.50014622462635805 0.83534964916824084 0 0.4902996892628636 1 0.162755156180173 0.50966790549372887 1 0.18804489794556911 0.3161072616634244 0.77973766487723961 0.22090161127815711 0.50014622462635805 1 0.39615100178016449 0.32925244736082498 0.68777432594363841 0.31447353261427252 0.31366778418247038 0.7504488434426726 0.53051757989633308 0.49836643074154852 0.77713227489941183 0.50036915849493024 0.21774643624003751 1 0.39615100178016449 0.32925244736082498 1 0.18804489794556911 0.3161072616634244 1 0.31024977578542368 0.45812322962028301 0.68777432594363841 0.31447353261427252 0.31366778418247038 1 0.31024977578542368 0.45812322962028301 0.7504488434426726 0.53051757989633308 0.49836643074154852 0.68777432594363841 0.31447353261427252 0.31366778418247038 0.77973766487723961 0.22090161127815711 0.50014622462635805 1 0.30074819035868428 0.16929708765640439 1 0.18804489794556911 0.3161072616634244 1 0.39615100178016449 0.32925244736082498 0.68777432594363841 0.31447353261427252 0.31366778418247038 1 0.31024977578542368 0.45812322962028301 0.68777432594363841 0.31447353261427252 0.31366778418247038 1 0.18804489794556911 0.3161072616634244 0.77973766487723961 0.22090161127815711 0.50014622462635805 1 0.30074819035868428 0.16929708765640439 0.68777432594363841 0.31447353261427252 0.31366778418247038 1 0.39615100178016449 0.32925244736082498 0.77713227489941183 0.50036915849493024 0.21774643624003751 1 0.39615100178016449 0.32925244736082498 0.68777432594363841 0.31447353261427252 0.31366778418247038 1 0.31024977578542368 0.45812322962028301 0.7504488434426726 0.53051757989633308 0.49836643074154852 1 0.60020898676431722 0.32446581821274012 1 0.49836539647890021 0.17226134197269399 1 0.39615100178016449 0.32925244736082498 0.77713227489941183 0.50036915849493024 0.21774643624003751 1 0.39615100178016449 0.32925244736082498 1 0.31024977578542368 0.45812322962028301 1 0.50000000000229983 0.51961524226898759 0.7504488434426726 0.53051757989633308 0.49836643074154852 1 0.33579115324550912 0.59952339316293046 0.7504488434426726 0.53051757989633308 0.49836643074154852 0.68742751001967084 0.31250796680084852 0.687427510020161 0.78019141325921404 0.49972466465542442 0.78019141325930785 1 0.33579115324550912 0.59952339316293046 1 0.39076805646076263 0.7272421105028648 0.68742751001967084 0.31250796680084852 0.687427510020161 0.81599560342209843 0.22280203704001911 0.81599560342233202 1 0.33579115324550912 0.59952339316293046 1 0.53045230059030524 0.6732050807565132 1 0.50000000000229983 0.51961524226898759 0.7504488434426726 0.53051757989633308 0.49836643074154852 1 0.33579115324550912 0.59952339316293046 0.7504488434426726 0.53051757989633308 0.49836643074154852 1 0.31024977578542368 0.45812322962028301 0.77973766487723961 0.22090161127815711 0.50014622462635805 0.68742751001967084 0.31250796680084852 0.687427510020161 0.77973766487723961 0.22090161127815711 0.50014622462635805 1 0.33579115324550912 0.59952339316293046 0.81599560342209843 0.22280203704001911 0.81599560342233202 1 0.33579115324550912 0.59952339316293046 0.68742751001967084 0.31250796680084852 0.687427510020161 0.7504488434426726 0.53051757989633308 0.49836643074154852 0.77973766487723961 0.22090161127815711 0.50014622462635805 1 0.53045230059030524 0.6732050807565132 0.7504488434426726 0.53051757989633308 0.49836643074154852 1 0.33579115324550912 0.59952339316293046 0.78019141325921404 0.49972466465542442 0.78019141325930785 1 0.39076805646076263 0.7272421105028648 1 0.33579115324550912 0.59952339316293046 0.68742751001967084 0.31250796680084852 0.687427510020161 0.78019141325921404 0.49972466465542442 0.78019141325930785 1 0.33579115324550912 0.59952339316293046 1 0.50000000000229983 0.51961524226898759 1 0.31024977578542368 0.45812322962028301 0.7504488434426726 0.53051757989633308 0.49836643074154852 1 0.39076805646076263 0.7272421105028648 1 0.53045230059030524 0.6732050807565132 1 0.33579115324550912 0.59952339316293046 0.78019141325921404 0.49972466465542442 0.78019141325930785 1 0.33579115324550912 0.59952339316293046 1 0.1912596090855686 0.70565701451953711 1 0.39076805646076263 0.7272421105028648 0.81599560342209843 0.22280203704001911 0.81599560342233202 1 0.33579115324550912 0.59952339316293046 1 0.31024977578542368 0.45812322962028301 1 0.162755156180173 0.50966790549372887 0.77973766487723961 0.22090161127815711 0.50014622462635805 1 0.162755156180173 0.50966790549372887 0.81469961246449951 0 0.68914937826112133 1 0.1912596090855686 0.70565701451953711 0.77973766487723961 0.22090161127815711 0.50014622462635805 0.81469961246449951 0 0.68914937826112133 0.77973766487723961 0.22090161127815711 0.50014622462635805 0.68742751001967084 0.31250796680084852 0.687427510020161 0.81599560342209843 0.22280203704001911 0.81599560342233202 0.81469961246449951 0 0.68914937826112133 1 0.1912596090855686 0.70565701451953711 0.77973766487723961 0.22090161127815711 0.50014622462635805 0.81599560342209843 0.22280203704001911 0.81599560342233202 1 0.1912596090855686 0.70565701451953711 1 0.33579115324550912 0.59952339316293046 0.77973766487723961 0.22090161127815711 0.50014622462635805 0.81599560342209843 0.22280203704001911 0.81599560342233202 1 0.162755156180173 0.50966790549372887 1 0.1912596090855686 0.70565701451953711 1 0.33579115324550912 0.59952339316293046 0.77973766487723961 0.22090161127815711 0.50014622462635805 1 0.1912596090855686 0.70565701451953711 0.81469961246449951 0 0.68914937826112133 1 0 0.59999999999894682 1 0 0.79999999999947335 0.81469961246449951 0 0.68914937826112133 1 0 0.59999999999894682 1 0.162755156180173 0.50966790549372887 1 0.1912596090855686 0.70565701451953711 1 0.162755156180173 0.50966790549372887 1 0 0.59999999999894682 0.81469961246449951 0 0.68914937826112133 0.83534964916824084 0 0.4902996892628636 0.81469961246449951 0 0.68914937826112133 0.83534964916824084 0 0.4902996892628636 0.68969697123394857 0 0.54179813558228873 0.77973766487723961 0.22090161127815711 0.50014622462635805 0.81469961246449951 0 0.68914937826112133 1 0.162755156180173 0.50966790549372887 0.83534964916824084 0 0.4902996892628636 0.77973766487723961 0.22090161127815711 0.50014622462635805 0.68969697123394857 0 0.54179813558228873 0.6002015905170176 0 0.67551889168744117 0.68742751001967084 0.31250796680084852 0.687427510020161 0.50073570207385831 0.24848280280289631 0.52886631355986169 0.6002015905170176 0 0.67551889168744117 0.81469961246449951 0 0.68914937826112133 0.68969697123394857 0 0.54179813558228873 0.68742751001967084 0.31250796680084852 0.687427510020161 0.81469961246449951 0 0.68914937826112133 0.68969697123394857 0 0.54179813558228873 0.68742751001967084 0.31250796680084852 0.687427510020161 0.77973766487723961 0.22090161127815711 0.50014622462635805 0.69447607299129699 0 0.84099946107689361 0.68742751001967084 0.31250796680084852 0.687427510020161 0.6002015905170176 0 0.67551889168744117 0.50084626324420545 0.22238844715913 0.78084811589659187 0.68742751001967084 0.31250796680084852 0.687427510020161 0.68969697123394857 0 0.54179813558228873 0.50073570207385831 0.24848280280289631 0.52886631355986169 0.77973766487723961 0.22090161127815711 0.50014622462635805 0.68742751001967084 0.31250796680084852 0.687427510020161 0.50073570207385831 0.24848280280289631 0.52886631355986169 0.6002015905170176 0 0.67551889168744117 0.50084626324420545 0.22238844715913 0.78084811589659187 0.6002015905170176 0 0.67551889168744117 0.81469961246449951 0 0.68914937826112133 0.68742751001967084 0.31250796680084852 0.687427510020161 0.81599560342209843 0.22280203704001911 0.81599560342233202 0.68969697123394857 0 0.54179813558228873 0.50000000000250922 0 0.48038475773043671 0.6002015905170176 0 0.67551889168744117 0.50073570207385831 0.24848280280289631 0.52886631355986169 0.50000000000001332 0.49999999999999561 0.49999999999999561 0.68742751001967084 0.31250796680084852 0.687427510020161 0.49816183246753282 0.5307146639261795 0.75045686993209071 0.50073570207385831 0.24848280280289631 0.52886631355986169 0.68742751001967084 0.31250796680084852 0.687427510020161 0.50000000000001332 0.49999999999999561 0.49999999999999561 0.7504488434426726 0.53051757989633308 0.49836643074154852 0.50073570207385831 0.24848280280289631 0.52886631355986169 0.68742751001967084 0.31250796680084852 0.687427510020161 0.7504488434426726 0.53051757989633308 0.49836643074154852 0.50000000000001332 0.49999999999999561 0.49999999999999561 0.49816183246753282 0.5307146639261795 0.75045686993209071 0.7504488434426726 0.53051757989633308 0.49836643074154852 0.49816183246753282 0.5307146639261795 0.75045686993209071 0.68742751001967084 0.31250796680084852 0.687427510020161 0.78019141325921404 0.49972466465542442 0.78019141325930785 0.49816183246753282 0.5307146639261795 0.75045686993209071 0.50073570207385831 0.24848280280289631 0.52886631355986169 0.68742751001967084 0.31250796680084852 0.687427510020161 0.50084626324420545 0.22238844715913 0.78084811589659187 0.68742751001967084 0.31250796680084852 0.687427510020161 0.50073570207385831 0.24848280280289631 0.52886631355986169 0.7504488434426726 0.53051757989633308 0.49836643074154852 0.77973766487723961 0.22090161127815711 0.50014622462635805 0.45812322962173568 0.31024977578554058 1 0.49816183246753282 0.5307146639261795 0.75045686993209071 0.59952339316492498 0.33579115324593939 1 0.50084626324420545 0.22238844715913 0.78084811589659187 0.59952339316492498 0.33579115324593939 1 0.68742751001967084 0.31250796680084852 0.687427510020161 0.72724211050425436 0.39076805646176382 1 0.81599560342209843 0.22280203704001911 0.81599560342233202 0.59952339316492498 0.33579115324593939 1 0.68742751001967084 0.31250796680084852 0.687427510020161 0.49816183246753282 0.5307146639261795 0.75045686993209071 0.78019141325921404 0.49972466465542442 0.78019141325930785 0.59952339316492498 0.33579115324593939 1 0.50084626324420545 0.22238844715913 0.78084811589659187 0.68742751001967084 0.31250796680084852 0.687427510020161 0.81599560342209843 0.22280203704001911 0.81599560342233202 0.59952339316492498 0.33579115324593939 1 0.49816183246753282 0.5307146639261795 0.75045686993209071 0.68742751001967084 0.31250796680084852 0.687427510020161 0.50084626324420545 0.22238844715913 0.78084811589659187 0.59952339316492498 0.33579115324593939 1 0.72724211050425436 0.39076805646176382 1 0.68742751001967084 0.31250796680084852 0.687427510020161 0.78019141325921404 0.49972466465542442 0.78019141325930785 0.59952339316492498 0.33579115324593939 1 0.49816183246753282 0.5307146639261795 0.75045686993209071 0.67320508075671459 0.53045230059073867 1 0.78019141325921404 0.49972466465542442 0.78019141325930785 0.70565701452089868 0.1912596090858541 1 0.59952339316492498 0.33579115324593939 1 0.72724211050425436 0.39076805646176382 1 0.81599560342209843 0.22280203704001911 0.81599560342233202 0.59952339316492498 0.33579115324593939 1 0.67320508075671459 0.53045230059073867 1 0.72724211050425436 0.39076805646176382 1 0.78019141325921404 0.49972466465542442 0.78019141325930785 0.45812322962173568 0.31024977578554058 1 0.51961524226934941 0.50000000000250611 1 0.59952339316492498 0.33579115324593939 1 0.49816183246753282 0.5307146639261795 0.75045686993209071 0.67320508075671459 0.53045230059073867 1 0.59952339316492498 0.33579115324593939 1 0.51961524226934941 0.50000000000250611 1 0.49816183246753282 0.5307146639261795 0.75045686993209071 0.59952339316492498 0.33579115324593939 1 0.50966790549576724 0.1627551561802443 1 0.45812322962173568 0.31024977578554058 1 0.50084626324420545 0.22238844715913 0.78084811589659187 0.50966790549576724 0.1627551561802443 1 0.70565701452089868 0.1912596090858541 1 0.69447607299129699 0 0.84099946107689361 0.50084626324420545 0.22238844715913 0.78084811589659187 0.68742751001967084 0.31250796680084852 0.687427510020161 0.50084626324420545 0.22238844715913 0.78084811589659187 0.69447607299129699 0 0.84099946107689361 0.81599560342209843 0.22280203704001911 0.81599560342233202 0.70565701452089868 0.1912596090858541 1 0.69447607299129699 0 0.84099946107689361 0.50084626324420545 0.22238844715913 0.78084811589659187 0.81599560342209843 0.22280203704001911 0.81599560342233202 0.70565701452089868 0.1912596090858541 1 0.50084626324420545 0.22238844715913 0.78084811589659187 0.59952339316492498 0.33579115324593939 1 0.81599560342209843 0.22280203704001911 0.81599560342233202 0.70565701452089868 0.1912596090858541 1 0.50966790549576724 0.1627551561802443 1 0.59952339316492498 0.33579115324593939 1 0.50084626324420545 0.22238844715913 0.78084811589659187 0.6002015905170176 0 0.67551889168744117 0.68742751001967084 0.31250796680084852 0.687427510020161 0.69447607299129699 0 0.84099946107689361 0.81599560342209843 0.22280203704001911 0.81599560342233202 0.69447607299129699 0 0.84099946107689361 0.6002015905170176 0 0.67551889168744117 0.49836539647917322 0 0.82773865802723501 0.50084626324420545 0.22238844715913 0.78084811589659187 0.69447607299129699 0 0.84099946107689361 0.49836539647917322 0 0.82773865802723501 0.50966790549576724 0.1627551561802443 1 0.50084626324420545 0.22238844715913 0.78084811589659187 0.60000000000138687 0 1 0.49836539647917322 0 0.82773865802723501 0.50966790549576724 0.1627551561802443 1 0.69447607299129699 0 0.84099946107689361 0.50966790549576724 0.1627551561802443 1 0.40000000000166441 0 1 0.49836539647917322 0 0.82773865802723501 0.60000000000138687 0 1 0.50966790549576724 0.1627551561802443 1 0.70565701452089868 0.1912596090858541 1 0.60000000000138687 0 1 0.69447607299129699 0 0.84099946107689361 0.70565701452089868 0.1912596090858541 1 0.60000000000138687 0 1 0.69447607299129699 0 0.84099946107689361 0.79999999999999982 0 1 0.6002015905170176 0 0.67551889168744117 0.69447607299129699 0 0.84099946107689361 0.81469961246449951 0 0.68914937826112133 0.81599560342209843 0.22280203704001911 0.81599560342233202 0.70565701452089868 0.1912596090858541 1 0.85358983848646974 0.14641016151341191 1 0.69447607299129699 0 0.84099946107689361 0.81599560342209843 0.22280203704001911 0.81599560342233202 0.85358983848646974 0.14641016151341191 1 0.70565701452089868 0.1912596090858541 1 0.85173693729199718 0.30007817960516198 1 0.81599560342209843 0.22280203704001911 0.81599560342233202 1 0.1912596090855686 0.70565701451953711 0.81469961246449951 0 0.68914937826112133 0.85358983848570524 0 0.85358983848556425 0.81599560342209843 0.22280203704001911 0.81599560342233202 0.69447607299129699 0 0.84099946107689361 0.85358983848570524 0 0.85358983848556425 0.81469961246449951 0 0.68914937826112133 0.81599560342209843 0.22280203704001911 0.81599560342233202 0.85358983848570524 0 0.85358983848556425 0.69447607299129699 0 0.84099946107689361 0.85358983848646974 0.14641016151341191 1 0.81599560342209843 0.22280203704001911 0.81599560342233202 0.79999999999999982 0 1 0.69447607299129699 0 0.84099946107689361 0.70565701452089868 0.1912596090858541 1 0.85358983848646974 0.14641016151341191 1 0.79999999999999982 0 1 0.85358983848570524 0 0.85358983848556425 0.69447607299129699 0 0.84099946107689361 0.85358983848646974 0.14641016151341191 1 1 0 1 1 0.14641016151333891 0.85358983848640169 0.85358983848570524 0 0.85358983848556425 0.85358983848646974 0.14641016151341191 1 0.79999999999999982 0 1 1 0 1 0.85358983848570524 0 0.85358983848556425 0.85358983848646974 0.14641016151341191 1 0.85358983848646974 0.14641016151341191 1 1 0 1 1 0.14641016151333891 0.85358983848640169 1 0.19999999999955789 1 0.85358983848570524 0 0.85358983848556425 1 0.14641016151333891 0.85358983848640169 1 0 1 1 0 0.79999999999947335 0.85358983848570524 0 0.85358983848556425 0.81469961246449951 0 0.68914937826112133 1 0.1912596090855686 0.70565701451953711 1 0 0.79999999999947335 1 0.1912596090855686 0.70565701451953711 1 0.14641016151333891 0.85358983848640169 0.85358983848570524 0 0.85358983848556425 1 0 0.79999999999947335 1 0.14641016151333891 0.85358983848640169 1 0.30007817960499339 0.85173693729139244 1 0.1912596090855686 0.70565701451953711 0.81599560342209843 0.22280203704001911 0.81599560342233202 1 0.1912596090855686 0.70565701451953711 0.85358983848570524 0 0.85358983848556425 1 0.14641016151333891 0.85358983848640169 0.81599560342209843 0.22280203704001911 0.81599560342233202 0.85358983848646974 0.14641016151341191 1 0.85173693729199718 0.30007817960516198 1 1 0.19999999999955789 1 0.81599560342209843 0.22280203704001911 0.81599560342233202 1 0.14641016151333891 0.85358983848640169 0.85358983848646974 0.14641016151341191 1 1 0.19999999999955789 1 0.81599560342209843 0.22280203704001911 0.81599560342233202 1 0.14641016151333891 0.85358983848640169 1 0.19999999999955789 1 1 0.30007817960499339 0.85173693729139244 0.81599560342209843 0.22280203704001911 0.81599560342233202 0.85358983848570524 0 0.85358983848556425 0.85358983848646974 0.14641016151341191 1 1 0.14641016151333891 0.85358983848640169 0.81599560342209843 0.22280203704001911 0.81599560342233202 1 0.19999999999955789 1 1 0.30007817960499339 0.85173693729139244 0.85173693729199718 0.30007817960516198 1 1 0.3999999999989749 1 1 0.19999999999955789 1 0.85173693729199718 0.30007817960516198 1 1 0.30007817960499339 0.85173693729139244 0.81599560342209843 0.22280203704001911 0.81599560342233202 1 0.30007817960499339 0.85173693729139244 0.85173693729199718 0.30007817960516198 1 0.78019141325921404 0.49972466465542442 0.78019141325930785 0.81599560342209843 0.22280203704001911 0.81599560342233202 0.68742751001967084 0.31250796680084852 0.687427510020161 0.78019141325921404 0.49972466465542442 0.78019141325930785 0.72724211050425436 0.39076805646176382 1 0.81599560342209843 0.22280203704001911 0.81599560342233202 1 0.39076805646076263 0.7272421105028648 1 0.30007817960499339 0.85173693729139244 0.78019141325921404 0.49972466465542442 0.78019141325930785 0.81599560342209843 0.22280203704001911 0.81599560342233202 0.85173693729199718 0.30007817960516198 1 0.72724211050425436 0.39076805646176382 1 0.78019141325921404 0.49972466465542442 0.78019141325930785 0.81599560342209843 0.22280203704001911 0.81599560342233202 1 0.39076805646076263 0.7272421105028648 0.78019141325921404 0.49972466465542442 0.78019141325930785 0.68742751001967084 0.31250796680084852 0.687427510020161 0.81599560342209843 0.22280203704001911 0.81599560342233202 0.85173693729199718 0.30007817960516198 1 1 0.30007817960499339 0.85173693729139244 1 0.48813836695007229 0.84191918937727617 1 0.3999999999989749 1 0.72724211050425436 0.39076805646176382 1 0.85173693729199718 0.30007817960516198 1 0.70565701452089868 0.1912596090858541 1 0.81599560342209843 0.22280203704001911 0.81599560342233202 1 0.1912596090855686 0.70565701451953711 1 0.30007817960499339 0.85173693729139244 1 0.39076805646076263 0.7272421105028648 0.81599560342209843 0.22280203704001911 0.81599560342233202 0.85173693729199718 0.30007817960516198 1 1 0.48813836695007229 0.84191918937727617 1 0.30007817960499339 0.85173693729139244 0.78019141325921404 0.49972466465542442 0.78019141325930785 1 0.30007817960499339 0.85173693729139244 1 0.48813836695007229 0.84191918937727617 1 0.39076805646076263 0.7272421105028648 0.78019141325921404 0.49972466465542442 0.78019141325930785 1 0.39076805646076263 0.7272421105028648 1 0.48813836695007229 0.84191918937727617 1 0.53045230059030524 0.6732050807565132 0.78019141325921404 0.49972466465542442 0.78019141325930785 0.72724211050425436 0.39076805646176382 1 0.67320508075671459 0.53045230059073867 1 0.84191918937756771 0.48813836695034618 1 0.78019141325921404 0.49972466465542442 0.78019141325930785 0.84191918937756771 0.48813836695034618 1 0.85173693729199718 0.30007817960516198 1 0.72724211050425436 0.39076805646176382 1 0.78019141325921404 0.49972466465542442 0.78019141325930785 0.84191918937756771 0.48813836695034618 1 1 0.48813836695007229 0.84191918937727617 0.85173693729199718 0.30007817960516198 1 0.78019141325921404 0.49972466465542442 0.78019141325930785 1 0.3999999999989749 1 1 0.48813836695007229 0.84191918937727617 0.84191918937756771 0.48813836695034618 1 1 0.59999999999894682 1 1 0.48813836695007229 0.84191918937727617 0.84191918937756771 0.48813836695034618 1 0.85173693729199718 0.30007817960516198 1 1 0.3999999999989749 1 0.80839867011861499 0.68192028468377774 1 0.78019141325921404 0.49972466465542442 0.78019141325930785 0.68649174659499257 0.68600703198516766 0.6864917465949647 0.77683220420328725 0.81278569633583353 0.81664766512111064 0.80839867011861499 0.68192028468377774 1 1 0.68192028468364885 0.80839867011854549 0.78019141325921404 0.49972466465542442 0.78019141325930785 0.77683220420328725 0.81278569633583353 0.81664766512111064 1 0.59999999999894682 1 1 0.48813836695007229 0.84191918937727617 0.84191918937756771 0.48813836695034618 1 1 0.68192028468364885 0.80839867011854549 0.68649174659499257 0.68600703198516766 0.6864917465949647 0.78019141325921404 0.49972466465542442 0.78019141325930785 1 0.68192028468364885 0.80839867011854549 0.77683220420328725 0.81278569633583353 0.81664766512111064 0.84191918937756771 0.48813836695034618 1 1 0.59999999999894682 1 1 0.68192028468364885 0.80839867011854549 0.80839867011861499 0.68192028468377774 1 1 0.59999999999894682 1 1 0.68192028468364885 0.80839867011854549 0.80839867011861499 0.68192028468377774 1 1 0.79999999999947335 1 0.84191918937756771 0.48813836695034618 1 0.67320508075671459 0.53045230059073867 1 0.80839867011861499 0.68192028468377774 1 0.78019141325921404 0.49972466465542442 0.78019141325930785 0.84191918937756771 0.48813836695034618 1 0.80839867011861499 0.68192028468377774 1 1 0.68192028468364885 0.80839867011854549 0.78019141325921404 0.49972466465542442 0.78019141325930785 1 0.68192028468364885 0.80839867011854549 1 0.53045230059030524 0.6732050807565132 1 0.48813836695007229 0.84191918937727617 0.78019141325921404 0.49972466465542442 0.78019141325930785 1 0.68192028468364885 0.80839867011854549 1 0.48813836695007229 0.84191918937727617 0.84191918937756771 0.48813836695034618 1 0.78019141325921404 0.49972466465542442 0.78019141325930785 1 0.67939035495490308 0.61016512164639347 0.78019141325921404 0.49972466465542442 0.78019141325930785 0.7504488434426726 0.53051757989633308 0.49836643074154852 1 0.53045230059030524 0.6732050807565132 1 0.67939035495490308 0.61016512164639347 0.7504488434426726 0.53051757989633308 0.49836643074154852 0.68649174659499257 0.68600703198516766 0.6864917465949647 0.77374673111774417 0.78860835645735528 0.49829081152968557 1 0.67939035495490308 0.61016512164639347 0.68649174659499257 0.68600703198516766 0.6864917465949647 1 0.83791821520125753 0.69361520514217179 0.77374673111774417 0.78860835645735528 0.49829081152968557 1 0.68192028468364885 0.80839867011854549 1 0.67939035495490308 0.61016512164639347 0.68649174659499257 0.68600703198516766 0.6864917465949647 0.77683220420328725 0.81278569633583353 0.81664766512111064 1 0.67939035495490308 0.61016512164639347 1 0.68975022421527898 0.45812322962078778 0.7504488434426726 0.53051757989633308 0.49836643074154852 0.77374673111774417 0.78860835645735528 0.49829081152968557 0.7504488434426726 0.53051757989633308 0.49836643074154852 0.78019141325921404 0.49972466465542442 0.78019141325930785 1 0.67939035495490308 0.61016512164639347 0.68649174659499257 0.68600703198516766 0.6864917465949647 1 0.68192028468364885 0.80839867011854549 0.68649174659499257 0.68600703198516766 0.6864917465949647 1 0.67939035495490308 0.61016512164639347 0.78019141325921404 0.49972466465542442 0.78019141325930785 1 0.53045230059030524 0.6732050807565132 1 0.68192028468364885 0.80839867011854549 1 0.67939035495490308 0.61016512164639347 0.78019141325921404 0.49972466465542442 0.78019141325930785 1 0.67939035495490308 0.61016512164639347 1 0.50000000000229983 0.51961524226898759 1 0.53045230059030524 0.6732050807565132 0.7504488434426726 0.53051757989633308 0.49836643074154852 1 0.67939035495490308 0.61016512164639347 1 0.68975022421527898 0.45812322962078778 1 0.50000000000229983 0.51961524226898759 0.7504488434426726 0.53051757989633308 0.49836643074154852 1 0.67939035495490308 0.61016512164639347 1 0.83630110503662825 0.50803330197135588 1 0.68975022421527898 0.45812322962078778 0.77374673111774417 0.78860835645735528 0.49829081152968557 1 0.83791821520125753 0.69361520514217179 0.77374673111774417 0.78860835645735528 0.49829081152968557 0.68649174659499257 0.68600703198516766 0.6864917465949647 0.77683220420328725 0.81278569633583353 0.81664766512111064 0.68649174659499257 0.68600703198516766 0.6864917465949647 0.77374673111774417 0.78860835645735528 0.49829081152968557 0.81346205468287114 1 0.68420958956387889 0.77683220420328725 0.81278569633583353 0.81664766512111064 1 0.83791821520125753 0.69361520514217179 0.68649174659499257 0.68600703198516766 0.6864917465949647 1 0.67939035495490308 0.61016512164639347 0.77683220420328725 0.81278569633583353 0.81664766512111064 1 0.68192028468364885 0.80839867011854549 1 0.83791821520125753 0.69361520514217179 1 0.67939035495490308 0.61016512164639347 0.77683220420328725 0.81278569633583353 0.81664766512111064 1 0.83791821520125753 0.69361520514217179 0.81346205468287114 1 0.68420958956387889 0.77374673111774417 0.78860835645735528 0.49829081152968557 0.77683220420328725 0.81278569633583353 0.81664766512111064 1 0.83630110503662825 0.50803330197135588 1 0.67939035495490308 0.61016512164639347 1 0.83791821520125753 0.69361520514217179 0.77374673111774417 0.78860835645735528 0.49829081152968557 1 0.83791821520125753 0.69361520514217179 0.86762395692956074 1 0.5060815484123421 1 0.83630110503662825 0.50803330197135588 0.77374673111774417 0.78860835645735528 0.49829081152968557 1 1 0.59999999999894682 1 0.83630110503662825 0.50803330197135588 1 0.83791821520125753 0.69361520514217179 0.86762395692956074 1 0.5060815484123421 0.86762395692956074 1 0.5060815484123421 1 1 0.59999999999894682 1 0.83630110503662825 0.50803330197135588 1 1 0.3999999999989749 1 0.83791821520125753 0.69361520514217179 0.81346205468287114 1 0.68420958956387889 1 1 0.59999999999894682 0.86762395692956074 1 0.5060815484123421 0.86762395692956074 1 0.5060815484123421 0.81346205468287114 1 0.68420958956387889 0.68240285647621723 1 0.52310058211166854 0.77374673111774417 0.78860835645735528 0.49829081152968557 0.81346205468287114 1 0.68420958956387889 0.86762395692956074 1 0.5060815484123421 1 0.83791821520125753 0.69361520514217179 0.77374673111774417 0.78860835645735528 0.49829081152968557 1 0.83791821520125753 0.69361520514217179 0.81346205468287114 1 0.68420958956387889 1 1 0.79999999999947335 1 1 0.59999999999894682 1 1 0.79999999999947335 0.85358983848569092 1 0.85358983848569092 0.81346205468287114 1 0.68420958956387889 1 0.83791821520125753 0.69361520514217179 0.85358983848569092 1 0.85358983848569092 1 0.83791821520125753 0.69361520514217179 1 0.85358983848587056 0.85358983848587056 0.77683220420328725 0.81278569633583353 0.81664766512111064 0.85358983848569092 1 0.85358983848569092 1 1 0.79999999999947335 1 0.85358983848587056 0.85358983848587056 1 0.83791821520125753 0.69361520514217179 0.85358983848587056 0.85358983848587056 1 1 1 1 1 0.79999999999947335 1 1 0.85358983848587056 0.85358983848587056 0.85358983848587056 0.85358983848587056 1 0.79999999999947335 1 1 1 1 1 0.85358983848569092 1 0.85358983848569092 1 1 0.79999999999947335 1 0.85358983848587056 0.85358983848587056 1 1 1 0.85358983848569092 1 0.85358983848569092 1 0.85358983848587056 0.85358983848587056 0.85358983848587056 0.85358983848587056 1 1 1 1 0.85358983848569092 1 0.85358983848569092 0.85358983848587056 0.85358983848587056 1 1 0.79999999999947335 1 1 0.68192028468364885 0.80839867011854549 1 0.85358983848587056 0.85358983848587056 1 0.79999999999947335 1 1 0.68192028468364885 0.80839867011854549 0.80839867011861499 0.68192028468377774 1 0.85358983848587056 0.85358983848587056 1 0.85358983848587056 0.85358983848587056 1 1 0.85358983848587056 0.85358983848587056 1 0.68192028468364885 0.80839867011854549 0.77683220420328725 0.81278569633583353 0.81664766512111064 1 0.68192028468364885 0.80839867011854549 1 0.85358983848587056 0.85358983848587056 1 0.83791821520125753 0.69361520514217179 0.77683220420328725 0.81278569633583353 0.81664766512111064 0.69361520514218133 0.83791821520130205 1 0.85358983848587056 0.85358983848587056 1 0.80839867011861499 0.68192028468377774 1 0.77683220420328725 0.81278569633583353 0.81664766512111064 0.80839867011861499 0.68192028468377774 1 0.85358983848587056 0.85358983848587056 1 1 0.68192028468364885 0.80839867011854549 0.77683220420328725 0.81278569633583353 0.81664766512111064 0.85358983848587056 0.85358983848587056 1 0.79999999999947335 1 1 0.85358983848569092 1 0.85358983848569092 0.77683220420328725 0.81278569633583353 0.81664766512111064 0.69981550660938663 1 0.83057691269844081 0.85358983848569092 1 0.85358983848569092 0.79999999999947335 1 1 0.77683220420328725 0.81278569633583353 0.81664766512111064 0.85358983848587056 0.85358983848587056 1 0.69361520514218133 0.83791821520130205 1 0.79999999999947335 1 1 0.77683220420328725 0.81278569633583353 0.81664766512111064 1 0.85358983848587056 0.85358983848587056 0.85358983848587056 0.85358983848587056 1 0.85358983848569092 1 0.85358983848569092 0.77683220420328725 0.81278569633583353 0.81664766512111064 0.85358983848569092 1 0.85358983848569092 0.69981550660938663 1 0.83057691269844081 0.81346205468287114 1 0.68420958956387889 0.77683220420328725 0.81278569633583353 0.81664766512111064 0.81346205468287114 1 0.68420958956387889 1 0.83791821520125753 0.69361520514217179 0.85358983848569092 1 0.85358983848569092 0.77683220420328725 0.81278569633583353 0.81664766512111064 0.69361520514218133 0.83791821520130205 1 0.49911199724958061 0.77872228561593948 0.77895350115271889 0.69981550660938663 1 0.83057691269844081 0.77683220420328725 0.81278569633583353 0.81664766512111064 0.69361520514218133 0.83791821520130205 1 0.61016512164652226 0.67939035495506384 1 0.49911199724958061 0.77872228561593948 0.77895350115271889 0.77683220420328725 0.81278569633583353 0.81664766512111064 0.81346205468287114 1 0.68420958956387889 0.69981550660938663 1 0.83057691269844081 0.6123333432449789 1 0.67837347745467769 0.77683220420328725 0.81278569633583353 0.81664766512111064 0.6123333432449789 1 0.67837347745467769 0.69981550660938663 1 0.83057691269844081 0.49911199724958061 0.77872228561593948 0.77895350115271889 0.77683220420328725 0.81278569633583353 0.81664766512111064 0.69361520514218133 0.83791821520130205 1 0.69981550660938663 1 0.83057691269844081 0.79999999999947335 1 1 0.77683220420328725 0.81278569633583353 0.81664766512111064 0.50970031073508926 1 0.83534964916803001 0.59999999999894682 1 1 0.69361520514218133 0.83791821520130205 1 0.69981550660938663 1 0.83057691269844081 0.69981550660938663 1 0.83057691269844081 0.59999999999894682 1 1 0.69361520514218133 0.83791821520130205 1 0.79999999999947335 1 1 0.80839867011861499 0.68192028468377774 1 0.61016512164652226 0.67939035495506384 1 0.69361520514218133 0.83791821520130205 1 0.77683220420328725 0.81278569633583353 0.81664766512111064 0.50803330197137353 0.83630110503667787 1 0.69361520514218133 0.83791821520130205 1 0.61016512164652226 0.67939035495506384 1 0.49911199724958061 0.77872228561593948 0.77895350115271889 0.50803330197137353 0.83630110503667787 1 0.50970031073508926 1 0.83534964916803001 0.69361520514218133 0.83791821520130205 1 0.49911199724958061 0.77872228561593948 0.77895350115271889 0.59999999999894682 1 1 0.50803330197137353 0.83630110503667787 1 0.3999999999989749 1 1 0.50970031073508926 1 0.83534964916803001 0.69361520514218133 0.83791821520130205 1 0.50803330197137353 0.83630110503667787 1 0.59999999999894682 1 1 0.50970031073508926 1 0.83534964916803001 0.69361520514218133 0.83791821520130205 1 0.50970031073508926 1 0.83534964916803001 0.69981550660938663 1 0.83057691269844081 0.49911199724958061 0.77872228561593948 0.77895350115271889 0.50970031073508926 1 0.83534964916803001 0.6123333432449789 1 0.67837347745467769 0.69981550660938663 1 0.83057691269844081 0.49911199724958061 0.77872228561593948 0.77895350115271889 0.6123333432449789 1 0.67837347745467769 0.49983993748706529 0.75039103705932653 0.52967335724801234 0.68649174659499257 0.68600703198516766 0.6864917465949647 0.49911199724958061 0.77872228561593948 0.77895350115271889 0.6123333432449789 1 0.67837347745467769 0.49983993748706529 0.75039103705932653 0.52967335724801234 0.68240285647621723 1 0.52310058211166854 0.77374673111774417 0.78860835645735528 0.49829081152968557 0.6123333432449789 1 0.67837347745467769 0.45820186441573879 1 0.68969697123405882 0.49983993748706529 0.75039103705932653 0.52967335724801234 0.49911199724958061 0.77872228561593948 0.77895350115271889 0.45820186441573879 1 0.68969697123405882 0.6123333432449789 1 0.67837347745467769 0.50970031073508926 1 0.83534964916803001 0.49911199724958061 0.77872228561593948 0.77895350115271889 0.6123333432449789 1 0.67837347745467769 0.68649174659499257 0.68600703198516766 0.6864917465949647 0.49983993748706529 0.75039103705932653 0.52967335724801234 0.77374673111774417 0.78860835645735528 0.49829081152968557 0.81346205468287114 1 0.68420958956387889 0.6123333432449789 1 0.67837347745467769 0.68649174659499257 0.68600703198516766 0.6864917465949647 0.77683220420328725 0.81278569633583353 0.81664766512111064 0.6123333432449789 1 0.67837347745467769 0.49911199724958061 0.77872228561593948 0.77895350115271889 0.68649174659499257 0.68600703198516766 0.6864917465949647 0.77683220420328725 0.81278569633583353 0.81664766512111064 0.81346205468287114 1 0.68420958956387889 0.68649174659499257 0.68600703198516766 0.6864917465949647 0.6123333432449789 1 0.67837347745467769 0.77374673111774417 0.78860835645735528 0.49829081152968557 0.81346205468287114 1 0.68420958956387889 0.6123333432449789 1 0.67837347745467769 0.68240285647621723 1 0.52310058211166854 0.77374673111774417 0.78860835645735528 0.49829081152968557 0.6123333432449789 1 0.67837347745467769 0.45820186441573879 1 0.68969697123405882 0.51961524227008238 1 0.49999999999872219 0.49983993748706529 0.75039103705932653 0.52967335724801234 0.6123333432449789 1 0.67837347745467769 0.51961524227008238 1 0.49999999999872219 0.68240285647621723 1 0.52310058211166854 0.49983993748706529 0.75039103705932653 0.52967335724801234 0.68649174659499257 0.68600703198516766 0.6864917465949647 0.49983993748706529 0.75039103705932653 0.52967335724801234 0.49816183246753282 0.5307146639261795 0.75045686993209071 0.49911199724958061 0.77872228561593948 0.77895350115271889 0.68649174659499257 0.68600703198516766 0.6864917465949647 0.50000000000001332 0.49999999999999561 0.49999999999999561 0.7504488434426726 0.53051757989633308 0.49836643074154852 0.49816183246753282 0.5307146639261795 0.75045686993209071 0.68649174659499257 0.68600703198516766 0.6864917465949647 0.49816183246753282 0.5307146639261795 0.75045686993209071 0.7504488434426726 0.53051757989633308 0.49836643074154852 0.78019141325921404 0.49972466465542442 0.78019141325930785 0.50000000000001332 0.49999999999999561 0.49999999999999561 0.68649174659499257 0.68600703198516766 0.6864917465949647 0.7504488434426726 0.53051757989633308 0.49836643074154852 0.49983993748706529 0.75039103705932653 0.52967335724801234 0.7504488434426726 0.53051757989633308 0.49836643074154852 0.49983993748706529 0.75039103705932653 0.52967335724801234 0.68649174659499257 0.68600703198516766 0.6864917465949647 0.77374673111774417 0.78860835645735528 0.49829081152968557 0.68649174659499257 0.68600703198516766 0.6864917465949647 0.50000000000001332 0.49999999999999561 0.49999999999999561 0.49816183246753282 0.5307146639261795 0.75045686993209071 0.49983993748706529 0.75039103705932653 0.52967335724801234 0.78019141325921404 0.49972466465542442 0.78019141325930785 0.61016512164652226 0.67939035495506384 1 0.49816183246753282 0.5307146639261795 0.75045686993209071 0.67320508075671459 0.53045230059073867 1 0.78019141325921404 0.49972466465542442 0.78019141325930785 0.49816183246753282 0.5307146639261795 0.75045686993209071 0.61016512164652226 0.67939035495506384 1 0.68649174659499257 0.68600703198516766 0.6864917465949647 0.61016512164652226 0.67939035495506384 1 0.68649174659499257 0.68600703198516766 0.6864917465949647 0.80839867011861499 0.68192028468377774 1 0.78019141325921404 0.49972466465542442 0.78019141325930785 0.68649174659499257 0.68600703198516766 0.6864917465949647 0.49911199724958061 0.77872228561593948 0.77895350115271889 0.61016512164652226 0.67939035495506384 1 0.77683220420328725 0.81278569633583353 0.81664766512111064 0.68649174659499257 0.68600703198516766 0.6864917465949647 0.49816183246753282 0.5307146639261795 0.75045686993209071 0.61016512164652226 0.67939035495506384 1 0.49911199724958061 0.77872228561593948 0.77895350115271889 0.80839867011861499 0.68192028468377774 1 0.68649174659499257 0.68600703198516766 0.6864917465949647 0.61016512164652226 0.67939035495506384 1 0.77683220420328725 0.81278569633583353 0.81664766512111064 0.67320508075671459 0.53045230059073867 1 0.61016512164652226 0.67939035495506384 1 0.80839867011861499 0.68192028468377774 1 0.78019141325921404 0.49972466465542442 0.78019141325930785 0.45812322962090041 0.68975022421538157 1 0.61016512164652226 0.67939035495506384 1 0.49816183246753282 0.5307146639261795 0.75045686993209071 0.49911199724958061 0.77872228561593948 0.77895350115271889 0.50803330197137353 0.83630110503667787 1 0.61016512164652226 0.67939035495506384 1 0.45812322962090041 0.68975022421538157 1 0.49911199724958061 0.77872228561593948 0.77895350115271889 0.51961524226934941 0.50000000000250611 1 0.45812322962090041 0.68975022421538157 1 0.61016512164652226 0.67939035495506384 1 0.49816183246753282 0.5307146639261795 0.75045686993209071 0.67320508075671459 0.53045230059073867 1 0.51961524226934941 0.50000000000250611 1 0.61016512164652226 0.67939035495506384 1 0.49816183246753282 0.5307146639261795 0.75045686993209071 0.3115891413135391 0.68758981780459771 0.68521708032990558 0.2184393375098648 0.50004596894495223 0.77634962490704662 0.32446581821293602 0.60020898676440626 1 0.18453958615733529 0.77655623474864555 0.81613222483915937 0.32925244736146098 0.39615100178034629 1 0.32446581821293602 0.60020898676440626 1 0.51961524226934941 0.50000000000250611 1 0.49816183246753282 0.5307146639261795 0.75045686993209071 0.45812322962090041 0.68975022421538157 1 0.3115891413135391 0.68758981780459771 0.68521708032990558 0.31067093462947892 0.81480288849497895 1 0.49911199724958061 0.77872228561593948 0.77895350115271889 0.32925244736146098 0.39615100178034629 1 0.32446581821293602 0.60020898676440626 1 0.49816183246753282 0.5307146639261795 0.75045686993209071 0.2184393375098648 0.50004596894495223 0.77634962490704662 0.45812322962090041 0.68975022421538157 1 0.49816183246753282 0.5307146639261795 0.75045686993209071 0.3115891413135391 0.68758981780459771 0.68521708032990558 0.49911199724958061 0.77872228561593948 0.77895350115271889 0.32446581821293602 0.60020898676440626 1 0.3115891413135391 0.68758981780459771 0.68521708032990558 0.49816183246753282 0.5307146639261795 0.75045686993209071 0.2184393375098648 0.50004596894495223 0.77634962490704662 0.45812322962090041 0.68975022421538157 1 0.51961524226934941 0.50000000000250611 1 0.32446581821293602 0.60020898676440626 1 0.49816183246753282 0.5307146639261795 0.75045686993209071 0.31067093462947892 0.81480288849497895 1 0.45812322962090041 0.68975022421538157 1 0.32446581821293602 0.60020898676440626 1 0.3115891413135391 0.68758981780459771 0.68521708032990558 0.45812322962090041 0.68975022421538157 1 0.32446581821293602 0.60020898676440626 1 0.3115891413135391 0.68758981780459771 0.68521708032990558 0.49816183246753282 0.5307146639261795 0.75045686993209071 0.32446581821293602 0.60020898676440626 1 0.31067093462947892 0.81480288849497895 1 0.3115891413135391 0.68758981780459771 0.68521708032990558 0.18453958615733529 0.77655623474864555 0.81613222483915937 0.3115891413135391 0.68758981780459771 0.68521708032990558 0.50000000000001332 0.49999999999999561 0.49999999999999561 0.24769234054476261 0.52242103280823293 0.45098450226372488 0.49983993748706529 0.75039103705932653 0.52967335724801234 0.3115891413135391 0.68758981780459771 0.68521708032990558 0.49816183246753282 0.5307146639261795 0.75045686993209071 0.50000000000001332 0.49999999999999561 0.49999999999999561 0.49983993748706529 0.75039103705932653 0.52967335724801234 0.3115891413135391 0.68758981780459771 0.68521708032990558 0.49983993748706529 0.75039103705932653 0.52967335724801234 0.24769234054476261 0.52242103280823293 0.45098450226372488 0.22516916914780419 0.77057994845201627 0.48187244075707292 0.50000000000001332 0.49999999999999561 0.49999999999999561 0.3115891413135391 0.68758981780459771 0.68521708032990558 0.24769234054476261 0.52242103280823293 0.45098450226372488 0.2184393375098648 0.50004596894495223 0.77634962490704662 0.3115891413135391 0.68758981780459771 0.68521708032990558 0.50000000000001332 0.49999999999999561 0.49999999999999561 0.49816183246753282 0.5307146639261795 0.75045686993209071 0.2184393375098648 0.50004596894495223 0.77634962490704662 0.49816183246753282 0.5307146639261795 0.75045686993209071 0.49983993748706529 0.75039103705932653 0.52967335724801234 0.3115891413135391 0.68758981780459771 0.68521708032990558 0.49911199724958061 0.77872228561593948 0.77895350115271889 0.32448110831226962 1 0.6002015905153204 0.45820186441573879 1 0.68969697123405882 0.3115891413135391 0.68758981780459771 0.68521708032990558 0.49983993748706529 0.75039103705932653 0.52967335724801234 0.45820186441573879 1 0.68969697123405882 0.31085062173747541 1 0.81469961246428202 0.32448110831226962 1 0.6002015905153204 0.3115891413135391 0.68758981780459771 0.68521708032990558 0.45820186441573879 1 0.68969697123405882 0.3115891413135391 0.68758981780459771 0.68521708032990558 0.49983993748706529 0.75039103705932653 0.52967335724801234 0.49911199724958061 0.77872228561593948 0.77895350115271889 0.32448110831226962 1 0.6002015905153204 0.3115891413135391 0.68758981780459771 0.68521708032990558 0.31085062173747541 1 0.81469961246428202 0.18453958615733529 0.77655623474864555 0.81613222483915937 0.32448110831226962 1 0.6002015905153204 0.49983993748706529 0.75039103705932653 0.52967335724801234 0.3115891413135391 0.68758981780459771 0.68521708032990558 0.22516916914780419 0.77057994845201627 0.48187244075707292 0.45820186441573879 1 0.68969697123405882 0.31085062173747541 1 0.81469961246428202 0.3115891413135391 0.68758981780459771 0.68521708032990558 0.49911199724958061 0.77872228561593948 0.77895350115271889 0.32926555316115258 1 0.39615987727515128 0.49983993748706529 0.75039103705932653 0.52967335724801234 0.32448110831226962 1 0.6002015905153204 0.22516916914780419 0.77057994845201627 0.48187244075707292 0.32448110831226962 1 0.6002015905153204 0.3115891413135391 0.68758981780459771 0.68521708032990558 0.15900053892265181 1 0.69447607299016312 0.22516916914780419 0.77057994845201627 0.48187244075707292 0.32926555316115258 1 0.39615987727515128 0.51961524227008238 1 0.49999999999872219 0.32448110831226962 1 0.6002015905153204 0.49983993748706529 0.75039103705932653 0.52967335724801234 0.32448110831226962 1 0.6002015905153204 0.51961524227008238 1 0.49999999999872219 0.45820186441573879 1 0.68969697123405882 0.49983993748706529 0.75039103705932653 0.52967335724801234 0.45820186441573879 1 0.68969697123405882 0.50970031073508926 1 0.83534964916803001 0.31085062173747541 1 0.81469961246428202 0.49911199724958061 0.77872228561593948 0.77895350115271889 0.31085062173747541 1 0.81469961246428202 0.49911199724958061 0.77872228561593948 0.77895350115271889 0.31067093462947892 0.81480288849497895 1 0.18453958615733529 0.77655623474864555 0.81613222483915937 0.31085062173747541 1 0.81469961246428202 0.3115891413135391 0.68758981780459771 0.68521708032990558 0.49911199724958061 0.77872228561593948 0.77895350115271889 0.18453958615733529 0.77655623474864555 0.81613222483915937 0.50803330197137353 0.83630110503667787 1 0.31085062173747541 1 0.81469961246428202 0.50970031073508926 1 0.83534964916803001 0.49911199724958061 0.77872228561593948 0.77895350115271889 0.31067093462947892 0.81480288849497895 1 0.49911199724958061 0.77872228561593948 0.77895350115271889 0.3115891413135391 0.68758981780459771 0.68521708032990558 0.18453958615733529 0.77655623474864555 0.81613222483915937 0.31085062173747541 1 0.81469961246428202 0.3999999999989749 1 1 0.50803330197137353 0.83630110503667787 1 0.50970031073508926 1 0.83534964916803001 0.31085062173747541 1 0.81469961246428202 0.3999999999989749 1 1 0.31067093462947892 0.81480288849497895 1 0.50803330197137353 0.83630110503667787 1 0.31085062173747541 1 0.81469961246428202 0.50803330197137353 0.83630110503667787 1 0.31067093462947892 0.81480288849497895 1 0.49911199724958061 0.77872228561593948 0.77895350115271889 0.45812322962090041 0.68975022421538157 1 0.31067093462947892 0.81480288849497895 1 0.50803330197137353 0.83630110503667787 1 0.49911199724958061 0.77872228561593948 0.77895350115271889 0.3999999999989749 1 1 0.19999999999955789 1 1 0.31085062173747541 1 0.81469961246428202 0.31067093462947892 0.81480288849497895 1 0.15900053892265181 1 0.69447607299016312 0.31085062173747541 1 0.81469961246428202 0.1464101615132356 1 0.85358983848650494 0.18453958615733529 0.77655623474864555 0.81613222483915937 0.31085062173747541 1 0.81469961246428202 0.31067093462947892 0.81480288849497895 1 0.1464101615132356 1 0.85358983848650494 0.18453958615733529 0.77655623474864555 0.81613222483915937 0.31085062173747541 1 0.81469961246428202 0.19999999999955789 1 1 0.1464101615132356 1 0.85358983848650494 0.31067093462947892 0.81480288849497895 1 0.14641016151332509 0.85358983848655678 1 0.1464101615132356 1 0.85358983848650494 0.19999999999955789 1 1 0.31067093462947892 0.81480288849497895 1 0.31067093462947892 0.81480288849497895 1 0.15896804272141651 0.69449451837104537 1 0.14641016151332509 0.85358983848655678 1 0.18453958615733529 0.77655623474864555 0.81613222483915937 0.14641016151332509 0.85358983848655678 1 0.1464101615132356 1 0.85358983848650494 0.31067093462947892 0.81480288849497895 1 0.18453958615733529 0.77655623474864555 0.81613222483915937 0 0.85358983848682146 0.85358983848668035 0 0.69992182039579531 0.85173693729137989 0 0.80860557108920617 0.70542349973054763 0.18453958615733529 0.77655623474864555 0.81613222483915937 0.15900053892265181 1 0.69447607299016312 0 0.85358983848682146 0.85358983848668035 0 0.80860557108920617 0.70542349973054763 0.18453958615733529 0.77655623474864555 0.81613222483915937 0.18453958615733529 0.77655623474864555 0.81613222483915937 0 0.79999999999999982 1 0.15896804272141651 0.69449451837104537 1 0.14641016151332509 0.85358983848655678 1 0.1464101615132356 1 0.85358983848650494 0.14641016151332509 0.85358983848655678 1 0 0.85358983848682146 0.85358983848668035 0.18453958615733529 0.77655623474864555 0.81613222483915937 0 0.85358983848682146 0.85358983848668035 0 0.79999999999999982 1 0 0.69992182039579531 0.85173693729137989 0.18453958615733529 0.77655623474864555 0.81613222483915937 0 0.85358983848682146 0.85358983848668035 0.14641016151332509 0.85358983848655678 1 0 0.79999999999999982 1 0.18453958615733529 0.77655623474864555 0.81613222483915937 0 1 1 0 0.85358983848682146 0.85358983848668035 0.14641016151332509 0.85358983848655678 1 0 0.79999999999999982 1 0 0.85358983848682146 0.85358983848668035 0.1464101615132356 1 0.85358983848650494 0 1 1 0.14641016151332509 0.85358983848655678 1 0.19999999999955789 1 1 0 1 1 0.1464101615132356 1 0.85358983848650494 0.14641016151332509 0.85358983848655678 1 0.1464101615132356 1 0.85358983848650494 0 1 1 0 1 0.79999999999947335 0 0.85358983848682146 0.85358983848668035 0.1464101615132356 1 0.85358983848650494 0 0.85358983848682146 0.85358983848668035 0.15900053892265181 1 0.69447607299016312 0.18453958615733529 0.77655623474864555 0.81613222483915937 0.15900053892265181 1 0.69447607299016312 0 1 0.79999999999947335 0 0.80860557108920617 0.70542349973054763 0 0.85358983848682146 0.85358983848668035 0 1 0.79999999999947335 0.15900053892265181 1 0.69447607299016312 0.1464101615132356 1 0.85358983848650494 0 0.85358983848682146 0.85358983848668035 0 0.80860557108920617 0.70542349973054763 0 1 0.59999999999894682 0 1 0.79999999999947335 0.15900053892265181 1 0.69447607299016312 0.3115891413135391 0.68758981780459771 0.68521708032990558 0.22516916914780419 0.77057994845201627 0.48187244075707292 0 0.80860557108920617 0.70542349973054763 0.18453958615733529 0.77655623474864555 0.81613222483915937 0 0.80860557108920617 0.70542349973054763 0 0.83630110503664845 0.50803330197135654 0 1 0.59999999999894682 0.15900053892265181 1 0.69447607299016312 0.15900053892265181 1 0.69447607299016312 0.3115891413135391 0.68758981780459771 0.68521708032990558 0.32448110831226962 1 0.6002015905153204 0.18453958615733529 0.77655623474864555 0.81613222483915937 0.15900053892265181 1 0.69447607299016312 0.22516916914780419 0.77057994845201627 0.48187244075707292 0.3115891413135391 0.68758981780459771 0.68521708032990558 0.18453958615733529 0.77655623474864555 0.81613222483915937 0.15900053892265181 1 0.69447607299016312 0 0.80860557108920617 0.70542349973054763 0.22516916914780419 0.77057994845201627 0.48187244075707292 0.18453958615733529 0.77655623474864555 0.81613222483915937 0.15900053892265181 1 0.69447607299016312 0.32448110831226962 1 0.6002015905153204 0.31085062173747541 1 0.81469961246428202 0.18453958615733529 0.77655623474864555 0.81613222483915937 0.32448110831226962 1 0.6002015905153204 0.15900053892265181 1 0.69447607299016312 0.17226134197293 1 0.49836539647645101 0.22516916914780419 0.77057994845201627 0.48187244075707292 0 0.83630110503664845 0.50803330197135654 0.17226134197293 1 0.49836539647645101 0.15900053892265181 1 0.69447607299016312 0.22516916914780419 0.77057994845201627 0.48187244075707292 0 1 0.59999999999894682 0 1 0.3999999999989749 0.17226134197293 1 0.49836539647645101 0 0.83630110503664845 0.50803330197135654 0 0.83630110503664845 0.50803330197135654 0.17226134197293 1 0.49836539647645101 0 1 0.59999999999894682 0.15900053892265181 1 0.69447607299016312 0 0.83630110503664845 0.50803330197135654 0.15900053892265181 1 0.69447607299016312 0 0.80860557108920617 0.70542349973054763 0.22516916914780419 0.77057994845201627 0.48187244075707292 0 0.66416205381430016 0.59944234540882957 0 0.83630110503664845 0.50803330197135654 0 0.80860557108920617 0.70542349973054763 0.22516916914780419 0.77057994845201627 0.48187244075707292 0 0.66416205381430016 0.59944234540882957 0 0.80860557108920617 0.70542349973054763 0.3115891413135391 0.68758981780459771 0.68521708032990558 0.22516916914780419 0.77057994845201627 0.48187244075707292 0 0.66416205381430016 0.59944234540882957 0.3115891413135391 0.68758981780459771 0.68521708032990558 0 0.80860557108920617 0.70542349973054763 0.18453958615733529 0.77655623474864555 0.81613222483915937 0 0.66416205381430016 0.59944234540882957 0 0.80860557108920617 0.70542349973054763 0 0.60922248848335758 0.72722573386012812 0.18453958615733529 0.77655623474864555 0.81613222483915937 0 0.66416205381430016 0.59944234540882957 0.24769234054476261 0.52242103280823293 0.45098450226372488 0.3115891413135391 0.68758981780459771 0.68521708032990558 0.2184393375098648 0.50004596894495223 0.77634962490704662 0 0.66416205381430016 0.59944234540882957 0 0.60922248848335758 0.72722573386012812 0.3115891413135391 0.68758981780459771 0.68521708032990558 0.18453958615733529 0.77655623474864555 0.81613222483915937 0 0.66416205381430016 0.59944234540882957 0 0.46954769941369501 0.67320508075638175 0 0.50000000000237477 0.51961524226909872 0.2184393375098648 0.50004596894495223 0.77634962490704662 0 0.60922248848335758 0.72722573386012812 0 0.66416205381430016 0.59944234540882957 0.3115891413135391 0.68758981780459771 0.68521708032990558 0.2184393375098648 0.50004596894495223 0.77634962490704662 0 0.66416205381430016 0.59944234540882957 0.3115891413135391 0.68758981780459771 0.68521708032990558 0.24769234054476261 0.52242103280823293 0.45098450226372488 0.22516916914780419 0.77057994845201627 0.48187244075707292 0 0.66416205381430016 0.59944234540882957 0 0.50000000000237477 0.51961524226909872 0.24769234054476261 0.52242103280823293 0.45098450226372488 0.2184393375098648 0.50004596894495223 0.77634962490704662 0 0.68801781652248195 0.45664527743358641 0 0.83630110503664845 0.50803330197135654 0 0.66416205381430016 0.59944234540882957 0.22516916914780419 0.77057994845201627 0.48187244075707292 0 0.66416205381430016 0.59944234540882957 0 0.50000000000237477 0.51961524226909872 0 0.68801781652248195 0.45664527743358641 0.24769234054476261 0.52242103280823293 0.45098450226372488 0 0.60922248848335758 0.72722573386012812 0 0.46954769941369501 0.67320508075638175 0 0.66416205381430016 0.59944234540882957 0.2184393375098648 0.50004596894495223 0.77634962490704662 0 0.5118616330515301 0.84191918937737908 0 0.69992182039579531 0.85173693729137989 0.15896804272141651 0.69449451837104537 1 0.2184393375098648 0.50004596894495223 0.77634962490704662 0 0.60922248848335758 0.72722573386012812 0.2184393375098648 0.50004596894495223 0.77634962490704662 0.3115891413135391 0.68758981780459771 0.68521708032990558 0.18453958615733529 0.77655623474864555 0.81613222483915937 0.15896804272141651 0.69449451837104537 1 0.2184393375098648 0.50004596894495223 0.77634962490704662 0 0.69992182039579531 0.85173693729137989 0.18453958615733529 0.77655623474864555 0.81613222483915937 0 0.5118616330515301 0.84191918937737908 0 0.46954769941369501 0.67320508075638175 0 0.60922248848335758 0.72722573386012812 0.2184393375098648 0.50004596894495223 0.77634962490704662 0 0.5118616330515301 0.84191918937737908 0 0.60922248848335758 0.72722573386012812 0 0.69992182039579531 0.85173693729137989 0.2184393375098648 0.50004596894495223 0.77634962490704662 0.15896804272141651 0.69449451837104537 1 0.32446581821293602 0.60020898676440626 1 0.2184393375098648 0.50004596894495223 0.77634962490704662 0.18453958615733529 0.77655623474864555 0.81613222483915937 0 0.60922248848335758 0.72722573386012812 0 0.69992182039579531 0.85173693729137989 0.2184393375098648 0.50004596894495223 0.77634962490704662 0.18453958615733529 0.77655623474864555 0.81613222483915937 0 0.80860557108920617 0.70542349973054763 0 0.69992182039579531 0.85173693729137989 0 0.60922248848335758 0.72722573386012812 0.18453958615733529 0.77655623474864555 0.81613222483915937 0.15896804272141651 0.69449451837104537 1 0.32446581821293602 0.60020898676440626 1 0.17226134197275911 0.49836539647894412 1 0.2184393375098648 0.50004596894495223 0.77634962490704662 0.15896804272141651 0.69449451837104537 1 0.17226134197275911 0.49836539647894412 1 0 0.5118616330515301 0.84191918937737908 0.2184393375098648 0.50004596894495223 0.77634962490704662 0.32446581821293602 0.60020898676440626 1 0.15896804272141651 0.69449451837104537 1 0.31067093462947892 0.81480288849497895 1 0.18453958615733529 0.77655623474864555 0.81613222483915937 0.18453958615733529 0.77655623474864555 0.81613222483915937 0.15896804272141651 0.69449451837104537 1 0 0.79999999999999982 1 0 0.69992182039579531 0.85173693729137989 0 0.69992182039579531 0.85173693729137989 0 0.5118616330515301 0.84191918937737908 0.15896804272141651 0.69449451837104537 1 0 0.60000000000138687 1 0.15896804272141651 0.69449451837104537 1 0 0.79999999999999982 1 0 0.69992182039579531 0.85173693729137989 0 0.60000000000138687 1 0 0.60000000000138687 1 0 0.5118616330515301 0.84191918937737908 0.15896804272141651 0.69449451837104537 1 0.17226134197275911 0.49836539647894412 1 0 0.5118616330515301 0.84191918937737908 0 0.60000000000138687 1 0 0.40000000000166441 1 0.17226134197275911 0.49836539647894412 1 0.17226134197275911 0.49836539647894412 1 0 0.40000000000166441 1 0 0.5118616330515301 0.84191918937737908 0 0.31807971531776508 0.80839867011913336 0 0.40000000000166441 1 0.17226134197275911 0.49836539647894412 1 0.16929708765653109 0.30074819035870082 1 0 0.31807971531776508 0.80839867011913336 0 0.14641016151490169 0.85358983848532144 0 0.31807971531776508 0.80839867011913336 0.16929708765653109 0.30074819035870082 1 0.31426750628021272 0.31270343261798911 0.68761148188185484 0.16929708765653109 0.30074819035870082 1 0.31426750628021272 0.31270343261798911 0.68761148188185484 0 0.31807971531776508 0.80839867011913336 0.2184393375098648 0.50004596894495223 0.77634962490704662 0 0.5118616330515301 0.84191918937737908 0 0.31807971531776508 0.80839867011913336 0 0.46954769941369501 0.67320508075638175 0.2184393375098648 0.50004596894495223 0.77634962490704662 0 0.5118616330515301 0.84191918937737908 0.17226134197275911 0.49836539647894412 1 0 0.31807971531776508 0.80839867011913336 0.2184393375098648 0.50004596894495223 0.77634962490704662 0 0.31807971531776508 0.80839867011913336 0.16929708765653109 0.30074819035870082 1 0 0.40000000000166441 1 0 0.20000000000083221 1 0.17226134197275911 0.49836539647894412 1 0.32925244736146098 0.39615100178034629 1 0.16929708765653109 0.30074819035870082 1 0.2184393375098648 0.50004596894495223 0.77634962490704662 0.17226134197275911 0.49836539647894412 1 0.16929708765653109 0.30074819035870082 1 0 0.31807971531776508 0.80839867011913336 0.2184393375098648 0.50004596894495223 0.77634962490704662 0.31610726166461628 0.1880448979455934 1 0.16929708765653109 0.30074819035870082 1 0.32925244736146098 0.39615100178034629 1 0.31426750628021272 0.31270343261798911 0.68761148188185484 0.32446581821293602 0.60020898676440626 1 0.32925244736146098 0.39615100178034629 1 0.17226134197275911 0.49836539647894412 1 0.2184393375098648 0.50004596894495223 0.77634962490704662 0.45812322962173568 0.31024977578554058 1 0.31426750628021272 0.31270343261798911 0.68761148188185484 0.49816183246753282 0.5307146639261795 0.75045686993209071 0.50084626324420545 0.22238844715913 0.78084811589659187 0.32925244736146098 0.39615100178034629 1 0.49816183246753282 0.5307146639261795 0.75045686993209071 0.31426750628021272 0.31270343261798911 0.68761148188185484 0.2184393375098648 0.50004596894495223 0.77634962490704662 0.31610726166461628 0.1880448979455934 1 0.32925244736146098 0.39615100178034629 1 0.45812322962173568 0.31024977578554058 1 0.31426750628021272 0.31270343261798911 0.68761148188185484 0.45812322962173568 0.31024977578554058 1 0.31610726166461628 0.1880448979455934 1 0.31426750628021272 0.31270343261798911 0.68761148188185484 0.50084626324420545 0.22238844715913 0.78084811589659187 0.32925244736146098 0.39615100178034629 1 0.45812322962173568 0.31024977578554058 1 0.31426750628021272 0.31270343261798911 0.68761148188185484 0.49816183246753282 0.5307146639261795 0.75045686993209071 0.32925244736146098 0.39615100178034629 1 0.31426750628021272 0.31270343261798911 0.68761148188185484 0.16929708765653109 0.30074819035870082 1 0.2184393375098648 0.50004596894495223 0.77634962490704662 0.32925244736146098 0.39615100178034629 1 0.51961524226934941 0.50000000000250611 1 0.45812322962173568 0.31024977578554058 1 0.49816183246753282 0.5307146639261795 0.75045686993209071 0.31426750628021272 0.31270343261798911 0.68761148188185484 0.49816183246753282 0.5307146639261795 0.75045686993209071 0.50000000000001332 0.49999999999999561 0.49999999999999561 0.2184393375098648 0.50004596894495223 0.77634962490704662 0.24769234054476261 0.52242103280823293 0.45098450226372488 0.50073570207385831 0.24848280280289631 0.52886631355986169 0.31426750628021272 0.31270343261798911 0.68761148188185484 0.22088738526309029 0.22111069116742441 0.50004796911802929 0.31426750628021272 0.31270343261798911 0.68761148188185484 0.50073570207385831 0.24848280280289631 0.52886631355986169 0.49816183246753282 0.5307146639261795 0.75045686993209071 0.50084626324420545 0.22238844715913 0.78084811589659187 0.50000000000001332 0.49999999999999561 0.49999999999999561 0.31426750628021272 0.31270343261798911 0.68761148188185484 0.24769234054476261 0.52242103280823293 0.45098450226372488 0.50073570207385831 0.24848280280289631 0.52886631355986169 0.50000000000001332 0.49999999999999561 0.49999999999999561 0.49816183246753282 0.5307146639261795 0.75045686993209071 0.31426750628021272 0.31270343261798911 0.68761148188185484 0.50073570207385831 0.24848280280289631 0.52886631355986169 0.50000000000001332 0.49999999999999561 0.49999999999999561 0.24769234054476261 0.52242103280823293 0.45098450226372488 0.31426750628021272 0.31270343261798911 0.68761148188185484 0.2184393375098648 0.50004596894495223 0.77634962490704662 0.2184393375098648 0.50004596894495223 0.77634962490704662 0.31426750628021272 0.31270343261798911 0.68761148188185484 0 0.50000000000237477 0.51961524226909872 0.24769234054476261 0.52242103280823293 0.45098450226372488 0 0.31024977578556651 0.45812322962166352 0.24769234054476261 0.52242103280823293 0.45098450226372488 0 0.32043363027398297 0.61046998817722586 0.22088738526309029 0.22111069116742441 0.50004796911802929 0 0.32043363027398297 0.61046998817722586 0 0.50000000000237477 0.51961524226909872 0.31426750628021272 0.31270343261798911 0.68761148188185484 0.24769234054476261 0.52242103280823293 0.45098450226372488 0.2184393375098648 0.50004596894495223 0.77634962490704662 0 0.32043363027398297 0.61046998817722586 0 0.50000000000237477 0.51961524226909872 0.31426750628021272 0.31270343261798911 0.68761148188185484 0 0.32043363027398297 0.61046998817722586 0.24769234054476261 0.52242103280823293 0.45098450226372488 0.31426750628021272 0.31270343261798911 0.68761148188185484 0.22088738526309029 0.22111069116742441 0.50004796911802929 0.2184393375098648 0.50004596894495223 0.77634962490704662 0 0.50000000000237477 0.51961524226909872 0 0.32043363027398297 0.61046998817722586 0 0.46954769941369501 0.67320508075638175 0 0.16196943494415611 0.69380980080116506 0 0.32043363027398297 0.61046998817722586 0.31426750628021272 0.31270343261798911 0.68761148188185484 0.22088738526309029 0.22111069116742441 0.50004796911802929 0 0.32043363027398297 0.61046998817722586 0 0.31807971531776508 0.80839867011913336 0.31426750628021272 0.31270343261798911 0.68761148188185484 0.2184393375098648 0.50004596894495223 0.77634962490704662 0 0.16196943494415611 0.69380980080116506 0 0.32043363027398297 0.61046998817722586 0 0.31807971531776508 0.80839867011913336 0.31426750628021272 0.31270343261798911 0.68761148188185484 0 0.31024977578556651 0.45812322962166352 0 0.50000000000237477 0.51961524226909872 0 0.32043363027398297 0.61046998817722586 0.24769234054476261 0.52242103280823293 0.45098450226372488 0 0.32043363027398297 0.61046998817722586 0 0.46954769941369501 0.67320508075638175 0 0.31807971531776508 0.80839867011913336 0.2184393375098648 0.50004596894495223 0.77634962490704662 0 0.32043363027398297 0.61046998817722586 0 0.16275515618034081 0.50966790549591257 0 0.31024977578556651 0.45812322962166352 0.22088738526309029 0.22111069116742441 0.50004796911802929 0 0.16196943494415611 0.69380980080116506 0.14641016151479661 0 0.85358983848542624 0.18818969570926641 0 0.68364148842842287 0.31426750628021272 0.31270343261798911 0.68761148188185484 0 0.16196943494415611 0.69380980080116506 0.31426750628021272 0.31270343261798911 0.68761148188185484 0.18818969570926641 0 0.68364148842842287 0.22088738526309029 0.22111069116742441 0.50004796911802929 0 0.16196943494415611 0.69380980080116506 0.18818969570926641 0 0.68364148842842287 0 0.16275515618034081 0.50966790549591257 0.22088738526309029 0.22111069116742441 0.50004796911802929 0 0.16196943494415611 0.69380980080116506 0 0.16275515618034081 0.50966790549591257 0 0.32043363027398297 0.61046998817722586 0.22088738526309029 0.22111069116742441 0.50004796911802929 0 0 0.79999999999999982 0 0 0.60000000000138687 0 0.16196943494415611 0.69380980080116506 0.18818969570926641 0 0.68364148842842287 0 0 0.60000000000138687 0 0.16196943494415611 0.69380980080116506 0.18818969570926641 0 0.68364148842842287 0 0.16275515618034081 0.50966790549591257 0.18818969570926641 0 0.68364148842842287 0.16370661204827031 0 0.4886650857430957 0 0 0.60000000000138687 0 0.16275515618034081 0.50966790549591257 0.18818969570926641 0 0.68364148842842287 0.31030302876556398 0 0.54179813558513157 0.16370661204827031 0 0.4886650857430957 0.22088738526309029 0.22111069116742441 0.50004796911802929 0 0.16275515618034081 0.50966790549591257 0.18818969570926641 0 0.68364148842842287 0.16370661204827031 0 0.4886650857430957 0.22088738526309029 0.22111069116742441 0.50004796911802929 0.30074819035913852 0 0.83070291234383831 0.39615987727709562 0 0.67073444684008199 0.18818969570926641 0 0.68364148842842287 0.31426750628021272 0.31270343261798911 0.68761148188185484 0.31030302876556398 0 0.54179813558513157 0.31426750628021272 0.31270343261798911 0.68761148188185484 0.50073570207385831 0.24848280280289631 0.52886631355986169 0.22088738526309029 0.22111069116742441 0.50004796911802929 0.39615987727709562 0 0.67073444684008199 0.31030302876556398 0 0.54179813558513157 0.31426750628021272 0.31270343261798911 0.68761148188185484 0.50073570207385831 0.24848280280289631 0.52886631355986169 0.39615987727709562 0 0.67073444684008199 0.31426750628021272 0.31270343261798911 0.68761148188185484 0.30074819035913852 0 0.83070291234383831 0.50084626324420545 0.22238844715913 0.78084811589659187 0.18818969570926641 0 0.68364148842842287 0.31426750628021272 0.31270343261798911 0.68761148188185484 0.31030302876556398 0 0.54179813558513157 0.22088738526309029 0.22111069116742441 0.50004796911802929 0.6002015905170176 0 0.67551889168744117 0.50073570207385831 0.24848280280289631 0.52886631355986169 0.39615987727709562 0 0.67073444684008199 0.50084626324420545 0.22238844715913 0.78084811589659187 0.31030302876556398 0 0.54179813558513157 0.18818969570926641 0 0.68364148842842287 0.39615987727709562 0 0.67073444684008199 0.31426750628021272 0.31270343261798911 0.68761148188185484 0.39615987727709562 0 0.67073444684008199 0.50073570207385831 0.24848280280289631 0.52886631355986169 0.31426750628021272 0.31270343261798911 0.68761148188185484 0.50084626324420545 0.22238844715913 0.78084811589659187 0.39615987727709562 0 0.67073444684008199 0.6002015905170176 0 0.67551889168744117 0.50000000000250922 0 0.48038475773043671 0.50073570207385831 0.24848280280289631 0.52886631355986169 0.39615987727709562 0 0.67073444684008199 0.50000000000250922 0 0.48038475773043671 0.31030302876556398 0 0.54179813558513157 0.50073570207385831 0.24848280280289631 0.52886631355986169 0.49836539647917322 0 0.82773865802723501 0.6002015905170176 0 0.67551889168744117 0.39615987727709562 0 0.67073444684008199 0.50084626324420545 0.22238844715913 0.78084811589659187 0.30074819035913852 0 0.83070291234383831 0.14641016151432179 0.14641016151432179 1 0.31610726166461628 0.1880448979455934 1 0.31426750628021272 0.31270343261798911 0.68761148188185484 0.30074819035913852 0 0.83070291234383831 0.31426750628021272 0.31270343261798911 0.68761148188185484 0.31610726166461628 0.1880448979455934 1 0.50084626324420545 0.22238844715913 0.78084811589659187 0.30074819035913852 0 0.83070291234383831 0.31610726166461628 0.1880448979455934 1 0.49836539647917322 0 0.82773865802723501 0.50084626324420545 0.22238844715913 0.78084811589659187 0.39615987727709562 0 0.67073444684008199 0.30074819035913852 0 0.83070291234383831 0.49836539647917322 0 0.82773865802723501 0.50084626324420545 0.22238844715913 0.78084811589659187 0.31610726166461628 0.1880448979455934 1 0.40000000000166441 0 1 0.49836539647917322 0 0.82773865802723501 0.50966790549576724 0.1627551561802443 1 0.40000000000166441 0 1 0.49836539647917322 0 0.82773865802723501 0.30074819035913852 0 0.83070291234383831 0.31610726166461628 0.1880448979455934 1 0.31610726166461628 0.1880448979455934 1 0.50966790549576724 0.1627551561802443 1 0.49836539647917322 0 0.82773865802723501 0.50084626324420545 0.22238844715913 0.78084811589659187 0.45812322962173568 0.31024977578554058 1 0.50966790549576724 0.1627551561802443 1 0.31610726166461628 0.1880448979455934 1 0.50084626324420545 0.22238844715913 0.78084811589659187 0.40000000000166441 0 1 0.30074819035913852 0 0.83070291234383831 0.20000000000083221 0 1 0.31610726166461628 0.1880448979455934 1 0 0.14641016151490169 0.85358983848532144 0 0.16196943494415611 0.69380980080116506 0 0.31807971531776508 0.80839867011913336 0.31426750628021272 0.31270343261798911 0.68761148188185484 0.16929708765653109 0.30074819035870082 1 0.31610726166461628 0.1880448979455934 1 0.14641016151432179 0.14641016151432179 1 0.31426750628021272 0.31270343261798911 0.68761148188185484 0.14641016151432179 0.14641016151432179 1 0.20000000000083221 0 1 0.14641016151479661 0 0.85358983848542624 0.30074819035913852 0 0.83070291234383831 0.14641016151432179 0.14641016151432179 1 0.30074819035913852 0 0.83070291234383831 0.14641016151479661 0 0.85358983848542624 0.31426750628021272 0.31270343261798911 0.68761148188185484 0.14641016151432179 0.14641016151432179 1 0.20000000000083221 0 1 0.30074819035913852 0 0.83070291234383831 0.31610726166461628 0.1880448979455934 1 0.18818969570926641 0 0.68364148842842287 0.14641016151479661 0 0.85358983848542624 0.30074819035913852 0 0.83070291234383831 0.31426750628021272 0.31270343261798911 0.68761148188185484 0 0.14641016151490169 0.85358983848532144 0.16929708765653109 0.30074819035870082 1 0.14641016151432179 0.14641016151432179 1 0.31426750628021272 0.31270343261798911 0.68761148188185484 0.14641016151432179 0.14641016151432179 1 0.14641016151479661 0 0.85358983848542624 0 0.14641016151490169 0.85358983848532144 0.31426750628021272 0.31270343261798911 0.68761148188185484 0 0.16196943494415611 0.69380980080116506 0 0.14641016151490169 0.85358983848532144 0.14641016151479661 0 0.85358983848542624 0.31426750628021272 0.31270343261798911 0.68761148188185484 0 0.20000000000083221 1 0 0.31807971531776508 0.80839867011913336 0.16929708765653109 0.30074819035870082 1 0 0.14641016151490169 0.85358983848532144 0.14641016151432179 0.14641016151432179 1 0 0.20000000000083221 1 0.16929708765653109 0.30074819035870082 1 0 0.14641016151490169 0.85358983848532144 0 0.16196943494415611 0.69380980080116506 0.14641016151479661 0 0.85358983848542624 0 0 0.79999999999999982 0.18818969570926641 0 0.68364148842842287 0 0.14641016151490169 0.85358983848532144 0.14641016151479661 0 0.85358983848542624 0 0 0.79999999999999982 0 0.16196943494415611 0.69380980080116506 0 0 1 0 0.20000000000083221 1 0.14641016151432179 0.14641016151432179 1 0 0.14641016151490169 0.85358983848532144 0.14641016151479661 0 0.85358983848542624 0 0 0.79999999999999982 0 0 1 0 0.14641016151490169 0.85358983848532144 0 0 1 0.14641016151432179 0.14641016151432179 1 0.20000000000083221 0 1 0.14641016151479661 0 0.85358983848542624 0.14641016151479661 0 0.85358983848542624 0 0 1 0.14641016151432179 0.14641016151432179 1 0 0.14641016151490169 0.85358983848532144 
</DataArray>
</Points>
<Cells>
<DataArray type="UInt32" Name="connectivity" format="ascii">
0 1 2 3 4 5 6 7 8 9 10 11 12 13 14 15 16 17 18 19 20 21 22 23 24 25 26 27 28 29 30 31 32 33 34 35 36 37 38 39 40 41 42 43 44 45 46 47 48 49 50 51 52 53 54 55 56 57 58 59 60 61 62 63 64 65 66 67 68 69 70 71 72 73 74 75 76 77 78 79 80 81 82 83 84 85 86 87 88 89 90 91 92 93 94 95 96 97 98 99 100 101 102 103 104 105 106 107 108 109 110 111 112 113 114 115 116 117 118 119 120 121 122 123 124 125 126 127 128 129 130 131 132 133 134 135 136 137 138 139 140 141 142 143 144 145 146 147 148 149 150 151 152 153 154 155 156 157 158 159 160 161 162 163 164 165 166 167 168 169 170 171 172 173 174 175 176 177 178 179 180 181 182 183 184 185 186 187 188 189 190 191 192 193 194 195 196 197 198 199 200 201 202 203 204 205 206 207 208 209 210 211 212 213 214 215 216 217 218 219 220 221 222 223 224 225 226 227 228 229 230 231 232 233 234 235 236 237 238 239 240 241 242 243 244 245 246 247 248 249 250 251 252 253 254 255 256 257 258 259 260 261 262 263 264 265 266 267 268 269 270 271 272 273 274 275 276 277 278 279 280 281 282 283 284 285 286 287 288 289 290 291 292 293 294 295 296 297 298 299 300 301 302 303 304 305 306 307 308 309 310 311 312 313 314 315 316 317 318 319 320 321 322 323 324 325 326 327 328 329 330 331 332 333 334 335 336 337 338 339 340 341 342 343 344 345 346 347 348 349 350 351 352 353 354 355 356 357 358 359 360 361 362 363 364 365 366 367 368 369 370 371 372 373 374 375 376 377 378 379 380 381 382 383 384 385 386 387 388 389 390 391 392 393 394 395 396 397 398 399 400 401 402 403 404 405 406 407 408 409 410 411 412 413 414 415 416 417 418 419 420 421 422 423 424 425 426 427 428 429 430 431 432 433 434 435 436 437 438 439 440 441 442 443 444 445 446 447 448 449 450 451 452 453 454 455 456 457 458 459 460 461 462 463 464 465 466 467 468 469 470 471 472 473 474 475 476 477 478 479 480 481 482 483 484 485 486 487 488 489 490 491 492 493 494 495 496 497 498 499 500 501 502 503 504 505 506 507 508 509 510 511 512 513 514 515 516 517 518 519 520 521 522 523 524 525 526 527 528 529 530 531 532 533 534 535 536 537 538 539 540 541 542 543 544 545 546 547 548 549 550 551 552 553 554 555 556 557 558 559 560 561 562 563 564 565 566 567 568 569 570 571 572 573 574 575 576 577 578 579 580 581 582 583 584 585 586 587 588 589 590 591 592 593 594 595 596 597 598 599 600 601 602 603 604 605 606 607 608 609 610 611 612 613 614 615 616 617 618 619 620 621 622 623 624 625 626 627 628 629 630 631 632 633 634 635 636 637 638 639 640 641 642 643 644 645 646 647 648 649 650 651 652 653 654 655 656 657 658 659 660 661 662 663 664 665 666 667 668 669 670 671 672 673 674 675 676 677 678 679 680 681 682 683 684 685 686 687 688 689 690 691 692 693 694 695 696 697 698 699 700 701 702 703 704 705 706 707 708 709 710 711 712 713 714 715 716 717 718 719 720 721 722 723 724 725 726 727 728 729 730 731 732 733 734 735 736 737 738 739 740 741 742 743 744 745 746 747 748 749 750 751 752 753 754 755 756 757 758 759 760 761 762 763 764 765 766 767 768 769 770 771 772 773 774 775 776 777 778 779 780 781 782 783 784 785 786 787 788 789 790 791 792 793 794 795 796 797 798 799 800 801 802 803 804 805 806 807 808 809 810 811 812 813 814 815 816 817 818 819 820 821 822 823 824 825 826 827 828 829 830 831 832 833 834 835 836 837 838 839 840 841 842 843 844 845 846 847 848 849 850 851 852 853 854 855 856 857 858 859 860 861 862 863 864 865 866 867 868 869 870 871 872 873 874 875 876 877 878 879 880 881 882 883 884 885 886 887 888 889 890 891 892 893 894 895 896 897 898 899 900 901 902 903 904 905 906 907 908 909 910 911 912 913 914 915 916 917 918 919 920 921 922 923 924 925 926 927 928 929 930 931 932 933 934 935 936 937 938 939 940 941 942 943 944 945 946 947 948 949 950 951 952 953 954 955 956 957 958 959 960 961 962 963 964 965 966 967 968 969 970 971 972 973 974 975 976 977 978 979 980 981 982 983 984 985 986 987 988 989 990 991 992 993 994 995 996 997 998 999 1000 1001 1002 1003 1004 1005 1006 1007 1008 1009 1010 1011 1012 1013 1014 1015 1016 1017 1018 1019 1020 1021 1022 1023 1024 1025 1026 1027 1028 1029 1030 1031 1032 1033 1034 1035 1036 1037 1038 1039 1040 1041 1042 1043 1044 1045 1046 1047 1048 1049 1050 1051 1052 1053 1054 1055 1056 1057 1058 1059 1060 1061 1062 1063 1064 1065 1066 1067 1068 1069 1070 1071 1072 1073 1074 1075 1076 1077 1078 1079 1080 1081 1082 1083 1084 1085 1086 1087 1088 1089 1090 1091 1092 1093 1094 1095 1096 1097 1098 1099 1100 1101 1102 1103 1104 1105 1106 1107 1108 1109 1110 1111 1112 1113 1114 1115 1116 1117 1118 1119 1120 1121 1122 1123 1124 1125 1126 1127 1128 1129 1130 1131 1132 1133 1134 1135 1136 1137 1138 1139 1140 1141 1142 1143 1144 1145 1146 1147 1148 1149 1150 1151 1152 1153 1154 1155 1156 1157 1158 1159 1160 1161 1162 1163 1164 1165 1166 1167 1168 1169 1170 1171 1172 1173 1174 1175 1176 1177 1178 1179 1180 1181 1182 1183 1184 1185 1186 1187 1188 1189 1190 1191 1192 1193 1194 1195 1196 1197 1198 1199 1200 1201 1202 1203 1204 1205 1206 1207 1208 1209 1210 1211 1212 1213 1214 1215 1216 1217 1218 1219 1220 1221 1222 1223 1224 1225 1226 1227 1228 1229 1230 1231 1232 1233 1234 1235 1236 1237 1238 1239 1240 1241 1242 1243 1244 1245 1246 1247 1248 1249 1250 1251 1252 1253 1254 1255 1256 1257 1258 1259 1260 1261 1262 1263 1264 1265 1266 1267 1268 1269 1270 1271 1272 1273 1274 1275 1276 1277 1278 1279 1280 1281 1282 1283 1284 1285 1286 1287 1288 1289 1290 1291 1292 1293 1294 1295 1296 1297 1298 1299 1300 1301 1302 1303 1304 1305 1306 1307 1308 1309 1310 1311 1312 1313 1314 1315 1316 1317 1318 1319 1320 1321 1322 1323 1324 1325 1326 1327 1328 1329 1330 1331 1332 1333 1334 1335 1336 1337 1338 1339 1340 1341 1342 1343 1344 1345 1346 1347 1348 1349 1350 1351 1352 1353 1354 1355 1356 1357 1358 1359 1360 1361 1362 1363 1364 1365 1366 1367 1368 1369 1370 1371 1372 1373 1374 1375 1376 1377 1378 1379 1380 1381 1382 1383 1384 1385 1386 1387 1388 1389 1390 1391 1392 1393 1394 1395 1396 1397 1398 1399 1400 1401 1402 1403 1404 1405 1406 1407 1408 1409 1410 1411 1412 1413 1414 1415 1416 1417 1418 1419 1420 1421 1422 1423 1424 1425 1426 1427 1428 1429 1430 1431 1432 1433 1434 1435 1436 1437 1438 1439 1440 1441 1442 1443 1444 1445 1446 1447 1448 1449 1450 1451 1452 1453 1454 1455 1456 1457 1458 1459 1460 1461 1462 1463 1464 1465 1466 1467 1468 1469 1470 1471 1472 1473 1474 1475 1476 1477 1478 1479 1480 1481 1482 1483 1484 1485 1486 1487 1488 1489 1490 1491 1492 1493 1494 1495 1496 1497 1498 1499 1500 1501 1502 1503 1504 1505 1506 1507 1508 1509 1510 1511 1512 1513 1514 1515 1516 1517 1518 1519 1520 1521 1522 1523 1524 1525 1526 1527 1528 1529 1530 1531 1532 1533 1534 1535 1536 1537 1538 1539 1540 1541 1542 1543 1544 1545 1546 1547 1548 1549 1550 1551 1552 1553 1554 1555 1556 1557 1558 1559 1560 1561 1562 1563 1564 1565 1566 1567 1568 1569 1570 1571 1572 1573 1574 1575 1576 1577 1578 1579 1580 1581 1582 1583 1584 1585 1586 1587 1588 1589 1590 1591 1592 1593 1594 1595 1596 1597 1598 1599 1600 1601 1602 1603 1604 1605 1606 1607 1608 1609 1610 1611 1612 1613 1614 1615 1616 1617 1618 1619 1620 1621 1622 1623 1624 1625 1626 1627 1628 1629 1630 1631 1632 1633 1634 1635 1636 1637 1638 1639 1640 1641 1642 1643 1644 1645 1646 1647 1648 1649 1650 1651 1652 1653 1654 1655 1656 1657 1658 1659 1660 1661 1662 1663 1664 1665 1666 1667 1668 1669 1670 1671 1672 1673 1674 1675 1676 1677 1678 1679 1680 1681 1682 1683 1684 1685 1686 1687 1688 1689 1690 1691 1692 1693 1694 1695 1696 1697 1698 1699 1700 1701 1702 1703 1704 1705 1706 1707 1708 1709 1710 1711 1712 1713 1714 1715 1716 1717 1718 1719 1720 1721 1722 1723 1724 1725 1726 1727 1728 1729 1730 1731 1732 1733 1734 1735 1736 1737 1738 1739 1740 1741 1742 1743 1744 1745 1746 1747 1748 1749 1750 1751 1752 1753 1754 1755 1756 1757 1758 1759 1760 1761 1762 1763 1764 1765 1766 1767 1768 1769 1770 1771 1772 1773 1774 1775 1776 1777 1778 1779 1780 1781 1782 1783 1784 1785 1786 1787 1788 1789 1790 1791 1792 1793 1794 1795 1796 1797 1798 1799 1800 1801 1802 1803 1804 1805 1806 1807 1808 1809 1810 1811 1812 1813 1814 1815 1816 1817 1818 1819 1820 1821 1822 1823 1824 1825 1826 1827 1828 1829 1830 1831 1832 1833 1834 1835 1836 1837 1838 1839 1840 1841 1842 1843 1844 1845 1846 1847 1848 1849 1850 1851 1852 1853 1854 1855 1856 1857 1858 1859 1860 1861 1862 1863 1864 1865 1866 1867 1868 1869 1870 1871 1872 1873 1874 1875 1876 1877 1878 1879 1880 1881 1882 1883 1884 1885 1886 1887 1888 1889 1890 1891 1892 1893 1894 1895 1896 1897 1898 1899 1900 1901 1902 1903 1904 1905 1906 1907 1908 1909 1910 1911 1912 1913 1914 1915 1916 1917 1918 1919 1920 1921 1922 1923 1924 1925 1926 1927 1928 1929 1930 1931 1932 1933 1934 1935 1936 1937 1938 1939 1940 1941 1942 1943 1944 1945 1946 1947 1948 1949 1950 1951 1952 1953 1954 1955 1956 1957 1958 1959 1960 1961 1962 1963 1964 1965 1966 1967 1968 1969 1970 1971 1972 1973 1974 1975 1976 1977 1978 1979 1980 1981 1982 1983 1984 1985 1986 1987 1988 1989 1990 1991 1992 1993 1994 1995 1996 1997 1998 1999 2000 2001 2002 2003 2004 2005 2006 2007 2008 2009 2010 2011 2012 2013 2014 2015 2016 2017 2018 2019 2020 2021 2022 2023 2024 2025 2026 2027 2028 2029 2030 2031 2032 2033 2034 2035 2036 2037 2038 2039 2040 2041 2042 2043 2044 2045 2046 2047 2048 2049 2050 2051 2052 2053 2054 2055 2056 2057 2058 2059 2060 2061 2062 2063 2064 2065 2066 2067 2068 2069 2070 2071 2072 2073 2074 2075 2076 2077 2078 2079 2080 2081 2082 2083 2084 2085 2086 2087 2088 2089 2090 2091 2092 2093 2094 2095 2096 2097 2098 2099 2100 2101 2102 2103 2104 2105 2106 2107 2108 2109 2110 2111 2112 2113 2114 2115 2116 2117 2118 2119 2120 2121 2122 2123 2124 2125 2126 2127 2128 2129 2130 2131 2132 2133 2134 2135 2136 2137 2138 2139 2140 2141 2142 2143 2144 2145 2146 2147 2148 2149 2150 2151 2152 2153 2154 2155 2156 2157 2158 2159 2160 2161 2162 2163 2164 2165 2166 2167 2168 2169 2170 2171 2172 2173 2174 2175 2176 2177 2178 2179 2180 2181 2182 2183 2184 2185 2186 2187 2188 2189 2190 2191 2192 2193 2194 2195 2196 2197 2198 2199 2200 2201 2202 2203 2204 2205 2206 2207 2208 2209 2210 2211 2212 2213 2214 2215 2216 2217 2218 2219 2220 2221 2222 2223 2224 2225 2226 2227 2228 2229 2230 2231 2232 2233 2234 2235 2236 2237 2238 2239 2240 2241 2242 2243 2244 2245 2246 2247 2248 2249 2250 2251 2252 2253 2254 2255 2256 2257 2258 2259 2260 2261 2262 2263 2264 2265 2266 2267 2268 2269 2270 2271 2272 2273 2274 2275 2276 2277 2278 2279 2280 2281 2282 2283 2284 2285 2286 2287 2288 2289 2290 2291 2292 2293 2294 2295 2296 2297 2298 2299 2300 2301 2302 2303 2304 2305 2306 2307 2308 2309 2310 2311 2312 2313 2314 2315 2316 2317 2318 2319 2320 2321 2322 2323 2324 2325 2326 2327 2328 2329 2330 2331 2332 2333 2334 2335 2336 2337 2338 2339 2340 2341 2342 2343 2344 2345 2346 2347 2348 2349 2350 2351 2352 2353 2354 2355 2356 2357 2358 2359 2360 2361 2362 2363 2364 2365 2366 2367 2368 2369 2370 2371 2372 2373 2374 2375 2376 2377 2378 2379 2380 2381 2382 2383 2384 2385 2386 2387 2388 2389 2390 2391 2392 2393 2394 2395 2396 2397 2398 2399 2400 2401 2402 2403 2404 2405 2406 2407 2408 2409 2410 2411 2412 2413 2414 2415 2416 2417 2418 2419 2420 2421 2422 2423 2424 2425 2426 2427 2428 2429 2430 2431 2432 2433 2434 2435 2436 2437 2438 2439 2440 2441 2442 2443 2444 2445 2446 2447 2448 2449 2450 2451 2452 2453 2454 2455 2456 2457 2458 2459 2460 2461 2462 2463 2464 2465 2466 2467 2468 2469 2470 2471 2472 2473 2474 2475 2476 2477 2478 2479 2480 2481 2482 2483 2484 2485 2486 2487 2488 2489 2490 2491 2492 2493 2494 2495 2496 2497 2498 2499 2500 2501 2502 2503 2504 2505 2506 2507 2508 2509 2510 2511 2512 2513 2514 2515 2516 2517 2518 2519 2520 2521 2522 2523 2524 2525 2526 2527 2528 2529 2530 2531 2532 2533 2534 2535 2536 2537 2538 2539 2540 2541 2542 2543 2544 2545 2546 2547 2548 2549 2550 2551 2552 2553 2554 2555 2556 2557 2558 2559 2560 2561 2562 2563 2564 2565 2566 2567 2568 2569 2570 2571 2572 2573 2574 2575 2576 2577 2578 2579 2580 2581 2582 2583 2584 2585 2586 2587 2588 2589 2590 2591 2592 2593 2594 2595 2596 2597 2598 2599 2600 2601 2602 2603 2604 2605 2606 2607 2608 2609 2610 2611 2612 2613 2614 2615 2616 2617 2618 2619 2620 2621 2622 2623 2624 2625 2626 2627 2628 2629 2630 2631 2632 2633 2634 2635 2636 2637 2638 2639 2640 2641 2642 2643 2644 2645 2646 2647 2648 2649 2650 2651 2652 2653 2654 2655 2656 2657 2658 2659 2660 2661 2662 2663 2664 2665 2666 2667 2668 2669 2670 2671 2672 2673 2674 2675 2676 2677 2678 2679 2680 2681 2682 2683 2684 2685 2686 2687 2688 2689 2690 2691 2692 2693 2694 2695 2696 2697 2698 2699 2700 2701 2702 2703 2704 2705 2706 2707 2708 2709 2710 2711 2712 2713 2714 2715 2716 2717 2718 2719 2720 2721 2722 2723 2724 2725 2726 2727 2728 2729 2730 2731 2732 2733 2734 2735 2736 2737 2738 2739 2740 2741 2742 2743 2744 2745 2746 2747 2748 2749 2750 2751 2752 2753 2754 2755 2756 2757 2758 2759 2760 2761 2762 2763 2764 2765 2766 2767 2768 2769 2770 2771 2772 2773 2774 2775 2776 2777 2778 2779 2780 2781 2782 2783 2784 2785 2786 2787 2788 2789 2790 2791 2792 2793 2794 2795 2796 2797 2798 2799 2800 2801 2802 2803 2804 2805 2806 2807 2808 2809 2810 2811 2812 2813 2814 2815 2816 2817 2818 2819 2820 2821 2822 2823 2824 2825 2826 2827 2828 2829 2830 2831 2832 2833 2834 2835 2836 2837 2838 2839 2840 2841 2842 2843 2844 2845 2846 2847 2848 2849 2850 2851 2852 2853 2854 2855 2856 2857 2858 2859 2860 2861 2862 2863 2864 2865 2866 2867 2868 2869 2870 2871 2872 2873 2874 2875 
</DataArray>
<DataArray type="UInt32" Name="offsets" format="ascii">
4 8 12 16 20 24 28 32 36 40 44 48 52 56 60 64 68 72 76 80 84 88 92 96 100 104 108 112 116 120 124 128 132 136 140 144 148 152 156 160 164 168 172 176 180 184 188 192 196 200 204 208 212 216 220 224 228 232 236 240 244 248 252 256 260 264 268 272 276 280 284 288 292 296 300 304 308 312 316 320 324 328 332 336 340 344 348 352 356 360 364 368 372 376 380 384 388 392 396 400 404 408 412 416 420 424 428 432 436 440 444 448 452 456 460 464 468 472 476 480 484 488 492 496 500 504 508 512 516 520 524 528 532 536 540 544 548 552 556 560 564 568 572 576 580 584 588 592 596 600 604 608 612 616 620 624 628 632 636 640 644 648 652 656 660 664 668 672 676 680 684 688 692 696 700 704 708 712 716 720 724 728 732 736 740 744 748 752 756 760 764 768 772 776 780 784 788 792 796 800 804 808 812 816 820 824 828 832 836 840 844 848 852 856 860 864 868 872 876 880 884 888 892 896 900 904 908 912 916 920 924 928 932 936 940 944 948 952 956 960 964 968 972 976 980 984 988 992 996 1000 1004 1008 1012 1016 1020 1024 1028 1032 1036 1040 1044 1048 1052 1056 1060 1064 1068 1072 1076 1080 1084 1088 1092 1096 1100 1104 1108 1112 1116 1120 1124 1128 1132 1136 1140 1144 1148 1152 1156 1160 1164 1168 1172 1176 1180 1184 1188 1192 1196 1200 1204 1208 1212 1216 1220 1224 1228 1232 1236 1240 1244 1248 1252 1256 1260 1264 1268 1272 1276 1280 1284 1288 1292 1296 1300 1304 1308 1312 1316 1320 1324 1328 1332 1336 1340 1344 1348 1352 1356 1360 1364 1368 1372 1376 1380 1384 1388 1392 1396 1400 1404 1408 1412 1416 1420 1424 1428 1432 1436 1440 1444 1448 1452 1456 1460 1464 1468 1472 1476 1480 1484 1488 1492 1496 1500 1504 1508 1512 1516 1520 1524 1528 1532 1536 1540 1544 1548 1552 1556 1560 1564 1568 1572 1576 1580 1584 1588 1592 1596 1600 1604 1608 1612 1616 1620 1624 1628 1632 1636 1640 1644 1648 1652 1656 1660 1664 1668 1672 1676 1680 1684 1688 1692 1696 1700 1704 1708 1712 1716 1720 1724 1728 1732 1736 1740 1744 1748 1752 1756 1760 1764 1768 1772 1776 1780 1784 1788 1792 1796 1800 1804 1808 1812 1816 1820 1824 1828 1832 1836 1840 1844 1848 1852 1856 1860 1864 1868 1872 1876 1880 1884 1888 1892 1896 1900 1904 1908 1912 1916 1920 1924 1928 1932 1936 1940 1944 1948 1952 1956 1960 1964 1968 1972 1976 1980 1984 1988 1992 1996 2000 2004 2008 2012 2016 2020 2024 2028 2032 2036 2040 2044 2048 2052 2056 2060 2064 2068 2072 2076 2080 2084 2088 2092 2096 2100 2104 2108 2112 2116 2120 2124 2128 2132 2136 2140 2144 2148 2152 2156 2160 2164 2168 2172 2176 2180 2184 2188 2192 2196 2200 2204 2208 2212 2216 2220 2224 2228 2232 2236 2240 2244 2248 2252 2256 2260 2264 2268 2272 2276 2280 2284 2288 2292 2296 2300 2304 2308 2312 2316 2320 2324 2328 2332 2336 2340 2344 2348 2352 2356 2360 2364 2368 2372 2376 2380 2384 2388 2392 2396 2400 2404 2408 2412 2416 2420 2424 2428 2432 2436 2440 2444 2448 2452 2456 2460 2464 2468 2472 2476 2480 2484 2488 2492 2496 2500 2504 2508 2512 2516 2520 2524 2528 2532 2536 2540 2544 2548 2552 2556 2560 2564 2568 2572 2576 2580 2584 2588 2592 2596 2600 2604 2608 2612 2616 2620 2624 2628 2632 2636 2640 2644 2648 2652 2656 2660 2664 2668 2672 2676 2680 2684 2688 2692 2696 2700 2704 2708 2712 2716 2720 2724 2728 2732 2736 2740 2744 2748 2752 2756 2760 2764 2768 2772 2776 2780 2784 2788 2792 2796 2800 2804 2808 2812 2816 2820 2824 2828 2832 2836 2840 2844 2848 2852 2856 2860 2864 2868 2872 2876 
</DataArray>
<DataArray type="UInt32" Name="types" format="ascii">
10 10 10 10 10 10 10 10 10 10 10 10 10 10 10 10 10 10 10 10 10 10 10 10 10 10 10 10 10 10 10 10 10 10 10 10 10 10 10 10 10 10 10 10 10 10 10 10 10 10 10 10 10 10 10 10 10 10 10 10 10 10 10 10 10 10 10 10 10 10 10 10 10 10 10 10 10 10 10 10 10 10 10 10 10 10 10 10 10 10 10 10 10 10 10 10 10 10 10 10 10 10 10 10 10 10 10 10 10 10 10 10 10 10 10 10 10 10 10 10 10 10 10 10 10 10 10 10 10 10 10 10 10 10 10 10 10 10 10 10 10 10 10 10 10 10 10 10 10 10 10 10 10 10 10 10 10 10 10 10 10 10 10 10 10 10 10 10 10 10 10 10 10 10 10 10 10 10 10 10 10 10 10 10 10 10 10 10 10 10 10 10 10 10 10 10 10 10 10 10 10 10 10 10 10 10 10 10 10 10 10 10 10 10 10 10 10 10 10 10 10 10 10 10 10 10 10 10 10 10 10 10 10 10 10 10 10 10 10 10 10 10 10 10 10 10 10 10 10 10 10 10 10 10 10 10 10 10 10 10 10 10 10 10 10 10 10 10 10 10 10 10 10 10 10 10 10 10 10 10 10 10 10 10 10 10 10 10 10 10 10 10 10 10 10 10 10 10 10 10 10 10 10 10 10 10 10 10 10 10 10 10 10 10 10 10 10 10 10 10 10 10 10 10 10 10 10 10 10 10 10 10 10 10 10 10 10 10 10 10 10 10 10 10 10 10 10 10 10 10 10 10 10 10 10 10 10 10 10 10 10 10 10 10 10 10 10 10 10 10 10 10 10 10 10 10 10 10 10 10 10 10 10 10 10 10 10 10 10 10 10 10 10 10 10 10 10 10 10 10 10 10 10 10 10 10 10 10 10 10 10 10 10 10 10 10 10 10 10 10 10 10 10 10 10 10 10 10 10 10 10 10 10 10 10 10 10 10 10 10 10 10 10 10 10 10 10 10 10 10 10 10 10 10 10 10 10 10 10 10 10 10 10 10 10 10 10 10 10 10 10 10 10 10 10 10 10 10 10 10 10 10 10 10 10 10 10 10 10 10 10 10 10 10 10 10 10 10 10 10 10 10 10 10 10 10 10 10 10 10 10 10 10 10 10 10 10 10 10 10 10 10 10 10 10 10 10 10 10 10 10 10 10 10 10 10 10 10 10 10 10 10 10 10 10 10 10 10 10 10 10 10 10 10 10 10 10 10 10 10 10 10 10 10 10 10 10 10 10 10 10 10 10 10 10 10 10 10 10 10 10 10 10 10 10 10 10 10 10 10 10 10 10 10 10 10 10 10 10 10 10 10 10 10 10 10 10 10 10 10 10 10 10 10 10 10 10 10 10 10 10 10 10 10 10 10 10 10 10 10 10 10 10 10 10 10 10 10 10 10 10 10 10 10 10 10 10 10 10 10 10 10 10 10 10 10 10 10 10 10 10 10 10 10 10 10 10 10 10 10 10 10 10 10 10 10 10 10 10 10 10 10 10 10 10 10 10 10 10 10 10 10 10 10 10 10 10 10 10 10 10 10 10 10 10 10 10 10 10 10 10 10 10 10 10 10 10 10 10 
</DataArray>
</Cells>
<PointData Scalars="" Vectors="displacement," Tensors="">
<DataArray type="Float64" Name="displacement" NumberOfComponents="3" format="ascii">
0.07603350503055728 -1.5020742470355816e-06 -1.362167414931429e-05 0.040723672169045141 -1.2014543240943236e-06 -1.3119930211425365e-05 0.035218524278040945 -1.8671903372234389e-06 -1.0485538065893648e-05 0.075189139154208426 -1.1834096953444717e-06 -0.29993653427540068 -8.9167816668415582e-10 -2.3373862879458565e-06 -1.3085440533388325e-05 -1.0585082435969049e-09 -2.8155620949191833e-06 -1.4124991663176697e-05 0.035218524278040945 -1.8671903372234389e-06 -1.0485538065888322e-05 -1.0615019308033105e-09 -1.9075898887007532e-06 -0.14048851973030155 -1.0585082435969049e-09 -2.8155620949191833e-06 -1.412499166316533e-05 0.048107965499837507 -3.0752471831418085e-06 -1.4868615985504341e-05 0.035218524278040945 -1.8671903372234389e-06 -1.0485538065888322e-05 0.035218912955769913 -2.0591825183987073e-06 -0.14049212301545005 -1.0615019308033105e-09 -1.9075898887007532e-06 -0.14048851973030155 -1.1998367534923701e-09 -2.6824940473640042e-06 -0.19190920942911696 -1.0585082435969049e-09 -2.8155620949191833e-06 -1.412499166316533e-05 0.035218912955769913 -2.0591825183987073e-06 -0.14049212301545005 -1.0615019308033105e-09 -1.9075898887007532e-06 -0.14048851973030155 -1.2288687095659001e-09 -6.673952652365253e-07 -0.16245004895065449 -1.0024928103195856e-09 -1.897569792832911e-06 -0.30330960795092232 0.075189139154208454 -1.183409695344471e-06 -0.29993653427540057 0.075957039742077029 -2.7756116869924333e-06 -0.17899241502295574 0.035218912955769906 -2.0591825183987073e-06 -0.14049212301545003 0.040746488426989011 -2.6048088285863788e-06 -0.28797020857931688 0.075189139154208426 -1.1834096953444717e-06 -0.29993653427540068 -1.0615019308033105e-09 -1.9075898887007532e-06 -0.14048851973030155 -1.0585082464470446e-09 -2.8155620949191829e-06 -1.4124991663159645e-05 0.035218524278040945 -1.8671903372234389e-06 -1.0485538065888322e-05 0.035218912955769913 -2.0591825183987073e-06 -0.14049212301545005 0.035218524278040945 -1.8671903372234389e-06 -1.0485538065888322e-05 0.035218912955769906 -2.0591825183987073e-06 -0.14049212301545008 0.075957039742077029 -2.7756116869924333e-06 -0.17899241502295574 0.075189139154208426 -1.1834096953444717e-06 -0.29993653427540068 0.035218524278040945 -1.8671903372234389e-06 -1.0485538065888322e-05 -1.228868708205499e-09 -6.6739526523652478e-07 -0.16245004895065446 -1.061501928080149e-09 -1.9075898887007537e-06 -0.14048851973030155 0.075189139154208426 -1.1834096953444717e-06 -0.29993653427540068 0.035218524278040945 -1.8671903372234389e-06 -1.0485538065888322e-05 -1.0615019304810597e-09 -1.9075898887007528e-06 -0.14048851973030152 0.035218912955769913 -2.0591825183987073e-06 -0.14049212301545005 0.075189139154208426 -1.1834096953444717e-06 -0.29993653427540068 -1.0615019308033105e-09 -1.9075898887007532e-06 -0.14048851973030155 0.040746488426989018 -2.6048088285863788e-06 -0.28797020857931688 0.035218912955769913 -2.0591825183987073e-06 -0.14049212301545005 0.07518913915420844 -1.1834096953444717e-06 -0.29993653427540073 0.035218912955769913 -2.0591825183987073e-06 -0.14049212301545005 -1.0615019303321877e-09 -1.9075898887007532e-06 -0.14048851973030155 -1.19983675842893e-09 -2.6824940473640042e-06 -0.19190920942911696 0.040746488426989011 -2.6048088285863788e-06 -0.28797020857931688 -1.0024928103195856e-09 -1.897569792832911e-06 -0.30330960795092232 -1.19983675842893e-09 -2.6824940473640042e-06 -0.19190920942911696 -1.0615019308033105e-09 -1.9075898887007532e-06 -0.14048851973030155 0.040746488426989011 -2.6048088285863788e-06 -0.28797020857931688 -1.0615019308033105e-09 -1.9075898887007532e-06 -0.14048851973030155 0.035218524278040945 -1.8671903372234389e-06 -1.0485538065888322e-05 -8.9167816668415582e-10 -2.3373862879458565e-06 -1.3085440533387414e-05 -1.2288687095659001e-09 -6.673952652365253e-07 -0.16245004895065449 -1.2288687095659001e-09 -6.673952652365253e-07 -0.16245004895065449 0.035218524278040952 -1.8671903372234385e-06 -1.0485538065928771e-05 -8.9167816668415582e-10 -2.3373862879458565e-06 -1.3085440533388325e-05 0.040723672169045141 -1.2014543240943236e-06 -1.3119930211425365e-05 0.048107965499837507 -3.0752471831418085e-06 -1.4868615985504341e-05 0.035218524278040939 -1.8671903372234389e-06 -1.0485538065903956e-05 0.075957039742077029 -2.7756116869924333e-06 -0.17899241502295574 0.07603350503055728 -1.5020742470355816e-06 -1.362167414931429e-05 0.048107965499837507 -3.0752471831418085e-06 -1.4868615985504341e-05 0.035218524278040952 -1.8671903372234389e-06 -1.048553806588819e-05 0.035218912955769906 -2.0591825183987069e-06 -0.14049212301545005 0.075957039742077029 -2.7756116869924333e-06 -0.17899241502295574 0.075957039742077029 -2.7756116869924333e-06 -0.17899241502295574 0.096206201768301747 -2.8186582045943349e-06 -1.7603719656477694e-05 0.048107965499837507 -3.0752471831418085e-06 -1.4868615985513122e-05 0.07603350503055728 -1.5020742470355816e-06 -1.362167414931429e-05 0.075957039742077029 -2.7756116869924333e-06 -0.17899241502295574 0.07603350503055728 -1.5020742470355818e-06 -1.3621674149314972e-05 0.035218524278040932 -1.8671903372234387e-06 -1.0485538065897221e-05 0.075189139154208412 -1.1834096953444715e-06 -0.29993653427540068 0.07603350503055728 -1.5020742470355816e-06 -1.362167414931429e-05 0.075189139154208412 -1.1834096953444715e-06 -0.29993653427540062 0.075957039742077015 -2.7756116869924333e-06 -0.17899241502295576 0.12035018772073344 -1.9623884732523163e-06 -0.21672853437758141 0.07603350503055728 -1.5020742470355816e-06 -1.362167414931429e-05 0.1187865141207408 -2.6104102490082427e-06 -0.12704057337776639 0.12257319995525773 -1.2460730624133567e-06 -1.2742194501888053e-05 0.12035018772073341 -1.9623884732523159e-06 -0.21672853437758144 0.07603350503055728 -1.5020742470355816e-06 -1.362167414931429e-05 0.12257319995525773 -1.2460730624133569e-06 -1.2742194501917537e-05 0.11018152496384688 -7.0552829818142282e-07 -1.0992816152599633e-05 0.12035018772073341 -1.9623884732523163e-06 -0.21672853437758147 0.11878651412074082 -2.6104102490082432e-06 -0.12704057337776647 0.096206201768301747 -2.8186582045943349e-06 -1.7603719656477694e-05 0.076033505030557294 -1.502074247035582e-06 -1.3621674149252195e-05 0.12257319995525773 -1.2460730624133567e-06 -1.2742194501888053e-05 0.11878651412074082 -2.6104102490082432e-06 -0.12704057337776647 0.096206201768301747 -2.8186582045943349e-06 -1.7603719656477694e-05 0.075957039742077029 -2.7756116869924333e-06 -0.17899241502295574 0.076033505030557294 -1.5020742470355824e-06 -1.3621674149297096e-05 0.075957039742077029 -2.7756116869924333e-06 -0.17899241502295574 0.11469535803228782 -3.1959166965980419e-06 -0.30459493069205018 0.11878651412074082 -2.6104102490082432e-06 -0.12704057337776647 0.12035018772073341 -1.9623884732523163e-06 -0.21672853437758141 0.07603350503055728 -1.5020742470355816e-06 -1.362167414931429e-05 0.075957039742077029 -2.7756116869924333e-06 -0.17899241502295571 0.1187865141207408 -2.6104102490082427e-06 -0.12704057337776653 0.12035018772073341 -1.9623884732523159e-06 -0.21672853437758147 0.074651366041088033 -2.2287346985312936e-06 -0.51987852401475998 0.12044642025863007 -1.5065454476153225e-06 -0.50750519074442002 0.077327373153117315 -2.4065831951879698e-06 -0.37171526931105059 0.053140987265460002 -1.7739613827950967e-06 -0.47980739627909252 0.077327373153117315 -2.4065831951879698e-06 -0.37171526931105059 0.075189139154208426 -1.1834096953444717e-06 -0.29993653427540068 0.040746488426989011 -2.6048088285863788e-06 -0.28797020857931688 0.053140987265459995 -1.7739613827950969e-06 -0.47980739627909252 0.077327373153117315 -2.4065831951879698e-06 -0.37171526931105059 0.12044642025863006 -1.5065454476153223e-06 -0.50750519074442002 0.07518913915420844 -1.1834096953444717e-06 -0.29993653427540068 0.053140987265460002 -1.7739613827950971e-06 -0.47980739627909258 0.077327373153117315 -2.4065831951879698e-06 -0.37171526931105059 0.12044642025863007 -1.5065454476153225e-06 -0.5075051907444198 0.11469535803228784 -3.1959166965980423e-06 -0.30459493069205024 0.12035018772073341 -1.9623884732523163e-06 -0.21672853437758141 0.077327373153117315 -2.4065831951879698e-06 -0.37171526931105059 0.07518913915420844 -1.1834096953444721e-06 -0.29993653427540062 0.12044642025863007 -1.5065454476153225e-06 -0.50750519074442002 0.12035018772073339 -1.9623884732523163e-06 -0.21672853437758144 0.077327373153117315 -2.4065831951879698e-06 -0.37171526931105059 0.075957039742077015 -2.7756116869924333e-06 -0.17899241502295574 0.040746488426989011 -2.6048088285863788e-06 -0.28797020857931688 0.075189139154208426 -1.1834096953444717e-06 -0.29993653427540068 0.075957039742077029 -2.7756116869924333e-06 -0.17899241502295574 0.075189139154208426 -1.1834096953444717e-06 -0.29993653427540068 0.077327373153117315 -2.4065831951879698e-06 -0.37171526931105059 0.12035018772073341 -1.9623884732523163e-06 -0.21672853437758141 0.075957039742077029 -2.7756116869924333e-06 -0.17899241502295574 0.077327373153117315 -2.4065831951879698e-06 -0.37171526931105059 0.11469535803228784 -3.1959166965980427e-06 -0.30459493069205018 0.12035018772073341 -1.9623884732523163e-06 -0.21672853437758141 0.074651366041088033 -2.2287346985312936e-06 -0.51987852401475998 0.12026174963198892 -2.7620529649951924e-06 -0.46098330307536622 0.077327373153117315 -2.4065831951879698e-06 -0.37171526931105059 0.12044642025863007 -1.5065454476153227e-06 -0.50750519074442002 0.077327373153117315 -2.4065831951879698e-06 -0.37171526931105059 0.12026174963198892 -2.7620529649951924e-06 -0.46098330307536622 0.11469535803228782 -3.1959166965980419e-06 -0.30459493069205018 0.12044642025863007 -1.5065454476153225e-06 -0.50750519074442002 0.039385066421113724 -2.5963201494852044e-06 -0.4688800720676391 0.074651366041088033 -2.2287346985312936e-06 -0.51987852401475998 0.077327373153117315 -2.4065831951879698e-06 -0.37171526931105059 0.053140987265460002 -1.7739613827950969e-06 -0.47980739627909252 0.039385066421113724 -2.5963201494852044e-06 -0.4688800720676391 0.077327373153117315 -2.4065831951879698e-06 -0.37171526931105059 0.040746488426989011 -2.6048088285863788e-06 -0.28797020857931688 0.053140987265460002 -1.7739613827950969e-06 -0.47980739627909252 0.040746488426989011 -2.6048088285863788e-06 -0.28797020857931688 -1.0615019308033105e-09 -1.9075898887007532e-06 -0.14048851973030155 -1.0024928127744072e-09 -1.8975697928329112e-06 -0.30330960795092232 0.075189139154208426 -1.1834096953444715e-06 -0.29993653427540062 -1.0024928103195856e-09 -1.897569792832911e-06 -0.30330960795092232 0.039385066421113717 -2.5963201494852044e-06 -0.46888007206763915 0.040746488426989011 -2.6048088285863788e-06 -0.28797020857931688 0.053140987265460016 -1.7739613827950967e-06 -0.47980739627909252 -1.0024928103195856e-09 -1.897569792832911e-06 -0.30330960795092232 0.040746488426989004 -2.6048088285863788e-06 -0.28797020857931688 0.075189139154208426 -1.1834096953444715e-06 -0.29993653427540068 0.053140987265459995 -1.7739613827950967e-06 -0.47980739627909258 -8.5744619461072868e-10 -3.1269613776238735e-06 -0.38380384306399423 2.2135776358894007e-10 -3.5220492730364705e-06 -0.57569391151396621 0.039385066421113724 -2.5963201494852044e-06 -0.4688800720676391 -1.0054164377419168e-09 -2.4906252221006061e-06 -0.48902333435718426 -8.5744619461072868e-10 -3.1269613776238735e-06 -0.38380384306399423 -1.0024928103195856e-09 -1.897569792832911e-06 -0.30330960795092232 0.039385066421113724 -2.5963201494852044e-06 -0.4688800720676391 0.040746488426989011 -2.6048088285863788e-06 -0.28797020857931688 0.039385066421113724 -2.5963201494852044e-06 -0.4688800720676391 -1.0024928070371847e-09 -1.8975697928329107e-06 -0.30330960795092227 -8.5744619451482825e-10 -3.1269613776238735e-06 -0.38380384306399423 -1.0054164377419168e-09 -2.4906252221006061e-06 -0.48902333435718426 -1.0024928103195856e-09 -1.897569792832911e-06 -0.30330960795092232 -8.574461872168751e-10 -3.1269613776238735e-06 -0.38380384306399423 -1.19983675842893e-09 -2.6824940473640042e-06 -0.19190920942911696 0.040746488426989011 -2.6048088285863788e-06 -0.28797020857931688 -1.0024928103195856e-09 -1.897569792832911e-06 -0.30330960795092232 -1.0054164377419168e-09 -2.4906252221006061e-06 -0.48902333435718426 0.039385066421113724 -2.5963201494852044e-06 -0.4688800720676391 0.053140987265460016 -1.7739613827950967e-06 -0.47980739627909252 -1.0024928103195856e-09 -1.897569792832911e-06 -0.30330960795092232 -1.5932255096615904e-11 -9.5440989105222436e-07 -0.43956856825544632 -1.0054164358525424e-09 -2.4906252221006061e-06 -0.48902333435718426 0.053140987265460016 -1.7739613827950969e-06 -0.47980739627909252 -1.2288687095659001e-09 -6.673952652365253e-07 -0.16245004895065449 -1.0701917255291275e-09 -5.1904675203113587e-07 -0.31592222890941224 -1.0024928103195856e-09 -1.897569792832911e-06 -0.30330960795092232 0.075189139154208426 -1.1834096953444717e-06 -0.29993653427540068 -1.5932256409061683e-11 -9.5440989105222414e-07 -0.43956856825544638 0.07518913915420844 -1.1834096953444717e-06 -0.29993653427540057 0.059587680604482364 3.0950025909493328e-07 -0.43273447765553735 0.053140987265460002 -1.7739613827950969e-06 -0.47980739627909252 -1.0024928103195856e-09 -1.897569792832911e-06 -0.30330960795092232 -1.0701917228591748e-09 -5.1904675203113577e-07 -0.31592222890941224 -1.5932256575933737e-11 -9.5440989105222414e-07 -0.43956856825544638 0.075189139154208426 -1.1834096953444717e-06 -0.29993653427540068 -1.0701917255291275e-09 -5.1904675203113587e-07 -0.31592222890941224 0.059587680604482371 3.0950025909493328e-07 -0.43273447765553741 0.075189139154208426 -1.1834096953444717e-06 -0.29993653427540062 0.053753088668746105 2.7736285078225917e-08 -0.21442341921659941 -1.5932256409061683e-11 -9.5440989105222414e-07 -0.43956856825544638 0.075189139154208426 -1.1834096953444721e-06 -0.29993653427540062 -1.0701917255291275e-09 -5.1904675203113587e-07 -0.31592222890941224 0.059587680604482364 3.0950025909493328e-07 -0.43273447765553735 -1.2288687095659001e-09 -6.673952652365253e-07 -0.16245004895065449 -1.0701917255291275e-09 -5.1904675203113587e-07 -0.31592222890941224 0.075189139154208412 -1.1834096953444719e-06 -0.29993653427540073 0.053753088668746091 2.7736285078225619e-08 -0.21442341921659952 -1.0024928103195856e-09 -1.897569792832911e-06 -0.30330960795092232 0.075189139154208426 -1.1834096953444717e-06 -0.29993653427540073 -1.593225703020716e-11 -9.5440989105222414e-07 -0.43956856825544638 0.053140987265460016 -1.7739613827950973e-06 -0.47980739627909258 -1.5932256409061683e-11 -9.5440989105222414e-07 -0.43956856825544638 -1.0701917273843054e-09 -5.1904675203113587e-07 -0.31592222890941224 -1.4729826745547533e-09 5.156153184649606e-07 -0.49856368622132596 0.059587680604482364 3.0950025909493328e-07 -0.43273447765553735 0.12026670288652995 9.315298780400319e-08 -0.47980604989802267 0.12044642025863007 -1.5065454476153223e-06 -0.50750519074442013 0.075189139154208384 -1.1834096953444717e-06 -0.29993653427540057 0.12035050998714179 -1.918077349586472e-07 -0.2395551226916888 0.059587680604482364 3.0950025909493328e-07 -0.43273447765553735 0.12035050998714178 -1.9180773495864754e-07 -0.23955512269168885 0.075189139154208426 -1.1834096953444715e-06 -0.29993653427540062 0.053753088668746105 2.7736285078226063e-08 -0.21442341921659946 0.075189139154208426 -1.1834096953444717e-06 -0.29993653427540068 0.12035050998714179 -1.9180773495864712e-07 -0.23955512269168883 0.12044642025863007 -1.5065454476153227e-06 -0.50750519074441991 0.12035018772073341 -1.9623884732523163e-06 -0.21672853437758144 0.12026670288652995 9.315298780400319e-08 -0.47980604989802267 0.059587680604482364 3.0950025909493328e-07 -0.43273447765553735 0.075189139154208454 -1.1834096953444719e-06 -0.29993653427540057 0.12044642025863007 -1.5065454476153225e-06 -0.50750519074442002 0.075189139154208426 -1.1834096953444717e-06 -0.29993653427540068 0.059587680604482364 3.0950025909493328e-07 -0.43273447765553735 0.12026670288652995 9.3152987804002992e-08 -0.47980604989802278 0.12035050998714179 -1.9180773495864715e-07 -0.23955512269168885 0.075189139154208426 -1.1834096953444717e-06 -0.29993653427540068 0.12044642025863007 -1.5065454476153225e-06 -0.50750519074442002 0.059587680604482364 3.0950025909493339e-07 -0.43273447765553735 0.053140987265460002 -1.7739613827950969e-06 -0.47980739627909252 0.079194745629442731 -1.0928903475720111e-06 -1.5132250432627677e-05 0.075189139154208412 -1.1834096953444719e-06 -0.29993653427540068 0.11018152496384688 -7.0552829818142272e-07 -1.0992816152601416e-05 0.12035050998714179 -1.9180773495864715e-07 -0.23955512269168885 0.079194745629442731 -1.0928903475720111e-06 -1.5132250432627677e-05 0.12035050998714179 -1.9180773495864715e-07 -0.23955512269168885 0.078043759485109943 5.1399815959347222e-07 -1.5870357429256401e-05 0.053753088668746105 2.7736285078226063e-08 -0.21442341921659946 0.11018152496384688 -7.0552829818142282e-07 -1.0992816152599633e-05 0.12035050998714179 -1.9180773495864715e-07 -0.23955512269168885 0.075189139154208426 -1.183409695344471e-06 -0.29993653427540068 0.12035018772073344 -1.9623884732523163e-06 -0.21672853437758141 0.11018152496384688 -7.0552829818142282e-07 -1.0992816152599633e-05 0.079194745629442731 -1.0928903475720111e-06 -1.5132250432627677e-05 0.07603350503055728 -1.5020742470355816e-06 -1.362167414931429e-05 0.075189139154208426 -1.1834096953444717e-06 -0.29993653427540068 0.040723672169045141 -1.2014543240943236e-06 -1.3119930211425365e-05 0.075189139154208412 -1.1834096953444717e-06 -0.29993653427540068 0.079194745629442731 -1.0928903475720111e-06 -1.5132250432627677e-05 0.053753088668746105 2.7736285078226063e-08 -0.21442341921659946 0.07603350503055728 -1.5020742470355816e-06 -1.362167414931429e-05 0.11018152496384688 -7.0552829818142282e-07 -1.0992816152599633e-05 0.075189139154208412 -1.1834096953444715e-06 -0.29993653427540068 0.12035018772073341 -1.9623884732523168e-06 -0.21672853437758141 0.079194745629442731 -1.0928903475720111e-06 -1.5132250432627677e-05 0.07518913915420844 -1.1834096953444727e-06 -0.29993653427540068 0.12035050998714179 -1.9180773495864715e-07 -0.23955512269168885 0.053753088668746118 2.7736285078226533e-08 -0.21442341921659946 0.079194745629442731 -1.0928903475720111e-06 -1.5132250432627677e-05 0.040723672169045141 -1.2014543240943236e-06 -1.3119930211421555e-05 0.07603350503055728 -1.5020742470355816e-06 -1.362167414931429e-05 0.075189139154208412 -1.1834096953444715e-06 -0.29993653427540073 0.078043759485109943 5.1399815959347222e-07 -1.5870357429256401e-05 0.079194745629442731 -1.0928903475720111e-06 -1.5132250432627677e-05 0.12496587880891402 1.4000924419407937e-07 -1.4051268006822842e-05 0.12035050998714179 -1.9180773495864715e-07 -0.23955512269168885 0.12496587880891402 1.4000924419407937e-07 -1.4051268006822842e-05 0.079194745629442731 -1.0928903475720111e-06 -1.5132250432627677e-05 0.11018152496384688 -7.0552829818142282e-07 -1.0992816152599633e-05 0.12035050998714179 -1.9180773495864715e-07 -0.23955512269168885 -1.2288687095659001e-09 -6.673952652365253e-07 -0.16245004895065449 0.035218524278040945 -1.8671903372234389e-06 -1.0485538065888322e-05 0.040723672169045141 -1.2014543240943236e-06 -1.3119930211423022e-05 0.075189139154208426 -1.1834096953444717e-06 -0.29993653427540068 -1.2288687095659001e-09 -6.673952652365253e-07 -0.16245004895065449 0.075189139154208412 -1.1834096953444723e-06 -0.29993653427540068 0.040723672169045141 -1.2014543240943236e-06 -1.3119930211416578e-05 0.053753088668746098 2.7736285078226053e-08 -0.21442341921659946 0.041437026784842963 -1.0093740738591354e-07 -1.4298972176152524e-05 -1.4488453509469049e-09 -1.3037304816255432e-08 -0.16529613786558214 0.040723672169045141 -1.2014543240943236e-06 -1.3119930211425365e-05 0.053753088668746105 2.7736285078226063e-08 -0.21442341921659946 0.041437026784842963 -1.0093740738591354e-07 -1.4298972176152524e-05 0.040723672169045141 -1.2014543240943236e-06 -1.3119930211425365e-05 0.079194745629442731 -1.0928903475720111e-06 -1.5132250432627677e-05 0.053753088668746105 2.7736285078226063e-08 -0.21442341921659946 -1.2288687095659001e-09 -6.673952652365253e-07 -0.16245004895065449 -8.9167816668415582e-10 -2.3373862879458565e-06 -1.3085440533388325e-05 -1.1115802751613067e-09 -1.0514459369354685e-06 -1.6701964356090993e-05 0.040723672169045141 -1.2014543240943236e-06 -1.3119930211425365e-05 -1.2288687095659001e-09 -6.673952652365253e-07 -0.16245004895065449 -1.1115802751613067e-09 -1.0514459369354685e-06 -1.6701964356090993e-05 -1.4488453534116851e-09 -1.303730481625542e-08 -0.16529613786558214 0.040723672169045141 -1.2014543240943236e-06 -1.3119930211425365e-05 -1.2288687095659001e-09 -6.673952652365253e-07 -0.16245004895065449 0.040723672169045141 -1.2014543240943236e-06 -1.3119930211425365e-05 -1.4488453509469049e-09 -1.3037304816255432e-08 -0.16529613786558214 0.053753088668746091 2.7736285078225973e-08 -0.21442341921659941 -1.2288687095659001e-09 -6.673952652365253e-07 -0.16245004895065449 -1.4488453509469049e-09 -1.3037304816255432e-08 -0.16529613786558214 -1.0701917263547927e-09 -5.1904675203113587e-07 -0.31592222890941224 0.053753088668746091 2.7736285078226043e-08 -0.21442341921659949 -1.4488453509469049e-09 -1.3037304816255432e-08 -0.16529613786558214 -1.1115802775440954e-09 -1.0514459369354683e-06 -1.6701964356076813e-05 -1.0874470408075136e-09 9.0881622576621454e-07 -1.5591886211779417e-05 0.041437026784842963 -1.0093740738591354e-07 -1.4298972176152524e-05 0.040723672169045141 -1.2014543240943236e-06 -1.3119930211425365e-05 -1.1115802751613067e-09 -1.0514459369354685e-06 -1.6701964356090993e-05 -1.4488453509469049e-09 -1.3037304816255432e-08 -0.16529613786558214 0.041437026784842963 -1.0093740738591354e-07 -1.4298972176152524e-05 -1.0198135905109444e-09 8.5283534689740685e-07 -0.15253917404921921 -8.2812541769054573e-10 1.0949155303038673e-07 -0.31132864504451641 0.053753088668746112 2.7736285078225954e-08 -0.21442341921659941 0.046328771874810236 1.2051372802105741e-06 -0.18480333002018537 0.038238948678004529 8.079760689921868e-07 -1.30521609423008e-05 -1.0198135910862226e-09 8.5283534689740685e-07 -0.15253917404921921 0.053753088668746105 2.7736285078226053e-08 -0.21442341921659949 0.046328771874810236 1.2051372802105741e-06 -0.1848033300201854 -1.0198135905109444e-09 8.5283534689740685e-07 -0.15253917404921921 0.041437026784842963 -1.0093740738591354e-07 -1.4298972176152524e-05 -1.087447040608539e-09 9.0881622576621454e-07 -1.5591886211778624e-05 0.038238948678004529 8.079760689921868e-07 -1.30521609423008e-05 0.078043759485109943 5.1399815959347222e-07 -1.5870357429256401e-05 0.038238948678004529 8.079760689921868e-07 -1.30521609423008e-05 0.053753088668746112 2.7736285078226106e-08 -0.21442341921659949 0.046328771874810236 1.2051372802105743e-06 -0.1848033300201854 -1.0874470408075136e-09 9.0881622576621454e-07 -1.5591886211779417e-05 -1.4488453509469049e-09 -1.3037304816255432e-08 -0.16529613786558214 0.041437026784842963 -1.0093740738591355e-07 -1.4298972176158015e-05 -1.0198135905109444e-09 8.5283534689740685e-07 -0.15253917404921921 -1.0198135905109444e-09 8.5283534689740685e-07 -0.15253917404921921 -1.0874470408075136e-09 9.0881622576621454e-07 -1.5591886211779417e-05 -1.1909122998309002e-09 1.6278777592294631e-06 -1.2684709816582935e-05 0.038238948678004529 8.079760689921868e-07 -1.30521609423008e-05 0.074724645027477832 1.5368209014149663e-06 -1.4130840599132348e-05 0.038238948678004536 8.0797606899218691e-07 -1.3052160942296506e-05 0.078043759485109943 5.1399815959347222e-07 -1.5870357429260725e-05 0.046328771874810236 1.2051372802105743e-06 -0.1848033300201854 0.078043759485109943 5.1399815959347222e-07 -1.5870357429256401e-05 0.038238948678004529 8.079760689921868e-07 -1.30521609423008e-05 0.041437026784842963 -1.0093740738591354e-07 -1.4298972176152524e-05 0.053753088668746105 2.7736285078226063e-08 -0.21442341921659946 0.038238948678004529 8.079760689921868e-07 -1.30521609423008e-05 -1.0198135916398823e-09 8.5283534689740685e-07 -0.15253917404921918 0.041437026784842963 -1.0093740738591354e-07 -1.4298972176152524e-05 0.053753088668746105 2.7736285078226063e-08 -0.21442341921659946 -1.0198135905109444e-09 8.5283534689740685e-07 -0.15253917404921921 -1.211735469981788e-09 2.0568425798912505e-06 -0.29809403640780113 -8.2812541769054573e-10 1.0949155303038673e-07 -0.31132864504451641 0.046328771874810229 1.2051372802105745e-06 -0.18480333002018542 -1.4488453509469049e-09 -1.3037304816255432e-08 -0.16529613786558214 -1.0198135905109444e-09 8.5283534689740685e-07 -0.15253917404921921 -8.2812541769054573e-10 1.0949155303038673e-07 -0.31132864504451641 0.053753088668746105 2.7736285078226063e-08 -0.21442341921659946 -1.4488453509469049e-09 -1.3037304816255432e-08 -0.16529613786558214 0.04143702678484297 -1.0093740738591354e-07 -1.4298972176157027e-05 -1.0198135905109444e-09 8.5283534689740685e-07 -0.15253917404921921 0.053753088668746105 2.7736285078226063e-08 -0.21442341921659946 -8.2812541769054573e-10 1.0949155303038673e-07 -0.31132864504451641 0.054168542335683474 1.9251654881797924e-06 -0.46236908122943482 0.086229414614476863 1.0116300840733601e-06 -0.28816055940789653 0.046328771874810236 1.2051372802105741e-06 -0.18480333002018534 -8.2812541769054573e-10 1.0949155303038673e-07 -0.31132864504451641 0.059587680604482378 3.0950025909493328e-07 -0.4327344776555373 -1.0701917255291275e-09 -5.1904675203113587e-07 -0.31592222890941224 0.053753088668746118 2.7736285078226102e-08 -0.21442341921659944 -8.2812541769054573e-10 1.0949155303038673e-07 -0.31132864504451641 -1.2117354678150178e-09 2.0568425798912505e-06 -0.29809403640780113 0.054168542335683474 1.9251654881797924e-06 -0.46236908122943476 0.046328771874810229 1.2051372802105743e-06 -0.18480333002018537 0.086229414614476863 1.0116300840733601e-06 -0.28816055940789653 0.053753088668746118 2.7736285078226208e-08 -0.21442341921659941 -8.2812541580906676e-10 1.0949155303038694e-07 -0.31132864504451646 0.046328771874810222 1.2051372802105743e-06 -0.18480333002018534 -1.4488453509469049e-09 -1.3037304816255432e-08 -0.16529613786558214 -8.2812541745283677e-10 1.0949155303038676e-07 -0.31132864504451641 -1.0701917255291275e-09 -5.1904675203113587e-07 -0.31592222890941224 0.053753088668746105 2.7736285078226063e-08 -0.21442341921659946 -8.2812541769054573e-10 1.0949155303038673e-07 -0.31132864504451641 0.059587680604482364 3.0950025909493355e-07 -0.43273447765553735 0.086229414614476863 1.0116300840733601e-06 -0.28816055940789653 0.054168542335683481 1.9251654881797916e-06 -0.46236908122943476 0.086229414614476863 1.0116300840733601e-06 -0.28816055940789653 0.059587680604482357 3.0950025909493344e-07 -0.43273447765553735 -8.2812542497825487e-10 1.0949155303038689e-07 -0.31132864504451646 0.053753088668746125 2.7736285078226079e-08 -0.21442341921659949 -1.0701917255291275e-09 -5.1904675203113587e-07 -0.31592222890941224 -8.2812542106024845e-10 1.0949155303038672e-07 -0.31132864504451641 -1.4729826745547533e-09 5.156153184649606e-07 -0.49856368622132596 0.059587680604482364 3.0950025909493328e-07 -0.43273447765553735 2.4372001195975221e-11 1.0654394737473947e-06 -0.4381501152242856 -1.4729826745547533e-09 5.156153184649606e-07 -0.49856368622132596 -8.2812541769054573e-10 1.0949155303038673e-07 -0.31132864504451641 0.059587680604482364 3.0950025909493328e-07 -0.43273447765553735 -1.9504634627321416e-09 1.0346165909963187e-06 -0.57515467904295914 0.059587680604482371 3.0950025909493291e-07 -0.43273447765553735 2.4372001195975221e-11 1.0654394737473947e-06 -0.4381501152242856 0.054168542335683481 1.925165488179792e-06 -0.46236908122943476 -8.2812541769054573e-10 1.0949155303038673e-07 -0.31132864504451641 -1.2117354678150178e-09 2.0568425798912505e-06 -0.29809403640780113 2.4371996668044063e-11 1.0654394737473947e-06 -0.4381501152242856 0.054168542335683481 1.925165488179792e-06 -0.46236908122943476 2.4372001195975221e-11 1.0654394737473947e-06 -0.4381501152242856 0.059587680604482364 3.0950025909493339e-07 -0.43273447765553735 -8.2812541769054573e-10 1.0949155303038673e-07 -0.31132864504451641 0.054168542335683481 1.925165488179792e-06 -0.46236908122943476 0.040725976849429246 2.6239246271181963e-06 -0.28857947564256831 0.079204179699393973 3.0595665262511146e-06 -0.38013915077967403 0.054168542335683481 1.925165488179792e-06 -0.46236908122943476 0.046328771874810236 1.2051372802105743e-06 -0.1848033300201854 -1.2117354678150178e-09 2.0568425798912505e-06 -0.29809403640780113 0.040725976849429246 2.6239246271181963e-06 -0.28857947564256831 0.054168542335683481 1.925165488179792e-06 -0.46236908122943476 0.046328771874810236 1.2051372802105743e-06 -0.1848033300201854 0.041442561625915364 2.8610745859144437e-06 -0.47818709280844546 -1.3044774313917307e-09 2.6749991494345597e-06 -0.48745446820980848 -1.2117354667161474e-09 2.0568425798912501e-06 -0.29809403640780108 0.054168542335683481 1.925165488179792e-06 -0.46236908122943471 2.4372001195975221e-11 1.0654394737473947e-06 -0.4381501152242856 -1.2117354678150178e-09 2.0568425798912505e-06 -0.29809403640780113 -1.3044774186499346e-09 2.6749991494345601e-06 -0.48745446820980848 0.054168542335683481 1.925165488179792e-06 -0.46236908122943476 0.041442561625915364 2.8610745859144437e-06 -0.47818709280844546 -7.0537304063388268e-10 3.3525373380320587e-06 -0.38380389610356203 -1.2117354641980322e-09 2.0568425798912505e-06 -0.29809403640780108 -1.3044774186499346e-09 2.6749991494345597e-06 -0.48745446820980842 -1.2117354678150178e-09 2.0568425798912505e-06 -0.29809403640780113 0.040725976849429246 2.6239246271181963e-06 -0.28857947564256831 -7.0537304063388268e-10 3.3525373380320587e-06 -0.38380389610356203 0.041442561625915371 2.8610745859144433e-06 -0.47818709280844551 0.041442561625915364 2.8610745859144437e-06 -0.47818709280844546 -1.2117354747296393e-09 2.0568425798912501e-06 -0.29809403640780108 0.040725976849429246 2.6239246271181963e-06 -0.28857947564256831 0.054168542335683467 1.925165488179792e-06 -0.46236908122943476 0.041442561625915364 2.8610745859144437e-06 -0.47818709280844546 0.040725976849429246 2.6239246271181963e-06 -0.28857947564256831 0.079204179699393973 3.0595665262511146e-06 -0.38013915077967403 0.054168542335683481 1.925165488179792e-06 -0.46236908122943476 -7.0537304063388268e-10 3.3525373380320587e-06 -0.38380389610356203 -1.1056042723510764e-09 2.6255885461071154e-06 -0.19191020366527167 0.040725976849429246 2.6239246271181963e-06 -0.28857947564256831 -1.2117354678150178e-09 2.0568425798912505e-06 -0.29809403640780113 0.040725976849429246 2.6239246271181963e-06 -0.28857947564256831 -1.1056042816243842e-09 2.6255885461071154e-06 -0.1919102036652717 -9.134644416793305e-10 1.6650798831678613e-06 -0.14048998918933991 -1.2117354723365097e-09 2.0568425798912505e-06 -0.29809403640780113 0.035219166731832376 2.1025130690537566e-06 -0.14049351444188624 -1.1056042723510764e-09 2.6255885461071154e-06 -0.19191020366527167 -9.1346442824592634e-10 1.6650798831678615e-06 -0.14048998918933991 0.040725976849429246 2.6239246271181963e-06 -0.28857947564256831 0.048107338299405257 2.9798171236745379e-06 -1.4354724600816299e-05 -1.2173029144581971e-09 2.8320416314000351e-06 -1.4366461044991063e-05 0.035217247242061038 1.5552180306732382e-06 -1.0460226140395933e-05 0.035219166731832376 2.1025130690537566e-06 -0.14049351444188624 -9.1346442847466825e-10 1.6650798831678613e-06 -0.14048998918933991 -1.2173029134152096e-09 2.8320416314000355e-06 -1.4366461044979696e-05 -1.1056042723510764e-09 2.6255885461071154e-06 -0.19191020366527167 0.035219166731832376 2.1025130690537566e-06 -0.14049351444188624 -9.1346442847466825e-10 1.6650798831678613e-06 -0.14048998918933991 0.035217247242061038 1.5552180306732382e-06 -1.0460226140395933e-05 -1.2173029134152096e-09 2.8320416314000355e-06 -1.4366461044979696e-05 0.035219166731832376 2.1025130690537566e-06 -0.14049351444188624 0.035217247242061038 1.5552180306732382e-06 -1.0460226140395933e-05 -1.2173029174380913e-09 2.8320416314000355e-06 -1.4366461044994111e-05 -1.1909123024558232e-09 1.6278777592294631e-06 -1.2684709816593406e-05 -9.1346442847466825e-10 1.6650798831678613e-06 -0.14048998918933991 -9.1346442847466825e-10 1.6650798831678613e-06 -0.14048998918933991 -1.0198135905109444e-09 8.5283534689740685e-07 -0.15253917404921921 0.038238948678004536 8.079760689921867e-07 -1.3052160942306494e-05 0.046328771874810236 1.2051372802105743e-06 -0.1848033300201854 -1.1909123024558232e-09 1.6278777592294631e-06 -1.2684709816593406e-05 0.038238948678004529 8.079760689921868e-07 -1.30521609423008e-05 0.035217247242061038 1.5552180306732382e-06 -1.0460226140395933e-05 -9.1346442847466825e-10 1.6650798831678613e-06 -0.14048998918933991 0.035219166731832376 2.1025130690537566e-06 -0.14049351444188624 -9.1346442963886199e-10 1.6650798831678613e-06 -0.14048998918933989 0.035217247242061038 1.555218030673238e-06 -1.0460226140391528e-05 0.046328771874810236 1.2051372802105741e-06 -0.18480333002018537 0.038238948678004529 8.079760689921868e-07 -1.30521609423008e-05 -1.1909123024558232e-09 1.6278777592294631e-06 -1.2684709816593406e-05 -1.0198135905109444e-09 8.5283534689740685e-07 -0.15253917404921921 -9.1346442847466825e-10 1.6650798831678613e-06 -0.14048998918933991 0.038238948678004529 8.079760689921868e-07 -1.30521609423008e-05 0.035217247242061038 1.5552180306732382e-06 -1.0460226140384576e-05 -9.1346442847466825e-10 1.6650798831678613e-06 -0.14048998918933991 0.046328771874810236 1.2051372802105743e-06 -0.1848033300201854 0.040725976849429246 2.6239246271181963e-06 -0.28857947564256831 -1.211735477543922e-09 2.056842579891251e-06 -0.29809403640780113 -9.1346443299616021e-10 1.6650798831678613e-06 -0.14048998918933994 0.046328771874810236 1.2051372802105743e-06 -0.1848033300201854 -9.1346442847466825e-10 1.6650798831678613e-06 -0.14048998918933991 -1.2117354678150178e-09 2.0568425798912505e-06 -0.29809403640780113 -1.0198135905109444e-09 8.5283534689740685e-07 -0.15253917404921921 0.046328771874810236 1.2051372802105743e-06 -0.1848033300201854 0.035219166731832376 2.1025130690537566e-06 -0.14049351444188624 0.035217247242061045 1.5552180306732384e-06 -1.0460226140447685e-05 0.074724645027477832 1.5368209014149661e-06 -1.4130840599157434e-05 0.046328771874810236 1.2051372802105741e-06 -0.18480333002018537 0.038238948678004529 8.079760689921868e-07 -1.30521609423008e-05 0.074724645027477832 1.5368209014149663e-06 -1.4130840599132348e-05 0.035217247242061038 1.5552180306732382e-06 -1.0460226140395933e-05 0.046328771874810236 1.2051372802105743e-06 -0.1848033300201854 0.035217247242061038 1.5552180306732382e-06 -1.0460226140395933e-05 0.074724645027477832 1.5368209014149663e-06 -1.4130840599132348e-05 0.048107338299405257 2.9798171236745379e-06 -1.4354724600816299e-05 0.035219166731832376 2.1025130690537566e-06 -0.14049351444188624 0.076094849975781295 2.7518854031939252e-06 -0.18058892141887051 0.048107338299405264 2.9798171236745387e-06 -1.4354724600804548e-05 0.074724645027477832 1.5368209014149663e-06 -1.4130840599132348e-05 0.035219166731832376 2.1025130690537566e-06 -0.14049351444188624 0.074724645027477832 1.5368209014149663e-06 -1.4130840599132348e-05 0.076094849975781295 2.7518854031939252e-06 -0.18058892141887051 0.035219166731832369 2.1025130690537562e-06 -0.14049351444188618 0.046328771874810236 1.2051372802105741e-06 -0.1848033300201854 0.076094849975781295 2.7518854031939252e-06 -0.18058892141887051 0.040725976849429246 2.6239246271181963e-06 -0.28857947564256831 0.035219166731832376 2.1025130690537566e-06 -0.14049351444188624 0.046328771874810236 1.2051372802105743e-06 -0.1848033300201854 0.035219166731832376 2.1025130690537566e-06 -0.14049351444188624 0.040725976849429246 2.6239246271181963e-06 -0.28857947564256831 -9.1346442847466825e-10 1.6650798831678613e-06 -0.14048998918933991 0.046328771874810236 1.2051372802105743e-06 -0.1848033300201854 0.086229414614476863 1.0116300840733601e-06 -0.28816055940789653 0.046328771874810236 1.2051372802105743e-06 -0.18480333002018534 0.076094849975781295 2.7518854031939252e-06 -0.18058892141887051 0.12721092444697624 1.8078854899911578e-06 -0.19987758194128069 0.074724645027477832 1.5368209014149663e-06 -1.4130840599132348e-05 0.046328771874810236 1.2051372802105743e-06 -0.1848033300201854 0.08622941461447689 1.0116300840733595e-06 -0.28816055940789653 0.12721092444697624 1.8078854899911576e-06 -0.19987758194128072 0.074724645027477832 1.5368209014149663e-06 -1.4130840599132348e-05 0.076094849975781295 2.7518854031939256e-06 -0.18058892141887045 0.046328771874810229 1.2051372802105741e-06 -0.1848033300201854 0.12721092444697624 1.8078854899911576e-06 -0.19987758194128072 0.074724645027477832 1.5368209014149663e-06 -1.4130840599132348e-05 0.096206408295229626 3.5174276318407492e-06 -1.6745751853744844e-05 0.048107338299405257 2.9798171236745379e-06 -1.4354724600816299e-05 0.076094849975781295 2.7518854031939252e-06 -0.18058892141887051 0.074724645027477832 1.5368209014149663e-06 -1.4130840599132348e-05 0.12218047265534938 2.1643010930493979e-06 -1.3710773519693201e-05 0.076094849975781295 2.7518854031939252e-06 -0.18058892141887051 0.12721092444697624 1.8078854899911574e-06 -0.19987758194128075 0.10982582441994324 7.918505316914258e-07 -1.0759269175616912e-05 0.12218047265534938 2.1643010930493983e-06 -1.3710773519664293e-05 0.074724645027477832 1.5368209014149663e-06 -1.4130840599128352e-05 0.12721092444697624 1.8078854899911578e-06 -0.19987758194128066 0.12297282142962269 2.5900267143495513e-06 -0.15710599490742946 0.076094849975781295 2.7518854031939252e-06 -0.18058892141887051 0.096206408295229626 3.5174276318407492e-06 -1.6745751853714073e-05 0.12218047265534938 2.1643010930493983e-06 -1.3710773519664293e-05 0.076094849975781295 2.7518854031939252e-06 -0.18058892141887051 0.074724645027477832 1.5368209014149658e-06 -1.4130840599173449e-05 0.096206408295229626 3.5174276318407492e-06 -1.6745751853744844e-05 0.12218047265534938 2.1643010930493983e-06 -1.3710773519664293e-05 0.12297282142962269 2.5900267143495513e-06 -0.15710599490742946 0.11020486335877795 2.0981127985509483e-06 -0.2977721746510113 0.076094849975781295 2.7518854031939252e-06 -0.18058892141887051 0.12721092444697624 1.807885489991158e-06 -0.19987758194128069 0.12297282142962269 2.5900267143495513e-06 -0.15710599490742946 0.076094849975781295 2.7518854031939252e-06 -0.18058892141887051 0.12218047265534938 2.1643010930493979e-06 -1.3710773519670899e-05 0.12721092444697624 1.807885489991158e-06 -0.19987758194128066 0.079204179699393973 3.0595665262511146e-06 -0.38013915077967403 0.086229414614476863 1.0116300840733601e-06 -0.28816055940789659 0.12023015082997787 1.1988983165920122e-06 -0.50827894951800634 0.054168542335683481 1.925165488179792e-06 -0.46236908122943476 0.086229414614476863 1.0116300840733601e-06 -0.28816055940789653 0.054168542335683481 1.925165488179792e-06 -0.46236908122943476 0.079204179699393973 3.0595665262511146e-06 -0.38013915077967403 0.046328771874810222 1.2051372802105741e-06 -0.18480333002018534 0.076094849975781295 2.7518854031939252e-06 -0.18058892141887051 0.11020486335877794 2.0981127985509478e-06 -0.2977721746510113 0.079204179699393973 3.0595665262511146e-06 -0.38013915077967403 0.086229414614476849 1.0116300840733595e-06 -0.28816055940789653 0.11020486335877794 2.0981127985509478e-06 -0.2977721746510113 0.086229414614476835 1.0116300840733601e-06 -0.28816055940789659 0.076094849975781295 2.7518854031939252e-06 -0.18058892141887051 0.12721092444697624 1.8078854899911578e-06 -0.19987758194128069 0.076094849975781295 2.7518854031939252e-06 -0.18058892141887051 0.08622941461447689 1.0116300840733599e-06 -0.28816055940789653 0.079204179699393987 3.059566526251115e-06 -0.38013915077967403 0.046328771874810236 1.2051372802105743e-06 -0.1848033300201854 0.11020486335877794 2.0981127985509478e-06 -0.2977721746510113 0.12023015082997782 1.1988983165920118e-06 -0.50827894951800634 0.086229414614476863 1.0116300840733599e-06 -0.28816055940789659 0.12721092444697624 1.8078854899911578e-06 -0.19987758194128069 0.11020486335877794 2.0981127985509478e-06 -0.2977721746510113 0.079204179699393973 3.0595665262511146e-06 -0.38013915077967403 0.086229414614476863 1.0116300840733597e-06 -0.28816055940789653 0.12023015082997782 1.1988983165920118e-06 -0.50827894951800612 0.076094849975781295 2.7518854031939252e-06 -0.18058892141887051 0.079204179699393973 3.0595665262511146e-06 -0.38013915077967403 0.040725976849429246 2.6239246271181963e-06 -0.28857947564256831 0.046328771874810236 1.2051372802105743e-06 -0.1848033300201854 0.079204179699393973 3.0595665262511146e-06 -0.38013915077967403 0.078066147362563662 3.1900547004145347e-06 -0.57592002933528019 0.041442561625915364 2.8610745859144437e-06 -0.47818709280844546 0.054168542335683481 1.925165488179792e-06 -0.46236908122943476 0.11020486335877794 2.0981127985509478e-06 -0.2977721746510113 0.12497953345346459 2.7385843564449988e-06 -0.47981037665860909 0.079204179699393973 3.0595665262511146e-06 -0.38013915077967403 0.12023015082997783 1.198898316592012e-06 -0.50827894951800623 0.059587680604482364 3.0950025909493328e-07 -0.43273447765553735 0.12023015082997782 1.1988983165920118e-06 -0.50827894951800612 0.086229414614476863 1.0116300840733603e-06 -0.28816055940789653 0.054168542335683488 1.925165488179792e-06 -0.46236908122943471 0.086229414614476863 1.0116300840733601e-06 -0.28816055940789653 0.12026670288652996 9.3152987804003415e-08 -0.47980604989802272 0.059587680604482364 3.0950025909493328e-07 -0.43273447765553735 0.12035050998714178 -1.9180773495864741e-07 -0.23955512269168877 0.086229414614476863 1.0116300840733601e-06 -0.28816055940789653 0.059587680604482364 3.0950025909493328e-07 -0.43273447765553735 0.12026670288652995 9.3152987804003124e-08 -0.47980604989802261 0.12023015082997783 1.1988983165920122e-06 -0.50827894951800623 0.086229414614476863 1.0116300840733601e-06 -0.28816055940789653 0.12035050998714179 -1.9180773495864715e-07 -0.23955512269168885 0.059587680604482357 3.0950025909493317e-07 -0.4327344776555373 0.053753088668746105 2.7736285078226063e-08 -0.21442341921659946 0.086229414614476863 1.0116300840733601e-06 -0.28816055940789653 0.078043759485109943 5.1399815959347222e-07 -1.5870357429256401e-05 0.12035050998714179 -1.9180773495864715e-07 -0.23955512269168885 0.053753088668746105 2.7736285078226063e-08 -0.21442341921659946 0.074724645027477832 1.5368209014149663e-06 -1.4130840599132348e-05 0.078043759485109943 5.1399815959347222e-07 -1.5870357429256401e-05 0.10982582441994324 7.918505316914258e-07 -1.0759269175616912e-05 0.086229414614476863 1.0116300840733603e-06 -0.28816055940789659 0.078043759485109943 5.1399815959347222e-07 -1.5870357429256401e-05 0.053753088668746118 2.7736285078226198e-08 -0.21442341921659946 0.086229414614476863 1.0116300840733601e-06 -0.28816055940789659 0.046328771874810236 1.2051372802105743e-06 -0.1848033300201854 0.078043759485109943 5.1399815959347222e-07 -1.5870357429256401e-05 0.10982582441994324 7.918505316914258e-07 -1.0759269175621308e-05 0.086229414614476863 1.0116300840733601e-06 -0.28816055940789653 0.12035050998714179 -1.9180773495864715e-07 -0.23955512269168885 0.074724645027477832 1.5368209014149663e-06 -1.4130840599132348e-05 0.078043759485109943 5.1399815959347222e-07 -1.5870357429256401e-05 0.086229414614476863 1.0116300840733601e-06 -0.28816055940789653 0.046328771874810236 1.2051372802105743e-06 -0.1848033300201854 0.10982582441994324 7.918505316914258e-07 -1.0759269175616912e-05 0.074724645027477832 1.5368209014149663e-06 -1.4130840599132815e-05 0.086229414614476863 1.0116300840733601e-06 -0.28816055940789653 0.12721092444697624 1.8078854899911576e-06 -0.19987758194128069 0.086229414614476863 1.0116300840733601e-06 -0.28816055940789653 0.12035050998714179 -1.9180773495864715e-07 -0.23955512269168885 0.10982582441994324 7.918505316914258e-07 -1.0759269175616912e-05 0.12721092444697624 1.8078854899911578e-06 -0.19987758194128069 0.041437026784842963 -1.0093740738591354e-07 -1.4298972176152524e-05 0.079194745629442731 -1.0928903475720111e-06 -1.5132250432627677e-05 0.078043759485109943 5.1399815959347222e-07 -1.5870357429256401e-05 0.053753088668746105 2.7736285078226063e-08 -0.21442341921659946 0.078043759485109943 5.1399815959347222e-07 -1.5870357429256401e-05 0.12496587880891402 1.4000924419407937e-07 -1.4051268006822842e-05 0.10982582441994324 7.918505316914258e-07 -1.0759269175616912e-05 0.12035050998714179 -1.9180773495864715e-07 -0.23955512269168885 0.17485020147481339 1.1442490919175602e-06 -9.0116486201483587e-06 0.16461586875740794 1.0138292303691841e-06 -0.29843014771165116 0.14415042765784544 8.8753650272864276e-07 -1.0729783446579784e-05 0.18684611228354639 -2.2126007046913515e-07 -0.20898343585273127 0.16461586875740797 1.0138292303691851e-06 -0.29843014771165116 0.12035050998714178 -1.9180773495864731e-07 -0.23955512269168888 0.14415042765784544 8.8753650272864266e-07 -1.0729783446572094e-05 0.18684611228354636 -2.2126007046913611e-07 -0.20898343585273124 0.14415042765784544 8.8753650272864276e-07 -1.0729783446579784e-05 0.10982582441994324 7.918505316914258e-07 -1.0759269175624379e-05 0.12035050998714178 -1.9180773495864707e-07 -0.23955512269168888 0.12721092444697624 1.807885489991158e-06 -0.19987758194128075 0.12496587880891402 1.4000924419407937e-07 -1.4051268006822842e-05 0.16187482255806682 -2.936129529766129e-07 -1.1064687666656211e-05 0.14415042765784544 8.8753650272864276e-07 -1.0729783446579784e-05 0.12035050998714179 -1.9180773495864715e-07 -0.23955512269168885 0.14415042765784544 8.8753650272864276e-07 -1.0729783446579784e-05 0.12035050998714178 -1.9180773495864715e-07 -0.23955512269168885 0.16461586875740797 1.0138292303691849e-06 -0.29843014771165116 0.12721092444697618 1.807885489991158e-06 -0.19987758194128072 0.14415042765784544 8.8753650272864276e-07 -1.0729783446579784e-05 0.12035050998714178 -1.9180773495864723e-07 -0.23955512269168885 0.16187482255806682 -2.936129529766129e-07 -1.1064687666656211e-05 0.18684611228354633 -2.2126007046913624e-07 -0.20898343585273121 0.14415042765784544 8.8753650272864276e-07 -1.0729783446579784e-05 0.12721092444697624 1.8078854899911595e-06 -0.19987758194128066 0.16461586875740797 1.0138292303691847e-06 -0.29843014771165116 0.1961349984775772 2.5474845595979402e-06 -0.17739610360846969 0.14415042765784544 8.8753650272864276e-07 -1.0729783446579784e-05 0.10982582441994324 7.918505316914258e-07 -1.075926917562358e-05 0.12496587880891402 1.4000924419407937e-07 -1.4051268006822842e-05 0.12035050998714179 -1.9180773495864715e-07 -0.23955512269168885 0.14415042765784544 8.8753650272864276e-07 -1.0729783446579784e-05 0.16461586875740797 1.0138292303691851e-06 -0.29843014771165116 0.17485020147481339 1.1442490919175602e-06 -9.0116486201483587e-06 0.1961349984775772 2.5474845595979398e-06 -0.17739610360846969 0.10982582441994324 7.918505316914258e-07 -1.0759269175616912e-05 0.14415042765784544 8.8753650272864276e-07 -1.0729783446578313e-05 0.12218047265534938 2.1643010930493983e-06 -1.3710773519680277e-05 0.12721092444697621 1.8078854899911578e-06 -0.19987758194128066 0.14415042765784544 8.8753650272864276e-07 -1.0729783446579784e-05 0.17485020147481339 1.1442490919175604e-06 -9.0116486201434882e-06 0.16961425172196565 2.497369498368498e-06 -1.3759035635506026e-05 0.1961349984775772 2.5474845595979398e-06 -0.17739610360846969 0.17485020147481339 1.1442490919175602e-06 -9.0116486201483587e-06 0.14415042765784544 8.8753650272864276e-07 -1.0729783446579528e-05 0.16187482255806682 -2.936129529766129e-07 -1.1064687666648566e-05 0.18684611228354636 -2.2126007046913613e-07 -0.20898343585273124 0.16461586875740797 1.0138292303691851e-06 -0.29843014771165116 0.12035050998714179 -1.9180773495864704e-07 -0.23955512269168877 0.086229414614476863 1.0116300840733601e-06 -0.28816055940789653 0.12721092444697621 1.8078854899911574e-06 -0.19987758194128069 0.16461586875740797 1.0138292303691851e-06 -0.29843014771165116 0.086229414614476849 1.0116300840733599e-06 -0.28816055940789648 0.12026670288652995 9.315298780400319e-08 -0.47980604989802267 0.12023015082997783 1.198898316592012e-06 -0.50827894951800623 0.12026670288652995 9.315298780400319e-08 -0.47980604989802267 0.086229414614476863 1.0116300840733601e-06 -0.28816055940789659 0.16461586875740797 1.0138292303691851e-06 -0.29843014771165116 0.12035050998714182 -1.9180773495864749e-07 -0.23955512269168888 0.12026670288652995 9.315298780400319e-08 -0.47980604989802267 0.16461586875740797 1.0138292303691851e-06 -0.29843014771165116 0.18045745610115624 -3.409465621845906e-08 -0.47829399949188789 0.12035050998714182 -1.918077349586476e-07 -0.23955512269168888 0.16461586875740797 1.0138292303691851e-06 -0.29843014771165116 0.12023015082997783 1.198898316592012e-06 -0.50827894951800623 0.18045745610115624 -3.409465621845906e-08 -0.47829399949188789 0.18604717903277337 2.1906030804837731e-06 -0.47822407878426787 0.18045745610115624 -3.409465621845906e-08 -0.47829399949188789 0.12035050998714179 -1.9180773495864739e-07 -0.23955512269168897 0.16461586875740797 1.0138292303691851e-06 -0.29843014771165111 0.18684611228354636 -2.2126007046913613e-07 -0.20898343585273124 0.086229414614476863 1.0116300840733601e-06 -0.28816055940789653 0.12023015082997783 1.198898316592012e-06 -0.50827894951800623 0.16461586875740797 1.0138292303691851e-06 -0.29843014771165116 0.12721092444697624 1.8078854899911578e-06 -0.19987758194128069 0.12026670288652995 9.315298780400319e-08 -0.47980604989802267 0.18045745610115621 -3.4094656218459146e-08 -0.47829399949188794 0.16461586875740797 1.0138292303691851e-06 -0.29843014771165116 0.12023015082997783 1.198898316592012e-06 -0.50827894951800623 0.16461586875740797 1.0138292303691851e-06 -0.29843014771165116 0.12721092444697624 1.8078854899911578e-06 -0.19987758194128069 0.14686050749814339 2.9060738986992473e-06 -0.31791848684096657 0.1961349984775772 2.5474845595979398e-06 -0.17739610360846969 0.14686050749814339 2.9060738986992473e-06 -0.31791848684096657 0.12023015082997783 1.1988983165920122e-06 -0.50827894951800612 0.16461586875740797 1.0138292303691851e-06 -0.29843014771165116 0.18604717903277337 2.1906030804837731e-06 -0.47822407878426787 0.14686050749814339 2.9060738986992473e-06 -0.31791848684096657 0.16410924499665208 3.2169521519572324e-06 -0.5020151352270924 0.12023015082997786 1.1988983165920124e-06 -0.50827894951800623 0.18604717903277337 2.1906030804837731e-06 -0.47822407878426787 0.1989494757338939 3.2020895611852317e-06 -0.30143894692057088 0.16461586875740794 1.0138292303691849e-06 -0.29843014771165116 0.14686050749814339 2.9060738986992469e-06 -0.31791848684096657 0.1961349984775772 2.5474845595979394e-06 -0.17739610360846983 0.11020486335877794 2.0981127985509478e-06 -0.2977721746510113 0.14686050749814339 2.9060738986992473e-06 -0.31791848684096657 0.12023015082997783 1.198898316592012e-06 -0.50827894951800623 0.12721092444697624 1.8078854899911578e-06 -0.19987758194128069 0.14686050749814339 2.9060738986992473e-06 -0.31791848684096657 0.164615868757408 1.0138292303691851e-06 -0.29843014771165122 0.1989494757338939 3.2020895611852317e-06 -0.30143894692057088 0.18604717903277337 2.1906030804837731e-06 -0.47822407878426787 0.16461586875740797 1.0138292303691851e-06 -0.29843014771165116 0.12023015082997784 1.1988983165920122e-06 -0.50827894951800623 0.14686050749814339 2.9060738986992473e-06 -0.31791848684096657 0.12721092444697624 1.8078854899911578e-06 -0.19987758194128072 0.14686050749814339 2.9060738986992473e-06 -0.31791848684096657 0.16410924499665208 3.2169521519572324e-06 -0.50201513522709251 0.12497953345346459 2.7385843564449988e-06 -0.47981037665860909 0.12023015082997783 1.198898316592012e-06 -0.50827894951800623 0.12497953345346459 2.7385843564449988e-06 -0.47981037665860909 0.11020486335877794 2.0981127985509478e-06 -0.2977721746510113 0.14686050749814339 2.9060738986992473e-06 -0.31791848684096657 0.12023015082997783 1.1988983165920118e-06 -0.50827894951800623 0.16410924499665208 3.2169521519572324e-06 -0.50201513522709251 0.14686050749814336 2.9060738986992469e-06 -0.31791848684096657 0.1989494757338939 3.2020895611852317e-06 -0.30143894692057088 0.18604717903277337 2.1906030804837731e-06 -0.47822407878426787 0.12297282142962269 2.5900267143495513e-06 -0.15710599490742946 0.14686050749814339 2.9060738986992473e-06 -0.31791848684096657 0.11020486335877794 2.0981127985509478e-06 -0.2977721746510113 0.12721092444697624 1.807885489991158e-06 -0.19987758194128069 0.12297282142962269 2.5900267143495513e-06 -0.15710599490742946 0.16828764449905828 2.62506194465265e-06 -0.16256365556491617 0.14686050749814339 2.9060738986992473e-06 -0.31791848684096657 0.12721092444697624 1.807885489991158e-06 -0.19987758194128069 0.16828764449905828 2.62506194465265e-06 -0.16256365556491617 0.14686050749814339 2.9060738986992473e-06 -0.31791848684096657 0.12721092444697624 1.807885489991158e-06 -0.19987758194128072 0.1961349984775772 2.5474845595979394e-06 -0.17739610360846966 0.16828764449905828 2.62506194465265e-06 -0.16256365556491617 0.12721092444697626 1.8078854899911578e-06 -0.19987758194128069 0.16961425172196565 2.497369498368498e-06 -1.375903563550754e-05 0.19613499847757718 2.5474845595979398e-06 -0.17739610360846961 0.16828764449905828 2.62506194465265e-06 -0.16256365556491617 0.12297282142962269 2.5900267143495513e-06 -0.15710599490742946 0.12218047265534941 2.1643010930493988e-06 -1.3710773519593415e-05 0.12721092444697624 1.807885489991158e-06 -0.19987758194128064 0.14415042765784544 8.8753650272864276e-07 -1.0729783446579784e-05 0.16961425172196565 2.497369498368498e-06 -1.3759035635506026e-05 0.12721092444697624 1.807885489991158e-06 -0.19987758194128075 0.1961349984775772 2.5474845595979398e-06 -0.17739610360846972 0.14428433296488341 3.1169342293007447e-06 -1.743043354313375e-05 0.16828764449905828 2.62506194465265e-06 -0.16256365556491617 0.12297282142962269 2.5900267143495513e-06 -0.15710599490742946 0.12218047265534938 2.1643010930493983e-06 -1.3710773519664293e-05 0.12297282142962269 2.5900267143495513e-06 -0.15710599490742946 0.096206408295229626 3.5174276318407492e-06 -1.6745751853759718e-05 0.14428433296488341 3.1169342293007447e-06 -1.743043354313375e-05 0.12218047265534938 2.1643010930493983e-06 -1.3710773519664293e-05 0.12218047265534938 2.1643010930493983e-06 -1.3710773519664293e-05 0.14415042765784544 8.8753650272864276e-07 -1.0729783446580043e-05 0.16961425172196565 2.497369498368498e-06 -1.3759035635506026e-05 0.12721092444697624 1.8078854899911578e-06 -0.19987758194128069 0.16828764449905828 2.62506194465265e-06 -0.16256365556491617 0.12218047265534938 2.1643010930493983e-06 -1.3710773519596214e-05 0.16961425172196565 2.497369498368498e-06 -1.3759035635480233e-05 0.12721092444697624 1.8078854899911578e-06 -0.19987758194128064 0.14428433296488341 3.1169342293007447e-06 -1.743043354313375e-05 0.19233275854334053 2.6773597853442004e-06 -1.4307080941368043e-05 0.16828764449905828 2.62506194465265e-06 -0.16256365556491617 0.16961425172196565 2.497369498368498e-06 -1.3759035635506026e-05 0.12218047265534938 2.1643010930493983e-06 -1.3710773519664293e-05 0.14428433296488341 3.1169342293007447e-06 -1.743043354313375e-05 0.16828764449905828 2.6250619446526496e-06 -0.16256365556491628 0.16961425172196565 2.497369498368498e-06 -1.3759035635506026e-05 0.16828764449905828 2.62506194465265e-06 -0.16256365556491617 0.1989494757338939 3.2020895611852317e-06 -0.30143894692057088 0.14686050749814339 2.9060738986992473e-06 -0.31791848684096657 0.19613499847757723 2.5474845595979402e-06 -0.17739610360846972 0.1989494757338939 3.2020895611852317e-06 -0.30143894692057088 0.16828764449905828 2.62506194465265e-06 -0.16256365556491617 0.20520170105821153 1.9697432079313103e-06 -0.14052585669562989 0.1961349984775772 2.5474845595979394e-06 -0.17739610360846966 0.16828764449905828 2.62506194465265e-06 -0.16256365556491617 0.20519993748922957 2.521082821235275e-06 -9.7302440203490373e-06 0.20520170105821153 1.9697432079313103e-06 -0.14052585669562989 0.1961349984775772 2.5474845595979398e-06 -0.17739610360846961 0.20520170105821153 1.9697432079313103e-06 -0.14052585669562989 0.240346385566479 1.7423964989119079e-06 -0.14053375289506287 0.1989494757338939 3.2020895611852317e-06 -0.30143894692057088 0.1961349984775772 2.5474845595979398e-06 -0.17739610360846966 0.20519993748922957 2.521082821235275e-06 -9.7302440203099095e-06 0.20520170105821153 1.9697432079313103e-06 -0.14052585669562989 0.19233275854334053 2.6773597853442004e-06 -1.4307080941368043e-05 0.16828764449905828 2.62506194465265e-06 -0.16256365556491617 0.16828764449905828 2.62506194465265e-06 -0.16256365556491617 0.19233275854334053 2.6773597853442004e-06 -1.4307080941367121e-05 0.20519993748922957 2.521082821235275e-06 -9.7302440203099095e-06 0.16961425172196565 2.497369498368498e-06 -1.3759035635506026e-05 0.20519993748922957 2.521082821235275e-06 -9.7302440203099095e-06 0.16961425172196565 2.497369498368498e-06 -1.3759035635507953e-05 0.20475307208560725 2.2933330263660769e-06 -1.0968503901719964e-05 0.1961349984775772 2.5474845595979398e-06 -0.17739610360846966 0.16828764449905828 2.62506194465265e-06 -0.16256365556491617 0.16961425172196568 2.497369498368498e-06 -1.3759035635563732e-05 0.20519993748922957 2.5210828212352746e-06 -9.7302440203311819e-06 0.1961349984775772 2.5474845595979398e-06 -0.17739610360846961 0.240346385566479 1.7423964989119081e-06 -0.14053375289506284 0.24034645425314102 5.1764736763836502e-07 -0.15258612571528582 0.24035681218057914 1.2373715000715958e-07 -0.29818964887570032 0.1961349984775772 2.5474845595979398e-06 -0.17739610360846969 0.1989494757338939 3.2020895611852317e-06 -0.30143894692057088 0.240346385566479 1.7423964989119079e-06 -0.14053375289506284 0.24035681218057914 1.2373715000715958e-07 -0.29818964887570032 0.19613499847757723 2.5474845595979398e-06 -0.17739610360846972 0.240346385566479 1.7423964989119081e-06 -0.14053375289506284 0.20519993748922957 2.521082821235275e-06 -9.7302440203099095e-06 0.24034195309694784 1.0499529344890616e-06 -1.2735588245686598e-05 0.1961349984775772 2.5474845595979398e-06 -0.17739610360846969 0.24034195309694784 1.0499529344890616e-06 -1.2735588245686598e-05 0.19613499847757723 2.5474845595979394e-06 -0.17739610360846966 0.24034645425314102 5.1764736763836502e-07 -0.15258612571528582 0.240346385566479 1.7423964989119081e-06 -0.14053375289506284 0.20519993748922957 2.521082821235275e-06 -9.7302440203099095e-06 0.240346385566479 1.7423964989119081e-06 -0.14053375289506287 0.20520170105821153 1.9697432079313103e-06 -0.14052585669562989 0.1961349984775772 2.5474845595979398e-06 -0.17739610360846966 0.20519993748922957 2.521082821235275e-06 -9.7302440203099095e-06 0.20475307208560728 2.2933330263660773e-06 -1.0968503901710959e-05 0.24034195309694784 1.0499529344890616e-06 -1.2735588245682094e-05 0.1961349984775772 2.5474845595979398e-06 -0.17739610360846966 0.240346385566479 1.7423964989119081e-06 -0.14053375289506284 0.20520170105821153 1.9697432079313099e-06 -0.14052585669562989 0.24034124370273904 2.93142091566751e-06 -1.4722649388766409e-05 0.20519993748922957 2.521082821235275e-06 -9.7302440203099095e-06 0.24034282322046788 2.7412860230120369e-06 -0.19196578587296437 0.20520170105821153 1.9697432079313103e-06 -0.14052585669562989 0.24034124370273904 2.93142091566751e-06 -1.4722649388766409e-05 0.240346385566479 1.7423964989119081e-06 -0.14053375289506284 0.24034124370273904 2.93142091566751e-06 -1.4722649388766409e-05 0.240346385566479 1.7423964989119081e-06 -0.14053375289506284 0.20519993748922957 2.521082821235275e-06 -9.7302440203099095e-06 0.24034195309694784 1.0499529344890616e-06 -1.2735588245686598e-05 0.19233275854334053 2.6773597853442004e-06 -1.4307080941368043e-05 0.24034124370273904 2.93142091566751e-06 -1.4722649388766409e-05 0.20520170105821153 1.9697432079313103e-06 -0.14052585669562989 0.20519993748922957 2.521082821235275e-06 -9.7302440203099095e-06 0.1989494757338939 3.2020895611852317e-06 -0.30143894692057088 0.20520170105821153 1.9697432079313103e-06 -0.14052585669562989 0.24034282322046788 2.7412860230120369e-06 -0.19196578587296437 0.240346385566479 1.7423964989119081e-06 -0.14053375289506284 0.24034282322046788 2.7412860230120369e-06 -0.19196578587296437 0.24035681218057914 1.2373715000715958e-07 -0.29818964887570032 0.19894947573389388 3.2020895611852317e-06 -0.30143894692057083 0.240346385566479 1.7423964989119081e-06 -0.14053375289506284 0.2403571888055388 2.5792487908870544e-06 -0.38392401887942929 0.24035681218057914 1.2373715000715958e-07 -0.29818964887570032 0.1989494757338939 3.2020895611852317e-06 -0.30143894692057083 0.24034282322046788 2.7412860230120369e-06 -0.19196578587296437 0.1989494757338939 3.2020895611852317e-06 -0.30143894692057088 0.18604717903277335 2.1906030804837731e-06 -0.47822407878426787 0.16461586875740797 1.0138292303691851e-06 -0.29843014771165116 0.19613499847757715 2.5474845595979385e-06 -0.17739610360846969 0.24035681218057914 1.2373715000715958e-07 -0.29818964887570032 0.18604717903277335 2.1906030804837727e-06 -0.47822407878426787 0.1989494757338939 3.2020895611852317e-06 -0.30143894692057088 0.1961349984775772 2.5474845595979402e-06 -0.17739610360846961 0.24035681218057914 1.2373715000715958e-07 -0.29818964887570032 0.16461586875740797 1.0138292303691805e-06 -0.29843014771165111 0.18604717903277337 2.1906030804837714e-06 -0.47822407878426793 0.1961349984775772 2.5474845595979389e-06 -0.17739610360846966 0.24035681218057914 1.2373715000715958e-07 -0.29818964887570032 0.20859568275185467 2.5978488730890923e-06 -0.48572216185977485 0.1989494757338939 3.2020895611852321e-06 -0.30143894692057088 0.18604717903277337 2.1906030804837731e-06 -0.47822407878426787 0.16410924499665208 3.2169521519572324e-06 -0.50201513522709251 0.1989494757338939 3.2020895611852317e-06 -0.30143894692057088 0.20859568275185464 2.5978488730890935e-06 -0.48572216185977479 0.18604717903277337 2.1906030804837731e-06 -0.47822407878426787 0.20859568275185464 2.5978488730890935e-06 -0.48572216185977479 0.2403571888055388 2.5792487908870544e-06 -0.38392401887942929 0.24035681218057914 1.2373715000715958e-07 -0.29818964887570032 0.1989494757338939 3.2020895611852317e-06 -0.30143894692057088 0.2403571888055388 2.5792487908870544e-06 -0.38392401887942929 0.2403711547010233 5.1453657550450353e-07 -0.48762080274108843 0.20859568275185464 2.5978488730890935e-06 -0.48572216185977479 0.24035681218057914 1.2373715000715958e-07 -0.29818964887570032 0.24035681218057914 1.2373715000715958e-07 -0.29818964887570032 0.2403711547010233 5.1453657550450353e-07 -0.48762080274108843 0.20859568275185464 2.5978488730890935e-06 -0.48572216185977479 0.18604717903277337 2.1906030804837731e-06 -0.47822407878426787 0.24035681218057914 1.2373715000715958e-07 -0.29818964887570032 0.24036816735344954 1.8865550647160032e-06 -0.43971520991094515 0.2403711547010233 5.1453657550450353e-07 -0.48762080274108843 0.18604717903277337 2.1906030804837731e-06 -0.47822407878426787 0.24035617745949969 -2.8193875410523985e-07 -0.31602412924692874 0.18045745610115624 -3.4094656218459027e-08 -0.47829399949188783 0.24035593471857 4.8784699741041184e-07 -0.31142820843561636 0.18684611228354636 -2.2126007046913613e-07 -0.20898343585273124 0.24036816735344951 1.8865550647160028e-06 -0.43971520991094509 0.16461586875740797 1.0138292303691851e-06 -0.29843014771165116 0.24035593471857003 4.8784699741041184e-07 -0.31142820843561636 0.18045745610115624 -3.409465621845906e-08 -0.47829399949188789 0.24035681218057914 1.2373715000715958e-07 -0.29818964887570032 0.164615868757408 1.0138292303691851e-06 -0.29843014771165111 0.24036816735344951 1.8865550647160026e-06 -0.43971520991094509 0.18604717903277337 2.1906030804837731e-06 -0.47822407878426787 0.24036816735344951 1.8865550647160028e-06 -0.43971520991094509 0.16461586875740797 1.0138292303691851e-06 -0.29843014771165116 0.18045745610115627 -3.4094656218458676e-08 -0.47829399949188794 0.18604717903277332 2.1906030804837727e-06 -0.47822407878426787 0.24036816735344951 1.8865550647160028e-06 -0.43971520991094509 0.24035681218057914 1.2373715000715958e-07 -0.29818964887570032 0.24035593471857003 4.8784699741041184e-07 -0.31142820843561636 0.16461586875740797 1.0138292303691851e-06 -0.29843014771165116 0.16461586875740797 1.0138292303691851e-06 -0.29843014771165116 0.24035593471857 4.8784699741041163e-07 -0.31142820843561636 0.18045745610115624 -3.409465621845906e-08 -0.47829399949188789 0.18684611228354636 -2.2126007046913621e-07 -0.20898343585273121 0.24035681218057914 1.2373715000715958e-07 -0.29818964887570032 0.24035593471857003 4.8784699741041195e-07 -0.31142820843561636 0.16461586875740794 1.0138292303691843e-06 -0.29843014771165122 0.1961349984775772 2.5474845595979398e-06 -0.17739610360846969 0.24035593471857003 4.8784699741041184e-07 -0.31142820843561636 0.18684611228354636 -2.2126007046913613e-07 -0.20898343585273124 0.164615868757408 1.0138292303691847e-06 -0.29843014771165127 0.1961349984775772 2.5474845595979389e-06 -0.17739610360846975 0.24036906866465238 5.9759527861678126e-07 -0.49873574304026574 0.24036816735344951 1.8865550647160028e-06 -0.43971520991094509 0.24035593471857003 4.8784699741041184e-07 -0.31142820843561636 0.18045745610115624 -3.409465621845906e-08 -0.47829399949188789 0.24035617745949969 -2.8193875410523985e-07 -0.31602412924692874 0.24036906866465238 5.9759527861678126e-07 -0.49873574304026574 0.24035593471857003 4.8784699741041184e-07 -0.31142820843561636 0.18045745610115627 -3.4094656218458987e-08 -0.47829399949188789 0.20239663236998948 1.457266982412733e-06 -1.2552777482023992e-05 0.24034376835667215 -1.8522370427906337e-07 -0.16534403878556772 0.24034645425314102 5.1764736763836502e-07 -0.15258612571528582 0.18684611228354636 -2.2126007046913613e-07 -0.20898343585273124 0.24034645425314102 5.1764736763836502e-07 -0.15258612571528582 0.20475307208560731 2.2933330263660769e-06 -1.0968503901767532e-05 0.18684611228354633 -2.2126007046913648e-07 -0.20898343585273127 0.1961349984775772 2.5474845595979398e-06 -0.17739610360846969 0.24034645425314102 5.1764736763836502e-07 -0.15258612571528582 0.18684611228354633 -2.2126007046913666e-07 -0.20898343585273124 0.24035593471857003 4.8784699741041184e-07 -0.31142820843561636 0.1961349984775772 2.5474845595979398e-06 -0.17739610360846969 0.24034645425314102 5.1764736763836502e-07 -0.15258612571528582 0.24034376835667215 -1.8522370427906337e-07 -0.16534403878556767 0.24035593471857003 4.8784699741041184e-07 -0.31142820843561636 0.18684611228354633 -2.2126007046913589e-07 -0.20898343585273127 0.17485020147481339 1.1442490919175602e-06 -9.0116486201483587e-06 0.18684611228354636 -2.2126007046913611e-07 -0.20898343585273124 0.20475307208560725 2.2933330263660773e-06 -1.0968503901719978e-05 0.1961349984775772 2.5474845595979398e-06 -0.17739610360846969 0.17485020147481339 1.1442490919175602e-06 -9.0116486201483587e-06 0.16461586875740797 1.0138292303691849e-06 -0.29843014771165116 0.18684611228354633 -2.2126007046913637e-07 -0.20898343585273124 0.1961349984775772 2.5474845595979398e-06 -0.17739610360846969 0.24035681218057914 1.2373715000715958e-07 -0.29818964887570032 0.24034645425314102 5.1764736763836502e-07 -0.15258612571528582 0.24035593471857003 4.8784699741041184e-07 -0.31142820843561636 0.1961349984775772 2.5474845595979398e-06 -0.17739610360846969 0.17485020147481339 1.1442490919175602e-06 -9.0116486201483587e-06 0.16187482255806682 -2.936129529766129e-07 -1.1064687666650873e-05 0.20239663236998948 1.457266982412733e-06 -1.2552777482031637e-05 0.18684611228354636 -2.2126007046913613e-07 -0.20898343585273124 0.20239663236998948 1.457266982412733e-06 -1.2552777482023992e-05 0.24034645425314105 5.176473676383647e-07 -0.15258612571528579 0.20475307208560728 2.2933330263660773e-06 -1.0968503901710959e-05 0.18684611228354636 -2.2126007046913613e-07 -0.20898343585273124 0.17485020147481339 1.1442490919175602e-06 -9.0116486201483587e-06 0.20239663236998948 1.457266982412733e-06 -1.2552777482025286e-05 0.20475307208560728 2.2933330263660773e-06 -1.0968503901707135e-05 0.18684611228354636 -2.2126007046913613e-07 -0.20898343585273124 0.16961425172196565 2.497369498368498e-06 -1.3759035635506026e-05 0.17485020147481339 1.1442490919175602e-06 -9.0116486201483587e-06 0.20475307208560728 2.2933330263660773e-06 -1.0968503901719966e-05 0.1961349984775772 2.5474845595979394e-06 -0.17739610360846972 0.24034645425314102 5.1764736763836502e-07 -0.15258612571528582 0.20475307208560731 2.2933330263660769e-06 -1.096850390169365e-05 0.24034195309694784 1.0499529344890616e-06 -1.2735588245688167e-05 0.24033828466746754 7.0162649503936899e-07 -1.4197578352010278e-05 0.24034645425314102 5.1764736763836502e-07 -0.15258612571528582 0.19613499847757718 2.5474845595979398e-06 -0.17739610360846969 0.24034195309694784 1.0499529344890616e-06 -1.2735588245686598e-05 0.20475307208560731 2.2933330263660769e-06 -1.0968503901736968e-05 0.20239663236998948 1.457266982412733e-06 -1.2552777482023992e-05 0.20475307208560728 2.2933330263660773e-06 -1.0968503901710959e-05 0.24034645425314102 5.1764736763836502e-07 -0.15258612571528582 0.24033828466746754 7.0162649503936899e-07 -1.4197578352010278e-05 0.24033828466746754 7.0162649503936899e-07 -1.4197578352010278e-05 0.24034645425314102 5.1764736763836502e-07 -0.15258612571528582 0.20239663236998948 1.457266982412733e-06 -1.2552777482023992e-05 0.24034376835667215 -1.8522370427906319e-07 -0.16534403878556772 0.24033720828320401 5.6696065542224628e-07 -1.7244507540548505e-05 0.24033828466746754 7.0162649503936888e-07 -1.4197578352010278e-05 0.20239663236998948 1.457266982412733e-06 -1.2552777482023992e-05 0.24034376835667215 -1.8522370427906319e-07 -0.16534403878556772 0.19434902357387679 -1.3224640841612513e-06 -1.5122140389601406e-05 0.20519982837581974 -1.663924020085253e-06 -1.0684552015566817e-05 0.24034762045464408 -6.0471691945726372e-07 -0.16250138649878978 0.16538592059114238 -1.1128107739073173e-06 -0.30103060457702463 0.19434902357387679 -1.3224640841612513e-06 -1.5122140389601406e-05 0.24033720828320398 5.6696065542224543e-07 -1.7244507540594052e-05 0.20239663236998948 1.4572669824127328e-06 -1.2552777482032732e-05 0.24034376835667215 -1.8522370427906319e-07 -0.16534403878556772 0.24033720828320401 5.6696065542224628e-07 -1.7244507540548505e-05 0.19434902357387679 -1.3224640841612513e-06 -1.5122140389601406e-05 0.24034762045464411 -6.047169194572634e-07 -0.16250138649878978 0.24034376835667215 -1.8522370427906319e-07 -0.16534403878556772 0.19434902357387679 -1.3224640841612513e-06 -1.5122140389601406e-05 0.1653859205911424 -1.1128107739073179e-06 -0.30103060457702469 0.24034762045464408 -6.0471691945726351e-07 -0.16250138649878976 0.18684611228354636 -2.2126007046913592e-07 -0.20898343585273121 0.20239663236998948 1.457266982412733e-06 -1.2552777482023992e-05 0.16187482255806682 -2.9361295297661274e-07 -1.1064687666656014e-05 0.19434902357387679 -1.3224640841612513e-06 -1.5122140389601406e-05 0.18684611228354636 -2.2126007046913613e-07 -0.20898343585273124 0.20239663236998948 1.457266982412733e-06 -1.2552777482023992e-05 0.19434902357387679 -1.3224640841612513e-06 -1.5122140389601406e-05 0.24034376835667215 -1.8522370427906342e-07 -0.16534403878556772 0.18684611228354636 -2.2126007046913613e-07 -0.20898343585273124 0.19434902357387679 -1.3224640841612513e-06 -1.5122140389601406e-05 0.24034762045464411 -6.047169194572634e-07 -0.16250138649878973 0.24034376835667215 -1.8522370427906319e-07 -0.16534403878556772 0.18684611228354636 -2.2126007046913613e-07 -0.20898343585273124 0.24034762045464411 -6.047169194572634e-07 -0.16250138649878978 0.24035617745949969 -2.8193875410523985e-07 -0.31602412924692874 0.24034376835667218 -1.8522370427906316e-07 -0.16534403878556772 0.18684611228354633 -2.2126007046913627e-07 -0.20898343585273127 0.24034762045464411 -6.047169194572634e-07 -0.16250138649878978 0.19434902357387682 -1.3224640841612505e-06 -1.5122140389603516e-05 0.24033720828320401 5.6696065542224628e-07 -1.7244507540548505e-05 0.24034043516544543 -4.3333234900435775e-07 -1.4723847286475436e-05 0.24034762045464411 -6.047169194572634e-07 -0.16250138649878978 0.19434902357387676 -1.3224640841612518e-06 -1.5122140389645601e-05 0.24034043516544543 -4.3333234900435775e-07 -1.4723847286475436e-05 0.20519982837581974 -1.663924020085253e-06 -1.0684552015566817e-05 0.24034043516544543 -4.3333234900435775e-07 -1.4723847286475436e-05 0.24035047711687405 -1.3305703269154505e-07 -0.1405361810553756 0.24034762045464411 -6.047169194572633e-07 -0.16250138649878978 0.20519982837581974 -1.663924020085253e-06 -1.0684552015566817e-05 0.19968411621853668 -2.6225583169384533e-06 -0.28810563427049568 0.20520457472775863 -1.978031633642476e-06 -0.14052606962205175 0.16493222994342102 -3.1687249333353916e-06 -0.16554236967798897 0.1653859205911424 -1.1128107739073177e-06 -0.30103060457702469 0.19434902357387679 -1.3224640841612513e-06 -1.5122140389601406e-05 0.1668252097089272 -2.2565936956607863e-06 -1.2945205204321535e-05 0.20519982837581974 -1.663924020085253e-06 -1.0684552015566817e-05 0.1653859205911424 -1.1128107739073175e-06 -0.30103060457702463 0.24035499483222808 6.7135389670960705e-08 -0.30340746001557906 0.24034762045464411 -6.047169194572634e-07 -0.16250138649878978 0.24035047711687405 -1.3305703269154505e-07 -0.1405361810553756 0.1653859205911424 -1.1128107739073175e-06 -0.30103060457702469 0.24035047711687405 -1.3305703269154505e-07 -0.1405361810553756 0.24034762045464411 -6.047169194572634e-07 -0.16250138649878978 0.20519982837581976 -1.663924020085253e-06 -1.0684552015586194e-05 0.16538592059114243 -1.1128107739073179e-06 -0.30103060457702457 0.24035047711687405 -1.3305703269154505e-07 -0.1405361810553756 0.20520457472775863 -1.9780316336424764e-06 -0.14052606962205183 0.19968411621853666 -2.6225583169384537e-06 -0.28810563427049563 0.16538592059114243 -1.1128107739073179e-06 -0.3010306045770248 0.24035047711687405 -1.3305703269154505e-07 -0.1405361810553756 0.20519982837581974 -1.663924020085253e-06 -1.0684552015570801e-05 0.20520457472775863 -1.978031633642476e-06 -0.14052606962205175 0.16538592059114243 -1.1128107739073175e-06 -0.30103060457702463 0.1668252097089272 -2.2565936956607863e-06 -1.2945205204326842e-05 0.20520457472775863 -1.978031633642476e-06 -0.14052606962205175 0.20519982837581974 -1.663924020085253e-06 -1.0684552015566817e-05 0.1653859205911424 -1.1128107739073175e-06 -0.30103060457702469 0.20520457472775863 -1.978031633642476e-06 -0.14052606962205175 0.19968411621853668 -2.6225583169384533e-06 -0.28810563427049568 0.24034474020011229 -2.6701783179575668e-06 -0.19196588601835407 0.24035047711687405 -1.3305703269154505e-07 -0.1405361810553756 0.19968411621853668 -2.6225583169384533e-06 -0.28810563427049568 0.24035499483222808 6.7135389670960705e-08 -0.30340746001557906 0.24034474020011229 -2.6701783179575668e-06 -0.19196588601835407 0.24035047711687405 -1.3305703269154505e-07 -0.1405361810553756 0.20519982837581974 -1.663924020085253e-06 -1.0684552015566817e-05 0.24034272588837433 -2.9263024550149658e-06 -1.4053827660598576e-05 0.20520457472775863 -1.978031633642476e-06 -0.14052606962205175 0.19233329274187635 -2.7522715749977132e-06 -1.3087114848961208e-05 0.20520457472775863 -1.978031633642476e-06 -0.14052606962205175 0.24034474020011229 -2.6701783179575668e-06 -0.19196588601835407 0.24034272588837433 -2.9263024550149653e-06 -1.4053827660584876e-05 0.24035047711687405 -1.3305703269154505e-07 -0.1405361810553756 0.24034272588837433 -2.9263024550149658e-06 -1.4053827660598576e-05 0.24035047711687405 -1.3305703269154505e-07 -0.1405361810553756 0.24034043516544543 -4.3333234900435764e-07 -1.4723847286464064e-05 0.20519982837581974 -1.663924020085253e-06 -1.0684552015566817e-05 0.24035047711687405 -1.3305703269154505e-07 -0.1405361810553756 0.24034272588837435 -2.9263024550149658e-06 -1.4053827660587204e-05 0.20520457472775863 -1.978031633642476e-06 -0.14052606962205175 0.20519982837581974 -1.663924020085253e-06 -1.0684552015566817e-05 0.16493222994342102 -3.1687249333353916e-06 -0.16554236967798897 0.1668252097089272 -2.2565936956607863e-06 -1.2945205204326842e-05 0.20520457472775863 -1.9780316336424764e-06 -0.14052606962205175 0.19233329274187635 -2.7522715749977132e-06 -1.3087114848961208e-05 0.20519982837581974 -1.663924020085253e-06 -1.0684552015566817e-05 0.20520457472775863 -1.978031633642476e-06 -0.14052606962205175 0.1668252097089272 -2.2565936956607863e-06 -1.2945205204332527e-05 0.19233329274187635 -2.7522715749977132e-06 -1.3087114848961208e-05 0.16493222994342102 -3.1687249333353916e-06 -0.16554236967798897 0.16538592059114246 -1.1128107739073173e-06 -0.30103060457702474 0.16682520970892717 -2.2565936956607859e-06 -1.2945205204304248e-05 0.1203501877207334 -1.9623884732523168e-06 -0.21672853437758138 0.16493222994342102 -3.1687249333353916e-06 -0.16554236967798897 0.20520457472775863 -1.978031633642476e-06 -0.14052606962205175 0.1668252097089272 -2.2565936956607863e-06 -1.294520520432236e-05 0.16538592059114238 -1.1128107739073167e-06 -0.30103060457702474 0.1668252097089272 -2.2565936956607863e-06 -1.2945205204326842e-05 0.16493222994342102 -3.1687249333353916e-06 -0.16554236967798894 0.14428443242228603 -2.5918009693825302e-06 -1.4775302648308455e-05 0.19233329274187635 -2.7522715749977132e-06 -1.3087114848961208e-05 0.11878651412074082 -2.6104102490082432e-06 -0.12704057337776647 0.096206201768301761 -2.8186582045943349e-06 -1.7603719656457003e-05 0.12257319995525773 -1.2460730624133567e-06 -1.2742194501888053e-05 0.14428443242228603 -2.5918009693825302e-06 -1.4775302648308455e-05 0.12257319995525773 -1.2460730624133567e-06 -1.2742194501888053e-05 0.1668252097089272 -2.2565936956607863e-06 -1.2945205204326842e-05 0.16493222994342102 -3.1687249333353916e-06 -0.16554236967798897 0.14428443242228603 -2.5918009693825302e-06 -1.4775302648308455e-05 0.16493222994342102 -3.1687249333353916e-06 -0.16554236967798897 0.11878651412074082 -2.6104102490082432e-06 -0.12704057337776647 0.12257319995525773 -1.2460730624133567e-06 -1.2742194501888053e-05 0.14428443242228603 -2.5918009693825302e-06 -1.4775302648308455e-05 0.11469535803228782 -3.1959166965980419e-06 -0.30459493069205018 0.16493222994342102 -3.1687249333353916e-06 -0.16554236967798899 0.11878651412074082 -2.6104102490082432e-06 -0.12704057337776647 0.12035018772073341 -1.9623884732523163e-06 -0.21672853437758141 0.11878651412074082 -2.6104102490082432e-06 -0.12704057337776647 0.16493222994342102 -3.1687249333353916e-06 -0.16554236967798897 0.12257319995525773 -1.2460730624133567e-06 -1.2742194501888053e-05 0.12035018772073341 -1.9623884732523163e-06 -0.21672853437758141 0.12257319995525773 -1.2460730624133567e-06 -1.2742194501888053e-05 0.16493222994342105 -3.1687249333353916e-06 -0.16554236967798894 0.1668252097089272 -2.2565936956607863e-06 -1.2945205204326842e-05 0.12035018772073341 -1.9623884732523163e-06 -0.21672853437758144 0.1468009352637803 -1.3512646566031489e-06 -1.2084596254281956e-05 0.12257319995525773 -1.2460730624133567e-06 -1.2742194501888053e-05 0.1668252097089272 -2.2565936956607863e-06 -1.2945205204326842e-05 0.12035018772073341 -1.9623884732523163e-06 -0.21672853437758141 0.1468009352637803 -1.3512646566031489e-06 -1.2084596254281956e-05 0.16538592059114238 -1.1128107739073173e-06 -0.30103060457702463 0.19434902357387679 -1.3224640841612513e-06 -1.5122140389601406e-05 0.18684611228354636 -2.2126007046913613e-07 -0.20898343585273124 0.1468009352637803 -1.3512646566031489e-06 -1.2084596254281956e-05 0.1668252097089272 -2.2565936956607863e-06 -1.2945205204326842e-05 0.1653859205911424 -1.1128107739073177e-06 -0.30103060457702469 0.12035018772073341 -1.9623884732523163e-06 -0.21672853437758141 0.19434902357387679 -1.3224640841612513e-06 -1.5122140389601406e-05 0.1468009352637803 -1.3512646566031489e-06 -1.2084596254292571e-05 0.1668252097089272 -2.2565936956607863e-06 -1.2945205204326842e-05 0.16538592059114238 -1.1128107739073175e-06 -0.30103060457702463 0.1468009352637803 -1.3512646566031489e-06 -1.2084596254281956e-05 0.11018152496384688 -7.0552829818142282e-07 -1.0992816152599633e-05 0.12257319995525773 -1.2460730624133567e-06 -1.2742194501880682e-05 0.12035018772073341 -1.9623884732523163e-06 -0.21672853437758141 0.11018152496384688 -7.0552829818142282e-07 -1.0992816152599633e-05 0.1468009352637803 -1.3512646566031489e-06 -1.2084596254281956e-05 0.12035050998714179 -1.9180773495864715e-07 -0.23955512269168885 0.12035018772073341 -1.9623884732523163e-06 -0.21672853437758141 0.18684611228354636 -2.2126007046913613e-07 -0.20898343585273124 0.1468009352637803 -1.3512646566031489e-06 -1.2084596254290473e-05 0.12035050998714178 -1.9180773495864707e-07 -0.23955512269168883 0.16187482255806682 -2.936129529766129e-07 -1.1064687666656211e-05 0.1653859205911424 -1.1128107739073175e-06 -0.30103060457702469 0.12035050998714179 -1.9180773495864715e-07 -0.23955512269168885 0.14680093526378027 -1.3512646566031489e-06 -1.2084596254299716e-05 0.12035018772073343 -1.9623884732523159e-06 -0.21672853437758141 0.18684611228354636 -2.2126007046913613e-07 -0.20898343585273124 0.12035050998714179 -1.9180773495864715e-07 -0.23955512269168885 0.1468009352637803 -1.3512646566031489e-06 -1.2084596254273253e-05 0.1653859205911424 -1.1128107739073175e-06 -0.30103060457702469 0.12496587880891402 1.4000924419407937e-07 -1.4051268006822842e-05 0.1468009352637803 -1.3512646566031489e-06 -1.2084596254280289e-05 0.16187482255806682 -2.936129529766129e-07 -1.1064687666657878e-05 0.12035050998714179 -1.9180773495864715e-07 -0.23955512269168885 0.11018152496384688 -7.0552829818142282e-07 -1.0992816152599633e-05 0.1468009352637803 -1.3512646566031489e-06 -1.2084596254281956e-05 0.12496587880891402 1.4000924419407937e-07 -1.4051268006822842e-05 0.12035050998714179 -1.9180773495864715e-07 -0.23955512269168885 0.1468009352637803 -1.3512646566031489e-06 -1.2084596254281956e-05 0.19434902357387679 -1.3224640841612513e-06 -1.5122140389601406e-05 0.16187482255806684 -2.9361295297661301e-07 -1.1064687666674774e-05 0.18684611228354636 -2.2126007046913613e-07 -0.20898343585273124 0.1653859205911424 -1.1128107739073175e-06 -0.30103060457702469 0.18045745610115624 -3.4094656218459132e-08 -0.47829399949188789 0.12026670288652996 9.3152987804003084e-08 -0.47980604989802272 0.12044642025863009 -1.5065454476153223e-06 -0.50750519074442002 0.18045745610115624 -3.409465621845906e-08 -0.47829399949188789 0.12044642025863007 -1.5065454476153225e-06 -0.50750519074442002 0.1653859205911424 -1.1128107739073173e-06 -0.30103060457702463 0.1874872982386229 -7.4951480981824062e-07 -0.48000666915075374 0.12026670288652995 9.315298780400319e-08 -0.47980604989802267 0.18045745610115624 -3.409465621845906e-08 -0.47829399949188789 0.1653859205911424 -1.1128107739073167e-06 -0.30103060457702463 0.12035050998714178 -1.9180773495864696e-07 -0.23955512269168874 0.1653859205911424 -1.1128107739073175e-06 -0.30103060457702469 0.12035050998714179 -1.918077349586472e-07 -0.23955512269168885 0.18045745610115624 -3.409465621845906e-08 -0.47829399949188789 0.18684611228354636 -2.2126007046913613e-07 -0.20898343585273124 0.12044642025863007 -1.5065454476153225e-06 -0.50750519074442002 0.12035050998714177 -1.9180773495864731e-07 -0.23955512269168885 0.16538592059114238 -1.1128107739073177e-06 -0.30103060457702469 0.12035018772073343 -1.9623884732523172e-06 -0.21672853437758141 0.12026670288652995 9.315298780400319e-08 -0.47980604989802267 0.16538592059114238 -1.1128107739073175e-06 -0.30103060457702469 0.12044642025863007 -1.5065454476153225e-06 -0.50750519074442002 0.12035050998714178 -1.9180773495864728e-07 -0.23955512269168877 0.19968411621853668 -2.6225583169384533e-06 -0.28810563427049568 0.1653859205911424 -1.1128107739073175e-06 -0.30103060457702469 0.16076168811008412 -2.8857124140928129e-06 -0.36979230833812526 0.18748729823862287 -7.4951480981824052e-07 -0.4800066691507538 0.16493222994342102 -3.1687249333353916e-06 -0.16554236967798897 0.16076168811008412 -2.8857124140928129e-06 -0.36979230833812526 0.19968411621853668 -2.6225583169384533e-06 -0.28810563427049568 0.1653859205911424 -1.1128107739073175e-06 -0.30103060457702469 0.16076168811008412 -2.8857124140928129e-06 -0.36979230833812526 0.11469535803228782 -3.1959166965980419e-06 -0.30459493069205018 0.12044642025863007 -1.5065454476153227e-06 -0.50750519074441991 0.12035018772073341 -1.9623884732523168e-06 -0.21672853437758149 0.16586498400201036 -2.2203235549180908e-06 -0.51995981740316588 0.16076168811008412 -2.8857124140928129e-06 -0.36979230833812526 0.12044642025863009 -1.5065454476153227e-06 -0.50750519074442002 0.18748729823862287 -7.4951480981824041e-07 -0.48000666915075374 0.16493222994342102 -3.1687249333353916e-06 -0.16554236967798897 0.16076168811008412 -2.8857124140928129e-06 -0.36979230833812526 0.1653859205911424 -1.1128107739073173e-06 -0.30103060457702463 0.12035018772073339 -1.9623884732523168e-06 -0.21672853437758138 0.16076168811008412 -2.8857124140928129e-06 -0.36979230833812526 0.12044642025863007 -1.5065454476153225e-06 -0.50750519074442002 0.16538592059114246 -1.1128107739073175e-06 -0.30103060457702469 0.12035018772073343 -1.9623884732523159e-06 -0.21672853437758147 0.1653859205911424 -1.1128107739073175e-06 -0.30103060457702469 0.12044642025863007 -1.5065454476153225e-06 -0.50750519074441991 0.16076168811008412 -2.8857124140928129e-06 -0.36979230833812526 0.18748729823862287 -7.4951480981824052e-07 -0.4800066691507538 0.16493222994342102 -3.1687249333353916e-06 -0.16554236967798897 0.11469535803228782 -3.1959166965980419e-06 -0.30459493069205018 0.16076168811008412 -2.8857124140928129e-06 -0.36979230833812526 0.12035018772073344 -1.9623884732523163e-06 -0.21672853437758144 0.12026174963198892 -2.7620529649951924e-06 -0.46098330307536622 0.16076168811008412 -2.8857124140928129e-06 -0.36979230833812526 0.11469535803228782 -3.1959166965980419e-06 -0.30459493069205018 0.12044642025863007 -1.5065454476153225e-06 -0.50750519074442002 0.12026174963198892 -2.7620529649951924e-06 -0.46098330307536622 0.16586498400201036 -2.2203235549180908e-06 -0.51995981740316588 0.16076168811008412 -2.8857124140928129e-06 -0.36979230833812526 0.12044642025863007 -1.5065454476153225e-06 -0.50750519074442002 0.16076168811008412 -2.8857124140928129e-06 -0.36979230833812526 0.16586498400201036 -2.2203235549180908e-06 -0.51995981740316588 0.20084512174734245 -2.6187209218602297e-06 -0.47056976818954732 0.18748729823862287 -7.4951480981824052e-07 -0.4800066691507538 0.24035499483222808 6.7135389670960705e-08 -0.30340746001557906 0.1653859205911424 -1.1128107739073175e-06 -0.30103060457702469 0.19968411621853668 -2.6225583169384533e-06 -0.28810563427049568 0.18748729823862287 -7.4951480981824041e-07 -0.4800066691507538 0.24035499483222808 6.7135389670960705e-08 -0.30340746001557906 0.24035047711687405 -1.3305703269154505e-07 -0.1405361810553756 0.19968411621853668 -2.6225583169384533e-06 -0.28810563427049568 0.1653859205911424 -1.1128107739073175e-06 -0.30103060457702469 0.20084512174734245 -2.6187209218602297e-06 -0.47056976818954732 0.19968411621853668 -2.6225583169384533e-06 -0.28810563427049568 0.16076168811008412 -2.8857124140928129e-06 -0.36979230833812526 0.18748729823862284 -7.4951480981824052e-07 -0.48000666915075374 0.20084512174734245 -2.6187209218602297e-06 -0.47056976818954732 0.24035499483222808 6.7135389670961062e-08 -0.30340746001557906 0.19968411621853668 -2.6225583169384533e-06 -0.28810563427049568 0.1874872982386229 -7.4951480981824062e-07 -0.4800066691507538 0.19968411621853668 -2.6225583169384533e-06 -0.28810563427049568 0.20084512174734245 -2.6187209218602289e-06 -0.47056976818954738 0.24035589976298122 -3.1398524405271667e-06 -0.38392432218520461 0.24035499483222808 6.7135389670960705e-08 -0.30340746001557906 0.20084512174734245 -2.6187209218602297e-06 -0.47056976818954732 0.2403716734326373 -1.425184507703043e-06 -0.48919016978256652 0.24038268605170127 -3.4864309045349958e-06 -0.5758921398296557 0.24035589976298125 -3.1398524405271663e-06 -0.38392432218520461 0.24035589976298125 -3.1398524405271663e-06 -0.38392432218520461 0.20084512174734245 -2.6187209218602297e-06 -0.47056976818954732 0.2403716734326373 -1.4251845077030434e-06 -0.48919016978256652 0.24035499483222808 6.7135389670960705e-08 -0.30340746001557906 0.24035499483222808 6.7135389670960705e-08 -0.30340746001557906 0.24035589976298125 -3.1398524405271658e-06 -0.38392432218520461 0.19968411621853668 -2.6225583169384533e-06 -0.28810563427049568 0.24034474020011229 -2.6701783179575668e-06 -0.19196588601835407 0.24036926172081988 -1.4958705465165334e-06 -0.43971604181613827 0.24035499483222808 6.7135389670960718e-08 -0.30340746001557906 0.2403716734326373 -1.4251845077030436e-06 -0.48919016978256652 0.18748729823862287 -7.4951480981824052e-07 -0.4800066691507538 0.20084512174734245 -2.6187209218602297e-06 -0.47056976818954732 0.24037167343263732 -1.4251845077030439e-06 -0.48919016978256663 0.24035499483222808 6.7135389670960956e-08 -0.30340746001557906 0.18748729823862287 -7.495148098182402e-07 -0.48000666915075368 0.24035617745949969 -2.8193875410523985e-07 -0.31602412924692874 0.16538592059114238 -1.1128107739073177e-06 -0.30103060457702474 0.18045745610115624 -3.4094656218459278e-08 -0.47829399949188783 0.18684611228354636 -2.2126007046913613e-07 -0.20898343585273124 0.24035617745949969 -2.8193875410523985e-07 -0.31602412924692874 0.24035499483222808 6.7135389670960679e-08 -0.30340746001557906 0.24036926172081988 -1.4958705465165334e-06 -0.43971604181613827 0.1653859205911424 -1.1128107739073175e-06 -0.30103060457702469 0.24036926172081988 -1.4958705465165334e-06 -0.43971604181613827 0.18045745610115624 -3.4094656218458504e-08 -0.478293999491888 0.16538592059114238 -1.1128107739073175e-06 -0.30103060457702463 0.18748729823862284 -7.4951480981824009e-07 -0.4800066691507538 0.24034762045464411 -6.047169194572634e-07 -0.16250138649878978 0.24035499483222805 6.7135389670960679e-08 -0.30340746001557906 0.24035617745949969 -2.8193875410523985e-07 -0.31602412924692874 0.1653859205911424 -1.1128107739073175e-06 -0.30103060457702469 0.24036926172081988 -1.4958705465165334e-06 -0.43971604181613827 0.1653859205911424 -1.1128107739073177e-06 -0.30103060457702469 0.24035499483222808 6.7135389670960705e-08 -0.30340746001557906 0.1874872982386229 -7.4951480981824052e-07 -0.48000666915075385 0.24034762045464411 -6.047169194572634e-07 -0.16250138649878978 0.1653859205911424 -1.1128107739073175e-06 -0.30103060457702463 0.24035617745949969 -2.8193875410523985e-07 -0.31602412924692874 0.18684611228354636 -2.2126007046913584e-07 -0.20898343585273119 0.24035617745949969 -2.8193875410523985e-07 -0.31602412924692874 0.1653859205911424 -1.1128107739073175e-06 -0.30103060457702469 0.24036926172081988 -1.4958705465165334e-06 -0.43971604181613827 0.18045745610115627 -3.4094656218459582e-08 -0.47829399949188783 0.24035593471857003 4.8784699741041184e-07 -0.31142820843561636 0.24034376835667215 -1.8522370427906319e-07 -0.16534403878556772 0.24035617745949969 -2.8193875410523985e-07 -0.31602412924692874 0.18684611228354636 -2.2126007046913613e-07 -0.20898343585273124 0.24035617745949969 -2.8193875410523985e-07 -0.31602412924692874 0.24036926172081988 -1.4958705465165334e-06 -0.43971604181613827 0.24036906866465238 5.9759527861678126e-07 -0.49873574304026574 0.18045745610115629 -3.4094656218458643e-08 -0.47829399949188794 0.24039109833454483 -9.0418030553374509e-07 -0.57543846566253498 0.18045745610115624 -3.409465621845906e-08 -0.47829399949188789 0.16534324518997981 -8.7173810362878654e-07 -0.65971899039612658 0.18765479727465398 -3.8060801405551805e-07 -0.74878203268951293 0.24039109833454483 -9.0418030553374509e-07 -0.57543846566253498 0.24042096067452251 -1.6835251994134089e-06 -0.69802948408943277 0.16534324518997981 -8.7173810362878633e-07 -0.65971899039612658 0.1962643118759349 -1.6762147527940067e-06 -0.78315817335010396 0.24039109833454483 -9.0418030553374509e-07 -0.57543846566253498 0.24039972547268548 6.3961347254127241e-07 -0.64615797626728855 0.24036906866465238 5.9759527861678126e-07 -0.49873574304026574 0.18045745610115624 -3.409465621845906e-08 -0.47829399949188789 0.24039109833454483 -9.0418030553374509e-07 -0.57543846566253498 0.18045745610115624 -3.4094656218458993e-08 -0.47829399949188789 0.24036926172081988 -1.4958705465165334e-06 -0.43971604181613827 0.18748729823862284 -7.4951480981824041e-07 -0.48000666915075374 0.16534324518997981 -8.7173810362878654e-07 -0.65971899039612658 0.18748729823862284 -7.4951480981824041e-07 -0.4800066691507538 0.24039109833454483 -9.0418030553374498e-07 -0.57543846566253498 0.1962643118759349 -1.6762147527940073e-06 -0.78315817335010407 0.24039109833454483 -9.0418030553374509e-07 -0.57543846566253498 0.16534324518997981 -8.7173810362878654e-07 -0.65971899039612658 0.18045745610115624 -3.4094656218459113e-08 -0.47829399949188794 0.18748729823862284 -7.4951480981824041e-07 -0.48000666915075374 0.24039972547268548 6.3961347254127241e-07 -0.64615797626728855 0.18045745610115621 -3.4094656218459252e-08 -0.47829399949188789 0.24039109833454483 -9.0418030553374509e-07 -0.57543846566253498 0.18765479727465395 -3.806080140555181e-07 -0.74878203268951293 0.24042096067452251 -1.6835251994134089e-06 -0.69802948408943277 0.24039109833454483 -9.0418030553374509e-07 -0.57543846566253498 0.16534324518997978 -8.7173810362878781e-07 -0.65971899039612658 0.18765479727465398 -3.8060801405551635e-07 -0.74878203268951282 0.24039109833454483 -9.0418030553374509e-07 -0.57543846566253498 0.24036906866465238 5.9759527861678126e-07 -0.49873574304026574 0.24036926172081988 -1.4958705465165334e-06 -0.43971604181613827 0.18045745610115624 -3.409465621845906e-08 -0.47829399949188789 0.24042096067452251 -1.6835251994134089e-06 -0.69802948408943277 0.24039972547268551 6.3961347254127231e-07 -0.64615797626728855 0.24039109833454483 -9.0418030553374509e-07 -0.57543846566253498 0.18765479727465398 -3.8060801405551805e-07 -0.74878203268951293 0.24039109833454483 -9.0418030553374509e-07 -0.57543846566253498 0.24041215195887009 -6.4666617187166793e-07 -0.67730952783844811 0.24042096067452251 -1.6835251994134089e-06 -0.69802948408943277 0.1962643118759349 -1.6762147527940073e-06 -0.78315817335010407 0.24039109833454483 -9.0418030553374509e-07 -0.57543846566253498 0.24036926172081988 -1.4958705465165334e-06 -0.43971604181613827 0.2403716734326373 -1.4251845077030436e-06 -0.48919016978256652 0.18748729823862287 -7.4951480981824052e-07 -0.4800066691507538 0.2403716734326373 -1.4251845077030436e-06 -0.48919016978256652 0.19592181815317425 -2.8290665439286531e-06 -0.66141539040622677 0.24041215195887009 -6.4666617187166793e-07 -0.67730952783844811 0.18748729823862284 -7.4951480981823999e-07 -0.4800066691507538 0.19592181815317425 -2.8290665439286526e-06 -0.66141539040622677 0.18748729823862284 -7.4951480981824073e-07 -0.48000666915075374 0.16534324518997984 -8.7173810362878612e-07 -0.65971899039612647 0.1962643118759349 -1.6762147527940073e-06 -0.78315817335010407 0.19592181815317425 -2.8290665439286526e-06 -0.66141539040622677 0.24041215195887009 -6.4666617187166804e-07 -0.67730952783844822 0.18748729823862287 -7.4951480981824084e-07 -0.4800066691507538 0.1962643118759349 -1.6762147527940073e-06 -0.78315817335010407 0.24041215195887009 -6.4666617187166793e-07 -0.67730952783844811 0.24039109833454483 -9.0418030553374509e-07 -0.57543846566253498 0.18748729823862287 -7.4951480981824052e-07 -0.4800066691507538 0.1962643118759349 -1.6762147527940073e-06 -0.78315817335010407 0.2403716734326373 -1.4251845077030436e-06 -0.48919016978256652 0.24041215195887009 -6.4666617187166793e-07 -0.67730952783844811 0.24039109833454483 -9.0418030553374509e-07 -0.57543846566253498 0.18748729823862287 -7.4951480981824052e-07 -0.4800066691507538 0.24041215195887009 -6.4666617187166793e-07 -0.67730952783844811 0.19592181815317425 -2.8290665439286526e-06 -0.66141539040622677 0.24038268605170127 -3.4864309045349958e-06 -0.5758921398296557 0.2404313907764721 -2.8473510755851665e-06 -0.76786931050629581 0.19592181815317425 -2.8290665439286526e-06 -0.66141539040622677 0.24038268605170127 -3.4864309045349958e-06 -0.5758921398296557 0.2403716734326373 -1.4251845077030436e-06 -0.48919016978256652 0.24041215195887009 -6.4666617187166793e-07 -0.67730952783844811 0.2403716734326373 -1.4251845077030436e-06 -0.48919016978256652 0.24038268605170129 -3.4864309045349958e-06 -0.5758921398296557 0.19592181815317425 -2.8290665439286526e-06 -0.66141539040622677 0.20084512174734243 -2.6187209218602293e-06 -0.47056976818954721 0.19592181815317425 -2.8290665439286526e-06 -0.66141539040622677 0.20084512174734245 -2.6187209218602297e-06 -0.47056976818954732 0.16586498400201036 -2.2203235549180908e-06 -0.51995981740316588 0.18748729823862287 -7.4951480981824052e-07 -0.4800066691507538 0.19592181815317425 -2.8290665439286526e-06 -0.66141539040622677 0.2403716734326373 -1.4251845077030436e-06 -0.48919016978256652 0.20084512174734245 -2.6187209218602297e-06 -0.47056976818954732 0.18748729823862287 -7.4951480981824052e-07 -0.4800066691507538 0.16586498400201036 -2.2203235549180908e-06 -0.51995981740316588 0.14437830202015778 -3.2017162682038672e-06 -0.64826075615685186 0.16534324518997981 -8.7173810362878643e-07 -0.65971899039612658 0.12044642025863009 -1.5065454476153225e-06 -0.50750519074442002 0.14437830202015778 -3.2017162682038672e-06 -0.64826075615685186 0.19592181815317425 -2.8290665439286526e-06 -0.66141539040622677 0.16586498400201036 -2.2203235549180908e-06 -0.51995981740316588 0.16534324518997981 -8.7173810362878654e-07 -0.65971899039612658 0.19592181815317425 -2.8290665439286526e-06 -0.66141539040622677 0.16586498400201036 -2.2203235549180908e-06 -0.51995981740316588 0.16534324518997984 -8.7173810362878601e-07 -0.65971899039612658 0.18748729823862287 -7.4951480981824052e-07 -0.4800066691507538 0.16707454891578555 -2.6091279383306525e-06 -0.80710676360140243 0.16534324518997981 -8.7173810362878622e-07 -0.65971899039612647 0.14437830202015778 -3.2017162682038672e-06 -0.64826075615685197 0.12051376950375868 -2.5235454340577993e-06 -0.74930266198453921 0.16534324518997981 -8.7173810362878654e-07 -0.65971899039612658 0.16586498400201036 -2.2203235549180912e-06 -0.51995981740316599 0.12044642025863005 -1.5065454476153225e-06 -0.50750519074441991 0.18748729823862287 -7.4951480981824052e-07 -0.4800066691507538 0.16534324518997981 -8.7173810362878654e-07 -0.65971899039612658 0.12044642025863006 -1.5065454476153223e-06 -0.50750519074442002 0.14437830202015778 -3.2017162682038672e-06 -0.64826075615685186 0.12051376950375868 -2.5235454340577993e-06 -0.74930266198453921 0.14437830202015778 -3.2017162682038672e-06 -0.64826075615685186 0.19592181815317425 -2.8290665439286526e-06 -0.66141539040622677 0.16534324518997981 -8.7173810362878654e-07 -0.65971899039612658 0.1962643118759349 -1.6762147527940073e-06 -0.78315817335010407 0.16586498400201036 -2.2203235549180908e-06 -0.51995981740316588 0.12026174963198892 -2.7620529649951924e-06 -0.46098330307536622 0.14437830202015778 -3.2017162682038672e-06 -0.64826075615685186 0.12044642025863007 -1.5065454476153232e-06 -0.50750519074442002 0.12026670288652995 9.315298780400319e-08 -0.47980604989802267 0.16534324518997981 -8.7173810362878665e-07 -0.65971899039612647 0.11985906469405931 2.6384753890258167e-07 -0.72014130942009036 0.12044642025863007 -1.5065454476153225e-06 -0.50750519074442002 0.16534324518997981 -8.7173810362878654e-07 -0.65971899039612658 0.12026670288652995 9.3152987804002925e-08 -0.47980604989802267 0.18045745610115621 -3.4094656218459298e-08 -0.47829399949188783 0.12044642025863005 -1.5065454476153232e-06 -0.5075051907444198 0.16534324518997981 -8.7173810362878654e-07 -0.65971899039612658 0.18045745610115621 -3.4094656218458821e-08 -0.47829399949188789 0.12026670288652995 9.315298780400319e-08 -0.47980604989802267 0.11985906469405935 2.6384753890258162e-07 -0.72014130942009036 0.18045745610115624 -3.409465621845906e-08 -0.47829399949188789 0.11985906469405934 2.6384753890258135e-07 -0.72014130942009025 0.16534324518997981 -8.7173810362878654e-07 -0.65971899039612658 0.18765479727465398 -3.8060801405551805e-07 -0.74878203268951293 0.11985906469405933 2.6384753890258162e-07 -0.72014130942009025 0.12044642025863007 -1.5065454476153225e-06 -0.50750519074442002 0.16534324518997981 -8.7173810362878654e-07 -0.65971899039612658 0.12051376950375868 -2.5235454340577993e-06 -0.74930266198453921 0.16534324518997981 -8.7173810362878654e-07 -0.65971899039612658 0.12044642025863006 -1.5065454476153227e-06 -0.50750519074442002 0.18045745610115627 -3.4094656218459046e-08 -0.47829399949188789 0.18748729823862287 -7.4951480981824052e-07 -0.4800066691507538 0.1102978412795261 1.2065175329865298e-07 -0.95957946912992387 0.11985906469405933 2.6384753890258162e-07 -0.72014130942009025 0.14430931386797272 -9.4077975160006734e-07 -0.95965316397185008 0.12051376950375868 -2.5235454340577993e-06 -0.74930266198453921 0.14430931386797272 -9.4077975160006734e-07 -0.95965316397185008 0.16534324518997981 -8.7173810362878612e-07 -0.65971899039612658 0.17500539955713593 -5.7215398875031879e-07 -0.95971727686741404 0.1962643118759349 -1.6762147527940073e-06 -0.78315817335010407 0.14430931386797272 -9.4077975160006734e-07 -0.95965316397185008 0.16534324518997981 -8.7173810362878654e-07 -0.65971899039612658 0.11985906469405934 2.638475389025812e-07 -0.72014130942009014 0.18765479727465398 -3.8060801405551805e-07 -0.74878203268951293 0.14430931386797272 -9.4077975160006734e-07 -0.95965316397185008 0.12051376950375868 -2.5235454340577993e-06 -0.74930266198453921 0.16534324518997981 -8.7173810362878718e-07 -0.65971899039612658 0.1962643118759349 -1.6762147527940073e-06 -0.78315817335010407 0.14430931386797272 -9.4077975160006734e-07 -0.95965316397185008 0.11985906469405935 2.6384753890258199e-07 -0.72014130942009025 0.16534324518997981 -8.7173810362878612e-07 -0.65971899039612658 0.12051376950375867 -2.5235454340577993e-06 -0.74930266198453921 0.14430931386797272 -9.4077975160006734e-07 -0.95965316397185008 0.17500539955713593 -5.7215398875031879e-07 -0.95971727686741404 0.16534324518997981 -8.7173810362878654e-07 -0.65971899039612658 0.18765479727465398 -3.8060801405551805e-07 -0.74878203268951293 0.14430931386797272 -9.4077975160006734e-07 -0.95965316397185008 0.11985906469405935 2.6384753890258151e-07 -0.72014130942009025 0.16202386900459201 2.2273628582695153e-07 -0.95968661367964569 0.18765479727465398 -3.8060801405551805e-07 -0.74878203268951293 0.16982186375605851 -3.5505561684213355e-06 -0.95970415587069791 0.14430931386797272 -9.4077975160006734e-07 -0.95965316397185008 0.17500539955713593 -5.7215398875031879e-07 -0.95971727686741404 0.19626431187593493 -1.6762147527940071e-06 -0.78315817335010407 0.14430931386797272 -9.4077975160006734e-07 -0.95965316397185008 0.16202386900459204 2.2273628582695146e-07 -0.95968661367964581 0.17500539955713593 -5.7215398875031879e-07 -0.95971727686741404 0.18765479727465398 -3.8060801405551805e-07 -0.74878203268951293 0.1102978412795261 1.2065175329865298e-07 -0.95957946912992387 0.12509781839041442 3.9632417330998779e-07 -0.95961173519211584 0.14430931386797272 -9.4077975160006734e-07 -0.95965316397185008 0.11985906469405933 2.6384753890258162e-07 -0.72014130942009025 0.16202386900459204 2.2273628582695146e-07 -0.95968661367964581 0.14430931386797269 -9.4077975160006713e-07 -0.95965316397185008 0.12509781839041445 3.9632417330998768e-07 -0.95961173519211584 0.11985906469405933 2.6384753890258162e-07 -0.72014130942009025 0.14430931386797272 -9.4077975160006734e-07 -0.95965316397185008 0.12270162966027424 -1.2504769943858713e-06 -0.95960693357172855 0.1102978412795261 1.2065175329865298e-07 -0.95957946912992387 0.12051376950375868 -2.5235454340577993e-06 -0.74930266198453921 0.12270162966027424 -1.2504769943858715e-06 -0.95960693357172855 0.16982186375605851 -3.5505561684213355e-06 -0.95970415587069791 0.16707454891578555 -2.6091279383306525e-06 -0.80710676360140243 0.12051376950375867 -2.5235454340577989e-06 -0.7493026619845391 0.16534324518997981 -8.7173810362878654e-07 -0.65971899039612658 0.12051376950375868 -2.5235454340577993e-06 -0.74930266198453921 0.16707454891578555 -2.6091279383306525e-06 -0.80710676360140243 0.1962643118759349 -1.6762147527940073e-06 -0.78315817335010407 0.16982186375605851 -3.5505561684213355e-06 -0.95970415587069791 0.16707454891578555 -2.6091279383306529e-06 -0.80710676360140243 0.12051376950375869 -2.5235454340577993e-06 -0.74930266198453921 0.1962643118759349 -1.6762147527940067e-06 -0.78315817335010407 0.16982186375605851 -3.5505561684213355e-06 -0.95970415587069791 0.12051376950375869 -2.5235454340577989e-06 -0.74930266198453921 0.14430931386797272 -9.4077975160006734e-07 -0.95965316397185008 0.1962643118759349 -1.6762147527940064e-06 -0.78315817335010407 0.16982186375605851 -3.5505561684213355e-06 -0.95970415587069791 0.12270162966027424 -1.2504769943858715e-06 -0.95960693357172855 0.14430931386797272 -9.4077975160006734e-07 -0.95965316397185008 0.12051376950375869 -2.5235454340577989e-06 -0.74930266198453943 0.14437830202015778 -3.2017162682038672e-06 -0.64826075615685186 0.16534324518997978 -8.7173810362878368e-07 -0.6597189903961268 0.16707454891578555 -2.6091279383306525e-06 -0.80710676360140243 0.1962643118759349 -1.6762147527940073e-06 -0.78315817335010407 0.16707454891578555 -2.6091279383306525e-06 -0.80710676360140243 0.14437830202015778 -3.2017162682038672e-06 -0.64826075615685186 0.11992255902630532 -2.8607269876417305e-06 -0.79429842596453804 0.12051376950375868 -2.5235454340577993e-06 -0.74930266198453921 0.16707454891578555 -2.6091279383306525e-06 -0.80710676360140243 0.11992255902630532 -2.8607269876417305e-06 -0.79429842596453804 0.12270162966027423 -1.2504769943858713e-06 -0.95960693357172855 0.12051376950375868 -2.5235454340577993e-06 -0.74930266198453921 0.14442840458646317 -3.1257371869651945e-06 -0.95964951397609244 0.11992255902630532 -2.8607269876417305e-06 -0.79429842596453804 0.12270162966027424 -1.2504769943858715e-06 -0.95960693357172855 0.16707454891578555 -2.6091279383306525e-06 -0.80710676360140243 0.12270162966027424 -1.2504769943858715e-06 -0.95960693357172855 0.096315822223125541 -3.3467847553215173e-06 -0.95955283172677552 0.11992255902630532 -2.860726987641731e-06 -0.79429842596453804 0.14442840458646317 -3.1257371869651945e-06 -0.95964951397609244 0.12270162966027424 -1.2504769943858715e-06 -0.95960693357172855 0.16982186375605851 -3.5505561684213355e-06 -0.95970415587069791 0.14442840458646317 -3.125737186965194e-06 -0.95964951397609233 0.16707454891578555 -2.6091279383306525e-06 -0.80710676360140243 0.16982186375605851 -3.5505561684213355e-06 -0.95970415587069791 0.14442840458646317 -3.1257371869651945e-06 -0.95964951397609244 0.16707454891578555 -2.6091279383306525e-06 -0.80710676360140243 0.19249648834582267 -2.5375609541514191e-06 -0.95976406097360201 0.14437830202015778 -3.2017162682038672e-06 -0.64826075615685186 0.16707454891578558 -2.6091279383306525e-06 -0.80710676360140243 0.19592181815317425 -2.8290665439286526e-06 -0.66141539040622677 0.1962643118759349 -1.6762147527940073e-06 -0.78315817335010407 0.16982186375605851 -3.5505561684213355e-06 -0.95970415587069791 0.20536304152856535 -2.4454274302158262e-06 -0.95978771813292452 0.16707454891578555 -2.6091279383306521e-06 -0.80710676360140232 0.19626431187593493 -1.6762147527940073e-06 -0.78315817335010407 0.20536304152856535 -2.4454274302158262e-06 -0.95978771813292452 0.16982186375605851 -3.5505561684213355e-06 -0.95970415587069791 0.20491409871508506 -2.0233858569212482e-06 -0.95978481136305283 0.1962643118759349 -1.6762147527940073e-06 -0.78315817335010407 0.24041215195887009 -6.4666617187166793e-07 -0.67730952783844811 0.19592181815317428 -2.8290665439286526e-06 -0.66141539040622688 0.20530316088288678 -2.1000565753481739e-06 -0.81926028513511651 0.19626431187593488 -1.6762147527940075e-06 -0.78315817335010407 0.16707454891578555 -2.6091279383306525e-06 -0.80710676360140243 0.2053031608828868 -2.1000565753481739e-06 -0.81926028513511651 0.19592181815317425 -2.8290665439286526e-06 -0.66141539040622677 0.1962643118759349 -1.6762147527940073e-06 -0.78315817335010407 0.2053031608828868 -2.1000565753481739e-06 -0.81926028513511651 0.16707454891578555 -2.6091279383306525e-06 -0.80710676360140243 0.20536304152856535 -2.4454274302158262e-06 -0.95978771813292452 0.1962643118759349 -1.6762147527940073e-06 -0.78315817335010407 0.19249648834582267 -2.5375609541514191e-06 -0.95976406097360201 0.16707454891578552 -2.6091279383306521e-06 -0.80710676360140232 0.16982186375605851 -3.5505561684213355e-06 -0.95970415587069791 0.20536304152856535 -2.4454274302158262e-06 -0.95978771813292452 0.19249648834582267 -2.5375609541514191e-06 -0.95976406097360201 0.20530316088288683 -2.1000565753481739e-06 -0.81926028513511662 0.16707454891578555 -2.6091279383306525e-06 -0.80710676360140243 0.20536304152856535 -2.4454274302158262e-06 -0.95978771813292452 0.24051201709229386 -2.875720516302673e-06 -0.95986112018265679 0.24045415822802074 -8.6397283467572089e-07 -0.81931191196690567 0.20530316088288678 -2.1000565753481739e-06 -0.81926028513511651 0.20536304152856535 -2.4454274302158262e-06 -0.95978771813292452 0.19249648834582267 -2.5375609541514191e-06 -0.95976406097360201 0.24051201709229386 -2.875720516302673e-06 -0.95986112018265679 0.2053031608828868 -2.1000565753481739e-06 -0.81926028513511651 0.20536304152856535 -2.4454274302158262e-06 -0.95978771813292452 0.20536304152856535 -2.4454274302158262e-06 -0.95978771813292452 0.24051201709229386 -2.875720516302673e-06 -0.95986112018265679 0.24045415822802074 -8.6397283467572078e-07 -0.81931191196690567 0.24051069510643563 -1.2722069582262151e-06 -0.95985226728455419 0.2053031608828868 -2.1000565753481739e-06 -0.81926028513511651 0.24045415822802074 -8.6397283467572078e-07 -0.81931191196690567 0.24051201709229386 -2.875720516302673e-06 -0.95986112018265679 0.2404313907764721 -2.8473510755851665e-06 -0.76786931050629581 0.2053031608828868 -2.1000565753481739e-06 -0.81926028513511651 0.19592181815317425 -2.8290665439286526e-06 -0.66141539040622677 0.24041215195887009 -6.4666617187166857e-07 -0.67730952783844822 0.2404313907764721 -2.8473510755851665e-06 -0.76786931050629581 0.24041215195887009 -6.4666617187166793e-07 -0.67730952783844811 0.24045415822802074 -8.6397283467572057e-07 -0.81931191196690567 0.2053031608828868 -2.1000565753481739e-06 -0.81926028513511651 0.2404313907764721 -2.8473510755851665e-06 -0.76786931050629581 0.24045415822802074 -8.6397283467572078e-07 -0.81931191196690567 0.2404544250265383 -6.2176783214419276e-07 -0.81752988288793349 0.24041215195887009 -6.4666617187166793e-07 -0.67730952783844811 0.1962643118759349 -1.6762147527940073e-06 -0.78315817335010407 0.24041215195887009 -6.4666617187166793e-07 -0.67730952783844811 0.2053031608828868 -2.1000565753481739e-06 -0.81926028513511651 0.24045415822802074 -8.6397283467572078e-07 -0.81931191196690567 0.1962643118759349 -1.6762147527940073e-06 -0.78315817335010407 0.20536304152856535 -2.4454274302158262e-06 -0.95978771813292452 0.20491409871508506 -2.0233858569212482e-06 -0.95978481136305271 0.24051069510643563 -1.2722069582262151e-06 -0.95985226728455419 0.1962643118759349 -1.6762147527940073e-06 -0.78315817335010407 0.24045415822802074 -8.6397283467572078e-07 -0.81931191196690567 0.20536304152856533 -2.4454274302158262e-06 -0.95978771813292452 0.24051069510643563 -1.2722069582262151e-06 -0.95985226728455419 0.1962643118759349 -1.6762147527940073e-06 -0.78315817335010407 0.24045415822802074 -8.6397283467572078e-07 -0.81931191196690567 0.24051069510643563 -1.2722069582262151e-06 -0.95985226728455419 0.2404544250265383 -6.2176783214419276e-07 -0.81752988288793349 0.1962643118759349 -1.6762147527940073e-06 -0.78315817335010407 0.2053031608828868 -2.1000565753481739e-06 -0.81926028513511651 0.20536304152856535 -2.4454274302158262e-06 -0.95978771813292452 0.24045415822802074 -8.6397283467572078e-07 -0.81931191196690567 0.19626431187593493 -1.6762147527940075e-06 -0.78315817335010418 0.24051069510643563 -1.2722069582262151e-06 -0.95985226728455419 0.24045442502653833 -6.2176783214419297e-07 -0.8175298828879336 0.20491409871508506 -2.0233858569212482e-06 -0.95978481136305283 0.24050772569435788 1.5561667967774291e-07 -0.95985406073259949 0.24051069510643563 -1.2722069582262151e-06 -0.95985226728455419 0.20491409871508506 -2.0233858569212478e-06 -0.95978481136305283 0.2404544250265383 -6.2176783214419276e-07 -0.81752988288793349 0.19626431187593488 -1.6762147527940075e-06 -0.78315817335010396 0.2404544250265383 -6.2176783214419276e-07 -0.81752988288793349 0.20491409871508506 -2.0233858569212482e-06 -0.95978481136305283 0.18765479727465398 -3.8060801405551815e-07 -0.74878203268951293 0.19626431187593496 -1.6762147527940073e-06 -0.78315817335010418 0.16534324518997981 -8.7173810362878654e-07 -0.65971899039612658 0.18765479727465398 -3.8060801405551805e-07 -0.74878203268951293 0.17500539955713593 -5.721539887503189e-07 -0.95971727686741415 0.1962643118759349 -1.6762147527940073e-06 -0.78315817335010407 0.24042096067452251 -1.6835251994134089e-06 -0.69802948408943277 0.2404544250265383 -6.2176783214419276e-07 -0.81752988288793349 0.18765479727465398 -3.8060801405551757e-07 -0.74878203268951293 0.19626431187593488 -1.6762147527940079e-06 -0.78315817335010396 0.20491409871508506 -2.0233858569212482e-06 -0.95978481136305283 0.17500539955713593 -5.7215398875031879e-07 -0.95971727686741404 0.18765479727465398 -3.8060801405551805e-07 -0.74878203268951293 0.19626431187593488 -1.6762147527940073e-06 -0.78315817335010396 0.24042096067452251 -1.6835251994134089e-06 -0.69802948408943277 0.18765479727465401 -3.8060801405551821e-07 -0.74878203268951293 0.16534324518997984 -8.7173810362878675e-07 -0.65971899039612658 0.19626431187593488 -1.6762147527940073e-06 -0.78315817335010407 0.20491409871508506 -2.0233858569212482e-06 -0.95978481136305283 0.2404544250265383 -6.2176783214419287e-07 -0.8175298828879336 0.2404479612060596 -6.3272200396443391e-08 -0.80810948871847699 0.24050772569435788 1.5561667967774291e-07 -0.95985406073259949 0.17500539955713593 -5.7215398875031879e-07 -0.95971727686741404 0.20491409871508504 -2.0233858569212482e-06 -0.95978481136305294 0.16982186375605851 -3.5505561684213355e-06 -0.95970415587069791 0.1962643118759349 -1.6762147527940073e-06 -0.78315817335010407 0.24041215195887009 -6.4666617187166793e-07 -0.67730952783844811 0.2404544250265383 -6.2176783214419276e-07 -0.81752988288793349 0.24042096067452251 -1.6835251994134089e-06 -0.69802948408943277 0.1962643118759349 -1.6762147527940073e-06 -0.78315817335010407 0.20491409871508506 -2.0233858569212482e-06 -0.95978481136305283 0.24044796120605957 -6.3272200396443749e-08 -0.8081094887184771 0.2404544250265383 -6.2176783214419276e-07 -0.81752988288793349 0.18765479727465398 -3.8060801405551805e-07 -0.74878203268951293 0.2404544250265383 -6.2176783214419276e-07 -0.81752988288793349 0.2404479612060596 -6.3272200396443802e-08 -0.80810948871847699 0.24042096067452251 -1.6835251994134089e-06 -0.69802948408943277 0.18765479727465398 -3.8060801405551805e-07 -0.74878203268951293 0.24042096067452251 -1.6835251994134089e-06 -0.69802948408943277 0.2404479612060596 -6.3272200396443484e-08 -0.80810948871847699 0.24039972547268548 6.3961347254127241e-07 -0.64615797626728855 0.18765479727465398 -3.8060801405551805e-07 -0.74878203268951293 0.17500539955713593 -5.7215398875031879e-07 -0.95971727686741404 0.16202386900459204 2.2273628582695143e-07 -0.95968661367964581 0.20255861937939124 -5.0973411813596723e-08 -0.95978309103285286 0.18765479727465398 -3.8060801405551805e-07 -0.74878203268951293 0.20255861937939124 -5.0973411813596723e-08 -0.95978309103285298 0.20491409871508506 -2.0233858569212482e-06 -0.95978481136305283 0.17500539955713593 -5.7215398875031879e-07 -0.95971727686741404 0.18765479727465398 -3.8060801405551805e-07 -0.74878203268951293 0.20255861937939124 -5.0973411813596723e-08 -0.95978309103285298 0.2404479612060596 -6.3272200396443391e-08 -0.80810948871847699 0.20491409871508506 -2.0233858569212482e-06 -0.95978481136305283 0.18765479727465398 -3.8060801405551805e-07 -0.74878203268951293 0.24050772569435788 1.5561667967774291e-07 -0.95985406073259949 0.2404479612060596 -6.3272200396443391e-08 -0.80810948871847699 0.20255861937939124 -5.0973411813596723e-08 -0.95978309103285298 0.24050936574019469 5.1977043765495467e-07 -0.95985325613192674 0.2404479612060596 -6.3272200396443391e-08 -0.80810948871847699 0.20255861937939126 -5.0973411813596346e-08 -0.95978309103285298 0.20491409871508509 -2.0233858569212486e-06 -0.95978481136305283 0.24050772569435788 1.5561667967774291e-07 -0.95985406073259949 0.1945021923497432 1.491310695050834e-06 -0.95975807391724144 0.18765479727465403 -3.8060801405551598e-07 -0.74878203268951293 0.16511959394967821 1.2512716093208094e-07 -0.65881861163378841 0.18685516687529583 2.2276310260527614e-06 -0.7837687200812623 0.1945021923497432 1.491310695050834e-06 -0.95975807391724144 0.24043926864480961 1.4144064774685344e-06 -0.77593047513404212 0.18765479727465398 -3.8060801405551805e-07 -0.74878203268951293 0.18685516687529583 2.2276310260527614e-06 -0.7837687200812623 0.24050936574019469 5.1977043765495467e-07 -0.95985325613192674 0.2404479612060596 -6.3272200396443391e-08 -0.80810948871847699 0.20255861937939124 -5.0973411813596723e-08 -0.95978309103285298 0.24043926864480961 1.4144064774685344e-06 -0.77593047513404212 0.16511959394967823 1.2512716093208266e-07 -0.6588186116337883 0.18765479727465398 -3.8060801405551789e-07 -0.74878203268951304 0.24043926864480961 1.4144064774685348e-06 -0.77593047513404223 0.18685516687529583 2.2276310260527619e-06 -0.7837687200812623 0.20255861937939124 -5.0973411813596723e-08 -0.95978309103285298 0.24050936574019469 5.1977043765495457e-07 -0.95985325613192685 0.24043926864480961 1.4144064774685344e-06 -0.77593047513404212 0.1945021923497432 1.491310695050834e-06 -0.95975807391724144 0.24050936574019469 5.1977043765495467e-07 -0.95985325613192674 0.24043926864480961 1.4144064774685344e-06 -0.77593047513404212 0.1945021923497432 1.491310695050834e-06 -0.95975807391724144 0.24051002241690175 1.3429218802924903e-06 -0.95985396361189668 0.20255861937939124 -5.0973411813596723e-08 -0.95978309103285298 0.16202386900459204 2.2273628582695146e-07 -0.95968661367964581 0.1945021923497432 1.491310695050834e-06 -0.95975807391724144 0.18765479727465398 -3.8060801405551805e-07 -0.74878203268951293 0.20255861937939124 -5.0973411813596723e-08 -0.95978309103285298 0.1945021923497432 1.491310695050834e-06 -0.95975807391724144 0.24043926864480961 1.4144064774685344e-06 -0.77593047513404212 0.18765479727465398 -3.8060801405551805e-07 -0.74878203268951293 0.24043926864480961 1.4144064774685344e-06 -0.77593047513404212 0.24039972547268545 6.3961347254127241e-07 -0.64615797626728844 0.2404479612060596 -6.3272200396443391e-08 -0.80810948871847699 0.18765479727465398 -3.8060801405551805e-07 -0.74878203268951293 0.24043926864480961 1.4144064774685344e-06 -0.77593047513404212 0.2404479612060596 -6.3272200396443391e-08 -0.80810948871847699 0.20255861937939124 -5.0973411813596637e-08 -0.95978309103285298 0.18765479727465398 -3.8060801405551805e-07 -0.74878203268951293 0.24038980371715585 1.7684667187962479e-06 -0.58565328963708962 0.18765479727465398 -3.8060801405551847e-07 -0.74878203268951282 0.18045745610115624 -3.4094656218458987e-08 -0.47829399949188789 0.24039972547268548 6.3961347254127241e-07 -0.64615797626728855 0.24038980371715585 1.7684667187962479e-06 -0.58565328963708962 0.18045745610115624 -3.4094656218459066e-08 -0.47829399949188783 0.16511959394967821 1.2512716093208297e-07 -0.65881861163378819 0.18604717903277332 2.1906030804837731e-06 -0.47822407878426781 0.24038980371715585 1.7684667187962479e-06 -0.58565328963708962 0.16511959394967826 1.2512716093208326e-07 -0.6588186116337883 0.24041186769882167 -1.5504676316799897e-07 -0.66575086117320958 0.18604717903277335 2.1906030804837731e-06 -0.47822407878426781 0.24043926864480961 1.4144064774685344e-06 -0.77593047513404212 0.24038980371715585 1.7684667187962483e-06 -0.58565328963708951 0.16511959394967823 1.2512716093208422e-07 -0.6588186116337883 0.18685516687529583 2.2276310260527614e-06 -0.7837687200812623 0.24038980371715585 1.7684667187962479e-06 -0.58565328963708962 0.24036816735344951 1.8865550647160028e-06 -0.43971520991094509 0.18045745610115624 -3.409465621845906e-08 -0.47829399949188789 0.18604717903277332 2.1906030804837731e-06 -0.47822407878426776 0.18045745610115624 -3.409465621845906e-08 -0.47829399949188789 0.18765479727465395 -3.8060801405551821e-07 -0.74878203268951293 0.24038980371715588 1.7684667187962479e-06 -0.58565328963708962 0.16511959394967823 1.2512716093208266e-07 -0.6588186116337883 0.24043926864480961 1.4144064774685344e-06 -0.77593047513404212 0.16511959394967823 1.2512716093208266e-07 -0.6588186116337883 0.24038980371715588 1.7684667187962479e-06 -0.58565328963708974 0.18765479727465398 -3.8060801405551805e-07 -0.74878203268951293 0.24039972547268548 6.3961347254127241e-07 -0.64615797626728855 0.24043926864480961 1.4144064774685342e-06 -0.77593047513404212 0.24038980371715585 1.7684667187962479e-06 -0.58565328963708962 0.18765479727465398 -3.8060801405551821e-07 -0.74878203268951282 0.24038980371715585 1.7684667187962479e-06 -0.58565328963708962 0.24036906866465238 5.9759527861678126e-07 -0.49873574304026574 0.24039972547268548 6.3961347254127241e-07 -0.64615797626728855 0.18045745610115624 -3.409465621845906e-08 -0.47829399949188789 0.24038980371715585 1.7684667187962479e-06 -0.58565328963708962 0.24036816735344951 1.8865550647160028e-06 -0.43971520991094509 0.24036906866465238 5.9759527861678115e-07 -0.49873574304026569 0.18045745610115624 -3.409465621845906e-08 -0.47829399949188789 0.24038980371715585 1.7684667187962479e-06 -0.58565328963708962 0.2403711547010233 5.1453657550450353e-07 -0.48762080274108843 0.24036816735344951 1.8865550647160028e-06 -0.43971520991094509 0.18604717903277335 2.1906030804837735e-06 -0.47822407878426787 0.24041186769882167 -1.5504676316799897e-07 -0.66575086117320958 0.18604717903277337 2.1906030804837731e-06 -0.47822407878426787 0.16511959394967826 1.2512716093207768e-07 -0.6588186116337883 0.18685516687529583 2.2276310260527614e-06 -0.7837687200812623 0.16511959394967823 1.2512716093208266e-07 -0.6588186116337883 0.1860471790327734 2.1906030804837727e-06 -0.47822407878426787 0.19562463653541526 2.7719805894337051e-06 -0.65667293155989914 0.18685516687529588 2.227631026052764e-06 -0.78376872008126242 0.24041186769882167 -1.5504676316799897e-07 -0.66575086117320958 0.16511959394967823 1.2512716093207106e-07 -0.65881861163378808 0.24038980371715585 1.7684667187962479e-06 -0.58565328963708962 0.18685516687529583 2.2276310260527614e-06 -0.7837687200812623 0.24043926864480961 1.4144064774685344e-06 -0.77593047513404212 0.24041186769882167 -1.5504676316799897e-07 -0.66575086117320958 0.24038980371715585 1.7684667187962479e-06 -0.58565328963708962 0.18685516687529583 2.2276310260527614e-06 -0.7837687200812623 0.24041186769882167 -1.5504676316799897e-07 -0.66575086117320958 0.19562463653541526 2.7719805894337026e-06 -0.65667293155989903 0.18604717903277337 2.1906030804837731e-06 -0.47822407878426787 0.18685516687529583 2.2276310260527614e-06 -0.7837687200812623 0.2403711547010233 5.1453657550450353e-07 -0.48762080274108843 0.24038980371715585 1.7684667187962479e-06 -0.58565328963708962 0.24041186769882167 -1.5504676316799897e-07 -0.66575086117320958 0.18604717903277337 2.1906030804837731e-06 -0.47822407878426787 0.24041186769882167 -1.5504676316799897e-07 -0.66575086117320958 0.20859568275185461 2.5978488730890944e-06 -0.48572216185977479 0.2403711547010233 5.1453657550450353e-07 -0.48762080274108843 0.18604717903277337 2.1906030804837731e-06 -0.47822407878426787 0.24038572419324342 2.8162818574271856e-06 -0.57589508917964294 0.2403711547010233 5.1453657550450353e-07 -0.48762080274108843 0.24041186769882167 -1.5504676316799897e-07 -0.66575086117320958 0.20859568275185464 2.5978488730890935e-06 -0.48572216185977479 0.20859568275185464 2.5978488730890935e-06 -0.48572216185977479 0.24038572419324342 2.8162818574271856e-06 -0.57589508917964294 0.2403711547010233 5.1453657550450353e-07 -0.48762080274108843 0.2403571888055388 2.5792487908870544e-06 -0.38392401887942929 0.24041186769882167 -1.5504676316799897e-07 -0.66575086117320958 0.19562463653541526 2.7719805894337026e-06 -0.65667293155989903 0.24038572419324342 2.8162818574271856e-06 -0.57589508917964294 0.20859568275185461 2.5978488730890923e-06 -0.48572216185977463 0.20859568275185464 2.5978488730890935e-06 -0.48572216185977479 0.19562463653541526 2.7719805894337021e-06 -0.65667293155989903 0.16410924499665208 3.2169521519572324e-06 -0.50201513522709251 0.18604717903277337 2.1906030804837731e-06 -0.47822407878426787 0.19562463653541526 2.7719805894337026e-06 -0.65667293155989903 0.20859568275185464 2.5978488730890935e-06 -0.48572216185977479 0.24041186769882167 -1.5504676316799849e-07 -0.66575086117320958 0.18604717903277337 2.1906030804837731e-06 -0.47822407878426787 0.24041186769882167 -1.5504676316799897e-07 -0.66575086117320958 0.19562463653541526 2.771980589433703e-06 -0.65667293155989914 0.24043316074456583 3.0663111624479248e-06 -0.76786809325189609 0.24038572419324342 2.8162818574271856e-06 -0.57589508917964294 0.24043316074456583 3.0663111624479248e-06 -0.76786809325189609 0.20530464258090841 2.0533663350082904e-06 -0.81925883403140942 0.19562463653541526 2.7719805894337026e-06 -0.65667293155989903 0.24041186769882167 -1.5504676316799897e-07 -0.66575086117320958 0.20530464258090844 2.0533663350082904e-06 -0.81925883403140942 0.24041186769882167 -1.5504676316799902e-07 -0.66575086117320958 0.24045429272099722 3.1606017669149932e-07 -0.81931037204721502 0.1868551668752958 2.2276310260527619e-06 -0.78376872008126242 0.20530464258090844 2.0533663350082904e-06 -0.81925883403140942 0.24043316074456583 3.0663111624479248e-06 -0.76786809325189609 0.24045429272099722 3.1606017669149937e-07 -0.81931037204721491 0.2404118676988217 -1.5504676316799801e-07 -0.66575086117320981 0.20536108429717198 2.1898793061244864e-06 -0.95978871138526367 0.24051042864318783 2.8115008583268048e-06 -0.95985864372078533 0.24051002241690175 1.3429218802924903e-06 -0.95985396361189668 0.24045429272099722 3.1606017669149932e-07 -0.81931037204721502 0.20536108429717198 2.1898793061244864e-06 -0.95978871138526367 0.19249202429852641 2.6683364732255153e-06 -0.95975996238570194 0.24051042864318783 2.8115008583268053e-06 -0.95985864372078533 0.20530464258090844 2.0533663350082904e-06 -0.81925883403140942 0.24043316074456583 3.0663111624479248e-06 -0.76786809325189609 0.24045429272099722 3.1606017669149932e-07 -0.81931037204721502 0.24051042864318783 2.8115008583268053e-06 -0.95985864372078533 0.20530464258090844 2.0533663350082904e-06 -0.81925883403140942 0.24045429272099722 3.1606017669149932e-07 -0.81931037204721502 0.20536108429717198 2.1898793061244868e-06 -0.95978871138526367 0.24051042864318783 2.8115008583268053e-06 -0.95985864372078533 0.20530464258090844 2.0533663350082904e-06 -0.81925883403140942 0.20536108429717198 2.1898793061244864e-06 -0.95978871138526367 0.24051002241690175 1.3429218802924903e-06 -0.95985396361189668 0.24043926864480961 1.4144064774685342e-06 -0.77593047513404212 0.24045429272099722 3.1606017669149932e-07 -0.81931037204721502 0.24051002241690175 1.3429218802924903e-06 -0.95985396361189668 0.24043926864480961 1.4144064774685344e-06 -0.77593047513404212 0.19450219234974317 1.4913106950508342e-06 -0.95975807391724144 0.20536108429717198 2.1898793061244864e-06 -0.95978871138526367 0.20536108429717198 2.1898793061244864e-06 -0.95978871138526367 0.24045429272099722 3.1606017669149932e-07 -0.81931037204721502 0.24043926864480961 1.4144064774685344e-06 -0.77593047513404212 0.18685516687529583 2.2276310260527614e-06 -0.7837687200812623 0.24043926864480961 1.4144064774685344e-06 -0.77593047513404212 0.24045429272099722 3.1606017669149932e-07 -0.81931037204721502 0.24041186769882167 -1.5504676316799894e-07 -0.66575086117320958 0.18685516687529583 2.2276310260527614e-06 -0.7837687200812623 0.16692931601963867 3.3418250933551687e-06 -0.95969663522646342 0.20536108429717198 2.1898793061244864e-06 -0.95978871138526367 0.1945021923497432 1.491310695050834e-06 -0.95975807391724144 0.18685516687529583 2.2276310260527614e-06 -0.7837687200812623 0.1945021923497432 1.491310695050834e-06 -0.95975807391724144 0.20536108429717198 2.1898793061244864e-06 -0.95978871138526367 0.24043926864480961 1.4144064774685344e-06 -0.77593047513404212 0.18685516687529583 2.2276310260527614e-06 -0.7837687200812623 0.20536108429717198 2.1898793061244864e-06 -0.95978871138526367 0.19249202429852641 2.6683364732255153e-06 -0.95975996238570194 0.20530464258090844 2.0533663350082904e-06 -0.81925883403140942 0.18685516687529583 2.2276310260527614e-06 -0.7837687200812623 0.16835603337513108 2.6177478683074526e-06 -0.79710783285232556 0.20530464258090844 2.0533663350082904e-06 -0.81925883403140942 0.19249202429852641 2.6683364732255153e-06 -0.95975996238570194 0.18685516687529583 2.2276310260527614e-06 -0.7837687200812623 0.20536108429717198 2.1898793061244864e-06 -0.95978871138526367 0.16692931601963867 3.3418250933551687e-06 -0.95969663522646342 0.19249202429852641 2.6683364732255153e-06 -0.95975996238570194 0.18685516687529583 2.2276310260527614e-06 -0.7837687200812623 0.24045429272099722 3.1606017669149932e-07 -0.81931037204721502 0.20536108429717198 2.1898793061244868e-06 -0.95978871138526367 0.20530464258090841 2.0533663350082904e-06 -0.81925883403140931 0.1868551668752958 2.2276310260527614e-06 -0.7837687200812623 0.20530464258090844 2.0533663350082904e-06 -0.81925883403140942 0.16835603337513108 2.6177478683074526e-06 -0.79710783285232556 0.19562463653541526 2.7719805894337026e-06 -0.65667293155989903 0.18685516687529583 2.2276310260527614e-06 -0.78376872008126242 0.19562463653541526 2.7719805894337026e-06 -0.65667293155989903 0.24041186769882167 -1.5504676316799865e-07 -0.66575086117320958 0.20530464258090844 2.0533663350082904e-06 -0.81925883403140942 0.18685516687529583 2.2276310260527614e-06 -0.7837687200812623 0.16692931601963867 3.3418250933551687e-06 -0.95969663522646342 0.12009674255235291 1.8450179338476956e-06 -0.74748351403230939 0.16835603337513111 2.6177478683074526e-06 -0.79710783285232567 0.18685516687529583 2.2276310260527614e-06 -0.7837687200812623 0.16692931601963867 3.3418250933551687e-06 -0.95969663522646342 0.14686750549223543 1.1782635074394251e-06 -0.95965839726875857 0.12009674255235291 1.8450179338476954e-06 -0.7474835140323095 0.18685516687529583 2.2276310260527614e-06 -0.7837687200812623 0.19562463653541526 2.7719805894337026e-06 -0.65667293155989903 0.16835603337513108 2.6177478683074526e-06 -0.79710783285232556 0.14729416431620346 2.3837650783748486e-06 -0.65100672496479728 0.18685516687529583 2.2276310260527614e-06 -0.7837687200812623 0.14729416431620346 2.3837650783748486e-06 -0.65100672496479728 0.16835603337513108 2.6177478683074526e-06 -0.79710783285232556 0.12009674255235291 1.8450179338476954e-06 -0.7474835140323095 0.18685516687529583 2.2276310260527614e-06 -0.7837687200812623 0.16692931601963867 3.3418250933551687e-06 -0.95969663522646342 0.16835603337513108 2.6177478683074526e-06 -0.79710783285232545 0.19249202429852641 2.6683364732255153e-06 -0.95975996238570194 0.18685516687529583 2.2276310260527614e-06 -0.7837687200812623 0.12265203103610726 2.6107682597141629e-06 -0.80160745678490064 0.14442960824784065 3.1506919454966849e-06 -0.9596540397754868 0.1669293160196387 3.3418250933551692e-06 -0.95969663522646342 0.16835603337513108 2.6177478683074526e-06 -0.79710783285232556 0.16835603337513108 2.6177478683074526e-06 -0.79710783285232556 0.14442960824784068 3.1506919454966849e-06 -0.95965403977548669 0.16692931601963867 3.3418250933551687e-06 -0.95969663522646342 0.19249202429852641 2.6683364732255153e-06 -0.95975996238570194 0.1945021923497432 1.491310695050834e-06 -0.95975807391724144 0.14686750549223543 1.1782635074394251e-06 -0.95965839726875857 0.16692931601963867 3.3418250933551687e-06 -0.95969663522646342 0.18685516687529583 2.2276310260527614e-06 -0.7837687200812623 0.12230670017826598 1.2663979783751711e-06 -0.95960270749950438 0.16692931601963867 3.3418250933551687e-06 -0.95969663522646342 0.14686750549223543 1.1782635074394251e-06 -0.95965839726875857 0.12009674255235291 1.8450179338476954e-06 -0.7474835140323095 0.12230670017826598 1.2663979783751711e-06 -0.95960270749950438 0.12265203103610726 2.6107682597141629e-06 -0.80160745678490064 0.16692931601963867 3.3418250933551687e-06 -0.95969663522646342 0.12009674255235291 1.8450179338476954e-06 -0.7474835140323095 0.14442960824784065 3.1506919454966849e-06 -0.9596540397754868 0.12230670017826598 1.2663979783751711e-06 -0.95960270749950438 0.096318498125065224 3.4991485884712088e-06 -0.95955897482896158 0.12265203103610726 2.6107682597141629e-06 -0.80160745678490064 0.16692931601963867 3.3418250933551687e-06 -0.95969663522646342 0.12230670017826598 1.2663979783751711e-06 -0.95960270749950438 0.14442960824784065 3.1506919454966849e-06 -0.9596540397754868 0.12265203103610725 2.6107682597141629e-06 -0.80160745678490042 0.16692931601963867 3.3418250933551687e-06 -0.95969663522646342 0.12265203103610726 2.6107682597141633e-06 -0.80160745678490064 0.16835603337513108 2.6177478683074526e-06 -0.79710783285232556 0.12009674255235289 1.8450179338476952e-06 -0.7474835140323095 0.12265203103610726 2.6107682597141629e-06 -0.80160745678490064 0.14729416431620346 2.3837650783748486e-06 -0.65100672496479728 0.16835603337513108 2.6177478683074526e-06 -0.79710783285232556 0.12009674255235291 1.8450179338476954e-06 -0.7474835140323095 0.14729416431620346 2.3837650783748486e-06 -0.65100672496479728 0.12023015082997782 1.1988983165920122e-06 -0.50827894951800623 0.16511959394967823 1.2512716093208226e-07 -0.6588186116337883 0.12009674255235289 1.8450179338476958e-06 -0.7474835140323095 0.14729416431620346 2.3837650783748486e-06 -0.65100672496479728 0.12023015082997782 1.1988983165920118e-06 -0.50827894951800623 0.16410924499665208 3.2169521519572324e-06 -0.50201513522709251 0.18604717903277337 2.1906030804837731e-06 -0.47822407878426787 0.14729416431620346 2.3837650783748486e-06 -0.65100672496479728 0.11023835039403149 2.3089450091858438e-06 -0.66182458141546363 0.12023015082997784 1.1988983165920118e-06 -0.50827894951800623 0.12009674255235291 1.8450179338476954e-06 -0.7474835140323095 0.11023835039403149 2.3089450091858438e-06 -0.66182458141546363 0.14729416431620346 2.3837650783748486e-06 -0.65100672496479728 0.12265203103610726 2.6107682597141629e-06 -0.80160745678490064 0.12009674255235291 1.8450179338476954e-06 -0.7474835140323095 0.14729416431620346 2.3837650783748486e-06 -0.65100672496479728 0.16511959394967821 1.2512716093208258e-07 -0.65881861163378819 0.12023015082997783 1.1988983165920122e-06 -0.50827894951800634 0.18604717903277337 2.1906030804837731e-06 -0.47822407878426787 0.19562463653541526 2.7719805894337026e-06 -0.65667293155989903 0.14729416431620346 2.3837650783748482e-06 -0.65100672496479728 0.16511959394967821 1.2512716093208207e-07 -0.65881861163378819 0.18685516687529583 2.2276310260527614e-06 -0.7837687200812623 0.14729416431620346 2.3837650783748486e-06 -0.65100672496479728 0.12009674255235291 1.8450179338476954e-06 -0.7474835140323095 0.16511959394967823 1.2512716093208215e-07 -0.65881861163378819 0.18685516687529583 2.2276310260527614e-06 -0.7837687200812623 0.19562463653541526 2.7719805894337026e-06 -0.65667293155989903 0.16511959394967823 1.2512716093208271e-07 -0.6588186116337883 0.14729416431620346 2.3837650783748486e-06 -0.65100672496479728 0.18604717903277337 2.1906030804837727e-06 -0.47822407878426793 0.19562463653541526 2.7719805894337026e-06 -0.65667293155989903 0.14729416431620346 2.3837650783748486e-06 -0.65100672496479728 0.16410924499665208 3.2169521519572315e-06 -0.5020151352270924 0.18604717903277337 2.1906030804837731e-06 -0.47822407878426787 0.14729416431620346 2.3837650783748486e-06 -0.65100672496479728 0.11023835039403149 2.3089450091858438e-06 -0.66182458141546363 0.12497953345346459 2.7385843564449988e-06 -0.47981037665860909 0.12023015082997783 1.1988983165920116e-06 -0.50827894951800623 0.14729416431620346 2.3837650783748486e-06 -0.65100672496479728 0.12497953345346459 2.7385843564449988e-06 -0.47981037665860909 0.16410924499665208 3.2169521519572324e-06 -0.50201513522709251 0.12023015082997786 1.1988983165920118e-06 -0.50827894951800634 0.16511959394967823 1.2512716093208266e-07 -0.6588186116337883 0.12023015082997782 1.198898316592012e-06 -0.50827894951800612 0.11985906469405933 2.6384753890258167e-07 -0.72014130942009025 0.12009674255235291 1.8450179338476954e-06 -0.7474835140323095 0.16511959394967823 1.2512716093208266e-07 -0.6588186116337883 0.12026670288652996 9.3152987804003164e-08 -0.47980604989802267 0.18045745610115621 -3.4094656218459073e-08 -0.47829399949188778 0.11985906469405933 2.6384753890258162e-07 -0.72014130942009025 0.16511959394967823 1.2512716093208266e-07 -0.6588186116337883 0.11985906469405933 2.6384753890258162e-07 -0.72014130942009025 0.18045745610115624 -3.409465621845906e-08 -0.47829399949188789 0.18765479727465398 -3.8060801405551805e-07 -0.74878203268951293 0.12026670288652995 9.315298780400319e-08 -0.47980604989802267 0.16511959394967823 1.2512716093208289e-07 -0.6588186116337883 0.18045745610115624 -3.409465621845906e-08 -0.47829399949188789 0.12023015082997783 1.198898316592012e-06 -0.50827894951800623 0.18045745610115624 -3.409465621845906e-08 -0.47829399949188789 0.12023015082997783 1.1988983165920116e-06 -0.50827894951800623 0.16511959394967823 1.2512716093208266e-07 -0.6588186116337883 0.18604717903277343 2.190603080483774e-06 -0.47822407878426793 0.16511959394967823 1.2512716093208266e-07 -0.6588186116337883 0.12026670288652995 9.3152987804003415e-08 -0.47980604989802267 0.11985906469405931 2.6384753890258167e-07 -0.72014130942009025 0.1202301508299778 1.1988983165920126e-06 -0.50827894951800612 0.18765479727465398 -3.8060801405551805e-07 -0.74878203268951293 0.14686750549223543 1.1782635074394245e-06 -0.95965839726875868 0.11985906469405931 2.6384753890258172e-07 -0.72014130942009014 0.16202386900459206 2.227362858269518e-07 -0.95968661367964581 0.18765479727465398 -3.8060801405551805e-07 -0.74878203268951293 0.11985906469405935 2.6384753890258141e-07 -0.72014130942009025 0.14686750549223543 1.1782635074394251e-06 -0.95965839726875857 0.16511959394967823 1.2512716093208266e-07 -0.6588186116337883 0.14686750549223543 1.1782635074394251e-06 -0.95965839726875857 0.16511959394967823 1.2512716093208236e-07 -0.6588186116337883 0.1945021923497432 1.491310695050834e-06 -0.95975807391724144 0.18765479727465398 -3.8060801405551789e-07 -0.74878203268951304 0.16511959394967823 1.2512716093208266e-07 -0.6588186116337883 0.12009674255235291 1.8450179338476954e-06 -0.7474835140323095 0.14686750549223543 1.1782635074394251e-06 -0.95965839726875846 0.18685516687529583 2.2276310260527623e-06 -0.78376872008126219 0.16511959394967823 1.2512716093208266e-07 -0.6588186116337883 0.11985906469405933 2.6384753890258162e-07 -0.72014130942009036 0.1468675054922354 1.1782635074394253e-06 -0.95965839726875846 0.12009674255235289 1.8450179338476954e-06 -0.7474835140323095 0.1945021923497432 1.491310695050834e-06 -0.95975807391724144 0.16511959394967823 1.2512716093208176e-07 -0.6588186116337883 0.14686750549223543 1.1782635074394251e-06 -0.95965839726875857 0.18685516687529583 2.2276310260527614e-06 -0.7837687200812623 0.16202386900459204 2.2273628582695146e-07 -0.95968661367964581 0.14686750549223543 1.1782635074394251e-06 -0.95965839726875857 0.1945021923497432 1.491310695050834e-06 -0.95975807391724144 0.18765479727465398 -3.8060801405551805e-07 -0.74878203268951293 0.11029657693911883 1.1719833103258254e-07 -0.95957901453355332 0.14686750549223543 1.1782635074394251e-06 -0.95965839726875857 0.11985906469405933 2.6384753890258162e-07 -0.72014130942009025 0.12009674255235291 1.8450179338476954e-06 -0.7474835140323095 0.12230670017826598 1.2663979783751711e-06 -0.95960270749950438 0.14686750549223543 1.1782635074394253e-06 -0.95965839726875857 0.11029657693911883 1.1719833103258254e-07 -0.95957901453355332 0.12009674255235291 1.8450179338476954e-06 -0.7474835140323095 0.12509781839041445 3.9632417330998768e-07 -0.95961173519211584 0.11029657693911883 1.1719833103258254e-07 -0.95957901453355332 0.14686750549223543 1.1782635074394251e-06 -0.95965839726875857 0.11985906469405933 2.6384753890258162e-07 -0.72014130942009025 0.16202386900459204 2.2273628582695146e-07 -0.95968661367964581 0.12509781839041445 3.9632417330998763e-07 -0.95961173519211584 0.14686750549223543 1.1782635074394251e-06 -0.95965839726875857 0.11985906469405933 2.6384753890258162e-07 -0.72014130942009025 0.074971874033839925 1.7149369767341869e-06 -0.6574868346221121 0.052571157673120289 -3.0252457452287101e-07 -0.74490932140971811 0.078132397856152849 8.8123798305030429e-07 -0.9595262210925104 0.044416365158812768 3.7222833933093006e-07 -0.78307208737154677 0.079285967641128594 -1.0948657777935762e-06 -0.95952903804800027 0.078132397856152849 8.8123798305030429e-07 -0.9595262210925104 0.12509781839041445 3.9632417330998768e-07 -0.95961173519211584 0.11985906469405933 2.6384753890258151e-07 -0.72014130942009014 0.11029657693911883 1.1719833103258254e-07 -0.95957901453355332 0.074971874033839925 1.7149369767341869e-06 -0.6574868346221121 0.074810765103896421 1.7272447637864023e-06 -0.95952453099428514 0.12009674255235291 1.8450179338476954e-06 -0.7474835140323095 0.079285967641128594 -1.0948657777935762e-06 -0.95952903804800027 0.078132397856152849 8.8123798305030429e-07 -0.9595262210925104 0.11985906469405933 2.6384753890258172e-07 -0.72014130942009014 0.05257115767312031 -3.0252457452287043e-07 -0.74490932140971822 0.11029657693911883 1.1719833103258254e-07 -0.95957901453355332 0.11985906469405933 2.638475389025813e-07 -0.72014130942009025 0.074971874033839925 1.7149369767341869e-06 -0.6574868346221121 0.12009674255235291 1.8450179338476954e-06 -0.7474835140323095 0.078132397856152849 8.8123798305030429e-07 -0.9595262210925104 0.074971874033839925 1.7149369767341865e-06 -0.6574868346221121 0.11985906469405931 2.6384753890258215e-07 -0.72014130942009014 0.052571157673120296 -3.0252457452287053e-07 -0.74490932140971811 0.11029657693911883 1.1719833103258254e-07 -0.95957901453355332 0.12509781839041445 3.9632417330998768e-07 -0.95961173519211584 0.078132397856152849 8.8123798305030429e-07 -0.9595262210925104 0.11985906469405933 2.6384753890258162e-07 -0.72014130942009025 0.074810765103896421 1.7272447637864023e-06 -0.95952453099428514 0.11029657693911883 1.1719833103258254e-07 -0.95957901453355332 0.078132397856152849 8.8123798305030429e-07 -0.9595262210925104 0.074971874033839925 1.7149369767341869e-06 -0.6574868346221121 0.11029657693911883 1.1719833103258254e-07 -0.95957901453355332 0.078132397856152849 8.8123798305030419e-07 -0.9595262210925104 0.074971874033839925 1.7149369767341869e-06 -0.6574868346221121 0.11985906469405933 2.6384753890258162e-07 -0.72014130942009025 0.078132397856152849 8.8123798305030429e-07 -0.9595262210925104 0.074810765103896407 1.7272447637864019e-06 -0.95952453099428514 0.074971874033839939 1.7149369767341876e-06 -0.6574868346221121 0.044416365158812775 3.7222833933093032e-07 -0.78307208737154688 0.074971874033839925 1.7149369767341869e-06 -0.6574868346221121 0.12026670288652995 9.3152987804003044e-08 -0.47980604989802261 0.059587680604482371 3.0950025909493312e-07 -0.43273447765553735 0.12023015082997783 1.1988983165920118e-06 -0.50827894951800612 0.074971874033839925 1.7149369767341869e-06 -0.6574868346221121 0.11985906469405933 2.6384753890258162e-07 -0.72014130942009025 0.12026670288652996 9.3152987804003177e-08 -0.47980604989802267 0.12023015082997783 1.1988983165920118e-06 -0.50827894951800623 0.074971874033839925 1.7149369767341869e-06 -0.6574868346221121 0.12023015082997784 1.1988983165920118e-06 -0.50827894951800623 0.059587680604482364 3.095002590949336e-07 -0.43273447765553735 0.054168542335683474 1.925165488179792e-06 -0.46236908122943471 0.12026670288652995 9.315298780400319e-08 -0.47980604989802267 0.074971874033839925 1.7149369767341869e-06 -0.6574868346221121 0.059587680604482364 3.0950025909493328e-07 -0.43273447765553735 0.052571157673120296 -3.0252457452287053e-07 -0.74490932140971811 0.074971874033839925 1.7149369767341869e-06 -0.6574868346221121 0.12026670288652995 9.3152987804002899e-08 -0.47980604989802267 0.11985906469405933 2.6384753890258162e-07 -0.72014130942009025 0.052571157673120289 -3.0252457452287101e-07 -0.74490932140971799 0.11985906469405933 2.6384753890258162e-07 -0.72014130942009025 0.12023015082997784 1.198898316592012e-06 -0.50827894951800623 0.074971874033839925 1.7149369767341869e-06 -0.6574868346221121 0.12009674255235291 1.8450179338476954e-06 -0.7474835140323095 0.078066147362563662 3.1900547004145347e-06 -0.57592002933528019 0.11023835039403149 2.3089450091858438e-06 -0.66182458141546363 0.074971874033839925 1.7149369767341869e-06 -0.6574868346221121 0.12023015082997782 1.1988983165920122e-06 -0.50827894951800623 0.11023835039403149 2.3089450091858438e-06 -0.66182458141546363 0.074810950830442396 2.8232111117553256e-06 -0.78172645315010492 0.078066147362563662 3.1900547004145347e-06 -0.57592002933528019 0.074971874033839925 1.7149369767341869e-06 -0.6574868346221121 0.11023835039403149 2.3089450091858438e-06 -0.66182458141546363 0.074971874033839925 1.7149369767341869e-06 -0.6574868346221121 0.12023015082997783 1.198898316592012e-06 -0.50827894951800623 0.12009674255235291 1.8450179338476954e-06 -0.7474835140323095 0.078066147362563662 3.1900547004145347e-06 -0.57592002933528019 0.074971874033839925 1.7149369767341869e-06 -0.6574868346221121 0.07481095083044241 2.8232111117553265e-06 -0.78172645315010503 0.044416365158812775 3.7222833933093032e-07 -0.78307208737154688 0.078066147362563662 3.1900547004145347e-06 -0.57592002933528019 0.1202301508299778 1.1988983165920122e-06 -0.50827894951800623 0.074971874033839939 1.7149369767341872e-06 -0.6574868346221121 0.054168542335683488 1.9251654881797924e-06 -0.46236908122943476 0.11023835039403149 2.3089450091858438e-06 -0.66182458141546363 0.07481095083044241 2.8232111117553256e-06 -0.78172645315010503 0.074971874033839911 1.7149369767341867e-06 -0.65748683462211199 0.12009674255235291 1.8450179338476954e-06 -0.7474835140323095 0.079204179699393973 3.0595665262511146e-06 -0.38013915077967403 0.12023015082997784 1.1988983165920118e-06 -0.50827894951800623 0.078066147362563662 3.1900547004145347e-06 -0.57592002933528019 0.054168542335683474 1.925165488179792e-06 -0.46236908122943476 0.078066147362563662 3.1900547004145347e-06 -0.57592002933528019 0.074971874033839939 1.7149369767341872e-06 -0.65748683462211222 0.038261305546803098 2.6174232909932627e-06 -0.66634403560885325 0.054168542335683474 1.925165488179792e-06 -0.46236908122943471 0.079204179699393973 3.0595665262511146e-06 -0.38013915077967403 0.12497953345346459 2.7385843564449988e-06 -0.47981037665860909 0.078066147362563662 3.1900547004145347e-06 -0.57592002933528019 0.12023015082997783 1.198898316592012e-06 -0.50827894951800623 0.078066147362563662 3.1900547004145347e-06 -0.57592002933528019 0.12497953345346459 2.7385843564449988e-06 -0.47981037665860909 0.11023835039403149 2.3089450091858438e-06 -0.66182458141546363 0.12023015082997783 1.1988983165920126e-06 -0.50827894951800623 0.11023835039403149 2.3089450091858438e-06 -0.66182458141546363 0.12265203103610726 2.6107682597141629e-06 -0.80160745678490064 0.074810950830442396 2.8232111117553256e-06 -0.78172645315010492 0.12009674255235291 1.8450179338476954e-06 -0.7474835140323095 0.074810950830442396 2.8232111117553256e-06 -0.78172645315010492 0.12009674255235291 1.8450179338476954e-06 -0.74748351403230939 0.074810765103896421 1.7272447637864023e-06 -0.95952453099428514 0.044416365158812775 3.7222833933093032e-07 -0.78307208737154688 0.074810950830442396 2.8232111117553256e-06 -0.78172645315010492 0.074971874033839925 1.714936976734188e-06 -0.65748683462211199 0.12009674255235289 1.8450179338476914e-06 -0.74748351403230961 0.044416365158812775 3.7222833933093032e-07 -0.78307208737154688 0.12230670017826598 1.2663979783751711e-06 -0.95960270749950438 0.074810950830442396 2.8232111117553256e-06 -0.78172645315010503 0.12265203103610726 2.6107682597141629e-06 -0.80160745678490064 0.12009674255235291 1.8450179338476954e-06 -0.7474835140323095 0.074810765103896421 1.7272447637864023e-06 -0.95952453099428514 0.12009674255235289 1.8450179338476914e-06 -0.7474835140323095 0.074971874033839911 1.7149369767341912e-06 -0.65748683462211222 0.044416365158812775 3.7222833933093032e-07 -0.78307208737154688 0.074810950830442396 2.8232111117553256e-06 -0.78172645315010492 0.096318498125065224 3.4991485884712088e-06 -0.95955897482896158 0.12230670017826598 1.2663979783751711e-06 -0.95960270749950438 0.12265203103610726 2.6107682597141629e-06 -0.80160745678490064 0.074810950830442396 2.8232111117553256e-06 -0.78172645315010492 0.096318498125065224 3.4991485884712088e-06 -0.95955897482896158 0.074810765103896421 1.7272447637864023e-06 -0.95952453099428514 0.12230670017826598 1.2663979783751711e-06 -0.95960270749950438 0.074810950830442396 2.8232111117553256e-06 -0.78172645315010492 0.12230670017826598 1.2663979783751711e-06 -0.95960270749950438 0.074810765103896421 1.7272447637864023e-06 -0.95952453099428514 0.12009674255235291 1.8450179338476954e-06 -0.74748351403230939 0.11029657693911883 1.1719833103258254e-07 -0.95957901453355332 0.074810765103896421 1.7272447637864023e-06 -0.95952453099428514 0.12230670017826598 1.2663979783751711e-06 -0.95960270749950438 0.12009674255235291 1.8450179338476954e-06 -0.7474835140323095 0.096318498125065224 3.4991485884712088e-06 -0.95955897482896158 0.048171518367875303 2.8560263570332071e-06 -0.95949006040131801 0.074810950830442396 2.8232111117553256e-06 -0.78172645315010492 0.074810765103896421 1.7272447637864023e-06 -0.95952453099428514 0.038261305546803098 2.6174232909932627e-06 -0.66634403560885325 0.074810950830442396 2.8232111117553256e-06 -0.78172645315010492 0.035241458305760656 2.1054427224259796e-06 -0.8190023251559112 0.044416365158812775 3.7222833933093032e-07 -0.78307208737154688 0.074810950830442396 2.8232111117553256e-06 -0.78172645315010492 0.074810765103896421 1.7272447637864023e-06 -0.95952453099428514 0.035241458305760656 2.1054427224259796e-06 -0.8190023251559112 0.044416365158812775 3.7222833933093032e-07 -0.78307208737154688 0.074810950830442396 2.8232111117553256e-06 -0.78172645315010492 0.048171518367875296 2.8560263570332063e-06 -0.95949006040131801 0.035241458305760656 2.1054427224259796e-06 -0.8190023251559112 0.074810765103896421 1.7272447637864023e-06 -0.95952453099428514 0.035261237020750166 1.2862439283418836e-06 -0.95947874976807157 0.035241458305760656 2.1054427224259796e-06 -0.8190023251559112 0.048171518367875303 2.8560263570332071e-06 -0.95949006040131801 0.074810765103896421 1.7272447637864023e-06 -0.95952453099428514 0.074810765103896421 1.7272447637864023e-06 -0.95952453099428514 0.038286150349300552 9.9565620275725973e-07 -0.95948159724417803 0.035261237020750166 1.2862439283418836e-06 -0.95947874976807157 0.044416365158812775 3.7222833933093032e-07 -0.78307208737154688 0.035261237020750166 1.2862439283418836e-06 -0.95947874976807157 0.035241458305760649 2.1054427224259796e-06 -0.8190023251559112 0.074810765103896421 1.7272447637864021e-06 -0.95952453099428503 0.044416365158812768 3.7222833933092995e-07 -0.78307208737154688 -3.1476427056871444e-10 1.4525981071918698e-06 -0.81899129553684991 4.9356232487146029e-10 -4.5717691040608616e-07 -0.81721547684380746 2.1517848668832825e-09 1.7801721677875207e-06 -0.67683539299842976 0.044416365158812775 3.7222833933093032e-07 -0.78307208737154688 0.038261305546803098 2.6174232909932627e-06 -0.66634403560885325 -3.1476426890729441e-10 1.4525981071918696e-06 -0.81899129553684991 2.1517848681846597e-09 1.7801721677875201e-06 -0.67683539299842965 0.044416365158812768 3.7222833933093027e-07 -0.78307208737154677 0.044416365158812775 3.7222833933093032e-07 -0.78307208737154688 5.9280280985804092e-09 1.0776489195388578e-06 -0.95946293387093629 0.038286150349300531 9.9565620275725952e-07 -0.95948159724417803 0.035261237020750166 1.2862439283418836e-06 -0.95947874976807146 0.035241458305760656 2.1054427224259796e-06 -0.8190023251559112 0.035261237020750166 1.2862439283418836e-06 -0.95947874976807157 -3.1476427056871444e-10 1.4525981071918698e-06 -0.81899129553684991 0.044416365158812775 3.7222833933093032e-07 -0.78307208737154688 -3.1476427056871444e-10 1.4525981071918698e-06 -0.81899129553684991 5.9280280908532602e-09 1.0776489195388578e-06 -0.95946293387093629 4.9356232487146029e-10 -4.5717691040608616e-07 -0.81721547684380746 0.044416365158812775 3.7222833933093032e-07 -0.78307208737154688 -3.1476427056871444e-10 1.4525981071918698e-06 -0.81899129553684991 0.035261237020750166 1.2862439283418836e-06 -0.95947874976807157 5.9280280923784183e-09 1.077648919538858e-06 -0.95946293387093629 0.044416365158812775 3.7222833933093032e-07 -0.78307208737154688 4.5830361071176521e-09 2.8811309510978467e-06 -0.95946044912963746 -3.1476427209792784e-10 1.4525981071918698e-06 -0.81899129553685002 0.035261237020750166 1.2862439283418836e-06 -0.95947874976807157 5.9280280905704438e-09 1.0776489195388578e-06 -0.95946293387093629 -3.1476427056871444e-10 1.4525981071918698e-06 -0.81899129553684991 0.035241458305760656 2.1054427224259792e-06 -0.8190023251559112 4.5830361071176521e-09 2.8811309510978467e-06 -0.95946044912963746 0.035261237020750166 1.2862439283418836e-06 -0.95947874976807157 0.048171518367875303 2.8560263570332071e-06 -0.95949006040131801 4.5830361081624292e-09 2.8811309510978471e-06 -0.95946044912963746 0.035241458305760656 2.1054427224259796e-06 -0.8190023251559112 0.035261237020750166 1.2862439283418836e-06 -0.95947874976807157 0.035241458305760656 2.1054427224259796e-06 -0.8190023251559112 4.5830361071176521e-09 2.8811309510978467e-06 -0.95946044912963746 -3.0305156284345933e-10 2.5403320192223608e-06 -0.76757839943115291 -3.1476427056871444e-10 1.4525981071918698e-06 -0.81899129553684991 0.035241458305760656 2.1054427224259796e-06 -0.8190023251559112 -3.1476427055904376e-10 1.4525981071918698e-06 -0.81899129553684991 0.038261305546803098 2.6174232909932627e-06 -0.66634403560885325 0.044416365158812775 3.7222833933093032e-07 -0.78307208737154688 0.038261305546803098 2.6174232909932627e-06 -0.66634403560885325 -3.030515720467081e-10 2.5403320192223617e-06 -0.76757839943115291 2.1517848668832825e-09 1.7801721677875207e-06 -0.67683539299842976 -3.1476427056871444e-10 1.4525981071918698e-06 -0.81899129553684991 -3.0305155999151057e-10 2.5403320192223612e-06 -0.76757839943115291 0.038261305546803098 2.6174232909932627e-06 -0.66634403560885325 0.035241458305760656 2.1054427224259796e-06 -0.8190023251559112 -3.1476427056871444e-10 1.4525981071918698e-06 -0.81899129553684991 2.1517848668832825e-09 1.7801721677875207e-06 -0.67683539299842976 -1.8379904528517203e-10 3.1280947225046045e-06 -0.57569296473464071 -3.0305155999151057e-10 2.5403320192223612e-06 -0.76757839943115291 0.038261305546803098 2.6174232909932627e-06 -0.66634403560885325 0.074971874033839925 1.7149369767341869e-06 -0.6574868346221121 0.054168542335683488 1.9251654881797912e-06 -0.46236908122943482 2.1517848578557794e-09 1.780172167787523e-06 -0.67683539299842976 0.044416365158812782 3.7222833933093037e-07 -0.78307208737154688 2.1517848668832825e-09 1.7801721677875207e-06 -0.67683539299842976 -1.304477413005044e-09 2.6749991494345601e-06 -0.48745446820980848 -1.8379904528517203e-10 3.1280947225046045e-06 -0.57569296473464071 0.038261305546803098 2.6174232909932627e-06 -0.66634403560885325 0.038261305546803098 2.6174232909932627e-06 -0.66634403560885325 0.074971874033839939 1.7149369767341867e-06 -0.65748683462211222 0.078066147362563662 3.1900547004145347e-06 -0.57592002933528019 0.044416365158812775 3.7222833933093032e-07 -0.78307208737154688 0.038261305546803098 2.6174232909932627e-06 -0.66634403560885325 0.054168542335683509 1.9251654881797941e-06 -0.46236908122943482 0.074971874033839897 1.7149369767341846e-06 -0.6574868346221121 0.044416365158812775 3.7222833933093032e-07 -0.78307208737154688 0.038261305546803098 2.6174232909932627e-06 -0.66634403560885325 2.1517848777125007e-09 1.7801721677875201e-06 -0.67683539299842976 0.054168542335683481 1.925165488179792e-06 -0.46236908122943476 0.044416365158812768 3.7222833933093016e-07 -0.78307208737154688 0.038261305546803098 2.6174232909932627e-06 -0.66634403560885325 0.078066147362563662 3.1900547004145347e-06 -0.57592002933528019 0.074810950830442396 2.8232111117553256e-06 -0.78172645315010492 0.044416365158812775 3.7222833933093032e-07 -0.78307208737154688 0.078066147362563662 3.1900547004145347e-06 -0.57592002933528019 0.038261305546803098 2.6174232909932627e-06 -0.66634403560885325 0.041442561625915364 2.8610745859144437e-06 -0.47818709280844546 0.054168542335683481 1.925165488179792e-06 -0.46236908122943476 -1.3044774186499346e-09 2.6749991494345601e-06 -0.48745446820980848 0.041442561625915371 2.8610745859144441e-06 -0.47818709280844546 0.038261305546803098 2.6174232909932627e-06 -0.66634403560885325 0.054168542335683481 1.925165488179792e-06 -0.46236908122943476 -1.8379904528517203e-10 3.1280947225046045e-06 -0.57569296473464071 -7.0537303578846535e-10 3.3525373380320587e-06 -0.38380389610356203 0.041442561625915364 2.8610745859144437e-06 -0.47818709280844546 -1.3044774186499346e-09 2.6749991494345601e-06 -0.48745446820980848 -1.3044774186499346e-09 2.6749991494345601e-06 -0.48745446820980848 0.041442561625915378 2.8610745859144437e-06 -0.47818709280844546 -1.8379904528517203e-10 3.1280947225046045e-06 -0.57569296473464071 0.038261305546803098 2.6174232909932627e-06 -0.66634403560885325 -1.3044774186499346e-09 2.6749991494345601e-06 -0.48745446820980848 0.038261305546803098 2.6174232909932627e-06 -0.66634403560885325 2.1517848668832825e-09 1.7801721677875207e-06 -0.67683539299842976 0.054168542335683481 1.925165488179792e-06 -0.46236908122943476 -1.9504634627321416e-09 1.0346165909963187e-06 -0.57515467904295914 -1.3044774186499346e-09 2.6749991494345601e-06 -0.48745446820980848 2.1517848668832825e-09 1.7801721677875207e-06 -0.67683539299842976 0.054168542335683481 1.925165488179792e-06 -0.46236908122943476 -1.9504634627321416e-09 1.0346165909963187e-06 -0.57515467904295914 2.1517848679523659e-09 1.7801721677875207e-06 -0.67683539299842976 0.074971874033839925 1.7149369767341867e-06 -0.65748683462211199 0.054168542335683481 1.925165488179792e-06 -0.46236908122943476 -1.9504634627321416e-09 1.0346165909963187e-06 -0.57515467904295914 0.074971874033839897 1.7149369767341778e-06 -0.65748683462211233 2.1517848687035956e-09 1.780172167787522e-06 -0.67683539299842976 0.044416365158812782 3.7222833933092778e-07 -0.78307208737154688 -1.9504634627321416e-09 1.0346165909963187e-06 -0.57515467904295914 2.1517848668832825e-09 1.7801721677875207e-06 -0.67683539299842976 1.5403876015442798e-09 -3.183956425927254e-07 -0.69775562612020614 0.044416365158812796 3.7222833933093022e-07 -0.78307208737154688 -1.9504634627321416e-09 1.0346165909963187e-06 -0.57515467904295914 0.059587680604482371 3.095002590949328e-07 -0.4327344776555373 0.074971874033839925 1.7149369767341869e-06 -0.6574868346221121 0.052571157673120296 -3.0252457452287096e-07 -0.74490932140971811 -1.9504634627321416e-09 1.0346165909963187e-06 -0.57515467904295914 1.5403876015442798e-09 -3.183956425927254e-07 -0.69775562612020614 0.074971874033839911 1.7149369767341872e-06 -0.65748683462211222 0.044416365158812782 3.7222833933093022e-07 -0.78307208737154699 -1.9504634627321416e-09 1.0346165909963187e-06 -0.57515467904295914 1.2198827814632475e-09 -5.3864083129390954e-07 -0.64592991695280499 -1.4729826774683248e-09 5.1561531846496049e-07 -0.49856368622132596 0.05257115767312031 -3.0252457452287043e-07 -0.74490932140971799 1.5403876015442798e-09 -3.183956425927254e-07 -0.69775562612020614 -1.9504634627321416e-09 1.0346165909963187e-06 -0.57515467904295914 0.074971874033839925 1.7149369767341869e-06 -0.6574868346221121 0.052571157673120296 -3.0252457452287053e-07 -0.74490932140971811 -1.9504634627321416e-09 1.0346165909963187e-06 -0.57515467904295914 0.074971874033839925 1.7149369767341869e-06 -0.6574868346221121 0.059587680604482357 3.095002590949328e-07 -0.4327344776555373 0.054168542335683481 1.925165488179792e-06 -0.46236908122943476 -1.9504634627321416e-09 1.0346165909963187e-06 -0.57515467904295914 -1.4729826745547533e-09 5.156153184649606e-07 -0.49856368622132596 0.059587680604482364 3.0950025909493328e-07 -0.43273447765553735 0.052571157673120303 -3.0252457452287117e-07 -0.74490932140971811 2.4372001195975221e-11 1.0654394737473947e-06 -0.4381501152242856 -1.304477418660317e-09 2.6749991494345601e-06 -0.48745446820980848 -1.9504634627321416e-09 1.0346165909963187e-06 -0.57515467904295914 0.054168542335683481 1.925165488179792e-06 -0.46236908122943476 -1.9504634627321416e-09 1.0346165909963187e-06 -0.57515467904295914 -1.4729826745547533e-09 5.156153184649606e-07 -0.49856368622132596 2.4372001195975221e-11 1.0654394737473947e-06 -0.4381501152242856 0.059587680604482364 3.0950025909493328e-07 -0.43273447765553735 1.5403876015442798e-09 -3.183956425927254e-07 -0.69775562612020614 1.2198827814632475e-09 -5.3864083129390954e-07 -0.64592991695280499 -1.9504634608208978e-09 1.0346165909963187e-06 -0.57515467904295914 0.052571157673120296 -3.0252457452287053e-07 -0.74490932140971811 -2.7692895054780602e-10 -1.1930874539543069e-06 -0.80779646340033973 4.9356232487146029e-10 -4.5717691040608616e-07 -0.81721547684380746 0.038286150349300552 9.9565620275725973e-07 -0.95948159724417803 0.052571157673120303 -3.0252457452287038e-07 -0.74490932140971799 1.5403876015442798e-09 -3.183956425927254e-07 -0.69775562612020614 0.052571157673120296 -3.0252457452287038e-07 -0.74490932140971811 0.074971874033839925 1.7149369767341869e-06 -0.6574868346221121 0.044416365158812775 3.7222833933093048e-07 -0.78307208737154699 0.038286150349300552 9.9565620275725973e-07 -0.95948159724417803 0.052571157673120289 -3.0252457452287059e-07 -0.74490932140971811 4.935623145036063e-10 -4.5717691040608648e-07 -0.81721547684380746 0.044416365158812775 3.7222833933093037e-07 -0.78307208737154688 -2.7692895054780602e-10 -1.1930874539543069e-06 -0.80779646340033973 1.2198827814632475e-09 -5.3864083129390954e-07 -0.64592991695280499 1.5403876015442798e-09 -3.183956425927254e-07 -0.69775562612020614 0.05257115767312031 -3.0252457452287027e-07 -0.74490932140971799 -2.7692895054780602e-10 -1.1930874539543069e-06 -0.80779646340033973 1.5403876015442798e-09 -3.183956425927254e-07 -0.69775562612020614 4.9356232487146029e-10 -4.5717691040608616e-07 -0.81721547684380746 0.05257115767312031 -3.0252457452287059e-07 -0.74490932140971822 0.038286150349300552 9.9565620275725973e-07 -0.95948159724417803 0.078132397856152849 8.8123798305030429e-07 -0.9595262210925104 0.052571157673120296 -3.0252457452287059e-07 -0.74490932140971811 0.044416365158812775 3.7222833933093027e-07 -0.78307208737154688 1.5403876015442798e-09 -3.183956425927254e-07 -0.69775562612020614 4.9356232465370613e-10 -4.5717691040608616e-07 -0.81721547684380746 0.052571157673120289 -3.0252457452287069e-07 -0.74490932140971822 0.044416365158812782 3.7222833933093085e-07 -0.78307208737154688 2.1517848668832825e-09 1.7801721677875207e-06 -0.67683539299842976 4.9356232487146029e-10 -4.5717691040608616e-07 -0.81721547684380746 1.5403876004130152e-09 -3.1839564259272535e-07 -0.69775562612020614 0.044416365158812775 3.7222833933093032e-07 -0.78307208737154688 0.038286150349300552 9.9565620275725973e-07 -0.95948159724417803 0.078132397856152849 8.8123798305030429e-07 -0.95952622109251029 0.041486841690313116 -1.8386560387997838e-07 -0.9594820342656537 0.052571157673120296 -3.0252457452287053e-07 -0.74490932140971811 0.038286150349300552 9.9565620275725973e-07 -0.95948159724417803 0.041486841690313116 -1.8386560387997819e-07 -0.95948203426565382 -2.7692895054780602e-10 -1.1930874539543069e-06 -0.80779646340033973 0.052571157673120296 -3.0252457452287053e-07 -0.74490932140971811 0.078132397856152849 8.8123798305030429e-07 -0.9595262210925104 0.038286150349300552 9.9565620275725973e-07 -0.95948159724417803 0.074810765103896434 1.7272447637864023e-06 -0.95952453099428514 0.044416365158812775 3.7222833933093032e-07 -0.78307208737154688 0.044416365158812775 3.7222833933093032e-07 -0.78307208737154688 0.038286150349300545 9.9565620275725995e-07 -0.95948159724417803 5.9280280985369674e-09 1.0776489195388578e-06 -0.95946293387093629 4.9356232487146029e-10 -4.5717691040608616e-07 -0.81721547684380746 4.9356232487146029e-10 -4.5717691040608616e-07 -0.81721547684380746 -2.7692895062993611e-10 -1.1930874539543069e-06 -0.80779646340033973 0.038286150349300552 9.9565620275725973e-07 -0.95948159724417803 4.950885254542185e-09 -1.7493248921522821e-07 -0.95946930279831544 0.038286150349300552 9.9565620275725973e-07 -0.95948159724417803 5.9280280905704438e-09 1.0776489195388578e-06 -0.95946293387093629 4.9356232172315711e-10 -4.5717691040608627e-07 -0.81721547684380746 4.950885254542185e-09 -1.7493248921522821e-07 -0.95946930279831544 4.950885254542185e-09 -1.7493248921522821e-07 -0.95946930279831544 -2.7692895054780602e-10 -1.1930874539543069e-06 -0.80779646340033973 0.038286150349300552 9.9565620275725973e-07 -0.95948159724417803 0.041486841690313116 -1.8386560387997819e-07 -0.95948203426565382 -2.7692895054780602e-10 -1.1930874539543069e-06 -0.80779646340033973 4.950885254542185e-09 -1.7493248921522821e-07 -0.95946930279831544 6.2615874860201283e-09 -1.2349085010266704e-06 -0.95946913807170842 0.041486841690313116 -1.8386560387997819e-07 -0.95948203426565382 0.041486841690313116 -1.8386560387997819e-07 -0.95948203426565382 6.2615874884454252e-09 -1.2349085010266704e-06 -0.95946913807170842 -2.7692894342756057e-10 -1.1930874539543065e-06 -0.80779646340033984 3.1941079154326176e-10 -6.8971698682545471e-07 -0.7756344103632925 6.2615874884454252e-09 -1.2349085010266704e-06 -0.95946913807170842 0.041486841690313116 -1.8386560387997819e-07 -0.95948203426565382 0.040775853551247167 -6.3588019457716991e-07 -0.95948302298541788 3.1941080536115471e-10 -6.8971698682545429e-07 -0.77563441036329261 1.6634327942796732e-09 -2.1938043699752997e-06 -0.81898978247408871 3.1941080536115471e-10 -6.8971698682545429e-07 -0.77563441036329261 0.040775853551247167 -6.3588019457716991e-07 -0.95948302298541788 0.075617768343275799 -1.4587040590208638e-06 -0.65978387435951824 0.040775853551247167 -6.3588019457716991e-07 -0.95948302298541788 0.075617768343275771 -1.4587040590208625e-06 -0.65978387435951813 3.1941080731117712e-10 -6.8971698682545418e-07 -0.77563441036329273 0.052571157673120289 -3.0252457452287048e-07 -0.74490932140971811 -2.7692895054780602e-10 -1.1930874539543069e-06 -0.80779646340033973 3.1941080611342921e-10 -6.897169868254544e-07 -0.77563441036329261 1.2198827814632475e-09 -5.3864083129390954e-07 -0.64592991695280499 0.05257115767312031 -3.0252457452287027e-07 -0.74490932140971799 -2.7692895054780602e-10 -1.1930874539543069e-06 -0.80779646340033973 0.041486841690313109 -1.838656038799783e-07 -0.95948203426565382 3.1941080624706215e-10 -6.8971698682545429e-07 -0.77563441036329261 0.052571157673120303 -3.0252457452287053e-07 -0.74490932140971811 3.1941080536115471e-10 -6.8971698682545429e-07 -0.77563441036329261 0.040775853551247167 -6.3588019457716991e-07 -0.95948302298541788 6.2615874884454252e-09 -1.2349085010266704e-06 -0.95946913807170842 5.5875844520951691e-09 -1.0753312836487192e-06 -0.95946809558306745 0.041486841690313116 -1.8386560387997819e-07 -0.95948203426565382 0.079285967641128594 -1.0948657777935762e-06 -0.95952903804800027 0.040775853551247167 -6.3588019457716991e-07 -0.95948302298541788 0.052571157673120296 -3.0252457452287053e-07 -0.74490932140971811 0.041486841690313116 -1.8386560387997819e-07 -0.95948203426565382 0.040775853551247167 -6.3588019457716991e-07 -0.95948302298541788 3.1941081490713274e-10 -6.897169868254544e-07 -0.7756344103632925 0.052571157673120289 -3.0252457452287053e-07 -0.74490932140971799 0.076122429251019558 -9.0088902029812755e-07 -0.9595240418036739 0.040775853551247167 -6.3588019457716991e-07 -0.95948302298541788 0.079285967641128594 -1.0948657777935762e-06 -0.95952903804800027 0.075617768343275771 -1.4587040590208628e-06 -0.65978387435951813 0.078132397856152849 8.8123798305030429e-07 -0.9595262210925104 0.079285967641128594 -1.0948657777935762e-06 -0.95952903804800027 0.041486841690313116 -1.8386560387997819e-07 -0.95948203426565382 0.052571157673120296 -3.0252457452287053e-07 -0.74490932140971811 0.1102978412795261 1.2065175329865298e-07 -0.95957946912992387 0.075617768343275757 -1.4587040590208617e-06 -0.65978387435951813 0.11985906469405933 2.6384753890258162e-07 -0.72014130942009025 0.12051376950375871 -2.5235454340577989e-06 -0.74930266198453943 0.079285967641128594 -1.0948657777935762e-06 -0.95952903804800027 0.11985906469405934 2.6384753890258178e-07 -0.72014130942009025 0.075617768343275771 -1.4587040590208628e-06 -0.65978387435951813 0.05257115767312031 -3.025245745228708e-07 -0.74490932140971811 0.076122429251019558 -9.0088902029812755e-07 -0.9595240418036739 0.079285967641128594 -1.0948657777935762e-06 -0.95952903804800027 0.1102978412795261 1.2065175329865298e-07 -0.95957946912992387 0.075617768343275757 -1.4587040590208625e-06 -0.65978387435951813 0.1102978412795261 1.2065175329865298e-07 -0.95957946912992387 0.076122429251019572 -9.0088902029812765e-07 -0.95952404180367401 0.075617768343275771 -1.4587040590208628e-06 -0.65978387435951813 0.12051376950375868 -2.5235454340577998e-06 -0.7493026619845391 0.079285967641128594 -1.0948657777935762e-06 -0.95952903804800027 0.1102978412795261 1.2065175329865298e-07 -0.95957946912992387 0.075617768343275771 -1.4587040590208628e-06 -0.65978387435951813 0.11985906469405934 2.638475389025821e-07 -0.72014130942009025 0.079285967641128594 -1.0948657777935762e-06 -0.95952903804800027 0.075617768343275771 -1.4587040590208628e-06 -0.65978387435951813 0.040775853551247167 -6.3588019457716991e-07 -0.95948302298541788 0.052571157673120317 -3.0252457452287101e-07 -0.74490932140971822 0.079285967641128594 -1.0948657777935762e-06 -0.95952903804800027 0.12509781839041445 3.9632417330998758e-07 -0.95961173519211584 0.1102978412795261 1.2065175329865298e-07 -0.95957946912992387 0.11985906469405933 2.6384753890258162e-07 -0.72014130942009025 0.075617768343275771 -1.4587040590208628e-06 -0.65978387435951813 0.11985906469405933 2.6384753890258183e-07 -0.72014130942009025 0.12026670288652994 9.3152987804003309e-08 -0.47980604989802267 0.052571157673120289 -3.0252457452287038e-07 -0.74490932140971799 0.059587680604482364 3.0950025909493328e-07 -0.43273447765553735 0.12044642025863006 -1.5065454476153225e-06 -0.50750519074441991 0.075617768343275743 -1.458704059020863e-06 -0.65978387435951802 0.053140987265460016 -1.7739613827950967e-06 -0.47980739627909252 0.075617768343275771 -1.4587040590208628e-06 -0.65978387435951813 0.12044642025863007 -1.5065454476153225e-06 -0.50750519074442002 0.11985906469405933 2.638475389025813e-07 -0.72014130942009025 0.12051376950375868 -2.5235454340577993e-06 -0.74930266198453921 0.12026670288652995 9.315298780400319e-08 -0.47980604989802267 0.075617768343275771 -1.4587040590208628e-06 -0.65978387435951813 0.059587680604482364 3.0950025909493328e-07 -0.43273447765553735 0.12044642025863007 -1.5065454476153225e-06 -0.50750519074442002 0.12026670288652995 9.315298780400319e-08 -0.47980604989802267 0.11985906469405935 2.6384753890258172e-07 -0.72014130942009036 0.075617768343275785 -1.4587040590208628e-06 -0.65978387435951813 0.12044642025863007 -1.5065454476153225e-06 -0.50750519074442002 0.12026670288652995 9.315298780400319e-08 -0.47980604989802267 0.059587680604482364 3.0950025909493328e-07 -0.43273447765553735 0.075617768343275771 -1.4587040590208632e-06 -0.65978387435951802 0.052571157673120296 -3.0252457452287053e-07 -0.74490932140971811 0.052571157673120296 -3.0252457452287053e-07 -0.74490932140971811 0.075617768343275771 -1.4587040590208628e-06 -0.65978387435951813 -1.4729826732971882e-09 5.156153184649606e-07 -0.49856368622132596 0.059587680604482343 3.0950025909493317e-07 -0.43273447765553735 -1.5932256409061683e-11 -9.5440989105222414e-07 -0.43956856825544638 0.059587680604482357 3.0950025909493344e-07 -0.43273447765553735 -1.2176153518688478e-10 -1.0544761610880292e-06 -0.58573751753124537 0.053140987265460002 -1.7739613827950969e-06 -0.47980739627909252 -1.2176153583506107e-10 -1.0544761610880292e-06 -0.58573751753124537 -1.4729826745547533e-09 5.156153184649606e-07 -0.49856368622132596 0.075617768343275771 -1.4587040590208617e-06 -0.65978387435951813 0.059587680604482364 3.0950025909493328e-07 -0.43273447765553735 0.052571157673120296 -3.0252457452287053e-07 -0.74490932140971811 -1.2176151649316136e-10 -1.0544761610880286e-06 -0.58573751753124537 -1.4729826745547533e-09 5.156153184649606e-07 -0.49856368622132596 0.075617768343275771 -1.4587040590208628e-06 -0.65978387435951813 -1.2176153583506107e-10 -1.0544761610880292e-06 -0.58573751753124537 0.059587680604482371 3.0950025909493317e-07 -0.43273447765553735 0.075617768343275771 -1.4587040590208628e-06 -0.65978387435951813 0.053140987265460009 -1.7739613827950973e-06 -0.47980739627909247 0.052571157673120296 -3.0252457452287053e-07 -0.74490932140971811 -1.4729826745547533e-09 5.156153184649606e-07 -0.49856368622132596 -1.217615376838684e-10 -1.0544761610880288e-06 -0.58573751753124537 1.2198827814632475e-09 -5.3864083129390954e-07 -0.64592991695280499 -4.7424368718385079e-10 -2.8625794636209637e-06 -0.66569457642803298 -1.2176153583506107e-10 -1.0544761610880292e-06 -0.58573751753124537 0.075617768343275771 -1.4587040590208628e-06 -0.65978387435951802 0.053140987265460002 -1.7739613827950969e-06 -0.47980739627909252 -1.2176153583506107e-10 -1.0544761610880292e-06 -0.58573751753124537 3.1941080536115471e-10 -6.8971698682545429e-07 -0.77563441036329261 0.075617768343275771 -1.4587040590208628e-06 -0.65978387435951813 0.052571157673120296 -3.0252457452287085e-07 -0.74490932140971811 -4.7424368718385079e-10 -2.8625794636209637e-06 -0.66569457642803298 -1.2176153583506107e-10 -1.0544761610880292e-06 -0.58573751753124537 3.1941080668932926e-10 -6.8971698682545429e-07 -0.77563441036329261 0.075617768343275771 -1.4587040590208628e-06 -0.65978387435951813 -1.5932256409061683e-11 -9.5440989105222414e-07 -0.43956856825544638 -1.4729826745547533e-09 5.156153184649606e-07 -0.49856368622132596 -1.2176153583506107e-10 -1.0544761610880292e-06 -0.58573751753124537 0.059587680604482364 3.0950025909493328e-07 -0.43273447765553735 -1.2176153583506107e-10 -1.0544761610880292e-06 -0.58573751753124537 1.2198827823309918e-09 -5.3864083129390954e-07 -0.64592991695280499 3.1941080767700281e-10 -6.897169868254544e-07 -0.77563441036329261 0.052571157673120268 -3.0252457452287032e-07 -0.74490932140971799 -1.2176153583506107e-10 -1.0544761610880292e-06 -0.58573751753124537 -1.0054164377419168e-09 -2.4906252221006061e-06 -0.48902333435718426 -1.5932257353748927e-11 -9.5440989105222414e-07 -0.43956856825544638 0.053140987265460016 -1.7739613827950969e-06 -0.47980739627909252 -4.7424368718385079e-10 -2.8625794636209637e-06 -0.66569457642803298 0.035242080741419171 -2.1037743425012504e-06 -0.819005182527622 0.045283596453242377 -2.7342767356330176e-06 -0.65595334284509033 0.075617768343275771 -1.4587040590208628e-06 -0.65978387435951813 -4.7424368718385079e-10 -2.8625794636209637e-06 -0.66569457642803298 0.075617768343275771 -1.4587040590208628e-06 -0.65978387435951813 0.045283596453242377 -2.7342767356330176e-06 -0.6559533428450901 0.053140987265460002 -1.7739613827950969e-06 -0.47980739627909252 -4.7424368718385079e-10 -2.8625794636209637e-06 -0.66569457642803298 0.04528359645324237 -2.734276735633018e-06 -0.65595334284509021 -1.0054164377419168e-09 -2.4906252221006061e-06 -0.48902333435718426 0.053140987265460002 -1.7739613827950969e-06 -0.47980739627909252 -4.7424368718385079e-10 -2.8625794636209637e-06 -0.66569457642803298 -1.0054164377419168e-09 -2.4906252221006061e-06 -0.48902333435718426 -1.2176153750775678e-10 -1.0544761610880292e-06 -0.58573751753124537 0.053140987265460002 -1.7739613827950969e-06 -0.47980739627909252 9.2083651006819562e-10 -2.9851880000419454e-06 -0.76757894573956786 2.2135776358894007e-10 -3.5220492730364705e-06 -0.57569391151396621 -4.7424368718385079e-10 -2.8625794636209637e-06 -0.66569457642803298 0.045283596453242377 -2.734276735633018e-06 -0.65595334284509021 2.2135776358894007e-10 -3.5220492730364705e-06 -0.57569391151396621 -4.7424368718385079e-10 -2.8625794636209637e-06 -0.66569457642803298 0.045283596453242377 -2.734276735633018e-06 -0.65595334284509021 -1.0054164377419168e-09 -2.4906252221006061e-06 -0.48902333435718426 0.045283596453242377 -2.734276735633018e-06 -0.65595334284509021 0.039385066421113724 -2.5963201494852044e-06 -0.4688800720676391 2.2135776358894007e-10 -3.5220492730364705e-06 -0.57569391151396621 -1.0054164377419168e-09 -2.4906252221006061e-06 -0.48902333435718426 0.045283596453242377 -2.734276735633018e-06 -0.65595334284509021 0.074651366041088033 -2.2287346985312936e-06 -0.51987852401475998 0.039385066421113724 -2.5963201494852044e-06 -0.4688800720676391 0.053140987265460002 -1.7739613827950969e-06 -0.47980739627909252 -1.0054164377419168e-09 -2.4906252221006061e-06 -0.48902333435718426 0.04528359645324237 -2.734276735633018e-06 -0.65595334284509021 0.039385066421113724 -2.5963201494852044e-06 -0.4688800720676391 0.053140987265460009 -1.7739613827950965e-06 -0.47980739627909247 0.072383155389415491 -2.6306909452073144e-06 -0.79707814148236922 0.095314293240565368 -3.0323521483270869e-06 -0.64361206190762743 0.045283596453242377 -2.734276735633018e-06 -0.65595334284509021 0.075617768343275771 -1.4587040590208628e-06 -0.65978387435951813 0.074651366041088033 -2.2287346985312936e-06 -0.51987852401475998 0.075617768343275785 -1.458704059020863e-06 -0.65978387435951824 0.12044642025863006 -1.5065454476153225e-06 -0.50750519074442013 0.053140987265460002 -1.7739613827950967e-06 -0.47980739627909247 0.095314293240565368 -3.0323521483270869e-06 -0.64361206190762743 0.074651366041088033 -2.2287346985312936e-06 -0.51987852401475998 0.075617768343275757 -1.4587040590208623e-06 -0.65978387435951802 0.12044642025863007 -1.5065454476153221e-06 -0.50750519074441991 0.095314293240565368 -3.0323521483270869e-06 -0.64361206190762743 0.075617768343275771 -1.4587040590208628e-06 -0.65978387435951813 0.072383155389415491 -2.6306909452073144e-06 -0.79707814148236922 0.12051376950375868 -2.5235454340577993e-06 -0.74930266198453921 0.045283596453242377 -2.734276735633018e-06 -0.65595334284509021 0.075617768343275771 -1.4587040590208625e-06 -0.65978387435951813 0.074651366041088033 -2.2287346985312936e-06 -0.51987852401475998 0.053140987265460002 -1.7739613827950969e-06 -0.47980739627909252 0.14437830202015778 -3.2017162682038672e-06 -0.64826075615685186 0.12044642025863007 -1.5065454476153225e-06 -0.50750519074441991 0.095314293240565368 -3.0323521483270869e-06 -0.64361206190762743 0.12051376950375868 -2.5235454340577993e-06 -0.74930266198453921 0.074651366041088033 -2.2287346985312936e-06 -0.51987852401475998 0.045283596453242383 -2.734276735633018e-06 -0.65595334284509021 0.095314293240565368 -3.0323521483270869e-06 -0.64361206190762743 0.075617768343275771 -1.4587040590208628e-06 -0.65978387435951813 0.095314293240565368 -3.0323521483270869e-06 -0.64361206190762743 0.12044642025863007 -1.5065454476153221e-06 -0.50750519074442002 0.075617768343275771 -1.4587040590208621e-06 -0.65978387435951802 0.12051376950375868 -2.5235454340577993e-06 -0.74930266198453921 0.095314293240565368 -3.0323521483270869e-06 -0.64361206190762743 0.14437830202015778 -3.2017162682038672e-06 -0.64826075615685186 0.12026174963198892 -2.7620529649951924e-06 -0.46098330307536622 0.12044642025863007 -1.5065454476153225e-06 -0.50750519074442002 0.095314293240565368 -3.0323521483270869e-06 -0.64361206190762743 0.12026174963198892 -2.7620529649951924e-06 -0.46098330307536622 0.074651366041088033 -2.2287346985312936e-06 -0.51987852401475998 0.12044642025863009 -1.5065454476153225e-06 -0.50750519074442013 0.11992255902630532 -2.8607269876417305e-06 -0.79429842596453804 0.14437830202015778 -3.2017162682038672e-06 -0.64826075615685186 0.095314293240565368 -3.0323521483270869e-06 -0.64361206190762743 0.12051376950375868 -2.5235454340577993e-06 -0.74930266198453921 0.072383155389415491 -2.6306909452073144e-06 -0.79707814148236922 0.035267090421973422 -1.2896086000782491e-06 -0.95947884919798132 0.076122429251019558 -9.0088902029812755e-07 -0.9595240418036739 0.075617768343275771 -1.4587040590208628e-06 -0.65978387435951813 0.072383155389415491 -2.6306909452073144e-06 -0.79707814148236922 0.075617768343275771 -1.4587040590208628e-06 -0.65978387435951813 0.076122429251019544 -9.0088902029812744e-07 -0.9595240418036739 0.12051376950375865 -2.5235454340577993e-06 -0.74930266198453921 0.072383155389415491 -2.6306909452073144e-06 -0.79707814148236922 0.076122429251019558 -9.0088902029812723e-07 -0.9595240418036739 0.11992255902630532 -2.8607269876417305e-06 -0.79429842596453804 0.12051376950375868 -2.5235454340577993e-06 -0.74930266198453921 0.095314293240565368 -3.0323521483270869e-06 -0.64361206190762743 0.072383155389415491 -2.6306909452073144e-06 -0.79707814148236922 0.11992255902630532 -2.8607269876417305e-06 -0.79429842596453804 0.12051376950375868 -2.5235454340577993e-06 -0.74930266198453921 0.076122429251019558 -9.0088902029812755e-07 -0.9595240418036739 0.096315822223125541 -3.3467847553215173e-06 -0.95955283172677552 0.11992255902630532 -2.8607269876417305e-06 -0.79429842596453804 0.12270162966027424 -1.2504769943858715e-06 -0.95960693357172855 0.096315822223125541 -3.3467847553215173e-06 -0.95955283172677552 0.11992255902630532 -2.8607269876417305e-06 -0.79429842596453804 0.072383155389415491 -2.6306909452073144e-06 -0.79707814148236922 0.076122429251019558 -9.0088902029812755e-07 -0.9595240418036739 0.076122429251019558 -9.0088902029812755e-07 -0.9595240418036739 0.12270162966027424 -1.2504769943858715e-06 -0.95960693357172855 0.11992255902630532 -2.8607269876417305e-06 -0.79429842596453804 0.12051376950375868 -2.5235454340577993e-06 -0.74930266198453921 0.1102978412795261 1.2065175329865298e-07 -0.95957946912992387 0.12270162966027424 -1.2504769943858715e-06 -0.95960693357172855 0.076122429251019558 -9.0088902029812755e-07 -0.9595240418036739 0.12051376950375868 -2.5235454340577993e-06 -0.74930266198453921 0.096315822223125541 -3.3467847553215173e-06 -0.95955283172677552 0.072383155389415491 -2.6306909452073144e-06 -0.79707814148236922 0.048169327804991162 -2.6220589484158953e-06 -0.9594883975100742 0.076122429251019558 -9.0088902029812755e-07 -0.9595240418036739 1.6634327942796732e-09 -2.1938043699752997e-06 -0.81898978247408871 -4.7424368509877993e-10 -2.8625794636209633e-06 -0.66569457642803287 3.1941080536115471e-10 -6.8971698682545429e-07 -0.77563441036329261 0.075617768343275785 -1.4587040590208628e-06 -0.65978387435951802 0.040775853551247167 -6.3588019457716991e-07 -0.95948302298541788 0.076122429251019558 -9.0088902029812755e-07 -0.95952404180367379 0.035267090421973422 -1.2896086000782491e-06 -0.95947884919798132 0.075617768343275771 -1.4587040590208628e-06 -0.65978387435951813 0.035267090421973422 -1.2896086000782491e-06 -0.95947884919798132 0.048169327804991155 -2.6220589484158953e-06 -0.9594883975100742 0.035242080741419164 -2.1037743425012499e-06 -0.819005182527622 0.072383155389415491 -2.6306909452073144e-06 -0.79707814148236922 0.035267090421973422 -1.2896086000782491e-06 -0.95947884919798132 0.072383155389415504 -2.6306909452073149e-06 -0.79707814148236911 0.035242080741419164 -2.1037743425012499e-06 -0.819005182527622 0.075617768343275799 -1.4587040590208632e-06 -0.65978387435951824 0.035267090421973422 -1.2896086000782491e-06 -0.95947884919798132 0.048169327804991162 -2.6220589484158953e-06 -0.9594883975100742 0.072383155389415491 -2.6306909452073144e-06 -0.79707814148236922 0.076122429251019558 -9.0088902029812755e-07 -0.9595240418036739 0.045283596453242377 -2.734276735633018e-06 -0.65595334284509021 0.035242080741419164 -2.1037743425012499e-06 -0.819005182527622 0.072383155389415491 -2.6306909452073144e-06 -0.79707814148236922 0.075617768343275771 -1.4587040590208623e-06 -0.65978387435951813 1.6634327942796732e-09 -2.1938043699752997e-06 -0.81898978247408871 0.040775853551247153 -6.358801945771698e-07 -0.95948302298541788 0.035267090421973422 -1.2896086000782493e-06 -0.95947884919798132 0.075617768343275785 -1.4587040590208625e-06 -0.65978387435951802 0.035267090421973422 -1.2896086000782491e-06 -0.95947884919798132 0.035242080741419164 -2.1037743425012499e-06 -0.819005182527622 1.6634327942796732e-09 -2.1938043699752997e-06 -0.81898978247408871 0.075617768343275771 -1.4587040590208628e-06 -0.65978387435951813 -4.7424368718385079e-10 -2.8625794636209637e-06 -0.66569457642803298 1.6634327942796732e-09 -2.1938043699752997e-06 -0.81898978247408871 0.035242080741419164 -2.1037743425012499e-06 -0.819005182527622 0.075617768343275757 -1.4587040590208628e-06 -0.65978387435951802 5.5875844520951691e-09 -1.0753312836487192e-06 -0.95946809558306745 3.1941080536115471e-10 -6.8971698682545429e-07 -0.77563441036329261 0.040775853551247167 -6.3588019457716991e-07 -0.95948302298541788 1.6634327942796732e-09 -2.1938043699752997e-06 -0.81898978247408871 0.035267090421973422 -1.2896086000782491e-06 -0.95947884919798132 5.5875844505962037e-09 -1.0753312836487192e-06 -0.95946809558306734 0.040775853551247167 -6.3588019457716991e-07 -0.95948302298541788 1.6634327942796732e-09 -2.1938043699752997e-06 -0.81898978247408871 -4.7424368718385079e-10 -2.8625794636209637e-06 -0.66569457642803298 0.035242080741419171 -2.1037743425012499e-06 -0.819005182527622 9.2083651006819562e-10 -2.9851880000419454e-06 -0.76757894573956786 0.045283596453242377 -2.7342767356330176e-06 -0.65595334284509033 1.6634327942796732e-09 -2.1938043699752997e-06 -0.81898978247408871 0.035242080741419171 -2.1037743425012499e-06 -0.81900518252762211 9.2083651006819573e-10 -2.9851880000419454e-06 -0.76757894573956786 -4.7424368718385079e-10 -2.8625794636209637e-06 -0.66569457642803298 3.8391513270385861e-09 -2.829029463938179e-06 -0.95946103256005222 5.5875844520951699e-09 -1.0753312836487188e-06 -0.95946809558306745 0.035267090421973422 -1.2896086000782491e-06 -0.95947884919798132 1.6634327942796732e-09 -2.1938043699752997e-06 -0.81898978247408871 0.035242080741419164 -2.1037743425012499e-06 -0.819005182527622 9.2083650980523635e-10 -2.9851880000419454e-06 -0.76757894573956786 3.8391513270385861e-09 -2.829029463938179e-06 -0.95946103256005222 1.6634327942796732e-09 -2.1938043699752997e-06 -0.81898978247408871 3.8391513270385861e-09 -2.829029463938179e-06 -0.95946103256005222 0.035267090421973422 -1.2896086000782489e-06 -0.95947884919798143 0.048169327804991162 -2.6220589484158953e-06 -0.9594883975100742 0.035242080741419164 -2.1037743425012499e-06 -0.819005182527622 0.035242080741419164 -2.1037743425012499e-06 -0.819005182527622 3.8391513270385861e-09 -2.829029463938179e-06 -0.95946103256005222 0.035267090421973422 -1.2896086000782491e-06 -0.95947884919798132 1.6634327942796732e-09 -2.1938043699752997e-06 -0.81898978247408871 
</DataArray>
</PointData>
<CellData Scalars="" Vectors="" Tensors="stress,">
<DataArray type="Float64" Name="stress" NumberOfComponents="9" format="ascii">
0.00070950991848256484 1.7635003816727656e-06 -1.5334121030904089e-07 1.7635003816727656e-06 -0.19971695730655475 -6.4646679948814732e-06 -1.5334121030904089e-07 -6.4646679948814732e-06 -0.99931502269980066 0.0007575657459273355 1.7031061173789142e-06 8.1913833759264063e-06 1.7031061173789142e-06 -0.19969627571518694 3.7535175467110228e-06 8.1913833759264063e-06 3.7535175467110228e-06 -0.99925089871703632 0.00074673759901106029 2.4459370086615456e-06 2.5438628818675606e-06 2.4459370086615456e-06 -0.19969664312369995 1.4600269159838287e-05 2.5438628818675606e-06 1.4600269159838287e-05 -0.99926883284254719 0.00075798377991919568 1.875631058192756e-06 -2.9784927447762399e-06 1.875631058192756e-06 -0.19969545010855666 7.553564991238099e-06 -2.9784927447762399e-06 7.553564991238099e-06 -0.99926291544900425 0.00075480785392145755 -4.6288013018325766e-07 -1.7646508704727282e-05 -4.6288013018325766e-07 -0.19969375275133899 -6.3346015964776958e-06 -1.7646508704727282e-05 -6.3346015964776958e-06 -0.99926522102051907 0.00071807482700758651 9.0684833739702388e-07 -1.2568145808550257e-05 9.0684833739702388e-07 -0.19970792668819626 -3.9024748242355578e-06 -1.2568145808550257e-05 -3.9024748242355578e-06 -0.9992888957482684 0.00075399400366807368 5.807008201265965e-07 6.0452843372860166e-07 5.807008201265965e-07 -0.19969981631936368 1.1324803447593235e-05 6.0452843372860166e-07 1.1324803447593235e-05 -0.99927185784169181 0.00071429757136390326 1.228125883300243e-06 -1.3145756087420968e-05 1.228125883300243e-06 -0.19971464225794461 1.1931485603411396e-06 -1.3145756087420968e-05 1.1931485603411396e-06 -0.99930727508392481 0.00074579542317268488 -5.2354974375707918e-07 -1.1571078441852123e-05 -5.2354974375707918e-07 -0.19970291977839913 -4.131049802541531e-06 -1.1571078441852123e-05 -4.131049802541531e-06 -0.99930173781134091 0.00074450551811594545 -5.1513276041302913e-07 -1.1840611629371223e-05 -5.1513276041302913e-07 -0.19971011296270774 -1.5244155115445857e-06 -1.1840611629371223e-05 -1.5244155115445857e-06 -0.99930485309800088 0.00074595912837870093 -1.483671729097285e-06 -9.9097959340155306e-06 -1.483671729097285e-06 -0.19970409034384651 -6.2030614163544051e-06 -9.9097959340155306e-06 -6.2030614163544051e-06 -0.99928408940594071 0.00075610315883084533 2.7429464626604191e-06 -1.75643810290671e-06 2.7429464626604191e-06 -0.19970189251680637 2.5441024838479542e-06 -1.75643810290671e-06 2.5441024838479542e-06 -0.99928476540010691 0.00076634480674681038 4.71609349112645e-07 -8.8724420900243572e-06 4.71609349112645e-07 -0.19969587042661602 5.46772966553144e-06 -8.8724420900243572e-06 5.46772966553144e-06 -0.99927007889104824 0.00075692322368092757 2.4372072739230425e-06 5.2208412306409269e-06 2.4372072739230425e-06 -0.19969290264624143 -3.6266370406212722e-06 5.2208412306409269e-06 -3.6266370406212722e-06 -0.99925748128675274 0.00075607735488988513 1.2951909698206573e-06 4.9039734551607287e-06 1.2951909698206573e-06 -0.19969628538172066 -4.5790167667882325e-06 4.9039734551607287e-06 -4.5790167667882325e-06 -0.999255702766222 0.0007135616328201855 -4.5260526294587613e-07 -7.8112895568529045e-06 -4.5260526294587613e-07 -0.19971032771305833 9.4987495526863791e-06 -7.8112895568529045e-06 9.4987495526863791e-06 -0.99930666966492221 0.00072063592442581093 -2.2125625641002531e-06 -1.7659796614610812e-05 -2.2125625641002531e-06 -0.19970789240129455 7.6577475691674834e-06 -1.7659796614610812e-05 7.6577475691674834e-06 -0.99929146196701735 0.00068298934389768697 6.6656552439116547e-06 3.0322666884139001e-06 6.6656552439116547e-06 -0.19972001694519056 6.6187384004063406e-06 3.0322666884139001e-06 6.6187384004063406e-06 -0.99932094305043206 0.00070648942700965445 3.1440124895748319e-06 -2.9558846233318503e-06 3.1440124895748319e-06 -0.19971805132650705 2.1844937457826674e-06 -2.9558846233318503e-06 2.1844937457826674e-06 -0.99932454116494152 0.00063775014655422782 1.9434074652777177e-06 -2.7129657184987721e-05 1.9434074652777177e-06 -0.19973535599218978 2.0135288544436726e-06 -2.7129657184987721e-05 2.0135288544436726e-06 -0.9993422418169059 0.00060618874540574463 7.4588888553389519e-06 1.084056069122763e-05 7.4588888553389519e-06 -0.19975807357416428 7.7312822938102599e-07 1.084056069122763e-05 7.7312822938102599e-07 -0.9994207218875174 0.00060503366399028424 5.8775495580948919e-06 1.1607856232079127e-05 5.8775495580948919e-06 -0.19975924646168042 4.1945109916504899e-06 1.1607856232079127e-05 4.1945109916504899e-06 -0.9994228884879659 0.00060996010773136506 -2.6291610092740034e-06 -9.228269212447955e-07 -2.6291610092740034e-06 -0.19974892990239346 1.0219526210550251e-05 -9.228269212447955e-07 1.0219526210550251e-05 -0.99939491649968337 0.00061361043262958548 -4.2980210854994542e-06 -2.1782180719354116e-05 -4.2980210854994542e-06 -0.19974052962432343 4.5055643007465505e-07 -2.1782180719354116e-05 4.5055643007465505e-07 -0.99935384492632773 0.00061025764109845504 5.6421424463257602e-06 -1.4627714550907722e-05 5.6421424463257602e-06 -0.19975442649271619 -6.3823583451583232e-07 -1.4627714550907722e-05 -6.3823583451583232e-07 -0.99940472839314087 0.00061802159910032128 6.5332254858997044e-06 -1.2195647218674055e-05 6.5332254858997044e-06 -0.19974577989158088 -6.6983726059732795e-06 -1.2195647218674055e-05 -6.6983726059732795e-06 -0.99936794963571085 0.00069601275237346494 -6.4594624150304054e-06 -4.7759388287160753e-05 -6.4594624150304054e-06 -0.19972132356438338 -5.6202551514950017e-06 -4.7759388287160753e-05 -5.6202551514950017e-06 -0.99931522702778053 0.00072226194159541457 1.9579241679306758e-06 -2.3742909957769065e-05 1.9579241679306758e-06 -0.19970953674101777 4.6544093695310984e-06 -2.3742909957769065e-05 4.6544093695310984e-06 -0.99928904498798987 0.00069096387797179526 4.2397406175999726e-07 -6.0052271118604672e-05 4.2397406175999726e-07 -0.1997267148133624 -8.4243028197761305e-07 -6.0052271118604672e-05 -8.4243028197761305e-07 -0.99934291635225625 0.00061887618964115432 7.259339536807925e-06 -3.6518206488950211e-05 7.259339536807925e-06 -0.19975153812299995 3.0866288658892849e-06 -3.6518206488950211e-05 3.0866288658892849e-06 -0.99940989953754955 0.00064072001443937765 2.2589247107415449e-06 -2.6496442151746624e-05 2.2589247107415449e-06 -0.19974833070068826 -3.9497992089659872e-06 -2.6496442151746624e-05 -3.9497992089659872e-06 -0.99940280715757313 0.00071687676596328236 1.0466219724373586e-06 -1.847008284694418e-05 1.0466219724373586e-06 -0.19971636186833508 2.9509988500042716e-06 -1.847008284694418e-05 2.9509988500042716e-06 -0.99932033917012819 0.00064185639221832347 -4.8644860338762719e-08 -2.1083352053752336e-05 -4.8644860338762719e-08 -0.1997350951140055 2.8914528570657405e-06 -2.1083352053752336e-05 2.8914528570657405e-06 -0.9993388586498424 0.00062604667336415946 4.0673628232928622e-06 -3.34611215475622e-05 4.0673628232928622e-06 -0.19973590647193909 1.383110199038029e-05 -3.34611215475622e-05 1.383110199038029e-05 -0.99934133113668422 0.00064063060123420446 8.2677869069630616e-06 -5.0236993649199757e-05 8.2677869069630616e-06 -0.19973275454785056 -4.9806527563367453e-06 -5.0236993649199757e-05 -4.9806527563367453e-06 -0.99932875621680628 0.00062067889664207954 7.547875381211398e-06 -3.4846140206989951e-05 7.547875381211398e-06 -0.19975176736415945 1.1966028293786124e-06 -3.4846140206989951e-05 1.1966028293786124e-06 -0.99940173139864452 0.00074701035567559249 1.9605504412117938e-06 -2.6209140562338806e-05 1.9605504412117938e-06 -0.19970721272857361 2.8674609041656751e-06 -2.6209140562338806e-05 2.8674609041656751e-06 -0.99929870224206985 0.00073240209085850827 4.6284271889927281e-06 -3.1419822997647007e-05 4.6284271889927281e-06 -0.19970393063054559 -5.3595222637703444e-07 -3.1419822997647007e-05 -5.3595222637703444e-07 -0.99926900607751934 0.00075720975386922573 -3.3862843378203204e-06 -1.7763314993535229e-05 -3.3862843378203204e-06 -0.19969763156206294 -3.4682376649497471e-06 -1.7763314993535229e-05 -3.4682376649497471e-06 -0.99926696278052862 0.00077203639741404984 2.6939087080160407e-07 -1.2424481089401418e-05 2.6939087080160407e-07 -0.19969339305047415 -5.378881228090826e-06 -1.2424481089401418e-05 -5.378881228090826e-06 -0.9992576313850251 0.00075782207695429538 -4.1540821799854936e-06 -3.7366749042269665e-06 -4.1540821799854936e-06 -0.19969797321512861 -3.3081105335827643e-06 -3.7366749042269665e-06 -3.3081105335827643e-06 -0.99926921261825674 0.00080218067096571311 1.7944955654739838e-06 -1.6496127278164963e-05 1.7944955654739838e-06 -0.19967948356263321 2.8075256894855016e-06 -1.6496127278164963e-05 2.8075256894855016e-06 -0.99922580282952467 0.00078374866784142183 5.2141126088235758e-06 -2.7282878558576584e-06 5.2141126088235758e-06 -0.19968732670480455 3.2616114540306995e-06 -2.7282878558576584e-06 3.2616114540306995e-06 -0.99925338393559548 0.00080003747168166939 1.8797841610453271e-06 -1.4698136982516097e-05 1.8797841610453271e-06 -0.19968142088958218 4.8926687414296843e-06 -1.4698136982516097e-05 4.8926687414296843e-06 -0.99923459643950685 0.00076958694893541901 7.3839445365708548e-07 -1.1582137618759702e-05 7.3839445365708548e-07 -0.19969206923432392 2.1842639573721456e-06 -1.1582137618759702e-05 2.1842639573721456e-06 -0.99925766462747179 0.0007952479671092666 -2.667841159072445e-07 -2.5402169300026145e-05 -2.667841159072445e-07 -0.19968561427282205 -5.6599204850682483e-06 -2.5402169300026145e-05 -5.6599204850682483e-06 -0.99923966409294063 0.00079654384362937147 2.4455392250624966e-07 -2.6195461731659542e-05 2.4455392250624966e-07 -0.19967825516422133 -1.6223998742237455e-06 -2.6195461731659542e-05 -1.6223998742237455e-06 -0.99923677838819502 0.00075696780245576578 -2.1376335617303785e-07 -1.964249663949369e-05 -2.1376335617303785e-07 -0.19969284862421582 -1.7775624323590478e-06 -1.964249663949369e-05 -1.7775624323590478e-06 -0.99925532386849936 0.00077871477173119263 6.7276179122136881e-07 -2.8685424455776598e-06 6.7276179122136881e-07 -0.19969106383479968 -1.7540892289780174e-06 -2.8685424455776598e-06 -1.7540892289780174e-06 -0.99926891530426842 0.00075891177803155685 -1.5038173888785708e-07 -1.9528322873940684e-05 -1.5038173888785708e-07 -0.19969112261129396 -2.4484102290056597e-07 -1.9528322873940684e-05 -2.4484102290056597e-07 -0.99924733118507625 0.00075527682457271483 6.88962379723475e-06 -1.0520120137295919e-05 6.88962379723475e-06 -0.19969942494514997 2.8880258104435619e-06 -1.0520120137295919e-05 2.8880258104435619e-06 -0.99928500917625684 0.00076390041856200241 8.9294792969678885e-06 -1.4915016793626279e-05 8.9294792969678885e-06 -0.19969162173261462 -5.1609914181183214e-06 -1.4915016793626279e-05 -5.1609914181183214e-06 -0.99925424749737712 0.00075454431267465982 1.1486019215324788e-06 -1.892375150920611e-05 1.1486019215324788e-06 -0.19969754648796204 5.840287175873371e-06 -1.892375150920611e-05 5.840287175873371e-06 -0.99926698342004971 0.00077080228045334209 -1.42937256159822e-05 -1.0255365492983781e-05 -1.42937256159822e-05 -0.19969007114856435 6.0934444759963569e-06 -1.0255365492983781e-05 6.0934444759963569e-06 -0.99925850507761838 0.00079011528998151892 -4.5497280328616416e-07 -3.1667344879027226e-05 -4.5497280328616416e-07 -0.19967995601365018 7.8319377821989278e-06 -3.1667344879027226e-05 7.8319377821989278e-06 -0.99922625167658219 0.00062955749805265748 -2.015499506241975e-06 -2.0549918241574705e-05 -2.015499506241975e-06 -0.19975002905311467 -9.8789538778565333e-07 -2.0549918241574705e-05 -9.8789538778565333e-07 -0.99941172535453626 0.00066003557499716425 -7.4613111868807141e-06 -1.581489546903514e-05 -7.4613111868807141e-06 -0.19972239075883758 -1.2225888435801746e-06 -1.581489546903514e-05 -1.2225888435801746e-06 -0.99930535322213943 0.00063287264543199218 -3.3762617676681892e-06 -2.2942948343901426e-05 -3.3762617676681892e-06 -0.19974784554984526 1.5799881400990756e-06 -2.2942948343901426e-05 1.5799881400990756e-06 -0.99940595305987023 0.00067339499559582183 -3.408997529329731e-06 -5.2410717202355794e-05 -3.408997529329731e-06 -0.19972937594095452 1.3658554849360627e-06 -5.2410717202355794e-05 1.3658554849360627e-06 -0.99935257076037143 0.00065112610642403812 -1.2045893343974009e-05 -3.5185336275098122e-05 -1.2045893343974009e-05 -0.19974523830185381 1.7160707111218976e-05 -3.5185336275098122e-05 1.7160707111218976e-05 -0.99941165218011552 0.0006911893482829945 1.4133578276485256e-06 -5.9425102692078902e-05 1.4133578276485256e-06 -0.19972341193603854 -1.0928100645513084e-06 -5.9425102692078902e-05 -1.0928100645513084e-06 -0.99934307430338287 0.00062505784772803885 3.9126843349241828e-07 -3.9056794264857864e-06 3.9126843349241828e-07 -0.19974557820851258 -3.3561305914364681e-05 -3.9056794264857864e-06 -3.3561305914364681e-05 -0.99936092889940009 0.00065743227560330353 1.7380641284964774e-07 -3.0829167162849114e-05 1.7380641284964774e-07 -0.19972902924407615 -1.6778629832858022e-06 -3.0829167162849114e-05 -1.6778629832858022e-06 -0.99934196490018579 0.00061699107884465032 -2.3874759372121172e-06 -3.8026573142890818e-05 -2.3874759372121172e-06 -0.19975017011164514 1.1519358011913283e-07 -3.8026573142890818e-05 1.1519358011913283e-07 -0.9994030314650546 0.00063504677238268581 2.6886581269594132e-06 1.6757776272556674e-05 2.6886581269594132e-06 -0.19973852132155856 -3.5567277790797798e-06 1.6757776272556674e-05 -3.5567277790797798e-06 -0.99933617633897021 0.00070748479878383896 -2.6339656029657955e-06 -1.4228783498659858e-06 -2.6339656029657955e-06 -0.19971579924806618 5.1053895547270578e-06 -1.4228783498659858e-06 5.1053895547270578e-06 -0.9993143130109452 0.00062783499345872573 -4.0850429428723152e-08 -1.4947636923889895e-05 -4.0850429428723152e-08 -0.1997418861383084 3.2568393297793818e-05 -1.4947636923889895e-05 3.2568393297793818e-05 -0.99937524445069514 0.00065292453481961138 -1.2450164268842968e-05 -2.6469676285112431e-05 -1.2450164268842968e-05 -0.19973002781919455 -6.4724511018576791e-06 -2.6469676285112431e-05 -6.4724511018576791e-06 -0.99933816652977692 0.0007039887898203645 -8.9062706752826695e-07 3.2337383230429059e-06 -8.9062706752826695e-07 -0.1997212464391892 -2.7135392278853854e-06 3.2337383230429059e-06 -2.7135392278853854e-06 -0.99932021425317086 0.00060975737122132001 7.3299369113723977e-07 9.2863568609862254e-06 7.3299369113723977e-07 -0.1997518094970136 -1.5279677324503258e-06 9.2863568609862254e-06 -1.5279677324503258e-06 -0.99940843072058938 0.00061115208933387732 -3.0892967599785064e-07 1.3296171514236681e-05 -3.0892967599785064e-07 -0.19975702504102238 -9.3449878115831316e-06 1.3296171514236681e-05 -9.3449878115831316e-06 -0.99941059442633196 0.00074520258149002316 -1.5331122194230126e-06 -1.1657328284286894e-05 -1.5331122194230126e-06 -0.19970620446568341 -4.968386808475167e-06 -1.1657328284286894e-05 -4.968386808475167e-06 -0.99929947144002185 0.00074510402924095852 8.6782211399995388e-07 -1.2003165878746516e-05 8.6782211399995388e-07 -0.19970532108909939 4.0025248568276162e-06 -1.2003165878746516e-05 4.0025248568276162e-06 -0.99929996871226423 0.00075179559092597437 5.9665642448048182e-07 -5.3069088066237668e-06 5.9665642448048182e-07 -0.19970168084816123 -2.2237946818203305e-06 -5.3069088066237668e-06 -2.2237946818203305e-06 -0.99928805247302221 0.00070731647610194903 -2.219814359550892e-07 9.3935613442971863e-07 -2.219814359550892e-07 -0.19971304233373183 -2.0169170258592208e-06 9.3935613442971863e-07 -2.0169170258592208e-06 -0.9993005728061598 0.00075580399898885679 1.2009583525424964e-06 4.3982718054293e-06 1.2009583525424964e-06 -0.19969352251481012 -5.0186051016978623e-06 4.3982718054293e-06 -5.0186051016978623e-06 -0.99925556508181446 0.00075622064398017663 4.2391053024112757e-07 6.3486752697493386e-06 4.2391053024112757e-07 -0.19969575675422202 -2.468790667675691e-06 6.3486752697493386e-06 -2.468790667675691e-06 -0.99925124763611894 0.00075187047216318525 -2.4659870858936391e-07 -4.9664021855577722e-06 -2.4659870858936391e-07 -0.19970327427487861 -2.9217728156685774e-06 -4.9664021855577722e-06 -2.9217728156685774e-06 -0.99928460145699649 0.00076161467508939484 1.2760310493720605e-07 -9.5615778969437848e-06 1.2760310493720605e-07 -0.19969421196588633 -4.6513944950456187e-06 -9.5615778969437848e-06 -4.6513944950456187e-06 -0.99924930997510542 0.00075759897417488904 -3.284860750455763e-08 4.4909395619390871e-06 -3.284860750455763e-08 -0.19969044807974276 2.4923771596109521e-06 4.4909395619390871e-06 2.4923771596109521e-06 -0.99925884592695635 0.0007572755704940826 1.643429380232017e-06 6.9161747937411499e-06 1.643429380232017e-06 -0.19969357319908554 -1.4002448133196139e-06 6.9161747937411499e-06 -1.4002448133196139e-06 -0.99925280937725125 0.00076580803207182413 2.2360688628830509e-06 -1.0929678326998538e-05 2.2360688628830509e-06 -0.19969212656716256 2.0116732679098526e-06 -1.0929678326998538e-05 2.0116732679098526e-06 -0.99924719473448653 0.00075468345481286003 2.2128679932365952e-06 -5.6784800224474186e-06 2.2128679932365952e-06 -0.19970220373326078 1.6355584711580384e-06 -5.6784800224474186e-06 1.6355584711580384e-06 -0.99928750073529493 0.00075672665252699185 -2.2619997154958019e-06 5.4233480431306101e-06 -2.2619997154958019e-06 -0.19969474281542546 1.7400775658641527e-06 5.4233480431306101e-06 1.7400775658641527e-06 -0.99925250798989451 0.00071464319981570656 1.2246226601445063e-06 3.2614256950669329e-07 1.2246226601445063e-06 -0.19971243858546595 1.8162771455720872e-06 3.2614256950669329e-07 1.8162771455720872e-06 -0.99929900593899423 0.00075720186673394752 -1.4038713386352991e-06 6.2189734367501526e-06 -1.4038713386352991e-06 -0.19969549652994054 4.0485386776922816e-06 6.2189734367501526e-06 4.0485386776922816e-06 -0.99925578894298939 0.00075384660852556519 -1.1549995992767709e-06 3.0569053405292285e-06 -1.1549995992767709e-06 -0.19969722949320579 5.0194128352529154e-06 3.0569053405292285e-06 5.0194128352529154e-06 -0.99925797061289112 0.00070917236596906852 -2.0700096716817791e-06 2.8174997882118711e-06 -2.0700096716817791e-06 -0.19971371943361971 2.9568585499693588e-06 2.8174997882118711e-06 2.9568585499693588e-06 -0.99930191443773986 0.00071074308951740717 -1.4622269447177309e-06 -1.2812616793183374e-06 -1.4622269447177309e-06 -0.1997129889374171 2.3401680313863934e-06 -1.2812616793183374e-06 2.3401680313863934e-06 -0.99929916359092408 0.00074957298554279017 -8.160154535118592e-07 -7.3704122786066861e-06 -8.160154535118592e-07 -0.19970301867602958 2.2299852296438216e-06 -7.3704122786066861e-06 2.2299852296438216e-06 -0.99928787353417758 0.00076814548962583773 -9.214285832757285e-07 -9.3872764547753285e-06 -9.214285832757285e-07 -0.19968782976986457 -1.9471447492147576e-06 -9.3872764547753285e-06 -1.9471447492147576e-06 -0.99925289358258784 0.0007631112339424595 2.1048741121981342e-07 -1.032793823541045e-05 2.1048741121981342e-07 -0.19969192483163273 4.6603012709353631e-06 -1.032793823541045e-05 4.6603012709353631e-06 -0.99924411274821567 0.00075139721926886782 3.5617652476107654e-08 -5.4846472823943948e-06 3.5617652476107654e-08 -0.19970305062388904 4.5635785655175065e-06 -5.4846472823943948e-06 4.5635785655175065e-06 -0.99928887220465612 0.0007285071843709523 1.8030807935981892e-05 -2.009169514261e-05 1.8030807935981892e-05 -0.19970395631865706 9.98355811188123e-06 -2.009169514261e-05 9.98355811188123e-06 -0.9992855540456943 0.00076346870154747615 7.6929252833310035e-07 -9.9727756887324492e-06 7.6929252833310035e-07 -0.19970093274952538 2.0630757353885115e-06 -9.9727756887324492e-06 2.0630757353885115e-06 -0.99928363613995441 0.00076731765026341603 -1.4218944335578817e-07 -1.2245347560252418e-05 -1.4218944335578817e-07 -0.19969306967528416 -1.7383172868229435e-06 -1.2245347560252418e-05 -1.7383172868229435e-06 -0.99927893944471458 0.00073100159885475247 8.073892012539536e-08 -3.692402485651336e-05 8.073892012539536e-08 -0.19971159284210094 -1.171273513400628e-06 -3.692402485651336e-05 -1.171273513400628e-06 -0.99931108922796064 0.00076428591959770698 1.4980333639736241e-07 -1.0728590110031799e-05 1.4980333639736241e-07 -0.19969177027461193 1.6056053158131078e-06 -1.0728590110031799e-05 1.6056053158131078e-06 -0.9992383932306057 0.00075075292474341415 -4.2588844035248727e-06 -3.4749359626162768e-06 -4.2588844035248727e-06 -0.19969717872592802 2.1663398538374068e-06 -3.4749359626162768e-06 2.1663398538374068e-06 -0.99926755792565392 0.00075058727661064806 -1.2892652661561531e-05 -1.1196084284015306e-05 -1.2892652661561531e-05 -0.19970314521318866 -5.3686291729970748e-06 -1.1196084284015306e-05 -5.3686291729970748e-06 -0.99928468956578276 0.00079078757822137469 -3.7689266217014288e-08 -3.0463503617683685e-05 -3.7689266217014288e-08 -0.19968270187460313 3.7745563298170748e-06 -3.0463503617683685e-05 3.7745563298170748e-06 -0.99922013275325017 0.00078796357012356211 -8.6902969589459798e-09 -3.0939689784070801e-05 -8.6902969589459798e-09 -0.19968452095348821 -5.1966780210688235e-06 -3.0939689784070801e-05 -5.1966780210688235e-06 -0.9992324355676736 0.00079105165194348626 -6.8517218166352369e-07 -2.7518418667882294e-05 -6.8517218166352369e-07 -0.19967797128759612 -1.4412690249043791e-06 -2.7518418667882294e-05 -1.4412690249043791e-06 -0.99921352028789379 0.00078358573963666078 1.3871029585316188e-07 -2.6057765249221099e-05 1.3871029585316188e-07 -0.1996822921744803 -1.547674010837774e-06 -2.6057765249221099e-05 -1.547674010837774e-06 -0.99924079062698468 0.00078309224226347229 -8.9266075426560548e-07 -2.5640984825603397e-05 -8.9266075426560548e-07 -0.19968602537664404 9.8455855801482528e-07 -2.5640984825603397e-05 9.8455855801482528e-07 -0.99924438668788307 0.00073113755829665172 -2.2099881475824498e-06 -2.9379337028428987e-05 -2.2099881475824498e-06 -0.19970518871274387 -2.0595491682651179e-06 -2.9379337028428987e-05 -2.0595491682651179e-06 -0.99928358011225094 0.00076565298862751874 -1.3381206826624185e-06 -1.1691061981566886e-05 -1.3381206826624185e-06 -0.19969809892033905 1.0947142465300708e-06 -1.1691061981566886e-05 1.0947142465300708e-06 -0.99928027274119413 0.00078597335604444624 2.9994048443393991e-06 -2.628759563816363e-05 2.9994048443393991e-06 -0.19968682935151197 6.5729331869546215e-06 -2.628759563816363e-05 6.5729331869546215e-06 -0.999237205258099 0.00078534045291456245 -5.857686003266125e-08 -2.72400232461667e-05 -5.857686003266125e-08 -0.19967970412535108 1.3575327562076467e-06 -2.72400232461667e-05 1.3575327562076467e-06 -0.99923462326766588 0.00079725684629161631 -1.7826067661348009e-06 -1.480953561439069e-05 -1.7826067661348009e-06 -0.19968090706092589 -5.0990368395398278e-06 -1.480953561439069e-05 -5.0990368395398278e-06 -0.99923074089449271 0.00078216666164010462 -5.0204387254395322e-06 -3.9708234712554358e-06 -5.0204387254395322e-06 -0.19968712650655346 -2.6536338628702083e-06 -3.9708234712554358e-06 -2.6536338628702083e-06 -0.99924975740536937 0.00076598789950080119 1.4941630030539608e-06 -1.4619417348926689e-05 1.4941630030539608e-06 -0.19969377152306947 7.1518457521735357e-06 -1.4619417348926689e-05 7.1518457521735357e-06 -0.99925393565904319 0.00073274400713132029 -2.6611702224317554e-07 -3.2088820718922939e-05 -2.6611702224317554e-07 -0.19970127871402762 3.0431172499678638e-06 -3.2088820718922939e-05 3.0431172499678638e-06 -0.99926145017410584 0.00077047710407335268 -9.0461863387365257e-07 -1.1223779454949678e-05 -9.0461863387365257e-07 -0.19969118212141768 -1.7224268431537126e-06 -1.1223779454949678e-05 -1.7224268431537126e-06 -0.9992526031977178 0.00076788410435818522 -9.0223067456608579e-07 -8.9104788584815076e-06 -9.0223067456608579e-07 -0.19969378385888503 -4.0527218707064883e-06 -8.9104788584815076e-06 -4.0527218707064883e-06 -0.99926297823510712 0.00075939778514583223 -2.1687350555073955e-06 -2.7601429676837874e-06 -2.1687350555073955e-06 -0.19969824729694124 -2.3265575572750663e-06 -2.7601429676837874e-06 -2.3265575572750663e-06 -0.99927665204073624 0.00074049088049521483 -3.5157196920877712e-07 6.1465389331331011e-06 -3.5157196920877712e-07 -0.19969887398425878 -1.3476270228850494e-05 6.1465389331331011e-06 -1.3476270228850494e-05 -0.99928215952596444 0.00075925343037436255 -1.6466767002253705e-06 -4.682350518037115e-06 -1.6466767002253705e-06 -0.19969445640606337 -5.7799955340276377e-06 -4.682350518037115e-06 -5.7799955340276377e-06 -0.99926622661839215 0.00074818513799498887 1.5364880466722609e-06 3.2738735956105991e-06 1.5364880466722609e-06 -0.19970096492851958 -1.1456334686216207e-05 3.2738735956105991e-06 -1.1456334686216207e-05 -0.99928228125958185 0.00074566282414367802 -1.1250749857800769e-06 7.6138615518218719e-06 -1.1250749857800769e-06 -0.1996978865770343 -4.3160140615614557e-06 7.6138615518218719e-06 -4.3160140615614557e-06 -0.99926519980611939 0.000757190456733281 1.6519671418305596e-07 -4.3485113094265948e-06 1.6519671418305596e-07 -0.19970049442297166 -1.8036374270155586e-07 -4.3485113094265948e-06 -1.8036374270155586e-07 -0.99928516317593197 0.00074527385601974583 -3.5706167376663441e-06 4.7173107206268599e-06 -3.5706167376663441e-06 -0.19970147756693368 6.498741280185446e-06 4.7173107206268599e-06 6.498741280185446e-06 -0.99927529598543918 0.00075062601807746043 -7.9938920177220333e-07 -1.7570257512533605e-06 -7.9938920177220333e-07 -0.19970656497838474 -2.4049703655770749e-06 -1.7570257512533605e-06 -2.4049703655770749e-06 -0.99930261486263805 0.00075175128724708218 -7.7111087759728833e-07 -6.6475724141978887e-07 -7.7111087759728833e-07 -0.19969817035656862 -2.0532459826805294e-07 -6.6475724141978887e-07 -2.0532459826805294e-07 -0.99926751071104025 0.00075111598119470546 -2.5749095588149866e-06 4.4608588872785404e-07 -2.5749095588149866e-06 -0.19970418736627471 6.4741271230198127e-06 4.4608588872785404e-07 6.4741271230198127e-06 -0.99929530668478073 0.00076557596882568385 2.7464753635495672e-07 -1.1280680316971825e-05 2.7464753635495672e-07 -0.19969480191310271 -1.7374266696457141e-06 -1.1280680316971825e-05 -1.7374266696457141e-06 -0.99926229269587186 0.00076562018490833328 -4.688146160812484e-07 -1.0207796510619538e-05 -4.688146160812484e-07 -0.19969345922861154 2.1015221504661064e-06 -1.0207796510619538e-05 2.1015221504661064e-06 -0.99925988728209436 0.00070883000021043641 -2.8009963823053111e-06 -1.3396562576206694e-06 -2.8009963823053111e-06 -0.19971651160063236 -2.9212134474709828e-06 -1.3396562576206694e-06 -2.9212134474709828e-06 -0.99931201752007848 0.00071079665400042291 -3.1153196480164839e-06 6.3980695156898984e-07 -3.1153196480164839e-06 -0.19971382365751783 6.0989100195722353e-06 6.3980695156898984e-07 6.0989100195722353e-06 -0.9993038000172485 0.00071646062954200396 3.0908473265576069e-06 -7.7691033578277181e-06 3.0908473265576069e-06 -0.19970738064643584 -9.2545601526276579e-06 -7.7691033578277181e-06 -9.2545601526276579e-06 -0.99929833311949312 0.00071378355287737838 3.9961570681995903e-06 -1.5722437251897148e-05 3.9961570681995903e-06 -0.19970770290571799 -1.3470837311208017e-05 -1.5722437251897148e-05 -1.3470837311208017e-05 -0.99930576889575329 0.0007045126611213981 -1.8792285751095224e-06 -8.898038925495011e-06 -1.8792285751095224e-06 -0.19971910366751972 -4.6978130968655663e-06 -8.898038925495011e-06 -4.6978130968655663e-06 -0.99932521819757958 0.0007169498620813175 -2.4181012867791098e-06 -1.5316707458246093e-05 -2.4181012867791098e-06 -0.19970767194206179 -1.5386247597115599e-06 -1.5316707458246093e-05 -1.5386247597115599e-06 -0.99928168785563898 0.00075850384901872056 -1.4846174102089592e-06 -5.9040134016696832e-06 -1.4846174102089592e-06 -0.19969900108656913 8.277041024240539e-07 -5.9040134016696832e-06 8.277041024240539e-07 -0.99927584278637505 0.00064981361289917494 1.0150610472039211e-05 1.6848937348323823e-05 1.0150610472039211e-05 -0.19972906594510675 -7.2016700675137102e-07 1.6848937348323823e-05 -7.2016700675137102e-07 -0.99932563798587237 0.00065638720274813211 -5.3940419698529608e-05 -3.5943511600661227e-05 -5.3940419698529608e-05 -0.19973267999584293 -1.3803205094586879e-05 -3.5943511600661227e-05 -1.3803205094586879e-05 -0.99935162851489712 0.00064949037453773673 8.1067035106296971e-06 -2.6352978761856605e-05 8.1067035106296971e-06 -0.19973362454418905 -1.0632766620222167e-06 -2.6352978761856605e-05 -1.0632766620222167e-06 -0.99934815061768989 0.00068426807676058576 -2.1683026997797919e-06 3.5001903818772421e-06 -2.1683026997797919e-06 -0.19972069189125879 -4.6776316309246903e-06 3.5001903818772421e-06 -4.6776316309246903e-06 -0.99933471761554415 0.00061735668508228203 2.3164207302680004e-06 3.1991709379189381e-06 2.3164207302680004e-06 -0.19975176438818304 2.0184666404687857e-05 3.1991709379189381e-06 2.0184666404687857e-05 -0.99941091921275194 0.00061509639041318342 -3.7740363106456835e-06 5.0261452483676638e-06 -3.7740363106456835e-06 -0.19975406514648397 -8.9833609486993896e-06 5.0261452483676638e-06 -8.9833609486993896e-06 -0.99942779045208463 0.00060391118033011125 -2.4238350248119336e-07 -2.4713650856322713e-05 -2.4238350248119336e-07 -0.19974642374397153 -2.3326018472038467e-05 -2.4713650856322713e-05 -2.3326018472038467e-05 -0.99937267327776413 0.00063439779805513649 6.985080889738826e-06 1.4438380260086399e-06 6.985080889738826e-06 -0.19973141181735837 -7.9621420822301833e-06 1.4438380260086399e-06 -7.9621420822301833e-06 -0.99933980224148644 0.00060464536799798019 -4.0498268698904202e-06 -1.6785620646775357e-06 -4.0498268698904202e-06 -0.19975552150283682 -1.381860348870223e-06 -1.6785620646775357e-06 -1.381860348870223e-06 -0.99939634933725774 0.00059252960765215912 -7.6220980986539729e-06 -1.9572313312524181e-05 -7.6220980986539729e-06 -0.19976290778071593 -2.4104356678988914e-06 -1.9572313312524181e-05 -2.4104356678988914e-06 -0.99942449002066147 0.00069253637015942449 6.0382540075312523e-07 -5.7582475560757906e-05 6.0382540075312523e-07 -0.19972671424671262 1.1575676177044691e-06 -5.7582475560757906e-05 1.1575676177044691e-06 -0.99935773529151506 0.00070756582670514212 1.6458663554034179e-06 -2.596147187083897e-05 1.6458663554034179e-06 -0.19971052074212545 -3.150561920857442e-06 -2.596147187083897e-05 -3.150561920857442e-06 -0.99929005202839127 0.00064137450218060277 -4.8714754324109174e-06 -3.1342664080669103e-05 -4.8714754324109174e-06 -0.19973113961951583 -2.1552205396457857e-06 -3.1342664080669103e-05 -2.1552205396457857e-06 -0.99932521102728211 0.00061847032087236631 -1.0229177083060413e-06 -1.2738871917994388e-05 -1.0229177083060413e-06 -0.19974646391387729 -8.9995905915157826e-06 -1.2738871917994388e-05 -8.9995905915157826e-06 -0.99937005198927986 0.00069259849589870665 3.7343325104855713e-07 -1.4608990987707848e-05 3.7343325104855713e-07 -0.19971801953081947 -2.3564092004046966e-07 -1.4608990987707848e-05 -2.3564092004046966e-07 -0.99931501400745781 0.00061759778845171809 -1.422348012596783e-06 -1.8169475770435373e-05 -1.422348012596783e-06 -0.1997559508831383 -3.1347907517298434e-06 -1.8169475770435373e-05 -3.1347907517298434e-06 -0.99941163788378828 0.00064011935021746069 -6.5431771350443321e-06 -3.8554098945098314e-05 -6.5431771350443321e-06 -0.19974303277613825 4.0671372066314326e-06 -3.8554098945098314e-05 4.0671372066314326e-06 -0.99938196552888481 0.00071808522110408668 -4.5255732094046861e-06 -1.9551679125262567e-05 -4.5255732094046861e-06 -0.19971209260034803 2.1602991983060704e-06 -1.9551679125262567e-05 2.1602991983060704e-06 -0.9993080833313247 0.00075154151831589508 1.0649262975720663e-06 -2.6729948723103192e-05 1.0649262975720663e-06 -0.19970687611775309 1.2340151410716871e-06 -2.6729948723103192e-05 1.2340151410716871e-06 -0.9993080429787643 0.00062981518092361521 -9.5386187064222895e-06 -4.6606838886020796e-05 -9.5386187064222895e-06 -0.19974720386770731 -1.9431893260035693e-06 -4.6606838886020796e-05 -1.9431893260035693e-06 -0.99940120523328801 0.00069041592305602029 -5.6526450073546148e-06 -5.5733351176256996e-05 -5.6526450073546148e-06 -0.19972738943165708 1.162511579222425e-06 -5.5733351176256996e-05 1.162511579222425e-06 -0.99935828556182216 0.00065964020975681215 1.0646683810354499e-05 -4.1150274903145601e-05 1.0646683810354499e-05 -0.19974355725269233 -1.2137617349916585e-05 -4.1150274903145601e-05 -1.2137617349916585e-05 -0.99940131384382336 0.00067168822352003943 1.67731566866472e-06 -5.2497408113930111e-05 1.67731566866472e-06 -0.1997340327325452 3.7674246444741044e-07 -5.2497408113930111e-05 3.7674246444741044e-07 -0.99936383591548816 0.00066519863588490602 8.0747076855110266e-06 -1.7014996803621507e-05 8.0747076855110266e-06 -0.19972300691715114 -1.3441648691325803e-07 -1.7014996803621507e-05 -1.3441648691325803e-07 -0.99930465457490747 0.00066082365530262255 1.1126806068738594e-05 -2.5302489179757082e-05 1.1126806068738594e-05 -0.19972977912496254 3.0910424383967516e-06 -2.5302489179757082e-05 3.0910424383967516e-06 -0.99933561143662009 0.00063389638794925096 -4.494824171305719e-06 2.1973978138346836e-05 -4.494824171305719e-06 -0.19973952904444298 4.3193939539691057e-06 2.1973978138346836e-05 4.3193939539691057e-06 -0.99935504513854356 0.00069972884247593292 6.6626786405752262e-07 -1.7806052233004799e-05 6.6626786405752262e-07 -0.19972043364663344 -9.9738550216055266e-07 -1.7806052233004799e-05 -9.9738550216055266e-07 -0.99932415340872771 0.0006195480921349153 1.7942796568358583e-06 7.8678283732813714e-06 1.7942796568358583e-06 -0.19974564276939802 2.3137419382257551e-05 7.8678283732813714e-06 2.3137419382257551e-05 -0.99937076041098793 0.0006930383523025066 -2.2444290843271052e-06 -1.4256866679440705e-05 -2.2444290843271052e-06 -0.19972235026804155 2.0515645789767611e-06 -1.4256866679440705e-05 2.0515645789767611e-06 -0.99932898587283581 0.00061528403729749909 -9.3438709089134356e-06 -1.1168043194842436e-05 -9.3438709089134356e-06 -0.19974593736706167 -3.1954197387495942e-05 -1.1168043194842436e-05 -3.1954197387495942e-05 -0.9993814049100761 0.00059410394521150489 -6.0841255303524004e-07 -3.5414151161816676e-05 -6.0841255303524004e-07 -0.19975662143252199 7.6832471390675394e-07 -3.5414151161816676e-05 7.6832471390675394e-07 -0.99940822803197471 0.00070715275982641268 -7.3743012022759978e-09 1.5624350994043303e-06 -7.3743012022759978e-09 -0.1997108306805479 -1.3429724151866574e-06 1.5624350994043303e-06 -1.3429724151866574e-06 -0.99930053758435489 0.00061206065585578395 1.458037489643614e-06 1.5619865102342078e-05 1.458037489643614e-06 -0.19975500367927476 9.9904552975973846e-06 1.5619865102342078e-05 9.9904552975973846e-06 -0.99940413823008845 0.00038328159250891614 1.7816209012867723e-05 3.6478489236102529e-05 1.7816209012867723e-05 -0.19982740991953152 3.0474405777081159e-05 3.6478489236102529e-05 3.0474405777081159e-05 -0.99957620551264248 0.00042375095794609102 2.1956901021448154e-05 -2.4919615734086964e-05 2.1956901021448154e-05 -0.19981322655442735 -6.6540596271869035e-06 -2.4919615734086964e-05 -6.6540596271869035e-06 -0.99952081671445292 0.00052742465011390571 2.0757738227096546e-06 1.0678829106033905e-05 2.0757738227096546e-06 -0.19977892321527177 -4.2012530505619594e-06 1.0678829106033905e-05 -4.2012530505619594e-06 -0.99945321244273633 0.00046340679830925158 2.5514269093353953e-06 1.1235269284286391e-05 2.5514269093353953e-06 -0.19979047350535556 3.7517701122068863e-06 1.1235269284286391e-05 3.7517701122068863e-06 -0.99944280088846771 0.00049362608880746534 1.3336037318029503e-06 -3.5405396907717268e-05 1.3336037318029503e-06 -0.19979506427520016 -2.8034879648863864e-06 -3.5405396907717268e-05 -2.8034879648863864e-06 -0.99950067962294209 0.00042109309729712607 5.1786508425175865e-08 -4.1607017185030237e-05 5.1786508425175865e-08 -0.19981706857529993 -1.3970975254629092e-05 -4.1607017185030237e-05 -1.3970975254629092e-05 -0.99953536827187128 0.00038517718811861834 -4.2255732124127715e-05 -7.5351975481474653e-06 -4.2255732124127715e-05 -0.1998198907005091 1.2196834633659837e-05 -7.5351975481474653e-06 1.2196834633659837e-05 -0.99953900600415357 0.00052923666175985762 -8.2651463142043382e-06 4.1884737459135307e-06 -8.2651463142043382e-06 -0.19977564700217165 7.4393776303709986e-06 4.1884737459135307e-06 7.4393776303709986e-06 -0.99942702221293522 0.0003472141361217651 -1.9792897860957762e-05 1.8300323725461975e-05 -1.9792897860957762e-05 -0.19983492952277726 -2.7662043542320269e-05 1.8300323725461975e-05 -2.7662043542320269e-05 -0.99955853524391625 0.00053139367305782281 7.0854628123051177e-06 7.4622894658327976e-06 7.0854628123051177e-06 -0.19977466197593541 -7.9011411664020146e-06 7.4622894658327976e-06 -7.9011411664020146e-06 -0.9994473513382639 0.0003646299834335065 6.5516656189910335e-06 -3.5587760478531855e-06 6.5516656189910335e-06 -0.19984015005868927 -1.0410450501521606e-05 -3.5587760478531855e-06 -1.0410450501521606e-05 -0.99960213952724919 0.00034896452846333581 -5.3863954437691079e-06 1.5336768981390375e-05 -5.3863954437691079e-06 -0.19984475178648203 1.953324658728859e-06 1.5336768981390375e-05 1.953324658728859e-06 -0.99961352553428362 0.00054533801368555901 -3.6880532865532515e-06 -7.2151488610949777e-05 -3.6880532865532515e-06 -0.19977764016193739 -2.0507114432966045e-06 -7.2151488610949777e-05 -2.0507114432966045e-06 -0.99946316048213357 0.00055189355340157231 -1.2536872019089129e-06 -1.1054342827271704e-05 -1.2536872019089129e-06 -0.19976850069057933 1.2841801223517635e-06 -1.1054342827271704e-05 1.2841801223517635e-06 -0.99941664798878116 0.00054797812651849465 -1.5473450848241423e-05 -2.5261546664524358e-05 -1.5473450848241423e-05 -0.19977143921135254 -4.0170725641441862e-06 -2.5261546664524358e-05 -4.0170725641441862e-06 -0.99943147521267139 0.00048006751832457839 5.4257945586921095e-06 -7.5353474364901751e-05 5.4257945586921095e-06 -0.19978952264309313 3.793916806543729e-05 -7.5353474364901751e-05 3.793916806543729e-05 -0.99946073900280696 0.00042501838882971765 -1.2991816501971159e-05 -8.4990295134979021e-05 -1.2991816501971159e-05 -0.19981571425634778 4.4889539513315313e-06 -8.4990295134979021e-05 4.4889539513315313e-06 -0.99954555840817538 0.00041353340838765074 1.3808065918234266e-05 -1.0106549952815236e-05 1.3808065918234266e-05 -0.19982954903347161 4.9495087068862631e-06 -1.0106549952815236e-05 4.9495087068862631e-06 -0.99959276371205252 0.0005569954136192129 4.5663689003366005e-05 -2.2172489451043054e-05 4.5663689003366005e-05 -0.19976598409115409 1.3297933214473368e-05 -2.2172489451043054e-05 1.3297933214473368e-05 -0.99942252144874799 0.00046250430578020918 6.7812608499137549e-07 -7.5871763747376031e-05 6.7812608499137549e-07 -0.19980990274144661 5.3370960911847121e-06 -7.5871763747376031e-05 5.3370960911847121e-06 -0.99953493040153396 0.00039047904307629167 -8.612109503181938e-06 2.0031306276618865e-05 -8.612109503181938e-06 -0.19982602423950985 2.8757577786170385e-06 2.0031306276618865e-05 2.8757577786170385e-06 -0.99955521926348934 0.00042386013784773136 -2.9998207432225901e-06 -8.6723629936780178e-05 -2.9998207432225901e-06 -0.19981457835014954 -9.5576352870385684e-06 -8.6723629936780178e-05 -9.5576352870385684e-06 -0.99952981790399131 0.00042778939600984778 1.9605901944568558e-05 -5.8196345313232811e-05 1.9605901944568558e-05 -0.19981136756853649 -5.3532851439497264e-06 -5.8196345313232811e-05 -5.3532851439497264e-06 -0.99951472220530413 0.00033939203198812828 -1.1335600821002316e-05 -1.7326646017300218e-05 -1.1335600821002316e-05 -0.19985231404632936 -1.6256205838012516e-06 -1.7326646017300218e-05 -1.6256205838012516e-06 -0.9996342044906219 0.00054246059772103394 -7.9072975708015743e-06 -3.4322925393841242e-05 -7.9072975708015743e-06 -0.19977466652336265 -6.4864243032314306e-06 -3.4322925393841242e-05 -6.4864243032314306e-06 -0.99943422941864213 0.00034185306233691648 -1.0331707103166723e-05 -3.2230492659837684e-05 -1.0331707103166723e-05 -0.19984770902253357 1.5666197716451835e-06 -3.2230492659837684e-05 1.5666197716451835e-06 -0.99961165224284865 0.0004850125277492956 -1.2759968418412613e-06 -4.0343553913024799e-05 -1.2759968418412613e-06 -0.19978667487318108 -4.423823657451198e-06 -4.0343553913024799e-05 -4.423823657451198e-06 -0.99944859259213792 0.00050827566479194619 -2.6474351855019156e-06 -7.1060445688830853e-05 -2.6474351855019156e-06 -0.19979095225104804 -4.1426981298720023e-06 -7.1060445688830853e-05 -4.1426981298720023e-06 -0.99949307346634697 0.0005413022064044426 -1.836252468481033e-06 -2.7231201146005191e-05 -1.836252468481033e-06 -0.19977191857006513 -4.251338652339065e-06 -2.7231201146005191e-05 -4.251338652339065e-06 -0.99943076602195136 0.00035628875670659643 8.0863313872448683e-06 -9.3516813195471116e-06 8.0863313872448683e-06 -0.19983745849860071 1.4023545910180069e-05 -9.3516813195471116e-06 1.4023545910180069e-05 -0.99957035887168566 0.00054328603802306086 -4.5005226969268655e-06 -4.0316843862187035e-05 -4.5005226969268655e-06 -0.19977538494402819 -5.4175120330901549e-06 -4.0316843862187035e-05 -5.4175120330901549e-06 -0.99943980716600267 0.00046883392525820522 -5.7285065159842094e-06 2.0565914487929993e-06 -5.7285065159842094e-06 -0.19980214946589553 -5.2898926466427021e-06 2.0565914487929993e-06 -5.2898926466427021e-06 -0.99950030894760533 0.00039143663900495507 1.5562342811624846e-05 -1.880577611235168e-05 1.5562342811624846e-05 -0.1998250983456257 -7.7327875738775198e-07 -1.880577611235168e-05 -7.7327875738775198e-07 -0.99952751458961919 0.00038270049499353198 1.3532046116680101e-05 -3.5759708650440203e-05 1.3532046116680101e-05 -0.1998313895011461 -3.4112229253813187e-06 -3.5759708650440203e-05 -3.4112229253813187e-06 -0.99954773685492049 0.00048239907123767689 -9.8705637897964717e-06 -1.8280892391203327e-05 -9.8705637897964717e-06 -0.1997902632622931 -2.6017527359756265e-06 -1.8280892391203327e-05 -2.6017527359756265e-06 -0.99945151751243311 0.00038464142532396162 4.4269123327265418e-06 -3.6013431852000011e-05 4.4269123327265418e-06 -0.19982220350942559 1.3150654615851076e-05 -3.6013431852000011e-05 1.3150654615851076e-05 -0.99954024347504555 0.00047947840970011257 3.5402341406199605e-06 -3.1466023832860124e-05 3.5402341406199605e-06 -0.19979223786395633 3.3873252187488766e-06 -3.1466023832860124e-05 3.3873252187488766e-06 -0.9994689834878967 0.0005527369151667595 -1.0963705735429304e-05 5.3311726275375498e-06 -1.0963705735429304e-05 -0.19976616219436835 -1.0459355040160475e-05 5.3311726275375498e-06 -1.0459355040160475e-05 -0.99941826997281047 0.00044859557912935166 -9.072118152762758e-06 7.0434979974649887e-06 -9.072118152762758e-06 -0.19979488970394771 -7.8831286650537079e-06 7.0434979974649887e-06 -7.8831286650537079e-06 -0.99946795566854907 0.00044851426736175481 4.1382036495054475e-07 7.1104203692440304e-06 4.1382036495054475e-07 -0.19980354348127149 -2.2221288818402574e-05 7.1104203692440304e-06 -2.2221288818402574e-05 -0.99947636461936518 0.00036647002049011723 -6.9087527801890307e-06 2.2212669426441414e-05 -6.9087527801890307e-06 -0.19983361448953735 -5.0784097668189102e-06 2.2212669426441414e-05 -5.0784097668189102e-06 -0.99954467487777121 0.00044307799374009016 1.0019095850976987e-05 -1.7274124549584375e-06 1.0019095850976987e-05 -0.19980956022074634 -1.0503160879856774e-05 -1.7274124549584375e-06 -1.0503160879856774e-05 -0.99951345668486113 0.00034848829961020567 7.6989526622350617e-06 -4.7412473618946294e-05 7.6989526622350617e-06 -0.19984253823024667 -1.3013298669428686e-05 -4.7412473618946294e-05 -1.3013298669428686e-05 -0.99956789255815126 0.00026822049940172787 -5.2422983137320905e-06 8.0878404584705521e-07 -5.2422983137320905e-06 -0.1998768766875948 1.1900415963217448e-06 8.0878404584705521e-07 1.1900415963217448e-06 -0.99964829979253189 0.00025917719600063172 -7.8643643045987673e-06 -1.4130392051447949e-05 -7.8643643045987673e-06 -0.19988269585680735 -3.015834753705704e-06 -1.4130392051447949e-05 -3.015834753705704e-06 -0.99966211503421454 0.0001321051431082132 2.3230621691386086e-06 -6.8450013022136602e-06 2.3230621691386086e-06 -0.19991099071085708 1.1964969268141168e-06 -6.8450013022136602e-06 1.1964969268141168e-06 -0.99968223960606883 0.00026624683370841951 6.8747543644295769e-06 -2.613965511533145e-05 6.8747543644295769e-06 -0.19986998911335913 -2.2485532350485782e-05 -2.613965511533145e-05 -2.2485532350485782e-05 -0.99961287786601805 0.00028554907129242239 9.417619897370958e-06 1.0954831268128161e-05 9.417619897370958e-06 -0.19985275794167906 -8.1553003310484089e-06 1.0954831268128161e-05 -8.1553003310484089e-06 -0.99955440557872033 0.00026887192589408748 4.905022023189685e-06 2.6117159992952054e-05 4.905022023189685e-06 -0.1998717453885861 3.5253831717672554e-06 2.6117159992952054e-05 3.5253831717672554e-06 -0.99963502686123784 0.00027869789271495193 -3.9855642693541177e-06 1.9293704269923717e-05 -3.9855642693541177e-06 -0.19986831462950139 1.529216497420105e-05 1.9293704269923717e-05 1.529216497420105e-05 -0.99962222339397455 0.00012328493884283809 -1.8177026804999247e-06 -2.9765934292380614e-06 -1.8177026804999247e-06 -0.19991832104569818 -4.90577690757249e-06 -2.9765934292380614e-06 -4.90577690757249e-06 -0.99975014927923622 0.00012950522211908899 -5.7701243077257296e-06 -9.0511791343561576e-06 -5.7701243077257296e-06 -0.1999140947801285 9.2237715281773269e-06 -9.0511791343561576e-06 9.2237715281773269e-06 -0.99974010686631742 0.00011019349008913049 1.0234371631436612e-05 -9.5786504155093155e-06 1.0234371631436612e-05 -0.19991340455721979 -2.3235694924628181e-05 -9.5786504155093155e-06 -2.3235694924628181e-05 -0.99971593392642266 0.00012101141389814218 -2.2336886547104849e-06 -1.6418005784279988e-05 -2.2336886547104849e-06 -0.19991481202899533 -2.0620966101336791e-07 -1.6418005784279988e-05 -2.0620966101336791e-07 -0.99973429591715968 0.0001233817055216746 -2.094863009376889e-07 -2.1181122282970533e-05 -2.094863009376889e-07 -0.19991673511929126 -3.0136713139727878e-06 -2.1181122282970533e-05 -3.0136713139727878e-06 -0.99969598000728932 0.00011015926989227376 1.7902264731120311e-06 -3.2127722584592502e-06 1.7902264731120311e-06 -0.19991306632901767 2.9762835577223507e-06 -3.2127722584592502e-06 2.9762835577223507e-06 -0.99968347192489115 0.0001038216061579104 -4.5467349747052287e-06 -8.5137134585263444e-06 -4.5467349747052287e-06 -0.19992029873290676 1.6554946362425946e-06 -8.5137134585263444e-06 1.6554946362425946e-06 -0.99971620394120597 8.7112040713235994e-05 -9.0017864091376379e-06 -1.6052257964642433e-05 -9.0017864091376379e-06 -0.19991977689676763 2.7326509219882666e-06 -1.6052257964642433e-05 2.7326509219882666e-06 -0.99972184909121031 9.1437489178479732e-05 -4.2298540183415879e-06 3.0871476386985513e-06 -4.2298540183415879e-06 -0.19991999974496821 -3.6038140019020185e-06 3.0871476386985513e-06 -3.6038140019020185e-06 -0.99973847291354911 0.00012785127476294678 -8.9876839595098006e-06 1.3670127121144878e-05 -8.9876839595098006e-06 -0.19990622659301907 -1.5549581584637487e-05 1.3670127121144878e-05 -1.5549581584637487e-05 -0.99966664601812871 8.3434922690688029e-05 -1.4395016405491922e-05 -9.3581227534889067e-06 -1.4395016405491922e-05 -0.1999179628251791 1.9256816271573385e-06 -9.3581227534889067e-06 1.9256816271573385e-06 -0.99969321580409964 8.2082114995440936e-05 -2.1446172344879146e-05 -1.8041889924991228e-05 -2.1446172344879146e-05 -0.19992487157982736 4.6287740280148704e-06 -1.8041889924991228e-05 4.6287740280148704e-06 -0.99975443866396629 9.5473836027981651e-05 -1.4924858999387525e-05 -1.17105978639509e-05 -1.4924858999387525e-05 -0.19991840582026582 6.1368727424238045e-06 -1.17105978639509e-05 6.1368727424238045e-06 -0.99975575143197015 0.00029749755757028928 4.1380374417483542e-07 -1.9773538912581934e-05 4.1380374417483542e-07 -0.19986391495599642 -3.2800395478038702e-06 -1.9773538912581934e-05 -3.2800395478038702e-06 -0.99962862091789084 0.00016041988182774469 -2.0968853833971363e-06 -3.3476866400566907e-05 -2.0968853833971363e-06 -0.19989552988931947 -3.7154371488601345e-06 -3.3476866400566907e-05 -3.7154371488601345e-06 -0.99966454287698769 0.0001380152247092703 6.4374949153178638e-05 -3.9078725902919054e-05 6.4374949153178638e-05 -0.19987025945382461 4.2213895267151358e-06 -3.9078725902919054e-05 4.2213895267151358e-06 -0.99966523535895158 0.00018518793680265266 1.0459139908502961e-05 -2.7959744380190443e-05 1.0459139908502961e-05 -0.19989585906033125 -1.3723143183375086e-05 -2.7959744380190443e-05 -1.3723143183375086e-05 -0.99969798125002252 0.00027985108564798633 -1.5420419679626869e-06 -6.4490195144983886e-05 -1.5420419679626869e-06 -0.19987235727162156 -1.5259493050256978e-06 -6.4490195144983886e-05 -1.5259493050256978e-06 -0.99965962479291437 8.6884769593675859e-05 -2.0539562242538891e-05 -5.0143669722557682e-06 -2.0539562242538891e-05 -0.19991385221483876 -2.0082689411449195e-07 -5.0143669722557682e-06 -2.0082689411449195e-07 -0.99972888116501646 4.9130648491269024e-05 -1.4390518377890956e-05 -3.3391085268508203e-05 -1.4390518377890956e-05 -0.19993606567572703 1.1902865728607992e-05 -3.3391085268508203e-05 1.1902865728607992e-05 -0.99979438958277922 0.00015424112404513468 1.3982794608936963e-05 -5.5233510016905463e-05 1.3982794608936963e-05 -0.19991654120281169 -2.5824101832494506e-06 -5.5233510016905463e-05 -2.5824101832494506e-06 -0.99976558964733464 0.00016049471879020505 -4.1158031677480502e-06 -5.3023927662820824e-05 -4.1158031677480502e-06 -0.19993177936598283 -2.2717459660093198e-06 -5.3023927662820824e-05 -2.2717459660093198e-06 -0.9997672761345533 0.00015629525940016875 6.4510292563826124e-07 -2.3301554451710116e-05 6.4510292563826124e-07 -0.19989671079370805 4.5334820049838104e-06 -2.3301554451710116e-05 4.5334820049838104e-06 -0.99965875628047518 0.00018111149575916752 -7.3941218465718725e-06 -1.2749250671573176e-05 -7.3941218465718725e-06 -0.19989536411704489 -2.9547631427817578e-05 -1.2749250671573176e-05 -2.9547631427817578e-05 -0.99971284894027845 0.00019349747547214857 4.5733019374627727e-06 -2.6172919034450626e-05 4.5733019374627727e-06 -0.19990134692726858 3.5705334498037367e-05 -2.6172919034450626e-05 3.5705334498037367e-05 -0.99968219176425421 0.00020081472766220188 -5.6474951552236133e-06 -2.7292822905311542e-05 -5.6474951552236133e-06 -0.19987663554457608 2.436585005649583e-06 -2.7292822905311542e-05 2.436585005649583e-06 -0.99962599953861919 0.00017523560970178487 2.9790351276381426e-06 -1.2566114804657413e-05 2.9790351276381426e-06 -0.19991835583955941 8.3714192822270661e-07 -1.2566114804657413e-05 8.3714192822270661e-07 -0.99976210611120475 0.00018447740149507563 -2.6709422852167385e-05 -1.8788359801361065e-05 -2.6709422852167385e-05 -0.19988643944690093 2.627379032893451e-06 -1.8788359801361065e-05 2.627379032893451e-06 -0.9996504704457192 0.00020247531266409657 4.9504549266759038e-07 -5.6584922717116404e-05 4.9504549266759038e-07 -0.19989474520732819 -8.0326515437337265e-06 -5.6584922717116404e-05 -8.0326515437337265e-06 -0.99966260469857904 0.00020670670449846051 -1.9033533715094937e-06 -5.888575153947806e-05 -1.9033533715094937e-06 -0.19987880242170492 1.5987230366776295e-06 -5.888575153947806e-05 1.5987230366776295e-06 -0.99964750971530036 0.00013451417273269151 9.8362643988206868e-06 -4.5810161733328414e-05 9.8362643988206868e-06 -0.19991964312504962 7.525527315754843e-07 -4.5810161733328414e-05 7.525527315754843e-07 -0.99977456791416586 0.00013309616814483061 1.3243153794891532e-06 -4.9738915588348753e-05 1.3243153794891532e-06 -0.19992352686329334 4.4389325917215672e-06 -4.9738915588348753e-05 4.4389325917215672e-06 -0.99976988915132181 0.00012809303901845093 5.278175610722586e-06 -2.2482885130181707e-05 5.278175610722586e-06 -0.19990566581717556 -3.0696137767564913e-06 -2.2482885130181707e-05 -3.0696137767564913e-06 -0.99967163766966816 0.00013600291728635416 4.066713258082252e-07 -1.8804567390034999e-05 4.066713258082252e-07 -0.19989833381710295 -2.223885652408164e-06 -1.8804567390034999e-05 -2.223885652408164e-06 -0.999680087297529 0.00012930990084877858 3.0842888399106804e-06 -3.4250092282028799e-06 3.0842888399106804e-06 -0.19991145358962251 -1.1031475222189613e-07 -3.4250092282028799e-06 -1.1031475222189613e-07 -0.99974399745898057 0.00012284363901471362 7.8639399931803756e-06 -2.7790334304889086e-06 7.8639399931803756e-06 -0.19992086729887781 -9.1704267372177961e-07 -2.7790334304889086e-06 -9.1704267372177961e-07 -0.999745754936324 0.00026562369856872325 -1.0022597940158605e-06 1.3773104159425786e-05 -1.0022597940158605e-06 -0.19986446276494962 -3.6495685787896193e-06 1.3773104159425786e-05 -3.6495685787896193e-06 -0.99963517041023275 0.00028537620300335236 -1.5561761484102942e-06 -2.1543521302125335e-05 -1.5561761484102942e-06 -0.19985427387321275 2.2767303984039255e-06 -2.1543521302125335e-05 2.2767303984039255e-06 -0.99960336323307108 0.00012295478728713283 -1.6298338412659568e-06 -4.6429283840354607e-06 -1.6298338412659568e-06 -0.1999269530085912 -3.6121336729477704e-06 -4.6429283840354607e-06 -3.6121336729477704e-06 -0.99974885354936605 0.00028374839765465953 5.846240663796132e-06 1.3357935181831552e-05 5.846240663796132e-06 -0.19985960007146061 6.3677393237117267e-06 1.3357935181831552e-05 6.3677393237117267e-06 -0.99961652529044942 0.00014455953392786269 -2.0774459882330952e-06 -2.5430266882564556e-05 -2.0774459882330952e-06 -0.19990046827108437 1.5805537127884517e-06 -2.5430266882564556e-05 1.5805537127884517e-06 -0.99966988221123554 0.00026962688994919271 -6.5546146934790587e-07 7.9843456010231448e-06 -6.5546146934790587e-07 -0.19986674768062274 1.6549393527370894e-06 7.9843456010231448e-06 1.6549393527370894e-06 -0.99962396853569868 0.00026332885937341288 1.8866469200853341e-06 1.7693552642940851e-05 1.8866469200853341e-06 -0.19986538816027616 -1.0205767993686009e-05 1.7693552642940851e-05 -1.0205767993686009e-05 -0.99962637236291307 9.3921006663353609e-05 3.6584282886761598e-06 9.8481357853251746e-06 3.6584282886761598e-06 -0.19992660609380891 2.1322280970887016e-06 9.8481357853251746e-06 2.1322280970887016e-06 -0.9997356596366942 0.00012185937600409555 -8.0074407124075855e-06 -8.6134919204839837e-06 -8.0074407124075855e-06 -0.19991342668977954 1.8463703540027894e-05 -8.6134919204839837e-06 1.8463703540027894e-05 -0.99970178191497538 8.0891323076280391e-05 -3.0239098888985298e-06 1.4877755599752797e-05 -3.0239098888985298e-06 -0.19992687872496182 2.1684672205280401e-06 1.4877755599752797e-05 2.1684672205280401e-06 -0.99973946518143686 7.2341968704509041e-05 4.1057103575950759e-06 1.3588397813929509e-05 4.1057103575950759e-06 -0.19992907981914698 -2.3936670974222807e-06 1.3588397813929509e-05 -2.3936670974222807e-06 -0.99973458865942533 8.1408818368211566e-05 9.4339568979453477e-08 6.7124852814064623e-06 9.4339568979453477e-08 -0.19992743135372049 4.3681785106733109e-06 6.7124852814064623e-06 4.3681785106733109e-06 -0.99972193223296113 0.00017862437259119623 -1.7908168557371085e-06 -3.4757742597812946e-05 -1.7908168557371085e-06 -0.19988840904685093 -1.8085706363663023e-05 -3.4757742597812946e-05 -1.8085706363663023e-05 -0.99963392393922024 8.9396112486539447e-05 6.33959794180932e-06 5.6705798222303204e-06 6.33959794180932e-06 -0.19991205609735865 1.7612981168696935e-06 5.6705798222303204e-06 1.7612981168696935e-06 -0.99971791781515529 0.00010190659454414885 -4.7165626143996081e-06 1.4000266218755497e-05 -4.7165626143996081e-06 -0.19992027700294637 2.4895842218319864e-06 1.4000266218755497e-05 2.4895842218319864e-06 -0.99971432740678123 0.00018200727601713589 1.4056326066609511e-05 -3.3265113463309265e-05 1.4056326066609511e-05 -0.19988543985707699 -2.2636642743045776e-06 -3.3265113463309265e-05 -2.2636642743045776e-06 -0.99963134387996733 0.00029204422311712719 -4.6001887172502204e-06 1.4052765316453035e-05 -4.6001887172502204e-06 -0.19985108506733421 4.3949323222779117e-06 1.4052765316453035e-05 4.3949323222779117e-06 -0.99961306264397964 0.00013148482474939494 2.1454841512864316e-06 -2.2472584027877218e-05 2.1454841512864316e-06 -0.1998925475244355 6.7766206079261648e-06 -2.2472584027877218e-05 6.7766206079261648e-06 -0.99966698061264392 0.00013591217858169302 -7.9298712036200789e-06 -1.2170243379017176e-05 -7.9298712036200789e-06 -0.19990217008896363 5.9794115030448874e-06 -1.2170243379017176e-05 5.9794115030448874e-06 -0.99965711761722753 0.00011987480486677637 -8.3928632109256282e-06 -4.0628594512592819e-06 -8.3928632109256282e-06 -0.19992454351653213 5.4099731952028662e-06 -4.0628594512592819e-06 5.4099731952028662e-06 -0.99975314927304904 9.6791864493452317e-05 -3.5048281066913449e-06 1.9314606243302065e-05 -3.5048281066913449e-06 -0.19992160130115699 -6.9133285146197497e-06 1.9314606243302065e-05 -6.9133285146197497e-06 -0.99972980569538894 9.4942964439636646e-05 -6.5026677427262762e-06 1.6400891927462923e-05 -6.5026677427262762e-06 -0.19992109943878211 -1.3956292358884945e-05 1.6400891927462923e-05 -1.3956292358884945e-05 -0.99971960209297273 8.8655355410832692e-05 -7.3465990894136677e-06 1.1814152122969517e-05 -7.3465990894136677e-06 -0.19993463816964868 3.4280989171797671e-06 1.1814152122969517e-05 3.4280989171797671e-06 -0.99974591041438043 0.00029792026019808543 5.3619039129315932e-06 -6.7574710196360854e-06 5.3619039129315932e-06 -0.19985988269311966 6.99723428621013e-06 -6.7574710196360854e-06 6.99723428621013e-06 -0.99963701755522427 0.00028799269542750805 8.7134953046833011e-06 1.5191437705204889e-05 8.7134953046833011e-06 -0.19985379798449032 -8.5263949711348043e-06 1.5191437705204889e-05 -8.5263949711348043e-06 -0.99957220023903359 0.00017412787584178413 -8.7079401737703655e-06 -3.2618455442501304e-05 -8.7079401737703655e-06 -0.19991377342052705 3.9920083657607464e-06 -3.2618455442501304e-05 3.9920083657607464e-06 -0.99972623024045049 0.00017182054505485156 -5.7513199954696231e-06 -3.654535923741653e-05 -5.7513199954696231e-06 -0.19990326717104218 2.2455390622302951e-06 -3.654535923741653e-05 2.2455390622302951e-06 -0.99966831157063996 0.00017989083042677448 -1.4857137560059698e-05 -2.0848273567519726e-05 -1.4857137560059698e-05 -0.19989057711700156 3.5478607794403594e-06 -2.0848273567519726e-05 3.5478607794403594e-06 -0.99966946270758517 0.00016822386210815776 -9.6865700763820576e-06 -3.289785466598083e-05 -9.6865700763820576e-06 -0.19989560320704589 6.0626265594443396e-06 -3.289785466598083e-05 6.0626265594443396e-06 -0.99967182541940958 0.0002772282022190653 1.7878475941547876e-06 2.1340682684563295e-05 1.7878475941547876e-06 -0.19986245099037672 1.9809870262232909e-05 2.1340682684563295e-05 1.9809870262232909e-05 -0.99960923373491528 8.6867591171199687e-05 1.7806155854526556e-05 -1.6345073102663754e-05 1.7806155854526556e-05 -0.19990445441124005 -6.8775886618022142e-06 -1.6345073102663754e-05 -6.8775886618022142e-06 -0.9996872840140858 7.2814595995951414e-05 1.7895231419336965e-05 -2.858167259006672e-05 1.7895231419336965e-05 -0.19991678491418186 -1.3081136407744332e-05 -2.858167259006672e-05 -1.3081136407744332e-05 -0.99973822479517649 0.00013240718055491953 6.6007310798520617e-06 1.8456887602670617e-05 6.6007310798520617e-06 -0.19990043755377956 9.9106967988802581e-06 1.8456887602670617e-05 9.9106967988802581e-06 -0.99967335520273459 8.0851508257719185e-05 1.5697552934317083e-05 -1.4239097028131481e-05 1.5697552934317083e-05 -0.19991107315499151 -9.8068147505459002e-06 -1.4239097028131481e-05 -9.8068147505459002e-06 -0.9997252052849358 8.5510513852702602e-05 -3.1712371545548922e-06 1.5847004626334681e-05 -3.1712371545548922e-06 -0.19991993561755689 1.3596968208484981e-06 1.5847004626334681e-05 1.3596968208484981e-06 -0.9997475128542872 0.00011458928918073849 5.1047699389528043e-06 -1.3989349463334851e-06 5.1047699389528043e-06 -0.19991049726069304 -6.0660335198111901e-06 -1.3989349463334851e-06 -6.0660335198111901e-06 -0.99972013463246479 0.00029621127584003739 -2.8055052542617364e-06 -2.586778334966772e-05 -2.8055052542617364e-06 -0.19985511637670822 -1.471671419814954e-05 -2.586778334966772e-05 -1.471671419814954e-05 -0.99961167104303128 0.00026503600527169689 -9.8092251942371698e-06 8.2500118039920936e-06 -9.8092251942371698e-06 -0.19987077221694785 6.0691272099797011e-06 8.2500118039920936e-06 6.0691272099797011e-06 -0.99964823083597498 0.0004603413439467248 5.8770397903399401e-06 -2.8001179560699363e-05 5.8770397903399401e-06 -0.19980966630477243 -1.5304001469429451e-06 -2.8001179560699363e-05 -1.5304001469429451e-06 -0.99953994298541493 0.00030922669058158769 9.6095158255875514e-06 -1.2010265055831248e-05 9.6095158255875514e-06 -0.1998473205628401 -1.7817945069387164e-06 -1.2010265055831248e-05 -1.7817945069387164e-06 -0.99957650247633878 0.00036792047573789801 8.687991113258616e-06 1.7352857307395399e-05 8.687991113258616e-06 -0.19983355228894237 1.4438048962542848e-06 1.7352857307395399e-05 1.4438048962542848e-06 -0.99954835331896363 0.0005560729518530854 1.0210939396324155e-05 1.5799483009597341e-05 1.0210939396324155e-05 -0.19976247313218023 8.7955562847671886e-06 1.5799483009597341e-05 8.7955562847671886e-06 -0.99941292845832996 0.00044814685095661302 -1.0231351405547314e-05 -1.2030951159450092e-06 -1.0231351405547314e-05 -0.19980969730120646 4.7024478618088808e-06 -1.2030951159450092e-06 4.7024478618088808e-06 -0.99952280849509112 0.0004862301756061127 -2.6289964747662466e-06 -2.8282708844506331e-05 -2.6289964747662466e-06 -0.19979311763404001 -7.7854710536436902e-06 -2.8282708844506331e-05 -7.7854710536436902e-06 -0.99948631792504572 0.00049181561621464143 7.9087747195857647e-06 -1.9312480627670103e-05 7.9087747195857647e-06 -0.19978390315515143 -6.7893588023837381e-07 -1.9312480627670103e-05 -6.7893588023837381e-07 -0.99943444369332335 0.00048727914452637022 8.1985700149199883e-06 -1.8242507315816003e-05 8.1985700149199883e-06 -0.19978828298052376 2.1295474966764871e-06 -1.8242507315816003e-05 2.1295474966764871e-06 -0.99945392614655892 0.00046055901365066321 -1.2691544282057527e-06 7.3102863860443918e-06 -1.2691544282057527e-06 -0.1998001776927481 2.4539319412930638e-05 7.3102863860443918e-06 2.4539319412930638e-05 -0.99947072649089463 0.00046437902636176087 6.9686643747766763e-06 5.4361495159464514e-06 6.9686643747766763e-06 -0.19979561331210813 3.5654282642985738e-07 5.4361495159464514e-06 3.5654282642985738e-07 -0.9994566125216926 0.0003468277354512217 -3.8573636748063185e-06 1.2409996107783615e-05 -3.8573636748063185e-06 -0.19983914145951143 -9.1694078199755502e-06 1.2409996107783615e-05 -9.1694078199755502e-06 -0.99956809983163442 0.00045994463473048031 1.1960945718848255e-05 -2.631393523477854e-05 1.1960945718848255e-05 -0.19980626919332706 -1.6144408692353451e-05 -2.631393523477854e-05 -1.6144408692353451e-05 -0.99952204985112592 0.0003469316002657763 -9.6623194959280253e-06 1.2416532453635616e-05 -9.6623194959280253e-06 -0.19983830514264647 -7.6618756355843385e-07 1.2416532453635616e-05 -7.6618756355843385e-07 -0.99956758787791922 0.00052480137233940072 -7.186826491242608e-06 6.7292161471259751e-06 -7.186826491242608e-06 -0.1997814857195721 2.2215782045572564e-06 6.7292161471259751e-06 2.2215782045572564e-06 -0.99944289868872649 0.00052498735641270944 -4.3401374980687313e-06 8.2121517068385608e-06 -4.3401374980687313e-06 -0.19977686089575025 1.0355512848336801e-06 8.2121517068385608e-06 1.0355512848336801e-06 -0.99944420177534321 0.00042047391136854702 -2.845388930292288e-06 -4.5456227984227179e-05 -2.845388930292288e-06 -0.19981692972906789 2.0698727387585715e-05 -4.5456227984227179e-05 2.0698727387585715e-05 -0.99954257843368777 0.00048535175562536281 -1.7820807795389553e-06 -4.1377841322187692e-05 -1.7820807795389553e-06 -0.19979752842139242 3.971658146473267e-06 -4.1377841322187692e-05 3.971658146473267e-06 -0.99950679925218355 0.00043417602854847748 -2.2901532199853956e-05 -2.9939703520470706e-05 -2.2901532199853956e-05 -0.19981234204836534 1.2084687987190534e-05 -2.9939703520470706e-05 1.2084687987190534e-05 -0.99952390903253685 0.00045930788864645411 -5.4162072800832058e-06 9.2333690515292906e-06 -5.4162072800832058e-06 -0.19978947476195302 -7.3531970961458911e-07 9.2333690515292906e-06 -7.3531970961458911e-07 -0.99944489738255593 0.00052603278772045403 6.128907359772993e-06 2.1350919965887771e-06 6.128907359772993e-06 -0.19977527234850501 -6.2847667863733992e-06 2.1350919965887771e-06 -6.2847667863733992e-06 -0.99943218819415891 0.00033938805396543925 8.8175935433711402e-06 2.0070293754988181e-06 8.8175935433711402e-06 -0.19984531263468125 5.192905273225923e-06 2.0070293754988181e-06 5.192905273225923e-06 -0.9996009346118655 0.00046672578057516123 -2.7619604546941231e-06 -6.9483955407192988e-05 -2.7619604546941231e-06 -0.19980518538158354 -4.9942468889341285e-06 -6.9483955407192988e-05 -4.9942468889341285e-06 -0.99952384704414476 0.00042180924776358264 1.2261020472076244e-05 -8.1798500113028361e-05 1.2261020472076244e-05 -0.19982091582403066 -1.9219726898889178e-06 -8.1798500113028361e-05 -1.9219726898889178e-06 -0.99953947988531233 0.00048787280854206694 -2.7889902500829718e-06 -6.5666290278064421e-05 -2.7889902500829718e-06 -0.19978524390924696 -3.2981021834299629e-05 -6.5666290278064421e-05 -3.2981021834299629e-05 -0.99943821334625538 0.00042163690770549711 -1.0786960306601742e-05 -6.5141932475976105e-06 -1.0786960306601742e-05 -0.19982840837228508 -4.0781007040746609e-07 -6.5141932475976105e-06 -4.0781007040746609e-07 -0.99958936841770862 0.00048585260037389832 -3.1278435678439825e-06 -3.7226893250030813e-05 -3.1278435678439825e-06 -0.19978459248096445 1.5784975386234912e-06 -3.7226893250030813e-05 1.5784975386234912e-06 -0.99944266792599412 0.00048609595333165556 -2.0989274606097456e-06 -3.7743482943441986e-05 -2.0989274606097456e-06 -0.19978590455267242 -1.0403529874108974e-06 -3.7743482943441986e-05 -1.0403529874108974e-06 -0.99944764431506017 0.00032180675584847496 7.0267420094768239e-06 -3.3247636922140167e-05 7.0267420094768239e-06 -0.19985191142909142 -5.6413546185574148e-06 -3.3247636922140167e-05 -5.6413546185574148e-06 -0.99961236475399007 0.00032116793006658345 4.7977654035575112e-06 -3.2701813803437396e-05 4.7977654035575112e-06 -0.19984306400329516 -2.7405619058562536e-06 -3.2701813803437396e-05 -2.7405619058562536e-06 -0.99956567453573097 0.00052106917936575736 1.3689698571461322e-05 -4.2626426244446458e-05 1.3689698571461322e-05 -0.19977669937736006 3.7188905315788112e-06 -4.2626426244446458e-05 3.7188905315788112e-06 -0.9994346550560923 0.00041973508233364432 -1.7032279883061164e-05 -5.3569781758300294e-05 -1.7032279883061164e-05 -0.19982024441636681 4.2420205488280516e-06 -5.3569781758300294e-05 4.2420205488280516e-06 -0.99955028837264237 0.00045793019298537296 1.8734235793607566e-06 -2.0180094952249039e-05 1.8734235793607566e-06 -0.19980845279671808 -3.157056560162963e-06 -2.0180094952249039e-05 -3.157056560162963e-06 -0.99952976286294637 0.00047876376886349381 2.0499990507962622e-06 -3.9485189299415246e-05 2.0499990507962622e-06 -0.19978762292189486 4.9805429231178366e-06 -3.9485189299415246e-05 4.9805429231178366e-06 -0.99944567236580462 0.00041908315461253176 9.8457977339556806e-07 -8.6412051402029455e-05 9.8457977339556806e-07 -0.1998174075746138 1.0801047069519676e-06 -8.6412051402029455e-05 1.0801047069519676e-06 -0.99953687365056043 0.0004970882732351356 1.4791579672630715e-05 -2.8571088091067232e-05 1.4791579672630715e-05 -0.19979862485128458 -1.1372000783826941e-05 -2.8571088091067232e-05 -1.1372000783826941e-05 -0.99952184981516767 0.00051790937201989795 8.4033991536488718e-06 -3.8104731199362085e-05 8.4033991536488718e-06 -0.19977672550862408 7.2225946257109541e-07 -3.8104731199362085e-05 7.2225946257109541e-07 -0.99942429115512899 0.0005057987361267724 6.6956326312382697e-06 -5.1132800372832854e-05 6.6956326312382697e-06 -0.19980086647849482 9.5294983206706263e-06 -5.1132800372832854e-05 9.5294983206706263e-06 -0.99953142745239987 0.00031603077716733929 -2.1757134611952909e-06 -4.4270938223345269e-05 -2.1757134611952909e-06 -0.19984425230889558 2.772419828045436e-06 -4.4270938223345269e-05 2.772419828045436e-06 -0.99957713804953441 0.00018601835802500855 -1.4937106798321656e-05 -9.1491100378468526e-06 -1.4937106798321656e-05 -0.19988557538513274 -8.9932556127103602e-07 -9.1491100378468526e-06 -8.9932556127103602e-07 -0.9996531210203794 0.00017055730461740942 -1.3525278222785878e-05 -3.2424080064596961e-05 -1.3525278222785878e-05 -0.19990236802222389 -7.6269290033570414e-07 -3.2424080064596961e-05 -7.6269290033570414e-07 -0.99972254876331357 0.00031789310668692283 1.8690596118035198e-06 -3.7501817125473735e-05 1.8690596118035198e-06 -0.19985951341732636 7.6908801029951235e-06 -3.7501817125473735e-05 7.6908801029951235e-06 -0.99965980389467302 0.00016413845954723824 -1.1278387434556877e-05 -2.6891950417273769e-05 -1.1278387434556877e-05 -0.19989715613599043 9.971377998074793e-06 -2.6891950417273769e-05 9.971377998074793e-06 -0.99969863535742565 8.7306960922101107e-05 1.1843479009903382e-05 -1.6454996480397277e-05 1.1843479009903382e-05 -0.19990882427963849 1.3418130413445084e-06 -1.6454996480397277e-05 1.3418130413445084e-06 -0.99971691947294883 9.3754575642090998e-05 1.0646800138837793e-06 -1.4357562021061199e-05 1.0646800138837793e-06 -0.19993084752721813 -6.623490050317038e-06 -1.4357562021061199e-05 -6.623490050317038e-06 -0.99980650681270511 7.3538024816743874e-05 1.2230741007813069e-05 -2.7970693973589089e-05 1.2230741007813069e-05 -0.19992907150488104 -1.3664577920680099e-05 -2.7970693973589089e-05 -1.3664577920680099e-05 -0.99979118302322956 9.2821023048916818e-05 7.671299647258549e-06 -1.7440819701092236e-05 7.671299647258549e-06 -0.19991682544875788 -7.032258854677842e-06 -1.7440819701092236e-05 -7.032258854677842e-06 -0.99975698172219252 0.00015824014369691941 4.511080837100424e-06 -4.6835104172027187e-05 4.511080837100424e-06 -0.19992555123997158 -1.3364923445724486e-06 -4.6835104172027187e-05 -1.3364923445724486e-06 -0.99976936922321724 0.00014861158072286551 -1.3435191576666543e-05 -4.8456057777701567e-05 -1.3435191576666543e-05 -0.19991528145030202 2.7668141365788657e-06 -4.8456057777701567e-05 2.7668141365788657e-06 -0.99976815834522403 0.00018947629148802214 2.5588467706261069e-05 -2.5728571865585304e-05 2.5588467706261069e-05 -0.19988787825529547 2.6464420802008171e-06 -2.5728571865585304e-05 2.6464420802008171e-06 -0.99965008300155223 0.00017479470180059575 1.1402788397818259e-06 -4.9506671933041702e-06 1.1402788397818259e-06 -0.19991835801716096 -3.7194972165727203e-06 -4.9506671933041702e-06 -3.7194972165727203e-06 -0.99976139155091648 0.00020461410983629857 2.3021459002335156e-06 -2.4153109833335851e-05 2.3021459002335156e-06 -0.19988083858174704 1.3446526120342028e-06 -2.4153109833335851e-05 1.3446526120342028e-06 -0.9996189176123873 0.00018418744665110731 2.2454421923284454e-06 -2.5756070556159916e-05 2.2454421923284454e-06 -0.19991102595628302 1.0610186115256326e-06 -2.5756070556159916e-05 1.0610186115256326e-06 -0.99972993968995216 0.00019094248489481824 -2.3982001195784857e-06 -1.8078942547794519e-05 -2.3982001195784857e-06 -0.19990757223161676 -3.6919012340264068e-05 -1.8078942547794519e-05 -3.6919012340264068e-05 -0.99968115359042065 0.00018034474520062238 1.8163547940219313e-05 -3.28110593487696e-05 1.8163547940219313e-05 -0.19990246003507328 -1.2306246010285182e-05 -3.28110593487696e-05 -1.2306246010285182e-05 -0.99971189752840839 0.00018434482710405486 5.4595868202108437e-06 -8.7995753097203089e-06 5.4595868202108437e-06 -0.19989791291163861 2.4216705889701373e-05 -8.7995753097203089e-06 2.4216705889701373e-05 -0.99971479592627421 0.00012301388012936343 5.2176968560740422e-07 1.4570504006661267e-06 5.2176968560740422e-07 -0.19992248459266365 4.3312786576210627e-06 1.4570504006661267e-06 4.3312786576210627e-06 -0.99975451794356895 0.00013041426541543499 -9.9175155803359914e-06 -4.3526279492778208e-05 -9.9175155803359914e-06 -0.19991577132910582 1.3882708888024453e-06 -4.3526279492778208e-05 1.3882708888024453e-06 -0.99976718715550539 0.00023545520084544691 3.4473624672320557e-05 -2.7823239401814082e-05 3.4473624672320557e-05 -0.1998854407880214 -1.7945997844992512e-05 -2.7823239401814082e-05 -1.7945997844992512e-05 -0.99967920527246434 0.000243823919980235 -3.4153592208781352e-05 -1.1135256619443368e-05 -3.4153592208781352e-05 -0.19990631633204414 -1.6842510031755964e-05 -1.1135256619443368e-05 -1.6842510031755964e-05 -0.99976911768095555 0.00010672250668208871 -1.2533950233225257e-05 9.8996572220899637e-06 -1.2533950233225257e-05 -0.1999327122436092 7.2606295768995466e-06 9.8996572220899637e-06 7.2606295768995466e-06 -0.99981259467362449 0.00016734802438128638 2.6055854574386658e-06 -2.0558199407827438e-05 2.6055854574386658e-06 -0.19992386323115025 -5.2556744911669284e-07 -2.0558199407827438e-05 -5.2556744911669284e-07 -0.99979668509349051 0.00025618146865691305 -6.8049648970468359e-05 -2.7008247847515321e-05 -6.8049648970468359e-05 -0.19988369777771392 3.3399191278427054e-05 -2.7008247847515321e-05 3.3399191278427054e-05 -0.99969109690502966 0.00022423432413043454 4.2629623589004542e-06 -6.1560641812286043e-05 4.2629623589004542e-06 -0.19988098824153033 -5.0235887852911887e-06 -6.1560641812286043e-05 -5.0235887852911887e-06 -0.99964025084677699 0.00013899979585452193 -1.1756753340255778e-05 -2.158177822353391e-05 -1.1756753340255778e-05 -0.19990433779689798 -8.0240827603494935e-06 -2.158177822353391e-05 -8.0240827603494935e-06 -0.99970161011372616 0.00020180154573690157 3.5208536146607083e-05 -4.7081671087856325e-05 3.5208536146607083e-05 -0.19991191054438107 1.0441271924399587e-05 -4.7081671087856325e-05 1.0441271924399587e-05 -0.99980881950452316 0.00010783690090554465 -2.1103603691476716e-05 -7.6061584225461942e-06 -2.1103603691476716e-05 -0.1999309832052989 8.3861085483638576e-06 -7.6061584225461942e-06 8.3861085483638576e-06 -0.9998141446399873 0.00014246385559002483 -2.3076814963818784e-05 -2.3570474140033326e-05 -2.3076814963818784e-05 -0.19992291806408646 5.4329027454613765e-06 -2.3570474140033326e-05 5.4329027454613765e-06 -0.99981822226421357 0.00011489599878267143 9.2188418502504097e-06 -4.1776834172280175e-05 9.2188418502504097e-06 -0.19994462985904171 -4.9020258627852087e-06 -4.1776834172280175e-05 -4.9020258627852087e-06 -0.99981425284887582 0.00015451423957002497 1.3494544084643707e-05 -2.2441039010057118e-05 1.3494544084643707e-05 -0.19992818619172648 -5.5406618049147482e-07 -2.2441039010057118e-05 -5.5406618049147482e-07 -0.99980006886777684 0.00014418957373878161 -2.7368418725157601e-06 -2.8323325902412932e-06 -2.7368418725157601e-06 -0.19991847202409835 -2.0315505375179121e-05 -2.8323325902412932e-06 -2.0315505375179121e-05 -0.9997934062335958 0.0004248202417687641 1.1134144312389071e-05 -6.3193412147111161e-05 1.1134144312389071e-05 -0.19983594452284986 -2.7260454931177236e-06 -6.3193412147111161e-05 -2.7260454931177236e-06 -0.99963941917103216 0.00014223993707851434 6.0747027548228765e-06 -1.8667375358272231e-05 6.0747027548228765e-06 -0.19990827503306297 -9.2875363755240414e-07 -1.8667375358272231e-05 -9.2875363755240414e-07 -0.99971936370793113 0.00014104515471047296 1.07922001062839e-05 -1.5499204711888481e-05 1.07922001062839e-05 -0.19992061272917838 2.0198883763922204e-05 -1.5499204711888481e-05 2.0198883763922204e-05 -0.99972328266531374 0.00014302104840827057 1.0231314612201096e-06 1.5925700629360051e-06 1.0231314612201096e-06 -0.19993092413056343 -6.6643543594757659e-07 1.5925700629360051e-06 -6.6643543594757659e-07 -0.99980277010102714 9.8211521097901766e-05 7.3012719030791681e-06 -1.0908938101406029e-05 7.3012719030791681e-06 -0.19993803899947782 4.1320162486035983e-06 -1.0908938101406029e-05 4.1320162486035983e-06 -0.99985381887634972 8.6996483778301048e-05 1.7024793674468291e-05 -2.0475921271634334e-05 1.7024793674468291e-05 -0.19993132664309976 -6.1136631158698052e-06 -2.0475921271634334e-05 -6.1136631158698052e-06 -0.99981242347879284 8.8761641918067014e-05 8.5320488852114499e-06 -1.9857262760769601e-05 8.5320488852114499e-06 -0.19991765075006662 9.3588532432686833e-06 -1.9857262760769601e-05 9.3588532432686833e-06 -0.99973617290225469 0.00031794250323238793 -1.5898308031589547e-06 -2.7006559361719695e-05 -1.5898308031589547e-06 -0.19986548671556323 -1.5519013657483427e-06 -2.7006559361719695e-05 -1.5519013657483427e-06 -0.99968393213824958 0.00015530197947966756 -1.58150681315894e-05 -1.1765743863190181e-05 -1.58150681315894e-05 -0.19990440493521633 3.8995493779614421e-06 -1.1765743863190181e-05 3.8995493779614421e-06 -0.9997188506504906 0.00048030656647368719 4.0978031671043813e-07 -3.9478356590127994e-05 4.0978031671043813e-07 -0.19979982602614532 -1.1049787610434292e-05 -3.9478356590127994e-05 -1.1049787610434292e-05 -0.99951085100369852 0.00040764614216337591 5.9967492723315055e-06 -8.6218494673911961e-05 5.9967492723315055e-06 -0.19982786883694814 -2.0315739939213984e-06 -8.6218494673911961e-05 -2.0315739939213984e-06 -0.99958244787293804 0.00034087379674541118 -3.3366991887681214e-06 -4.8341948307495386e-05 -3.3366991887681214e-06 -0.19985425409077118 7.056735210231313e-06 -4.8341948307495386e-05 7.056735210231313e-06 -0.99964259727896332 0.00051064832711111841 -3.9909229838955165e-06 -7.3910300943058616e-05 -3.9909229838955165e-06 -0.19980121146374663 5.3703671369920158e-06 -7.3910300943058616e-05 5.3703671369920158e-06 -0.9995454188070414 0.0004273961684430061 -1.0071266198411664e-05 -3.7261154669510077e-06 -1.0071266198411664e-05 -0.19982520010126348 2.7834840532481309e-07 -3.7261154669510077e-06 2.7834840532481309e-07 -0.99957892199178922 0.00050788055703554491 -7.8113209088465833e-07 -6.7858151827415725e-05 -7.8113209088465833e-07 -0.19977959954476598 -4.937130615556562e-06 -6.7858151827415725e-05 -4.937130615556562e-06 -0.99943814882196191 0.00038198528213273519 5.1534976182382546e-06 -4.6410588264572672e-05 5.1534976182382546e-06 -0.19984874781916506 -3.4825929152298984e-07 -4.6410588264572672e-05 -3.4825929152298984e-07 -0.99966091393626755 0.00048991386526453518 9.3814547526000128e-07 -2.2542493228749905e-05 9.3814547526000128e-07 -0.19979234859895301 1.8043271295953289e-06 -2.2542493228749905e-05 1.8043271295953289e-06 -0.99948120881948155 0.0005262182323646919 2.2793154419861335e-06 -7.7088148575321647e-05 2.2793154419861335e-06 -0.19977627019331606 -1.5306474094867184e-06 -7.7088148575321647e-05 -1.5306474094867184e-06 -0.9994393385415179 0.00045287854713682574 3.182698899587214e-06 -1.7427801694239187e-05 3.182698899587214e-06 -0.1998178885632661 -5.6106791532783973e-06 -1.7427801694239187e-05 -5.6106791532783973e-06 -0.99957573321836479 0.00048560167471356497 -1.1293692709233456e-05 -3.815671375000107e-05 -1.1293692709233456e-05 -0.19979051983729723 3.2197084965934764e-05 -3.815671375000107e-05 3.2197084965934764e-05 -0.99945954903657719 0.00048183273744584199 -4.2144994018520727e-06 -8.1986122623556312e-05 -4.2144994018520727e-06 -0.19982025079309751 -8.7993047848122785e-07 -8.1986122623556312e-05 -8.7993047848122785e-07 -0.99960220202422656 0.00051286951922524526 -4.9660571852872159e-06 -6.833715481502356e-05 -4.9660571852872159e-06 -0.19977594138689725 -4.6338976967819079e-06 -6.833715481502356e-05 -4.6338976967819079e-06 -0.99943636869810781 0.00043106389606573092 1.323787653809616e-05 -1.4761027282483852e-05 1.323787653809616e-05 -0.19982602075185563 -3.0640476016419171e-06 -1.4761027282483852e-05 -3.0640476016419171e-06 -0.99957408823376737 0.0007071067102074613 -4.6705372289093834e-06 -0.00010113495618463419 -4.6705372289093834e-06 -0.19972975779207602 -2.0017614523748506e-06 -0.00010113495618463419 -2.0017614523748506e-06 -0.99940385882180083 0.00041762232406239441 4.2574077728373233e-05 -7.9570462571232348e-05 4.2574077728373233e-05 -0.19982393429593728 -3.2611811068949947e-05 -7.9570462571232348e-05 -3.2611811068949947e-05 -0.99957406208112898 0.00047712260759816272 -2.7597027355882964e-05 -3.0342431765584266e-05 -2.7597027355882964e-05 -0.19980794062872007 -1.2238090112526301e-05 -3.0342431765584266e-05 -1.2238090112526301e-05 -0.99953675115708662 0.00046095986244371057 6.7976211864930467e-05 -4.7444220698689143e-05 6.7976211864930467e-05 -0.19980557497835549 1.7079283177734439e-05 -4.7444220698689143e-05 1.7079283177734439e-05 -0.99955043650149111 0.00057087133644329047 2.6094267746787934e-06 -1.6630068291778599e-05 2.6094267746787934e-06 -0.1997784756618407 -6.7290797090002741e-06 -1.6630068291778599e-05 -6.7290797090002741e-06 -0.99950885518085641 0.00049760699803308439 -3.473184996130671e-05 -9.1707194870505049e-05 -3.473184996130671e-05 -0.19981647688257193 3.1687235432897864e-05 -9.1707194870505049e-05 3.1687235432897864e-05 -0.99958651834496526 0.00048058635266801097 1.0560322185887961e-05 -1.0174112576866179e-06 1.0560322185887961e-05 -0.19980448445263244 -1.1765162854615596e-05 -1.0174112576866179e-06 -1.1765162854615596e-05 -0.9995360464488301 0.00045918267294720039 -1.0866952007857433e-05 -3.3025569980082992e-05 -1.0866952007857433e-05 -0.19982050269399876 -9.0835612138739918e-06 -3.3025569980082992e-05 -9.0835612138739918e-06 -0.99963834810880492 0.0004349788223978468 1.4989107040754639e-05 -6.2212193656652204e-05 1.4989107040754639e-05 -0.19983182546832901 9.925227673512893e-06 -6.2212193656652204e-05 9.925227673512893e-06 -0.99962328336231865 0.00069735560906647454 1.7762407970719978e-05 -8.3070631833326303e-05 1.7762407970719978e-05 -0.19973610794529317 2.2069602279017886e-07 -8.3070631833326303e-05 2.2069602279017886e-07 -0.99939853056537631 0.00058189167736721892 -1.013794282303509e-06 -6.9138289779946405e-05 -1.013794282303509e-06 -0.19976222665426968 6.386011022208038e-06 -6.9138289779946405e-05 6.386011022208038e-06 -0.99942764799107175 0.00071109398959845471 -1.8396671041333077e-05 -9.617260159178187e-05 -1.8396671041333077e-05 -0.19973358278381148 4.872455531490516e-06 -9.617260159178187e-05 4.872455531490516e-06 -0.99941039093571815 0.000564597591947269 1.4463642710108765e-05 -7.0636763622511367e-05 1.4463642710108765e-05 -0.19978862031776967 -2.2621234726072359e-05 -7.0636763622511367e-05 -2.2621234726072359e-05 -0.99946901786531228 0.00047124602970693985 -2.6837005762742823e-05 -0.00012080314034867978 -2.6837005762742823e-05 -0.19982157337623851 -4.170719707818904e-06 -0.00012080314034867978 -4.170719707818904e-06 -0.99958478016509922 0.00043790889231887231 -5.5265762526585609e-06 2.0520382022493067e-06 -5.5265762526585609e-06 -0.19982712872942965 -2.7267866684610453e-06 2.0520382022493067e-06 -2.7267866684610453e-06 -0.99958039677500032 0.00044650238873022996 -1.7473102158604801e-05 -3.2003363381605254e-07 -1.7473102158604801e-05 -0.1998031256421714 2.3902086229599107e-05 -3.2003363381605254e-07 2.3902086229599107e-05 -0.99956414276142569 0.00057572248041426466 6.0115722815607035e-06 -7.5624915680971849e-05 6.0115722815607035e-06 -0.19976611362162489 -7.1024407821695945e-07 -7.5624915680971849e-05 -7.1024407821695945e-07 -0.99944893108451005 0.00034272044928052026 7.1571937289046337e-06 -5.3540061323964494e-05 7.1571937289046337e-06 -0.19983459852194851 1.306885244023448e-05 -5.3540061323964494e-05 1.306885244023448e-05 -0.99956229368800287 0.00056297888749601288 6.8007104627325336e-06 -9.8263116366847925e-05 6.8007104627325336e-06 -0.19978787567043954 -3.5386368411050029e-06 -9.8263116366847925e-05 -3.5386368411050029e-06 -0.99951300289718681 0.00056908977944314376 1.8463679147347951e-05 -4.4282358638597641e-05 1.8463679147347951e-05 -0.19977361173135577 3.0147930383250809e-06 -4.4282358638597641e-05 3.0147930383250809e-06 -0.99945160029080249 0.00055708591196046431 -2.5718294403040236e-05 -1.4010786870688463e-06 -2.5718294403040236e-05 -0.19977205156999844 1.03808187865706e-05 -1.4010786870688463e-06 1.03808187865706e-05 -0.99947896252410695 0.00073998325817703492 1.0129330317743949e-05 -6.5171505949868092e-05 1.0129330317743949e-05 -0.19971899709077767 -3.6958973439471521e-06 -6.5171505949868092e-05 -3.6958973439471521e-06 -0.99939564570344697 0.00056836792833236949 -2.622362319543907e-05 -2.5776958781087433e-05 -2.622362319543907e-05 -0.19978615812743072 -9.7080526209047946e-06 -2.5776958781087433e-05 -9.7080526209047946e-06 -0.99952233019523717 0.00045344508513578408 8.071985769365783e-07 -8.0687756318420512e-05 8.071985769365783e-07 -0.19983344206936149 1.2165762312443817e-05 -8.0687756318420512e-05 1.2165762312443817e-05 -0.99960142649728168 0.00039359812060535404 -4.0384919834937929e-06 -3.1986486939805658e-05 -4.0384919834937929e-06 -0.19983795320859865 -1.086958690010853e-05 -3.1986486939805658e-05 -1.086958690010853e-05 -0.99960153686410225 0.00034612958057511634 8.8517528029831573e-06 -7.3152037072643505e-05 8.8517528029831573e-06 -0.19986789489082035 2.8135774852833251e-05 -7.3152037072643505e-05 2.8135774852833251e-05 -0.99968325993814489 0.00032803816784721107 -6.8128273445120156e-06 -8.6570173291167229e-05 -6.8128273445120156e-06 -0.19987347100261332 3.1033972471838922e-06 -8.6570173291167229e-05 3.1033972471838922e-06 -0.99970962785727924 0.00014836759553898959 -2.0304769358738726e-06 -1.342870086085135e-05 -2.0304769358738726e-06 -0.1999215090262691 1.4347584905927135e-05 -1.342870086085135e-05 1.4347584905927135e-05 -0.9997741739509205 0.00032780233451901175 4.1878305094599766e-06 -8.4752523001579982e-05 4.1878305094599766e-06 -0.19987066107042906 7.5902622538315256e-06 -8.4752523001579982e-05 7.5902622538315256e-06 -0.99969622943439074 0.00030330340023421165 1.391162298248827e-05 -2.2507395261842089e-05 1.391162298248827e-05 -0.19988654491745561 1.6623861918141358e-06 -2.2507395261842089e-05 1.6623861918141358e-06 -0.99974501046673225 0.0003345326383570324 -1.8952421369271795e-05 -4.3469878534097006e-05 -1.8952421369271795e-05 -0.19986393037470429 1.5223003678954683e-05 -4.3469878534097006e-05 1.5223003678954683e-05 -0.99964471035185198 0.00029883918373763141 -1.8484799126125503e-05 9.45193828227886e-06 -1.8484799126125503e-05 -0.19988788585410877 -1.8702297159833847e-06 9.45193828227886e-06 -1.8702297159833847e-06 -0.99973530379060493 0.0001184996671388383 4.0234739727840032e-06 -1.0372360306876161e-05 4.0234739727840032e-06 -0.19994248484472754 2.763085227219797e-05 -1.0372360306876161e-05 2.763085227219797e-05 -0.99985937780424727 0.00013209911011768938 1.6605203687920518e-06 -3.4158198860545497e-05 1.6605203687920518e-06 -0.19993156386799327 5.1842468407059528e-06 -3.4158198860545497e-05 5.1842468407059528e-06 -0.9997961592431972 9.5769044470728204e-05 -6.3804913930317525e-07 -2.8544737392888209e-05 -6.3804913930317525e-07 -0.19995201444601118 1.6058985878197873e-05 -2.8544737392888209e-05 1.6058985878197873e-05 -0.99989592911347902 0.00010162898631693729 1.1633962143429956e-06 1.6924008953145275e-05 1.1633962143429956e-06 -0.19995189591056994 4.0642905012600039e-06 1.6924008953145275e-05 4.0642905012600039e-06 -0.99992910176412675 9.1876989880723681e-05 1.4727752652905014e-05 -1.1910591916297619e-05 1.4727752652905014e-05 -0.19992433357150136 1.9035248965071361e-05 -1.1910591916297619e-05 1.9035248965071361e-05 -0.99978387916901679 7.1325678176747953e-05 1.7576582076562357e-05 -1.9897662618006962e-05 1.7576582076562357e-05 -0.19995090796286036 -1.8586883350213412e-06 -1.9897662618006962e-05 -1.8586883350213412e-06 -0.99988925336981649 0.00013838468536642168 4.3524519250414481e-06 -2.8586611273695439e-05 4.3524519250414481e-06 -0.19994388189279699 8.8610804811310728e-06 -2.8586611273695439e-05 8.8610804811310728e-06 -0.99986561496493653 0.0001317148636049148 -1.5338478789325692e-06 -3.2680659480144314e-05 -1.5338478789325692e-06 -0.19994527713129523 2.6236425396675145e-06 -3.2680659480144314e-05 2.6236425396675145e-06 -0.9998718759155627 0.00013061910989997649 -8.2417702444290269e-06 -2.4231109124972505e-05 -8.2417702444290269e-06 -0.19992763228452803 3.7955581856999321e-06 -2.4231109124972505e-05 3.7955581856999321e-06 -0.99978293343192615 0.00011259341696745473 -4.3253015719393957e-06 -6.2410186920658361e-06 -4.3253015719393957e-06 -0.19994212145148471 -3.9822606042516639e-05 -6.2410186920658361e-06 -3.9822606042516639e-05 -0.99984089583260882 0.00011325899502145909 5.0419419618847115e-06 1.337278114799112e-05 5.0419419618847115e-06 -0.19995270489899419 7.8189700647435245e-06 1.337278114799112e-05 7.8189700647435245e-06 -0.99988446228394601 0.00013222710947102811 5.9162107597908102e-06 1.2979565970017148e-05 5.9162107597908102e-06 -0.19993080682398756 5.3036367915204607e-06 1.2979565970017148e-05 5.3036367915204607e-06 -0.99979721045737957 0.00010907553934458303 -2.0673327219115215e-06 -3.8133608630586124e-05 -2.0673327219115215e-06 -0.1999522850299843 -3.5564029756685045e-06 -3.8133608630586124e-05 -3.5564029756685045e-06 -0.99990619628021404 0.00013387179102830604 2.179980035399631e-07 -6.4693817111161067e-06 2.179980035399631e-07 -0.19993773390223624 3.7747756635342355e-05 -6.4693817111161067e-06 3.7747756635342355e-05 -0.99982872428726566 0.00014290930725380235 1.8663349386181639e-06 7.926006422520615e-06 1.8663349386181639e-06 -0.19992432201756494 -5.8421002451236603e-06 7.926006422520615e-06 -5.8421002451236603e-06 -0.99978786969675548 0.00029185850292990159 9.8685873610585631e-07 -2.841151985855106e-05 9.8685873610585631e-07 -0.19986496266937537 5.9795812501484136e-07 -2.841151985855106e-05 5.9795812501484136e-07 -0.99963793819625524 0.00015592035519496061 -4.5780686364686671e-06 -3.3316935592608843e-05 -4.5780686364686671e-06 -0.19993214994704289 -9.0410370168214627e-07 -3.3316935592608843e-05 -9.0410370168214627e-07 -0.99984890612207877 0.00034179962960301236 2.9289325151073389e-06 -9.565173188463838e-05 2.9289325151073389e-06 -0.19986576060316408 -1.3085373889998309e-05 -9.565173188463838e-05 -1.3085373889998309e-05 -0.99968705912539457 0.00021887449571167394 9.5825428709810704e-07 2.2162147821476463e-05 9.5825428709810704e-07 -0.19989867844782871 6.2656257393545189e-07 2.2162147821476463e-05 6.2656257393545189e-07 -0.99973353308130442 0.00011038630555226803 -1.0365140901265639e-06 -3.4688558705031625e-05 -1.0365140901265639e-06 -0.19995443928575751 -7.4491648565655488e-06 -3.4688558705031625e-05 -7.4491648565655488e-06 -0.99989824902452984 0.00032040809347888555 -4.3255758788785405e-06 -8.2486970327533271e-05 -4.3255758788785405e-06 -0.1998616387504808 -6.0865644888608017e-06 -8.2486970327533271e-05 -6.0865644888608017e-06 -0.99970363745904223 0.00013906287802845085 8.8450647091673263e-06 -2.833449663230958e-05 8.8450647091673263e-06 -0.19994721800275772 2.8006330565766291e-07 -2.833449663230958e-05 2.8006330565766291e-07 -0.99984678940824701 0.00012948711388394152 -5.0315311661846996e-06 1.6285983068797805e-06 -5.0315311661846996e-06 -0.19993076592861514 -9.2884525010050734e-06 1.6285983068797805e-06 -9.2884525010050734e-06 -0.99979656168325715 0.00014709316613137347 -9.4302624364105406e-06 -3.7350620131215706e-05 -9.4302624364105406e-06 -0.19993796577351364 -3.4063955484109343e-06 -3.7350620131215706e-05 -3.4063955484109343e-06 -0.99985467208925805 0.00013732965862023327 -1.8147087514838608e-05 -2.5825324992512222e-05 -1.8147087514838608e-05 -0.19993082621561475 1.500384899655316e-06 -2.5825324992512222e-05 1.500384899655316e-06 -0.99987462835062058 0.00035370289517577813 4.0248342614022539e-06 -9.9608107483994957e-05 4.0248342614022539e-06 -0.19985787888784168 -1.0649394033279691e-08 -9.9608107483994957e-05 -1.0649394033279691e-08 -0.99967113251212636 0.0003464737571781118 5.4952529209821729e-06 -9.231438262480296e-05 5.4952529209821729e-06 -0.19985592346434644 -6.9651381777169341e-06 -9.231438262480296e-05 -6.9651381777169341e-06 -0.99967744215241705 0.00012770582043186707 3.8904114921559022e-06 1.0502293178005218e-05 3.8904114921559022e-06 -0.1999216459092108 -3.3694297991646027e-06 1.0502293178005218e-05 -3.3694297991646027e-06 -0.99978877965447754 9.7324826380473795e-05 4.3842780722128854e-06 -2.6694879591504517e-05 4.3842780722128854e-06 -0.19995616412306672 2.6761842479849918e-06 -2.6694879591504517e-05 2.6761842479849918e-06 -0.99988724928566297 9.6550231863723468e-05 6.2272256402712633e-06 -3.1193626069292435e-05 6.2272256402712633e-06 -0.19994910536029398 -3.0296348989544697e-06 -3.1193626069292435e-05 -3.0296348989544697e-06 -0.9998964415491951 0.00018769881841773639 -3.232687935705943e-06 9.9460498965697752e-06 -3.232687935705943e-06 -0.19989854195970125 2.9531668082061202e-06 9.9460498965697752e-06 2.9531668082061202e-06 -0.99972263799526395 0.00018479298313500703 -7.4936848746762668e-06 2.1840484945023775e-06 -7.4936848746762668e-06 -0.1998989632173015 3.3679992934576575e-06 2.1840484945023775e-06 3.3679992934576575e-06 -0.9997203986390395 8.8429145320589875e-05 7.6248899064819398e-06 -3.1999462910770049e-05 7.6248899064819398e-06 -0.19995354326844328 3.6641565894779404e-06 -3.1999462910770049e-05 3.6641565894779404e-06 -0.99989295692724767 0.00018800345103886507 -7.686334214889068e-06 2.9166066702890348e-06 -7.686334214889068e-06 -0.1998963463710377 5.5382258888903024e-06 2.9166066702890348e-06 5.5382258888903024e-06 -0.99970662339923866 0.00014134360372708432 -1.8174192912155166e-05 -5.3696733800956409e-05 -1.8174192912155166e-05 -0.19993678438581319 1.8839730057340631e-05 -5.3696733800956409e-05 1.8839730057340631e-05 -0.9998635021907738 0.00015583176835520796 -1.1472612926797598e-08 -5.4596716535737499e-05 -1.1472612926797598e-08 -0.19994130834583979 -2.6862255981807692e-06 -5.4596716535737499e-05 -2.6862255981807692e-06 -0.9998829522836199 0.00034711885520233299 -6.3255904755792294e-06 -9.5926482228225751e-05 -6.3255904755792294e-06 -0.19985712809840106 1.3901673635352552e-05 -9.5926482228225751e-05 1.3901673635352552e-05 -0.99967289161255346 0.00018903749488452526 -1.5398679200666179e-05 -8.8686050732089683e-06 -1.5398679200666179e-05 -0.19990632342642545 2.6314010485112282e-05 -8.8686050732089683e-06 2.6314010485112282e-05 -0.99976148121605446 0.00013425623297735889 3.0384874178298875e-06 -2.0586581154224959e-05 3.0384874178298875e-06 -0.19994099755982064 3.7452402650295369e-06 -2.0586581154224959e-05 3.7452402650295369e-06 -0.99987533380996574 0.00012802425165725495 9.800792834293493e-06 1.1361956001154638e-05 9.800792834293493e-06 -0.19992405252799861 1.1517233312219322e-05 1.1361956001154638e-05 1.1517233312219322e-05 -0.99978772240662739 0.00013512331808712696 9.9523764844191174e-06 -2.0224659891043828e-05 9.9523764844191174e-06 -0.19990542207704881 6.4944881681405775e-06 -2.0224659891043828e-05 6.4944881681405775e-06 -0.99969847910636989 0.0002164911512263501 -5.4918216426016365e-06 -6.4494875478382507e-05 -5.4918216426016365e-06 -0.19987524488083008 4.0977027978561509e-06 -6.4494875478382507e-05 4.0977027978561509e-06 -0.99963385664418958 0.00021605767497212547 2.3232711091137678e-05 -5.0240922867927917e-05 2.3232711091137678e-05 -0.19989726447366041 -2.4386031442058531e-05 -5.0240922867927917e-05 -2.4386031442058531e-05 -0.99967581210724576 0.00021052077774008984 2.7635527434686193e-05 -2.5788123045974998e-05 2.7635527434686193e-05 -0.19990356098280759 3.2128772816886197e-05 -2.5788123045974998e-05 3.2128772816886197e-05 -0.99980330827376174 0.00016199024341968793 -5.9143257885305207e-06 -2.4728564492093597e-05 -5.9143257885305207e-06 -0.19992029647751208 3.1589846792856591e-06 -2.4728564492093597e-05 3.1589846792856591e-06 -0.99980553526767624 0.00022220715275764191 -3.6859483348881468e-05 -3.9462277426016712e-05 -3.6859483348881468e-05 -0.19988497588553544 2.2001407283145369e-05 -3.9462277426016712e-05 2.2001407283145369e-05 -0.99967015945064519 0.00020562814796193027 -1.9883623774001594e-05 -2.596657814881928e-05 -1.9883623774001594e-05 -0.19991570513745566 -1.1367595595723756e-05 -2.596657814881928e-05 -1.1367595595723756e-05 -0.99980538159944143 0.0001223582493903308 1.7321324498194329e-05 -2.3525890358921941e-05 1.7321324498194329e-05 -0.19993385300095656 -1.4918982391254332e-05 -2.3525890358921941e-05 -1.4918982391254332e-05 -0.99982555678789309 0.00011645438666230135 8.3250339782658397e-06 3.2846963361476966e-06 8.3250339782658397e-06 -0.19992994403474951 -1.0328414398186325e-05 3.2846963361476966e-06 -1.0328414398186325e-05 -0.99980167135819364 0.00012011044834638746 1.9032210472529603e-05 -1.701779862506303e-05 1.9032210472529603e-05 -0.1999328900749415 -6.5243844837858944e-06 -1.701779862506303e-05 -6.5243844837858944e-06 -0.99981800548274424 0.00015167389422954258 -1.3715477935252143e-05 -2.5485502112898573e-05 -1.3715477935252143e-05 -0.19994093414539771 1.6745198879730694e-06 -2.5485502112898573e-05 1.6745198879730694e-06 -0.99981188849006486 0.00016112381171851098 6.3734897948831634e-05 -3.0175935853637981e-05 6.3734897948831634e-05 -0.19987650590072803 -2.9906798612699959e-05 -3.0175935853637981e-05 -2.9906798612699959e-05 -0.99969033552258413 0.0004434859316708728 -2.6004125924748565e-06 -6.825773400276347e-05 -2.6004125924748565e-06 -0.19983983964705043 3.9725850162763976e-06 -6.825773400276347e-05 3.9725850162763976e-06 -0.99963154460548842 0.00024197446463158911 -8.5565170603867254e-06 1.6044868174081017e-05 -8.5565170603867254e-06 -0.19992601155028789 4.5481699926241959e-06 1.6044868174081017e-05 4.5481699926241959e-06 -0.99971188274884426 0.00016869011171338766 -1.0137167438020212e-06 -3.9953753828703142e-05 -1.0137167438020212e-06 -0.19994122130659908 7.6076677041347907e-06 -3.9953753828703142e-05 7.6076677041347907e-06 -0.99981845111987999 0.00017949855539967086 8.7838299347184178e-07 -2.9293111841965924e-05 8.7838299347184178e-07 -0.19989819577304646 -3.6870098897301418e-06 -2.9293111841965924e-05 -3.6870098897301418e-06 -0.99969554897532498 0.00013770753238939726 7.798902001096023e-06 6.7294822694297096e-06 7.798902001096023e-06 -0.19994423112551774 2.9231044963440311e-06 6.7294822694297096e-06 2.9231044963440311e-06 -0.9998074557876282 0.00013860675021505143 1.2833567216520114e-05 8.2027626524538988e-06 1.2833567216520114e-05 -0.19992719539817227 -4.4040263122990808e-06 8.2027626524538988e-06 -4.4040263122990808e-06 -0.99980371678977109 4.0200027089376533e-05 -1.2543966979316076e-05 1.0722713985833465e-05 -1.2543966979316076e-05 -0.19994103378165395 -2.6203528983304025e-06 1.0722713985833465e-05 -2.6203528983304025e-06 -0.99982620389809407 9.7545353843875304e-05 4.0227239573484897e-06 -1.8608450160551016e-05 4.0227239573484897e-06 -0.19993152541454084 1.6158564051793611e-06 -1.8608450160551016e-05 1.6158564051793611e-06 -0.99982214751334242 0.00010170041011836606 -2.6975188402782794e-05 -3.1133353576295875e-05 -2.6975188402782794e-05 -0.19990899073242907 1.5251696722451413e-05 -3.1133353576295875e-05 1.5251696722451413e-05 -0.99974182946684875 0.00028571422525972001 -6.3367201295947758e-06 -2.8951289334777641e-06 -6.3367201295947758e-06 -0.19987820696293643 5.6509654444703017e-07 -2.8951289334777641e-06 5.6509654444703017e-07 -0.99969381891933995 0.00018596571417590912 7.5941828775537924e-06 -2.7750739010734549e-05 7.5941828775537924e-06 -0.19990207547192956 5.9620058653342412e-06 -2.7750739010734549e-05 5.9620058653342412e-06 -0.99972854195481742 0.00011399015202417928 -9.7934811211466942e-06 -1.7318723438020101e-05 -9.7934811211466942e-06 -0.19992353343315161 -5.105887193823655e-06 -1.7318723438020101e-05 -5.105887193823655e-06 -0.99982692901496417 9.8074872664000168e-05 -2.0549676264620484e-05 -1.1659517611284365e-05 -2.0549676264620484e-05 -0.19991220066909565 -2.2002104372642606e-05 -1.1659517611284365e-05 -2.2002104372642606e-05 -0.99977621504839664 0.00016509668255397514 1.5215152904923026e-05 -4.1784462164740077e-05 1.5215152904923026e-05 -0.19993501598053903 -2.6074090377914416e-06 -4.1784462164740077e-05 -2.6074090377914416e-06 -0.99985223238424736 6.7473374167903444e-05 -1.5966551706335269e-05 -3.0354337737681369e-05 -1.5966551706335269e-05 -0.1999423362937538 4.3995312501987627e-06 -3.0354337737681369e-05 4.3995312501987627e-06 -0.99987502939978246 9.9449209342683531e-05 -4.4417054183659971e-07 -3.035910101822914e-05 -4.4417054183659971e-07 -0.19995481119750891 -5.7080260456032761e-06 -3.035910101822914e-05 -5.7080260456032761e-06 -0.99991021967133875 0.00015290680197921347 -7.0080775862026633e-06 -5.2265746915969302e-05 -7.0080775862026633e-06 -0.19992083635672198 8.4259476003101241e-06 -5.2265746915969302e-05 8.4259476003101241e-06 -0.99977473824675744 0.00010004731554436042 1.4700801619431382e-06 1.0222009917626451e-05 1.4700801619431382e-06 -0.19994606342115473 -4.6123032295675159e-06 1.0222009917626451e-05 -4.6123032295675159e-06 -0.99992195556304075 0.0001140136452023599 -2.0226832579106789e-06 -1.2653824496222654e-05 -2.0226832579106789e-06 -0.19994221546532198 -2.2428950730679631e-05 -1.2653824496222654e-05 -2.2428950730679631e-05 -0.99986537041154033 9.2431978463980435e-05 -8.3778733491032276e-06 -2.8469387105656274e-05 -8.3778733491032276e-06 -0.19997006544821228 2.8550470774213466e-06 -2.8469387105656274e-05 2.8550470774213466e-06 -0.99990516042407451 0.00013174698599915935 1.999844177065063e-05 -5.3671667543442325e-05 1.999844177065063e-05 -0.19993959735105471 -2.4702957881039822e-05 -5.3671667543442325e-05 -2.4702957881039822e-05 -0.99985523685689515 0.000160151291024202 -1.2696965100322416e-05 2.1226517385120047e-05 -1.2696965100322416e-05 -0.19993710267980302 -5.4298942609443124e-06 2.1226517385120047e-05 -5.4298942609443124e-06 -0.99980731063895822 0.00016743589503698253 4.3115327391102384e-06 -4.088467660268158e-05 4.3115327391102384e-06 -0.19994468177141189 -7.9901150595862447e-07 -4.088467660268158e-05 -7.9901150595862447e-07 -0.99985402907340237 0.00032880023209891363 2.5236388741086701e-06 -8.9932908607981421e-05 2.5236388741086701e-06 -0.19986216559533632 -1.0820318935955697e-05 -8.9932908607981421e-05 -1.0820318935955697e-05 -0.99967024188067555 0.00020890975256449007 1.5377892659008803e-05 -3.5983543615891733e-06 1.5377892659008803e-05 -0.19990703573810353 -3.0926039541911976e-05 -3.5983543615891733e-06 -3.0926039541911976e-05 -0.99976589887743872 0.00022580414656681036 8.6443643116035631e-08 -3.5351472408962081e-05 8.6443643116035631e-08 -0.19990385418557532 9.9940237051621139e-06 -3.5351472408962081e-05 9.9940237051621139e-06 -0.99975056751729419 0.00029827693807038536 -1.111136917075355e-05 5.0116358474294742e-07 -1.111136917075355e-05 -0.19988176720782524 -2.6315922296848981e-06 5.0116358474294742e-07 -2.6315922296848981e-06 -0.9997081413094655 0.00032435936144703525 1.1213555704807107e-05 -9.2034844775601421e-05 1.1213555704807107e-05 -0.19986954161116954 -4.6331893637230337e-06 -9.2034844775601421e-05 -4.6331893637230337e-06 -0.99967511922109598 0.00015454061325792523 6.4467981354746387e-06 1.7959291585212256e-05 6.4467981354746387e-06 -0.19992816524369661 -5.0542078644522093e-06 1.7959291585212256e-05 -5.0542078644522093e-06 -0.99980703292053752 0.00032900382682354845 -5.4015349556721466e-07 -7.4535747313475564e-05 -5.4015349556721466e-07 -0.1998727559386444 -5.3398257764403212e-06 -7.4535747313475564e-05 -5.3398257764403212e-06 -0.99969803070232022 0.00019003933751918223 1.3929811371906007e-05 -2.0000034301803638e-05 1.3929811371906007e-05 -0.19990923119264245 -1.9986977698893682e-05 -2.0000034301803638e-05 -1.9986977698893682e-05 -0.99975740309135375 0.00044724929293882276 9.6770132040917564e-06 -5.0492064795903957e-07 9.6770132040917564e-06 -0.19982094269663842 -1.9312029813089993e-06 -5.0492064795903957e-07 -1.9312029813089993e-06 -0.99956086576315517 0.0004495302799151224 1.7926401567834328e-05 -1.1658505247869044e-06 1.7926401567834328e-05 -0.19980667883702397 -1.2333011763954183e-05 -1.1658505247869044e-06 -1.2333011763954183e-05 -0.99955343048314704 0.00039890230447636732 8.240591294620413e-06 -2.299611409650737e-05 8.240591294620413e-06 -0.19983909325568905 9.3443246709234984e-06 -2.299611409650737e-05 9.3443246709234984e-06 -0.99960856994352731 0.00047087361844821984 1.8101467370329045e-05 -6.6838780228284378e-05 1.8101467370329045e-05 -0.19981269244317978 -4.4348600931609639e-06 -6.6838780228284378e-05 -4.4348600931609639e-06 -0.99954633705244333 0.00038240690565360946 -1.4709926028531045e-07 -5.6198216287661751e-05 -1.4709926028531045e-07 -0.1998491421894284 -2.1220573726887793e-05 -5.6198216287661751e-05 -2.1220573726887793e-05 -0.99962569347155306 0.00055205952074133258 1.6801653661715335e-05 -3.3991863312987647e-06 1.6801653661715335e-05 -0.19979225182435911 8.8390293275786291e-06 -3.3991863312987647e-06 8.8390293275786291e-06 -0.99950776154154575 0.00042325317605307333 -8.3136673828508312e-06 -7.2013430261863576e-05 -8.3136673828508312e-06 -0.19983895722911016 -1.7236241817819575e-05 -7.2013430261863576e-05 -1.7236241817819575e-05 -0.99960517815460648 0.00040393105785274663 2.4687405000603667e-05 -5.2087206533837915e-05 2.4687405000603667e-05 -0.19983119165995222 1.1913478009439871e-05 -5.2087206533837915e-05 1.1913478009439871e-05 -0.99962440548667253 0.00061028990688694051 -4.645797620596749e-06 -8.6311602842840257e-05 -4.645797620596749e-06 -0.19975589242327896 8.433431736953878e-06 -8.6311602842840257e-05 8.433431736953878e-06 -0.99942873506393415 0.00061161153028277404 -9.8551543367838041e-06 -8.4839195505394607e-05 -9.8551543367838041e-06 -0.19975784843992606 -4.1981556861969693e-06 -8.4839195505394607e-05 -4.1981556861969693e-06 -0.99942071709703573 0.00072311197772179092 -1.2136673977643042e-06 -5.7638918041114096e-05 -1.2136673977643042e-06 -0.1997294389064892 -1.7626385735214356e-05 -5.7638918041114096e-05 -1.7626385735214356e-05 -0.99943275427445677 0.00060458538383723059 2.9680583237691528e-05 -4.5445809391558845e-05 2.9680583237691528e-05 -0.19976311805971059 -1.3419543458237371e-05 -4.5445809391558845e-05 -1.3419543458237371e-05 -0.99944644367937663 0.00054845835625816353 -1.7358821788580259e-05 -3.6222912500667725e-05 -1.7358821788580259e-05 -0.19979170152918935 6.5223365735000982e-06 -3.6222912500667725e-05 6.5223365735000982e-06 -0.99951645487338103 0.00054629048744458952 -2.871055385268416e-06 -9.2939732160290944e-05 -2.871055385268416e-06 -0.19979003730288669 4.103728334037271e-06 -9.2939732160290944e-05 4.103728334037271e-06 -0.99951185750795268 0.00051683935179136498 -1.4507084306670736e-06 -6.4730768134513283e-05 -1.4507084306670736e-06 -0.19977735082351922 -2.0275367449140713e-06 -6.4730768134513283e-05 -2.0275367449140713e-06 -0.99943357362086926 0.00043433707572515523 1.7620971845177041e-05 -3.1585718764715054e-05 1.7620971845177041e-05 -0.19981124311590936 -7.1649538793128187e-06 -3.1585718764715054e-05 -7.1649538793128187e-06 -0.99952221979160161 0.00059445786323220062 -1.3219929712153944e-05 -5.8544186111855745e-05 -1.3219929712153944e-05 -0.19976081191472272 -4.0594428727391829e-06 -5.8544186111855745e-05 -4.0594428727391829e-06 -0.9994141173706188 0.00059580620647725624 -4.9898111867404811e-06 -3.9050229669629344e-05 -4.9898111867404811e-06 -0.19976250241525406 -5.7713258261316014e-06 -3.9050229669629344e-05 -5.7713258261316014e-06 -0.99942311186099442 0.00044056505707235072 -2.2332274327704129e-06 -6.2658053890940479e-06 -2.2332274327704129e-06 -0.19981609384212407 2.6492954183499062e-06 -6.2658053890940479e-06 2.6492954183499062e-06 -0.99955845032594892 0.00038852522473753481 -4.7245126535834713e-06 -4.0487646238013264e-05 -4.7245126535834713e-06 -0.19984639446621788 -1.829171790805606e-06 -4.0487646238013264e-05 -1.829171790805606e-06 -0.99965944400040918 0.00048143742588546701 2.4850948945008095e-07 -9.5164956672277867e-05 2.4850948945008095e-07 -0.19981059647889166 -7.0780188433650082e-06 -9.5164956672277867e-05 -7.0780188433650082e-06 -0.99957066355094204 0.00039711463237557254 -4.76903086478674e-06 -5.1612527325547303e-05 -4.76903086478674e-06 -0.19983864099133708 -7.134066854617982e-06 -5.1612527325547303e-05 -7.134066854617982e-06 -0.99962800554720044 0.00041151726741239791 1.6137505815910663e-05 -7.6113496442445361e-05 1.6137505815910663e-05 -0.19982668729986441 -2.3445262842924919e-05 -7.6113496442445361e-05 -2.3445262842924919e-05 -0.99957628178170976 0.00058612097118038164 -2.0903570648743079e-06 -7.7073475108740963e-05 -2.0903570648743079e-06 -0.19976421198200012 -6.1365797077161943e-07 -7.7073475108740963e-05 -6.1365797077161943e-07 -0.99943661004150064 0.00048719362606547412 3.7652891539598756e-06 -2.3110213028809667e-05 3.7652891539598756e-06 -0.19979907952411063 -6.5444324905961082e-06 -2.3110213028809667e-05 -6.5444324905961082e-06 -0.99950979896677405 0.00052447858143445103 5.5613267848949117e-06 -6.2068000192816442e-05 5.5613267848949117e-06 -0.19977569015069196 5.8093386621216325e-06 -6.2068000192816442e-05 5.8093386621216325e-06 -0.99943382946116355 0.00048011583299512051 2.1987281180423385e-05 -3.2537274890581669e-05 2.1987281180423385e-05 -0.19979145600041048 -4.6696189881290096e-05 -3.2537274890581669e-05 -4.6696189881290096e-05 -0.99943737767618801 0.00048451702025487098 6.9575821673264248e-06 -8.0252491442722729e-05 6.9575821673264248e-06 -0.19982196347635905 5.2432516829403752e-06 -8.0252491442722729e-05 5.2432516829403752e-06 -0.99960053108667046 0.00045977327789314959 -6.602784099447051e-06 -1.4778723433694907e-05 -6.602784099447051e-06 -0.19981499386013002 5.5606752162873363e-06 -1.4778723433694907e-05 5.5606752162873363e-06 -0.99955891076060821 0.00044311695577886612 -1.4032304335024741e-05 -1.2170983361925458e-05 -1.4032304335024741e-05 -0.19981464733069526 2.0515959570088782e-06 -1.2170983361925458e-05 2.0515959570088782e-06 -0.99955862878476442 0.00053684310545235037 -5.4007888425583734e-06 -7.1909515496404453e-05 -5.4007888425583734e-06 -0.19977585853978239 2.2383149821392223e-06 -7.1909515496404453e-05 2.2383149821392223e-06 -0.99943813707452589 0.00047069477872807575 -1.5448570118789264e-05 4.195058096012616e-06 -1.5448570118789264e-05 -0.199809007940559 1.4259168169772352e-05 4.195058096012616e-06 1.4259168169772352e-05 -0.99954405077172215 0.00049213265480840818 3.2366830428488955e-05 -2.7900691479287865e-05 3.2366830428488955e-05 -0.1998071755258054 1.7306520885940202e-05 -2.7900691479287865e-05 1.7306520885940202e-05 -0.99954313985660592 0.00040892087025712689 1.6317439619977564e-05 -9.0860162543449086e-05 1.6317439619977564e-05 -0.19983266377260223 -1.7567106178617564e-05 -9.0860162543449086e-05 -1.7567106178617564e-05 -0.99959927226431478 0.00048634949269857342 -5.5448112622391022e-05 -4.0554754526911374e-05 -5.5448112622391022e-05 -0.19979924191436813 -1.6882006155904961e-05 -4.0554754526911374e-05 -1.6882006155904961e-05 -0.99955040639899628 0.00057220416734493629 -1.7612378626270042e-06 -1.5614696459387289e-05 -1.7612378626270042e-06 -0.19978327909569316 1.0512127781581171e-05 -1.5614696459387289e-05 1.0512127781581171e-05 -0.99951927202244928 0.0004127628422549226 -3.1172637825978488e-05 -9.2280338971538478e-05 -3.1172637825978488e-05 -0.1998249490834644 2.6829878630341142e-05 -9.2280338971538478e-05 2.6829878630341142e-05 -0.99959504515577946 0.00040545174000772288 -2.1992792706253536e-05 -5.9296397302954773e-05 -2.1992792706253536e-05 -0.19983574433543583 -8.6524605170668067e-06 -5.9296397302954773e-05 -8.6524605170668067e-06 -0.99961940316951869 0.00070527096247541277 5.5599336875825442e-06 -0.00010501274908636393 5.5599336875825442e-06 -0.19973268835197244 4.4603045181723644e-06 -0.00010501274908636393 4.4603045181723644e-06 -0.9994025794279886 0.00070718705482075706 1.7390730534983578e-05 -0.00010004581564171389 1.7390730534983578e-05 -0.19973358369570349 4.7794679458590394e-06 -0.00010004581564171389 4.7794679458590394e-06 -0.99940181043180321 0.00070083517870367373 -2.0532955245579678e-05 -8.9090078417175533e-05 -2.0532955245579678e-05 -0.19973856212462382 1.3916646672829103e-06 -8.9090078417175533e-05 1.3916646672829103e-06 -0.99939768795712736 0.00058077885616036884 -1.7082510262134976e-06 -6.6830223080238671e-05 -1.7082510262134976e-06 -0.1997648681427554 -5.9147925517422095e-06 -6.6830223080238671e-05 -5.9147925517422095e-06 -0.99943250731765731 0.00090526568542778629 1.3394222272381597e-07 -1.2639611698617159e-05 1.3394222272381597e-07 -0.19966647114888661 1.2269643159257271e-06 -1.2639611698617159e-05 1.2269643159257271e-06 -0.99925824437171118 0.0008476524838129107 -2.2596153826176175e-06 -5.569497501856091e-05 -2.2596153826176175e-06 -0.1996940760305338 2.1176525172861282e-06 -5.569497501856091e-05 2.1176525172861282e-06 -0.99936674814319781 0.00076583933920087999 -4.4329807949462293e-05 -3.4262699218912118e-05 -4.4329807949462293e-05 -0.19970168525408372 2.5432819712456478e-05 -3.4262699218912118e-05 2.5432819712456478e-05 -0.99932548420166167 0.00078626644255330724 -3.7085802700828819e-06 -1.0966166055448312e-05 -3.7085802700828819e-06 -0.19968574910997661 3.2958063924670711e-06 -1.0966166055448312e-05 3.2958063924670711e-06 -0.99926354988623078 0.00068301044475704842 2.6991735741922477e-06 -6.2442669326312483e-06 2.6991735741922477e-06 -0.19972918561113279 1.4762959987812962e-06 -6.2442669326312483e-06 1.4762959987812962e-06 -0.99936371871722796 0.00077156140417281027 2.6770005786868512e-05 -2.4326457073176044e-05 2.6770005786868512e-05 -0.19969103500961033 1.5521984004562839e-05 -2.4326457073176044e-05 1.5521984004562839e-05 -0.99927877667659959 0.00084102117711626345 -7.7683197578674221e-06 -4.8871058230925968e-05 -7.7683197578674221e-06 -0.19970818564669635 1.5432998028086509e-05 -4.8871058230925968e-05 1.5432998028086509e-05 -0.99936829600249544 0.00086305918996654185 -6.9558478188731783e-06 -7.9196261455471983e-05 -6.9558478188731783e-06 -0.19967762426855107 -7.5674253998680996e-06 -7.9196261455471983e-05 -7.5674253998680996e-06 -0.99926831699211682 0.00078461465193185864 3.5022986610171576e-05 -5.3379941576725543e-05 3.5022986610171576e-05 -0.19970291453530536 -2.7642594512489183e-05 -5.3379941576725543e-05 -2.7642594512489183e-05 -0.99930352055426241 0.00091007581048024866 2.5233233618053559e-06 -1.6867420898236674e-05 2.5233233618053559e-06 -0.19966525468766289 -3.7263547400800956e-06 -1.6867420898236674e-05 -3.7263547400800956e-06 -0.99925991237113521 0.00068115883051067527 -1.1680209341465566e-06 -3.7482342965605708e-05 -1.1680209341465566e-06 -0.19971605318223573 -2.0331254517724773e-06 -3.7482342965605708e-05 -2.0331254517724773e-06 -0.99928142632793637 0.00070664138352850847 -5.3279032973371249e-06 -5.4269001354967372e-05 -5.3279032973371249e-06 -0.19973334576190993 2.234945065460181e-06 -5.4269001354967372e-05 2.234945065460181e-06 -0.99939537121686972 0.00069773295941355506 -9.7775399886716698e-06 -3.3294866628286179e-05 -9.7775399886716698e-06 -0.19970981208257016 -2.6797674868017651e-06 -3.3294866628286179e-05 -2.6797674868017651e-06 -0.99927657688816707 0.00068959322839534654 1.0595098313146619e-05 -4.5917394059735717e-05 1.0595098313146619e-05 -0.19970789236558256 -3.3020689989005092e-06 -4.5917394059735717e-05 -3.3020689989005092e-06 -0.99927935654183075 0.00074161599331711014 1.0798771510596792e-05 -6.0247533455015656e-05 1.0798771510596792e-05 -0.19971842077056268 -2.9701971755446976e-06 -6.0247533455015656e-05 -2.9701971755446976e-06 -0.99938401648546105 0.00072341995430069694 6.058891167495557e-06 -4.1904390445934858e-05 6.058891167495557e-06 -0.19972592953574708 5.7280437522067018e-06 -4.1904390445934858e-05 5.7280437522067018e-06 -0.99938392659821251 0.00069567913029000561 2.9600992336103447e-06 -4.20931781223155e-05 2.9600992336103447e-06 -0.19972642832619314 -9.2578353882988296e-06 -4.20931781223155e-05 -9.2578353882988296e-06 -0.99935044557311503 0.00071914189483424096 1.4192444816356125e-06 -6.1265419455391879e-05 1.4192444816356125e-06 -0.19971056179208047 -3.372220928388181e-06 -6.1265419455391879e-05 -3.372220928388181e-06 -0.99929385850535368 0.00073598996233181779 -4.7552851897539936e-06 -3.7970763568262456e-05 -4.7552851897539936e-06 -0.19972606043563068 -2.1826268670199767e-07 -3.7970763568262456e-05 -2.1826268670199767e-07 -0.99937975302991688 0.00083442428628366372 7.726361361423537e-06 -4.2534866414811745e-05 7.726361361423537e-06 -0.19968167275233228 -3.2893890270224713e-06 -4.2534866414811745e-05 -3.2893890270224713e-06 -0.99926258454805739 0.00069833474298963694 2.0136502539019475e-06 -2.8489301431067204e-05 2.0136502539019475e-06 -0.19970968534268163 -3.4942688337258332e-07 -2.8489301431067204e-05 -3.4942688337258332e-07 -0.99927407307894756 0.00075548458306951005 -5.8338441595791949e-06 -5.4188912589570037e-05 -5.8338441595791949e-06 -0.19971158513538678 5.2275974076199105e-06 -5.4188912589570037e-05 5.2275974076199105e-06 -0.99932667961464716 0.00069451278100459909 8.9636199234786215e-06 -4.0493199455982065e-05 8.9636199234786215e-06 -0.19971943617813573 7.0950304371653061e-06 -4.0493199455982065e-05 7.0950304371653061e-06 -0.99932270691790814 0.00078830582373268232 -1.4709119681460882e-06 -4.8638221074592813e-05 -1.4709119681460882e-06 -0.19968737601250042 -9.2254264957847276e-07 -4.8638221074592813e-05 -9.2254264957847276e-07 -0.99924738774804167 0.00063251852807977293 -7.0723021968520431e-06 -5.0755748839170778e-05 -7.0723021968520431e-06 -0.1997348451744162 3.3473450811172256e-07 -5.0755748839170778e-05 3.3473450811172256e-07 -0.99933873447467381 0.00066936891126556652 -5.0905459092991739e-06 -2.4318475144280427e-05 -5.0905459092991739e-06 -0.19973611880237541 -3.0046729453392373e-06 -2.4318475144280427e-05 -3.0046729453392373e-06 -0.99938030802492506 0.00075164201175648149 -3.3618789751728434e-06 -6.6976575292310159e-05 -3.3618789751728434e-06 -0.19972230439714023 -5.8002357137265648e-06 -6.6976575292310159e-05 -5.8002357137265648e-06 -0.99937754467357776 0.00082220208629735225 7.9038274138347898e-06 -8.783237339438088e-06 7.9038274138347898e-06 -0.19967991897079362 9.9816892408233215e-06 -8.783237339438088e-06 9.9816892408233215e-06 -0.99926287438315464 0.00077599919310289422 1.1586021800603293e-05 -8.656562547171287e-05 1.1586021800603293e-05 -0.19970784713682344 5.4776092321962011e-06 -8.656562547171287e-05 5.4776092321962011e-06 -0.9993611231732018 0.00073334908961053547 -1.6640474624607821e-05 -1.2172321760026139e-05 -1.6640474624607821e-05 -0.19972802451966853 -7.0301985586329607e-06 -1.2172321760026139e-05 -7.0301985586329607e-06 -0.99939571454907439 0.00083140162310568755 -0.00011134561396716042 1.5341871433038889e-05 -0.00011134561396716042 -0.19969914419208123 -4.4420487512297768e-05 1.5341871433038889e-05 -4.4420487512297768e-05 -0.99923941695347551 0.00074777683741045209 -1.4782251964119774e-06 6.7793887015277221e-07 -1.4782251964119774e-06 -0.19970357531267047 2.115776120659163e-05 6.7793887015277221e-07 2.115776120659163e-05 -0.99932882382637223 0.00085876772766313447 2.3175314255576715e-05 -4.382620578313734e-05 2.3175314255576715e-05 -0.19967099769421248 4.4665605001270592e-06 -4.382620578313734e-05 4.4665605001270592e-06 -0.99927019111400073 0.00083832302249653434 1.6399812287575686e-05 -4.7693416420885315e-05 1.6399812287575686e-05 -0.19970015667696461 -2.9340078573580897e-05 -4.7693416420885315e-05 -2.9340078573580897e-05 -0.99935262138515002 0.00084312184388513067 -4.0610153676797585e-06 -4.4314672167145019e-05 -4.0610153676797585e-06 -0.19969453120835512 -1.359268062772756e-05 -4.4314672167145019e-05 -1.359268062772756e-05 -0.99936062596789643 0.0009485534389310768 8.3357865865100148e-06 -3.9729654268017001e-05 8.3357865865100148e-06 -0.19965718169356728 -7.3670984144236229e-06 -3.9729654268017001e-05 -7.3670984144236229e-06 -0.99927454504503554 0.00087394888065106535 -1.3856900936690795e-06 -6.8179761725239985e-05 -1.3856900936690795e-06 -0.19965694805123424 -1.7655442314801206e-06 -6.8179761725239985e-05 -1.7655442314801206e-06 -0.99920306031141148 0.00089498491988837525 -8.5256068334297064e-06 -1.3967478320775495e-05 -8.5256068334297064e-06 -0.19966491178199941 3.6001387957451669e-06 -1.3967478320775495e-05 3.6001387957451669e-06 -0.9992605915391084 0.0009097784598826042 -3.8687622614412799e-06 -5.2724219248290183e-06 -3.8687622614412799e-06 -0.19965148174532521 2.1480889813130233e-05 -5.2724219248290183e-06 2.1480889813130233e-05 -0.99921299937040509 0.0010262655654567077 2.1136734859835525e-05 -3.8462888166002074e-05 2.1136734859835525e-05 -0.19961931056386617 1.0900541136948938e-05 -3.8462888166002074e-05 1.0900541136948938e-05 -0.99916764007389824 0.0010021637098531766 -2.1916034717327461e-06 -5.7679378495878453e-05 -2.1916034717327461e-06 -0.19963845471290687 2.4158805178586817e-07 -5.7679378495878453e-05 2.4158805178586817e-07 -0.99920482293313828 0.0010067573386363105 2.8465915129861167e-06 -5.9435718098022061e-05 2.8465915129861167e-06 -0.19963092477411482 -1.1649226354659703e-06 -5.9435718098022061e-05 -1.1649226354659703e-06 -0.9992019763683766 0.00092333463128646542 -7.751995434231632e-07 -4.0867352020024228e-05 -7.751995434231632e-07 -0.19963913289700197 2.719118828688194e-06 -4.0867352020024228e-05 2.719118828688194e-06 -0.99918150085351876 0.00090868258733911578 -1.5040908982735219e-05 -3.608312239311573e-05 -1.5040908982735219e-05 -0.19964858706735011 5.3274815055015523e-06 -3.608312239311573e-05 5.3274815055015523e-06 -0.99918773630733604 0.0010868863546438234 -9.4028020160337438e-07 1.7470500635274888e-05 -9.4028020160337438e-07 -0.19961136173289873 5.6008277069530266e-06 1.7470500635274888e-05 5.6008277069530266e-06 -0.9991531175826438 0.00094417097328980404 -3.978445962086258e-06 1.3068437130225874e-05 -3.978445962086258e-06 -0.19964209143279654 9.5507408841566388e-06 1.3068437130225874e-05 9.5507408841566388e-06 -0.9991899559018087 0.00092436988495381289 -1.1687428015261816e-07 -4.0532475280130598e-05 -1.1687428015261816e-07 -0.19963818705910941 6.0273369917318576e-06 -4.0532475280130598e-05 6.0273369917318576e-06 -0.99917732549169314 0.0010179603638507118 7.2660123825087457e-05 -1.7294886776486607e-05 7.2660123825087457e-05 -0.19961959731866297 -1.898470979977418e-06 -1.7294886776486607e-05 -1.898470979977418e-06 -0.99916140826358069 0.0010914419716323565 -7.8441489516768287e-07 -4.6888250408549936e-05 -7.8441489516768287e-07 -0.19959995157749244 5.4847321295792284e-06 -4.6888250408549936e-05 5.4847321295792284e-06 -0.99913628690988254 0.0010125983561605212 -2.9477490042603355e-05 -1.3584332758442841e-05 -2.9477490042603355e-05 -0.19962364448243874 1.1213294517364858e-05 -1.3584332758442841e-05 1.1213294517364858e-05 -0.99916920149983346 0.0010961554212716162 7.8112532044792819e-06 2.4613782334537149e-06 7.8112532044792819e-06 -0.19960951221768863 -7.4533946712307397e-06 2.4613782334537149e-06 -7.4533946712307397e-06 -0.99919755529959442 0.00094786759228626671 -1.493763462178725e-06 -2.6415198979057308e-05 -1.493763462178725e-06 -0.19963177959345346 -4.253665692122155e-06 -2.6415198979057308e-05 -4.253665692122155e-06 -0.99914703089013024 0.00093863636504734616 -6.3239105067194288e-07 -1.1505626509755729e-05 -6.3239105067194288e-07 -0.19963975243312379 6.6334010699886647e-06 -1.1505626509755729e-05 6.6334010699886647e-06 -0.99917627078947946 0.00086732730696770233 -9.1181308405943326e-07 -2.1851962207941611e-05 -9.1181308405943326e-07 -0.19965797277385566 -9.4758271838024655e-06 -2.1851962207941611e-05 -9.4758271838024655e-06 -0.99918698132659944 0.00091448191301957138 9.2436646214396207e-06 4.2684931167435991e-06 9.2436646214396207e-06 -0.1996467769548016 -9.8184483787733257e-06 4.2684931167435991e-06 -9.8184483787733257e-06 -0.9991793724028577 0.00086765587986437076 -6.1586891302055293e-07 -2.1381734556902288e-05 -6.1586891302055293e-07 -0.19965809728509532 -9.3710812993919035e-06 -2.1381734556902288e-05 -9.3710812993919035e-06 -0.99918526176108147 0.00088401245198221901 4.7501083307020406e-05 4.134634490560174e-06 4.7501083307020406e-05 -0.19968411053230217 6.0471324740518639e-05 4.134634490560174e-06 6.0471324740518639e-05 -0.99921303817272777 0.00086758715028703581 -3.8817383778973435e-07 -2.1446699177474216e-05 -3.8817383778973435e-07 -0.19965857185484734 -9.6803761224784068e-06 -2.1446699177474216e-05 -9.6803761224784068e-06 -0.99918507820301039 0.00080845647606109239 -2.4155194624758797e-06 -3.3827183414825157e-05 -2.4155194624758797e-06 -0.19968321625509367 -5.8762292960423679e-06 -3.3827183414825157e-05 -5.8762292960423679e-06 -0.99922723502340638 0.00076910331307333824 -7.5025408460170693e-07 -5.1426036614454773e-05 -7.5025408460170693e-07 -0.19968584989353497 -4.2375662629989819e-06 -5.1426036614454773e-05 -4.2375662629989819e-06 -0.99924847232368019 0.00086750250650879934 -1.7125132482196497e-06 -6.0326412955058473e-06 -1.7125132482196497e-06 -0.19966212232537339 2.2383441743434318e-06 -6.0326412955058473e-06 2.2383441743434318e-06 -0.99921236359529697 0.00081680772255765532 7.7943115749523165e-06 -3.2105711034069451e-05 7.7943115749523165e-06 -0.19967995801111238 -9.7044894467046561e-06 -3.2105711034069451e-05 -9.7044894467046561e-06 -0.99926410306268165 0.00078252558671598749 3.2461418585704375e-06 -5.1775782554885907e-05 3.2461418585704375e-06 -0.19968561991162015 -5.4132315515653673e-06 -5.1775782554885907e-05 -5.4132315515653673e-06 -0.99923470056751862 0.0007941852356274752 1.8805960903721997e-06 -6.3763772130132068e-06 1.8805960903721997e-06 -0.1996824250349617 4.6295525567563445e-06 -6.3763772130132068e-06 4.6295525567563445e-06 -0.99922440296864279 0.00079899808612138301 -9.1950622554137123e-07 -1.6870388152678828e-05 -9.1950622554137123e-07 -0.19968115704887546 -4.2254457264245815e-06 -1.6870388152678828e-05 -4.2254457264245815e-06 -0.99922177494807896 0.00083044695507128452 -1.2204939082829474e-05 3.0887179706118317e-06 -1.2204939082829474e-05 -0.19967313528404063 -4.3370263076436544e-06 3.0887179706118317e-06 -4.3370263076436544e-06 -0.99921390433107948 0.0008081265112317923 1.8035327106861382e-05 -2.4278244336928267e-05 1.8035327106861382e-05 -0.1996721374057378 -5.0344838967708583e-06 -2.4278244336928267e-05 -5.0344838967708583e-06 -0.99919813745509178 0.00079348357663433511 -6.1296228338049141e-07 -2.5718827876164418e-05 -6.1296228338049141e-07 -0.19967361593311317 -1.0046519696160772e-06 -2.5718827876164418e-05 -1.0046519696160772e-06 -0.99920004078025704 0.00081571300309757344 -1.1369824148566484e-05 -2.9073068756407805e-05 -1.1369824148566484e-05 -0.19968231437920336 1.729949268647335e-05 -2.9073068756407805e-05 1.729949268647335e-05 -0.99925215050809024 0.00081439386696668947 -4.3586458143157457e-05 9.6304867801544347e-06 -4.3586458143157457e-05 -0.19965292686807334 -1.4276146256708699e-05 9.6304867801544347e-06 -1.4276146256708699e-05 -0.999166518497006 0.00092251522604791525 -8.7468376914304095e-07 -4.0865121395006199e-05 -8.7468376914304095e-07 -0.19964215699363697 2.2180334007249058e-06 -4.0865121395006199e-05 2.2180334007249058e-06 -0.99918244826195179 0.00081085970339977997 -9.9426632757069773e-06 -1.6970129918220112e-05 -9.9426632757069773e-06 -0.19967755525618613 -1.56109624449563e-05 -1.6970129918220112e-05 -1.56109624449563e-05 -0.99924538930299089 0.00082116425560940787 3.6260261842867852e-05 -3.6205546065981586e-05 3.6260261842867852e-05 -0.19967153460405634 1.0304519387771549e-05 -3.6205546065981586e-05 1.0304519387771549e-05 -0.99919918508097783 0.00088798637645737255 1.220434648243262e-06 -2.8193118729813449e-05 1.220434648243262e-06 -0.1996629648586582 9.6189552833969572e-07 -2.8193118729813449e-05 9.6189552833969572e-07 -0.99923244970924108 0.00085216741205706992 -3.716571125604351e-05 -6.3049653224678259e-05 -3.716571125604351e-05 -0.19966864038742937 -1.3978123488467276e-05 -6.3049653224678259e-05 -1.3978123488467276e-05 -0.99921752895072524 0.0008052186721297927 -2.2273807935770998e-06 -2.08265534665103e-05 -2.2273807935770998e-06 -0.19968758557643496 5.6407693171944828e-07 -2.08265534665103e-05 5.6407693171944828e-07 -0.99927570343335814 0.00080682185260050332 -1.3665028410330821e-05 -6.6348422239070892e-06 -1.3665028410330821e-05 -0.19968308111670352 4.9311829941611762e-07 -6.6348422239070892e-06 4.9311829941611762e-07 -0.99924230482804655 0.00079078419500588915 -5.9641654864103137e-08 -2.7124639183973009e-05 -5.9641654864103137e-08 -0.19967411114650957 -1.661633552751951e-06 -2.7124639183973009e-05 -1.661633552751951e-06 -0.99921299640750627 0.00079196972021733369 -4.2585112231775622e-07 -2.9322249663232824e-05 -4.2585112231775622e-07 -0.19968163887476742 -4.6759226910442209e-06 -2.9322249663232824e-05 -4.6759226910442209e-06 -0.99921526939038108 0.0009000798449956271 1.8363302274704321e-06 -3.795195142197727e-05 1.8363302274704321e-06 -0.19965175463210105 6.8381814735118951e-06 -3.795195142197727e-05 6.8381814735118951e-06 -0.9991831694770541 0.00094474030212043925 -7.9544431238694207e-07 1.5483583479358742e-05 -7.9544431238694207e-07 -0.19964322378127075 2.8455808897959178e-06 1.5483583479358742e-05 2.8455808897959178e-06 -0.99917936885099623 0.00087096705083911097 -2.4036843782700615e-06 9.9085231913785543e-06 -2.4036843782700615e-06 -0.19965207577607846 -2.5953341260542828e-06 9.9085231913785543e-06 -2.5953341260542828e-06 -0.99915264738012954 0.00094802315759745515 1.7397815946764862e-06 1.58534205936256e-05 1.7397815946764862e-06 -0.199645113753668 6.795284508420707e-06 1.58534205936256e-05 6.795284508420707e-06 -0.99918494488684706 0.00090380320094740618 1.1861163420009738e-06 -4.0545543526393502e-05 1.1861163420009738e-06 -0.19964925642607168 6.0211107340002457e-06 -4.0545543526393502e-05 6.0211107340002457e-06 -0.9991671235253996 0.00090004448022418249 1.2782008655741701e-06 -4.2706752097387835e-05 1.2782008655741701e-06 -0.19965241413648738 -7.1854092342782394e-07 -4.2706752097387835e-05 -7.1854092342782394e-07 -0.99918275690761904 0.001000052912972782 2.2140930589998755e-06 -5.2412865448325796e-05 2.2140930589998755e-06 -0.19963911734300033 -5.0138773932673075e-07 -5.2412865448325796e-05 -5.0138773932673075e-07 -0.99920499317569522 0.00091049619647265434 7.9970670018081407e-06 -4.5558062955031176e-05 7.9970670018081407e-06 -0.1996519412268426 2.8967483580721876e-06 -4.5558062955031176e-05 2.8967483580721876e-06 -0.99918642330239971 0.00092235109656479963 -4.4766820096652528e-07 -4.0763174562474802e-05 -4.4766820096652528e-07 -0.19964250188114008 1.4575264231098117e-06 -4.0763174562474802e-05 1.4575264231098117e-06 -0.99918303993372515 0.00099997683181074493 9.2887103282169445e-07 -5.3412360749183208e-05 9.2887103282169445e-07 -0.19963294279540933 -6.4696180750445365e-06 -5.3412360749183208e-05 -6.4696180750445365e-06 -0.99919572489258535 0.00094669154536319855 1.7135553975810628e-07 1.5060961617185953e-05 1.7135553975810628e-07 -0.19963852307811536 -1.317779390733187e-06 1.5060961617185953e-05 -1.317779390733187e-06 -0.99917103661844298 0.0009960004659943511 8.1920811366986777e-08 -5.4834031660178084e-05 8.1920811366986777e-08 -0.19963833914627283 -1.8316343275426306e-06 -5.4834031660178084e-05 -1.8316343275426306e-06 -0.99920792669150149 0.00099804451052176724 -5.1780664698549568e-05 -6.8628830378614225e-06 -5.1780664698549568e-05 -0.19962802467581631 1.1951375935570496e-05 -6.8628830378614225e-06 1.1951375935570496e-05 -0.9991671438922638 0.0010845819485560959 2.1567329376624983e-06 -3.3244757947414882e-05 2.1567329376624983e-06 -0.19961382493719348 3.5661480159154824e-06 -3.3244757947414882e-05 3.5661480159154824e-06 -0.99917212743662631 0.0010904771704652871 1.5190552604481504e-06 -4.0097909605574245e-05 1.5190552604481504e-06 -0.1996057795490922 1.5820497218932417e-05 -4.0097909605574245e-05 1.5820497218932417e-05 -0.99915068945114438 0.0010835117153038532 3.3359419355911188e-06 -3.250719802649904e-05 3.3359419355911188e-06 -0.19961058730922221 2.2084347239825775e-08 -3.250719802649904e-05 2.2084347239825775e-08 -0.99916775255836354 0.0010800583869136071 1.2785543639018926e-06 -3.0982117555478084e-05 1.2785543639018926e-06 -0.19961269249289748 1.1092206884111278e-06 -3.0982117555478084e-05 1.1092206884111278e-06 -0.9991700202516971 0.0010777945837413538 3.0794094853641006e-06 -3.0787148339816994e-05 3.0794094853641006e-06 -0.19962126871192176 -1.4665144774106409e-06 -3.0787148339816994e-05 -1.4665144774106409e-06 -0.9991727703655946 0.0010875387748778831 -4.179212347050117e-06 -3.0002126484740543e-05 -4.179212347050117e-06 -0.19961485435873993 9.9446111212486699e-07 -3.0002126484740543e-05 9.9446111212486699e-07 -0.99917288443273389 0.00091281911194862619 1.6891281097990738e-05 1.7358347645379801e-05 1.6891281097990738e-05 -0.19964425111127237 -5.3370226519300346e-06 1.7358347645379801e-05 -5.3370226519300346e-06 -0.99918097711943243 0.00091069719311884928 6.0317233515968083e-06 1.7143440714725844e-05 6.0317233515968083e-06 -0.19964970149013947 4.6511962381590166e-06 1.7143440714725844e-05 4.6511962381590166e-06 -0.99918112758932043 0.00090439443674816822 1.2306772137203742e-06 -4.0278910002911061e-05 1.2306772137203742e-06 -0.19965318335608129 -5.9544007506295848e-06 -4.0278910002911061e-05 -5.9544007506295848e-06 -0.99916024125919289 0.00094282415488378124 -8.190760729820911e-06 1.4840956964690122e-05 -8.190760729820911e-06 -0.19964906916631131 -2.3601411134333006e-06 1.4840956964690122e-05 -2.3601411134333006e-06 -0.9991739654959324 0.0010977412885357918 1.2808036880520755e-06 -3.5433892707770198e-05 1.2808036880520755e-06 -0.19961442722523803 -3.2153123834532948e-06 -3.5433892707770198e-05 -3.2153123834532948e-06 -0.99916588798429196 0.00099571751187488289 -7.4647123631966344e-06 -5.9532629837599771e-05 -7.4647123631966344e-06 -0.19963859101996584 3.7785921351840557e-06 -5.9532629837599771e-05 3.7785921351840557e-06 -0.99920042962538069 0.00093278209124447731 -5.2961916451014909e-06 9.1065187737271458e-06 -5.2961916451014909e-06 -0.19964672453812959 3.0267071705891713e-06 9.1065187737271458e-06 3.0267071705891713e-06 -0.99917784551587996 0.0009788605569432951 -3.5729615377844144e-06 -3.7056167627058656e-05 -3.5729615377844144e-06 -0.19965434370056012 -1.9071023464878323e-06 -3.7056167627058656e-05 -1.9071023464878323e-06 -0.99924667781666576 0.0010036346049789868 -2.030211221446823e-06 -5.9726535433402006e-05 -2.030211221446823e-06 -0.19962903552673805 3.164749372654152e-06 -5.9726535433402006e-05 3.164749372654152e-06 -0.9991972922106962 0.0006724002978273913 -3.222057827587544e-06 -7.3477842621461065e-06 -3.222057827587544e-06 -0.19972937206906094 9.572964021486996e-07 -7.3477842621461065e-06 9.572964021486996e-07 -0.99936784214574459 0.00078346175343441127 -2.5617770962114044e-05 -2.0746587261699645e-05 -2.5617770962114044e-05 -0.19969348771455525 -1.4853655182722747e-05 -2.0746587261699645e-05 -1.4853655182722747e-05 -0.99928663846497767 0.00085163826254663899 3.9824434290526305e-06 -8.0072185173918342e-05 3.9824434290526305e-06 -0.1996861717596029 7.6359233802669735e-07 -8.0072185173918342e-05 7.6359233802669735e-07 -0.99927516627416191 0.00075094600221647934 4.1090670563402455e-05 -3.7009566489221157e-05 4.1090670563402455e-05 -0.19970339328052394 -2.730027675101887e-05 -3.7009566489221157e-05 -2.730027675101887e-05 -0.99932817542854679 0.00079178852162678504 -2.7357567774792804e-05 -5.7674877399715996e-05 -2.7357567774792804e-05 -0.19970268842594327 1.9980117643925155e-05 -5.7674877399715996e-05 1.9980117643925155e-05 -0.99930434944142366 0.00095597752763279531 1.1670370657910282e-05 -3.3980648371789712e-05 1.1670370657910282e-05 -0.19965428878644506 -1.3996005150618274e-05 -3.3980648371789712e-05 -1.3996005150618274e-05 -0.99924456267515305 0.00083176086402236837 7.7968961830831821e-06 -4.5521463749365054e-05 7.7968961830831821e-06 -0.19971095712356368 -1.4964573603837295e-05 -4.5521463749365054e-05 -1.4964573603837295e-05 -0.99937995192312057 0.00074815016871240814 -1.2641395089354441e-05 -5.7632490126913183e-05 -1.2641395089354441e-05 -0.1997202453417132 -3.279909250863966e-07 -5.7632490126913183e-05 -3.279909250863966e-07 -0.99938380945057814 0.00069989916517371187 6.9535866016285067e-06 -3.1518851830059091e-05 6.9535866016285067e-06 -0.19970751500422002 2.8842651788041351e-06 -3.1518851830059091e-05 2.8842651788041351e-06 -0.99927037861886858 0.0007191902794750904 -5.5265717724559352e-06 -4.7329614227709094e-05 -5.5265717724559352e-06 -0.19972438337623977 -4.450923474674795e-06 -4.7329614227709094e-05 -4.450923474674795e-06 -0.99938476940814169 0.00068270332160058622 -5.9558670982266235e-07 -3.5427508956992204e-05 -5.9558670982266235e-07 -0.1997120070097218 3.6551407309737272e-06 -3.5427508956992204e-05 3.6551407309737272e-06 -0.99927335216129887 0.00070202215482541297 2.7593620438942858e-06 -5.8291670564369902e-05 2.7593620438942858e-06 -0.19973225389475957 -1.4608827044737538e-06 -5.8291670564369902e-05 -1.4608827044737538e-06 -0.99939507145853534 0.0006840122950317884 -1.4194133600211369e-05 -4.7490225894827875e-05 -1.4194133600211369e-05 -0.19971248338087844 5.0237277560150062e-07 -4.7490225894827875e-05 5.0237277560150062e-07 -0.99928068383975699 0.00080436281524215447 5.0809277575251093e-06 -6.6372358281663324e-06 5.0809277575251093e-06 -0.19968112184923892 1.6533065117507739e-05 -6.6372358281663324e-06 1.6533065117507739e-05 -0.9992400188316779 0.00079586120665268295 -2.9942971153602491e-06 -2.6156205617411388e-05 -2.9942971153602491e-06 -0.19967919726014979 5.1809151779824703e-07 -2.6156205617411388e-05 5.1809151779824703e-07 -0.99922585171099632 0.00079821833435222977 1.9674430101858881e-05 2.3248437158729374e-06 1.9674430101858881e-05 -0.19968862661504172 -4.6226534187177037e-06 2.3248437158729374e-06 -4.6226534187177037e-06 -0.99928808051933693 0.00082643354105693678 1.12703560895655e-05 -2.1342786226785648e-05 1.12703560895655e-05 -0.19967021158626863 7.3443000493944588e-06 -2.1342786226785648e-05 7.3443000493944588e-06 -0.9992140266910936 0.00081116164527739176 -7.0292474823273031e-07 -1.7878967444345806e-05 -7.0292474823273031e-07 -0.19968635370505416 -2.0263420061894521e-06 -1.7878967444345806e-05 -2.0263420061894521e-06 -0.99927686890946754 0.0008877304978114342 1.2321392387777879e-06 -2.7780046498282474e-05 1.2321392387777879e-06 -0.19966327617820601 -8.1062538170861842e-07 -2.7780046498282474e-05 -8.1062538170861842e-07 -0.9992334038759374 0.00082121695669945538 8.0979745653661149e-06 -2.5130956028851514e-05 8.0979745653661149e-06 -0.19967657641768255 -1.7049319819995024e-05 -2.5130956028851514e-05 -1.7049319819995024e-05 -0.99925333641497582 0.00084795204950418278 2.4301872946750946e-05 -4.6326042343822205e-05 2.4301872946750946e-05 -0.19966271175186145 3.1108555409442573e-06 -4.6326042343822205e-05 3.1108555409442573e-06 -0.99918367791401508 0.00084869948746524315 -6.1047731714947835e-07 -4.6724555138544233e-05 -6.1047731714947835e-07 -0.19965419449478505 -1.5257116948719229e-06 -4.6724555138544233e-05 -1.5257116948719229e-06 -0.99918195844948876 0.00078981465165095521 -7.9539479648974123e-07 -3.1916666790476889e-05 -7.9539479648974123e-07 -0.19967953512091707 6.9822576980183015e-06 -3.1916666790476889e-05 6.9822576980183015e-06 -0.99922817161869837 0.0009027578525437896 -7.0463766811889828e-08 -3.7650811611777968e-05 -7.0463766811889828e-08 -0.19965091071667507 -7.6912393041084215e-06 -3.7650811611777968e-05 -7.6912393041084215e-06 -0.99917066461673754 0.00079972394382576972 2.348627417476742e-07 -2.6425668507523703e-05 2.348627417476742e-07 -0.19967494048356316 2.1369617064781465e-07 -2.6425668507523703e-05 2.1369617064781465e-07 -0.999224193060396 0.00084625561506035396 -2.9337689024285519e-06 -1.4145043621627273e-05 -2.9337689024285519e-06 -0.19966999827723253 -9.684823005229326e-06 -1.4145043621627273e-05 -9.684823005229326e-06 -0.99920979093457696 0.00083436069216713538 -2.7625913422348307e-06 -2.4362799110839994e-05 -2.7625913422348307e-06 -0.19968115062839198 -1.165588478696869e-05 -2.4362799110839994e-05 -1.165588478696869e-05 -0.99925439426183438 0.00081543618770123357 -1.6659839262454002e-05 -2.7436304165684433e-05 -1.6659839262454002e-05 -0.19967496753214325 4.7980676396441879e-06 -2.7436304165684433e-05 4.7980676396441879e-06 -0.9992017587243136 0.000805172900601509 1.7594601057379676e-07 -2.4724888373905962e-05 1.7594601057379676e-07 -0.19966914409137809 -5.1715890327930225e-06 -2.4724888373905962e-05 -5.1715890327930225e-06 -0.99920274893625582 0.00085747756934018149 1.2444529818307844e-06 -2.5863364533362798e-05 1.2444529818307844e-06 -0.19966325285734876 8.3710442944084917e-06 -2.5863364533362798e-05 8.3710442944084917e-06 -0.99918632619226422 0.00085693855877999603 2.1116477516837037e-06 -2.500189848253509e-05 2.1116477516837037e-06 -0.19966153236288642 7.5431930992575502e-06 -2.500189848253509e-05 7.5431930992575502e-06 -0.99919074315777845 0.00082916493836276972 1.106439347585295e-05 -2.9813670943124038e-06 1.106439347585295e-05 -0.19967444249603644 7.6424572337252528e-07 -2.9813670943124038e-06 7.6424572337252528e-07 -0.9992294392741139 0.0007653416487274356 2.2150614925847287e-06 -3.7351885492142856e-05 2.2150614925847287e-06 -0.19969073917511304 2.8935131134444347e-06 -3.7351885492142856e-05 2.8935131134444347e-06 -0.99923416508640361 0.00079897383722559584 -1.4327645558150489e-06 -7.3932327524506292e-06 -1.4327645558150489e-06 -0.1996841801451984 -5.0629822255787715e-06 -7.3932327524506292e-06 -5.0629822255787715e-06 -0.99923566974675326 0.00078661790359302319 2.6278932019303845e-06 -2.6753048184779971e-05 2.6278932019303845e-06 -0.19968908846548905 6.6594619498872021e-06 -2.6753048184779971e-05 6.6594619498872021e-06 -0.9992550211561908 0.00070219843823471351 -3.0616512842091483e-06 -2.6493734071597608e-05 -3.0616512842091483e-06 -0.19970973337062325 -3.160290012960143e-06 -2.6493734071597608e-05 -3.160290012960143e-06 -0.9992627367722946 0.00069254911578303657 -5.4163180924144423e-06 -3.8974374502509512e-05 -5.4163180924144423e-06 -0.19972042352027991 4.9557635139751977e-06 -3.8974374502509512e-05 4.9557635139751977e-06 -0.99931773416620229 0.00075702614996431272 3.8831711867851892e-07 -6.9367481615012494e-05 3.8831711867851892e-07 -0.19970888907412809 -3.0565684576155938e-06 -6.9367481615012494e-05 -3.0565684576155938e-06 -0.9993215129180939 0.00077872800394973574 6.1545650103481842e-06 -4.0587423147830926e-05 6.1545650103481842e-06 -0.19969144849182907 -2.405706685193465e-06 -4.0587423147830926e-05 -2.405706685193465e-06 -0.99925080837181923 0.00062488519570391698 1.5925779904532761e-05 -4.859129597297937e-05 1.5925779904532761e-05 -0.19975209748019618 2.3676216664991756e-06 -4.859129597297937e-05 2.3676216664991756e-06 -0.9994074285692407 0.0007714506634246554 3.6596356198217899e-06 -5.9686509399359267e-05 3.6596356198217899e-06 -0.19970006936885265 4.3933665375694986e-06 -5.9686509399359267e-05 4.3933665375694986e-06 -0.99929603868265193 0.00072429532589568524 -1.13197613676631e-06 -4.4837457628288391e-05 -1.13197613676631e-06 -0.19972696828587311 -7.6679717991856577e-08 -4.4837457628288391e-05 -7.6679717991856577e-08 -0.99938313820324298 0.00062369495398384434 3.4117445473664169e-06 -7.0009185226378723e-05 3.4117445473664169e-06 -0.19975345961003921 6.3611111389416664e-07 -7.0009185226378723e-05 6.3611111389416664e-07 -0.99941807207919542 0.00066329593199798698 1.1385215852252109e-06 -2.005534464499803e-05 1.1385215852252109e-06 -0.19973085708234306 -5.0370444778513601e-06 -2.005534464499803e-05 -5.0370444778513601e-06 -0.9993464031769328 0.00062477538719774017 7.7571343965734469e-06 -3.1881019613599904e-05 7.7571343965734469e-06 -0.19975353389144912 3.3569014030732092e-06 -3.1881019613599904e-05 3.3569014030732092e-06 -0.99940182299573355 0.00096760374072718536 1.3700575229811918e-05 -2.3421965608422246e-05 1.3700575229811918e-05 -0.19964999576377324 2.1809343904166667e-06 -2.3421965608422246e-05 2.1809343904166667e-06 -0.99924524448102692 0.00073909047040746426 1.6074688667761254e-05 -3.7661272772382404e-05 1.6074688667761254e-05 -0.1997065440358505 3.1869318507932176e-06 -3.7661272772382404e-05 3.1869318507932176e-06 -0.99930112412515493 0.00076311734281864219 9.7186290175871803e-06 -3.8129593803063605e-05 9.7186290175871803e-06 -0.1997065547005763 1.0512084534841648e-05 -3.8129593803063605e-05 1.0512084534841648e-05 -0.99931089098753745 0.00075422210935227607 8.8934011795388599e-07 -8.0040701081918186e-05 8.8934011795388599e-07 -0.1997151011768129 6.1788507021987016e-06 -8.0040701081918186e-05 6.1788507021987016e-06 -0.99933930472993504 0.00083399221497182374 -1.2075281017230508e-05 -2.599360154231789e-05 -1.2075281017230508e-05 -0.19968870349524159 -1.7995263338899115e-05 -2.599360154231789e-05 -1.7995263338899115e-05 -0.99934229193317314 0.00077065249649710399 -2.5949355546311832e-05 1.4364617453299644e-06 -2.5949355546311832e-05 -0.19969231753295624 1.6394613133741132e-06 1.4364617453299644e-06 1.6394613133741132e-06 -0.99929456079503387 0.0008301253908012951 1.5482043673745899e-05 -5.0550872395360713e-05 1.5482043673745899e-05 -0.19970826299726985 3.0950404412699584e-06 -5.0550872395360713e-05 3.0950404412699584e-06 -0.99938612786772163 0.00082914372639042444 1.1677405053581778e-07 -5.2696989502276637e-05 1.1677405053581778e-07 -0.19970002381946506 1.9417059155091287e-05 -5.2696989502276637e-05 1.9417059155091287e-05 -0.99937466045604761 0.00095236902788109479 3.615965321107472e-06 -3.6940207893465526e-05 3.615965321107472e-06 -0.19964853241134439 3.0271904836176589e-06 -3.6940207893465526e-05 3.0271904836176589e-06 -0.99925198289760031 0.00084968945487620684 -1.2107438487159609e-07 -4.5808847492279092e-05 -1.2107438487159609e-07 -0.19965515319990887 -1.9996846023495607e-06 -4.5808847492279092e-05 -1.9996846023495607e-06 -0.99917606975856976 0.00097970378335254793 -3.2890023938976761e-06 -3.1480411541107145e-05 -3.2890023938976761e-06 -0.19964754818832242 6.7958790048727735e-06 -3.1480411541107145e-05 6.7958790048727735e-06 -0.99923766025843364 0.00090945458953617386 -1.4012809632955358e-05 -1.8487937403222077e-06 -1.4012809632955358e-05 -0.19964856251298035 -5.0194519748414379e-06 -1.8487937403222077e-06 -5.0194519748414379e-06 -0.9991909334758593 0.00089430351732594504 3.5354521981276317e-06 -2.0831421076797363e-05 3.5354521981276317e-06 -0.19966133657865365 7.4198440680461886e-06 -2.0831421076797363e-05 7.4198440680461886e-06 -0.99922305283441815 0.00098705251921515913 -6.1282839871184159e-07 -5.0876764010610032e-06 -6.1282839871184159e-07 -0.19963440065729887 -1.2300118176433728e-05 -5.0876764010610032e-06 -1.2300118176433728e-05 -0.99920465691044402 0.00088053176728425386 -1.17613757400084e-05 -5.5096182586034104e-05 -1.17613757400084e-05 -0.19966428999044011 7.8479656857588509e-06 -5.5096182586034104e-05 7.8479656857588509e-06 -0.99922818032552385 0.00094362940839803899 1.8501908602773982e-07 2.0634123494289724e-05 1.8501908602773982e-07 -0.19964261900228325 -2.1355680189516502e-06 2.0634123494289724e-05 -2.1355680189516502e-06 -0.99917618463073343 0.00094223714440028195 8.4893913484966099e-07 2.1598933469202386e-05 8.4893913484966099e-07 -0.19964506930743037 -4.7272702227152408e-06 2.1598933469202386e-05 -4.7272702227152408e-06 -0.99917891194923136 0.0008807365123296787 -2.4559628055143936e-05 -4.9033796983288802e-05 -2.4559628055143936e-05 -0.19965509099474021 -8.3594157718192008e-07 -4.9033796983288802e-05 -8.3594157718192008e-07 -0.99916950518485281 0.0010971636775322091 -1.3551080676868633e-06 -3.0320007043949104e-05 -1.3551080676868633e-06 -0.19960615380121427 -9.0824631517882892e-06 -3.0320007043949104e-05 -9.0824631517882892e-06 -0.99917706159004949 0.0011116419742458472 -1.0744170649994851e-05 -2.8983639160928831e-05 -1.0744170649994851e-05 -0.19960917223051111 -3.8443564105428152e-06 -2.8983639160928831e-05 -3.8443564105428152e-06 -0.99917862052272799 0.00091073829788290706 2.4116591294145931e-05 5.1528606817008438e-06 2.4116591294145931e-05 -0.19965098865009301 5.9983585000145112e-06 5.1528606817008438e-06 5.9983585000145112e-06 -0.99918507509320875 0.0009510590520565021 1.8145824909117409e-06 -3.2816014360226298e-05 1.8145824909117409e-06 -0.19963572158828269 1.2900949990402033e-05 -3.2816014360226298e-05 1.2900949990402033e-05 -0.99914836655576078 0.0011254615576599125 7.3112137496560348e-07 -3.5979659345652948e-05 7.3112137496560348e-07 -0.19959945820403657 -1.2868871771543056e-05 -3.5979659345652948e-05 -1.2868871771543056e-05 -0.99916659503234939 0.00095171953621409067 2.3892118421541417e-06 -3.2968018288226375e-05 2.3892118421541417e-06 -0.19963391111566131 1.1178032607084276e-05 -3.2968018288226375e-05 1.1178032607084276e-05 -0.99914687241831057 0.0010910660786616067 1.3789988118063903e-05 8.0559443893513105e-07 1.3789988118063903e-05 -0.19960655078862088 4.6733824921041389e-06 8.0559443893513105e-07 4.6733824921041389e-06 -0.99917121795905572 0.0010370364728250481 3.7902873290243807e-05 -1.1675013551482039e-05 3.7902873290243807e-05 -0.19961990433361609 -3.1840399390414831e-06 -1.1675013551482039e-05 -3.1840399390414831e-06 -0.99916130694968652 
</DataArray>
</CellData>
</Piece>
</UnstructuredGrid>
</VTKFile>
