<?xml version="1.0"?>
<VTKFile type="UnstructuredGrid" version="0.1" byte_order="LittleEndian">
<UnstructuredGrid>
<Piece NumberOfPoints="2876" NumberOfCells="719">
<Points>
<DataArray type="Float64" NumberOfComponents="3" format="ascii">
0.31610726166346748 0.18804489794572149 0 0.16929708765618309 0.30074819035915368 0 0.14641016151452901 0.14641016151487049 0 0.312576188949791 0.31458070521983672 0.3125761889497819 0 0.20000000000083221 0 0 0 0 0.14641016151452901 0.14641016151487049 0 0 0.14641016151432179 0.14641016151432179 0 0 0 0.19999999999955789 0 0 0.14641016151452901 0.14641016151487049 0 0.1464101615145241 0 0.14641016151486561 0 0.14641016151432179 0.14641016151432179 0 0 0.20000000000083221 0 0 0 0.1464101615145241 0 0.14641016151486561 0 0.14641016151432179 0.14641016151432179 0 0.30074819035869899 0.1692970876565193 0 0.18804489794560331 0.31610726166461361 0.312576188949791 0.31458070521983672 0.3125761889497819 0.31578456131778371 0 0.1865278143482666 0.1464101615145241 0 0.14641016151486561 0.16938214347656569 0 0.30011357660650623 0.312576188949791 0.31458070521983672 0.3125761889497819 0 0.14641016151432179 0.14641016151432179 0 0 0 0.14641016151452901 0.14641016151487049 0 0.1464101615145241 0 0.14641016151486561 0.14641016151452901 0.14641016151487049 0 0.1464101615145241 0 0.14641016151486561 0.31578456131778371 0 0.1865278143482666 0.312576188949791 0.31458070521983672 0.3125761889497819 0.14641016151452901 0.14641016151487049 0 0 0.30074819035869899 0.1692970876565193 0 0.14641016151432179 0.14641016151432179 0.312576188949791 0.31458070521983672 0.3125761889497819 0.14641016151452901 0.14641016151487049 0 0 0.14641016151432179 0.14641016151432179 0.1464101615145241 0 0.14641016151486561 0.312576188949791 0.31458070521983672 0.3125761889497819 0 0.14641016151432179 0.14641016151432179 0.16938214347656569 0 0.30011357660650623 0.1464101615145241 0 0.14641016151486561 0.312576188949791 0.31458070521983672 0.3125761889497819 0.1464101615145241 0 0.14641016151486561 0 0.14641016151432179 0.14641016151432179 0 0 0.20000000000083221 0.16938214347656569 0 0.30011357660650623 0 0.18804489794560331 0.31610726166461361 0 0 0.20000000000083221 0 0.14641016151432179 0.14641016151432179 0.16938214347656569 0 0.30011357660650623 0 0.14641016151432179 0.14641016151432179 0.14641016151452901 0.14641016151487049 0 0 0.20000000000083221 0 0 0.30074819035869899 0.1692970876565193 0 0.30074819035869899 0.1692970876565193 0.14641016151452901 0.14641016151487049 0 0 0.20000000000083221 0 0.16929708765618309 0.30074819035915368 0 0.19999999999955789 0 0 0.14641016151452901 0.14641016151487049 0 0.31578456131778371 0 0.1865278143482666 0.31610726166346748 0.18804489794572149 0 0.19999999999955789 0 0 0.14641016151452901 0.14641016151487049 0 0.1464101615145241 0 0.14641016151486561 0.31578456131778371 0 0.1865278143482666 0.31578456131778371 0 0.1865278143482666 0.3999999999989749 0 0 0.19999999999955789 0 0 0.31610726166346748 0.18804489794572149 0 0.31578456131778371 0 0.1865278143482666 0.31610726166346748 0.18804489794572149 0 0.14641016151452901 0.14641016151487049 0 0.312576188949791 0.31458070521983672 0.3125761889497819 0.31610726166346748 0.18804489794572149 0 0.312576188949791 0.31458070521983672 0.3125761889497819 0.31578456131778371 0 0.1865278143482666 0.5003997205654479 0.21136633249797621 0.2258422409314382 0.31610726166346748 0.18804489794572149 0 0.49391845158624981 0 0.1323760430705655 0.50966790549376417 0.16275515618023731 0 0.5003997205654479 0.21136633249797621 0.2258422409314382 0.31610726166346748 0.18804489794572149 0 0.50966790549376417 0.16275515618023731 0 0.45812322962036273 0.31024977578535839 0 0.5003997205654479 0.21136633249797621 0.2258422409314382 0.49391845158624981 0 0.1323760430705655 0.3999999999989749 0 0 0.31610726166346748 0.18804489794572149 0 0.50966790549376417 0.16275515618023731 0 0.49391845158624981 0 0.1323760430705655 0.3999999999989749 0 0 0.31578456131778371 0 0.1865278143482666 0.31610726166346748 0.18804489794572149 0 0.31578456131778371 0 0.1865278143482666 0.47688326899416439 0 0.31741132792405607 0.49391845158624981 0 0.1323760430705655 0.5003997205654479 0.21136633249797621 0.2258422409314382 0.31610726166346748 0.18804489794572149 0 0.31578456131778371 0 0.1865278143482666 0.49391845158624981 0 0.1323760430705655 0.5003997205654479 0.21136633249797621 0.2258422409314382 0.31030302876556398 0 0.54179813558513157 0.50073570207385831 0.24848280280289631 0.52886631355986169 0.32146143392436449 0 0.38738071487621961 0.22088738526309029 0.22111069116742441 0.50004796911802929 0.32146143392436449 0 0.38738071487621961 0.312576188949791 0.31458070521983672 0.3125761889497819 0.16938214347656569 0 0.30011357660650623 0.22088738526309029 0.22111069116742441 0.50004796911802929 0.32146143392436449 0 0.38738071487621961 0.50073570207385831 0.24848280280289631 0.52886631355986169 0.312576188949791 0.31458070521983672 0.3125761889497819 0.22088738526309029 0.22111069116742441 0.50004796911802929 0.32146143392436449 0 0.38738071487621961 0.50073570207385831 0.24848280280289631 0.52886631355986169 0.47688326899416439 0 0.31741132792405607 0.5003997205654479 0.21136633249797621 0.2258422409314382 0.32146143392436449 0 0.38738071487621961 0.312576188949791 0.31458070521983672 0.3125761889497819 0.50073570207385831 0.24848280280289631 0.52886631355986169 0.5003997205654479 0.21136633249797621 0.2258422409314382 0.32146143392436449 0 0.38738071487621961 0.31578456131778371 0 0.1865278143482666 0.16938214347656569 0 0.30011357660650623 0.312576188949791 0.31458070521983672 0.3125761889497819 0.31578456131778371 0 0.1865278143482666 0.312576188949791 0.31458070521983672 0.3125761889497819 0.32146143392436449 0 0.38738071487621961 0.5003997205654479 0.21136633249797621 0.2258422409314382 0.31578456131778371 0 0.1865278143482666 0.32146143392436449 0 0.38738071487621961 0.47688326899416439 0 0.31741132792405607 0.5003997205654479 0.21136633249797621 0.2258422409314382 0.31030302876556398 0 0.54179813558513157 0.50000000000250922 0 0.48038475773043671 0.32146143392436449 0 0.38738071487621961 0.50073570207385831 0.24848280280289631 0.52886631355986169 0.32146143392436449 0 0.38738071487621961 0.50000000000250922 0 0.48038475773043671 0.47688326899416439 0 0.31741132792405607 0.50073570207385831 0.24848280280289631 0.52886631355986169 0.16370661204827031 0 0.4886650857430957 0.31030302876556398 0 0.54179813558513157 0.32146143392436449 0 0.38738071487621961 0.22088738526309029 0.22111069116742441 0.50004796911802929 0.16370661204827031 0 0.4886650857430957 0.32146143392436449 0 0.38738071487621961 0.16938214347656569 0 0.30011357660650623 0.22088738526309029 0.22111069116742441 0.50004796911802929 0.16938214347656569 0 0.30011357660650623 0 0.14641016151432179 0.14641016151432179 0 0.18804489794560331 0.31610726166461361 0.312576188949791 0.31458070521983672 0.3125761889497819 0 0.18804489794560331 0.31610726166461361 0.16370661204827031 0 0.4886650857430957 0.16938214347656569 0 0.30011357660650623 0.22088738526309029 0.22111069116742441 0.50004796911802929 0 0.18804489794560331 0.31610726166461361 0.16938214347656569 0 0.30011357660650623 0.312576188949791 0.31458070521983672 0.3125761889497819 0.22088738526309029 0.22111069116742441 0.50004796911802929 0 0 0.40000000000166441 0 0 0.60000000000138687 0.16370661204827031 0 0.4886650857430957 0 0.16275515618034081 0.50966790549591257 0 0 0.40000000000166441 0 0.18804489794560331 0.31610726166461361 0.16370661204827031 0 0.4886650857430957 0.16938214347656569 0 0.30011357660650623 0.16370661204827031 0 0.4886650857430957 0 0.18804489794560331 0.31610726166461361 0 0 0.40000000000166441 0 0.16275515618034081 0.50966790549591257 0 0.18804489794560331 0.31610726166461361 0 0 0.40000000000166441 0 0 0.20000000000083221 0.16938214347656569 0 0.30011357660650623 0 0.18804489794560331 0.31610726166461361 0 0.16275515618034081 0.50966790549591257 0.16370661204827031 0 0.4886650857430957 0.22088738526309029 0.22111069116742441 0.50004796911802929 0 0.18804489794560331 0.31610726166461361 0 0.31024977578556651 0.45812322962166352 0 0.16275515618034081 0.50966790549591257 0.22088738526309029 0.22111069116742441 0.50004796911802929 0 0.30074819035869899 0.1692970876565193 0 0.39615100178029522 0.32925244736138171 0 0.18804489794560331 0.31610726166461361 0.312576188949791 0.31458070521983672 0.3125761889497819 0 0.31024977578556651 0.45812322962166352 0.312576188949791 0.31458070521983672 0.3125761889497819 0.24769234054476261 0.52242103280823293 0.45098450226372488 0.22088738526309029 0.22111069116742441 0.50004796911802929 0 0.18804489794560331 0.31610726166461361 0 0.39615100178029522 0.32925244736138171 0 0.31024977578556651 0.45812322962166352 0.312576188949791 0.31458070521983672 0.3125761889497819 0 0.39615100178029522 0.32925244736138171 0.24769234054476261 0.52242103280823293 0.45098450226372488 0.312576188949791 0.31458070521983672 0.3125761889497819 0.22345881830598399 0.5062398304147856 0.22345881830602041 0 0.31024977578556651 0.45812322962166352 0.312576188949791 0.31458070521983672 0.3125761889497819 0 0.39615100178029522 0.32925244736138171 0.24769234054476261 0.52242103280823293 0.45098450226372488 0 0.30074819035869899 0.1692970876565193 0 0.39615100178029522 0.32925244736138171 0.312576188949791 0.31458070521983672 0.3125761889497819 0.22345881830598399 0.5062398304147856 0.22345881830602041 0 0.18804489794560331 0.31610726166461361 0.312576188949791 0.31458070521983672 0.3125761889497819 0 0.31024977578556651 0.45812322962166352 0.22088738526309029 0.22111069116742441 0.50004796911802929 0 0.31024977578556651 0.45812322962166352 0 0.39615100178029522 0.32925244736138171 0 0.50000000000237477 0.51961524226909872 0.24769234054476261 0.52242103280823293 0.45098450226372488 0.50000000000001332 0.49999999999999561 0.49999999999999561 0.50073570207385831 0.24848280280289631 0.52886631355986169 0.312576188949791 0.31458070521983672 0.3125761889497819 0.5004045312576143 0.47050700646456922 0.24963111222780321 0.24769234054476261 0.52242103280823293 0.45098450226372488 0.5004045312576143 0.47050700646456922 0.24963111222780321 0.312576188949791 0.31458070521983672 0.3125761889497819 0.22345881830598399 0.5062398304147856 0.22345881830602041 0.312576188949791 0.31458070521983672 0.3125761889497819 0.5004045312576143 0.47050700646456922 0.24963111222780321 0.50073570207385831 0.24848280280289631 0.52886631355986169 0.5003997205654479 0.21136633249797621 0.2258422409314382 0.50000000000001332 0.49999999999999561 0.49999999999999561 0.24769234054476261 0.52242103280823293 0.45098450226372488 0.312576188949791 0.31458070521983672 0.3125761889497819 0.50073570207385831 0.24848280280289631 0.52886631355986169 0.312576188949791 0.31458070521983672 0.3125761889497819 0.24769234054476261 0.52242103280823293 0.45098450226372488 0.50000000000001332 0.49999999999999561 0.49999999999999561 0.5004045312576143 0.47050700646456922 0.24963111222780321 0.312576188949791 0.31458070521983672 0.3125761889497819 0.50073570207385831 0.24848280280289631 0.52886631355986169 0.24769234054476261 0.52242103280823293 0.45098450226372488 0.22088738526309029 0.22111069116742441 0.50004796911802929 0.32925244736090059 0.39615100178043078 0 0.312576188949791 0.31458070521983672 0.3125761889497819 0.45812322962036273 0.31024977578535839 0 0.5004045312576143 0.47050700646456922 0.24963111222780321 0.32925244736090059 0.39615100178043078 0 0.5004045312576143 0.47050700646456922 0.24963111222780321 0.32446581821364329 0.60020898676454815 0 0.22345881830598399 0.5062398304147856 0.22345881830602041 0.45812322962036273 0.31024977578535839 0 0.5004045312576143 0.47050700646456922 0.24963111222780321 0.312576188949791 0.31458070521983672 0.3125761889497819 0.5003997205654479 0.21136633249797621 0.2258422409314382 0.45812322962036273 0.31024977578535839 0 0.32925244736090059 0.39615100178043078 0 0.31610726166346748 0.18804489794572149 0 0.312576188949791 0.31458070521983672 0.3125761889497819 0.16929708765618309 0.30074819035915368 0 0.312576188949791 0.31458070521983672 0.3125761889497819 0.32925244736090059 0.39615100178043078 0 0.22345881830598399 0.5062398304147856 0.22345881830602041 0.31610726166346748 0.18804489794572149 0 0.45812322962036273 0.31024977578535839 0 0.312576188949791 0.31458070521983672 0.3125761889497819 0.5003997205654479 0.21136633249797621 0.2258422409314382 0.32925244736090059 0.39615100178043078 0 0.312576188949791 0.31458070521983672 0.3125761889497819 0.5004045312576143 0.47050700646456922 0.24963111222780321 0.22345881830598399 0.5062398304147856 0.22345881830602041 0.32925244736090059 0.39615100178043078 0 0.16929708765618309 0.30074819035915368 0 0.31610726166346748 0.18804489794572149 0 0.312576188949791 0.31458070521983672 0.3125761889497819 0.32446581821364329 0.60020898676454815 0 0.32925244736090059 0.39615100178043078 0 0.51961524226956368 0.5000000000025091 0 0.5004045312576143 0.47050700646456922 0.24963111222780321 0.51961524226956368 0.5000000000025091 0 0.32925244736090059 0.39615100178043078 0 0.45812322962036273 0.31024977578535839 0 0.5004045312576143 0.47050700646456922 0.24963111222780321 0 0.30074819035869899 0.1692970876565193 0.14641016151452901 0.14641016151487049 0 0.16929708765618309 0.30074819035915368 0 0.312576188949791 0.31458070521983672 0.3125761889497819 0 0.30074819035869899 0.1692970876565193 0.312576188949791 0.31458070521983672 0.3125761889497819 0.16929708765618309 0.30074819035915368 0 0.22345881830598399 0.5062398304147856 0.22345881830602041 0.17226134197279269 0.49836539647922029 0 0 0.49836539647891548 0.17226134197271731 0.16929708765618309 0.30074819035915368 0 0.22345881830598399 0.5062398304147856 0.22345881830602041 0.17226134197279269 0.49836539647922029 0 0.16929708765618309 0.30074819035915368 0 0.32925244736090059 0.39615100178043078 0 0.22345881830598399 0.5062398304147856 0.22345881830602041 0 0.30074819035869899 0.1692970876565193 0 0.20000000000083221 0 0 0.40000000000166441 0 0.16929708765618309 0.30074819035915368 0 0 0.30074819035869899 0.1692970876565193 0 0.40000000000166441 0 0 0.49836539647891548 0.17226134197271731 0.16929708765618309 0.30074819035915368 0 0 0.30074819035869899 0.1692970876565193 0.16929708765618309 0.30074819035915368 0 0 0.49836539647891548 0.17226134197271731 0.22345881830598399 0.5062398304147856 0.22345881830602041 0 0.30074819035869899 0.1692970876565193 0 0.49836539647891548 0.17226134197271731 0 0.39615100178029522 0.32925244736138171 0.22345881830598399 0.5062398304147856 0.22345881830602041 0 0.49836539647891548 0.17226134197271731 0 0.40000000000166441 0 0 0.60000000000138687 0 0.17226134197279269 0.49836539647922029 0 0.16929708765618309 0.30074819035915368 0 0 0.40000000000166441 0 0 0.49836539647891548 0.17226134197271731 0.17226134197279269 0.49836539647922029 0 0 0.69449451837103049 0.15896804272139439 0 0.60020898676435996 0.32446581821286191 0.22345881830598399 0.5062398304147856 0.22345881830602041 0.19259015428765269 0.77719169076434647 0.19259015428773721 0.1589680427220837 0.69449451837091269 0 0 0.69449451837103049 0.15896804272139439 0.22345881830598399 0.5062398304147856 0.22345881830602041 0.19259015428765269 0.77719169076434647 0.19259015428773721 0 0.69449451837103049 0.15896804272139439 0.17226134197279269 0.49836539647922029 0 0 0.60000000000138687 0 0.1589680427220837 0.69449451837091269 0 0.32446581821364329 0.60020898676454815 0 0.1589680427220837 0.69449451837091269 0 0.22345881830598399 0.5062398304147856 0.22345881830602041 0.19259015428765269 0.77719169076434647 0.19259015428773721 0 0.60000000000138687 0 0 0.49836539647891548 0.17226134197271731 0.17226134197279269 0.49836539647922029 0 0 0.69449451837103049 0.15896804272139439 0 0.69449451837103049 0.15896804272139439 0 0.60000000000138687 0 0 0.79999999999999982 0 0.1589680427220837 0.69449451837091269 0 0.31067093463127438 0.81480288849489035 0 0.1589680427220837 0.69449451837091269 0 0.32446581821364329 0.60020898676454815 0 0.19259015428765269 0.77719169076434647 0.19259015428773721 0.32446581821364329 0.60020898676454815 0 0.1589680427220837 0.69449451837091269 0 0.17226134197279269 0.49836539647922029 0 0.22345881830598399 0.5062398304147856 0.22345881830602041 0.1589680427220837 0.69449451837091269 0 0 0.69449451837103049 0.15896804272139439 0.17226134197279269 0.49836539647922029 0 0.22345881830598399 0.5062398304147856 0.22345881830602041 0 0.69449451837103049 0.15896804272139439 0 0.81480288849496429 0.31067093462946233 0 0.60020898676435996 0.32446581821286191 0.19259015428765269 0.77719169076434647 0.19259015428773721 0 0.49836539647891548 0.17226134197271731 0 0.69449451837103049 0.15896804272139439 0 0.60020898676435996 0.32446581821286191 0.22345881830598399 0.5062398304147856 0.22345881830602041 0 0.49836539647891548 0.17226134197271731 0.17226134197279269 0.49836539647922029 0 0 0.69449451837103049 0.15896804272139439 0.22345881830598399 0.5062398304147856 0.22345881830602041 0 0.60020898676435996 0.32446581821286191 0.22516916914780419 0.77057994845201627 0.48187244075707292 0.35848654557803328 0.70013656506632282 0.30029870175293161 0.19259015428765269 0.77719169076434647 0.19259015428773721 0 0.60020898676435996 0.32446581821286191 0.24769234054476261 0.52242103280823293 0.45098450226372488 0 0.39615100178029522 0.32925244736138171 0.22345881830598399 0.5062398304147856 0.22345881830602041 0 0.60020898676435996 0.32446581821286191 0 0.81480288849496429 0.31067093462946233 0.22516916914780419 0.77057994845201627 0.48187244075707292 0.19259015428765269 0.77719169076434647 0.19259015428773721 0.35848654557803328 0.70013656506632282 0.30029870175293161 0.22345881830598399 0.5062398304147856 0.22345881830602041 0 0.60020898676435996 0.32446581821286191 0.19259015428765269 0.77719169076434647 0.19259015428773721 0 0.49836539647891548 0.17226134197271731 0 0.60020898676435996 0.32446581821286191 0 0.39615100178029522 0.32925244736138171 0.22345881830598399 0.5062398304147856 0.22345881830602041 0 0.60020898676435996 0.32446581821286191 0.24769234054476261 0.52242103280823293 0.45098450226372488 0.35848654557803328 0.70013656506632282 0.30029870175293161 0.22516916914780419 0.77057994845201627 0.48187244075707292 0.35848654557803328 0.70013656506632282 0.30029870175293161 0.24769234054476261 0.52242103280823293 0.45098450226372488 0 0.60020898676435996 0.32446581821286191 0.22345881830598399 0.5062398304147856 0.22345881830602041 0 0.39615100178029522 0.32925244736138171 0 0.60020898676435996 0.32446581821286191 0 0.50000000000237477 0.51961524226909872 0.24769234054476261 0.52242103280823293 0.45098450226372488 0 0.68801781652248195 0.45664527743358641 0 0.50000000000237477 0.51961524226909872 0 0.60020898676435996 0.32446581821286191 0.24769234054476261 0.52242103280823293 0.45098450226372488 0 0.66416205381430016 0.59944234540882957 0.24769234054476261 0.52242103280823293 0.45098450226372488 0 0.68801781652248195 0.45664527743358641 0.22516916914780419 0.77057994845201627 0.48187244075707292 0 0.60020898676435996 0.32446581821286191 0 0.81480288849496429 0.31067093462946233 0 0.68801781652248195 0.45664527743358641 0.22516916914780419 0.77057994845201627 0.48187244075707292 0 0.68801781652248195 0.45664527743358641 0.24769234054476261 0.52242103280823293 0.45098450226372488 0 0.60020898676435996 0.32446581821286191 0.22516916914780419 0.77057994845201627 0.48187244075707292 0.16929708765615539 1 0.30074819035677097 0.32926555316115258 1 0.39615987727515128 0.22516916914780419 0.77057994845201627 0.48187244075707292 0.19259015428765269 0.77719169076434647 0.19259015428773721 0 0.81480288849496429 0.31067093462946233 0.16929708765615539 1 0.30074819035677097 0.22516916914780419 0.77057994845201627 0.48187244075707292 0.19259015428765269 0.77719169076434647 0.19259015428773721 0.17226134197293 1 0.49836539647645101 0 0.83630110503664845 0.50803330197135654 0 0.81480288849496429 0.31067093462946233 0.22516916914780419 0.77057994845201627 0.48187244075707292 0 0.68801781652248195 0.45664527743358641 0 0.81480288849496429 0.31067093462946233 0 0.83630110503664845 0.50803330197135654 0.22516916914780419 0.77057994845201627 0.48187244075707292 0.17226134197293 1 0.49836539647645101 0 1 0.3999999999989749 0 0.81480288849496429 0.31067093462946233 0 0.83630110503664845 0.50803330197135654 0 0.81480288849496429 0.31067093462946233 0.16929708765615539 1 0.30074819035677097 0 1 0.3999999999989749 0.17226134197293 1 0.49836539647645101 0.17226134197293 1 0.49836539647645101 0 0.81480288849496429 0.31067093462946233 0.16929708765615539 1 0.30074819035677097 0.22516916914780419 0.77057994845201627 0.48187244075707292 0.17226134197293 1 0.49836539647645101 0.16929708765615539 1 0.30074819035677097 0.32926555316115258 1 0.39615987727515128 0.22516916914780419 0.77057994845201627 0.48187244075707292 0 1 0.3999999999989749 0 1 0.19999999999955789 0.16929708765615539 1 0.30074819035677097 0 0.81480288849496429 0.31067093462946233 0.16929708765615539 1 0.30074819035677097 0 1 0.19999999999955789 0 0.85358983848655678 0.14641016151332509 0 0.81480288849496429 0.31067093462946233 0.14641016151352521 1 0.1464101615131837 0 1 0.19999999999955789 0 0.85358983848655678 0.14641016151332509 0.16929708765615539 1 0.30074819035677097 0.20000000000083221 1 0 0 1 0 0.14641016151479211 0.85358983848543113 0 0.14641016151352521 1 0.1464101615131837 0 0.85358983848655678 0.14641016151332509 0 1 0 0 1 0.19999999999955789 0.14641016151352521 1 0.1464101615131837 0 0.85358983848655678 0.14641016151332509 0.14641016151479211 0.85358983848543113 0 0 1 0 0.14641016151352521 1 0.1464101615131837 0.14641016151479211 0.85358983848543113 0 0 1 0 0 0.79999999999999982 0 0 0.85358983848655678 0.14641016151332509 0 0.85358983848655678 0.14641016151332509 0 0.69449451837103049 0.15896804272139439 0.1589680427220837 0.69449451837091269 0 0.19259015428765269 0.77719169076434647 0.19259015428773721 0 0.79999999999999982 0 0.1589680427220837 0.69449451837091269 0 0.14641016151479211 0.85358983848543113 0 0 0.85358983848655678 0.14641016151332509 0.14641016151352521 1 0.1464101615131837 0 0.85358983848655678 0.14641016151332509 0.14641016151479211 0.85358983848543113 0 0.19259015428765269 0.77719169076434647 0.19259015428773721 0.1589680427220837 0.69449451837091269 0 0 0.79999999999999982 0 0 0.69449451837103049 0.15896804272139439 0 0.85358983848655678 0.14641016151332509 0.1589680427220837 0.69449451837091269 0 0.14641016151479211 0.85358983848543113 0 0 0.85358983848655678 0.14641016151332509 0.19259015428765269 0.77719169076434647 0.19259015428773721 0.16929708765615539 1 0.30074819035677097 0 0.81480288849496429 0.31067093462946233 0 0.85358983848655678 0.14641016151332509 0.19259015428765269 0.77719169076434647 0.19259015428773721 0 0.85358983848655678 0.14641016151332509 0 0.81480288849496429 0.31067093462946233 0 0.69449451837103049 0.15896804272139439 0.19259015428765269 0.77719169076434647 0.19259015428773721 0.14641016151352521 1 0.1464101615131837 0.14641016151479211 0.85358983848543113 0 0.31067093463127438 0.81480288849489035 0 0.19259015428765269 0.77719169076434647 0.19259015428773721 0.1589680427220837 0.69449451837091269 0 0.31067093463127438 0.81480288849489035 0 0.14641016151479211 0.85358983848543113 0 0.19259015428765269 0.77719169076434647 0.19259015428773721 0.14641016151479211 0.85358983848543113 0 0.31067093463127438 0.81480288849489035 0 0.20000000000083221 1 0 0.14641016151352521 1 0.1464101615131837 0.31635851157303152 1 0.18818969570840721 0.20000000000083221 1 0 0.31067093463127438 0.81480288849489035 0 0.14641016151352521 1 0.1464101615131837 0.31067093463127438 0.81480288849489035 0 0.31635851157303152 1 0.18818969570840721 0.14641016151352521 1 0.1464101615131837 0.19259015428765269 0.77719169076434647 0.19259015428773721 0.31635851157303152 1 0.18818969570840721 0.16929708765615539 1 0.30074819035677097 0.14641016151352521 1 0.1464101615131837 0.19259015428765269 0.77719169076434647 0.19259015428773721 0.14641016151352521 1 0.1464101615131837 0.16929708765615539 1 0.30074819035677097 0 0.85358983848655678 0.14641016151332509 0.19259015428765269 0.77719169076434647 0.19259015428773721 0.35848654557803328 0.70013656506632282 0.30029870175293161 0.19259015428765269 0.77719169076434647 0.19259015428773721 0.31635851157303152 1 0.18818969570840721 0.52894546611500048 0.79133000140429866 0.2082794184507949 0.31067093463127438 0.81480288849489035 0 0.19259015428765269 0.77719169076434647 0.19259015428773721 0.35848654557803328 0.70013656506632282 0.30029870175293161 0.52894546611500048 0.79133000140429866 0.2082794184507949 0.31067093463127438 0.81480288849489035 0 0.31635851157303152 1 0.18818969570840721 0.19259015428765269 0.77719169076434647 0.19259015428773721 0.52894546611500048 0.79133000140429866 0.2082794184507949 0.31067093463127438 0.81480288849489035 0 0.40000000000166441 1 0 0.20000000000083221 1 0 0.31635851157303152 1 0.18818969570840721 0.31067093463127438 0.81480288849489035 0 0.50803330197353713 0.83630110503668265 0 0.31635851157303152 1 0.18818969570840721 0.52894546611500048 0.79133000140429866 0.2082794184507949 0.45664527743509797 0.68801781652245086 0 0.50803330197353713 0.83630110503668265 0 0.31067093463127438 0.81480288849489035 0 0.52894546611500048 0.79133000140429866 0.2082794184507949 0.51133491425992716 1 0.16370661204795281 0.31635851157303152 1 0.18818969570840721 0.40000000000166441 1 0 0.50803330197353713 0.83630110503668265 0 0.31635851157303152 1 0.18818969570840721 0.31067093463127438 0.81480288849489035 0 0.40000000000166441 1 0 0.50803330197353713 0.83630110503668265 0 0.51133491425992716 1 0.16370661204795281 0.45820186441796368 1 0.31030302876579191 0.31635851157303152 1 0.18818969570840721 0.52894546611500048 0.79133000140429866 0.2082794184507949 0.51133491425992716 1 0.16370661204795281 0.31635851157303152 1 0.18818969570840721 0.50803330197353713 0.83630110503668265 0 0.52894546611500048 0.79133000140429866 0.2082794184507949 0.32926555316115258 1 0.39615987727515128 0.35848654557803328 0.70013656506632282 0.30029870175293161 0.49983993748706529 0.75039103705932653 0.52967335724801234 0.22516916914780419 0.77057994845201627 0.48187244075707292 0.35848654557803328 0.70013656506632282 0.30029870175293161 0.22516916914780419 0.77057994845201627 0.48187244075707292 0.32926555316115258 1 0.39615987727515128 0.19259015428765269 0.77719169076434647 0.19259015428773721 0.31635851157303152 1 0.18818969570840721 0.45820186441796368 1 0.31030302876579191 0.32926555316115258 1 0.39615987727515128 0.35848654557803328 0.70013656506632282 0.30029870175293161 0.45820186441796368 1 0.31030302876579191 0.35848654557803328 0.70013656506632282 0.30029870175293161 0.31635851157303152 1 0.18818969570840721 0.52894546611500048 0.79133000140429866 0.2082794184507949 0.31635851157303152 1 0.18818969570840721 0.35848654557803328 0.70013656506632282 0.30029870175293161 0.32926555316115258 1 0.39615987727515128 0.19259015428765269 0.77719169076434647 0.19259015428773721 0.45820186441796368 1 0.31030302876579191 0.49983993748706529 0.75039103705932653 0.52967335724801234 0.35848654557803328 0.70013656506632282 0.30029870175293161 0.52894546611500048 0.79133000140429866 0.2082794184507949 0.45820186441796368 1 0.31030302876579191 0.32926555316115258 1 0.39615987727515128 0.35848654557803328 0.70013656506632282 0.30029870175293161 0.49983993748706529 0.75039103705932653 0.52967335724801234 0.31635851157303152 1 0.18818969570840721 0.32926555316115258 1 0.39615987727515128 0.16929708765615539 1 0.30074819035677097 0.19259015428765269 0.77719169076434647 0.19259015428773721 0.32926555316115258 1 0.39615987727515128 0.32448110831226962 1 0.6002015905153204 0.17226134197293 1 0.49836539647645101 0.22516916914780419 0.77057994845201627 0.48187244075707292 0.45820186441796368 1 0.31030302876579191 0.51961524227008238 1 0.49999999999872219 0.32926555316115258 1 0.39615987727515128 0.49983993748706529 0.75039103705932653 0.52967335724801234 0.24769234054476261 0.52242103280823293 0.45098450226372488 0.49983993748706529 0.75039103705932653 0.52967335724801234 0.35848654557803328 0.70013656506632282 0.30029870175293161 0.22516916914780419 0.77057994845201627 0.48187244075707292 0.35848654557803328 0.70013656506632282 0.30029870175293161 0.50000000000001332 0.49999999999999561 0.49999999999999561 0.24769234054476261 0.52242103280823293 0.45098450226372488 0.5004045312576143 0.47050700646456922 0.24963111222780321 0.35848654557803328 0.70013656506632282 0.30029870175293161 0.24769234054476261 0.52242103280823293 0.45098450226372488 0.50000000000001332 0.49999999999999561 0.49999999999999561 0.49983993748706529 0.75039103705932653 0.52967335724801234 0.35848654557803328 0.70013656506632282 0.30029870175293161 0.5004045312576143 0.47050700646456922 0.24963111222780321 0.24769234054476261 0.52242103280823293 0.45098450226372488 0.22345881830598399 0.5062398304147856 0.22345881830602041 0.35848654557803328 0.70013656506632282 0.30029870175293161 0.32446581821364329 0.60020898676454815 0 0.5004045312576143 0.47050700646456922 0.24963111222780321 0.22345881830598399 0.5062398304147856 0.22345881830602041 0.31067093463127438 0.81480288849489035 0 0.32446581821364329 0.60020898676454815 0 0.45664527743509797 0.68801781652245086 0 0.35848654557803328 0.70013656506632282 0.30029870175293161 0.32446581821364329 0.60020898676454815 0 0.22345881830598399 0.5062398304147856 0.22345881830602041 0.35848654557803328 0.70013656506632282 0.30029870175293161 0.19259015428765269 0.77719169076434647 0.19259015428773721 0.32446581821364329 0.60020898676454815 0 0.45664527743509797 0.68801781652245086 0 0.35848654557803328 0.70013656506632282 0.30029870175293161 0.5004045312576143 0.47050700646456922 0.24963111222780321 0.31067093463127438 0.81480288849489035 0 0.32446581821364329 0.60020898676454815 0 0.35848654557803328 0.70013656506632282 0.30029870175293161 0.19259015428765269 0.77719169076434647 0.19259015428773721 0.45664527743509797 0.68801781652245086 0 0.31067093463127438 0.81480288849489035 0 0.35848654557803328 0.70013656506632282 0.30029870175293161 0.52894546611500048 0.79133000140429866 0.2082794184507949 0.35848654557803328 0.70013656506632282 0.30029870175293161 0.5004045312576143 0.47050700646456922 0.24963111222780321 0.45664527743509797 0.68801781652245086 0 0.52894546611500048 0.79133000140429866 0.2082794184507949 0.17226134197279269 0.49836539647922029 0 0.32925244736090059 0.39615100178043078 0 0.32446581821364329 0.60020898676454815 0 0.22345881830598399 0.5062398304147856 0.22345881830602041 0.32446581821364329 0.60020898676454815 0 0.51961524226956368 0.5000000000025091 0 0.45664527743509797 0.68801781652245086 0 0.5004045312576143 0.47050700646456922 0.24963111222780321 0.72722573386132172 0.60922248848163563 0 0.68456408135056701 0.68607101396845627 0.31096060989957619 0.59944234541082553 0.66416205381394655 0 0.77713227489941183 0.50036915849493024 0.21774643624003751 0.68456408135056701 0.68607101396845627 0.31096060989957619 0.5004045312576143 0.47050700646456922 0.24963111222780321 0.59944234541082553 0.66416205381394655 0 0.77713227489941183 0.50036915849493024 0.21774643624003751 0.59944234541082553 0.66416205381394655 0 0.45664527743509797 0.68801781652245086 0 0.5004045312576143 0.47050700646456922 0.24963111222780321 0.52894546611500048 0.79133000140429866 0.2082794184507949 0.51961524226956368 0.5000000000025091 0 0.67320508075660079 0.46954769941202479 0 0.59944234541082553 0.66416205381394655 0 0.5004045312576143 0.47050700646456922 0.24963111222780321 0.59944234541082553 0.66416205381394655 0 0.5004045312576143 0.47050700646456922 0.24963111222780321 0.68456408135056701 0.68607101396845627 0.31096060989957619 0.52894546611500048 0.79133000140429866 0.2082794184507949 0.59944234541082553 0.66416205381394655 0 0.5004045312576143 0.47050700646456922 0.24963111222780321 0.67320508075660079 0.46954769941202479 0 0.77713227489941183 0.50036915849493024 0.21774643624003751 0.59944234541082553 0.66416205381394655 0 0.52894546611500048 0.79133000140429866 0.2082794184507949 0.68456408135056701 0.68607101396845627 0.31096060989957619 0.81582077266975173 0.77657922508894406 0.18483084990574741 0.59944234541082553 0.66416205381394655 0 0.45664527743509797 0.68801781652245086 0 0.51961524226956368 0.5000000000025091 0 0.5004045312576143 0.47050700646456922 0.24963111222780321 0.59944234541082553 0.66416205381394655 0 0.68456408135056701 0.68607101396845627 0.31096060989957619 0.72722573386132172 0.60922248848163563 0 0.81582077266975173 0.77657922508894406 0.18483084990574741 0.45664527743509797 0.68801781652245086 0 0.59944234541082553 0.66416205381394655 0 0.50803330197353713 0.83630110503668265 0 0.52894546611500048 0.79133000140429866 0.2082794184507949 0.59944234541082553 0.66416205381394655 0 0.72722573386132172 0.60922248848163563 0 0.7054234997318658 0.80860557108880304 0 0.81582077266975173 0.77657922508894406 0.18483084990574741 0.72722573386132172 0.60922248848163563 0 0.59944234541082553 0.66416205381394655 0 0.67320508075660079 0.46954769941202479 0 0.77713227489941183 0.50036915849493024 0.21774643624003751 0.68456408135056701 0.68607101396845627 0.31096060989957619 0.5004045312576143 0.47050700646456922 0.24963111222780321 0.35848654557803328 0.70013656506632282 0.30029870175293161 0.52894546611500048 0.79133000140429866 0.2082794184507949 0.68456408135056701 0.68607101396845627 0.31096060989957619 0.35848654557803328 0.70013656506632282 0.30029870175293161 0.50000000000001332 0.49999999999999561 0.49999999999999561 0.49983993748706529 0.75039103705932653 0.52967335724801234 0.50000000000001332 0.49999999999999561 0.49999999999999561 0.35848654557803328 0.70013656506632282 0.30029870175293161 0.68456408135056701 0.68607101396845627 0.31096060989957619 0.5004045312576143 0.47050700646456922 0.24963111222780321 0.50000000000001332 0.49999999999999561 0.49999999999999561 0.68456408135056701 0.68607101396845627 0.31096060989957619 0.7504488434426726 0.53051757989633308 0.49836643074154852 0.5004045312576143 0.47050700646456922 0.24963111222780321 0.68456408135056701 0.68607101396845627 0.31096060989957619 0.49983993748706529 0.75039103705932653 0.52967335724801234 0.7504488434426726 0.53051757989633308 0.49836643074154852 0.77374673111774417 0.78860835645735528 0.49829081152968557 0.7504488434426726 0.53051757989633308 0.49836643074154852 0.5004045312576143 0.47050700646456922 0.24963111222780321 0.68456408135056701 0.68607101396845627 0.31096060989957619 0.77713227489941183 0.50036915849493024 0.21774643624003751 0.35848654557803328 0.70013656506632282 0.30029870175293161 0.49983993748706529 0.75039103705932653 0.52967335724801234 0.68456408135056701 0.68607101396845627 0.31096060989957619 0.52894546611500048 0.79133000140429866 0.2082794184507949 0.50000000000001332 0.49999999999999561 0.49999999999999561 0.7504488434426726 0.53051757989633308 0.49836643074154852 0.68456408135056701 0.68607101396845627 0.31096060989957619 0.49983993748706529 0.75039103705932653 0.52967335724801234 0.68456408135056701 0.68607101396845627 0.31096060989957619 0.52894546611500048 0.79133000140429866 0.2082794184507949 0.61068558124908323 1 0.33127740899601937 0.81582077266975173 0.77657922508894406 0.18483084990574741 0.61068558124908323 1 0.33127740899601937 0.49983993748706529 0.75039103705932653 0.52967335724801234 0.68456408135056701 0.68607101396845627 0.31096060989957619 0.77374673111774417 0.78860835645735528 0.49829081152968557 0.61068558124908323 1 0.33127740899601937 0.68240285647621723 1 0.52310058211166854 0.49983993748706529 0.75039103705932653 0.52967335724801234 0.77374673111774417 0.78860835645735528 0.49829081152968557 0.82751535738810444 1 0.31407731390515509 0.68456408135056701 0.68607101396845627 0.31096060989957619 0.61068558124908323 1 0.33127740899601937 0.81582077266975173 0.77657922508894406 0.18483084990574741 0.45820186441796368 1 0.31030302876579191 0.61068558124908323 1 0.33127740899601937 0.49983993748706529 0.75039103705932653 0.52967335724801234 0.52894546611500048 0.79133000140429866 0.2082794184507949 0.61068558124908323 1 0.33127740899601937 0.68456408135056701 0.68607101396845627 0.31096060989957619 0.82751535738810444 1 0.31407731390515509 0.77374673111774417 0.78860835645735528 0.49829081152968557 0.68456408135056701 0.68607101396845627 0.31096060989957619 0.49983993748706529 0.75039103705932653 0.52967335724801234 0.61068558124908323 1 0.33127740899601937 0.52894546611500048 0.79133000140429866 0.2082794184507949 0.61068558124908323 1 0.33127740899601937 0.68240285647621723 1 0.52310058211166854 0.51961524227008238 1 0.49999999999872219 0.49983993748706529 0.75039103705932653 0.52967335724801234 0.51961524227008238 1 0.49999999999872219 0.45820186441796368 1 0.31030302876579191 0.61068558124908323 1 0.33127740899601937 0.49983993748706529 0.75039103705932653 0.52967335724801234 0.68240285647621723 1 0.52310058211166854 0.61068558124908323 1 0.33127740899601937 0.82751535738810444 1 0.31407731390515509 0.77374673111774417 0.78860835645735528 0.49829081152968557 0.51133491425992716 1 0.16370661204795281 0.61068558124908323 1 0.33127740899601937 0.45820186441796368 1 0.31030302876579191 0.52894546611500048 0.79133000140429866 0.2082794184507949 0.51133491425992716 1 0.16370661204795281 0.69988642339594154 1 0.16938214347578889 0.61068558124908323 1 0.33127740899601937 0.52894546611500048 0.79133000140429866 0.2082794184507949 0.69988642339594154 1 0.16938214347578889 0.61068558124908323 1 0.33127740899601937 0.52894546611500048 0.79133000140429866 0.2082794184507949 0.81582077266975173 0.77657922508894406 0.18483084990574741 0.69988642339594154 1 0.16938214347578889 0.52894546611500048 0.79133000140429866 0.2082794184507949 0.7054234997318658 0.80860557108880304 0 0.81582077266975173 0.77657922508894406 0.18483084990574741 0.69988642339594154 1 0.16938214347578889 0.51133491425992716 1 0.16370661204795281 0.50803330197353713 0.83630110503668265 0 0.52894546611500048 0.79133000140429866 0.2082794184507949 0.59944234541082553 0.66416205381394655 0 0.7054234997318658 0.80860557108880304 0 0.52894546611500048 0.79133000140429866 0.2082794184507949 0.81582077266975173 0.77657922508894406 0.18483084990574741 0.60000000000138687 1 0 0.69988642339594154 1 0.16938214347578889 0.51133491425992716 1 0.16370661204795281 0.50803330197353713 0.83630110503668265 0 0.51133491425992716 1 0.16370661204795281 0.40000000000166441 1 0 0.60000000000138687 1 0 0.50803330197353713 0.83630110503668265 0 0.50803330197353713 0.83630110503668265 0 0.59944234541082553 0.66416205381394655 0 0.7054234997318658 0.80860557108880304 0 0.52894546611500048 0.79133000140429866 0.2082794184507949 0.69988642339594154 1 0.16938214347578889 0.50803330197353713 0.83630110503668265 0 0.7054234997318658 0.80860557108880304 0 0.52894546611500048 0.79133000140429866 0.2082794184507949 0.60000000000138687 1 0 0.79999999999999982 1 0 0.69988642339594154 1 0.16938214347578889 0.7054234997318658 0.80860557108880304 0 0.50803330197353713 0.83630110503668265 0 0.60000000000138687 1 0 0.69988642339594154 1 0.16938214347578889 0.7054234997318658 0.80860557108880304 0 0.69988642339594154 1 0.16938214347578889 0.82751535738810444 1 0.31407731390515509 0.61068558124908323 1 0.33127740899601937 0.81582077266975173 0.77657922508894406 0.18483084990574741 0.82751535738810444 1 0.31407731390515509 0.69988642339594154 1 0.16938214347578889 0.85358983848665693 1 0.14641016151322461 0.81582077266975173 0.77657922508894406 0.18483084990574741 0.69988642339594154 1 0.16938214347578889 0.85358983848666903 0.85358983848666903 0 0.85358983848665693 1 0.14641016151322461 0.81582077266975173 0.77657922508894406 0.18483084990574741 0.85358983848665693 1 0.14641016151322461 1 0.85358983848655678 0.14641016151332509 0.82751535738810444 1 0.31407731390515509 0.81582077266975173 0.77657922508894406 0.18483084990574741 0.85358983848666903 0.85358983848666903 0 0.85358983848665693 1 0.14641016151322461 0.79999999999999982 1 0 0.69988642339594154 1 0.16938214347578889 0.69988642339594154 1 0.16938214347578889 0.79999999999999982 1 0 0.85358983848666903 0.85358983848666903 0 0.7054234997318658 0.80860557108880304 0 0.85358983848666903 0.85358983848666903 0 0.7054234997318658 0.80860557108880304 0 0.85173693729186062 0.69992182039541118 0 0.81582077266975173 0.77657922508894406 0.18483084990574741 0.69988642339594154 1 0.16938214347578889 0.7054234997318658 0.80860557108880304 0 0.85358983848666903 0.85358983848666903 0 0.81582077266975173 0.77657922508894406 0.18483084990574741 1 0.85358983848655678 0.14641016151332509 1 0.69449451837101916 0.15896804272136739 1 0.8148028884949543 0.31067093462944562 0.81582077266975173 0.77657922508894406 0.18483084990574741 0.82751535738810444 1 0.31407731390515509 1 0.85358983848655678 0.14641016151332509 1 0.8148028884949543 0.31067093462944562 0.81582077266975173 0.77657922508894406 0.18483084990574741 1 0.85358983848655678 0.14641016151332509 0.85358983848666903 0.85358983848666903 0 1 0.79999999999999982 0 0.81582077266975173 0.77657922508894406 0.18483084990574741 1 0.79999999999999982 0 0.81582077266975173 0.77657922508894406 0.18483084990574741 1 0.69449451837101916 0.15896804272136739 1 0.85358983848655678 0.14641016151332509 0.85358983848666903 0.85358983848666903 0 1 0.85358983848655678 0.14641016151332509 0.85358983848665693 1 0.14641016151322461 0.81582077266975173 0.77657922508894406 0.18483084990574741 0.85358983848666903 0.85358983848666903 0 0.85173693729186062 0.69992182039541118 0 1 0.79999999999999982 0 0.81582077266975173 0.77657922508894406 0.18483084990574741 1 0.85358983848655678 0.14641016151332509 0.85358983848665693 1 0.14641016151322461 1 1 0 0.85358983848666903 0.85358983848666903 0 1 1 0.19999999999955789 0.85358983848665693 1 0.14641016151322461 1 1 0 1 0.85358983848655678 0.14641016151332509 1 1 0 1 0.85358983848655678 0.14641016151332509 0.85358983848666903 0.85358983848666903 0 1 0.79999999999999982 0 0.79999999999999982 1 0 1 1 0 0.85358983848665693 1 0.14641016151322461 0.85358983848666903 0.85358983848666903 0 0.82751535738810444 1 0.31407731390515509 0.85358983848665693 1 0.14641016151322461 1 1 0.19999999999955789 1 0.85358983848655678 0.14641016151332509 1 1 0.19999999999955789 1 0.8148028884949543 0.31067093462944562 0.82751535738810444 1 0.31407731390515509 1 0.85358983848655678 0.14641016151332509 1 1 0.3999999999989749 1 0.8148028884949543 0.31067093462944562 0.82751535738810444 1 0.31407731390515509 1 1 0.19999999999955789 0.82751535738810444 1 0.31407731390515509 0.77374673111774417 0.78860835645735528 0.49829081152968557 0.68456408135056701 0.68607101396845627 0.31096060989957619 0.81582077266975173 0.77657922508894406 0.18483084990574741 1 0.8148028884949543 0.31067093462944562 0.77374673111774417 0.78860835645735528 0.49829081152968557 0.82751535738810444 1 0.31407731390515509 0.81582077266975173 0.77657922508894406 0.18483084990574741 1 0.8148028884949543 0.31067093462944562 0.68456408135056701 0.68607101396845627 0.31096060989957619 0.77374673111774417 0.78860835645735528 0.49829081152968557 0.81582077266975173 0.77657922508894406 0.18483084990574741 1 0.8148028884949543 0.31067093462944562 0.86762395692956074 1 0.5060815484123421 0.82751535738810444 1 0.31407731390515509 0.77374673111774417 0.78860835645735528 0.49829081152968557 0.68240285647621723 1 0.52310058211166854 0.82751535738810444 1 0.31407731390515509 0.86762395692956074 1 0.5060815484123421 0.77374673111774417 0.78860835645735528 0.49829081152968557 0.86762395692956074 1 0.5060815484123421 1 1 0.3999999999989749 1 0.8148028884949543 0.31067093462944562 0.82751535738810444 1 0.31407731390515509 1 1 0.3999999999989749 1 0.83630110503662825 0.50803330197135588 0.86762395692956074 1 0.5060815484123421 1 0.8148028884949543 0.31067093462944562 1 0.8148028884949543 0.31067093462944562 1 0.83630110503662825 0.50803330197135588 0.86762395692956074 1 0.5060815484123421 0.77374673111774417 0.78860835645735528 0.49829081152968557 1 0.8148028884949543 0.31067093462944562 1 0.68975022421527898 0.45812322962078778 1 0.83630110503662825 0.50803330197135588 0.77374673111774417 0.78860835645735528 0.49829081152968557 1 0.39615100178016449 0.32925244736082498 0.7504488434426726 0.53051757989633308 0.49836643074154852 1 0.60020898676431722 0.32446581821274012 0.77713227489941183 0.50036915849493024 0.21774643624003751 1 0.68975022421527898 0.45812322962078778 0.68456408135056701 0.68607101396845627 0.31096060989957619 1 0.60020898676431722 0.32446581821274012 0.7504488434426726 0.53051757989633308 0.49836643074154852 1 0.8148028884949543 0.31067093462944562 0.68456408135056701 0.68607101396845627 0.31096060989957619 1 0.68975022421527898 0.45812322962078778 0.77374673111774417 0.78860835645735528 0.49829081152968557 1 0.68975022421527898 0.45812322962078778 0.68456408135056701 0.68607101396845627 0.31096060989957619 0.7504488434426726 0.53051757989633308 0.49836643074154852 0.77374673111774417 0.78860835645735528 0.49829081152968557 1 0.68975022421527898 0.45812322962078778 1 0.8148028884949543 0.31067093462944562 1 0.60020898676431722 0.32446581821274012 0.68456408135056701 0.68607101396845627 0.31096060989957619 0.68456408135056701 0.68607101396845627 0.31096060989957619 1 0.60020898676431722 0.32446581821274012 0.7504488434426726 0.53051757989633308 0.49836643074154852 0.77713227489941183 0.50036915849493024 0.21774643624003751 1 0.8148028884949543 0.31067093462944562 1 0.60020898676431722 0.32446581821274012 0.68456408135056701 0.68607101396845627 0.31096060989957619 0.81582077266975173 0.77657922508894406 0.18483084990574741 1 0.60020898676431722 0.32446581821274012 0.77713227489941183 0.50036915849493024 0.21774643624003751 0.68456408135056701 0.68607101396845627 0.31096060989957619 0.81582077266975173 0.77657922508894406 0.18483084990574741 1 0.50000000000229983 0.51961524226898759 1 0.68975022421527898 0.45812322962078778 1 0.60020898676431722 0.32446581821274012 0.7504488434426726 0.53051757989633308 0.49836643074154852 1 0.39615100178016449 0.32925244736082498 1 0.50000000000229983 0.51961524226898759 1 0.60020898676431722 0.32446581821274012 0.7504488434426726 0.53051757989633308 0.49836643074154852 0.84191918937744659 0.51186163305076127 0 1 0.49836539647890021 0.17226134197269399 1 0.69449451837101916 0.15896804272136739 0.77713227489941183 0.50036915849493024 0.21774643624003751 1 0.69449451837101916 0.15896804272136739 0.85173693729186062 0.69992182039541118 0 0.77713227489941183 0.50036915849493024 0.21774643624003751 0.81582077266975173 0.77657922508894406 0.18483084990574741 1 0.69449451837101916 0.15896804272136739 0.77713227489941183 0.50036915849493024 0.21774643624003751 1 0.60020898676431722 0.32446581821274012 0.81582077266975173 0.77657922508894406 0.18483084990574741 1 0.69449451837101916 0.15896804272136739 1 0.49836539647890021 0.17226134197269399 1 0.60020898676431722 0.32446581821274012 0.77713227489941183 0.50036915849493024 0.21774643624003751 0.72722573386132172 0.60922248848163563 0 0.77713227489941183 0.50036915849493024 0.21774643624003751 0.85173693729186062 0.69992182039541118 0 0.81582077266975173 0.77657922508894406 0.18483084990574741 0.72722573386132172 0.60922248848163563 0 0.68456408135056701 0.68607101396845627 0.31096060989957619 0.77713227489941183 0.50036915849493024 0.21774643624003751 0.81582077266975173 0.77657922508894406 0.18483084990574741 1 0.8148028884949543 0.31067093462944562 1 0.69449451837101916 0.15896804272136739 1 0.60020898676431722 0.32446581821274012 0.81582077266975173 0.77657922508894406 0.18483084990574741 0.72722573386132172 0.60922248848163563 0 0.67320508075660079 0.46954769941202479 0 0.84191918937744659 0.51186163305076127 0 0.77713227489941183 0.50036915849493024 0.21774643624003751 0.84191918937744659 0.51186163305076127 0 1 0.69449451837101916 0.15896804272136739 0.85173693729186062 0.69992182039541118 0 0.77713227489941183 0.50036915849493024 0.21774643624003751 0.72722573386132172 0.60922248848163563 0 0.84191918937744659 0.51186163305076127 0 0.85173693729186062 0.69992182039541118 0 0.77713227489941183 0.50036915849493024 0.21774643624003751 0.7054234997318658 0.80860557108880304 0 0.72722573386132172 0.60922248848163563 0 0.85173693729186062 0.69992182039541118 0 0.81582077266975173 0.77657922508894406 0.18483084990574741 1 0.69449451837101916 0.15896804272136739 0.85173693729186062 0.69992182039541118 0 1 0.79999999999999982 0 1 0.60000000000138687 0 1 0.69449451837101916 0.15896804272136739 0.81582077266975173 0.77657922508894406 0.18483084990574741 1 0.79999999999999982 0 0.85173693729186062 0.69992182039541118 0 0.84191918937744659 0.51186163305076127 0 0.85173693729186062 0.69992182039541118 0 1 0.69449451837101916 0.15896804272136739 1 0.60000000000138687 0 1 0.60000000000138687 0 1 0.69449451837101916 0.15896804272136739 0.84191918937744659 0.51186163305076127 0 1 0.49836539647890021 0.17226134197269399 1 0.40000000000166441 0 1 0.60000000000138687 0 0.84191918937744659 0.51186163305076127 0 1 0.49836539647890021 0.17226134197269399 0.80839867011859301 0.31807971531731721 0 0.85358983848570813 0.1464101615143738 0 1 0.30074819035868428 0.16929708765640439 0.68777432594363841 0.31447353261427252 0.31366778418247038 0.80839867011859301 0.31807971531731721 0 1 0.40000000000166441 0 0.84191918937744659 0.51186163305076127 0 1 0.49836539647890021 0.17226134197269399 1 0.40000000000166441 0 0.80839867011859301 0.31807971531731721 0 1 0.30074819035868428 0.16929708765640439 1 0.49836539647890021 0.17226134197269399 0.80839867011859301 0.31807971531731721 0 0.68777432594363841 0.31447353261427252 0.31366778418247038 1 0.30074819035868428 0.16929708765640439 0.77713227489941183 0.50036915849493024 0.21774643624003751 0.84191918937744659 0.51186163305076127 0 0.67320508075660079 0.46954769941202479 0 0.80839867011859301 0.31807971531731721 0 0.77713227489941183 0.50036915849493024 0.21774643624003751 0.84191918937744659 0.51186163305076127 0 0.80839867011859301 0.31807971531731721 0 1 0.49836539647890021 0.17226134197269399 0.77713227489941183 0.50036915849493024 0.21774643624003751 0.80839867011859301 0.31807971531731721 0 1 0.30074819035868428 0.16929708765640439 1 0.49836539647890021 0.17226134197269399 0.77713227489941183 0.50036915849493024 0.21774643624003751 1 0.30074819035868428 0.16929708765640439 1 0.39615100178016449 0.32925244736082498 1 0.49836539647890021 0.17226134197269399 0.77713227489941183 0.50036915849493024 0.21774643624003751 1 0.30074819035868428 0.16929708765640439 0.80839867011859301 0.31807971531731721 0 1 0.40000000000166441 0 1 0.20000000000083221 0 1 0.30074819035868428 0.16929708765640439 0.80839867011859301 0.31807971531731721 0 1 0.20000000000083221 0 0.85358983848570813 0.1464101615143738 0 1 0.20000000000083221 0 1 0.14641016151453831 0.14641016151419689 1 0.30074819035868428 0.16929708765640439 0.85358983848570813 0.1464101615143738 0 0.83057691269884504 0 0.30018449338884379 0.85358983848650494 0 0.1464101615132356 0.68592116352011878 0 0.1724872797865501 0.68777432594363841 0.31447353261427252 0.31366778418247038 0.80839867011859301 0.31807971531731721 0 0.69380980079964416 0.1619694349440581 0 0.85358983848570813 0.1464101615143738 0 0.68777432594363841 0.31447353261427252 0.31366778418247038 1 0.18804489794556911 0.3161072616634244 1 0.30074819035868428 0.16929708765640439 1 0.14641016151453831 0.14641016151419689 0.68777432594363841 0.31447353261427252 0.31366778418247038 1 0.14641016151453831 0.14641016151419689 1 0.30074819035868428 0.16929708765640439 0.85358983848570813 0.1464101615143738 0 0.68777432594363841 0.31447353261427252 0.31366778418247038 1 0.14641016151453831 0.14641016151419689 0.85358983848650494 0 0.1464101615132356 0.83057691269884504 0 0.30018449338884379 0.68777432594363841 0.31447353261427252 0.31366778418247038 1 0.14641016151453831 0.14641016151419689 0.85358983848570813 0.1464101615143738 0 0.85358983848650494 0 0.1464101615132356 0.68777432594363841 0.31447353261427252 0.31366778418247038 0.69380980079964416 0.1619694349440581 0 0.85358983848650494 0 0.1464101615132356 0.85358983848570813 0.1464101615143738 0 0.68777432594363841 0.31447353261427252 0.31366778418247038 0.85358983848650494 0 0.1464101615132356 0.83057691269884504 0 0.30018449338884379 1 0 0.19999999999955789 1 0.14641016151453831 0.14641016151419689 0.83057691269884504 0 0.30018449338884379 1 0.18804489794556911 0.3161072616634244 1 0 0.19999999999955789 1 0.14641016151453831 0.14641016151419689 0.85358983848570813 0.1464101615143738 0 1 0 0 0.85358983848650494 0 0.1464101615132356 0.79999999999947335 0 0 0.85358983848650494 0 0.1464101615132356 1 0 0.19999999999955789 1 0 0 1 0.14641016151453831 0.14641016151419689 1 0 0 1 0.14641016151453831 0.14641016151419689 1 0.20000000000083221 0 0.85358983848570813 0.1464101615143738 0 1 0.14641016151453831 0.14641016151419689 1 0 0 0.85358983848650494 0 0.1464101615132356 0.85358983848570813 0.1464101615143738 0 0.68592116352011878 0 0.1724872797865501 0.69380980079964416 0.1619694349440581 0 0.85358983848650494 0 0.1464101615132356 0.79999999999947335 0 0 0.85358983848570813 0.1464101615143738 0 0.85358983848650494 0 0.1464101615132356 0.69380980079964416 0.1619694349440581 0 0.79999999999947335 0 0 0.68592116352011878 0 0.1724872797865501 0.68777432594363841 0.31447353261427252 0.31366778418247038 0.69380980079964416 0.1619694349440581 0 0.5003997205654479 0.21136633249797621 0.2258422409314382 0.68592116352011878 0 0.1724872797865501 0.85358983848650494 0 0.1464101615132356 0.69380980079964416 0.1619694349440581 0 0.68777432594363841 0.31447353261427252 0.31366778418247038 0.69380980079964416 0.1619694349440581 0 0.68592116352011878 0 0.1724872797865501 0.59999999999894682 0 0 0.79999999999947335 0 0 0.49391845158624981 0 0.1323760430705655 0.3999999999989749 0 0 0.50966790549376417 0.16275515618023731 0 0.59999999999894682 0 0 0.50966790549376417 0.16275515618023731 0 0.69380980079964416 0.1619694349440581 0 0.68592116352011878 0 0.1724872797865501 0.59999999999894682 0 0 0.68592116352011878 0 0.1724872797865501 0.49391845158624981 0 0.1323760430705655 0.50966790549376417 0.16275515618023731 0 0.59999999999894682 0 0 0.47688326899416439 0 0.31741132792405607 0.68592116352011878 0 0.1724872797865501 0.49391845158624981 0 0.1323760430705655 0.5003997205654479 0.21136633249797621 0.2258422409314382 0.49391845158624981 0 0.1323760430705655 0.68592116352011878 0 0.1724872797865501 0.50966790549376417 0.16275515618023731 0 0.5003997205654479 0.21136633249797621 0.2258422409314382 0.50966790549376417 0.16275515618023731 0 0.68592116352011878 0 0.1724872797865501 0.69380980079964416 0.1619694349440581 0 0.5003997205654479 0.21136633249797621 0.2258422409314382 0.6104699881764214 0.32043363027358418 0 0.50966790549376417 0.16275515618023731 0 0.69380980079964416 0.1619694349440581 0 0.5003997205654479 0.21136633249797621 0.2258422409314382 0.6104699881764214 0.32043363027358418 0 0.68777432594363841 0.31447353261427252 0.31366778418247038 0.80839867011859301 0.31807971531731721 0 0.77713227489941183 0.50036915849493024 0.21774643624003751 0.6104699881764214 0.32043363027358418 0 0.69380980079964416 0.1619694349440581 0 0.68777432594363841 0.31447353261427252 0.31366778418247038 0.5003997205654479 0.21136633249797621 0.2258422409314382 0.80839867011859301 0.31807971531731721 0 0.6104699881764214 0.32043363027358418 0 0.69380980079964416 0.1619694349440581 0 0.68777432594363841 0.31447353261427252 0.31366778418247038 0.6104699881764214 0.32043363027358418 0 0.45812322962036273 0.31024977578535839 0 0.50966790549376417 0.16275515618023731 0 0.5003997205654479 0.21136633249797621 0.2258422409314382 0.45812322962036273 0.31024977578535839 0 0.6104699881764214 0.32043363027358418 0 0.5004045312576143 0.47050700646456922 0.24963111222780321 0.5003997205654479 0.21136633249797621 0.2258422409314382 0.77713227489941183 0.50036915849493024 0.21774643624003751 0.6104699881764214 0.32043363027358418 0 0.5004045312576143 0.47050700646456922 0.24963111222780321 0.67320508075660079 0.46954769941202479 0 0.68777432594363841 0.31447353261427252 0.31366778418247038 0.5004045312576143 0.47050700646456922 0.24963111222780321 0.6104699881764214 0.32043363027358418 0 0.5003997205654479 0.21136633249797621 0.2258422409314382 0.77713227489941183 0.50036915849493024 0.21774643624003751 0.5004045312576143 0.47050700646456922 0.24963111222780321 0.6104699881764214 0.32043363027358418 0 0.68777432594363841 0.31447353261427252 0.31366778418247038 0.51961524226956368 0.5000000000025091 0 0.6104699881764214 0.32043363027358418 0 0.67320508075660079 0.46954769941202479 0 0.5004045312576143 0.47050700646456922 0.24963111222780321 0.45812322962036273 0.31024977578535839 0 0.6104699881764214 0.32043363027358418 0 0.51961524226956368 0.5000000000025091 0 0.5004045312576143 0.47050700646456922 0.24963111222780321 0.6104699881764214 0.32043363027358418 0 0.80839867011859301 0.31807971531731721 0 0.67320508075660079 0.46954769941202479 0 0.77713227489941183 0.50036915849493024 0.21774643624003751 0.68777432594363841 0.31447353261427252 0.31366778418247038 0.7504488434426726 0.53051757989633308 0.49836643074154852 0.50000000000001332 0.49999999999999561 0.49999999999999561 0.50073570207385831 0.24848280280289631 0.52886631355986169 0.7504488434426726 0.53051757989633308 0.49836643074154852 0.50073570207385831 0.24848280280289631 0.52886631355986169 0.68777432594363841 0.31447353261427252 0.31366778418247038 0.77973766487723961 0.22090161127815711 0.50014622462635805 0.50000000000001332 0.49999999999999561 0.49999999999999561 0.7504488434426726 0.53051757989633308 0.49836643074154852 0.68777432594363841 0.31447353261427252 0.31366778418247038 0.5004045312576143 0.47050700646456922 0.24963111222780321 0.68777432594363841 0.31447353261427252 0.31366778418247038 0.5004045312576143 0.47050700646456922 0.24963111222780321 0.7504488434426726 0.53051757989633308 0.49836643074154852 0.77713227489941183 0.50036915849493024 0.21774643624003751 0.50073570207385831 0.24848280280289631 0.52886631355986169 0.5004045312576143 0.47050700646456922 0.24963111222780321 0.68777432594363841 0.31447353261427252 0.31366778418247038 0.5003997205654479 0.21136633249797621 0.2258422409314382 0.50000000000001332 0.49999999999999561 0.49999999999999561 0.68777432594363841 0.31447353261427252 0.31366778418247038 0.50073570207385831 0.24848280280289631 0.52886631355986169 0.5004045312576143 0.47050700646456922 0.24963111222780321 0.83057691269884504 0 0.30018449338884379 0.68777432594363841 0.31447353261427252 0.31366778418247038 0.66852282575985944 0 0.3853248791658106 0.77973766487723961 0.22090161127815711 0.50014622462635805 0.68592116352011878 0 0.1724872797865501 0.66852282575985944 0 0.3853248791658106 0.83057691269884504 0 0.30018449338884379 0.68777432594363841 0.31447353261427252 0.31366778418247038 0.66852282575985944 0 0.3853248791658106 0.47688326899416439 0 0.31741132792405607 0.50073570207385831 0.24848280280289631 0.52886631355986169 0.5003997205654479 0.21136633249797621 0.2258422409314382 0.68969697123394857 0 0.54179813558228873 0.66852282575985944 0 0.3853248791658106 0.50073570207385831 0.24848280280289631 0.52886631355986169 0.77973766487723961 0.22090161127815711 0.50014622462635805 0.68592116352011878 0 0.1724872797865501 0.66852282575985944 0 0.3853248791658106 0.68777432594363841 0.31447353261427252 0.31366778418247038 0.5003997205654479 0.21136633249797621 0.2258422409314382 0.66852282575985944 0 0.3853248791658106 0.50073570207385831 0.24848280280289631 0.52886631355986169 0.68777432594363841 0.31447353261427252 0.31366778418247038 0.5003997205654479 0.21136633249797621 0.2258422409314382 0.68777432594363841 0.31447353261427252 0.31366778418247038 0.50073570207385831 0.24848280280289631 0.52886631355986169 0.66852282575985944 0 0.3853248791658106 0.77973766487723961 0.22090161127815711 0.50014622462635805 0.68592116352011878 0 0.1724872797865501 0.47688326899416439 0 0.31741132792405607 0.66852282575985944 0 0.3853248791658106 0.5003997205654479 0.21136633249797621 0.2258422409314382 0.50000000000250922 0 0.48038475773043671 0.66852282575985944 0 0.3853248791658106 0.47688326899416439 0 0.31741132792405607 0.50073570207385831 0.24848280280289631 0.52886631355986169 0.50000000000250922 0 0.48038475773043671 0.68969697123394857 0 0.54179813558228873 0.66852282575985944 0 0.3853248791658106 0.50073570207385831 0.24848280280289631 0.52886631355986169 0.66852282575985944 0 0.3853248791658106 0.68969697123394857 0 0.54179813558228873 0.83534964916824084 0 0.4902996892628636 0.77973766487723961 0.22090161127815711 0.50014622462635805 1 0.18804489794556911 0.3161072616634244 0.68777432594363841 0.31447353261427252 0.31366778418247038 0.83057691269884504 0 0.30018449338884379 0.77973766487723961 0.22090161127815711 0.50014622462635805 1 0.18804489794556911 0.3161072616634244 1 0.14641016151453831 0.14641016151419689 0.83057691269884504 0 0.30018449338884379 0.68777432594363841 0.31447353261427252 0.31366778418247038 0.83534964916824084 0 0.4902996892628636 0.83057691269884504 0 0.30018449338884379 0.66852282575985944 0 0.3853248791658106 0.77973766487723961 0.22090161127815711 0.50014622462635805 0.83534964916824084 0 0.4902996892628636 1 0.18804489794556911 0.3161072616634244 0.83057691269884504 0 0.30018449338884379 0.77973766487723961 0.22090161127815711 0.50014622462635805 0.83057691269884504 0 0.30018449338884379 0.83534964916824084 0 0.4902996892628636 1 0 0.3999999999989749 1 0.18804489794556911 0.3161072616634244 0.83534964916824084 0 0.4902996892628636 1 0.162755156180173 0.50966790549372887 1 0 0.59999999999894682 1 0 0.3999999999989749 1 0 0.3999999999989749 0.83534964916824084 0 0.4902996892628636 1 0.162755156180173 0.50966790549372887 1 0.18804489794556911 0.3161072616634244 1 0.18804489794556911 0.3161072616634244 1 0 0.3999999999989749 0.83057691269884504 0 0.30018449338884379 1 0 0.19999999999955789 1 0.31024977578542368 0.45812322962028301 1 0.18804489794556911 0.3161072616634244 1 0.162755156180173 0.50966790549372887 0.77973766487723961 0.22090161127815711 0.50014622462635805 0.83534964916824084 0 0.4902996892628636 1 0.162755156180173 0.50966790549372887 1 0.18804489794556911 0.3161072616634244 0.77973766487723961 0.22090161127815711 0.50014622462635805 1 0.39615100178016449 0.32925244736082498 0.68777432594363841 0.31447353261427252 0.31366778418247038 0.7504488434426726 0.53051757989633308 0.49836643074154852 0.77713227489941183 0.50036915849493024 0.21774643624003751 1 0.39615100178016449 0.32925244736082498 1 0.18804489794556911 0.3161072616634244 1 0.31024977578542368 0.45812322962028301 0.68777432594363841 0.31447353261427252 0.31366778418247038 1 0.31024977578542368 0.45812322962028301 0.7504488434426726 0.53051757989633308 0.49836643074154852 0.68777432594363841 0.31447353261427252 0.31366778418247038 0.77973766487723961 0.22090161127815711 0.50014622462635805 1 0.30074819035868428 0.16929708765640439 1 0.18804489794556911 0.3161072616634244 1 0.39615100178016449 0.32925244736082498 0.68777432594363841 0.31447353261427252 0.31366778418247038 1 0.31024977578542368 0.45812322962028301 0.68777432594363841 0.31447353261427252 0.31366778418247038 1 0.18804489794556911 0.3161072616634244 0.77973766487723961 0.22090161127815711 0.50014622462635805 1 0.30074819035868428 0.16929708765640439 0.68777432594363841 0.31447353261427252 0.31366778418247038 1 0.39615100178016449 0.32925244736082498 0.77713227489941183 0.50036915849493024 0.21774643624003751 1 0.39615100178016449 0.32925244736082498 0.68777432594363841 0.31447353261427252 0.31366778418247038 1 0.31024977578542368 0.45812322962028301 0.7504488434426726 0.53051757989633308 0.49836643074154852 1 0.60020898676431722 0.32446581821274012 1 0.49836539647890021 0.17226134197269399 1 0.39615100178016449 0.32925244736082498 0.77713227489941183 0.50036915849493024 0.21774643624003751 1 0.39615100178016449 0.32925244736082498 1 0.31024977578542368 0.45812322962028301 1 0.50000000000229983 0.51961524226898759 0.7504488434426726 0.53051757989633308 0.49836643074154852 1 0.33579115324550912 0.59952339316293046 0.7504488434426726 0.53051757989633308 0.49836643074154852 0.68742751001967084 0.31250796680084852 0.687427510020161 0.78019141325921404 0.49972466465542442 0.78019141325930785 1 0.33579115324550912 0.59952339316293046 1 0.39076805646076263 0.7272421105028648 0.68742751001967084 0.31250796680084852 0.687427510020161 0.81599560342209843 0.22280203704001911 0.81599560342233202 1 0.33579115324550912 0.59952339316293046 1 0.53045230059030524 0.6732050807565132 1 0.50000000000229983 0.51961524226898759 0.7504488434426726 0.53051757989633308 0.49836643074154852 1 0.33579115324550912 0.59952339316293046 0.7504488434426726 0.53051757989633308 0.49836643074154852 1 0.31024977578542368 0.45812322962028301 0.77973766487723961 0.22090161127815711 0.50014622462635805 0.68742751001967084 0.31250796680084852 0.687427510020161 0.77973766487723961 0.22090161127815711 0.50014622462635805 1 0.33579115324550912 0.59952339316293046 0.81599560342209843 0.22280203704001911 0.81599560342233202 1 0.33579115324550912 0.59952339316293046 0.68742751001967084 0.31250796680084852 0.687427510020161 0.7504488434426726 0.53051757989633308 0.49836643074154852 0.77973766487723961 0.22090161127815711 0.50014622462635805 1 0.53045230059030524 0.6732050807565132 0.7504488434426726 0.53051757989633308 0.49836643074154852 1 0.33579115324550912 0.59952339316293046 0.78019141325921404 0.49972466465542442 0.78019141325930785 1 0.39076805646076263 0.7272421105028648 1 0.33579115324550912 0.59952339316293046 0.68742751001967084 0.31250796680084852 0.687427510020161 0.78019141325921404 0.49972466465542442 0.78019141325930785 1 0.33579115324550912 0.59952339316293046 1 0.50000000000229983 0.51961524226898759 1 0.31024977578542368 0.45812322962028301 0.7504488434426726 0.53051757989633308 0.49836643074154852 1 0.39076805646076263 0.7272421105028648 1 0.53045230059030524 0.6732050807565132 1 0.33579115324550912 0.59952339316293046 0.78019141325921404 0.49972466465542442 0.78019141325930785 1 0.33579115324550912 0.59952339316293046 1 0.1912596090855686 0.70565701451953711 1 0.39076805646076263 0.7272421105028648 0.81599560342209843 0.22280203704001911 0.81599560342233202 1 0.33579115324550912 0.59952339316293046 1 0.31024977578542368 0.45812322962028301 1 0.162755156180173 0.50966790549372887 0.77973766487723961 0.22090161127815711 0.50014622462635805 1 0.162755156180173 0.50966790549372887 0.81469961246449951 0 0.68914937826112133 1 0.1912596090855686 0.70565701451953711 0.77973766487723961 0.22090161127815711 0.50014622462635805 0.81469961246449951 0 0.68914937826112133 0.77973766487723961 0.22090161127815711 0.50014622462635805 0.68742751001967084 0.31250796680084852 0.687427510020161 0.81599560342209843 0.22280203704001911 0.81599560342233202 0.81469961246449951 0 0.68914937826112133 1 0.1912596090855686 0.70565701451953711 0.77973766487723961 0.22090161127815711 0.50014622462635805 0.81599560342209843 0.22280203704001911 0.81599560342233202 1 0.1912596090855686 0.70565701451953711 1 0.33579115324550912 0.59952339316293046 0.77973766487723961 0.22090161127815711 0.50014622462635805 0.81599560342209843 0.22280203704001911 0.81599560342233202 1 0.162755156180173 0.50966790549372887 1 0.1912596090855686 0.70565701451953711 1 0.33579115324550912 0.59952339316293046 0.77973766487723961 0.22090161127815711 0.50014622462635805 1 0.1912596090855686 0.70565701451953711 0.81469961246449951 0 0.68914937826112133 1 0 0.59999999999894682 1 0 0.79999999999947335 0.81469961246449951 0 0.68914937826112133 1 0 0.59999999999894682 1 0.162755156180173 0.50966790549372887 1 0.1912596090855686 0.70565701451953711 1 0.162755156180173 0.50966790549372887 1 0 0.59999999999894682 0.81469961246449951 0 0.68914937826112133 0.83534964916824084 0 0.4902996892628636 0.81469961246449951 0 0.68914937826112133 0.83534964916824084 0 0.4902996892628636 0.68969697123394857 0 0.54179813558228873 0.77973766487723961 0.22090161127815711 0.50014622462635805 0.81469961246449951 0 0.68914937826112133 1 0.162755156180173 0.50966790549372887 0.83534964916824084 0 0.4902996892628636 0.77973766487723961 0.22090161127815711 0.50014622462635805 0.68969697123394857 0 0.54179813558228873 0.6002015905170176 0 0.67551889168744117 0.68742751001967084 0.31250796680084852 0.687427510020161 0.50073570207385831 0.24848280280289631 0.52886631355986169 0.6002015905170176 0 0.67551889168744117 0.81469961246449951 0 0.68914937826112133 0.68969697123394857 0 0.54179813558228873 0.68742751001967084 0.31250796680084852 0.687427510020161 0.81469961246449951 0 0.68914937826112133 0.68969697123394857 0 0.54179813558228873 0.68742751001967084 0.31250796680084852 0.687427510020161 0.77973766487723961 0.22090161127815711 0.50014622462635805 0.69447607299129699 0 0.84099946107689361 0.68742751001967084 0.31250796680084852 0.687427510020161 0.6002015905170176 0 0.67551889168744117 0.50084626324420545 0.22238844715913 0.78084811589659187 0.68742751001967084 0.31250796680084852 0.687427510020161 0.68969697123394857 0 0.54179813558228873 0.50073570207385831 0.24848280280289631 0.52886631355986169 0.77973766487723961 0.22090161127815711 0.50014622462635805 0.68742751001967084 0.31250796680084852 0.687427510020161 0.50073570207385831 0.24848280280289631 0.52886631355986169 0.6002015905170176 0 0.67551889168744117 0.50084626324420545 0.22238844715913 0.78084811589659187 0.6002015905170176 0 0.67551889168744117 0.81469961246449951 0 0.68914937826112133 0.68742751001967084 0.31250796680084852 0.687427510020161 0.81599560342209843 0.22280203704001911 0.81599560342233202 0.68969697123394857 0 0.54179813558228873 0.50000000000250922 0 0.48038475773043671 0.6002015905170176 0 0.67551889168744117 0.50073570207385831 0.24848280280289631 0.52886631355986169 0.50000000000001332 0.49999999999999561 0.49999999999999561 0.68742751001967084 0.31250796680084852 0.687427510020161 0.49816183246753282 0.5307146639261795 0.75045686993209071 0.50073570207385831 0.24848280280289631 0.52886631355986169 0.68742751001967084 0.31250796680084852 0.687427510020161 0.50000000000001332 0.49999999999999561 0.49999999999999561 0.7504488434426726 0.53051757989633308 0.49836643074154852 0.50073570207385831 0.24848280280289631 0.52886631355986169 0.68742751001967084 0.31250796680084852 0.687427510020161 0.7504488434426726 0.53051757989633308 0.49836643074154852 0.50000000000001332 0.49999999999999561 0.49999999999999561 0.49816183246753282 0.5307146639261795 0.75045686993209071 0.7504488434426726 0.53051757989633308 0.49836643074154852 0.49816183246753282 0.5307146639261795 0.75045686993209071 0.68742751001967084 0.31250796680084852 0.687427510020161 0.78019141325921404 0.49972466465542442 0.78019141325930785 0.49816183246753282 0.5307146639261795 0.75045686993209071 0.50073570207385831 0.24848280280289631 0.52886631355986169 0.68742751001967084 0.31250796680084852 0.687427510020161 0.50084626324420545 0.22238844715913 0.78084811589659187 0.68742751001967084 0.31250796680084852 0.687427510020161 0.50073570207385831 0.24848280280289631 0.52886631355986169 0.7504488434426726 0.53051757989633308 0.49836643074154852 0.77973766487723961 0.22090161127815711 0.50014622462635805 0.45812322962173568 0.31024977578554058 1 0.49816183246753282 0.5307146639261795 0.75045686993209071 0.59952339316492498 0.33579115324593939 1 0.50084626324420545 0.22238844715913 0.78084811589659187 0.59952339316492498 0.33579115324593939 1 0.68742751001967084 0.31250796680084852 0.687427510020161 0.72724211050425436 0.39076805646176382 1 0.81599560342209843 0.22280203704001911 0.81599560342233202 0.59952339316492498 0.33579115324593939 1 0.68742751001967084 0.31250796680084852 0.687427510020161 0.49816183246753282 0.5307146639261795 0.75045686993209071 0.78019141325921404 0.49972466465542442 0.78019141325930785 0.59952339316492498 0.33579115324593939 1 0.50084626324420545 0.22238844715913 0.78084811589659187 0.68742751001967084 0.31250796680084852 0.687427510020161 0.81599560342209843 0.22280203704001911 0.81599560342233202 0.59952339316492498 0.33579115324593939 1 0.49816183246753282 0.5307146639261795 0.75045686993209071 0.68742751001967084 0.31250796680084852 0.687427510020161 0.50084626324420545 0.22238844715913 0.78084811589659187 0.59952339316492498 0.33579115324593939 1 0.72724211050425436 0.39076805646176382 1 0.68742751001967084 0.31250796680084852 0.687427510020161 0.78019141325921404 0.49972466465542442 0.78019141325930785 0.59952339316492498 0.33579115324593939 1 0.49816183246753282 0.5307146639261795 0.75045686993209071 0.67320508075671459 0.53045230059073867 1 0.78019141325921404 0.49972466465542442 0.78019141325930785 0.70565701452089868 0.1912596090858541 1 0.59952339316492498 0.33579115324593939 1 0.72724211050425436 0.39076805646176382 1 0.81599560342209843 0.22280203704001911 0.81599560342233202 0.59952339316492498 0.33579115324593939 1 0.67320508075671459 0.53045230059073867 1 0.72724211050425436 0.39076805646176382 1 0.78019141325921404 0.49972466465542442 0.78019141325930785 0.45812322962173568 0.31024977578554058 1 0.51961524226934941 0.50000000000250611 1 0.59952339316492498 0.33579115324593939 1 0.49816183246753282 0.5307146639261795 0.75045686993209071 0.67320508075671459 0.53045230059073867 1 0.59952339316492498 0.33579115324593939 1 0.51961524226934941 0.50000000000250611 1 0.49816183246753282 0.5307146639261795 0.75045686993209071 0.59952339316492498 0.33579115324593939 1 0.50966790549576724 0.1627551561802443 1 0.45812322962173568 0.31024977578554058 1 0.50084626324420545 0.22238844715913 0.78084811589659187 0.50966790549576724 0.1627551561802443 1 0.70565701452089868 0.1912596090858541 1 0.69447607299129699 0 0.84099946107689361 0.50084626324420545 0.22238844715913 0.78084811589659187 0.68742751001967084 0.31250796680084852 0.687427510020161 0.50084626324420545 0.22238844715913 0.78084811589659187 0.69447607299129699 0 0.84099946107689361 0.81599560342209843 0.22280203704001911 0.81599560342233202 0.70565701452089868 0.1912596090858541 1 0.69447607299129699 0 0.84099946107689361 0.50084626324420545 0.22238844715913 0.78084811589659187 0.81599560342209843 0.22280203704001911 0.81599560342233202 0.70565701452089868 0.1912596090858541 1 0.50084626324420545 0.22238844715913 0.78084811589659187 0.59952339316492498 0.33579115324593939 1 0.81599560342209843 0.22280203704001911 0.81599560342233202 0.70565701452089868 0.1912596090858541 1 0.50966790549576724 0.1627551561802443 1 0.59952339316492498 0.33579115324593939 1 0.50084626324420545 0.22238844715913 0.78084811589659187 0.6002015905170176 0 0.67551889168744117 0.68742751001967084 0.31250796680084852 0.687427510020161 0.69447607299129699 0 0.84099946107689361 0.81599560342209843 0.22280203704001911 0.81599560342233202 0.69447607299129699 0 0.84099946107689361 0.6002015905170176 0 0.67551889168744117 0.49836539647917322 0 0.82773865802723501 0.50084626324420545 0.22238844715913 0.78084811589659187 0.69447607299129699 0 0.84099946107689361 0.49836539647917322 0 0.82773865802723501 0.50966790549576724 0.1627551561802443 1 0.50084626324420545 0.22238844715913 0.78084811589659187 0.60000000000138687 0 1 0.49836539647917322 0 0.82773865802723501 0.50966790549576724 0.1627551561802443 1 0.69447607299129699 0 0.84099946107689361 0.50966790549576724 0.1627551561802443 1 0.40000000000166441 0 1 0.49836539647917322 0 0.82773865802723501 0.60000000000138687 0 1 0.50966790549576724 0.1627551561802443 1 0.70565701452089868 0.1912596090858541 1 0.60000000000138687 0 1 0.69447607299129699 0 0.84099946107689361 0.70565701452089868 0.1912596090858541 1 0.60000000000138687 0 1 0.69447607299129699 0 0.84099946107689361 0.79999999999999982 0 1 0.6002015905170176 0 0.67551889168744117 0.69447607299129699 0 0.84099946107689361 0.81469961246449951 0 0.68914937826112133 0.81599560342209843 0.22280203704001911 0.81599560342233202 0.70565701452089868 0.1912596090858541 1 0.85358983848646974 0.14641016151341191 1 0.69447607299129699 0 0.84099946107689361 0.81599560342209843 0.22280203704001911 0.81599560342233202 0.85358983848646974 0.14641016151341191 1 0.70565701452089868 0.1912596090858541 1 0.85173693729199718 0.30007817960516198 1 0.81599560342209843 0.22280203704001911 0.81599560342233202 1 0.1912596090855686 0.70565701451953711 0.81469961246449951 0 0.68914937826112133 0.85358983848570524 0 0.85358983848556425 0.81599560342209843 0.22280203704001911 0.81599560342233202 0.69447607299129699 0 0.84099946107689361 0.85358983848570524 0 0.85358983848556425 0.81469961246449951 0 0.68914937826112133 0.81599560342209843 0.22280203704001911 0.81599560342233202 0.85358983848570524 0 0.85358983848556425 0.69447607299129699 0 0.84099946107689361 0.85358983848646974 0.14641016151341191 1 0.81599560342209843 0.22280203704001911 0.81599560342233202 0.79999999999999982 0 1 0.69447607299129699 0 0.84099946107689361 0.70565701452089868 0.1912596090858541 1 0.85358983848646974 0.14641016151341191 1 0.79999999999999982 0 1 0.85358983848570524 0 0.85358983848556425 0.69447607299129699 0 0.84099946107689361 0.85358983848646974 0.14641016151341191 1 1 0 1 1 0.14641016151333891 0.85358983848640169 0.85358983848570524 0 0.85358983848556425 0.85358983848646974 0.14641016151341191 1 0.79999999999999982 0 1 1 0 1 0.85358983848570524 0 0.85358983848556425 0.85358983848646974 0.14641016151341191 1 0.85358983848646974 0.14641016151341191 1 1 0 1 1 0.14641016151333891 0.85358983848640169 1 0.19999999999955789 1 0.85358983848570524 0 0.85358983848556425 1 0.14641016151333891 0.85358983848640169 1 0 1 1 0 0.79999999999947335 0.85358983848570524 0 0.85358983848556425 0.81469961246449951 0 0.68914937826112133 1 0.1912596090855686 0.70565701451953711 1 0 0.79999999999947335 1 0.1912596090855686 0.70565701451953711 1 0.14641016151333891 0.85358983848640169 0.85358983848570524 0 0.85358983848556425 1 0 0.79999999999947335 1 0.14641016151333891 0.85358983848640169 1 0.30007817960499339 0.85173693729139244 1 0.1912596090855686 0.70565701451953711 0.81599560342209843 0.22280203704001911 0.81599560342233202 1 0.1912596090855686 0.70565701451953711 0.85358983848570524 0 0.85358983848556425 1 0.14641016151333891 0.85358983848640169 0.81599560342209843 0.22280203704001911 0.81599560342233202 0.85358983848646974 0.14641016151341191 1 0.85173693729199718 0.30007817960516198 1 1 0.19999999999955789 1 0.81599560342209843 0.22280203704001911 0.81599560342233202 1 0.14641016151333891 0.85358983848640169 0.85358983848646974 0.14641016151341191 1 1 0.19999999999955789 1 0.81599560342209843 0.22280203704001911 0.81599560342233202 1 0.14641016151333891 0.85358983848640169 1 0.19999999999955789 1 1 0.30007817960499339 0.85173693729139244 0.81599560342209843 0.22280203704001911 0.81599560342233202 0.85358983848570524 0 0.85358983848556425 0.85358983848646974 0.14641016151341191 1 1 0.14641016151333891 0.85358983848640169 0.81599560342209843 0.22280203704001911 0.81599560342233202 1 0.19999999999955789 1 1 0.30007817960499339 0.85173693729139244 0.85173693729199718 0.30007817960516198 1 1 0.3999999999989749 1 1 0.19999999999955789 1 0.85173693729199718 0.30007817960516198 1 1 0.30007817960499339 0.85173693729139244 0.81599560342209843 0.22280203704001911 0.81599560342233202 1 0.30007817960499339 0.85173693729139244 0.85173693729199718 0.30007817960516198 1 0.78019141325921404 0.49972466465542442 0.78019141325930785 0.81599560342209843 0.22280203704001911 0.81599560342233202 0.68742751001967084 0.31250796680084852 0.687427510020161 0.78019141325921404 0.49972466465542442 0.78019141325930785 0.72724211050425436 0.39076805646176382 1 0.81599560342209843 0.22280203704001911 0.81599560342233202 1 0.39076805646076263 0.7272421105028648 1 0.30007817960499339 0.85173693729139244 0.78019141325921404 0.49972466465542442 0.78019141325930785 0.81599560342209843 0.22280203704001911 0.81599560342233202 0.85173693729199718 0.30007817960516198 1 0.72724211050425436 0.39076805646176382 1 0.78019141325921404 0.49972466465542442 0.78019141325930785 0.81599560342209843 0.22280203704001911 0.81599560342233202 1 0.39076805646076263 0.7272421105028648 0.78019141325921404 0.49972466465542442 0.78019141325930785 0.68742751001967084 0.31250796680084852 0.687427510020161 0.81599560342209843 0.22280203704001911 0.81599560342233202 0.85173693729199718 0.30007817960516198 1 1 0.30007817960499339 0.85173693729139244 1 0.48813836695007229 0.84191918937727617 1 0.3999999999989749 1 0.72724211050425436 0.39076805646176382 1 0.85173693729199718 0.30007817960516198 1 0.70565701452089868 0.1912596090858541 1 0.81599560342209843 0.22280203704001911 0.81599560342233202 1 0.1912596090855686 0.70565701451953711 1 0.30007817960499339 0.85173693729139244 1 0.39076805646076263 0.7272421105028648 0.81599560342209843 0.22280203704001911 0.81599560342233202 0.85173693729199718 0.30007817960516198 1 1 0.48813836695007229 0.84191918937727617 1 0.30007817960499339 0.85173693729139244 0.78019141325921404 0.49972466465542442 0.78019141325930785 1 0.30007817960499339 0.85173693729139244 1 0.48813836695007229 0.84191918937727617 1 0.39076805646076263 0.7272421105028648 0.78019141325921404 0.49972466465542442 0.78019141325930785 1 0.39076805646076263 0.7272421105028648 1 0.48813836695007229 0.84191918937727617 1 0.53045230059030524 0.6732050807565132 0.78019141325921404 0.49972466465542442 0.78019141325930785 0.72724211050425436 0.39076805646176382 1 0.67320508075671459 0.53045230059073867 1 0.84191918937756771 0.48813836695034618 1 0.78019141325921404 0.49972466465542442 0.78019141325930785 0.84191918937756771 0.48813836695034618 1 0.85173693729199718 0.30007817960516198 1 0.72724211050425436 0.39076805646176382 1 0.78019141325921404 0.49972466465542442 0.78019141325930785 0.84191918937756771 0.48813836695034618 1 1 0.48813836695007229 0.84191918937727617 0.85173693729199718 0.30007817960516198 1 0.78019141325921404 0.49972466465542442 0.78019141325930785 1 0.3999999999989749 1 1 0.48813836695007229 0.84191918937727617 0.84191918937756771 0.48813836695034618 1 1 0.59999999999894682 1 1 0.48813836695007229 0.84191918937727617 0.84191918937756771 0.48813836695034618 1 0.85173693729199718 0.30007817960516198 1 1 0.3999999999989749 1 0.80839867011861499 0.68192028468377774 1 0.78019141325921404 0.49972466465542442 0.78019141325930785 0.68649174659499257 0.68600703198516766 0.6864917465949647 0.77683220420328725 0.81278569633583353 0.81664766512111064 0.80839867011861499 0.68192028468377774 1 1 0.68192028468364885 0.80839867011854549 0.78019141325921404 0.49972466465542442 0.78019141325930785 0.77683220420328725 0.81278569633583353 0.81664766512111064 1 0.59999999999894682 1 1 0.48813836695007229 0.84191918937727617 0.84191918937756771 0.48813836695034618 1 1 0.68192028468364885 0.80839867011854549 0.68649174659499257 0.68600703198516766 0.6864917465949647 0.78019141325921404 0.49972466465542442 0.78019141325930785 1 0.68192028468364885 0.80839867011854549 0.77683220420328725 0.81278569633583353 0.81664766512111064 0.84191918937756771 0.48813836695034618 1 1 0.59999999999894682 1 1 0.68192028468364885 0.80839867011854549 0.80839867011861499 0.68192028468377774 1 1 0.59999999999894682 1 1 0.68192028468364885 0.80839867011854549 0.80839867011861499 0.68192028468377774 1 1 0.79999999999947335 1 0.84191918937756771 0.48813836695034618 1 0.67320508075671459 0.53045230059073867 1 0.80839867011861499 0.68192028468377774 1 0.78019141325921404 0.49972466465542442 0.78019141325930785 0.84191918937756771 0.48813836695034618 1 0.80839867011861499 0.68192028468377774 1 1 0.68192028468364885 0.80839867011854549 0.78019141325921404 0.49972466465542442 0.78019141325930785 1 0.68192028468364885 0.80839867011854549 1 0.53045230059030524 0.6732050807565132 1 0.48813836695007229 0.84191918937727617 0.78019141325921404 0.49972466465542442 0.78019141325930785 1 0.68192028468364885 0.80839867011854549 1 0.48813836695007229 0.84191918937727617 0.84191918937756771 0.48813836695034618 1 0.78019141325921404 0.49972466465542442 0.78019141325930785 1 0.67939035495490308 0.61016512164639347 0.78019141325921404 0.49972466465542442 0.78019141325930785 0.7504488434426726 0.53051757989633308 0.49836643074154852 1 0.53045230059030524 0.6732050807565132 1 0.67939035495490308 0.61016512164639347 0.7504488434426726 0.53051757989633308 0.49836643074154852 0.68649174659499257 0.68600703198516766 0.6864917465949647 0.77374673111774417 0.78860835645735528 0.49829081152968557 1 0.67939035495490308 0.61016512164639347 0.68649174659499257 0.68600703198516766 0.6864917465949647 1 0.83791821520125753 0.69361520514217179 0.77374673111774417 0.78860835645735528 0.49829081152968557 1 0.68192028468364885 0.80839867011854549 1 0.67939035495490308 0.61016512164639347 0.68649174659499257 0.68600703198516766 0.6864917465949647 0.77683220420328725 0.81278569633583353 0.81664766512111064 1 0.67939035495490308 0.61016512164639347 1 0.68975022421527898 0.45812322962078778 0.7504488434426726 0.53051757989633308 0.49836643074154852 0.77374673111774417 0.78860835645735528 0.49829081152968557 0.7504488434426726 0.53051757989633308 0.49836643074154852 0.78019141325921404 0.49972466465542442 0.78019141325930785 1 0.67939035495490308 0.61016512164639347 0.68649174659499257 0.68600703198516766 0.6864917465949647 1 0.68192028468364885 0.80839867011854549 0.68649174659499257 0.68600703198516766 0.6864917465949647 1 0.67939035495490308 0.61016512164639347 0.78019141325921404 0.49972466465542442 0.78019141325930785 1 0.53045230059030524 0.6732050807565132 1 0.68192028468364885 0.80839867011854549 1 0.67939035495490308 0.61016512164639347 0.78019141325921404 0.49972466465542442 0.78019141325930785 1 0.67939035495490308 0.61016512164639347 1 0.50000000000229983 0.51961524226898759 1 0.53045230059030524 0.6732050807565132 0.7504488434426726 0.53051757989633308 0.49836643074154852 1 0.67939035495490308 0.61016512164639347 1 0.68975022421527898 0.45812322962078778 1 0.50000000000229983 0.51961524226898759 0.7504488434426726 0.53051757989633308 0.49836643074154852 1 0.67939035495490308 0.61016512164639347 1 0.83630110503662825 0.50803330197135588 1 0.68975022421527898 0.45812322962078778 0.77374673111774417 0.78860835645735528 0.49829081152968557 1 0.83791821520125753 0.69361520514217179 0.77374673111774417 0.78860835645735528 0.49829081152968557 0.68649174659499257 0.68600703198516766 0.6864917465949647 0.77683220420328725 0.81278569633583353 0.81664766512111064 0.68649174659499257 0.68600703198516766 0.6864917465949647 0.77374673111774417 0.78860835645735528 0.49829081152968557 0.81346205468287114 1 0.68420958956387889 0.77683220420328725 0.81278569633583353 0.81664766512111064 1 0.83791821520125753 0.69361520514217179 0.68649174659499257 0.68600703198516766 0.6864917465949647 1 0.67939035495490308 0.61016512164639347 0.77683220420328725 0.81278569633583353 0.81664766512111064 1 0.68192028468364885 0.80839867011854549 1 0.83791821520125753 0.69361520514217179 1 0.67939035495490308 0.61016512164639347 0.77683220420328725 0.81278569633583353 0.81664766512111064 1 0.83791821520125753 0.69361520514217179 0.81346205468287114 1 0.68420958956387889 0.77374673111774417 0.78860835645735528 0.49829081152968557 0.77683220420328725 0.81278569633583353 0.81664766512111064 1 0.83630110503662825 0.50803330197135588 1 0.67939035495490308 0.61016512164639347 1 0.83791821520125753 0.69361520514217179 0.77374673111774417 0.78860835645735528 0.49829081152968557 1 0.83791821520125753 0.69361520514217179 0.86762395692956074 1 0.5060815484123421 1 0.83630110503662825 0.50803330197135588 0.77374673111774417 0.78860835645735528 0.49829081152968557 1 1 0.59999999999894682 1 0.83630110503662825 0.50803330197135588 1 0.83791821520125753 0.69361520514217179 0.86762395692956074 1 0.5060815484123421 0.86762395692956074 1 0.5060815484123421 1 1 0.59999999999894682 1 0.83630110503662825 0.50803330197135588 1 1 0.3999999999989749 1 0.83791821520125753 0.69361520514217179 0.81346205468287114 1 0.68420958956387889 1 1 0.59999999999894682 0.86762395692956074 1 0.5060815484123421 0.86762395692956074 1 0.5060815484123421 0.81346205468287114 1 0.68420958956387889 0.68240285647621723 1 0.52310058211166854 0.77374673111774417 0.78860835645735528 0.49829081152968557 0.81346205468287114 1 0.68420958956387889 0.86762395692956074 1 0.5060815484123421 1 0.83791821520125753 0.69361520514217179 0.77374673111774417 0.78860835645735528 0.49829081152968557 1 0.83791821520125753 0.69361520514217179 0.81346205468287114 1 0.68420958956387889 1 1 0.79999999999947335 1 1 0.59999999999894682 1 1 0.79999999999947335 0.85358983848569092 1 0.85358983848569092 0.81346205468287114 1 0.68420958956387889 1 0.83791821520125753 0.69361520514217179 0.85358983848569092 1 0.85358983848569092 1 0.83791821520125753 0.69361520514217179 1 0.85358983848587056 0.85358983848587056 0.77683220420328725 0.81278569633583353 0.81664766512111064 0.85358983848569092 1 0.85358983848569092 1 1 0.79999999999947335 1 0.85358983848587056 0.85358983848587056 1 0.83791821520125753 0.69361520514217179 0.85358983848587056 0.85358983848587056 1 1 1 1 1 0.79999999999947335 1 1 0.85358983848587056 0.85358983848587056 0.85358983848587056 0.85358983848587056 1 0.79999999999947335 1 1 1 1 1 0.85358983848569092 1 0.85358983848569092 1 1 0.79999999999947335 1 0.85358983848587056 0.85358983848587056 1 1 1 0.85358983848569092 1 0.85358983848569092 1 0.85358983848587056 0.85358983848587056 0.85358983848587056 0.85358983848587056 1 1 1 1 0.85358983848569092 1 0.85358983848569092 0.85358983848587056 0.85358983848587056 1 1 0.79999999999947335 1 1 0.68192028468364885 0.80839867011854549 1 0.85358983848587056 0.85358983848587056 1 0.79999999999947335 1 1 0.68192028468364885 0.80839867011854549 0.80839867011861499 0.68192028468377774 1 0.85358983848587056 0.85358983848587056 1 0.85358983848587056 0.85358983848587056 1 1 0.85358983848587056 0.85358983848587056 1 0.68192028468364885 0.80839867011854549 0.77683220420328725 0.81278569633583353 0.81664766512111064 1 0.68192028468364885 0.80839867011854549 1 0.85358983848587056 0.85358983848587056 1 0.83791821520125753 0.69361520514217179 0.77683220420328725 0.81278569633583353 0.81664766512111064 0.69361520514218133 0.83791821520130205 1 0.85358983848587056 0.85358983848587056 1 0.80839867011861499 0.68192028468377774 1 0.77683220420328725 0.81278569633583353 0.81664766512111064 0.80839867011861499 0.68192028468377774 1 0.85358983848587056 0.85358983848587056 1 1 0.68192028468364885 0.80839867011854549 0.77683220420328725 0.81278569633583353 0.81664766512111064 0.85358983848587056 0.85358983848587056 1 0.79999999999947335 1 1 0.85358983848569092 1 0.85358983848569092 0.77683220420328725 0.81278569633583353 0.81664766512111064 0.69981550660938663 1 0.83057691269844081 0.85358983848569092 1 0.85358983848569092 0.79999999999947335 1 1 0.77683220420328725 0.81278569633583353 0.81664766512111064 0.85358983848587056 0.85358983848587056 1 0.69361520514218133 0.83791821520130205 1 0.79999999999947335 1 1 0.77683220420328725 0.81278569633583353 0.81664766512111064 1 0.85358983848587056 0.85358983848587056 0.85358983848587056 0.85358983848587056 1 0.85358983848569092 1 0.85358983848569092 0.77683220420328725 0.81278569633583353 0.81664766512111064 0.85358983848569092 1 0.85358983848569092 0.69981550660938663 1 0.83057691269844081 0.81346205468287114 1 0.68420958956387889 0.77683220420328725 0.81278569633583353 0.81664766512111064 0.81346205468287114 1 0.68420958956387889 1 0.83791821520125753 0.69361520514217179 0.85358983848569092 1 0.85358983848569092 0.77683220420328725 0.81278569633583353 0.81664766512111064 0.69361520514218133 0.83791821520130205 1 0.49911199724958061 0.77872228561593948 0.77895350115271889 0.69981550660938663 1 0.83057691269844081 0.77683220420328725 0.81278569633583353 0.81664766512111064 0.69361520514218133 0.83791821520130205 1 0.61016512164652226 0.67939035495506384 1 0.49911199724958061 0.77872228561593948 0.77895350115271889 0.77683220420328725 0.81278569633583353 0.81664766512111064 0.81346205468287114 1 0.68420958956387889 0.69981550660938663 1 0.83057691269844081 0.6123333432449789 1 0.67837347745467769 0.77683220420328725 0.81278569633583353 0.81664766512111064 0.6123333432449789 1 0.67837347745467769 0.69981550660938663 1 0.83057691269844081 0.49911199724958061 0.77872228561593948 0.77895350115271889 0.77683220420328725 0.81278569633583353 0.81664766512111064 0.69361520514218133 0.83791821520130205 1 0.69981550660938663 1 0.83057691269844081 0.79999999999947335 1 1 0.77683220420328725 0.81278569633583353 0.81664766512111064 0.50970031073508926 1 0.83534964916803001 0.59999999999894682 1 1 0.69361520514218133 0.83791821520130205 1 0.69981550660938663 1 0.83057691269844081 0.69981550660938663 1 0.83057691269844081 0.59999999999894682 1 1 0.69361520514218133 0.83791821520130205 1 0.79999999999947335 1 1 0.80839867011861499 0.68192028468377774 1 0.61016512164652226 0.67939035495506384 1 0.69361520514218133 0.83791821520130205 1 0.77683220420328725 0.81278569633583353 0.81664766512111064 0.50803330197137353 0.83630110503667787 1 0.69361520514218133 0.83791821520130205 1 0.61016512164652226 0.67939035495506384 1 0.49911199724958061 0.77872228561593948 0.77895350115271889 0.50803330197137353 0.83630110503667787 1 0.50970031073508926 1 0.83534964916803001 0.69361520514218133 0.83791821520130205 1 0.49911199724958061 0.77872228561593948 0.77895350115271889 0.59999999999894682 1 1 0.50803330197137353 0.83630110503667787 1 0.3999999999989749 1 1 0.50970031073508926 1 0.83534964916803001 0.69361520514218133 0.83791821520130205 1 0.50803330197137353 0.83630110503667787 1 0.59999999999894682 1 1 0.50970031073508926 1 0.83534964916803001 0.69361520514218133 0.83791821520130205 1 0.50970031073508926 1 0.83534964916803001 0.69981550660938663 1 0.83057691269844081 0.49911199724958061 0.77872228561593948 0.77895350115271889 0.50970031073508926 1 0.83534964916803001 0.6123333432449789 1 0.67837347745467769 0.69981550660938663 1 0.83057691269844081 0.49911199724958061 0.77872228561593948 0.77895350115271889 0.6123333432449789 1 0.67837347745467769 0.49983993748706529 0.75039103705932653 0.52967335724801234 0.68649174659499257 0.68600703198516766 0.6864917465949647 0.49911199724958061 0.77872228561593948 0.77895350115271889 0.6123333432449789 1 0.67837347745467769 0.49983993748706529 0.75039103705932653 0.52967335724801234 0.68240285647621723 1 0.52310058211166854 0.77374673111774417 0.78860835645735528 0.49829081152968557 0.6123333432449789 1 0.67837347745467769 0.45820186441573879 1 0.68969697123405882 0.49983993748706529 0.75039103705932653 0.52967335724801234 0.49911199724958061 0.77872228561593948 0.77895350115271889 0.45820186441573879 1 0.68969697123405882 0.6123333432449789 1 0.67837347745467769 0.50970031073508926 1 0.83534964916803001 0.49911199724958061 0.77872228561593948 0.77895350115271889 0.6123333432449789 1 0.67837347745467769 0.68649174659499257 0.68600703198516766 0.6864917465949647 0.49983993748706529 0.75039103705932653 0.52967335724801234 0.77374673111774417 0.78860835645735528 0.49829081152968557 0.81346205468287114 1 0.68420958956387889 0.6123333432449789 1 0.67837347745467769 0.68649174659499257 0.68600703198516766 0.6864917465949647 0.77683220420328725 0.81278569633583353 0.81664766512111064 0.6123333432449789 1 0.67837347745467769 0.49911199724958061 0.77872228561593948 0.77895350115271889 0.68649174659499257 0.68600703198516766 0.6864917465949647 0.77683220420328725 0.81278569633583353 0.81664766512111064 0.81346205468287114 1 0.68420958956387889 0.68649174659499257 0.68600703198516766 0.6864917465949647 0.6123333432449789 1 0.67837347745467769 0.77374673111774417 0.78860835645735528 0.49829081152968557 0.81346205468287114 1 0.68420958956387889 0.6123333432449789 1 0.67837347745467769 0.68240285647621723 1 0.52310058211166854 0.77374673111774417 0.78860835645735528 0.49829081152968557 0.6123333432449789 1 0.67837347745467769 0.45820186441573879 1 0.68969697123405882 0.51961524227008238 1 0.49999999999872219 0.49983993748706529 0.75039103705932653 0.52967335724801234 0.6123333432449789 1 0.67837347745467769 0.51961524227008238 1 0.49999999999872219 0.68240285647621723 1 0.52310058211166854 0.49983993748706529 0.75039103705932653 0.52967335724801234 0.68649174659499257 0.68600703198516766 0.6864917465949647 0.49983993748706529 0.75039103705932653 0.52967335724801234 0.49816183246753282 0.5307146639261795 0.75045686993209071 0.49911199724958061 0.77872228561593948 0.77895350115271889 0.68649174659499257 0.68600703198516766 0.6864917465949647 0.50000000000001332 0.49999999999999561 0.49999999999999561 0.7504488434426726 0.53051757989633308 0.49836643074154852 0.49816183246753282 0.5307146639261795 0.75045686993209071 0.68649174659499257 0.68600703198516766 0.6864917465949647 0.49816183246753282 0.5307146639261795 0.75045686993209071 0.7504488434426726 0.53051757989633308 0.49836643074154852 0.78019141325921404 0.49972466465542442 0.78019141325930785 0.50000000000001332 0.49999999999999561 0.49999999999999561 0.68649174659499257 0.68600703198516766 0.6864917465949647 0.7504488434426726 0.53051757989633308 0.49836643074154852 0.49983993748706529 0.75039103705932653 0.52967335724801234 0.7504488434426726 0.53051757989633308 0.49836643074154852 0.49983993748706529 0.75039103705932653 0.52967335724801234 0.68649174659499257 0.68600703198516766 0.6864917465949647 0.77374673111774417 0.78860835645735528 0.49829081152968557 0.68649174659499257 0.68600703198516766 0.6864917465949647 0.50000000000001332 0.49999999999999561 0.49999999999999561 0.49816183246753282 0.5307146639261795 0.75045686993209071 0.49983993748706529 0.75039103705932653 0.52967335724801234 0.78019141325921404 0.49972466465542442 0.78019141325930785 0.61016512164652226 0.67939035495506384 1 0.49816183246753282 0.5307146639261795 0.75045686993209071 0.67320508075671459 0.53045230059073867 1 0.78019141325921404 0.49972466465542442 0.78019141325930785 0.49816183246753282 0.5307146639261795 0.75045686993209071 0.61016512164652226 0.67939035495506384 1 0.68649174659499257 0.68600703198516766 0.6864917465949647 0.61016512164652226 0.67939035495506384 1 0.68649174659499257 0.68600703198516766 0.6864917465949647 0.80839867011861499 0.68192028468377774 1 0.78019141325921404 0.49972466465542442 0.78019141325930785 0.68649174659499257 0.68600703198516766 0.6864917465949647 0.49911199724958061 0.77872228561593948 0.77895350115271889 0.61016512164652226 0.67939035495506384 1 0.77683220420328725 0.81278569633583353 0.81664766512111064 0.68649174659499257 0.68600703198516766 0.6864917465949647 0.49816183246753282 0.5307146639261795 0.75045686993209071 0.61016512164652226 0.67939035495506384 1 0.49911199724958061 0.77872228561593948 0.77895350115271889 0.80839867011861499 0.68192028468377774 1 0.68649174659499257 0.68600703198516766 0.6864917465949647 0.61016512164652226 0.67939035495506384 1 0.77683220420328725 0.81278569633583353 0.81664766512111064 0.67320508075671459 0.53045230059073867 1 0.61016512164652226 0.67939035495506384 1 0.80839867011861499 0.68192028468377774 1 0.78019141325921404 0.49972466465542442 0.78019141325930785 0.45812322962090041 0.68975022421538157 1 0.61016512164652226 0.67939035495506384 1 0.49816183246753282 0.5307146639261795 0.75045686993209071 0.49911199724958061 0.77872228561593948 0.77895350115271889 0.50803330197137353 0.83630110503667787 1 0.61016512164652226 0.67939035495506384 1 0.45812322962090041 0.68975022421538157 1 0.49911199724958061 0.77872228561593948 0.77895350115271889 0.51961524226934941 0.50000000000250611 1 0.45812322962090041 0.68975022421538157 1 0.61016512164652226 0.67939035495506384 1 0.49816183246753282 0.5307146639261795 0.75045686993209071 0.67320508075671459 0.53045230059073867 1 0.51961524226934941 0.50000000000250611 1 0.61016512164652226 0.67939035495506384 1 0.49816183246753282 0.5307146639261795 0.75045686993209071 0.3115891413135391 0.68758981780459771 0.68521708032990558 0.2184393375098648 0.50004596894495223 0.77634962490704662 0.32446581821293602 0.60020898676440626 1 0.18453958615733529 0.77655623474864555 0.81613222483915937 0.32925244736146098 0.39615100178034629 1 0.32446581821293602 0.60020898676440626 1 0.51961524226934941 0.50000000000250611 1 0.49816183246753282 0.5307146639261795 0.75045686993209071 0.45812322962090041 0.68975022421538157 1 0.3115891413135391 0.68758981780459771 0.68521708032990558 0.31067093462947892 0.81480288849497895 1 0.49911199724958061 0.77872228561593948 0.77895350115271889 0.32925244736146098 0.39615100178034629 1 0.32446581821293602 0.60020898676440626 1 0.49816183246753282 0.5307146639261795 0.75045686993209071 0.2184393375098648 0.50004596894495223 0.77634962490704662 0.45812322962090041 0.68975022421538157 1 0.49816183246753282 0.5307146639261795 0.75045686993209071 0.3115891413135391 0.68758981780459771 0.68521708032990558 0.49911199724958061 0.77872228561593948 0.77895350115271889 0.32446581821293602 0.60020898676440626 1 0.3115891413135391 0.68758981780459771 0.68521708032990558 0.49816183246753282 0.5307146639261795 0.75045686993209071 0.2184393375098648 0.50004596894495223 0.77634962490704662 0.45812322962090041 0.68975022421538157 1 0.51961524226934941 0.50000000000250611 1 0.32446581821293602 0.60020898676440626 1 0.49816183246753282 0.5307146639261795 0.75045686993209071 0.31067093462947892 0.81480288849497895 1 0.45812322962090041 0.68975022421538157 1 0.32446581821293602 0.60020898676440626 1 0.3115891413135391 0.68758981780459771 0.68521708032990558 0.45812322962090041 0.68975022421538157 1 0.32446581821293602 0.60020898676440626 1 0.3115891413135391 0.68758981780459771 0.68521708032990558 0.49816183246753282 0.5307146639261795 0.75045686993209071 0.32446581821293602 0.60020898676440626 1 0.31067093462947892 0.81480288849497895 1 0.3115891413135391 0.68758981780459771 0.68521708032990558 0.18453958615733529 0.77655623474864555 0.81613222483915937 0.3115891413135391 0.68758981780459771 0.68521708032990558 0.50000000000001332 0.49999999999999561 0.49999999999999561 0.24769234054476261 0.52242103280823293 0.45098450226372488 0.49983993748706529 0.75039103705932653 0.52967335724801234 0.3115891413135391 0.68758981780459771 0.68521708032990558 0.49816183246753282 0.5307146639261795 0.75045686993209071 0.50000000000001332 0.49999999999999561 0.49999999999999561 0.49983993748706529 0.75039103705932653 0.52967335724801234 0.3115891413135391 0.68758981780459771 0.68521708032990558 0.49983993748706529 0.75039103705932653 0.52967335724801234 0.24769234054476261 0.52242103280823293 0.45098450226372488 0.22516916914780419 0.77057994845201627 0.48187244075707292 0.50000000000001332 0.49999999999999561 0.49999999999999561 0.3115891413135391 0.68758981780459771 0.68521708032990558 0.24769234054476261 0.52242103280823293 0.45098450226372488 0.2184393375098648 0.50004596894495223 0.77634962490704662 0.3115891413135391 0.68758981780459771 0.68521708032990558 0.50000000000001332 0.49999999999999561 0.49999999999999561 0.49816183246753282 0.5307146639261795 0.75045686993209071 0.2184393375098648 0.50004596894495223 0.77634962490704662 0.49816183246753282 0.5307146639261795 0.75045686993209071 0.49983993748706529 0.75039103705932653 0.52967335724801234 0.3115891413135391 0.68758981780459771 0.68521708032990558 0.49911199724958061 0.77872228561593948 0.77895350115271889 0.32448110831226962 1 0.6002015905153204 0.45820186441573879 1 0.68969697123405882 0.3115891413135391 0.68758981780459771 0.68521708032990558 0.49983993748706529 0.75039103705932653 0.52967335724801234 0.45820186441573879 1 0.68969697123405882 0.31085062173747541 1 0.81469961246428202 0.32448110831226962 1 0.6002015905153204 0.3115891413135391 0.68758981780459771 0.68521708032990558 0.45820186441573879 1 0.68969697123405882 0.3115891413135391 0.68758981780459771 0.68521708032990558 0.49983993748706529 0.75039103705932653 0.52967335724801234 0.49911199724958061 0.77872228561593948 0.77895350115271889 0.32448110831226962 1 0.6002015905153204 0.3115891413135391 0.68758981780459771 0.68521708032990558 0.31085062173747541 1 0.81469961246428202 0.18453958615733529 0.77655623474864555 0.81613222483915937 0.32448110831226962 1 0.6002015905153204 0.49983993748706529 0.75039103705932653 0.52967335724801234 0.3115891413135391 0.68758981780459771 0.68521708032990558 0.22516916914780419 0.77057994845201627 0.48187244075707292 0.45820186441573879 1 0.68969697123405882 0.31085062173747541 1 0.81469961246428202 0.3115891413135391 0.68758981780459771 0.68521708032990558 0.49911199724958061 0.77872228561593948 0.77895350115271889 0.32926555316115258 1 0.39615987727515128 0.49983993748706529 0.75039103705932653 0.52967335724801234 0.32448110831226962 1 0.6002015905153204 0.22516916914780419 0.77057994845201627 0.48187244075707292 0.32448110831226962 1 0.6002015905153204 0.3115891413135391 0.68758981780459771 0.68521708032990558 0.15900053892265181 1 0.69447607299016312 0.22516916914780419 0.77057994845201627 0.48187244075707292 0.32926555316115258 1 0.39615987727515128 0.51961524227008238 1 0.49999999999872219 0.32448110831226962 1 0.6002015905153204 0.49983993748706529 0.75039103705932653 0.52967335724801234 0.32448110831226962 1 0.6002015905153204 0.51961524227008238 1 0.49999999999872219 0.45820186441573879 1 0.68969697123405882 0.49983993748706529 0.75039103705932653 0.52967335724801234 0.45820186441573879 1 0.68969697123405882 0.50970031073508926 1 0.83534964916803001 0.31085062173747541 1 0.81469961246428202 0.49911199724958061 0.77872228561593948 0.77895350115271889 0.31085062173747541 1 0.81469961246428202 0.49911199724958061 0.77872228561593948 0.77895350115271889 0.31067093462947892 0.81480288849497895 1 0.18453958615733529 0.77655623474864555 0.81613222483915937 0.31085062173747541 1 0.81469961246428202 0.3115891413135391 0.68758981780459771 0.68521708032990558 0.49911199724958061 0.77872228561593948 0.77895350115271889 0.18453958615733529 0.77655623474864555 0.81613222483915937 0.50803330197137353 0.83630110503667787 1 0.31085062173747541 1 0.81469961246428202 0.50970031073508926 1 0.83534964916803001 0.49911199724958061 0.77872228561593948 0.77895350115271889 0.31067093462947892 0.81480288849497895 1 0.49911199724958061 0.77872228561593948 0.77895350115271889 0.3115891413135391 0.68758981780459771 0.68521708032990558 0.18453958615733529 0.77655623474864555 0.81613222483915937 0.31085062173747541 1 0.81469961246428202 0.3999999999989749 1 1 0.50803330197137353 0.83630110503667787 1 0.50970031073508926 1 0.83534964916803001 0.31085062173747541 1 0.81469961246428202 0.3999999999989749 1 1 0.31067093462947892 0.81480288849497895 1 0.50803330197137353 0.83630110503667787 1 0.31085062173747541 1 0.81469961246428202 0.50803330197137353 0.83630110503667787 1 0.31067093462947892 0.81480288849497895 1 0.49911199724958061 0.77872228561593948 0.77895350115271889 0.45812322962090041 0.68975022421538157 1 0.31067093462947892 0.81480288849497895 1 0.50803330197137353 0.83630110503667787 1 0.49911199724958061 0.77872228561593948 0.77895350115271889 0.3999999999989749 1 1 0.19999999999955789 1 1 0.31085062173747541 1 0.81469961246428202 0.31067093462947892 0.81480288849497895 1 0.15900053892265181 1 0.69447607299016312 0.31085062173747541 1 0.81469961246428202 0.1464101615132356 1 0.85358983848650494 0.18453958615733529 0.77655623474864555 0.81613222483915937 0.31085062173747541 1 0.81469961246428202 0.31067093462947892 0.81480288849497895 1 0.1464101615132356 1 0.85358983848650494 0.18453958615733529 0.77655623474864555 0.81613222483915937 0.31085062173747541 1 0.81469961246428202 0.19999999999955789 1 1 0.1464101615132356 1 0.85358983848650494 0.31067093462947892 0.81480288849497895 1 0.14641016151332509 0.85358983848655678 1 0.1464101615132356 1 0.85358983848650494 0.19999999999955789 1 1 0.31067093462947892 0.81480288849497895 1 0.31067093462947892 0.81480288849497895 1 0.15896804272141651 0.69449451837104537 1 0.14641016151332509 0.85358983848655678 1 0.18453958615733529 0.77655623474864555 0.81613222483915937 0.14641016151332509 0.85358983848655678 1 0.1464101615132356 1 0.85358983848650494 0.31067093462947892 0.81480288849497895 1 0.18453958615733529 0.77655623474864555 0.81613222483915937 0 0.85358983848682146 0.85358983848668035 0 0.69992182039579531 0.85173693729137989 0 0.80860557108920617 0.70542349973054763 0.18453958615733529 0.77655623474864555 0.81613222483915937 0.15900053892265181 1 0.69447607299016312 0 0.85358983848682146 0.85358983848668035 0 0.80860557108920617 0.70542349973054763 0.18453958615733529 0.77655623474864555 0.81613222483915937 0.18453958615733529 0.77655623474864555 0.81613222483915937 0 0.79999999999999982 1 0.15896804272141651 0.69449451837104537 1 0.14641016151332509 0.85358983848655678 1 0.1464101615132356 1 0.85358983848650494 0.14641016151332509 0.85358983848655678 1 0 0.85358983848682146 0.85358983848668035 0.18453958615733529 0.77655623474864555 0.81613222483915937 0 0.85358983848682146 0.85358983848668035 0 0.79999999999999982 1 0 0.69992182039579531 0.85173693729137989 0.18453958615733529 0.77655623474864555 0.81613222483915937 0 0.85358983848682146 0.85358983848668035 0.14641016151332509 0.85358983848655678 1 0 0.79999999999999982 1 0.18453958615733529 0.77655623474864555 0.81613222483915937 0 1 1 0 0.85358983848682146 0.85358983848668035 0.14641016151332509 0.85358983848655678 1 0 0.79999999999999982 1 0 0.85358983848682146 0.85358983848668035 0.1464101615132356 1 0.85358983848650494 0 1 1 0.14641016151332509 0.85358983848655678 1 0.19999999999955789 1 1 0 1 1 0.1464101615132356 1 0.85358983848650494 0.14641016151332509 0.85358983848655678 1 0.1464101615132356 1 0.85358983848650494 0 1 1 0 1 0.79999999999947335 0 0.85358983848682146 0.85358983848668035 0.1464101615132356 1 0.85358983848650494 0 0.85358983848682146 0.85358983848668035 0.15900053892265181 1 0.69447607299016312 0.18453958615733529 0.77655623474864555 0.81613222483915937 0.15900053892265181 1 0.69447607299016312 0 1 0.79999999999947335 0 0.80860557108920617 0.70542349973054763 0 0.85358983848682146 0.85358983848668035 0 1 0.79999999999947335 0.15900053892265181 1 0.69447607299016312 0.1464101615132356 1 0.85358983848650494 0 0.85358983848682146 0.85358983848668035 0 0.80860557108920617 0.70542349973054763 0 1 0.59999999999894682 0 1 0.79999999999947335 0.15900053892265181 1 0.69447607299016312 0.3115891413135391 0.68758981780459771 0.68521708032990558 0.22516916914780419 0.77057994845201627 0.48187244075707292 0 0.80860557108920617 0.70542349973054763 0.18453958615733529 0.77655623474864555 0.81613222483915937 0 0.80860557108920617 0.70542349973054763 0 0.83630110503664845 0.50803330197135654 0 1 0.59999999999894682 0.15900053892265181 1 0.69447607299016312 0.15900053892265181 1 0.69447607299016312 0.3115891413135391 0.68758981780459771 0.68521708032990558 0.32448110831226962 1 0.6002015905153204 0.18453958615733529 0.77655623474864555 0.81613222483915937 0.15900053892265181 1 0.69447607299016312 0.22516916914780419 0.77057994845201627 0.48187244075707292 0.3115891413135391 0.68758981780459771 0.68521708032990558 0.18453958615733529 0.77655623474864555 0.81613222483915937 0.15900053892265181 1 0.69447607299016312 0 0.80860557108920617 0.70542349973054763 0.22516916914780419 0.77057994845201627 0.48187244075707292 0.18453958615733529 0.77655623474864555 0.81613222483915937 0.15900053892265181 1 0.69447607299016312 0.32448110831226962 1 0.6002015905153204 0.31085062173747541 1 0.81469961246428202 0.18453958615733529 0.77655623474864555 0.81613222483915937 0.32448110831226962 1 0.6002015905153204 0.15900053892265181 1 0.69447607299016312 0.17226134197293 1 0.49836539647645101 0.22516916914780419 0.77057994845201627 0.48187244075707292 0 0.83630110503664845 0.50803330197135654 0.17226134197293 1 0.49836539647645101 0.15900053892265181 1 0.69447607299016312 0.22516916914780419 0.77057994845201627 0.48187244075707292 0 1 0.59999999999894682 0 1 0.3999999999989749 0.17226134197293 1 0.49836539647645101 0 0.83630110503664845 0.50803330197135654 0 0.83630110503664845 0.50803330197135654 0.17226134197293 1 0.49836539647645101 0 1 0.59999999999894682 0.15900053892265181 1 0.69447607299016312 0 0.83630110503664845 0.50803330197135654 0.15900053892265181 1 0.69447607299016312 0 0.80860557108920617 0.70542349973054763 0.22516916914780419 0.77057994845201627 0.48187244075707292 0 0.66416205381430016 0.59944234540882957 0 0.83630110503664845 0.50803330197135654 0 0.80860557108920617 0.70542349973054763 0.22516916914780419 0.77057994845201627 0.48187244075707292 0 0.66416205381430016 0.59944234540882957 0 0.80860557108920617 0.70542349973054763 0.3115891413135391 0.68758981780459771 0.68521708032990558 0.22516916914780419 0.77057994845201627 0.48187244075707292 0 0.66416205381430016 0.59944234540882957 0.3115891413135391 0.68758981780459771 0.68521708032990558 0 0.80860557108920617 0.70542349973054763 0.18453958615733529 0.77655623474864555 0.81613222483915937 0 0.66416205381430016 0.59944234540882957 0 0.80860557108920617 0.70542349973054763 0 0.60922248848335758 0.72722573386012812 0.18453958615733529 0.77655623474864555 0.81613222483915937 0 0.66416205381430016 0.59944234540882957 0.24769234054476261 0.52242103280823293 0.45098450226372488 0.3115891413135391 0.68758981780459771 0.68521708032990558 0.2184393375098648 0.50004596894495223 0.77634962490704662 0 0.66416205381430016 0.59944234540882957 0 0.60922248848335758 0.72722573386012812 0.3115891413135391 0.68758981780459771 0.68521708032990558 0.18453958615733529 0.77655623474864555 0.81613222483915937 0 0.66416205381430016 0.59944234540882957 0 0.46954769941369501 0.67320508075638175 0 0.50000000000237477 0.51961524226909872 0.2184393375098648 0.50004596894495223 0.77634962490704662 0 0.60922248848335758 0.72722573386012812 0 0.66416205381430016 0.59944234540882957 0.3115891413135391 0.68758981780459771 0.68521708032990558 0.2184393375098648 0.50004596894495223 0.77634962490704662 0 0.66416205381430016 0.59944234540882957 0.3115891413135391 0.68758981780459771 0.68521708032990558 0.24769234054476261 0.52242103280823293 0.45098450226372488 0.22516916914780419 0.77057994845201627 0.48187244075707292 0 0.66416205381430016 0.59944234540882957 0 0.50000000000237477 0.51961524226909872 0.24769234054476261 0.52242103280823293 0.45098450226372488 0.2184393375098648 0.50004596894495223 0.77634962490704662 0 0.68801781652248195 0.45664527743358641 0 0.83630110503664845 0.50803330197135654 0 0.66416205381430016 0.59944234540882957 0.22516916914780419 0.77057994845201627 0.48187244075707292 0 0.66416205381430016 0.59944234540882957 0 0.50000000000237477 0.51961524226909872 0 0.68801781652248195 0.45664527743358641 0.24769234054476261 0.52242103280823293 0.45098450226372488 0 0.60922248848335758 0.72722573386012812 0 0.46954769941369501 0.67320508075638175 0 0.66416205381430016 0.59944234540882957 0.2184393375098648 0.50004596894495223 0.77634962490704662 0 0.5118616330515301 0.84191918937737908 0 0.69992182039579531 0.85173693729137989 0.15896804272141651 0.69449451837104537 1 0.2184393375098648 0.50004596894495223 0.77634962490704662 0 0.60922248848335758 0.72722573386012812 0.2184393375098648 0.50004596894495223 0.77634962490704662 0.3115891413135391 0.68758981780459771 0.68521708032990558 0.18453958615733529 0.77655623474864555 0.81613222483915937 0.15896804272141651 0.69449451837104537 1 0.2184393375098648 0.50004596894495223 0.77634962490704662 0 0.69992182039579531 0.85173693729137989 0.18453958615733529 0.77655623474864555 0.81613222483915937 0 0.5118616330515301 0.84191918937737908 0 0.46954769941369501 0.67320508075638175 0 0.60922248848335758 0.72722573386012812 0.2184393375098648 0.50004596894495223 0.77634962490704662 0 0.5118616330515301 0.84191918937737908 0 0.60922248848335758 0.72722573386012812 0 0.69992182039579531 0.85173693729137989 0.2184393375098648 0.50004596894495223 0.77634962490704662 0.15896804272141651 0.69449451837104537 1 0.32446581821293602 0.60020898676440626 1 0.2184393375098648 0.50004596894495223 0.77634962490704662 0.18453958615733529 0.77655623474864555 0.81613222483915937 0 0.60922248848335758 0.72722573386012812 0 0.69992182039579531 0.85173693729137989 0.2184393375098648 0.50004596894495223 0.77634962490704662 0.18453958615733529 0.77655623474864555 0.81613222483915937 0 0.80860557108920617 0.70542349973054763 0 0.69992182039579531 0.85173693729137989 0 0.60922248848335758 0.72722573386012812 0.18453958615733529 0.77655623474864555 0.81613222483915937 0.15896804272141651 0.69449451837104537 1 0.32446581821293602 0.60020898676440626 1 0.17226134197275911 0.49836539647894412 1 0.2184393375098648 0.50004596894495223 0.77634962490704662 0.15896804272141651 0.69449451837104537 1 0.17226134197275911 0.49836539647894412 1 0 0.5118616330515301 0.84191918937737908 0.2184393375098648 0.50004596894495223 0.77634962490704662 0.32446581821293602 0.60020898676440626 1 0.15896804272141651 0.69449451837104537 1 0.31067093462947892 0.81480288849497895 1 0.18453958615733529 0.77655623474864555 0.81613222483915937 0.18453958615733529 0.77655623474864555 0.81613222483915937 0.15896804272141651 0.69449451837104537 1 0 0.79999999999999982 1 0 0.69992182039579531 0.85173693729137989 0 0.69992182039579531 0.85173693729137989 0 0.5118616330515301 0.84191918937737908 0.15896804272141651 0.69449451837104537 1 0 0.60000000000138687 1 0.15896804272141651 0.69449451837104537 1 0 0.79999999999999982 1 0 0.69992182039579531 0.85173693729137989 0 0.60000000000138687 1 0 0.60000000000138687 1 0 0.5118616330515301 0.84191918937737908 0.15896804272141651 0.69449451837104537 1 0.17226134197275911 0.49836539647894412 1 0 0.5118616330515301 0.84191918937737908 0 0.60000000000138687 1 0 0.40000000000166441 1 0.17226134197275911 0.49836539647894412 1 0.17226134197275911 0.49836539647894412 1 0 0.40000000000166441 1 0 0.5118616330515301 0.84191918937737908 0 0.31807971531776508 0.80839867011913336 0 0.40000000000166441 1 0.17226134197275911 0.49836539647894412 1 0.16929708765653109 0.30074819035870082 1 0 0.31807971531776508 0.80839867011913336 0 0.14641016151490169 0.85358983848532144 0 0.31807971531776508 0.80839867011913336 0.16929708765653109 0.30074819035870082 1 0.31426750628021272 0.31270343261798911 0.68761148188185484 0.16929708765653109 0.30074819035870082 1 0.31426750628021272 0.31270343261798911 0.68761148188185484 0 0.31807971531776508 0.80839867011913336 0.2184393375098648 0.50004596894495223 0.77634962490704662 0 0.5118616330515301 0.84191918937737908 0 0.31807971531776508 0.80839867011913336 0 0.46954769941369501 0.67320508075638175 0.2184393375098648 0.50004596894495223 0.77634962490704662 0 0.5118616330515301 0.84191918937737908 0.17226134197275911 0.49836539647894412 1 0 0.31807971531776508 0.80839867011913336 0.2184393375098648 0.50004596894495223 0.77634962490704662 0 0.31807971531776508 0.80839867011913336 0.16929708765653109 0.30074819035870082 1 0 0.40000000000166441 1 0 0.20000000000083221 1 0.17226134197275911 0.49836539647894412 1 0.32925244736146098 0.39615100178034629 1 0.16929708765653109 0.30074819035870082 1 0.2184393375098648 0.50004596894495223 0.77634962490704662 0.17226134197275911 0.49836539647894412 1 0.16929708765653109 0.30074819035870082 1 0 0.31807971531776508 0.80839867011913336 0.2184393375098648 0.50004596894495223 0.77634962490704662 0.31610726166461628 0.1880448979455934 1 0.16929708765653109 0.30074819035870082 1 0.32925244736146098 0.39615100178034629 1 0.31426750628021272 0.31270343261798911 0.68761148188185484 0.32446581821293602 0.60020898676440626 1 0.32925244736146098 0.39615100178034629 1 0.17226134197275911 0.49836539647894412 1 0.2184393375098648 0.50004596894495223 0.77634962490704662 0.45812322962173568 0.31024977578554058 1 0.31426750628021272 0.31270343261798911 0.68761148188185484 0.49816183246753282 0.5307146639261795 0.75045686993209071 0.50084626324420545 0.22238844715913 0.78084811589659187 0.32925244736146098 0.39615100178034629 1 0.49816183246753282 0.5307146639261795 0.75045686993209071 0.31426750628021272 0.31270343261798911 0.68761148188185484 0.2184393375098648 0.50004596894495223 0.77634962490704662 0.31610726166461628 0.1880448979455934 1 0.32925244736146098 0.39615100178034629 1 0.45812322962173568 0.31024977578554058 1 0.31426750628021272 0.31270343261798911 0.68761148188185484 0.45812322962173568 0.31024977578554058 1 0.31610726166461628 0.1880448979455934 1 0.31426750628021272 0.31270343261798911 0.68761148188185484 0.50084626324420545 0.22238844715913 0.78084811589659187 0.32925244736146098 0.39615100178034629 1 0.45812322962173568 0.31024977578554058 1 0.31426750628021272 0.31270343261798911 0.68761148188185484 0.49816183246753282 0.5307146639261795 0.75045686993209071 0.32925244736146098 0.39615100178034629 1 0.31426750628021272 0.31270343261798911 0.68761148188185484 0.16929708765653109 0.30074819035870082 1 0.2184393375098648 0.50004596894495223 0.77634962490704662 0.32925244736146098 0.39615100178034629 1 0.51961524226934941 0.50000000000250611 1 0.45812322962173568 0.31024977578554058 1 0.49816183246753282 0.5307146639261795 0.75045686993209071 0.31426750628021272 0.31270343261798911 0.68761148188185484 0.49816183246753282 0.5307146639261795 0.75045686993209071 0.50000000000001332 0.49999999999999561 0.49999999999999561 0.2184393375098648 0.50004596894495223 0.77634962490704662 0.24769234054476261 0.52242103280823293 0.45098450226372488 0.50073570207385831 0.24848280280289631 0.52886631355986169 0.31426750628021272 0.31270343261798911 0.68761148188185484 0.22088738526309029 0.22111069116742441 0.50004796911802929 0.31426750628021272 0.31270343261798911 0.68761148188185484 0.50073570207385831 0.24848280280289631 0.52886631355986169 0.49816183246753282 0.5307146639261795 0.75045686993209071 0.50084626324420545 0.22238844715913 0.78084811589659187 0.50000000000001332 0.49999999999999561 0.49999999999999561 0.31426750628021272 0.31270343261798911 0.68761148188185484 0.24769234054476261 0.52242103280823293 0.45098450226372488 0.50073570207385831 0.24848280280289631 0.52886631355986169 0.50000000000001332 0.49999999999999561 0.49999999999999561 0.49816183246753282 0.5307146639261795 0.75045686993209071 0.31426750628021272 0.31270343261798911 0.68761148188185484 0.50073570207385831 0.24848280280289631 0.52886631355986169 0.50000000000001332 0.49999999999999561 0.49999999999999561 0.24769234054476261 0.52242103280823293 0.45098450226372488 0.31426750628021272 0.31270343261798911 0.68761148188185484 0.2184393375098648 0.50004596894495223 0.77634962490704662 0.2184393375098648 0.50004596894495223 0.77634962490704662 0.31426750628021272 0.31270343261798911 0.68761148188185484 0 0.50000000000237477 0.51961524226909872 0.24769234054476261 0.52242103280823293 0.45098450226372488 0 0.31024977578556651 0.45812322962166352 0.24769234054476261 0.52242103280823293 0.45098450226372488 0 0.32043363027398297 0.61046998817722586 0.22088738526309029 0.22111069116742441 0.50004796911802929 0 0.32043363027398297 0.61046998817722586 0 0.50000000000237477 0.51961524226909872 0.31426750628021272 0.31270343261798911 0.68761148188185484 0.24769234054476261 0.52242103280823293 0.45098450226372488 0.2184393375098648 0.50004596894495223 0.77634962490704662 0 0.32043363027398297 0.61046998817722586 0 0.50000000000237477 0.51961524226909872 0.31426750628021272 0.31270343261798911 0.68761148188185484 0 0.32043363027398297 0.61046998817722586 0.24769234054476261 0.52242103280823293 0.45098450226372488 0.31426750628021272 0.31270343261798911 0.68761148188185484 0.22088738526309029 0.22111069116742441 0.50004796911802929 0.2184393375098648 0.50004596894495223 0.77634962490704662 0 0.50000000000237477 0.51961524226909872 0 0.32043363027398297 0.61046998817722586 0 0.46954769941369501 0.67320508075638175 0 0.16196943494415611 0.69380980080116506 0 0.32043363027398297 0.61046998817722586 0.31426750628021272 0.31270343261798911 0.68761148188185484 0.22088738526309029 0.22111069116742441 0.50004796911802929 0 0.32043363027398297 0.61046998817722586 0 0.31807971531776508 0.80839867011913336 0.31426750628021272 0.31270343261798911 0.68761148188185484 0.2184393375098648 0.50004596894495223 0.77634962490704662 0 0.16196943494415611 0.69380980080116506 0 0.32043363027398297 0.61046998817722586 0 0.31807971531776508 0.80839867011913336 0.31426750628021272 0.31270343261798911 0.68761148188185484 0 0.31024977578556651 0.45812322962166352 0 0.50000000000237477 0.51961524226909872 0 0.32043363027398297 0.61046998817722586 0.24769234054476261 0.52242103280823293 0.45098450226372488 0 0.32043363027398297 0.61046998817722586 0 0.46954769941369501 0.67320508075638175 0 0.31807971531776508 0.80839867011913336 0.2184393375098648 0.50004596894495223 0.77634962490704662 0 0.32043363027398297 0.61046998817722586 0 0.16275515618034081 0.50966790549591257 0 0.31024977578556651 0.45812322962166352 0.22088738526309029 0.22111069116742441 0.50004796911802929 0 0.16196943494415611 0.69380980080116506 0.14641016151479661 0 0.85358983848542624 0.18818969570926641 0 0.68364148842842287 0.31426750628021272 0.31270343261798911 0.68761148188185484 0 0.16196943494415611 0.69380980080116506 0.31426750628021272 0.31270343261798911 0.68761148188185484 0.18818969570926641 0 0.68364148842842287 0.22088738526309029 0.22111069116742441 0.50004796911802929 0 0.16196943494415611 0.69380980080116506 0.18818969570926641 0 0.68364148842842287 0 0.16275515618034081 0.50966790549591257 0.22088738526309029 0.22111069116742441 0.50004796911802929 0 0.16196943494415611 0.69380980080116506 0 0.16275515618034081 0.50966790549591257 0 0.32043363027398297 0.61046998817722586 0.22088738526309029 0.22111069116742441 0.50004796911802929 0 0 0.79999999999999982 0 0 0.60000000000138687 0 0.16196943494415611 0.69380980080116506 0.18818969570926641 0 0.68364148842842287 0 0 0.60000000000138687 0 0.16196943494415611 0.69380980080116506 0.18818969570926641 0 0.68364148842842287 0 0.16275515618034081 0.50966790549591257 0.18818969570926641 0 0.68364148842842287 0.16370661204827031 0 0.4886650857430957 0 0 0.60000000000138687 0 0.16275515618034081 0.50966790549591257 0.18818969570926641 0 0.68364148842842287 0.31030302876556398 0 0.54179813558513157 0.16370661204827031 0 0.4886650857430957 0.22088738526309029 0.22111069116742441 0.50004796911802929 0 0.16275515618034081 0.50966790549591257 0.18818969570926641 0 0.68364148842842287 0.16370661204827031 0 0.4886650857430957 0.22088738526309029 0.22111069116742441 0.50004796911802929 0.30074819035913852 0 0.83070291234383831 0.39615987727709562 0 0.67073444684008199 0.18818969570926641 0 0.68364148842842287 0.31426750628021272 0.31270343261798911 0.68761148188185484 0.31030302876556398 0 0.54179813558513157 0.31426750628021272 0.31270343261798911 0.68761148188185484 0.50073570207385831 0.24848280280289631 0.52886631355986169 0.22088738526309029 0.22111069116742441 0.50004796911802929 0.39615987727709562 0 0.67073444684008199 0.31030302876556398 0 0.54179813558513157 0.31426750628021272 0.31270343261798911 0.68761148188185484 0.50073570207385831 0.24848280280289631 0.52886631355986169 0.39615987727709562 0 0.67073444684008199 0.31426750628021272 0.31270343261798911 0.68761148188185484 0.30074819035913852 0 0.83070291234383831 0.50084626324420545 0.22238844715913 0.78084811589659187 0.18818969570926641 0 0.68364148842842287 0.31426750628021272 0.31270343261798911 0.68761148188185484 0.31030302876556398 0 0.54179813558513157 0.22088738526309029 0.22111069116742441 0.50004796911802929 0.6002015905170176 0 0.67551889168744117 0.50073570207385831 0.24848280280289631 0.52886631355986169 0.39615987727709562 0 0.67073444684008199 0.50084626324420545 0.22238844715913 0.78084811589659187 0.31030302876556398 0 0.54179813558513157 0.18818969570926641 0 0.68364148842842287 0.39615987727709562 0 0.67073444684008199 0.31426750628021272 0.31270343261798911 0.68761148188185484 0.39615987727709562 0 0.67073444684008199 0.50073570207385831 0.24848280280289631 0.52886631355986169 0.31426750628021272 0.31270343261798911 0.68761148188185484 0.50084626324420545 0.22238844715913 0.78084811589659187 0.39615987727709562 0 0.67073444684008199 0.6002015905170176 0 0.67551889168744117 0.50000000000250922 0 0.48038475773043671 0.50073570207385831 0.24848280280289631 0.52886631355986169 0.39615987727709562 0 0.67073444684008199 0.50000000000250922 0 0.48038475773043671 0.31030302876556398 0 0.54179813558513157 0.50073570207385831 0.24848280280289631 0.52886631355986169 0.49836539647917322 0 0.82773865802723501 0.6002015905170176 0 0.67551889168744117 0.39615987727709562 0 0.67073444684008199 0.50084626324420545 0.22238844715913 0.78084811589659187 0.30074819035913852 0 0.83070291234383831 0.14641016151432179 0.14641016151432179 1 0.31610726166461628 0.1880448979455934 1 0.31426750628021272 0.31270343261798911 0.68761148188185484 0.30074819035913852 0 0.83070291234383831 0.31426750628021272 0.31270343261798911 0.68761148188185484 0.31610726166461628 0.1880448979455934 1 0.50084626324420545 0.22238844715913 0.78084811589659187 0.30074819035913852 0 0.83070291234383831 0.31610726166461628 0.1880448979455934 1 0.49836539647917322 0 0.82773865802723501 0.50084626324420545 0.22238844715913 0.78084811589659187 0.39615987727709562 0 0.67073444684008199 0.30074819035913852 0 0.83070291234383831 0.49836539647917322 0 0.82773865802723501 0.50084626324420545 0.22238844715913 0.78084811589659187 0.31610726166461628 0.1880448979455934 1 0.40000000000166441 0 1 0.49836539647917322 0 0.82773865802723501 0.50966790549576724 0.1627551561802443 1 0.40000000000166441 0 1 0.49836539647917322 0 0.82773865802723501 0.30074819035913852 0 0.83070291234383831 0.31610726166461628 0.1880448979455934 1 0.31610726166461628 0.1880448979455934 1 0.50966790549576724 0.1627551561802443 1 0.49836539647917322 0 0.82773865802723501 0.50084626324420545 0.22238844715913 0.78084811589659187 0.45812322962173568 0.31024977578554058 1 0.50966790549576724 0.1627551561802443 1 0.31610726166461628 0.1880448979455934 1 0.50084626324420545 0.22238844715913 0.78084811589659187 0.40000000000166441 0 1 0.30074819035913852 0 0.83070291234383831 0.20000000000083221 0 1 0.31610726166461628 0.1880448979455934 1 0 0.14641016151490169 0.85358983848532144 0 0.16196943494415611 0.69380980080116506 0 0.31807971531776508 0.80839867011913336 0.31426750628021272 0.31270343261798911 0.68761148188185484 0.16929708765653109 0.30074819035870082 1 0.31610726166461628 0.1880448979455934 1 0.14641016151432179 0.14641016151432179 1 0.31426750628021272 0.31270343261798911 0.68761148188185484 0.14641016151432179 0.14641016151432179 1 0.20000000000083221 0 1 0.14641016151479661 0 0.85358983848542624 0.30074819035913852 0 0.83070291234383831 0.14641016151432179 0.14641016151432179 1 0.30074819035913852 0 0.83070291234383831 0.14641016151479661 0 0.85358983848542624 0.31426750628021272 0.31270343261798911 0.68761148188185484 0.14641016151432179 0.14641016151432179 1 0.20000000000083221 0 1 0.30074819035913852 0 0.83070291234383831 0.31610726166461628 0.1880448979455934 1 0.18818969570926641 0 0.68364148842842287 0.14641016151479661 0 0.85358983848542624 0.30074819035913852 0 0.83070291234383831 0.31426750628021272 0.31270343261798911 0.68761148188185484 0 0.14641016151490169 0.85358983848532144 0.16929708765653109 0.30074819035870082 1 0.14641016151432179 0.14641016151432179 1 0.31426750628021272 0.31270343261798911 0.68761148188185484 0.14641016151432179 0.14641016151432179 1 0.14641016151479661 0 0.85358983848542624 0 0.14641016151490169 0.85358983848532144 0.31426750628021272 0.31270343261798911 0.68761148188185484 0 0.16196943494415611 0.69380980080116506 0 0.14641016151490169 0.85358983848532144 0.14641016151479661 0 0.85358983848542624 0.31426750628021272 0.31270343261798911 0.68761148188185484 0 0.20000000000083221 1 0 0.31807971531776508 0.80839867011913336 0.16929708765653109 0.30074819035870082 1 0 0.14641016151490169 0.85358983848532144 0.14641016151432179 0.14641016151432179 1 0 0.20000000000083221 1 0.16929708765653109 0.30074819035870082 1 0 0.14641016151490169 0.85358983848532144 0 0.16196943494415611 0.69380980080116506 0.14641016151479661 0 0.85358983848542624 0 0 0.79999999999999982 0.18818969570926641 0 0.68364148842842287 0 0.14641016151490169 0.85358983848532144 0.14641016151479661 0 0.85358983848542624 0 0 0.79999999999999982 0 0.16196943494415611 0.69380980080116506 0 0 1 0 0.20000000000083221 1 0.14641016151432179 0.14641016151432179 1 0 0.14641016151490169 0.85358983848532144 0.14641016151479661 0 0.85358983848542624 0 0 0.79999999999999982 0 0 1 0 0.14641016151490169 0.85358983848532144 0 0 1 0.14641016151432179 0.14641016151432179 1 0.20000000000083221 0 1 0.14641016151479661 0 0.85358983848542624 0.14641016151479661 0 0.85358983848542624 0 0 1 0.14641016151432179 0.14641016151432179 1 0 0.14641016151490169 0.85358983848532144 
</DataArray>
</Points>
<Cells>
<DataArray type="UInt32" Name="connectivity" format="ascii">
0 1 2 3 4 5 6 7 8 9 10 11 12 13 14 15 16 17 18 19 20 21 22 23 24 25 26 27 28 29 30 31 32 33 34 35 36 37 38 39 40 41 42 43 44 45 46 47 48 49 50 51 52 53 54 55 56 57 58 59 60 61 62 63 64 65 66 67 68 69 70 71 72 73 74 75 76 77 78 79 80 81 82 83 84 85 86 87 88 89 90 91 92 93 94 95 96 97 98 99 100 101 102 103 104 105 106 107 108 109 110 111 112 113 114 115 116 117 118 119 120 121 122 123 124 125 126 127 128 129 130 131 132 133 134 135 136 137 138 139 140 141 142 143 144 145 146 147 148 149 150 151 152 153 154 155 156 157 158 159 160 161 162 163 164 165 166 167 168 169 170 171 172 173 174 175 176 177 178 179 180 181 182 183 184 185 186 187 188 189 190 191 192 193 194 195 196 197 198 199 200 201 202 203 204 205 206 207 208 209 210 211 212 213 214 215 216 217 218 219 220 221 222 223 224 225 226 227 228 229 230 231 232 233 234 235 236 237 238 239 240 241 242 243 244 245 246 247 248 249 250 251 252 253 254 255 256 257 258 259 260 261 262 263 264 265 266 267 268 269 270 271 272 273 274 275 276 277 278 279 280 281 282 283 284 285 286 287 288 289 290 291 292 293 294 295 296 297 298 299 300 301 302 303 304 305 306 307 308 309 310 311 312 313 314 315 316 317 318 319 320 321 322 323 324 325 326 327 328 329 330 331 332 333 334 335 336 337 338 339 340 341 342 343 344 345 346 347 348 349 350 351 352 353 354 355 356 357 358 359 360 361 362 363 364 365 366 367 368 369 370 371 372 373 374 375 376 377 378 379 380 381 382 383 384 385 386 387 388 389 390 391 392 393 394 395 396 397 398 399 400 401 402 403 404 405 406 407 408 409 410 411 412 413 414 415 416 417 418 419 420 421 422 423 424 425 426 427 428 429 430 431 432 433 434 435 436 437 438 439 440 441 442 443 444 445 446 447 448 449 450 451 452 453 454 455 456 457 458 459 460 461 462 463 464 465 466 467 468 469 470 471 472 473 474 475 476 477 478 479 480 481 482 483 484 485 486 487 488 489 490 491 492 493 494 495 496 497 498 499 500 501 502 503 504 505 506 507 508 509 510 511 512 513 514 515 516 517 518 519 520 521 522 523 524 525 526 527 528 529 530 531 532 533 534 535 536 537 538 539 540 541 542 543 544 545 546 547 548 549 550 551 552 553 554 555 556 557 558 559 560 561 562 563 564 565 566 567 568 569 570 571 572 573 574 575 576 577 578 579 580 581 582 583 584 585 586 587 588 589 590 591 592 593 594 595 596 597 598 599 600 601 602 603 604 605 606 607 608 609 610 611 612 613 614 615 616 617 618 619 620 621 622 623 624 625 626 627 628 629 630 631 632 633 634 635 636 637 638 639 640 641 642 643 644 645 646 647 648 649 650 651 652 653 654 655 656 657 658 659 660 661 662 663 664 665 666 667 668 669 670 671 672 673 674 675 676 677 678 679 680 681 682 683 684 685 686 687 688 689 690 691 692 693 694 695 696 697 698 699 700 701 702 703 704 705 706 707 708 709 710 711 712 713 714 715 716 717 718 719 720 721 722 723 724 725 726 727 728 729 730 731 732 733 734 735 736 737 738 739 740 741 742 743 744 745 746 747 748 749 750 751 752 753 754 755 756 757 758 759 760 761 762 763 764 765 766 767 768 769 770 771 772 773 774 775 776 777 778 779 780 781 782 783 784 785 786 787 788 789 790 791 792 793 794 795 796 797 798 799 800 801 802 803 804 805 806 807 808 809 810 811 812 813 814 815 816 817 818 819 820 821 822 823 824 825 826 827 828 829 830 831 832 833 834 835 836 837 838 839 840 841 842 843 844 845 846 847 848 849 850 851 852 853 854 855 856 857 858 859 860 861 862 863 864 865 866 867 868 869 870 871 872 873 874 875 876 877 878 879 880 881 882 883 884 885 886 887 888 889 890 891 892 893 894 895 896 897 898 899 900 901 902 903 904 905 906 907 908 909 910 911 912 913 914 915 916 917 918 919 920 921 922 923 924 925 926 927 928 929 930 931 932 933 934 935 936 937 938 939 940 941 942 943 944 945 946 947 948 949 950 951 952 953 954 955 956 957 958 959 960 961 962 963 964 965 966 967 968 969 970 971 972 973 974 975 976 977 978 979 980 981 982 983 984 985 986 987 988 989 990 991 992 993 994 995 996 997 998 999 1000 1001 1002 1003 1004 1005 1006 1007 1008 1009 1010 1011 1012 1013 1014 1015 1016 1017 1018 1019 1020 1021 1022 1023 1024 1025 1026 1027 1028 1029 1030 1031 1032 1033 1034 1035 1036 1037 1038 1039 1040 1041 1042 1043 1044 1045 1046 1047 1048 1049 1050 1051 1052 1053 1054 1055 1056 1057 1058 1059 1060 1061 1062 1063 1064 1065 1066 1067 1068 1069 1070 1071 1072 1073 1074 1075 1076 1077 1078 1079 1080 1081 1082 1083 1084 1085 1086 1087 1088 1089 1090 1091 1092 1093 1094 1095 1096 1097 1098 1099 1100 1101 1102 1103 1104 1105 1106 1107 1108 1109 1110 1111 1112 1113 1114 1115 1116 1117 1118 1119 1120 1121 1122 1123 1124 1125 1126 1127 1128 1129 1130 1131 1132 1133 1134 1135 1136 1137 1138 1139 1140 1141 1142 1143 1144 1145 1146 1147 1148 1149 1150 1151 1152 1153 1154 1155 1156 1157 1158 1159 1160 1161 1162 1163 1164 1165 1166 1167 1168 1169 1170 1171 1172 1173 1174 1175 1176 1177 1178 1179 1180 1181 1182 1183 1184 1185 1186 1187 1188 1189 1190 1191 1192 1193 1194 1195 1196 1197 1198 1199 1200 1201 1202 1203 1204 1205 1206 1207 1208 1209 1210 1211 1212 1213 1214 1215 1216 1217 1218 1219 1220 1221 1222 1223 1224 1225 1226 1227 1228 1229 1230 1231 1232 1233 1234 1235 1236 1237 1238 1239 1240 1241 1242 1243 1244 1245 1246 1247 1248 1249 1250 1251 1252 1253 1254 1255 1256 1257 1258 1259 1260 1261 1262 1263 1264 1265 1266 1267 1268 1269 1270 1271 1272 1273 1274 1275 1276 1277 1278 1279 1280 1281 1282 1283 1284 1285 1286 1287 1288 1289 1290 1291 1292 1293 1294 1295 1296 1297 1298 1299 1300 1301 1302 1303 1304 1305 1306 1307 1308 1309 1310 1311 1312 1313 1314 1315 1316 1317 1318 1319 1320 1321 1322 1323 1324 1325 1326 1327 1328 1329 1330 1331 1332 1333 1334 1335 1336 1337 1338 1339 1340 1341 1342 1343 1344 1345 1346 1347 1348 1349 1350 1351 1352 1353 1354 1355 1356 1357 1358 1359 1360 1361 1362 1363 1364 1365 1366 1367 1368 1369 1370 1371 1372 1373 1374 1375 1376 1377 1378 1379 1380 1381 1382 1383 1384 1385 1386 1387 1388 1389 1390 1391 1392 1393 1394 1395 1396 1397 1398 1399 1400 1401 1402 1403 1404 1405 1406 1407 1408 1409 1410 1411 1412 1413 1414 1415 1416 1417 1418 1419 1420 1421 1422 1423 1424 1425 1426 1427 1428 1429 1430 1431 1432 1433 1434 1435 1436 1437 1438 1439 1440 1441 1442 1443 1444 1445 1446 1447 1448 1449 1450 1451 1452 1453 1454 1455 1456 1457 1458 1459 1460 1461 1462 1463 1464 1465 1466 1467 1468 1469 1470 1471 1472 1473 1474 1475 1476 1477 1478 1479 1480 1481 1482 1483 1484 1485 1486 1487 1488 1489 1490 1491 1492 1493 1494 1495 1496 1497 1498 1499 1500 1501 1502 1503 1504 1505 1506 1507 1508 1509 1510 1511 1512 1513 1514 1515 1516 1517 1518 1519 1520 1521 1522 1523 1524 1525 1526 1527 1528 1529 1530 1531 1532 1533 1534 1535 1536 1537 1538 1539 1540 1541 1542 1543 1544 1545 1546 1547 1548 1549 1550 1551 1552 1553 1554 1555 1556 1557 1558 1559 1560 1561 1562 1563 1564 1565 1566 1567 1568 1569 1570 1571 1572 1573 1574 1575 1576 1577 1578 1579 1580 1581 1582 1583 1584 1585 1586 1587 1588 1589 1590 1591 1592 1593 1594 1595 1596 1597 1598 1599 1600 1601 1602 1603 1604 1605 1606 1607 1608 1609 1610 1611 1612 1613 1614 1615 1616 1617 1618 1619 1620 1621 1622 1623 1624 1625 1626 1627 1628 1629 1630 1631 1632 1633 1634 1635 1636 1637 1638 1639 1640 1641 1642 1643 1644 1645 1646 1647 1648 1649 1650 1651 1652 1653 1654 1655 1656 1657 1658 1659 1660 1661 1662 1663 1664 1665 1666 1667 1668 1669 1670 1671 1672 1673 1674 1675 1676 1677 1678 1679 1680 1681 1682 1683 1684 1685 1686 1687 1688 1689 1690 1691 1692 1693 1694 1695 1696 1697 1698 1699 1700 1701 1702 1703 1704 1705 1706 1707 1708 1709 1710 1711 1712 1713 1714 1715 1716 1717 1718 1719 1720 1721 1722 1723 1724 1725 1726 1727 1728 1729 1730 1731 1732 1733 1734 1735 1736 1737 1738 1739 1740 1741 1742 1743 1744 1745 1746 1747 1748 1749 1750 1751 1752 1753 1754 1755 1756 1757 1758 1759 1760 1761 1762 1763 1764 1765 1766 1767 1768 1769 1770 1771 1772 1773 1774 1775 1776 1777 1778 1779 1780 1781 1782 1783 1784 1785 1786 1787 1788 1789 1790 1791 1792 1793 1794 1795 1796 1797 1798 1799 1800 1801 1802 1803 1804 1805 1806 1807 1808 1809 1810 1811 1812 1813 1814 1815 1816 1817 1818 1819 1820 1821 1822 1823 1824 1825 1826 1827 1828 1829 1830 1831 1832 1833 1834 1835 1836 1837 1838 1839 1840 1841 1842 1843 1844 1845 1846 1847 1848 1849 1850 1851 1852 1853 1854 1855 1856 1857 1858 1859 1860 1861 1862 1863 1864 1865 1866 1867 1868 1869 1870 1871 1872 1873 1874 1875 1876 1877 1878 1879 1880 1881 1882 1883 1884 1885 1886 1887 1888 1889 1890 1891 1892 1893 1894 1895 1896 1897 1898 1899 1900 1901 1902 1903 1904 1905 1906 1907 1908 1909 1910 1911 1912 1913 1914 1915 1916 1917 1918 1919 1920 1921 1922 1923 1924 1925 1926 1927 1928 1929 1930 1931 1932 1933 1934 1935 1936 1937 1938 1939 1940 1941 1942 1943 1944 1945 1946 1947 1948 1949 1950 1951 1952 1953 1954 1955 1956 1957 1958 1959 1960 1961 1962 1963 1964 1965 1966 1967 1968 1969 1970 1971 1972 1973 1974 1975 1976 1977 1978 1979 1980 1981 1982 1983 1984 1985 1986 1987 1988 1989 1990 1991 1992 1993 1994 1995 1996 1997 1998 1999 2000 2001 2002 2003 2004 2005 2006 2007 2008 2009 2010 2011 2012 2013 2014 2015 2016 2017 2018 2019 2020 2021 2022 2023 2024 2025 2026 2027 2028 2029 2030 2031 2032 2033 2034 2035 2036 2037 2038 2039 2040 2041 2042 2043 2044 2045 2046 2047 2048 2049 2050 2051 2052 2053 2054 2055 2056 2057 2058 2059 2060 2061 2062 2063 2064 2065 2066 2067 2068 2069 2070 2071 2072 2073 2074 2075 2076 2077 2078 2079 2080 2081 2082 2083 2084 2085 2086 2087 2088 2089 2090 2091 2092 2093 2094 2095 2096 2097 2098 2099 2100 2101 2102 2103 2104 2105 2106 2107 2108 2109 2110 2111 2112 2113 2114 2115 2116 2117 2118 2119 2120 2121 2122 2123 2124 2125 2126 2127 2128 2129 2130 2131 2132 2133 2134 2135 2136 2137 2138 2139 2140 2141 2142 2143 2144 2145 2146 2147 2148 2149 2150 2151 2152 2153 2154 2155 2156 2157 2158 2159 2160 2161 2162 2163 2164 2165 2166 2167 2168 2169 2170 2171 2172 2173 2174 2175 2176 2177 2178 2179 2180 2181 2182 2183 2184 2185 2186 2187 2188 2189 2190 2191 2192 2193 2194 2195 2196 2197 2198 2199 2200 2201 2202 2203 2204 2205 2206 2207 2208 2209 2210 2211 2212 2213 2214 2215 2216 2217 2218 2219 2220 2221 2222 2223 2224 2225 2226 2227 2228 2229 2230 2231 2232 2233 2234 2235 2236 2237 2238 2239 2240 2241 2242 2243 2244 2245 2246 2247 2248 2249 2250 2251 2252 2253 2254 2255 2256 2257 2258 2259 2260 2261 2262 2263 2264 2265 2266 2267 2268 2269 2270 2271 2272 2273 2274 2275 2276 2277 2278 2279 2280 2281 2282 2283 2284 2285 2286 2287 2288 2289 2290 2291 2292 2293 2294 2295 2296 2297 2298 2299 2300 2301 2302 2303 2304 2305 2306 2307 2308 2309 2310 2311 2312 2313 2314 2315 2316 2317 2318 2319 2320 2321 2322 2323 2324 2325 2326 2327 2328 2329 2330 2331 2332 2333 2334 2335 2336 2337 2338 2339 2340 2341 2342 2343 2344 2345 2346 2347 2348 2349 2350 2351 2352 2353 2354 2355 2356 2357 2358 2359 2360 2361 2362 2363 2364 2365 2366 2367 2368 2369 2370 2371 2372 2373 2374 2375 2376 2377 2378 2379 2380 2381 2382 2383 2384 2385 2386 2387 2388 2389 2390 2391 2392 2393 2394 2395 2396 2397 2398 2399 2400 2401 2402 2403 2404 2405 2406 2407 2408 2409 2410 2411 2412 2413 2414 2415 2416 2417 2418 2419 2420 2421 2422 2423 2424 2425 2426 2427 2428 2429 2430 2431 2432 2433 2434 2435 2436 2437 2438 2439 2440 2441 2442 2443 2444 2445 2446 2447 2448 2449 2450 2451 2452 2453 2454 2455 2456 2457 2458 2459 2460 2461 2462 2463 2464 2465 2466 2467 2468 2469 2470 2471 2472 2473 2474 2475 2476 2477 2478 2479 2480 2481 2482 2483 2484 2485 2486 2487 2488 2489 2490 2491 2492 2493 2494 2495 2496 2497 2498 2499 2500 2501 2502 2503 2504 2505 2506 2507 2508 2509 2510 2511 2512 2513 2514 2515 2516 2517 2518 2519 2520 2521 2522 2523 2524 2525 2526 2527 2528 2529 2530 2531 2532 2533 2534 2535 2536 2537 2538 2539 2540 2541 2542 2543 2544 2545 2546 2547 2548 2549 2550 2551 2552 2553 2554 2555 2556 2557 2558 2559 2560 2561 2562 2563 2564 2565 2566 2567 2568 2569 2570 2571 2572 2573 2574 2575 2576 2577 2578 2579 2580 2581 2582 2583 2584 2585 2586 2587 2588 2589 2590 2591 2592 2593 2594 2595 2596 2597 2598 2599 2600 2601 2602 2603 2604 2605 2606 2607 2608 2609 2610 2611 2612 2613 2614 2615 2616 2617 2618 2619 2620 2621 2622 2623 2624 2625 2626 2627 2628 2629 2630 2631 2632 2633 2634 2635 2636 2637 2638 2639 2640 2641 2642 2643 2644 2645 2646 2647 2648 2649 2650 2651 2652 2653 2654 2655 2656 2657 2658 2659 2660 2661 2662 2663 2664 2665 2666 2667 2668 2669 2670 2671 2672 2673 2674 2675 2676 2677 2678 2679 2680 2681 2682 2683 2684 2685 2686 2687 2688 2689 2690 2691 2692 2693 2694 2695 2696 2697 2698 2699 2700 2701 2702 2703 2704 2705 2706 2707 2708 2709 2710 2711 2712 2713 2714 2715 2716 2717 2718 2719 2720 2721 2722 2723 2724 2725 2726 2727 2728 2729 2730 2731 2732 2733 2734 2735 2736 2737 2738 2739 2740 2741 2742 2743 2744 2745 2746 2747 2748 2749 2750 2751 2752 2753 2754 2755 2756 2757 2758 2759 2760 2761 2762 2763 2764 2765 2766 2767 2768 2769 2770 2771 2772 2773 2774 2775 2776 2777 2778 2779 2780 2781 2782 2783 2784 2785 2786 2787 2788 2789 2790 2791 2792 2793 2794 2795 2796 2797 2798 2799 2800 2801 2802 2803 2804 2805 2806 2807 2808 2809 2810 2811 2812 2813 2814 2815 2816 2817 2818 2819 2820 2821 2822 2823 2824 2825 2826 2827 2828 2829 2830 2831 2832 2833 2834 2835 2836 2837 2838 2839 2840 2841 2842 2843 2844 2845 2846 2847 2848 2849 2850 2851 2852 2853 2854 2855 2856 2857 2858 2859 2860 2861 2862 2863 2864 2865 2866 2867 2868 2869 2870 2871 2872 2873 2874 2875 
</DataArray>
<DataArray type="UInt32" Name="offsets" format="ascii">
4 8 12 16 20 24 28 32 36 40 44 48 52 56 60 64 68 72 76 80 84 88 92 96 100 104 108 112 116 120 124 128 132 136 140 144 148 152 156 160 164 168 172 176 180 184 188 192 196 200 204 208 212 216 220 224 228 232 236 240 244 248 252 256 260 264 268 272 276 280 284 288 292 296 300 304 308 312 316 320 324 328 332 336 340 344 348 352 356 360 364 368 372 376 380 384 388 392 396 400 404 408 412 416 420 424 428 432 436 440 444 448 452 456 460 464 468 472 476 480 484 488 492 496 500 504 508 512 516 520 524 528 532 536 540 544 548 552 556 560 564 568 572 576 580 584 588 592 596 600 604 608 612 616 620 624 628 632 636 640 644 648 652 656 660 664 668 672 676 680 684 688 692 696 700 704 708 712 716 720 724 728 732 736 740 744 748 752 756 760 764 768 772 776 780 784 788 792 796 800 804 808 812 816 820 824 828 832 836 840 844 848 852 856 860 864 868 872 876 880 884 888 892 896 900 904 908 912 916 920 924 928 932 936 940 944 948 952 956 960 964 968 972 976 980 984 988 992 996 1000 1004 1008 1012 1016 1020 1024 1028 1032 1036 1040 1044 1048 1052 1056 1060 1064 1068 1072 1076 1080 1084 1088 1092 1096 1100 1104 1108 1112 1116 1120 1124 1128 1132 1136 1140 1144 1148 1152 1156 1160 1164 1168 1172 1176 1180 1184 1188 1192 1196 1200 1204 1208 1212 1216 1220 1224 1228 1232 1236 1240 1244 1248 1252 1256 1260 1264 1268 1272 1276 1280 1284 1288 1292 1296 1300 1304 1308 1312 1316 1320 1324 1328 1332 1336 1340 1344 1348 1352 1356 1360 1364 1368 1372 1376 1380 1384 1388 1392 1396 1400 1404 1408 1412 1416 1420 1424 1428 1432 1436 1440 1444 1448 1452 1456 1460 1464 1468 1472 1476 1480 1484 1488 1492 1496 1500 1504 1508 1512 1516 1520 1524 1528 1532 1536 1540 1544 1548 1552 1556 1560 1564 1568 1572 1576 1580 1584 1588 1592 1596 1600 1604 1608 1612 1616 1620 1624 1628 1632 1636 1640 1644 1648 1652 1656 1660 1664 1668 1672 1676 1680 1684 1688 1692 1696 1700 1704 1708 1712 1716 1720 1724 1728 1732 1736 1740 1744 1748 1752 1756 1760 1764 1768 1772 1776 1780 1784 1788 1792 1796 1800 1804 1808 1812 1816 1820 1824 1828 1832 1836 1840 1844 1848 1852 1856 1860 1864 1868 1872 1876 1880 1884 1888 1892 1896 1900 1904 1908 1912 1916 1920 1924 1928 1932 1936 1940 1944 1948 1952 1956 1960 1964 1968 1972 1976 1980 1984 1988 1992 1996 2000 2004 2008 2012 2016 2020 2024 2028 2032 2036 2040 2044 2048 2052 2056 2060 2064 2068 2072 2076 2080 2084 2088 2092 2096 2100 2104 2108 2112 2116 2120 2124 2128 2132 2136 2140 2144 2148 2152 2156 2160 2164 2168 2172 2176 2180 2184 2188 2192 2196 2200 2204 2208 2212 2216 2220 2224 2228 2232 2236 2240 2244 2248 2252 2256 2260 2264 2268 2272 2276 2280 2284 2288 2292 2296 2300 2304 2308 2312 2316 2320 2324 2328 2332 2336 2340 2344 2348 2352 2356 2360 2364 2368 2372 2376 2380 2384 2388 2392 2396 2400 2404 2408 2412 2416 2420 2424 2428 2432 2436 2440 2444 2448 2452 2456 2460 2464 2468 2472 2476 2480 2484 2488 2492 2496 2500 2504 2508 2512 2516 2520 2524 2528 2532 2536 2540 2544 2548 2552 2556 2560 2564 2568 2572 2576 2580 2584 2588 2592 2596 2600 2604 2608 2612 2616 2620 2624 2628 2632 2636 2640 2644 2648 2652 2656 2660 2664 2668 2672 2676 2680 2684 2688 2692 2696 2700 2704 2708 2712 2716 2720 2724 2728 2732 2736 2740 2744 2748 2752 2756 2760 2764 2768 2772 2776 2780 2784 2788 2792 2796 2800 2804 2808 2812 2816 2820 2824 2828 2832 2836 2840 2844 2848 2852 2856 2860 2864 2868 2872 2876 
</DataArray>
<DataArray type="UInt32" Name="types" format="ascii">
10 10 10 10 10 10 10 10 10 10 10 10 10 10 10 10 10 10 10 10 10 10 10 10 10 10 10 10 10 10 10 10 10 10 10 10 10 10 10 10 10 10 10 10 10 10 10 10 10 10 10 10 10 10 10 10 10 10 10 10 10 10 10 10 10 10 10 10 10 10 10 10 10 10 10 10 10 10 10 10 10 10 10 10 10 10 10 10 10 10 10 10 10 10 10 10 10 10 10 10 10 10 10 10 10 10 10 10 10 10 10 10 10 10 10 10 10 10 10 10 10 10 10 10 10 10 10 10 10 10 10 10 10 10 10 10 10 10 10 10 10 10 10 10 10 10 10 10 10 10 10 10 10 10 10 10 10 10 10 10 10 10 10 10 10 10 10 10 10 10 10 10 10 10 10 10 10 10 10 10 10 10 10 10 10 10 10 10 10 10 10 10 10 10 10 10 10 10 10 10 10 10 10 10 10 10 10 10 10 10 10 10 10 10 10 10 10 10 10 10 10 10 10 10 10 10 10 10 10 10 10 10 10 10 10 10 10 10 10 10 10 10 10 10 10 10 10 10 10 10 10 10 10 10 10 10 10 10 10 10 10 10 10 10 10 10 10 10 10 10 10 10 10 10 10 10 10 10 10 10 10 10 10 10 10 10 10 10 10 10 10 10 10 10 10 10 10 10 10 10 10 10 10 10 10 10 10 10 10 10 10 10 10 10 10 10 10 10 10 10 10 10 10 10 10 10 10 10 10 10 10 10 10 10 10 10 10 10 10 10 10 10 10 10 10 10 10 10 10 10 10 10 10 10 10 10 10 10 10 10 10 10 10 10 10 10 10 10 10 10 10 10 10 10 10 10 10 10 10 10 10 10 10 10 10 10 10 10 10 10 10 10 10 10 10 10 10 10 10 10 10 10 10 10 10 10 10 10 10 10 10 10 10 10 10 10 10 10 10 10 10 10 10 10 10 10 10 10 10 10 10 10 10 10 10 10 10 10 10 10 10 10 10 10 10 10 10 10 10 10 10 10 10 10 10 10 10 10 10 10 10 10 10 10 10 10 10 10 10 10 10 10 10 10 10 10 10 10 10 10 10 10 10 10 10 10 10 10 10 10 10 10 10 10 10 10 10 10 10 10 10 10 10 10 10 10 10 10 10 10 10 10 10 10 10 10 10 10 10 10 10 10 10 10 10 10 10 10 10 10 10 10 10 10 10 10 10 10 10 10 10 10 10 10 10 10 10 10 10 10 10 10 10 10 10 10 10 10 10 10 10 10 10 10 10 10 10 10 10 10 10 10 10 10 10 10 10 10 10 10 10 10 10 10 10 10 10 10 10 10 10 10 10 10 10 10 10 10 10 10 10 10 10 10 10 10 10 10 10 10 10 10 10 10 10 10 10 10 10 10 10 10 10 10 10 10 10 10 10 10 10 10 10 10 10 10 10 10 10 10 10 10 10 10 10 10 10 10 10 10 10 10 10 10 10 10 10 10 10 10 10 10 10 10 10 10 10 10 10 10 10 10 10 10 10 10 10 10 10 10 10 10 10 10 10 10 10 10 10 10 10 10 10 10 10 10 10 10 10 10 10 10 10 10 10 10 10 10 10 10 10 10 10 10 10 10 10 10 10 
</DataArray>
</Cells>
<PointData Scalars="" Vectors="displacement," Tensors="">
<DataArray type="Float64" Name="displacement" NumberOfComponents="3" format="ascii">
0.078694482820969663 3.4212277546712948e-06 -1.3634465401299783e-05 0.042186339420108264 1.0581863392318956e-06 -1.314390463350111e-05 0.036484513571911473 -1.3411310138273364e-06 -1.0497820317828445e-05 0.077895011374132156 -6.73652665287682e-06 -0.29755582431884775 -1.8827091239140092e-08 -5.2216585190856438e-06 -1.310547550610441e-05 -2.0717097867411419e-08 -2.9344497020082195e-06 -1.4150363953326244e-05 0.036484513571911473 -1.3411310138273362e-06 -1.0497820317823161e-05 -1.3795905881759582e-08 -4.0472248600001465e-06 -0.13925276767459427 -2.0717097867411419e-08 -2.9344497020082195e-06 -1.4150363953314977e-05 0.04982993800712688 -3.202025672841902e-06 -1.4897082498599691e-05 0.036484513571911473 -1.3411310138273362e-06 -1.0497820317823161e-05 0.036491770770085717 -2.146901029255344e-06 -0.13930994566998384 -1.3795905881759582e-08 -4.0472248600001465e-06 -0.13925276767459427 -2.1396462576979508e-08 -2.799612109069929e-06 -0.19026022956715763 -2.0717097867411419e-08 -2.9344497020082195e-06 -1.4150363953314977e-05 0.036491770770085717 -2.146901029255344e-06 -0.13930994566998384 -1.3795905881759582e-08 -4.0472248600001465e-06 -0.13925276767459427 -1.8778234984274578e-08 5.8945878325731889e-07 -0.16103852579591671 -1.7160571057095771e-08 -6.1386279010014479e-06 -0.30066810957983892 0.077895011374132184 -6.73652665287682e-06 -0.29755582431884764 0.078625592553271062 -2.8770176650945922e-06 -0.17758490969153654 0.03649177077008571 -2.1469010292553444e-06 -0.13930994566998381 0.042244864588670737 -2.7098850212938508e-06 -0.28555700342581203 0.077895011374132156 -6.73652665287682e-06 -0.29755582431884775 -1.3795905881759582e-08 -4.0472248600001465e-06 -0.13925276767459427 -2.0717097870364844e-08 -2.9344497020082195e-06 -1.4150363953309336e-05 0.036484513571911473 -1.3411310138273362e-06 -1.0497820317823161e-05 0.036491770770085717 -2.146901029255344e-06 -0.13930994566998384 0.036484513571911473 -1.3411310138273362e-06 -1.0497820317823161e-05 0.03649177077008571 -2.1469010292553444e-06 -0.13930994566998386 0.078625592553271062 -2.8770176650945917e-06 -0.17758490969153654 0.077895011374132156 -6.73652665287682e-06 -0.29755582431884775 0.036484513571911473 -1.3411310138273362e-06 -1.0497820317823161e-05 -1.877823498286547e-08 5.8945878325732153e-07 -0.16103852579591668 -1.379590587893832e-08 -4.047224860000149e-06 -0.13925276767459427 0.077895011374132156 -6.73652665287682e-06 -0.29755582431884775 0.036484513571911473 -1.3411310138273362e-06 -1.0497820317823161e-05 -1.3795905881426481e-08 -4.0472248600001465e-06 -0.13925276767459424 0.036491770770085717 -2.146901029255344e-06 -0.13930994566998384 0.077895011374132156 -6.73652665287682e-06 -0.29755582431884775 -1.3795905881759582e-08 -4.0472248600001465e-06 -0.13925276767459427 0.042244864588670751 -2.7098850212938517e-06 -0.28555700342581203 0.036491770770085717 -2.146901029255344e-06 -0.13930994566998384 0.07789501137413217 -6.7365266528768217e-06 -0.29755582431884781 0.036491770770085717 -2.146901029255344e-06 -0.13930994566998384 -1.3795905881270894e-08 -4.0472248600001465e-06 -0.13925276767459427 -2.1396462582094485e-08 -2.799612109069929e-06 -0.19026022956715763 0.042244864588670737 -2.7098850212938508e-06 -0.28555700342581203 -1.7160571057095771e-08 -6.1386279010014479e-06 -0.30066810957983892 -2.1396462582094485e-08 -2.799612109069929e-06 -0.19026022956715763 -1.3795905881759582e-08 -4.0472248600001465e-06 -0.13925276767459427 0.042244864588670737 -2.7098850212938508e-06 -0.28555700342581203 -1.3795905881759582e-08 -4.0472248600001465e-06 -0.13925276767459427 0.036484513571911473 -1.3411310138273362e-06 -1.0497820317823161e-05 -1.8827091239140092e-08 -5.2216585190856438e-06 -1.3105475506103504e-05 -1.8778234984274578e-08 5.8945878325731889e-07 -0.16103852579591671 -1.8778234984274578e-08 5.8945878325731889e-07 -0.16103852579591671 0.03648451357191148 -1.3411310138273336e-06 -1.049782031786326e-05 -1.8827091239140092e-08 -5.2216585190856438e-06 -1.310547550610441e-05 0.042186339420108264 1.0581863392318956e-06 -1.314390463350111e-05 0.04982993800712688 -3.202025672841902e-06 -1.4897082498599691e-05 0.036484513571911466 -1.3411310138273368e-06 -1.0497820317838674e-05 0.078625592553271062 -2.8770176650945922e-06 -0.17758490969153654 0.078694482820969663 3.4212277546712948e-06 -1.3634465401299783e-05 0.04982993800712688 -3.202025672841902e-06 -1.4897082498599691e-05 0.03648451357191148 -1.3411310138273362e-06 -1.0497820317823034e-05 0.03649177077008571 -2.1469010292553435e-06 -0.13930994566998384 0.078625592553271062 -2.8770176650945922e-06 -0.17758490969153654 0.078625592553271062 -2.8770176650945922e-06 -0.17758490969153654 0.099473282792545165 -2.9213259342686045e-06 -1.7629843490748985e-05 0.04982993800712688 -3.202025672841902e-06 -1.4897082498608403e-05 0.078694482820969663 3.4212277546712948e-06 -1.3634465401299783e-05 0.078625592553271062 -2.8770176650945922e-06 -0.17758490969153654 0.078694482820969663 3.4212277546712961e-06 -1.363446540130046e-05 0.036484513571911459 -1.3411310138273376e-06 -1.0497820317831988e-05 0.077895011374132142 -6.73652665287682e-06 -0.29755582431884775 0.078694482820969663 3.4212277546712948e-06 -1.3634465401299783e-05 0.077895011374132128 -6.7365266528768209e-06 -0.29755582431884769 0.078625592553271062 -2.877017665094593e-06 -0.17758490969153656 0.1243779127040834 -3.0242180436314598e-06 -0.21525215498979694 0.078694482820969663 3.4212277546712948e-06 -1.3634465401299783e-05 0.12268934792407397 -2.6874463004742594e-06 -0.1261617368925308 0.12658025420619096 4.1634508546677362e-06 -1.2741010338268762e-05 0.12437791270408337 -3.0242180436314602e-06 -0.21525215498979697 0.078694482820969663 3.4212277546712948e-06 -1.3634465401299783e-05 0.12658025420619096 4.1634508546677362e-06 -1.2741010338298043e-05 0.11385838412625932 4.5478913477961705e-06 -1.101092138852275e-05 0.12437791270408337 -3.0242180436314619e-06 -0.215252154989797 0.12268934792407399 -2.6874463004742619e-06 -0.12616173689253088 0.099473282792545165 -2.9213259342686045e-06 -1.7629843490748985e-05 0.078694482820969677 3.4212277546712936e-06 -1.3634465401238119e-05 0.12658025420619096 4.1634508546677362e-06 -1.2741010338268762e-05 0.12268934792407399 -2.6874463004742619e-06 -0.12616173689253088 0.099473282792545165 -2.9213259342686045e-06 -1.7629843490748985e-05 0.078625592553271062 -2.8770176650945922e-06 -0.17758490969153654 0.078694482820969663 3.4212277546712914e-06 -1.3634465401282686e-05 0.078625592553271062 -2.8770176650945922e-06 -0.17758490969153654 0.11855216115926091 -3.2921309917007026e-06 -0.30247455810914964 0.12268934792407399 -2.6874463004742619e-06 -0.12616173689253088 0.12437791270408337 -3.0242180436314602e-06 -0.21525215498979694 0.078694482820969663 3.4212277546712948e-06 -1.3634465401299783e-05 0.078625592553271062 -2.8770176650945905e-06 -0.17758490969153651 0.12268934792407397 -2.6874463004742623e-06 -0.12616173689253093 0.12437791270408337 -3.0242180436314606e-06 -0.21525215498979702 0.077479939380412088 -2.3066989796457788e-06 -0.51573641022540029 0.1247200767748515 -3.2208447003298123e-06 -0.50401888402123052 0.080124214371270749 -2.5008015658078927e-06 -0.3687975510906002 0.055168112198902886 -8.0464361029309202e-06 -0.47580995207382826 0.080124214371270749 -2.5008015658078927e-06 -0.3687975510906002 0.077895011374132156 -6.73652665287682e-06 -0.29755582431884775 0.042244864588670737 -2.7098850212938508e-06 -0.28555700342581203 0.055168112198902879 -8.0464361029309202e-06 -0.47580995207382826 0.080124214371270749 -2.5008015658078927e-06 -0.3687975510906002 0.12472007677485149 -3.2208447003298118e-06 -0.50401888402123052 0.07789501137413217 -6.7365266528768192e-06 -0.29755582431884775 0.055168112198902886 -8.0464361029309202e-06 -0.47580995207382831 0.080124214371270749 -2.5008015658078927e-06 -0.3687975510906002 0.1247200767748515 -3.220844700329811e-06 -0.5040188840212303 0.11855216115926093 -3.292130991700703e-06 -0.30247455810914969 0.12437791270408337 -3.0242180436314602e-06 -0.21525215498979694 0.080124214371270749 -2.5008015658078927e-06 -0.3687975510906002 0.07789501137413217 -6.7365266528768192e-06 -0.29755582431884769 0.1247200767748515 -3.2208447003298114e-06 -0.50401888402123052 0.12437791270408334 -3.0242180436314619e-06 -0.21525215498979697 0.080124214371270749 -2.5008015658078927e-06 -0.3687975510906002 0.078625592553271048 -2.8770176650945922e-06 -0.17758490969153654 0.042244864588670737 -2.7098850212938508e-06 -0.28555700342581203 0.077895011374132156 -6.73652665287682e-06 -0.29755582431884775 0.078625592553271062 -2.8770176650945922e-06 -0.17758490969153654 0.077895011374132156 -6.73652665287682e-06 -0.29755582431884775 0.080124214371270749 -2.5008015658078927e-06 -0.3687975510906002 0.12437791270408337 -3.0242180436314602e-06 -0.21525215498979694 0.078625592553271062 -2.8770176650945922e-06 -0.17758490969153654 0.080124214371270749 -2.5008015658078927e-06 -0.3687975510906002 0.11855216115926093 -3.292130991700703e-06 -0.30247455810914964 0.12437791270408337 -3.0242180436314602e-06 -0.21525215498979694 0.077479939380412088 -2.3066989796457788e-06 -0.51573641022540029 0.12440886230235083 -2.845253894038058e-06 -0.45781802184718356 0.080124214371270749 -2.5008015658078927e-06 -0.3687975510906002 0.1247200767748515 -3.220844700329811e-06 -0.50401888402123052 0.080124214371270749 -2.5008015658078927e-06 -0.3687975510906002 0.12440886230235083 -2.845253894038058e-06 -0.45781802184718356 0.11855216115926091 -3.2921309917007026e-06 -0.30247455810914964 0.1247200767748515 -3.2208447003298114e-06 -0.50401888402123052 0.040895730031262352 -2.703922478665906e-06 -0.46488688187789734 0.077479939380412088 -2.3066989796457788e-06 -0.51573641022540029 0.080124214371270749 -2.5008015658078927e-06 -0.3687975510906002 0.055168112198902886 -8.0464361029309202e-06 -0.47580995207382826 0.040895730031262352 -2.703922478665906e-06 -0.46488688187789734 0.080124214371270749 -2.5008015658078927e-06 -0.3687975510906002 0.042244864588670737 -2.7098850212938508e-06 -0.28555700342581203 0.055168112198902886 -8.0464361029309202e-06 -0.47580995207382826 0.042244864588670737 -2.7098850212938508e-06 -0.28555700342581203 -1.3795905881759582e-08 -4.0472248600001465e-06 -0.13925276767459427 -1.7160571059636651e-08 -6.138627901001447e-06 -0.30066810957983892 0.077895011374132156 -6.7365266528768192e-06 -0.29755582431884769 -1.7160571057095771e-08 -6.1386279010014479e-06 -0.30066810957983892 0.040895730031262338 -2.7039224786659056e-06 -0.4648868818778974 0.042244864588670737 -2.7098850212938508e-06 -0.28555700342581203 0.055168112198902906 -8.0464361029309219e-06 -0.47580995207382826 -1.7160571057095771e-08 -6.1386279010014479e-06 -0.30066810957983892 0.04224486458867073 -2.7098850212938508e-06 -0.28555700342581203 0.077895011374132156 -6.73652665287682e-06 -0.29755582431884775 0.055168112198902886 -8.0464361029309202e-06 -0.47580995207382831 -1.5244713225995861e-08 -3.2610985893216132e-06 -0.38048129787647417 2.4880096789170065e-09 -3.6679851873707379e-06 -0.5706294307843206 0.040895730031262352 -2.703922478665906e-06 -0.46488688187789734 -1.6255853602546363e-08 -9.7605279767957246e-06 -0.48472343187345612 -1.5244713225995861e-08 -3.2610985893216132e-06 -0.38048129787647417 -1.7160571057095771e-08 -6.1386279010014479e-06 -0.30066810957983892 0.040895730031262352 -2.703922478665906e-06 -0.46488688187789734 0.042244864588670737 -2.7098850212938508e-06 -0.28555700342581203 0.040895730031262352 -2.703922478665906e-06 -0.46488688187789734 -1.7160571053687466e-08 -6.1386279010014462e-06 -0.30066810957983886 -1.5244713225896282e-08 -3.2610985893216132e-06 -0.38048129787647417 -1.6255853602546363e-08 -9.7605279767957246e-06 -0.48472343187345612 -1.7160571057095771e-08 -6.1386279010014479e-06 -0.30066810957983892 -1.524471321833011e-08 -3.2610985893216128e-06 -0.38048129787647417 -2.1396462582094485e-08 -2.799612109069929e-06 -0.19026022956715763 0.042244864588670737 -2.7098850212938508e-06 -0.28555700342581203 -1.7160571057095771e-08 -6.1386279010014479e-06 -0.30066810957983892 -1.6255853602546363e-08 -9.7605279767957246e-06 -0.48472343187345612 0.040895730031262352 -2.703922478665906e-06 -0.46488688187789734 0.055168112198902906 -8.0464361029309202e-06 -0.47580995207382826 -1.7160571057095771e-08 -6.1386279010014479e-06 -0.30066810957983892 7.9609390852845139e-11 -1.4838261169884741e-06 -0.43571076385301805 -1.6255853600584916e-08 -9.7605279767957246e-06 -0.48472343187345612 0.055168112198902899 -8.0464361029309202e-06 -0.47580995207382826 -1.8778234984274578e-08 5.8945878325731889e-07 -0.16103852579591671 -1.8856500370044274e-08 -2.5819689898110976e-06 -0.31316251434837478 -1.7160571057095771e-08 -6.1386279010014479e-06 -0.30066810957983892 0.077895011374132156 -6.73652665287682e-06 -0.29755582431884775 7.9609389490337648e-11 -1.4838261169884726e-06 -0.4357107638530181 0.07789501137413217 -6.7365266528768209e-06 -0.29755582431884764 0.061829399966502684 2.328113674455024e-06 -0.42917884230085046 0.055168112198902886 -8.0464361029309202e-06 -0.47580995207382826 -1.7160571057095771e-08 -6.1386279010014479e-06 -0.30066810957983892 -1.8856500367278235e-08 -2.5819689898110976e-06 -0.31316251434837478 7.9609389317460248e-11 -1.4838261169884726e-06 -0.4357107638530181 0.077895011374132156 -6.73652665287682e-06 -0.29755582431884775 -1.8856500370044274e-08 -2.5819689898110976e-06 -0.31316251434837478 0.061829399966502691 2.3281136744550245e-06 -0.42917884230085052 0.077895011374132156 -6.73652665287682e-06 -0.29755582431884769 0.055697188187401631 -9.9099699491913982e-07 -0.21265829201374564 7.9609389490337648e-11 -1.4838261169884726e-06 -0.4357107638530181 0.077895011374132156 -6.7365266528768226e-06 -0.29755582431884769 -1.8856500370044274e-08 -2.5819689898110976e-06 -0.31316251434837478 0.061829399966502684 2.328113674455024e-06 -0.42917884230085046 -1.8778234984274578e-08 5.8945878325731889e-07 -0.16103852579591671 -1.8856500370044274e-08 -2.5819689898110976e-06 -0.31316251434837478 0.077895011374132142 -6.7365266528768217e-06 -0.29755582431884781 0.055697188187401617 -9.9099699491914025e-07 -0.21265829201374575 -1.7160571057095771e-08 -6.1386279010014479e-06 -0.30066810957983892 0.077895011374132156 -6.73652665287682e-06 -0.29755582431884781 7.9609388830643209e-11 -1.4838261169884724e-06 -0.4357107638530181 0.055168112198902899 -8.0464361029309219e-06 -0.47580995207382831 7.9609389490337648e-11 -1.4838261169884726e-06 -0.4357107638530181 -1.8856500371969245e-08 -2.5819689898110976e-06 -0.31316251434837478 -2.4416381241984813e-08 8.142469483467125e-06 -0.49411620917526355 0.061829399966502684 2.328113674455024e-06 -0.42917884230085046 0.1244917378017729 1.8797242248736909e-06 -0.47651852079450757 0.1247200767748515 -3.2208447003298114e-06 -0.50401888402123063 0.077895011374132114 -6.7365266528768226e-06 -0.29755582431884764 0.12436875665537614 -4.1019529537460761e-07 -0.23790637430572825 0.061829399966502684 2.328113674455024e-06 -0.42917884230085046 0.12436875665537613 -4.1019529537461015e-07 -0.23790637430572831 0.07789501137413217 -6.7365266528768183e-06 -0.29755582431884769 0.055697188187401631 -9.9099699491913855e-07 -0.2126582920137457 0.077895011374132156 -6.73652665287682e-06 -0.29755582431884775 0.12436875665537614 -4.1019529537460756e-07 -0.23790637430572828 0.1247200767748515 -3.2208447003298106e-06 -0.50401888402123041 0.12437791270408337 -3.0242180436314602e-06 -0.21525215498979697 0.1244917378017729 1.8797242248736909e-06 -0.47651852079450757 0.061829399966502684 2.328113674455024e-06 -0.42917884230085046 0.077895011374132184 -6.7365266528768243e-06 -0.29755582431884764 0.1247200767748515 -3.2208447003298114e-06 -0.50401888402123052 0.077895011374132156 -6.73652665287682e-06 -0.29755582431884775 0.061829399966502684 2.328113674455024e-06 -0.42917884230085046 0.1244917378017729 1.8797242248736901e-06 -0.47651852079450768 0.12436875665537614 -4.1019529537460751e-07 -0.23790637430572831 0.077895011374132156 -6.73652665287682e-06 -0.29755582431884775 0.12472007677485149 -3.2208447003298114e-06 -0.50401888402123052 0.061829399966502684 2.3281136744550245e-06 -0.42917884230085046 0.055168112198902886 -8.0464361029309202e-06 -0.47580995207382826 0.081951048504906199 -7.3797965516770833e-06 -1.5147086630960266e-05 0.077895011374132142 -6.7365266528768209e-06 -0.29755582431884775 0.11385838412625932 4.5478913477961713e-06 -1.101092138852453e-05 0.12436875665537614 -4.1019529537460751e-07 -0.23790637430572831 0.081951048504906199 -7.3797965516770833e-06 -1.5147086630960266e-05 0.12436875665537614 -4.1019529537460751e-07 -0.23790637430572831 0.080762987085847213 -9.5412202655674159e-07 -1.588557534122557e-05 0.055697188187401631 -9.9099699491913855e-07 -0.2126582920137457 0.11385838412625932 4.5478913477961705e-06 -1.101092138852275e-05 0.12436875665537614 -4.1019529537460751e-07 -0.23790637430572831 0.077895011374132156 -6.7365266528768192e-06 -0.29755582431884775 0.1243779127040834 -3.0242180436314589e-06 -0.21525215498979694 0.11385838412625932 4.5478913477961705e-06 -1.101092138852275e-05 0.081951048504906199 -7.3797965516770833e-06 -1.5147086630960266e-05 0.078694482820969663 3.4212277546712948e-06 -1.3634465401299783e-05 0.077895011374132156 -6.73652665287682e-06 -0.29755582431884775 0.042186339420108264 1.0581863392318956e-06 -1.314390463350111e-05 0.077895011374132142 -6.7365266528768192e-06 -0.29755582431884775 0.081951048504906199 -7.3797965516770833e-06 -1.5147086630960266e-05 0.055697188187401631 -9.9099699491913855e-07 -0.2126582920137457 0.078694482820969663 3.4212277546712948e-06 -1.3634465401299783e-05 0.11385838412625932 4.5478913477961705e-06 -1.101092138852275e-05 0.077895011374132142 -6.7365266528768209e-06 -0.29755582431884775 0.12437791270408337 -3.0242180436314611e-06 -0.21525215498979694 0.081951048504906199 -7.3797965516770833e-06 -1.5147086630960266e-05 0.07789501137413217 -6.736526652876826e-06 -0.29755582431884775 0.12436875665537614 -4.1019529537460751e-07 -0.23790637430572831 0.055697188187401644 -9.9099699491913601e-07 -0.2126582920137457 0.081951048504906199 -7.3797965516770833e-06 -1.5147086630960266e-05 0.042186339420108264 1.0581863392318969e-06 -1.3143904633497331e-05 0.078694482820969663 3.4212277546712948e-06 -1.3634465401299783e-05 0.077895011374132142 -6.73652665287682e-06 -0.29755582431884781 0.080762987085847213 -9.5412202655674159e-07 -1.588557534122557e-05 0.081951048504906199 -7.3797965516770833e-06 -1.5147086630960266e-05 0.12904859870481575 -1.5351314352072289e-06 -1.4057419581695889e-05 0.12436875665537614 -4.1019529537460751e-07 -0.23790637430572831 0.12904859870481575 -1.5351314352072289e-06 -1.4057419581695889e-05 0.081951048504906199 -7.3797965516770833e-06 -1.5147086630960266e-05 0.11385838412625932 4.5478913477961705e-06 -1.101092138852275e-05 0.12436875665537614 -4.1019529537460751e-07 -0.23790637430572831 -1.8778234984274578e-08 5.8945878325731889e-07 -0.16103852579591671 0.036484513571911473 -1.3411310138273362e-06 -1.0497820317823161e-05 0.042186339420108264 1.0581863392318958e-06 -1.3143904633498784e-05 0.077895011374132156 -6.73652665287682e-06 -0.29755582431884775 -1.8778234984274578e-08 5.8945878325731889e-07 -0.16103852579591671 0.077895011374132142 -6.7365266528768226e-06 -0.29755582431884775 0.042186339420108264 1.0581863392318958e-06 -1.3143904633492393e-05 0.055697188187401624 -9.9099699491913771e-07 -0.2126582920137457 0.042930923258855662 -2.1950757545859013e-07 -1.4326834755974172e-05 -2.2592522106355345e-08 5.9969510228284809e-07 -0.1638723945748454 0.042186339420108264 1.0581863392318956e-06 -1.314390463350111e-05 0.055697188187401631 -9.9099699491913855e-07 -0.2126582920137457 0.042930923258855662 -2.1950757545859013e-07 -1.4326834755974172e-05 0.042186339420108264 1.0581863392318956e-06 -1.314390463350111e-05 0.081951048504906199 -7.3797965516770833e-06 -1.5147086630960266e-05 0.055697188187401631 -9.9099699491913855e-07 -0.2126582920137457 -1.8778234984274578e-08 5.8945878325731889e-07 -0.16103852579591671 -1.8827091239140092e-08 -5.2216585190856438e-06 -1.310547550610441e-05 -2.3450144545605445e-08 -1.6989623204426474e-06 -1.6728164541830918e-05 0.042186339420108264 1.0581863392318956e-06 -1.314390463350111e-05 -1.8778234984274578e-08 5.8945878325731889e-07 -0.16103852579591671 -2.3450144545605445e-08 -1.6989623204426474e-06 -1.6728164541830918e-05 -2.2592522108908653e-08 5.9969510228284778e-07 -0.1638723945748454 0.042186339420108264 1.0581863392318956e-06 -1.314390463350111e-05 -1.8778234984274578e-08 5.8945878325731889e-07 -0.16103852579591671 0.042186339420108264 1.0581863392318956e-06 -1.314390463350111e-05 -2.2592522106355345e-08 5.9969510228284809e-07 -0.1638723945748454 0.055697188187401617 -9.9099699491913792e-07 -0.21265829201374564 -1.8778234984274578e-08 5.8945878325731889e-07 -0.16103852579591671 -2.2592522106355345e-08 5.9969510228284809e-07 -0.1638723945748454 -1.88565003708998e-08 -2.5819689898110976e-06 -0.31316251434837478 0.055697188187401617 -9.9099699491913877e-07 -0.21265829201374573 -2.2592522106355345e-08 5.9969510228284809e-07 -0.1638723945748454 -2.3450144548074139e-08 -1.698962320442647e-06 -1.6728164541816861e-05 -2.0814554258354533e-08 2.2433835815598261e-06 -1.5615196526916531e-05 0.042930923258855662 -2.1950757545859013e-07 -1.4326834755974172e-05 0.042186339420108264 1.0581863392318956e-06 -1.314390463350111e-05 -2.3450144545605445e-08 -1.6989623204426474e-06 -1.6728164541830918e-05 -2.2592522106355345e-08 5.9969510228284809e-07 -0.1638723945748454 0.042930923258855662 -2.1950757545859013e-07 -1.4326834755974172e-05 -1.6653738624166718e-08 1.0942686346447966e-06 -0.15120666269611963 -1.4285148692634927e-08 -4.9639913325667401e-06 -0.30859306888191457 0.055697188187401644 -9.9099699491913686e-07 -0.21265829201374564 0.048020984540572111 -6.5553656551163343e-09 -0.18327024197981645 0.039611009533874829 -3.2311468560288279e-06 -1.3070940553434406e-05 -1.6653738624762625e-08 1.0942686346447966e-06 -0.15120666269611963 0.055697188187401631 -9.9099699491913834e-07 -0.21265829201374573 0.048020984540572118 -6.5553656551169481e-09 -0.18327024197981648 -1.6653738624166718e-08 1.0942686346447966e-06 -0.15120666269611963 0.042930923258855662 -2.1950757545859013e-07 -1.4326834755974172e-05 -2.081455425814842e-08 2.2433835815598261e-06 -1.5615196526915745e-05 0.039611009533874829 -3.2311468560288279e-06 -1.3070940553434406e-05 0.080762987085847213 -9.5412202655674159e-07 -1.588557534122557e-05 0.039611009533874829 -3.2311468560288279e-06 -1.3070940553434406e-05 0.055697188187401638 -9.9099699491913813e-07 -0.21265829201374573 0.048020984540572118 -6.5553656551168157e-09 -0.18327024197981648 -2.0814554258354533e-08 2.2433835815598261e-06 -1.5615196526916531e-05 -2.2592522106355345e-08 5.9969510228284809e-07 -0.1638723945748454 0.042930923258855662 -2.1950757545859026e-07 -1.4326834755979614e-05 -1.6653738624166718e-08 1.0942686346447966e-06 -0.15120666269611963 -1.6653738624166718e-08 1.0942686346447966e-06 -0.15120666269611963 -2.0814554258354533e-08 2.2433835815598261e-06 -1.5615196526916531e-05 -2.1395335786546836e-08 -3.912924703558535e-06 -1.2706023198468864e-05 0.039611009533874829 -3.2311468560288279e-06 -1.3070940553434406e-05 0.077311640449027427 -5.1899736506214115e-06 -1.414818218116865e-05 0.039611009533874836 -3.2311468560288288e-06 -1.3070940553430147e-05 0.080762987085847213 -9.5412202655674138e-07 -1.5885575341229856e-05 0.048020984540572118 -6.5553656551168157e-09 -0.18327024197981648 0.080762987085847213 -9.5412202655674159e-07 -1.588557534122557e-05 0.039611009533874829 -3.2311468560288279e-06 -1.3070940553434406e-05 0.042930923258855662 -2.1950757545859013e-07 -1.4326834755974172e-05 0.055697188187401631 -9.9099699491913855e-07 -0.2126582920137457 0.039611009533874829 -3.2311468560288279e-06 -1.3070940553434406e-05 -1.665373862533692e-08 1.0942686346447966e-06 -0.1512066626961196 0.042930923258855662 -2.1950757545859013e-07 -1.4326834755974172e-05 0.055697188187401631 -9.9099699491913855e-07 -0.2126582920137457 -1.6653738624166718e-08 1.0942686346447966e-06 -0.15120666269611963 -2.0878497990223443e-08 7.2947764899069628e-06 -0.2955014681908531 -1.4285148692634927e-08 -4.9639913325667401e-06 -0.30859306888191457 0.048020984540572104 -6.5553656551154716e-09 -0.18327024197981651 -2.2592522106355345e-08 5.9969510228284809e-07 -0.1638723945748454 -1.6653738624166718e-08 1.0942686346447966e-06 -0.15120666269611963 -1.4285148692634927e-08 -4.9639913325667401e-06 -0.30859306888191457 0.055697188187401631 -9.9099699491913855e-07 -0.2126582920137457 -2.2592522106355345e-08 5.9969510228284809e-07 -0.1638723945748454 0.042930923258855669 -2.1950757545859026e-07 -1.4326834755978645e-05 -1.6653738624166718e-08 1.0942686346447966e-06 -0.15120666269611963 0.055697188187401631 -9.9099699491913855e-07 -0.2126582920137457 -1.4285148692634927e-08 -4.9639913325667401e-06 -0.30859306888191457 0.056194723218661882 7.1145208626088912e-06 -0.45853273043991716 0.089282823496819624 2.9451401278659121e-08 -0.28594712532432581 0.048020984540572118 -6.5553656551180962e-09 -0.18327024197981642 -1.4285148692634927e-08 -4.9639913325667401e-06 -0.30859306888191457 0.061829399966502697 2.3281136744550245e-06 -0.4291788423008504 -1.8856500370044274e-08 -2.5819689898110976e-06 -0.31316251434837478 0.055697188187401651 -9.9099699491913898e-07 -0.21265829201374567 -1.4285148692634927e-08 -4.9639913325667401e-06 -0.30859306888191457 -2.0878497987977529e-08 7.2947764899069628e-06 -0.2955014681908531 0.056194723218661882 7.1145208626088904e-06 -0.4585327304399171 0.048020984540572111 -6.5553656551169646e-09 -0.18327024197981645 0.089282823496819624 2.9451401278659121e-08 -0.28594712532432581 0.055697188187401644 -9.9099699491913707e-07 -0.21265829201374564 -1.428514869071091e-08 -4.9639913325667401e-06 -0.30859306888191462 0.048020984540572111 -6.5553656551163054e-09 -0.18327024197981642 -2.2592522106355345e-08 5.9969510228284809e-07 -0.1638723945748454 -1.4285148692388621e-08 -4.9639913325667401e-06 -0.30859306888191457 -1.8856500370044274e-08 -2.5819689898110976e-06 -0.31316251434837478 0.055697188187401631 -9.9099699491913855e-07 -0.2126582920137457 -1.4285148692634927e-08 -4.9639913325667401e-06 -0.30859306888191457 0.061829399966502684 2.3281136744550257e-06 -0.42917884230085052 0.089282823496819624 2.9451401278659121e-08 -0.28594712532432581 0.056194723218661889 7.1145208626088887e-06 -0.4585327304399171 0.089282823496819624 2.9451401278659121e-08 -0.28594712532432581 0.061829399966502684 2.3281136744550232e-06 -0.42917884230085046 -1.4285148700195557e-08 -4.963991332566741e-06 -0.30859306888191462 0.055697188187401651 -9.9099699491913728e-07 -0.21265829201374573 -1.8856500370044274e-08 -2.5819689898110976e-06 -0.31316251434837478 -1.4285148696131402e-08 -4.9639913325667401e-06 -0.30859306888191457 -2.4416381241984813e-08 8.142469483467125e-06 -0.49411620917526355 0.061829399966502684 2.328113674455024e-06 -0.42917884230085046 3.3552353363292535e-10 1.6428997975901956e-06 -0.43429667455156457 -2.4416381241984813e-08 8.142469483467125e-06 -0.49411620917526355 -1.4285148692634927e-08 -4.9639913325667401e-06 -0.30859306888191457 0.061829399966502684 2.328113674455024e-06 -0.42917884230085046 -3.2808509531534163e-08 2.8940334994547167e-06 -0.57002592420494524 0.061829399966502691 2.3281136744550228e-06 -0.42917884230085052 3.3552353363292535e-10 1.6428997975901956e-06 -0.43429667455156457 0.056194723218661889 7.1145208626088895e-06 -0.4585327304399171 -1.4285148692634927e-08 -4.9639913325667401e-06 -0.30859306888191457 -2.0878497987977529e-08 7.2947764899069628e-06 -0.2955014681908531 3.3552352893562825e-10 1.642899797590196e-06 -0.43429667455156457 0.056194723218661889 7.1145208626088895e-06 -0.4585327304399171 3.3552353363292535e-10 1.6428997975901956e-06 -0.43429667455156457 0.061829399966502684 2.3281136744550245e-06 -0.42917884230085046 -1.4285148692634927e-08 -4.9639913325667401e-06 -0.30859306888191457 0.056194723218661889 7.1145208626088895e-06 -0.4585327304399171 0.042222506332501283 2.7329116419364058e-06 -0.28616289343957907 0.082060763292326228 3.1709087727488348e-06 -0.3771551990154382 0.056194723218661889 7.1145208626088895e-06 -0.4585327304399171 0.048020984540572118 -6.5553656551168157e-09 -0.18327024197981648 -2.0878497987977529e-08 7.2947764899069628e-06 -0.2955014681908531 0.042222506332501283 2.7329116419364058e-06 -0.28616289343957907 0.056194723218661889 7.1145208626088895e-06 -0.4585327304399171 0.048020984540572118 -6.5553656551168157e-09 -0.18327024197981648 0.043023482784123074 2.9805779175268191e-06 -0.47410834104926031 -2.1270266617513591e-08 1.2599587669178115e-05 -0.48315795920043431 -2.0878497986840208e-08 7.294776489906962e-06 -0.29550146819085304 0.056194723218661889 7.1145208626088887e-06 -0.45853273043991705 3.3552353363292535e-10 1.6428997975901956e-06 -0.43429667455156457 -2.0878497987977529e-08 7.2947764899069628e-06 -0.2955014681908531 -2.127026660429267e-08 1.2599587669178114e-05 -0.48315795920043431 0.056194723218661889 7.1145208626088895e-06 -0.4585327304399171 0.043023482784123074 2.9805779175268191e-06 -0.47410834104926031 -1.2709090937040027e-08 3.4955220991205951e-06 -0.38047910570922849 -2.0878497984222562e-08 7.2947764899069603e-06 -0.29550146819085304 -2.127026660429267e-08 1.2599587669178114e-05 -0.48315795920043425 -2.0878497987977529e-08 7.2947764899069628e-06 -0.2955014681908531 0.042222506332501283 2.7329116419364058e-06 -0.28616289343957907 -1.2709090937040027e-08 3.4955220991205951e-06 -0.38047910570922849 0.043023482784123081 2.9805779175268186e-06 -0.47410834104926036 0.043023482784123074 2.9805779175268191e-06 -0.47410834104926031 -2.0878497995167876e-08 7.2947764899069645e-06 -0.29550146819085304 0.042222506332501283 2.7329116419364058e-06 -0.28616289343957907 0.056194723218661875 7.1145208626088895e-06 -0.4585327304399171 0.043023482784123074 2.9805779175268191e-06 -0.47410834104926031 0.042222506332501283 2.7329116419364058e-06 -0.28616289343957907 0.082060763292326228 3.1709087727488348e-06 -0.3771551990154382 0.056194723218661889 7.1145208626088895e-06 -0.4585327304399171 -1.2709090937040027e-08 3.4955220991205951e-06 -0.38047910570922849 -1.948960344694786e-08 2.7381213106892194e-06 -0.19027282215306593 0.042222506332501283 2.7329116419364058e-06 -0.28616289343957907 -2.0878497987977529e-08 7.2947764899069628e-06 -0.2955014681908531 0.042222506332501283 2.7329116419364058e-06 -0.28616289343957907 -1.9489603456561932e-08 2.7381213106892206e-06 -0.19027282215306596 -1.2426544763010543e-08 -7.4932126688100419e-07 -0.13927398983280612 -2.0878497992665171e-08 7.2947764899069628e-06 -0.2955014681908531 0.036495227968127722 2.1918774101980826e-06 -0.13932654706315389 -1.948960344694786e-08 2.7381213106892194e-06 -0.19027282215306593 -1.242654474908275e-08 -7.4932126688100673e-07 -0.13927398983280612 0.042222506332501283 2.7329116419364058e-06 -0.28616289343957907 0.049817058705578454 3.0993035565765392e-06 -1.4376870973305804e-05 -2.2995361076842099e-08 2.953696553392149e-06 -1.4392267694341754e-05 0.036467155707460785 -3.6879610330236954e-06 -1.0478334561726479e-05 0.036495227968127722 2.1918774101980826e-06 -0.13932654706315389 -1.242654474932065e-08 -7.4932126688100673e-07 -0.13927398983280612 -2.2995361075764018e-08 2.9536965533921494e-06 -1.439226769433048e-05 -1.948960344694786e-08 2.7381213106892194e-06 -0.19027282215306593 0.036495227968127722 2.1918774101980826e-06 -0.13932654706315389 -1.242654474932065e-08 -7.4932126688100673e-07 -0.13927398983280612 0.036467155707460785 -3.6879610330236954e-06 -1.0478334561726479e-05 -2.2995361075764018e-08 2.9536965533921494e-06 -1.439226769433048e-05 0.036495227968127722 2.1918774101980826e-06 -0.13932654706315389 0.036467155707460785 -3.6879610330236954e-06 -1.0478334561726479e-05 -2.2995361079929676e-08 2.9536965533921499e-06 -1.439226769434477e-05 -2.1395335789265947e-08 -3.912924703558535e-06 -1.2706023198479243e-05 -1.242654474932065e-08 -7.4932126688100673e-07 -0.13927398983280612 -1.242654474932065e-08 -7.4932126688100673e-07 -0.13927398983280612 -1.6653738624166718e-08 1.0942686346447966e-06 -0.15120666269611963 0.039611009533874836 -3.2311468560288279e-06 -1.3070940553440059e-05 0.048020984540572118 -6.5553656551168157e-09 -0.18327024197981648 -2.1395335789265947e-08 -3.912924703558535e-06 -1.2706023198479243e-05 0.039611009533874829 -3.2311468560288279e-06 -1.3070940553434406e-05 0.036467155707460785 -3.6879610330236954e-06 -1.0478334561726479e-05 -1.242654474932065e-08 -7.4932126688100673e-07 -0.13927398983280612 0.036495227968127722 2.1918774101980826e-06 -0.13932654706315389 -1.2426544750529553e-08 -7.4932126688100673e-07 -0.13927398983280609 0.036467155707460785 -3.6879610330236958e-06 -1.0478334561722116e-05 0.048020984540572118 -6.5553656551174163e-09 -0.18327024197981645 0.039611009533874829 -3.2311468560288279e-06 -1.3070940553434406e-05 -2.1395335789265947e-08 -3.912924703558535e-06 -1.2706023198479243e-05 -1.6653738624166718e-08 1.0942686346447966e-06 -0.15120666269611963 -1.242654474932065e-08 -7.4932126688100673e-07 -0.13927398983280612 0.039611009533874829 -3.2311468560288279e-06 -1.3070940553434406e-05 0.036467155707460785 -3.6879610330236958e-06 -1.0478334561715221e-05 -1.242654474932065e-08 -7.4932126688100673e-07 -0.13927398983280612 0.048020984540572118 -6.5553656551168157e-09 -0.18327024197981648 0.042222506332501283 2.7329116419364058e-06 -0.28616289343957907 -2.0878497998060741e-08 7.2947764899069611e-06 -0.2955014681908531 -1.2426544754008295e-08 -7.493212668810044e-07 -0.13927398983280614 0.048020984540572118 -6.5553656551168157e-09 -0.18327024197981648 -1.242654474932065e-08 -7.4932126688100673e-07 -0.13927398983280612 -2.0878497987977529e-08 7.2947764899069628e-06 -0.2955014681908531 -1.6653738624166718e-08 1.0942686346447966e-06 -0.15120666269611963 0.048020984540572118 -6.5553656551168157e-09 -0.18327024197981648 0.036495227968127722 2.1918774101980826e-06 -0.13932654706315389 0.036467155707460799 -3.6879610330236941e-06 -1.0478334561777799e-05 0.077311640449027427 -5.1899736506214107e-06 -1.4148182181193528e-05 0.048020984540572118 -6.5553656551174312e-09 -0.18327024197981645 0.039611009533874829 -3.2311468560288279e-06 -1.3070940553434406e-05 0.077311640449027427 -5.1899736506214115e-06 -1.414818218116865e-05 0.036467155707460785 -3.6879610330236954e-06 -1.0478334561726479e-05 0.048020984540572118 -6.5553656551168157e-09 -0.18327024197981648 0.036467155707460785 -3.6879610330236954e-06 -1.0478334561726479e-05 0.077311640449027427 -5.1899736506214115e-06 -1.414818218116865e-05 0.049817058705578454 3.0993035565765392e-06 -1.4376870973305804e-05 0.036495227968127722 2.1918774101980826e-06 -0.13932654706315389 0.078765406398609655 2.8566399975009561e-06 -0.17919860181898564 0.049817058705578461 3.0993035565765418e-06 -1.4376870973294183e-05 0.077311640449027427 -5.1899736506214115e-06 -1.414818218116865e-05 0.036495227968127722 2.1918774101980826e-06 -0.13932654706315389 0.077311640449027427 -5.1899736506214115e-06 -1.414818218116865e-05 0.078765406398609655 2.8566399975009561e-06 -0.17919860181898564 0.036495227968127715 2.1918774101980813e-06 -0.13932654706315384 0.048020984540572124 -6.5553656551171723e-09 -0.18327024197981648 0.078765406398609655 2.8566399975009561e-06 -0.17919860181898564 0.042222506332501283 2.7329116419364058e-06 -0.28616289343957907 0.036495227968127722 2.1918774101980826e-06 -0.13932654706315389 0.048020984540572118 -6.5553656551168157e-09 -0.18327024197981648 0.036495227968127722 2.1918774101980826e-06 -0.13932654706315389 0.042222506332501283 2.7329116419364058e-06 -0.28616289343957907 -1.242654474932065e-08 -7.4932126688100673e-07 -0.13927398983280612 0.048020984540572118 -6.5553656551168157e-09 -0.18327024197981648 0.089282823496819624 2.9451401278659121e-08 -0.28594712532432581 0.048020984540572124 -6.5553656551170168e-09 -0.18327024197981642 0.078765406398609655 2.8566399975009561e-06 -0.17919860181898564 0.13139245940126429 8.8237807001437487e-07 -0.19854856473297924 0.077311640449027427 -5.1899736506214115e-06 -1.414818218116865e-05 0.048020984540572118 -6.5553656551168157e-09 -0.18327024197981648 0.089282823496819638 2.9451401278653629e-08 -0.28594712532432581 0.13139245940126429 8.823780700143755e-07 -0.19854856473297927 0.077311640449027427 -5.1899736506214115e-06 -1.414818218116865e-05 0.078765406398609655 2.8566399975009552e-06 -0.17919860181898559 0.048020984540572118 -6.5553656551172533e-09 -0.18327024197981648 0.13139245940126429 8.8237807001437603e-07 -0.19854856473297927 0.077311640449027427 -5.1899736506214115e-06 -1.414818218116865e-05 0.099474848148806666 3.6362915446261476e-06 -1.6759442160568745e-05 0.049817058705578454 3.0993035565765392e-06 -1.4376870973305804e-05 0.078765406398609655 2.8566399975009561e-06 -0.17919860181898564 0.077311640449027427 -5.1899736506214115e-06 -1.414818218116865e-05 0.12617770635935519 3.5689765729779548e-06 -1.3719034865957845e-05 0.078765406398609655 2.8566399975009561e-06 -0.17919860181898564 0.13139245940126429 8.823780700143718e-07 -0.1985485647329793 0.11348199420826978 -3.086342146371342e-06 -1.0775547626709763e-05 0.12617770635935519 3.5689765729779586e-06 -1.3719034865929114e-05 0.077311640449027427 -5.1899736506214115e-06 -1.4148182181164681e-05 0.13139245940126429 8.823780700143754e-07 -0.19854856473297922 0.12697154180680426 2.6651633321148698e-06 -0.15604365119404676 0.078765406398609655 2.8566399975009561e-06 -0.17919860181898564 0.099474848148806666 3.6362915446261476e-06 -1.6759442160538198e-05 0.12617770635935519 3.5689765729779586e-06 -1.3719034865929114e-05 0.078765406398609655 2.8566399975009561e-06 -0.17919860181898564 0.077311640449027427 -5.1899736506214115e-06 -1.4148182181209436e-05 0.099474848148806666 3.6362915446261476e-06 -1.6759442160568745e-05 0.12617770635935519 3.5689765729779586e-06 -1.3719034865929114e-05 0.12697154180680426 2.6651633321148698e-06 -0.15604365119404676 0.11395039389270051 2.1622775446706433e-06 -0.29566849412702906 0.078765406398609655 2.8566399975009561e-06 -0.17919860181898564 0.13139245940126429 8.8237807001437508e-07 -0.19854856473297924 0.12697154180680426 2.6651633321148698e-06 -0.15604365119404676 0.078765406398609655 2.8566399975009561e-06 -0.17919860181898564 0.12617770635935521 3.5689765729779582e-06 -1.3719034865935675e-05 0.13139245940126429 8.823780700143754e-07 -0.19854856473297922 0.082060763292326228 3.1709087727488348e-06 -0.3771551990154382 0.089282823496819624 2.9451401278660425e-08 -0.28594712532432587 0.12448473022069162 -1.6331552767735802e-06 -0.5047767797297622 0.056194723218661889 7.1145208626088895e-06 -0.4585327304399171 0.089282823496819624 2.9451401278659121e-08 -0.28594712532432581 0.056194723218661889 7.1145208626088895e-06 -0.4585327304399171 0.082060763292326228 3.1709087727488348e-06 -0.3771551990154382 0.048020984540572111 -6.5553656551169878e-09 -0.18327024197981642 0.078765406398609655 2.8566399975009561e-06 -0.17919860181898564 0.11395039389270049 2.1622775446706429e-06 -0.29566849412702906 0.082060763292326228 3.1709087727488348e-06 -0.3771551990154382 0.08928282349681961 2.9451401278658162e-08 -0.28594712532432581 0.11395039389270049 2.1622775446706429e-06 -0.29566849412702906 0.089282823496819597 2.9451401278658933e-08 -0.28594712532432587 0.078765406398609655 2.8566399975009561e-06 -0.17919860181898564 0.13139245940126429 8.8237807001437487e-07 -0.19854856473297924 0.078765406398609655 2.8566399975009561e-06 -0.17919860181898564 0.089282823496819652 2.9451401278658867e-08 -0.28594712532432581 0.082060763292326241 3.1709087727488352e-06 -0.3771551990154382 0.048020984540572118 -6.5553656551168157e-09 -0.18327024197981648 0.11395039389270049 2.1622775446706429e-06 -0.29566849412702906 0.12448473022069155 -1.633155276773577e-06 -0.5047767797297622 0.089282823496819624 2.9451401278658473e-08 -0.28594712532432587 0.13139245940126429 8.8237807001437487e-07 -0.19854856473297924 0.11395039389270049 2.1622775446706429e-06 -0.29566849412702906 0.082060763292326228 3.1709087727488348e-06 -0.3771551990154382 0.089282823496819624 2.9451401278658307e-08 -0.28594712532432581 0.12448473022069156 -1.6331552767735773e-06 -0.50477677972976198 0.078765406398609655 2.8566399975009561e-06 -0.17919860181898564 0.082060763292326228 3.1709087727488348e-06 -0.3771551990154382 0.042222506332501283 2.7329116419364058e-06 -0.28616289343957907 0.048020984540572118 -6.5553656551168157e-09 -0.18327024197981648 0.082060763292326228 3.1709087727488348e-06 -0.3771551990154382 0.081085593831984118 3.3036288196177573e-06 -0.57136833598898229 0.043023482784123074 2.9805779175268191e-06 -0.47410834104926031 0.056194723218661889 7.1145208626088895e-06 -0.4585327304399171 0.11395039389270049 2.1622775446706429e-06 -0.29566849412702906 0.12928674328126483 2.8216074349781544e-06 -0.47658643332540351 0.082060763292326228 3.1709087727488348e-06 -0.3771551990154382 0.12448473022069158 -1.6331552767735775e-06 -0.50477677972976209 0.061829399966502684 2.328113674455024e-06 -0.42917884230085046 0.12448473022069156 -1.633155276773577e-06 -0.50477677972976198 0.089282823496819624 2.9451401278660137e-08 -0.28594712532432581 0.056194723218661896 7.1145208626088878e-06 -0.45853273043991705 0.089282823496819624 2.9451401278659121e-08 -0.28594712532432581 0.12449173780177292 1.8797242248736914e-06 -0.47651852079450763 0.061829399966502684 2.328113674455024e-06 -0.42917884230085046 0.12436875665537613 -4.1019529537460782e-07 -0.23790637430572822 0.089282823496819624 2.9451401278659121e-08 -0.28594712532432581 0.061829399966502684 2.328113674455024e-06 -0.42917884230085046 0.1244917378017729 1.8797242248736912e-06 -0.47651852079450752 0.12448473022069158 -1.6331552767735781e-06 -0.50477677972976209 0.089282823496819624 2.9451401278659121e-08 -0.28594712532432581 0.12436875665537614 -4.1019529537460751e-07 -0.23790637430572831 0.061829399966502677 2.328113674455024e-06 -0.4291788423008504 0.055697188187401631 -9.9099699491913855e-07 -0.2126582920137457 0.089282823496819624 2.9451401278659121e-08 -0.28594712532432581 0.080762987085847213 -9.5412202655674159e-07 -1.588557534122557e-05 0.12436875665537614 -4.1019529537460751e-07 -0.23790637430572831 0.055697188187401631 -9.9099699491913855e-07 -0.2126582920137457 0.077311640449027427 -5.1899736506214115e-06 -1.414818218116865e-05 0.080762987085847213 -9.5412202655674159e-07 -1.588557534122557e-05 0.11348199420826978 -3.086342146371342e-06 -1.0775547626709763e-05 0.089282823496819624 2.9451401278659386e-08 -0.28594712532432587 0.080762987085847213 -9.5412202655674159e-07 -1.588557534122557e-05 0.055697188187401644 -9.9099699491913834e-07 -0.2126582920137457 0.089282823496819624 2.9451401278659098e-08 -0.28594712532432587 0.048020984540572118 -6.5553656551168157e-09 -0.18327024197981648 0.080762987085847213 -9.5412202655674159e-07 -1.588557534122557e-05 0.11348199420826978 -3.086342146371342e-06 -1.0775547626714123e-05 0.089282823496819624 2.9451401278658956e-08 -0.28594712532432581 0.12436875665537614 -4.1019529537460751e-07 -0.23790637430572831 0.077311640449027427 -5.1899736506214115e-06 -1.414818218116865e-05 0.080762987085847213 -9.5412202655674159e-07 -1.588557534122557e-05 0.089282823496819624 2.9451401278658638e-08 -0.28594712532432581 0.048020984540572118 -6.5553656551168157e-09 -0.18327024197981648 0.11348199420826978 -3.086342146371342e-06 -1.0775547626709763e-05 0.077311640449027427 -5.1899736506214115e-06 -1.4148182181169118e-05 0.089282823496819624 2.9451401278659121e-08 -0.28594712532432581 0.13139245940126429 8.8237807001437455e-07 -0.19854856473297924 0.089282823496819624 2.9451401278659121e-08 -0.28594712532432581 0.12436875665537614 -4.1019529537460751e-07 -0.23790637430572831 0.11348199420826978 -3.086342146371342e-06 -1.0775547626709763e-05 0.13139245940126429 8.8237807001437487e-07 -0.19854856473297924 0.042930923258855662 -2.1950757545859013e-07 -1.4326834755974172e-05 0.081951048504906199 -7.3797965516770833e-06 -1.5147086630960266e-05 0.080762987085847213 -9.5412202655674159e-07 -1.588557534122557e-05 0.055697188187401631 -9.9099699491913855e-07 -0.2126582920137457 0.080762987085847213 -9.5412202655674159e-07 -1.588557534122557e-05 0.12904859870481575 -1.5351314352072289e-06 -1.4057419581695889e-05 0.11348199420826978 -3.086342146371342e-06 -1.0775547626709763e-05 0.12436875665537614 -4.1019529537460751e-07 -0.23790637430572831 0.17986190018997186 7.7497602608415384e-06 -9.0148223086623693e-06 0.16969423965362673 -3.7564271905044317e-08 -0.29676648889827456 0.14865559641902001 3.3984009146702794e-07 -1.070582413278128e-05 0.19214286834706779 1.040760958243376e-06 -0.20794122285494668 0.16969423965362676 -3.7564271905038288e-08 -0.29676648889827456 0.12436875665537613 -4.1019529537460767e-07 -0.23790637430572834 0.14865559641902001 3.3984009146702804e-07 -1.0705824132773643e-05 0.19214286834706776 1.0407609582433709e-06 -0.20794122285494665 0.14865559641902001 3.3984009146702794e-07 -1.070582413278128e-05 0.11348199420826978 -3.086342146371342e-06 -1.077554762671718e-05 0.12436875665537613 -4.1019529537460719e-07 -0.23790637430572834 0.13139245940126429 8.8237807001437561e-07 -0.1985485647329793 0.12904859870481575 -1.5351314352072289e-06 -1.4057419581695889e-05 0.1667222242436053 -5.0626937182923129e-06 -1.1075143514331071e-05 0.14865559641902001 3.3984009146702794e-07 -1.070582413278128e-05 0.12436875665537614 -4.1019529537460751e-07 -0.23790637430572831 0.14865559641902001 3.3984009146702794e-07 -1.070582413278128e-05 0.12436875665537613 -4.101952953746074e-07 -0.23790637430572831 0.16969423965362676 -3.7564271905038506e-08 -0.29676648889827456 0.13139245940126423 8.8237807001437529e-07 -0.19854856473297927 0.14865559641902001 3.3984009146702794e-07 -1.070582413278128e-05 0.12436875665537611 -4.1019529537460835e-07 -0.23790637430572831 0.1667222242436053 -5.0626937182923129e-06 -1.1075143514331071e-05 0.19214286834706773 1.0407609582433694e-06 -0.20794122285494665 0.14865559641902001 3.3984009146702794e-07 -1.070582413278128e-05 0.13139245940126426 8.8237807001438514e-07 -0.19854856473297922 0.16969423965362673 -3.7564271905038579e-08 -0.29676648889827456 0.20149274852076618 1.6198191271357913e-05 -0.17654105053243016 0.14865559641902001 3.3984009146702794e-07 -1.070582413278128e-05 0.11348199420826978 -3.086342146371342e-06 -1.0775547626716385e-05 0.12904859870481575 -1.5351314352072289e-06 -1.4057419581695889e-05 0.12436875665537614 -4.1019529537460751e-07 -0.23790637430572831 0.14865559641902001 3.3984009146702794e-07 -1.070582413278128e-05 0.16969423965362676 -3.7564271905038288e-08 -0.29676648889827456 0.17986190018997186 7.7497602608415384e-06 -9.0148223086623693e-06 0.20149274852076618 1.619819127135791e-05 -0.17654105053243016 0.11348199420826978 -3.086342146371342e-06 -1.0775547626709763e-05 0.14865559641902001 3.398400914670281e-07 -1.070582413277982e-05 0.12617770635935519 3.568976572977959e-06 -1.3719034865944992e-05 0.13139245940126429 8.8237807001437561e-07 -0.19854856473297922 0.14865559641902001 3.3984009146702794e-07 -1.070582413278128e-05 0.17986190018997186 7.7497602608415401e-06 -9.0148223086575226e-06 0.17456714063152073 2.2672922941839086e-05 -1.3755136032550436e-05 0.20149274852076618 1.619819127135791e-05 -0.17654105053243016 0.17986190018997186 7.7497602608415384e-06 -9.0148223086623693e-06 0.14865559641902001 3.3984009146702783e-07 -1.0705824132781024e-05 0.1667222242436053 -5.0626937182923129e-06 -1.1075143514323463e-05 0.19214286834706776 1.0407609582433709e-06 -0.20794122285494665 0.16969423965362676 -3.7564271905038288e-08 -0.29676648889827456 0.12436875665537614 -4.1019529537460698e-07 -0.23790637430572822 0.089282823496819624 2.9451401278659121e-08 -0.28594712532432581 0.13139245940126426 8.8237807001437444e-07 -0.19854856473297924 0.16969423965362676 -3.7564271905038288e-08 -0.29676648889827456 0.08928282349681961 2.9451401278659565e-08 -0.28594712532432576 0.1244917378017729 1.8797242248736909e-06 -0.47651852079450757 0.12448473022069158 -1.6331552767735775e-06 -0.50477677972976209 0.1244917378017729 1.8797242248736909e-06 -0.47651852079450757 0.089282823496819624 2.9451401278659525e-08 -0.28594712532432587 0.16969423965362676 -3.7564271905038288e-08 -0.29676648889827456 0.12436875665537615 -4.1019529537460767e-07 -0.23790637430572834 0.1244917378017729 1.8797242248736909e-06 -0.47651852079450757 0.16969423965362676 -3.7564271905038288e-08 -0.29676648889827456 0.18599851868535691 -2.8588321509062808e-06 -0.47589816607970903 0.12436875665537617 -4.1019529537460888e-07 -0.23790637430572834 0.16969423965362676 -3.7564271905038288e-08 -0.29676648889827456 0.12448473022069158 -1.6331552767735775e-06 -0.50477677972976209 0.18599851868535691 -2.8588321509062808e-06 -0.47589816607970903 0.1915623408445809 9.0972728785947215e-06 -0.47586967716448897 0.18599851868535691 -2.8588321509062808e-06 -0.47589816607970903 0.12436875665537614 -4.1019529537460899e-07 -0.23790637430572842 0.16969423965362676 -3.7564271905037898e-08 -0.29676648889827451 0.19214286834706779 1.0407609582433711e-06 -0.20794122285494665 0.089282823496819624 2.9451401278659121e-08 -0.28594712532432581 0.12448473022069158 -1.6331552767735775e-06 -0.50477677972976209 0.16969423965362676 -3.7564271905038288e-08 -0.29676648889827456 0.13139245940126429 8.8237807001437487e-07 -0.19854856473297924 0.1244917378017729 1.8797242248736909e-06 -0.47651852079450757 0.18599851868535688 -2.8588321509062816e-06 -0.47589816607970908 0.16969423965362676 -3.7564271905038288e-08 -0.29676648889827456 0.12448473022069158 -1.6331552767735775e-06 -0.50477677972976209 0.16969423965362676 -3.7564271905038288e-08 -0.29676648889827456 0.13139245940126429 8.8237807001437476e-07 -0.19854856473297924 0.15155046428098254 2.9767279480530814e-06 -0.31598661457569471 0.20149274852076618 1.619819127135791e-05 -0.17654105053243016 0.15155046428098254 2.9767279480530814e-06 -0.31598661457569471 0.12448473022069158 -1.6331552767735768e-06 -0.50477677972976198 0.16969423965362676 -3.7564271905038288e-08 -0.29676648889827456 0.1915623408445809 9.0972728785947215e-06 -0.47586967716448897 0.15155046428098254 2.9767279480530814e-06 -0.31598661457569471 0.16937938310226036 3.2721411712159523e-06 -0.49923937650213968 0.12448473022069161 -1.6331552767735739e-06 -0.50477677972976198 0.1915623408445809 9.0972728785947215e-06 -0.47586967716448897 0.20443147942053319 3.2326379415007947e-06 -0.30003281463721848 0.16969423965362673 -3.7564271905040459e-08 -0.29676648889827456 0.15155046428098254 2.9767279480530776e-06 -0.31598661457569471 0.20149274852076621 1.6198191271357893e-05 -0.1765410505324303 0.11395039389270049 2.1622775446706429e-06 -0.29566849412702906 0.15155046428098254 2.9767279480530814e-06 -0.31598661457569471 0.12448473022069158 -1.6331552767735777e-06 -0.50477677972976209 0.13139245940126429 8.8237807001437487e-07 -0.19854856473297924 0.15155046428098254 2.9767279480530814e-06 -0.31598661457569471 0.16969423965362679 -3.7564271905035284e-08 -0.29676648889827462 0.20443147942053319 3.2326379415007947e-06 -0.30003281463721848 0.1915623408445809 9.0972728785947215e-06 -0.47586967716448897 0.16969423965362676 -3.7564271905038288e-08 -0.29676648889827456 0.12448473022069159 -1.6331552767735775e-06 -0.50477677972976209 0.15155046428098254 2.9767279480530814e-06 -0.31598661457569471 0.13139245940126429 8.8237807001437476e-07 -0.19854856473297927 0.15155046428098254 2.9767279480530814e-06 -0.31598661457569471 0.16937938310226036 3.2721411712159527e-06 -0.49923937650213968 0.12928674328126483 2.8216074349781544e-06 -0.47658643332540351 0.12448473022069158 -1.6331552767735775e-06 -0.50477677972976209 0.12928674328126483 2.8216074349781544e-06 -0.47658643332540351 0.11395039389270049 2.1622775446706429e-06 -0.29566849412702906 0.15155046428098254 2.9767279480530814e-06 -0.31598661457569471 0.12448473022069158 -1.6331552767735783e-06 -0.50477677972976209 0.16937938310226036 3.2721411712159527e-06 -0.49923937650213968 0.15155046428098251 2.9767279480530814e-06 -0.31598661457569471 0.20443147942053319 3.2326379415007947e-06 -0.30003281463721848 0.1915623408445809 9.0972728785947215e-06 -0.47586967716448897 0.12697154180680426 2.6651633321148698e-06 -0.15604365119404676 0.15155046428098254 2.9767279480530814e-06 -0.31598661457569471 0.11395039389270049 2.1622775446706429e-06 -0.29566849412702906 0.13139245940126429 8.8237807001437519e-07 -0.19854856473297924 0.12697154180680426 2.6651633321148698e-06 -0.15604365119404676 0.17328200018056467 2.6737787730141964e-06 -0.16164221495044231 0.15155046428098254 2.9767279480530814e-06 -0.31598661457569471 0.13139245940126429 8.8237807001437519e-07 -0.19854856473297924 0.17328200018056467 2.6737787730141964e-06 -0.16164221495044231 0.15155046428098254 2.9767279480530814e-06 -0.31598661457569471 0.13139245940126429 8.8237807001437762e-07 -0.19854856473297927 0.20149274852076618 1.6198191271357903e-05 -0.17654105053243013 0.17328200018056467 2.6737787730141964e-06 -0.16164221495044231 0.13139245940126432 8.823780700143755e-07 -0.19854856473297924 0.17456714063152073 2.267292294183909e-05 -1.3755136032552006e-05 0.20149274852076618 1.619819127135791e-05 -0.17654105053243008 0.17328200018056467 2.6737787730141964e-06 -0.16164221495044231 0.12697154180680426 2.6651633321148698e-06 -0.15604365119404676 0.12617770635935519 3.5689765729779599e-06 -1.3719034865858766e-05 0.13139245940126429 8.8237807001437582e-07 -0.19854856473297919 0.14865559641902001 3.3984009146702794e-07 -1.070582413278128e-05 0.17456714063152073 2.2672922941839086e-05 -1.3755136032550436e-05 0.13139245940126429 8.8237807001437497e-07 -0.1985485647329793 0.20149274852076618 1.6198191271357907e-05 -0.17654105053243019 0.14878700813292872 3.1951133977216237e-06 -1.743054457710296e-05 0.17328200018056467 2.6737787730141964e-06 -0.16164221495044231 0.12697154180680426 2.6651633321148698e-06 -0.15604365119404676 0.12617770635935519 3.5689765729779586e-06 -1.3719034865929114e-05 0.12697154180680426 2.6651633321148698e-06 -0.15604365119404676 0.099474848148806666 3.636291544626148e-06 -1.6759442160583517e-05 0.14878700813292872 3.1951133977216237e-06 -1.743054457710296e-05 0.12617770635935519 3.5689765729779586e-06 -1.3719034865929114e-05 0.12617770635935519 3.5689765729779586e-06 -1.3719034865929114e-05 0.14865559641902001 3.3984009146703048e-07 -1.0705824132781538e-05 0.17456714063152073 2.2672922941839086e-05 -1.3755136032550436e-05 0.13139245940126429 8.8237807001437487e-07 -0.19854856473297924 0.17328200018056467 2.6737787730141964e-06 -0.16164221495044231 0.12617770635935519 3.5689765729779531e-06 -1.371903486586151e-05 0.17456714063152073 2.2672922941839086e-05 -1.375513603252483e-05 0.13139245940126429 8.8237807001436904e-07 -0.19854856473297919 0.14878700813292872 3.1951133977216237e-06 -1.743054457710296e-05 0.19759562400422312 2.7062161667986178e-06 -1.4273900341587805e-05 0.17328200018056467 2.6737787730141964e-06 -0.16164221495044231 0.17456714063152073 2.2672922941839086e-05 -1.3755136032550436e-05 0.12617770635935519 3.5689765729779586e-06 -1.3719034865929114e-05 0.14878700813292872 3.1951133977216237e-06 -1.743054457710296e-05 0.17328200018056467 2.6737787730141892e-06 -0.16164221495044243 0.17456714063152073 2.2672922941839086e-05 -1.3755136032550436e-05 0.17328200018056467 2.6737787730141964e-06 -0.16164221495044231 0.20443147942053319 3.2326379415007947e-06 -0.30003281463721848 0.15155046428098254 2.9767279480530814e-06 -0.31598661457569471 0.20149274852076621 1.6198191271357903e-05 -0.17654105053243019 0.20443147942053319 3.2326379415007947e-06 -0.30003281463721848 0.17328200018056467 2.6737787730141964e-06 -0.16164221495044231 0.21059114356939693 1.9817401794143484e-06 -0.13987621192499 0.20149274852076618 1.6198191271357903e-05 -0.17654105053243013 0.17328200018056467 2.6737787730141964e-06 -0.16164221495044231 0.21056710971927509 1.1855612866812651e-05 -9.7080657919092784e-06 0.21059114356939693 1.9817401794143479e-06 -0.13987621192499 0.20149274852076618 1.6198191271357907e-05 -0.17654105053243008 0.21059114356939693 1.9817401794143479e-06 -0.13987621192499 0.24583033401959789 6.2112269934148e-07 -0.14001128980382513 0.20443147942053319 3.2326379415007947e-06 -0.30003281463721848 0.20149274852076618 1.6198191271357913e-05 -0.17654105053243013 0.21056710971927509 1.1855612866812651e-05 -9.7080657918703403e-06 0.21059114356939693 1.9817401794143479e-06 -0.13987621192499 0.19759562400422312 2.7062161667986178e-06 -1.4273900341587805e-05 0.17328200018056467 2.6737787730141964e-06 -0.16164221495044231 0.17328200018056467 2.6737787730141964e-06 -0.16164221495044231 0.19759562400422312 2.7062161667986157e-06 -1.4273900341586891e-05 0.21056710971927509 1.1855612866812651e-05 -9.7080657918703403e-06 0.17456714063152073 2.2672922941839086e-05 -1.3755136032550436e-05 0.21056710971927509 1.1855612866812651e-05 -9.7080657918703403e-06 0.17456714063152073 2.2672922941839086e-05 -1.3755136032552355e-05 0.21008995737469544 1.9810237330029471e-05 -1.0946072621530829e-05 0.20149274852076618 1.619819127135791e-05 -0.17654105053243013 0.17328200018056467 2.6737787730141964e-06 -0.16164221495044231 0.17456714063152076 2.2672922941839086e-05 -1.3755136032607848e-05 0.21056710971927509 1.1855612866812652e-05 -9.7080657918915246e-06 0.20149274852076618 1.619819127135791e-05 -0.17654105053243008 0.24583033401959789 6.2112269934147852e-07 -0.1400112898038251 0.24583814341328422 -5.8223969406947456e-06 -0.15201242069558454 0.24601380114983812 -2.6966160350181669e-05 -0.2971187264198038 0.20149274852076618 1.619819127135791e-05 -0.17654105053243016 0.20443147942053319 3.2326379415007947e-06 -0.30003281463721848 0.24583033401959789 6.2112269934147449e-07 -0.1400112898038251 0.24601380114983812 -2.6966160350181669e-05 -0.2971187264198038 0.20149274852076621 1.6198191271357903e-05 -0.17654105053243019 0.24583033401959789 6.2112269934147852e-07 -0.1400112898038251 0.21056710971927509 1.1855612866812651e-05 -9.7080657918703403e-06 0.24577014338393843 -6.2678112538533904e-06 -1.2697354529686594e-05 0.20149274852076618 1.619819127135791e-05 -0.17654105053243016 0.24577014338393843 -6.2678112538533904e-06 -1.2697354529686594e-05 0.20149274852076621 1.61981912713579e-05 -0.17654105053243013 0.24583814341328422 -5.8223969406947447e-06 -0.15201242069558454 0.24583033401959789 6.2112269934147852e-07 -0.1400112898038251 0.21056710971927509 1.1855612866812651e-05 -9.7080657918703403e-06 0.24583033401959789 6.2112269934147735e-07 -0.14001128980382513 0.21059114356939693 1.9817401794143467e-06 -0.13987621192499 0.20149274852076618 1.6198191271357907e-05 -0.17654105053243013 0.21056710971927509 1.1855612866812651e-05 -9.7080657918703403e-06 0.21008995737469546 1.9810237330029471e-05 -1.0946072621521865e-05 0.24577014338393843 -6.2678112538533904e-06 -1.2697354529682112e-05 0.20149274852076618 1.619819127135791e-05 -0.17654105053243013 0.24583033401959789 6.2112269934147852e-07 -0.1400112898038251 0.21059114356939693 1.9817401794143467e-06 -0.13987621192499 0.24576511439985524 2.9283527579501455e-06 -1.4671641899854216e-05 0.21056710971927509 1.1855612866812651e-05 -9.7080657918703403e-06 0.24577577395846401 2.7346741169384646e-06 -0.1912105103980189 0.21059114356939693 1.9817401794143479e-06 -0.13987621192499 0.24576511439985524 2.9283527579501455e-06 -1.4671641899854216e-05 0.24583033401959789 6.2112269934147852e-07 -0.1400112898038251 0.24576511439985524 2.9283527579501455e-06 -1.4671641899854216e-05 0.24583033401959789 6.2112269934147852e-07 -0.1400112898038251 0.21056710971927509 1.1855612866812651e-05 -9.7080657918703403e-06 0.24577014338393843 -6.2678112538533904e-06 -1.2697354529686594e-05 0.19759562400422312 2.7062161667986178e-06 -1.4273900341587805e-05 0.24576511439985524 2.9283527579501455e-06 -1.4671641899854216e-05 0.21059114356939693 1.9817401794143479e-06 -0.13987621192499 0.21056710971927509 1.1855612866812651e-05 -9.7080657918703403e-06 0.20443147942053319 3.2326379415007947e-06 -0.30003281463721848 0.21059114356939693 1.9817401794143479e-06 -0.13987621192499 0.24577577395846401 2.7346741169384646e-06 -0.1912105103980189 0.24583033401959789 6.2112269934147852e-07 -0.1400112898038251 0.24577577395846401 2.7346741169384646e-06 -0.1912105103980189 0.24601380114983812 -2.6966160350181669e-05 -0.2971187264198038 0.20443147942053316 3.2326379415007964e-06 -0.30003281463721843 0.24583033401959789 6.2112269934147852e-07 -0.1400112898038251 0.24602031246708553 2.5690986270001363e-06 -0.38250794065977922 0.24601380114983812 -2.6966160350181669e-05 -0.2971187264198038 0.20443147942053319 3.2326379415007952e-06 -0.30003281463721843 0.24577577395846401 2.7346741169384646e-06 -0.1912105103980189 0.20443147942053319 3.2326379415007947e-06 -0.30003281463721848 0.1915623408445809 9.0972728785947283e-06 -0.47586967716448897 0.16969423965362676 -3.7564271905038288e-08 -0.29676648889827456 0.20149274852076612 1.6198191271357886e-05 -0.17654105053243016 0.24601380114983812 -2.6966160350181669e-05 -0.2971187264198038 0.19156234084458088 9.0972728785947181e-06 -0.47586967716448897 0.20443147942053319 3.2326379415007947e-06 -0.30003281463721848 0.20149274852076615 1.619819127135792e-05 -0.17654105053243008 0.24601380114983812 -2.6966160350181669e-05 -0.2971187264198038 0.16969423965362679 -3.7564271905103787e-08 -0.29676648889827451 0.19156234084458093 9.0972728785946961e-06 -0.47586967716448902 0.20149274852076618 1.6198191271357896e-05 -0.17654105053243013 0.24601380114983812 -2.6966160350181669e-05 -0.2971187264198038 0.21439636866128245 2.6193956041415921e-06 -0.48366684666427673 0.20443147942053319 3.2326379415007952e-06 -0.30003281463721848 0.1915623408445809 9.0972728785947215e-06 -0.47586967716448897 0.16937938310226036 3.2721411712159527e-06 -0.49923937650213968 0.20443147942053319 3.2326379415007947e-06 -0.30003281463721848 0.21439636866128242 2.6193956041416036e-06 -0.48366684666427667 0.1915623408445809 9.0972728785947215e-06 -0.47586967716448897 0.21439636866128242 2.6193956041416036e-06 -0.48366684666427667 0.24602031246708553 2.5690986270001392e-06 -0.38250794065977922 0.24601380114983812 -2.6966160350181669e-05 -0.2971187264198038 0.20443147942053319 3.2326379415007947e-06 -0.30003281463721848 0.24602031246708553 2.5690986270001363e-06 -0.38250794065977922 0.24625539348622752 -2.0483868584451844e-05 -0.4859622850808617 0.21439636866128242 2.6193956041416036e-06 -0.48366684666427667 0.24601380114983812 -2.6966160350181669e-05 -0.2971187264198038 0.24601380114983812 -2.6966160350181669e-05 -0.2971187264198038 0.24625539348622752 -2.0483868584451844e-05 -0.4859622850808617 0.21439636866128242 2.6193956041416036e-06 -0.48366684666427667 0.1915623408445809 9.0972728785947215e-06 -0.47586967716448897 0.24601380114983812 -2.6966160350181669e-05 -0.2971187264198038 0.24620482782204284 1.5559649812609332e-05 -0.43818411580762473 0.24625539348622752 -2.0483868584451844e-05 -0.4859622850808617 0.1915623408445809 9.0972728785947215e-06 -0.47586967716448897 0.24600112921494363 7.5675223275073001e-06 -0.31488119658955843 0.18599851868535691 -2.8588321509062808e-06 -0.47589816607970897 0.24599694791668555 1.7034312439648997e-06 -0.31028085626247054 0.19214286834706776 1.0407609582433709e-06 -0.20794122285494665 0.24620482782204281 1.5559649812609325e-05 -0.43818411580762467 0.16969423965362676 -3.7564271905038288e-08 -0.29676648889827456 0.24599694791668558 1.7034312439648997e-06 -0.31028085626247054 0.18599851868535691 -2.8588321509062808e-06 -0.47589816607970903 0.24601380114983812 -2.6966160350181669e-05 -0.2971187264198038 0.16969423965362676 -3.7564271905032121e-08 -0.29676648889827451 0.24620482782204281 1.5559649812609325e-05 -0.43818411580762467 0.1915623408445809 9.0972728785947215e-06 -0.47586967716448897 0.24620482782204281 1.5559649812609325e-05 -0.43818411580762467 0.16969423965362676 -3.7564271905038288e-08 -0.29676648889827456 0.18599851868535694 -2.8588321509062791e-06 -0.47589816607970908 0.19156234084458085 9.0972728785947181e-06 -0.47586967716448897 0.24620482782204281 1.5559649812609325e-05 -0.43818411580762467 0.24601380114983812 -2.6966160350181669e-05 -0.2971187264198038 0.24599694791668558 1.7034312439648999e-06 -0.31028085626247054 0.16969423965362676 -3.7564271905038288e-08 -0.29676648889827456 0.16969423965362676 -3.7564271905038288e-08 -0.29676648889827456 0.24599694791668555 1.7034312439648999e-06 -0.31028085626247054 0.18599851868535691 -2.8588321509062808e-06 -0.47589816607970903 0.19214286834706776 1.0407609582433711e-06 -0.20794122285494662 0.24601380114983812 -2.6966160350181669e-05 -0.2971187264198038 0.24599694791668558 1.7034312439649014e-06 -0.31028085626247054 0.16969423965362673 -3.7564271905052118e-08 -0.29676648889827462 0.20149274852076618 1.619819127135791e-05 -0.17654105053243016 0.24599694791668558 1.7034312439648999e-06 -0.31028085626247054 0.19214286834706776 1.0407609582433709e-06 -0.20794122285494665 0.16969423965362679 -3.7564271905045435e-08 -0.29676648889827467 0.20149274852076618 1.6198191271357903e-05 -0.17654105053243019 0.2462202288837318 1.0921954140904346e-05 -0.4970150709224419 0.24620482782204281 1.5559649812609325e-05 -0.43818411580762467 0.24599694791668558 1.7034312439648999e-06 -0.31028085626247054 0.18599851868535691 -2.8588321509062808e-06 -0.47589816607970903 0.24600112921494363 7.5675223275073001e-06 -0.31488119658955843 0.2462202288837318 1.0921954140904346e-05 -0.4970150709224419 0.24599694791668558 1.7034312439648999e-06 -0.31028085626247054 0.18599851868535697 -2.8588321509062782e-06 -0.47589816607970903 0.20773768848310939 1.7806429097760777e-05 -1.2514900511160868e-05 0.24579579904969545 9.3719972103287816e-07 -0.16469370149616874 0.24583814341328422 -5.8223969406947447e-06 -0.15201242069558454 0.19214286834706776 1.0407609582433709e-06 -0.20794122285494665 0.24583814341328422 -5.8223969406947447e-06 -0.15201242069558454 0.21008995737469546 1.9810237330029468e-05 -1.0946072621578183e-05 0.19214286834706773 1.0407609582433709e-06 -0.20794122285494668 0.20149274852076618 1.619819127135791e-05 -0.17654105053243016 0.24583814341328422 -5.8223969406947447e-06 -0.15201242069558454 0.19214286834706776 1.0407609582433671e-06 -0.20794122285494665 0.24599694791668558 1.7034312439648999e-06 -0.31028085626247054 0.20149274852076618 1.619819127135791e-05 -0.17654105053243016 0.24583814341328422 -5.8223969406947447e-06 -0.15201242069558454 0.24579579904969545 9.3719972103287541e-07 -0.16469370149616869 0.24599694791668558 1.7034312439648999e-06 -0.31028085626247054 0.19214286834706773 1.0407609582433696e-06 -0.20794122285494668 0.17986190018997186 7.7497602608415384e-06 -9.0148223086623693e-06 0.19214286834706776 1.0407609582433711e-06 -0.20794122285494665 0.21008995737469541 1.9810237330029468e-05 -1.0946072621530846e-05 0.20149274852076618 1.619819127135791e-05 -0.17654105053243016 0.17986190018997186 7.7497602608415384e-06 -9.0148223086623693e-06 0.16969423965362676 -3.7564271905038367e-08 -0.29676648889827456 0.19214286834706776 1.0407609582433649e-06 -0.20794122285494668 0.20149274852076618 1.619819127135791e-05 -0.17654105053243016 0.24601380114983812 -2.6966160350181669e-05 -0.2971187264198038 0.24583814341328422 -5.8223969406947447e-06 -0.15201242069558454 0.24599694791668558 1.7034312439648999e-06 -0.31028085626247054 0.20149274852076618 1.619819127135791e-05 -0.17654105053243016 0.17986190018997186 7.7497602608415384e-06 -9.0148223086623693e-06 0.1667222242436053 -5.0626937182923137e-06 -1.1075143514325761e-05 0.20773768848310939 1.7806429097760777e-05 -1.2514900511168476e-05 0.19214286834706776 1.0407609582433709e-06 -0.20794122285494665 0.20773768848310939 1.7806429097760777e-05 -1.2514900511160868e-05 0.24583814341328422 -5.8223969406947473e-06 -0.15201242069558452 0.21008995737469546 1.9810237330029471e-05 -1.0946072621521865e-05 0.19214286834706776 1.0407609582433709e-06 -0.20794122285494665 0.17986190018997186 7.7497602608415384e-06 -9.0148223086623693e-06 0.20773768848310939 1.7806429097760777e-05 -1.2514900511162155e-05 0.21008995737469546 1.9810237330029471e-05 -1.0946072621518062e-05 0.19214286834706776 1.0407609582433709e-06 -0.20794122285494665 0.17456714063152073 2.2672922941839086e-05 -1.3755136032550436e-05 0.17986190018997186 7.7497602608415384e-06 -9.0148223086623693e-06 0.21008995737469546 1.9810237330029471e-05 -1.094607262153083e-05 0.20149274852076618 1.6198191271357907e-05 -0.17654105053243019 0.24583814341328422 -5.8223969406947447e-06 -0.15201242069558454 0.21008995737469546 1.9810237330029464e-05 -1.0946072621504621e-05 0.24577014338393843 -6.2678112538533904e-06 -1.2697354529688156e-05 0.24572432157698662 -2.9718701329814998e-06 -1.4157380886008511e-05 0.24583814341328422 -5.8223969406947447e-06 -0.15201242069558454 0.20149274852076615 1.619819127135791e-05 -0.17654105053243016 0.24577014338393843 -6.2678112538533904e-06 -1.2697354529686594e-05 0.21008995737469546 1.9810237330029464e-05 -1.0946072621547749e-05 0.20773768848310939 1.7806429097760777e-05 -1.2514900511160868e-05 0.21008995737469546 1.9810237330029471e-05 -1.0946072621521865e-05 0.24583814341328422 -5.8223969406947447e-06 -0.15201242069558454 0.24572432157698662 -2.9718701329814998e-06 -1.4157380886008511e-05 0.24572432157698662 -2.9718701329814998e-06 -1.4157380886008511e-05 0.24583814341328422 -5.8223969406947447e-06 -0.15201242069558454 0.20773768848310939 1.7806429097760777e-05 -1.2514900511160868e-05 0.24579579904969545 9.3719972103287488e-07 -0.16469370149616874 0.24571071936306862 1.2513675754214813e-05 -1.7191654998122714e-05 0.24572432157698662 -2.9718701329815006e-06 -1.4157380886008511e-05 0.20773768848310939 1.7806429097760777e-05 -1.2514900511160868e-05 0.24579579904969545 9.3719972103287488e-07 -0.16469370149616874 0.19964263752489589 -4.7072265648422258e-06 -1.5094850827285529e-05 0.21057174979535256 -5.4300231214056229e-06 -1.0661249431149734e-05 0.24586122322960147 9.9745794537641953e-07 -0.16188832099803754 0.17045758582041934 -1.8702675384242643e-06 -0.29938622624370126 0.19964263752489589 -4.7072265648422258e-06 -1.5094850827285529e-05 0.2457107193630686 1.2513675754214803e-05 -1.7191654998168082e-05 0.20773768848310939 1.7806429097760774e-05 -1.2514900511169572e-05 0.24579579904969545 9.3719972103287488e-07 -0.16469370149616874 0.24571071936306862 1.2513675754214813e-05 -1.7191654998122714e-05 0.19964263752489589 -4.7072265648422258e-06 -1.5094850827285529e-05 0.24586122322960149 9.9745794537642101e-07 -0.16188832099803754 0.24579579904969545 9.3719972103287488e-07 -0.16469370149616874 0.19964263752489589 -4.7072265648422258e-06 -1.5094850827285529e-05 0.17045758582041937 -1.8702675384242656e-06 -0.29938622624370131 0.24586122322960147 9.9745794537641996e-07 -0.16188832099803752 0.19214286834706779 1.0407609582433715e-06 -0.20794122285494662 0.20773768848310939 1.7806429097760777e-05 -1.2514900511160868e-05 0.1667222242436053 -5.062693718292312e-06 -1.1075143514330877e-05 0.19964263752489589 -4.7072265648422258e-06 -1.5094850827285529e-05 0.19214286834706776 1.0407609582433709e-06 -0.20794122285494665 0.20773768848310939 1.7806429097760777e-05 -1.2514900511160868e-05 0.19964263752489589 -4.7072265648422258e-06 -1.5094850827285529e-05 0.24579579904969545 9.3719972103287255e-07 -0.16469370149616874 0.19214286834706776 1.0407609582433709e-06 -0.20794122285494665 0.19964263752489589 -4.7072265648422258e-06 -1.5094850827285529e-05 0.24586122322960149 9.9745794537641932e-07 -0.16188832099803749 0.24579579904969545 9.3719972103287488e-07 -0.16469370149616874 0.19214286834706776 1.0407609582433709e-06 -0.20794122285494665 0.24586122322960149 9.9745794537642101e-07 -0.16188832099803754 0.24600112921494363 7.5675223275073001e-06 -0.31488119658955843 0.24579579904969548 9.3719972103287551e-07 -0.16469370149616874 0.19214286834706776 1.04076095824337e-06 -0.20794122285494668 0.24586122322960149 9.9745794537642101e-07 -0.16188832099803754 0.19964263752489592 -4.7072265648422165e-06 -1.509485082728763e-05 0.24571071936306862 1.2513675754214813e-05 -1.7191654998122714e-05 0.24576237324083977 2.5592872628709673e-05 -1.4684591408255373e-05 0.24586122322960149 9.9745794537642101e-07 -0.16188832099803754 0.19964263752489586 -4.7072265648422335e-06 -1.5094850827329557e-05 0.24576237324083977 2.5592872628709673e-05 -1.4684591408255373e-05 0.21057174979535256 -5.4300231214056229e-06 -1.0661249431149734e-05 0.24576237324083977 2.5592872628709673e-05 -1.4684591408255373e-05 0.24590389078260033 2.346618849875057e-05 -0.14004538838848124 0.24586122322960149 9.9745794537642229e-07 -0.16188832099803754 0.21057174979535256 -5.4300231214056229e-06 -1.0661249431149734e-05 0.20516501323887157 -2.648714159641037e-06 -0.28675985404452403 0.21064740215627925 -1.9861184283757881e-06 -0.13988321499880238 0.16986580822054867 -3.2341662521245628e-06 -0.16460520951066127 0.17045758582041937 -1.8702675384242651e-06 -0.29938622624370131 0.19964263752489589 -4.7072265648422258e-06 -1.5094850827285529e-05 0.17175517262535553 -8.1103192488231174e-06 -1.2936249622847416e-05 0.21057174979535256 -5.4300231214056229e-06 -1.0661249431149734e-05 0.17045758582041937 -1.8702675384242656e-06 -0.29938622624370126 0.24598198513598243 2.6789275187589422e-05 -0.30231001019164327 0.24586122322960149 9.9745794537642101e-07 -0.16188832099803754 0.24590389078260033 2.346618849875057e-05 -0.14004538838848124 0.17045758582041937 -1.8702675384242649e-06 -0.29938622624370131 0.24590389078260033 2.346618849875057e-05 -0.14004538838848124 0.24586122322960149 9.9745794537642123e-07 -0.16188832099803754 0.21057174979535259 -5.4300231214056187e-06 -1.0661249431169021e-05 0.17045758582041939 -1.8702675384242808e-06 -0.2993862262437012 0.24590389078260033 2.346618849875057e-05 -0.14004538838848124 0.21064740215627925 -1.986118428375786e-06 -0.13988321499880246 0.20516501323887154 -2.6487141596410476e-06 -0.28675985404452398 0.17045758582041939 -1.8702675384242546e-06 -0.29938622624370143 0.24590389078260033 2.346618849875057e-05 -0.14004538838848124 0.21057174979535256 -5.4300231214056229e-06 -1.0661249431153692e-05 0.21064740215627925 -1.9861184283757881e-06 -0.13988321499880238 0.17045758582041939 -1.8702675384242628e-06 -0.29938622624370126 0.17175517262535553 -8.1103192488231174e-06 -1.2936249622852695e-05 0.21064740215627925 -1.9861184283757877e-06 -0.13988321499880238 0.21057174979535256 -5.4300231214056229e-06 -1.0661249431149734e-05 0.17045758582041937 -1.8702675384242645e-06 -0.29938622624370131 0.21064740215627925 -1.9861184283757881e-06 -0.13988321499880238 0.20516501323887157 -2.648714159641037e-06 -0.28675985404452403 0.24581379031455061 -2.6613060845074281e-06 -0.19120933172961371 0.24590389078260033 2.346618849875057e-05 -0.14004538838848124 0.20516501323887157 -2.648714159641037e-06 -0.28675985404452403 0.24598198513598243 2.6789275187589422e-05 -0.30231001019164327 0.24581379031455061 -2.6613060845074281e-06 -0.19120933172961371 0.24590389078260033 2.346618849875057e-05 -0.14004538838848124 0.21057174979535256 -5.4300231214056229e-06 -1.0661249431149734e-05 0.24579976277315543 -2.9227021161808043e-06 -1.4003734139140113e-05 0.21064740215627925 -1.9861184283757881e-06 -0.13988321499880238 0.19761455063134653 -2.7875174657473864e-06 -1.3070036821267749e-05 0.21064740215627925 -1.9861184283757881e-06 -0.13988321499880238 0.24581379031455061 -2.6613060845074281e-06 -0.19120933172961371 0.24579976277315543 -2.9227021161808022e-06 -1.400373413912648e-05 0.24590389078260033 2.346618849875057e-05 -0.14004538838848124 0.24579976277315543 -2.9227021161808043e-06 -1.4003734139140113e-05 0.24590389078260033 2.346618849875057e-05 -0.14004538838848124 0.24576237324083977 2.5592872628709673e-05 -1.468459140824404e-05 0.21057174979535256 -5.4300231214056229e-06 -1.0661249431149734e-05 0.24590389078260033 2.346618849875057e-05 -0.14004538838848124 0.24579976277315546 -2.9227021161808085e-06 -1.4003734139128767e-05 0.21064740215627925 -1.9861184283757881e-06 -0.13988321499880238 0.21057174979535256 -5.4300231214056229e-06 -1.0661249431149734e-05 0.16986580822054867 -3.2341662521245628e-06 -0.16460520951066127 0.17175517262535553 -8.1103192488231174e-06 -1.2936249622852695e-05 0.21064740215627925 -1.9861184283757877e-06 -0.13988321499880238 0.19761455063134653 -2.7875174657473864e-06 -1.3070036821267749e-05 0.21057174979535256 -5.4300231214056229e-06 -1.0661249431149734e-05 0.21064740215627925 -1.9861184283757881e-06 -0.13988321499880238 0.17175517262535553 -8.1103192488231174e-06 -1.2936249622858355e-05 0.19761455063134653 -2.7875174657473864e-06 -1.3070036821267749e-05 0.16986580822054867 -3.2341662521245628e-06 -0.16460520951066127 0.17045758582041942 -1.8702675384242641e-06 -0.29938622624370137 0.1717551726253555 -8.1103192488231174e-06 -1.2936249622830206e-05 0.12437791270408335 -3.0242180436314611e-06 -0.21525215498979691 0.16986580822054867 -3.2341662521245628e-06 -0.16460520951066127 0.21064740215627925 -1.9861184283757881e-06 -0.13988321499880238 0.17175517262535553 -8.1103192488231174e-06 -1.2936249622848235e-05 0.17045758582041934 -1.8702675384242632e-06 -0.29938622624370137 0.17175517262535553 -8.1103192488231174e-06 -1.2936249622852695e-05 0.16986580822054867 -3.234166252124562e-06 -0.16460520951066124 0.14878986487258253 -2.653134395172904e-06 -1.4777338920004821e-05 0.19761455063134653 -2.7875174657473864e-06 -1.3070036821267749e-05 0.12268934792407399 -2.6874463004742619e-06 -0.12616173689253088 0.099473282792545178 -2.9213259342686053e-06 -1.7629843490728439e-05 0.12658025420619096 4.1634508546677362e-06 -1.2741010338268762e-05 0.14878986487258253 -2.653134395172904e-06 -1.4777338920004821e-05 0.12658025420619096 4.1634508546677362e-06 -1.2741010338268762e-05 0.17175517262535553 -8.1103192488231174e-06 -1.2936249622852695e-05 0.16986580822054867 -3.2341662521245628e-06 -0.16460520951066127 0.14878986487258253 -2.653134395172904e-06 -1.4777338920004821e-05 0.16986580822054867 -3.2341662521245628e-06 -0.16460520951066127 0.12268934792407399 -2.6874463004742619e-06 -0.12616173689253088 0.12658025420619096 4.1634508546677362e-06 -1.2741010338268762e-05 0.14878986487258253 -2.653134395172904e-06 -1.4777338920004821e-05 0.11855216115926091 -3.2921309917007026e-06 -0.30247455810914964 0.16986580822054867 -3.2341662521245628e-06 -0.16460520951066129 0.12268934792407399 -2.6874463004742619e-06 -0.12616173689253088 0.12437791270408337 -3.0242180436314602e-06 -0.21525215498979694 0.12268934792407399 -2.6874463004742619e-06 -0.12616173689253088 0.16986580822054867 -3.2341662521245628e-06 -0.16460520951066127 0.12658025420619096 4.1634508546677362e-06 -1.2741010338268762e-05 0.12437791270408337 -3.0242180436314602e-06 -0.21525215498979694 0.12658025420619096 4.1634508546677362e-06 -1.2741010338268762e-05 0.1698658082205487 -3.2341662521245616e-06 -0.16460520951066124 0.17175517262535553 -8.1103192488231174e-06 -1.2936249622852695e-05 0.12437791270408337 -3.0242180436314628e-06 -0.21525215498979697 0.15137104428375175 -8.5825617078210493e-06 -1.2070271616027355e-05 0.12658025420619096 4.1634508546677362e-06 -1.2741010338268762e-05 0.17175517262535553 -8.1103192488231174e-06 -1.2936249622852695e-05 0.12437791270408337 -3.0242180436314602e-06 -0.21525215498979694 0.15137104428375175 -8.5825617078210493e-06 -1.2070271616027355e-05 0.17045758582041934 -1.8702675384242656e-06 -0.29938622624370126 0.19964263752489589 -4.7072265648422258e-06 -1.5094850827285529e-05 0.19214286834706776 1.0407609582433709e-06 -0.20794122285494665 0.15137104428375175 -8.5825617078210493e-06 -1.2070271616027355e-05 0.17175517262535553 -8.1103192488231174e-06 -1.2936249622852695e-05 0.17045758582041937 -1.8702675384242654e-06 -0.29938622624370131 0.12437791270408337 -3.0242180436314602e-06 -0.21525215498979694 0.19964263752489589 -4.7072265648422258e-06 -1.5094850827285529e-05 0.15137104428375175 -8.5825617078210493e-06 -1.2070271616037912e-05 0.17175517262535553 -8.1103192488231174e-06 -1.2936249622852695e-05 0.17045758582041934 -1.8702675384242656e-06 -0.29938622624370126 0.15137104428375175 -8.5825617078210493e-06 -1.2070271616027355e-05 0.11385838412625932 4.5478913477961705e-06 -1.101092138852275e-05 0.12658025420619096 4.1634508546677362e-06 -1.274101033826144e-05 0.12437791270408337 -3.0242180436314602e-06 -0.21525215498979694 0.11385838412625932 4.5478913477961705e-06 -1.101092138852275e-05 0.15137104428375175 -8.5825617078210493e-06 -1.2070271616027355e-05 0.12436875665537614 -4.1019529537460751e-07 -0.23790637430572831 0.12437791270408337 -3.0242180436314602e-06 -0.21525215498979694 0.19214286834706776 1.0407609582433709e-06 -0.20794122285494665 0.15137104428375175 -8.5825617078210493e-06 -1.2070271616035886e-05 0.12436875665537613 -4.101952953746074e-07 -0.23790637430572828 0.1667222242436053 -5.0626937182923129e-06 -1.1075143514331071e-05 0.17045758582041937 -1.8702675384242649e-06 -0.29938622624370131 0.12436875665537614 -4.1019529537460751e-07 -0.23790637430572831 0.15137104428375173 -8.5825617078210476e-06 -1.2070271616044953e-05 0.12437791270408338 -3.0242180436314606e-06 -0.21525215498979694 0.19214286834706776 1.0407609582433709e-06 -0.20794122285494665 0.12436875665537614 -4.1019529537460751e-07 -0.23790637430572831 0.15137104428375175 -8.5825617078210493e-06 -1.207027161601871e-05 0.17045758582041937 -1.8702675384242645e-06 -0.29938622624370131 0.12904859870481575 -1.5351314352072289e-06 -1.4057419581695889e-05 0.15137104428375175 -8.5825617078210493e-06 -1.20702716160257e-05 0.1667222242436053 -5.0626937182923129e-06 -1.1075143514332727e-05 0.12436875665537614 -4.1019529537460751e-07 -0.23790637430572831 0.11385838412625932 4.5478913477961705e-06 -1.101092138852275e-05 0.15137104428375175 -8.5825617078210493e-06 -1.2070271616027355e-05 0.12904859870481575 -1.5351314352072289e-06 -1.4057419581695889e-05 0.12436875665537614 -4.1019529537460751e-07 -0.23790637430572831 0.15137104428375175 -8.5825617078210493e-06 -1.2070271616027355e-05 0.19964263752489589 -4.7072265648422258e-06 -1.5094850827285529e-05 0.16672222424360533 -5.0626937182923129e-06 -1.1075143514349542e-05 0.19214286834706776 1.0407609582433709e-06 -0.20794122285494665 0.17045758582041937 -1.8702675384242649e-06 -0.29938622624370131 0.18599851868535691 -2.8588321509062808e-06 -0.47589816607970903 0.12449173780177292 1.879724224873689e-06 -0.47651852079450763 0.12472007677485152 -3.2208447003298097e-06 -0.50401888402123052 0.18599851868535691 -2.8588321509062808e-06 -0.47589816607970903 0.1247200767748515 -3.2208447003298114e-06 -0.50401888402123052 0.17045758582041937 -1.8702675384242609e-06 -0.29938622624370126 0.1930365702561789 1.1464301804525609e-05 -0.4776718805001855 0.1244917378017729 1.8797242248736909e-06 -0.47651852079450757 0.18599851868535691 -2.8588321509062808e-06 -0.47589816607970903 0.17045758582041937 -1.8702675384242658e-06 -0.29938622624370126 0.12436875665537613 -4.1019529537460851e-07 -0.23790637430572822 0.17045758582041937 -1.8702675384242649e-06 -0.29938622624370131 0.12436875665537614 -4.1019529537460777e-07 -0.23790637430572831 0.18599851868535691 -2.8588321509062808e-06 -0.47589816607970903 0.19214286834706776 1.0407609582433709e-06 -0.20794122285494665 0.1247200767748515 -3.2208447003298114e-06 -0.50401888402123052 0.1243687566553761 -4.1019529537460788e-07 -0.23790637430572831 0.17045758582041934 -1.8702675384242654e-06 -0.29938622624370131 0.12437791270408338 -3.0242180436314611e-06 -0.21525215498979694 0.1244917378017729 1.8797242248736909e-06 -0.47651852079450757 0.17045758582041934 -1.8702675384242651e-06 -0.29938622624370131 0.1247200767748515 -3.2208447003298114e-06 -0.50401888402123052 0.12436875665537611 -4.1019529537460867e-07 -0.23790637430572822 0.20516501323887157 -2.648714159641037e-06 -0.28675985404452403 0.17045758582041937 -1.8702675384242649e-06 -0.29938622624370131 0.16577300140443177 -2.9398160560387022e-06 -0.36768091245707535 0.1930365702561789 1.1464301804525613e-05 -0.47767188050018555 0.16986580822054867 -3.2341662521245628e-06 -0.16460520951066127 0.16577300140443177 -2.9398160560387022e-06 -0.36768091245707535 0.20516501323887157 -2.648714159641037e-06 -0.28675985404452403 0.17045758582041937 -1.8702675384242649e-06 -0.29938622624370131 0.16577300140443177 -2.9398160560387022e-06 -0.36768091245707535 0.11855216115926091 -3.2921309917007026e-06 -0.30247455810914964 0.1247200767748515 -3.2208447003298114e-06 -0.50401888402123041 0.12437791270408337 -3.0242180436314606e-06 -0.21525215498979702 0.17121624351463197 -2.2670238007807789e-06 -0.51710669146527777 0.16577300140443177 -2.9398160560387026e-06 -0.36768091245707535 0.12472007677485152 -3.2208447003298114e-06 -0.50401888402123052 0.1930365702561789 1.1464301804525613e-05 -0.4776718805001855 0.16986580822054867 -3.2341662521245628e-06 -0.16460520951066127 0.16577300140443177 -2.9398160560387022e-06 -0.36768091245707535 0.17045758582041937 -1.8702675384242647e-06 -0.29938622624370126 0.12437791270408334 -3.0242180436314611e-06 -0.21525215498979694 0.16577300140443177 -2.9398160560387022e-06 -0.36768091245707535 0.1247200767748515 -3.2208447003298114e-06 -0.50401888402123052 0.17045758582041942 -1.8702675384242643e-06 -0.29938622624370131 0.12437791270408338 -3.0242180436314602e-06 -0.215252154989797 0.17045758582041937 -1.8702675384242649e-06 -0.29938622624370131 0.1247200767748515 -3.220844700329811e-06 -0.50401888402123041 0.16577300140443177 -2.9398160560387022e-06 -0.36768091245707535 0.1930365702561789 1.1464301804525613e-05 -0.47767188050018555 0.16986580822054867 -3.2341662521245628e-06 -0.16460520951066127 0.11855216115926091 -3.2921309917007026e-06 -0.30247455810914964 0.16577300140443177 -2.9398160560387022e-06 -0.36768091245707535 0.1243779127040834 -3.0242180436314606e-06 -0.21525215498979697 0.12440886230235083 -2.845253894038058e-06 -0.45781802184718356 0.16577300140443177 -2.9398160560387022e-06 -0.36768091245707535 0.11855216115926091 -3.2921309917007026e-06 -0.30247455810914964 0.1247200767748515 -3.2208447003298114e-06 -0.50401888402123052 0.12440886230235083 -2.845253894038058e-06 -0.45781802184718356 0.17121624351463197 -2.2670238007807789e-06 -0.51710669146527777 0.16577300140443177 -2.9398160560387022e-06 -0.36768091245707535 0.1247200767748515 -3.2208447003298114e-06 -0.50401888402123052 0.16577300140443177 -2.9398160560387022e-06 -0.36768091245707535 0.17121624351463197 -2.2670238007807797e-06 -0.51710669146527777 0.20657128489218438 -2.6403473636695401e-06 -0.46848391429374686 0.1930365702561789 1.1464301804525613e-05 -0.47767188050018555 0.24598198513598243 2.6789275187589422e-05 -0.30231001019164327 0.17045758582041937 -1.8702675384242649e-06 -0.29938622624370131 0.20516501323887157 -2.6487141596410379e-06 -0.28675985404452403 0.1930365702561789 1.1464301804525613e-05 -0.47767188050018555 0.24598198513598243 2.6789275187589422e-05 -0.30231001019164327 0.24590389078260033 2.346618849875057e-05 -0.14004538838848124 0.20516501323887157 -2.648714159641037e-06 -0.28675985404452403 0.17045758582041937 -1.8702675384242649e-06 -0.29938622624370131 0.20657128489218438 -2.6403473636695396e-06 -0.46848391429374686 0.20516501323887157 -2.648714159641037e-06 -0.28675985404452403 0.16577300140443177 -2.9398160560387018e-06 -0.36768091245707535 0.19303657025617887 1.1464301804525611e-05 -0.4776718805001855 0.20657128489218438 -2.6403473636695396e-06 -0.46848391429374686 0.24598198513598243 2.6789275187589425e-05 -0.30231001019164327 0.20516501323887157 -2.648714159641037e-06 -0.28675985404452403 0.19303657025617893 1.1464301804525616e-05 -0.47767188050018555 0.20516501323887157 -2.648714159641037e-06 -0.28675985404452403 0.20657128489218438 -2.6403473636695363e-06 -0.46848391429374692 0.24600361566661066 -3.1321191824609887e-06 -0.38250662025689963 0.24598198513598243 2.6789275187589422e-05 -0.30231001019164327 0.20657128489218438 -2.6403473636695396e-06 -0.46848391429374686 0.24626338947699655 8.8686753845228277e-06 -0.48752905692711179 0.24645362569963822 -3.4843327073875019e-06 -0.57396286603817459 0.24600361566661069 -3.1321191824609858e-06 -0.38250662025689963 0.24600361566661069 -3.1321191824609858e-06 -0.38250662025689963 0.20657128489218438 -2.6403473636695388e-06 -0.46848391429374686 0.24626338947699655 8.8686753845228294e-06 -0.48752905692711179 0.24598198513598243 2.6789275187589422e-05 -0.30231001019164327 0.24598198513598243 2.6789275187589422e-05 -0.30231001019164327 0.24600361566661069 -3.1321191824609832e-06 -0.38250662025689963 0.20516501323887157 -2.648714159641037e-06 -0.28675985404452403 0.24581379031455061 -2.6613060845074281e-06 -0.19120933172961371 0.24622201222420331 -8.0224082247330009e-06 -0.43819357013642851 0.24598198513598243 2.6789275187589422e-05 -0.30231001019164327 0.24626338947699655 8.868675384522826e-06 -0.48752905692711179 0.1930365702561789 1.1464301804525613e-05 -0.47767188050018555 0.20657128489218438 -2.6403473636695396e-06 -0.46848391429374686 0.24626338947699658 8.8686753845228209e-06 -0.4875290569271119 0.24598198513598243 2.6789275187589422e-05 -0.30231001019164327 0.19303657025617887 1.1464301804525614e-05 -0.47767188050018544 0.24600112921494363 7.5675223275073001e-06 -0.31488119658955843 0.17045758582041934 -1.8702675384242651e-06 -0.29938622624370137 0.18599851868535691 -2.8588321509062782e-06 -0.47589816607970897 0.19214286834706776 1.0407609582433709e-06 -0.20794122285494665 0.24600112921494363 7.5675223275073001e-06 -0.31488119658955843 0.24598198513598243 2.6789275187589422e-05 -0.30231001019164327 0.24622201222420331 -8.0224082247330009e-06 -0.43819357013642851 0.17045758582041937 -1.8702675384242649e-06 -0.29938622624370131 0.24622201222420331 -8.0224082247330009e-06 -0.43819357013642851 0.18599851868535688 -2.8588321509062719e-06 -0.47589816607970914 0.17045758582041934 -1.870267538424269e-06 -0.29938622624370126 0.1930365702561789 1.1464301804525618e-05 -0.47767188050018555 0.24586122322960149 9.9745794537642101e-07 -0.16188832099803754 0.24598198513598241 2.6789275187589422e-05 -0.30231001019164327 0.24600112921494363 7.5675223275073001e-06 -0.31488119658955843 0.17045758582041937 -1.8702675384242649e-06 -0.29938622624370131 0.24622201222420331 -8.0224082247330009e-06 -0.43819357013642851 0.17045758582041937 -1.8702675384242706e-06 -0.29938622624370131 0.24598198513598243 2.6789275187589422e-05 -0.30231001019164327 0.19303657025617896 1.1464301804525619e-05 -0.47767188050018561 0.24586122322960149 9.9745794537642101e-07 -0.16188832099803754 0.17045758582041937 -1.870267538424266e-06 -0.29938622624370126 0.24600112921494363 7.5675223275073001e-06 -0.31488119658955843 0.19214286834706776 1.0407609582433707e-06 -0.20794122285494659 0.24600112921494363 7.5675223275073001e-06 -0.31488119658955843 0.17045758582041937 -1.8702675384242645e-06 -0.29938622624370131 0.24622201222420331 -8.0224082247330009e-06 -0.43819357013642851 0.18599851868535694 -2.8588321509062804e-06 -0.47589816607970897 0.24599694791668558 1.7034312439648999e-06 -0.31028085626247054 0.24579579904969545 9.3719972103287488e-07 -0.16469370149616874 0.24600112921494363 7.5675223275073001e-06 -0.31488119658955843 0.19214286834706776 1.0407609582433709e-06 -0.20794122285494665 0.24600112921494363 7.5675223275073001e-06 -0.31488119658955843 0.24622201222420331 -8.0224082247330009e-06 -0.43819357013642851 0.2462202288837318 1.0921954140904346e-05 -0.4970150709224419 0.18599851868535697 -2.8588321509062744e-06 -0.47589816607970908 0.24658949280305906 2.0518116353337736e-07 -0.57357072358615513 0.18599851868535691 -2.8588321509062808e-06 -0.47589816607970903 0.17105553835195272 2.5087868025735521e-06 -0.65615222112914717 0.19413114042855126 -5.7452114339738913e-06 -0.74536748551304033 0.24658949280305906 2.0518116353337736e-07 -0.57357072358615513 0.2470919344729135 -1.848368506389859e-05 -0.69586026901404985 0.17105553835195272 2.5087868025735609e-06 -0.65615222112914717 0.20300226382580913 -5.4918940844539368e-06 -0.77980687157110706 0.24658949280305906 2.0518116353337736e-07 -0.57357072358615513 0.24673558316562938 8.0927876193171562e-06 -0.64405456717599274 0.2462202288837318 1.0921954140904346e-05 -0.4970150709224419 0.18599851868535691 -2.8588321509062808e-06 -0.47589816607970903 0.24658949280305906 2.0518116353337736e-07 -0.57357072358615513 0.18599851868535691 -2.8588321509062795e-06 -0.47589816607970903 0.24622201222420331 -8.0224082247330009e-06 -0.43819357013642851 0.19303657025617887 1.1464301804525613e-05 -0.4776718805001855 0.17105553835195272 2.5087868025735521e-06 -0.65615222112914717 0.19303657025617887 1.1464301804525611e-05 -0.4776718805001855 0.24658949280305906 2.0518116353337837e-07 -0.57357072358615513 0.20300226382580913 -5.491894084453947e-06 -0.77980687157110717 0.24658949280305906 2.0518116353337736e-07 -0.57357072358615513 0.17105553835195272 2.5087868025735521e-06 -0.65615222112914717 0.18599851868535691 -2.8588321509062787e-06 -0.47589816607970908 0.19303657025617887 1.1464301804525613e-05 -0.4776718805001855 0.24673558316562938 8.0927876193171562e-06 -0.64405456717599274 0.18599851868535688 -2.8588321509062829e-06 -0.47589816607970903 0.24658949280305906 2.0518116353337736e-07 -0.57357072358615513 0.19413114042855123 -5.7452114339738922e-06 -0.74536748551304033 0.2470919344729135 -1.848368506389859e-05 -0.69586026901404985 0.24658949280305906 2.0518116353337736e-07 -0.57357072358615513 0.1710555383519527 2.5087868025735364e-06 -0.65615222112914717 0.19413114042855126 -5.7452114339738735e-06 -0.74536748551304022 0.24658949280305906 2.0518116353337736e-07 -0.57357072358615513 0.2462202288837318 1.0921954140904346e-05 -0.4970150709224419 0.24622201222420331 -8.0224082247330009e-06 -0.43819357013642851 0.18599851868535691 -2.8588321509062808e-06 -0.47589816607970903 0.2470919344729135 -1.848368506389859e-05 -0.69586026901404985 0.24673558316562941 8.0927876193171545e-06 -0.64405456717599274 0.24658949280305906 2.0518116353337736e-07 -0.57357072358615513 0.19413114042855126 -5.7452114339738913e-06 -0.74536748551304033 0.24658949280305906 2.0518116353337736e-07 -0.57357072358615513 0.24694391984773903 1.8252378555067116e-05 -0.67516694956559231 0.2470919344729135 -1.848368506389859e-05 -0.69586026901404985 0.20300226382580913 -5.491894084453947e-06 -0.77980687157110717 0.24658949280305906 2.0518116353337736e-07 -0.57357072358615513 0.24622201222420331 -8.0224082247330009e-06 -0.43819357013642851 0.24626338947699655 8.868675384522826e-06 -0.48752905692711179 0.1930365702561789 1.1464301804525613e-05 -0.47767188050018555 0.24626338947699655 8.868675384522826e-06 -0.48752905692711179 0.20216314924193929 -2.8536845986501513e-06 -0.65853405760718886 0.24694391984773903 1.8252378555067116e-05 -0.67516694956559231 0.1930365702561789 1.1464301804525618e-05 -0.47767188050018555 0.20216314924193926 -2.8536845986501487e-06 -0.65853405760718886 0.19303657025617885 1.1464301804525611e-05 -0.4776718805001855 0.17105553835195275 2.5087868025735554e-06 -0.65615222112914706 0.20300226382580913 -5.491894084453947e-06 -0.77980687157110717 0.20216314924193926 -2.8536845986501487e-06 -0.65853405760718886 0.24694391984773903 1.8252378555067116e-05 -0.67516694956559242 0.1930365702561789 1.1464301804525609e-05 -0.47767188050018555 0.20300226382580913 -5.491894084453947e-06 -0.77980687157110717 0.24694391984773903 1.8252378555067116e-05 -0.67516694956559231 0.24658949280305906 2.0518116353337789e-07 -0.57357072358615513 0.1930365702561789 1.1464301804525613e-05 -0.47767188050018555 0.20300226382580913 -5.491894084453947e-06 -0.77980687157110717 0.24626338947699655 8.868675384522826e-06 -0.48752905692711179 0.24694391984773903 1.8252378555067116e-05 -0.67516694956559231 0.24658949280305906 2.0518116353337736e-07 -0.57357072358615513 0.1930365702561789 1.1464301804525613e-05 -0.47767188050018555 0.24694391984773903 1.8252378555067116e-05 -0.67516694956559231 0.20216314924193926 -2.8536845986501487e-06 -0.65853405760718886 0.24645362569963822 -3.4843327073875019e-06 -0.57396286603817459 0.2472709459791029 -2.8462497411189944e-06 -0.76557756689516643 0.20216314924193926 -2.8536845986501487e-06 -0.65853405760718886 0.24645362569963822 -3.4843327073875019e-06 -0.57396286603817459 0.24626338947699655 8.868675384522826e-06 -0.48752905692711179 0.24694391984773903 1.8252378555067116e-05 -0.67516694956559231 0.24626338947699655 8.868675384522826e-06 -0.48752905692711179 0.24645362569963825 -3.4843327073875015e-06 -0.57396286603817459 0.20216314924193926 -2.8536845986501487e-06 -0.65853405760718886 0.20657128489218432 -2.6403473636695413e-06 -0.46848391429374675 0.20216314924193926 -2.8536845986501487e-06 -0.65853405760718886 0.20657128489218438 -2.6403473636695396e-06 -0.46848391429374686 0.17121624351463197 -2.2670238007807789e-06 -0.51710669146527777 0.1930365702561789 1.1464301804525613e-05 -0.47767188050018555 0.20216314924193926 -2.8536845986501487e-06 -0.65853405760718886 0.24626338947699655 8.868675384522826e-06 -0.48752905692711179 0.20657128489218438 -2.6403473636695396e-06 -0.46848391429374686 0.1930365702561789 1.1464301804525613e-05 -0.47767188050018555 0.17121624351463197 -2.2670238007807789e-06 -0.51710669146527777 0.14960384175857455 -3.2828448578837405e-06 -0.64428175830930234 0.17105553835195272 2.5087868025735533e-06 -0.65615222112914717 0.12472007677485153 -3.2208447003298097e-06 -0.50401888402123052 0.14960384175857455 -3.2828448578837405e-06 -0.64428175830930234 0.20216314924193926 -2.8536845986501487e-06 -0.65853405760718886 0.17121624351463197 -2.2670238007807789e-06 -0.51710669146527777 0.17105553835195272 2.5087868025735521e-06 -0.65615222112914717 0.20216314924193926 -2.8536845986501487e-06 -0.65853405760718886 0.17121624351463197 -2.2670238007807789e-06 -0.51710669146527777 0.17105553835195275 2.5087868025735614e-06 -0.65615222112914717 0.1930365702561789 1.1464301804525611e-05 -0.47767188050018555 0.17341349842715337 -2.6548537587871252e-06 -0.80288232274953608 0.17105553835195272 2.508786802573558e-06 -0.65615222112914706 0.14960384175857455 -3.2828448578837397e-06 -0.64428175830930245 0.12543233575370624 -1.6305168569981494e-05 -0.74415019024620432 0.17105553835195272 2.5087868025735521e-06 -0.65615222112914717 0.17121624351463197 -2.2670238007807848e-06 -0.51710669146527788 0.12472007677485147 -3.2208447003298123e-06 -0.50401888402123041 0.1930365702561789 1.1464301804525613e-05 -0.47767188050018555 0.17105553835195272 2.5087868025735521e-06 -0.65615222112914717 0.12472007677485149 -3.2208447003298123e-06 -0.50401888402123052 0.14960384175857455 -3.2828448578837431e-06 -0.64428175830930234 0.12543233575370624 -1.6305168569981494e-05 -0.74415019024620432 0.14960384175857455 -3.2828448578837405e-06 -0.64428175830930234 0.20216314924193926 -2.8536845986501487e-06 -0.65853405760718886 0.17105553835195272 2.5087868025735521e-06 -0.65615222112914717 0.20300226382580913 -5.491894084453947e-06 -0.77980687157110717 0.17121624351463197 -2.2670238007807789e-06 -0.51710669146527777 0.12440886230235083 -2.845253894038058e-06 -0.45781802184718356 0.14960384175857455 -3.2828448578837405e-06 -0.64428175830930234 0.1247200767748515 -3.2208447003298114e-06 -0.50401888402123052 0.1244917378017729 1.8797242248736909e-06 -0.47651852079450757 0.17105553835195272 2.5087868025735512e-06 -0.65615222112914706 0.12461302250690906 2.4189710463569772e-06 -0.71521544183507724 0.1247200767748515 -3.2208447003298114e-06 -0.50401888402123052 0.17105553835195272 2.5087868025735521e-06 -0.65615222112914717 0.1244917378017729 1.8797242248736882e-06 -0.47651852079450757 0.18599851868535688 -2.8588321509062833e-06 -0.47589816607970897 0.12472007677485147 -3.2208447003298199e-06 -0.5040188840212303 0.17105553835195272 2.5087868025735521e-06 -0.65615222112914717 0.18599851868535688 -2.8588321509062816e-06 -0.47589816607970903 0.1244917378017729 1.8797242248736909e-06 -0.47651852079450757 0.1246130225069091 2.4189710463569772e-06 -0.71521544183507724 0.18599851868535691 -2.8588321509062808e-06 -0.47589816607970903 0.12461302250690909 2.4189710463569772e-06 -0.71521544183507713 0.17105553835195272 2.5087868025735521e-06 -0.65615222112914717 0.19413114042855126 -5.7452114339738913e-06 -0.74536748551304033 0.12461302250690907 2.4189710463569781e-06 -0.71521544183507713 0.1247200767748515 -3.2208447003298114e-06 -0.50401888402123052 0.17105553835195272 2.5087868025735521e-06 -0.65615222112914717 0.12543233575370624 -1.6305168569981494e-05 -0.74415019024620432 0.17105553835195272 2.5087868025735521e-06 -0.65615222112914717 0.12472007677485149 -3.2208447003298135e-06 -0.50401888402123052 0.18599851868535691 -2.8588321509062799e-06 -0.47589816607970903 0.1930365702561789 1.1464301804525613e-05 -0.47767188050018555 0.11580960955760843 2.0166000758110774e-05 -0.95270146729203264 0.12461302250690907 2.4189710463569781e-06 -0.71521544183507713 0.15101699611066982 -5.2380126420639027e-07 -0.95393983711323327 0.12543233575370624 -1.6305168569981494e-05 -0.74415019024620432 0.15101699611066982 -5.2380126420639027e-07 -0.95393983711323327 0.17105553835195272 2.5087868025735563e-06 -0.65615222112914717 0.18240462176635594 1.6185391469221313e-07 -0.95501776179005438 0.20300226382580913 -5.491894084453947e-06 -0.77980687157110717 0.15101699611066982 -5.2380126420639027e-07 -0.95393983711323327 0.17105553835195272 2.5087868025735521e-06 -0.65615222112914717 0.12461302250690909 2.4189710463569776e-06 -0.71521544183507701 0.19413114042855126 -5.7452114339738913e-06 -0.74536748551304033 0.15101699611066982 -5.2380126420639027e-07 -0.95393983711323327 0.12543233575370624 -1.6305168569981494e-05 -0.74415019024620432 0.17105553835195272 2.5087868025735449e-06 -0.65615222112914717 0.20300226382580913 -5.491894084453947e-06 -0.77980687157110717 0.15101699611066982 -5.2380126420639027e-07 -0.95393983711323327 0.1246130225069091 2.4189710463569865e-06 -0.71521544183507713 0.17105553835195272 2.5087868025735563e-06 -0.65615222112914717 0.12543233575370624 -1.6305168569981494e-05 -0.74415019024620432 0.15101699611066982 -5.2380126420639027e-07 -0.95393983711323327 0.18240462176635594 1.6185391469221549e-07 -0.95501776179005438 0.17105553835195272 2.5087868025735521e-06 -0.65615222112914717 0.19413114042855126 -5.7452114339738913e-06 -0.74536748551304033 0.15101699611066982 -5.2380126420639027e-07 -0.95393983711323327 0.1246130225069091 2.4189710463569764e-06 -0.71521544183507713 0.16922242568196219 1.5215046628853488e-06 -0.95450252281983172 0.19413114042855126 -5.7452114339738913e-06 -0.74536748551304033 0.17717166033594728 -3.3004067708203909e-05 -0.95479695024230138 0.15101699611066982 -5.2380126420639027e-07 -0.95393983711323327 0.18240462176635594 1.6185391469221266e-07 -0.95501776179005438 0.20300226382580913 -5.4918940844539411e-06 -0.77980687157110717 0.15101699611066982 -5.2380126420639027e-07 -0.95393983711323327 0.16922242568196222 1.5215046628853482e-06 -0.95450252281983183 0.18240462176635594 1.6185391469221266e-07 -0.95501776179005438 0.19413114042855126 -5.7452114339738913e-06 -0.74536748551304033 0.11580960955760843 2.0166000758110774e-05 -0.95270146729203264 0.13127345613506808 7.2914909613762759e-06 -0.9532439598768645 0.15101699611066982 -5.2380126420638985e-07 -0.95393983711323327 0.12461302250690907 2.4189710463569781e-06 -0.71521544183507713 0.16922242568196222 1.5215046628853482e-06 -0.95450252281983183 0.15101699611066979 -5.2380126420638847e-07 -0.95393983711323327 0.13127345613506811 7.2914909613762733e-06 -0.9532439598768645 0.12461302250690907 2.4189710463569781e-06 -0.71521544183507713 0.15101699611066982 -5.2380126420639027e-07 -0.95393983711323327 0.12873723455048952 1.2200385721572136e-05 -0.9531627688530625 0.11580960955760843 2.0166000758110774e-05 -0.95270146729203264 0.12543233575370624 -1.6305168569981494e-05 -0.74415019024620432 0.12873723455048952 1.2200385721572135e-05 -0.9531627688530625 0.17717166033594728 -3.3004067708203909e-05 -0.95479695024230138 0.17341349842715337 -2.6548537587871273e-06 -0.80288232274953608 0.12543233575370621 -1.6305168569981488e-05 -0.74415019024620421 0.17105553835195272 2.5087868025735521e-06 -0.65615222112914717 0.12543233575370624 -1.6305168569981494e-05 -0.74415019024620432 0.17341349842715337 -2.6548537587871252e-06 -0.80288232274953608 0.20300226382580913 -5.491894084453947e-06 -0.77980687157110717 0.17717166033594728 -3.3004067708203909e-05 -0.95479695024230138 0.17341349842715337 -2.6548537587871282e-06 -0.80288232274953608 0.12543233575370624 -1.6305168569981494e-05 -0.74415019024620432 0.20300226382580913 -5.4918940844539402e-06 -0.77980687157110717 0.17717166033594728 -3.3004067708203909e-05 -0.95479695024230138 0.12543233575370624 -1.6305168569981491e-05 -0.74415019024620432 0.15101699611066982 -5.2380126420639027e-07 -0.95393983711323327 0.20300226382580913 -5.491894084453936e-06 -0.77980687157110717 0.17717166033594728 -3.3004067708203909e-05 -0.95479695024230138 0.12873723455048952 1.2200385721572135e-05 -0.9531627688530625 0.15101699611066982 -5.2380126420639027e-07 -0.95393983711323327 0.12543233575370624 -1.6305168569981484e-05 -0.74415019024620455 0.14960384175857455 -3.2828448578837405e-06 -0.64428175830930234 0.17105553835195267 2.5087868025735753e-06 -0.65615222112914717 0.17341349842715337 -2.6548537587871252e-06 -0.80288232274953608 0.20300226382580913 -5.491894084453947e-06 -0.77980687157110717 0.17341349842715337 -2.6548537587871252e-06 -0.80288232274953608 0.14960384175857455 -3.2828448578837418e-06 -0.64428175830930234 0.12490793798554095 -2.9445977680801866e-06 -0.78884138119000802 0.12543233575370624 -1.6305168569981494e-05 -0.74415019024620432 0.17341349842715337 -2.6548537587871252e-06 -0.80288232274953608 0.12490793798554095 -2.9445977680801866e-06 -0.78884138119000802 0.12873723455048952 1.2200385721572135e-05 -0.9531627688530625 0.12543233575370624 -1.6305168569981494e-05 -0.74415019024620432 0.15120877115090589 -3.1982161293479727e-06 -0.95387510128698028 0.12490793798554095 -2.9445977680801866e-06 -0.78884138119000802 0.12873723455048952 1.2200385721572135e-05 -0.9531627688530625 0.17341349842715337 -2.6548537587871252e-06 -0.80288232274953608 0.12873723455048952 1.2200385721572135e-05 -0.9531627688530625 0.10131465474345783 -3.4455546414315355e-06 -0.95224981937987363 0.12490793798554095 -2.9445977680801879e-06 -0.78884138119000802 0.15120877115090589 -3.1982161293479727e-06 -0.95387510128698028 0.12873723455048952 1.2200385721572135e-05 -0.9531627688530625 0.17717166033594728 -3.3004067708203909e-05 -0.95479695024230138 0.15120877115090589 -3.1982161293479697e-06 -0.95387510128698016 0.17341349842715337 -2.6548537587871252e-06 -0.80288232274953608 0.17717166033594728 -3.3004067708203909e-05 -0.95479695024230138 0.15120877115090589 -3.1982161293479735e-06 -0.95387510128698028 0.17341349842715337 -2.6548537587871252e-06 -0.80288232274953608 0.20035757032003948 -2.5747590887813351e-06 -0.95580228630858144 0.14960384175857455 -3.2828448578837405e-06 -0.64428175830930234 0.1734134984271534 -2.6548537587871248e-06 -0.80288232274953608 0.20216314924193926 -2.8536845986501487e-06 -0.65853405760718886 0.20300226382580913 -5.491894084453947e-06 -0.77980687157110717 0.17717166033594728 -3.3004067708203909e-05 -0.95479695024230138 0.21330461652752714 -1.3244654593198857e-05 -0.95620225663851122 0.17341349842715337 -2.654853758787121e-06 -0.80288232274953597 0.20300226382580916 -5.4918940844539462e-06 -0.77980687157110717 0.21330461652752714 -1.3244654593198855e-05 -0.95620225663851122 0.17717166033594728 -3.3004067708203909e-05 -0.95479695024230138 0.21278864055471558 -1.7292209562189884e-05 -0.95615255692339551 0.20300226382580913 -5.491894084453947e-06 -0.77980687157110717 0.24694391984773903 1.8252378555067116e-05 -0.67516694956559231 0.20216314924193929 -2.8536845986501504e-06 -0.65853405760718897 0.21229834673986597 -2.1174247315257757e-06 -0.81609226680737079 0.2030022638258091 -5.4918940844539521e-06 -0.77980687157110717 0.17341349842715337 -2.6548537587871252e-06 -0.80288232274953608 0.21229834673986597 -2.1174247315257735e-06 -0.81609226680737079 0.20216314924193926 -2.8536845986501487e-06 -0.65853405760718886 0.20300226382580913 -5.491894084453947e-06 -0.77980687157110717 0.212298346739866 -2.117424731525774e-06 -0.81609226680737079 0.17341349842715337 -2.6548537587871256e-06 -0.80288232274953608 0.21330461652752714 -1.3244654593198855e-05 -0.95620225663851122 0.20300226382580913 -5.491894084453947e-06 -0.77980687157110717 0.20035757032003948 -2.5747590887813351e-06 -0.95580228630858144 0.17341349842715334 -2.6548537587871256e-06 -0.80288232274953597 0.17717166033594728 -3.3004067708203909e-05 -0.95479695024230138 0.21330461652752714 -1.3244654593198855e-05 -0.95620225663851122 0.20035757032003948 -2.5747590887813351e-06 -0.95580228630858144 0.21229834673986603 -2.1174247315257731e-06 -0.8160922668073709 0.17341349842715337 -2.6548537587871256e-06 -0.80288232274953608 0.21330461652752714 -1.3244654593198855e-05 -0.95620225663851122 0.2486248907152229 -2.8800807793181816e-06 -0.95743424199497673 0.24764892551486919 1.4734842045585323e-05 -0.81696045634123426 0.21229834673986597 -2.1174247315257748e-06 -0.81609226680737079 0.21330461652752714 -1.3244654593198855e-05 -0.95620225663851122 0.20035757032003948 -2.5747590887813351e-06 -0.95580228630858144 0.2486248907152229 -2.8800807793181816e-06 -0.95743424199497673 0.212298346739866 -2.117424731525774e-06 -0.81609226680737079 0.21330461652752714 -1.3244654593198855e-05 -0.95620225663851122 0.21330461652752714 -1.3244654593198855e-05 -0.95620225663851122 0.2486248907152229 -2.8800807793181816e-06 -0.95743424199497673 0.24764892551486919 1.4734842045585323e-05 -0.81696045634123426 0.24859990513072466 3.4793090072034057e-06 -0.9572865269160904 0.212298346739866 -2.117424731525774e-06 -0.81609226680737079 0.24764892551486919 1.4734842045585323e-05 -0.81696045634123426 0.2486248907152229 -2.8800807793181816e-06 -0.95743424199497673 0.2472709459791029 -2.8462497411189944e-06 -0.76557756689516643 0.212298346739866 -2.117424731525774e-06 -0.81609226680737079 0.20216314924193926 -2.8536845986501492e-06 -0.65853405760718886 0.24694391984773903 1.8252378555067112e-05 -0.67516694956559242 0.2472709459791029 -2.8462497411189944e-06 -0.76557756689516643 0.24694391984773903 1.8252378555067116e-05 -0.67516694956559231 0.24764892551486919 1.4734842045585323e-05 -0.81696045634123426 0.212298346739866 -2.117424731525774e-06 -0.81609226680737079 0.2472709459791029 -2.8462497411189944e-06 -0.76557756689516643 0.24764892551486919 1.4734842045585323e-05 -0.81696045634123426 0.24765462759226534 6.2982417446437111e-06 -0.81512684142895464 0.24694391984773903 1.8252378555067116e-05 -0.67516694956559231 0.20300226382580913 -5.491894084453947e-06 -0.77980687157110717 0.24694391984773903 1.8252378555067116e-05 -0.67516694956559231 0.212298346739866 -2.117424731525774e-06 -0.81609226680737079 0.24764892551486919 1.4734842045585323e-05 -0.81696045634123426 0.20300226382580913 -5.491894084453947e-06 -0.77980687157110717 0.21330461652752714 -1.3244654593198855e-05 -0.95620225663851122 0.21278864055471558 -1.7292209562189884e-05 -0.9561525569233954 0.24859990513072466 3.4793090072034057e-06 -0.9572865269160904 0.20300226382580913 -5.491894084453947e-06 -0.77980687157110717 0.24764892551486919 1.4734842045585323e-05 -0.81696045634123426 0.21330461652752714 -1.324465459319886e-05 -0.95620225663851122 0.24859990513072466 3.4793090072034057e-06 -0.9572865269160904 0.20300226382580913 -5.491894084453947e-06 -0.77980687157110717 0.24764892551486919 1.4734842045585323e-05 -0.81696045634123426 0.24859990513072466 3.4793090072034057e-06 -0.9572865269160904 0.24765462759226534 6.2982417446437111e-06 -0.81512684142895464 0.20300226382580913 -5.491894084453947e-06 -0.77980687157110717 0.212298346739866 -2.117424731525774e-06 -0.81609226680737079 0.21330461652752714 -1.3244654593198855e-05 -0.95620225663851122 0.24764892551486919 1.4734842045585323e-05 -0.81696045634123426 0.20300226382580916 -5.4918940844539445e-06 -0.77980687157110729 0.24859990513072466 3.4793090072034057e-06 -0.9572865269160904 0.24765462759226536 6.2982417446437085e-06 -0.81512684142895475 0.21278864055471558 -1.7292209562189884e-05 -0.95615255692339551 0.24855081228776699 1.1134836167180354e-05 -0.95731681128521484 0.24859990513072466 3.4793090072034057e-06 -0.9572865269160904 0.21278864055471558 -1.7292209562189887e-05 -0.95615255692339551 0.24765462759226534 6.2982417446437111e-06 -0.81512684142895464 0.2030022638258091 -5.4918940844539453e-06 -0.77980687157110717 0.24765462759226534 6.2982417446437111e-06 -0.81512684142895464 0.21278864055471558 -1.7292209562189887e-05 -0.95615255692339551 0.19413114042855126 -5.745211433973893e-06 -0.74536748551304033 0.20300226382580919 -5.4918940844539436e-06 -0.77980687157110729 0.17105553835195272 2.5087868025735521e-06 -0.65615222112914717 0.19413114042855126 -5.7452114339738905e-06 -0.74536748551304033 0.18240462176635594 1.6185391469221554e-07 -0.95501776179005449 0.20300226382580913 -5.491894084453947e-06 -0.77980687157110717 0.2470919344729135 -1.848368506389859e-05 -0.69586026901404985 0.24765462759226534 6.2982417446437111e-06 -0.81512684142895464 0.19413114042855126 -5.7452114339738828e-06 -0.74536748551304033 0.2030022638258091 -5.4918940844539512e-06 -0.77980687157110706 0.21278864055471558 -1.7292209562189884e-05 -0.95615255692339551 0.18240462176635594 1.6185391469221266e-07 -0.95501776179005438 0.19413114042855126 -5.7452114339738913e-06 -0.74536748551304033 0.2030022638258091 -5.4918940844539504e-06 -0.77980687157110706 0.2470919344729135 -1.848368506389859e-05 -0.69586026901404985 0.19413114042855129 -5.7452114339738964e-06 -0.74536748551304033 0.17105553835195275 2.5087868025735521e-06 -0.65615222112914717 0.2030022638258091 -5.4918940844539445e-06 -0.77980687157110729 0.21278864055471558 -1.7292209562189884e-05 -0.95615255692339551 0.24765462759226534 6.2982417446437068e-06 -0.81512684142895475 0.24754634359401564 1.909162764705145e-08 -0.80578092333622375 0.24855081228776699 1.1134836167180354e-05 -0.95731681128521484 0.18240462176635594 1.6185391469221266e-07 -0.95501776179005438 0.21278864055471555 -1.7292209562189884e-05 -0.95615255692339562 0.17717166033594728 -3.3004067708203909e-05 -0.95479695024230138 0.20300226382580913 -5.491894084453947e-06 -0.77980687157110717 0.24694391984773903 1.8252378555067116e-05 -0.67516694956559231 0.24765462759226534 6.2982417446437111e-06 -0.81512684142895464 0.2470919344729135 -1.848368506389859e-05 -0.69586026901404985 0.20300226382580913 -5.491894084453947e-06 -0.77980687157110717 0.21278864055471558 -1.7292209562189884e-05 -0.95615255692339551 0.24754634359401564 1.9091627647043654e-08 -0.80578092333622386 0.24765462759226534 6.2982417446437111e-06 -0.81512684142895464 0.19413114042855126 -5.7452114339738913e-06 -0.74536748551304033 0.24765462759226534 6.2982417446437111e-06 -0.81512684142895464 0.24754634359401564 1.9091627647046811e-08 -0.80578092333622375 0.2470919344729135 -1.848368506389859e-05 -0.69586026901404985 0.19413114042855126 -5.7452114339738913e-06 -0.74536748551304033 0.2470919344729135 -1.848368506389859e-05 -0.69586026901404985 0.24754634359401564 1.9091627647050321e-08 -0.80578092333622375 0.24673558316562938 8.0927876193171562e-06 -0.64405456717599274 0.19413114042855126 -5.7452114339738913e-06 -0.74536748551304033 0.18240462176635594 1.6185391469221266e-07 -0.95501776179005438 0.16922242568196222 1.5215046628853482e-06 -0.95450252281983183 0.21044569098650753 5.4071613492856796e-07 -0.95612430275731353 0.19413114042855126 -5.7452114339738913e-06 -0.74536748551304033 0.21044569098650753 5.4071613492856828e-07 -0.95612430275731364 0.21278864055471558 -1.7292209562189884e-05 -0.95615255692339551 0.18240462176635594 1.6185391469221255e-07 -0.95501776179005438 0.19413114042855126 -5.7452114339738913e-06 -0.74536748551304033 0.21044569098650753 5.4071613492856828e-07 -0.95612430275731364 0.24754634359401564 1.909162764705145e-08 -0.80578092333622375 0.21278864055471558 -1.7292209562189884e-05 -0.95615255692339551 0.19413114042855126 -5.7452114339738913e-06 -0.74536748551304033 0.24855081228776699 1.1134836167180354e-05 -0.95731681128521484 0.24754634359401564 1.909162764705145e-08 -0.80578092333622375 0.21044569098650753 5.4071613492856828e-07 -0.95612430275731364 0.24857899006894446 5.1087332908996779e-07 -0.95730415505727695 0.24754634359401564 1.909162764705145e-08 -0.80578092333622375 0.21044569098650756 5.4071613492857167e-07 -0.95612430275731364 0.21278864055471561 -1.7292209562189887e-05 -0.95615255692339551 0.24855081228776699 1.1134836167180354e-05 -0.95731681128521484 0.20220743019831838 1.0085325415871227e-05 -0.95570426610723813 0.19413114042855131 -5.745211433973854e-06 -0.74536748551304033 0.17084725158020131 -1.2972770344301334e-05 -0.6552202414500683 0.19343657121303276 1.2235243784740595e-05 -0.78017473854626196 0.20220743019831838 1.0085325415871227e-05 -0.95570426610723813 0.24740070423793192 8.2726777579263314e-06 -0.77361420235672462 0.19413114042855126 -5.7452114339738913e-06 -0.74536748551304033 0.19343657121303276 1.2235243784740595e-05 -0.78017473854626196 0.24857899006894446 5.1087332908996779e-07 -0.95730415505727695 0.24754634359401564 1.909162764705145e-08 -0.80578092333622375 0.21044569098650753 5.4071613492856828e-07 -0.95612430275731364 0.24740070423793192 8.2726777579263297e-06 -0.77361420235672462 0.17084725158020134 -1.2972770344301294e-05 -0.65522024145006819 0.19413114042855126 -5.7452114339738896e-06 -0.74536748551304044 0.24740070423793192 8.2726777579263348e-06 -0.77361420235672473 0.19343657121303276 1.2235243784740601e-05 -0.78017473854626196 0.21044569098650753 5.4071613492856828e-07 -0.95612430275731364 0.24857899006894446 5.1087332908996599e-07 -0.95730415505727706 0.24740070423793192 8.2726777579263297e-06 -0.77361420235672462 0.20220743019831838 1.0085325415871227e-05 -0.95570426610723813 0.24857899006894446 5.1087332908996779e-07 -0.95730415505727695 0.24740070423793192 8.2726777579263297e-06 -0.77361420235672462 0.20220743019831838 1.0085325415871227e-05 -0.95570426610723813 0.24859048384777735 -2.5994018637753457e-06 -0.95731721360500632 0.21044569098650753 5.4071613492856828e-07 -0.95612430275731364 0.16922242568196222 1.5215046628853482e-06 -0.95450252281983183 0.20220743019831838 1.0085325415871227e-05 -0.95570426610723813 0.19413114042855126 -5.7452114339738913e-06 -0.74536748551304033 0.21044569098650753 5.4071613492856828e-07 -0.95612430275731364 0.20220743019831838 1.0085325415871227e-05 -0.95570426610723813 0.24740070423793192 8.2726777579263297e-06 -0.77361420235672462 0.19413114042855126 -5.7452114339738913e-06 -0.74536748551304033 0.24740070423793192 8.2726777579263297e-06 -0.77361420235672462 0.24673558316562935 8.0927876193171579e-06 -0.64405456717599263 0.24754634359401564 1.909162764705145e-08 -0.80578092333622375 0.19413114042855126 -5.7452114339738913e-06 -0.74536748551304033 0.24740070423793192 8.2726777579263297e-06 -0.77361420235672462 0.24754634359401564 1.909162764705145e-08 -0.80578092333622375 0.21044569098650753 5.4071613492856891e-07 -0.95612430275731364 0.19413114042855126 -5.7452114339738913e-06 -0.74536748551304033 0.24656922016241276 1.3134953954035714e-05 -0.58376826568562801 0.19413114042855126 -5.745211433973893e-06 -0.74536748551304022 0.18599851868535691 -2.8588321509062804e-06 -0.47589816607970903 0.24673558316562938 8.0927876193171562e-06 -0.64405456717599274 0.24656922016241276 1.3134953954035714e-05 -0.58376826568562801 0.18599851868535688 -2.8588321509062778e-06 -0.47589816607970897 0.17084725158020131 -1.297277034430129e-05 -0.65522024145006807 0.19156234084458088 9.0972728785947198e-06 -0.47586967716448891 0.24656922016241276 1.3134953954035714e-05 -0.58376826568562801 0.17084725158020136 -1.2972770344301287e-05 -0.65522024145006819 0.24694048328378793 -3.3550280982453859e-05 -0.66363540053605163 0.1915623408445809 9.0972728785947215e-06 -0.47586967716448891 0.24740070423793192 8.2726777579263297e-06 -0.77361420235672462 0.24656922016241276 1.3134953954035719e-05 -0.5837682656856279 0.17084725158020134 -1.2972770344301277e-05 -0.65522024145006819 0.19343657121303276 1.2235243784740595e-05 -0.78017473854626196 0.24656922016241276 1.3134953954035714e-05 -0.58376826568562801 0.24620482782204281 1.5559649812609325e-05 -0.43818411580762467 0.18599851868535691 -2.8588321509062808e-06 -0.47589816607970903 0.19156234084458088 9.0972728785947198e-06 -0.47586967716448886 0.18599851868535691 -2.8588321509062808e-06 -0.47589816607970903 0.19413114042855123 -5.7452114339738922e-06 -0.74536748551304033 0.24656922016241278 1.3134953954035713e-05 -0.58376826568562801 0.17084725158020134 -1.2972770344301294e-05 -0.65522024145006819 0.24740070423793192 8.2726777579263297e-06 -0.77361420235672462 0.17084725158020134 -1.2972770344301294e-05 -0.65522024145006819 0.24656922016241278 1.3134953954035714e-05 -0.58376826568562812 0.19413114042855126 -5.7452114339738913e-06 -0.74536748551304033 0.24673558316562938 8.0927876193171562e-06 -0.64405456717599274 0.24740070423793192 8.2726777579263297e-06 -0.77361420235672462 0.24656922016241276 1.3134953954035714e-05 -0.58376826568562801 0.19413114042855126 -5.7452114339738947e-06 -0.74536748551304022 0.24656922016241276 1.3134953954035714e-05 -0.58376826568562801 0.2462202288837318 1.0921954140904346e-05 -0.4970150709224419 0.24673558316562938 8.0927876193171562e-06 -0.64405456717599274 0.18599851868535691 -2.8588321509062808e-06 -0.47589816607970903 0.24656922016241276 1.3134953954035714e-05 -0.58376826568562801 0.24620482782204281 1.5559649812609325e-05 -0.43818411580762467 0.2462202288837318 1.0921954140904346e-05 -0.49701507092244185 0.18599851868535691 -2.8588321509062808e-06 -0.47589816607970903 0.24656922016241276 1.3134953954035714e-05 -0.58376826568562801 0.24625539348622752 -2.0483868584451844e-05 -0.4859622850808617 0.24620482782204281 1.5559649812609325e-05 -0.43818411580762467 0.1915623408445809 9.0972728785947266e-06 -0.47586967716448897 0.24694048328378793 -3.3550280982453859e-05 -0.66363540053605163 0.1915623408445809 9.0972728785947215e-06 -0.47586967716448897 0.17084725158020139 -1.2972770344301365e-05 -0.65522024145006819 0.19343657121303276 1.2235243784740595e-05 -0.78017473854626196 0.17084725158020134 -1.2972770344301294e-05 -0.65522024145006819 0.1915623408445809 9.0972728785947131e-06 -0.47586967716448897 0.20186491310342569 2.7954798057714222e-06 -0.65378913400825056 0.19343657121303279 1.2235243784740644e-05 -0.78017473854626196 0.24694048328378793 -3.3550280982453859e-05 -0.66363540053605163 0.17084725158020128 -1.2972770344301504e-05 -0.65522024145006796 0.24656922016241276 1.3134953954035714e-05 -0.58376826568562801 0.19343657121303276 1.2235243784740595e-05 -0.78017473854626196 0.24740070423793192 8.2726777579263297e-06 -0.77361420235672462 0.24694048328378793 -3.3550280982453859e-05 -0.66363540053605163 0.24656922016241276 1.3134953954035714e-05 -0.58376826568562801 0.19343657121303276 1.2235243784740595e-05 -0.78017473854626196 0.24694048328378793 -3.3550280982453859e-05 -0.66363540053605163 0.20186491310342566 2.7954798057713794e-06 -0.65378913400825045 0.1915623408445809 9.0972728785947215e-06 -0.47586967716448897 0.19343657121303276 1.2235243784740595e-05 -0.78017473854626196 0.24625539348622752 -2.0483868584451844e-05 -0.4859622850808617 0.24656922016241276 1.3134953954035714e-05 -0.58376826568562801 0.24694048328378793 -3.3550280982453859e-05 -0.66363540053605163 0.1915623408445809 9.0972728785947215e-06 -0.47586967716448897 0.24694048328378793 -3.3550280982453859e-05 -0.66363540053605163 0.21439636866128239 2.6193956041416065e-06 -0.48366684666427667 0.24625539348622752 -2.0483868584451844e-05 -0.4859622850808617 0.1915623408445809 9.0972728785947215e-06 -0.47586967716448897 0.24650236948029247 2.8090179809566751e-06 -0.57401558241216522 0.24625539348622752 -2.0483868584451844e-05 -0.4859622850808617 0.24694048328378793 -3.3550280982453859e-05 -0.66363540053605163 0.21439636866128242 2.6193956041416036e-06 -0.48366684666427667 0.21439636866128242 2.6193956041416036e-06 -0.48366684666427667 0.24650236948029247 2.8090179809566756e-06 -0.57401558241216522 0.24625539348622752 -2.0483868584451844e-05 -0.4859622850808617 0.24602031246708553 2.5690986270001363e-06 -0.38250794065977922 0.24694048328378793 -3.3550280982453859e-05 -0.66363540053605163 0.20186491310342566 2.7954798057713718e-06 -0.65378913400825045 0.24650236948029247 2.8090179809566751e-06 -0.57401558241216522 0.21439636866128239 2.6193956041415947e-06 -0.48366684666427651 0.21439636866128242 2.6193956041416036e-06 -0.48366684666427667 0.20186491310342566 2.7954798057713765e-06 -0.65378913400825045 0.16937938310226036 3.2721411712159527e-06 -0.49923937650213968 0.1915623408445809 9.0972728785947215e-06 -0.47586967716448897 0.20186491310342566 2.7954798057713769e-06 -0.65378913400825045 0.21439636866128242 2.6193956041416036e-06 -0.48366684666427667 0.24694048328378793 -3.3550280982453852e-05 -0.66363540053605163 0.1915623408445809 9.0972728785947215e-06 -0.47586967716448897 0.24694048328378793 -3.3550280982453859e-05 -0.66363540053605163 0.20186491310342566 2.7954798057713777e-06 -0.65378913400825056 0.24730334849910515 3.0625211510512833e-06 -0.76555914342805875 0.24650236948029247 2.8090179809566751e-06 -0.57401558241216522 0.24730334849910515 3.0625211510512833e-06 -0.76555914342805875 0.21232466902983652 2.0752707616591276e-06 -0.81606871674841641 0.20186491310342566 2.7954798057713769e-06 -0.65378913400825045 0.24694048328378793 -3.3550280982453859e-05 -0.66363540053605163 0.21232466902983654 2.075270761659125e-06 -0.81606871674841641 0.24694048328378793 -3.3550280982453859e-05 -0.66363540053605163 0.24765205643059043 -2.3860476621239067e-05 -0.81693673604438588 0.19343657121303276 1.2235243784740601e-05 -0.78017473854626207 0.21232466902983654 2.075270761659125e-06 -0.81606871674841641 0.24730334849910515 3.0625211510512833e-06 -0.76555914342805875 0.24765205643059043 -2.3860476621239067e-05 -0.81693673604438577 0.24694048328378795 -3.3550280982453852e-05 -0.66363540053605186 0.21327329822865104 7.5807543489942891e-06 -0.95622018627814021 0.24859976201335543 2.8127736299185542e-06 -0.95739437853371012 0.24859048384777735 -2.5994018637753457e-06 -0.95731721360500632 0.24765205643059043 -2.3860476621239067e-05 -0.81693673604438588 0.21327329822865104 7.5807543489942891e-06 -0.95622018627814021 0.20028485565748566 2.7020089953003738e-06 -0.95573418616411632 0.24859976201335543 2.8127736299185576e-06 -0.95739437853371012 0.21232466902983654 2.075270761659125e-06 -0.81606871674841641 0.24730334849910515 3.0625211510512833e-06 -0.76555914342805875 0.24765205643059043 -2.3860476621239067e-05 -0.81693673604438588 0.24859976201335543 2.8127736299185576e-06 -0.95739437853371012 0.21232466902983654 2.075270761659125e-06 -0.81606871674841641 0.24765205643059043 -2.3860476621239067e-05 -0.81693673604438588 0.21327329822865104 7.5807543489942908e-06 -0.95622018627814021 0.24859976201335543 2.8127736299185576e-06 -0.95739437853371012 0.21232466902983654 2.075270761659125e-06 -0.81606871674841641 0.21327329822865104 7.5807543489942891e-06 -0.95622018627814021 0.24859048384777735 -2.5994018637753457e-06 -0.95731721360500632 0.24740070423793192 8.2726777579263247e-06 -0.77361420235672462 0.24765205643059043 -2.3860476621239067e-05 -0.81693673604438588 0.24859048384777735 -2.5994018637753457e-06 -0.95731721360500632 0.24740070423793192 8.2726777579263297e-06 -0.77361420235672462 0.20220743019831836 1.0085325415871229e-05 -0.95570426610723813 0.21327329822865104 7.5807543489942891e-06 -0.95622018627814021 0.21327329822865104 7.5807543489942891e-06 -0.95622018627814021 0.24765205643059043 -2.3860476621239067e-05 -0.81693673604438588 0.24740070423793192 8.2726777579263297e-06 -0.77361420235672462 0.19343657121303276 1.22352437847406e-05 -0.78017473854626196 0.24740070423793192 8.2726777579263297e-06 -0.77361420235672462 0.24765205643059043 -2.3860476621239067e-05 -0.81693673604438588 0.24694048328378793 -3.3550280982453859e-05 -0.66363540053605163 0.19343657121303276 1.2235243784740595e-05 -0.78017473854626196 0.17424017102926251 2.5688945647918778e-05 -0.9546710433031167 0.21327329822865104 7.5807543489942891e-06 -0.95622018627814021 0.20220743019831838 1.0085325415871227e-05 -0.95570426610723813 0.19343657121303276 1.2235243784740595e-05 -0.78017473854626196 0.20220743019831838 1.0085325415871227e-05 -0.95570426610723813 0.21327329822865104 7.5807543489942891e-06 -0.95622018627814021 0.24740070423793192 8.2726777579263297e-06 -0.77361420235672462 0.19343657121303276 1.2235243784740595e-05 -0.78017473854626196 0.21327329822865104 7.5807543489942891e-06 -0.95622018627814021 0.20028485565748566 2.7020089953003734e-06 -0.95573418616411632 0.21232466902983654 2.075270761659125e-06 -0.81606871674841641 0.19343657121303276 1.2235243784740595e-05 -0.78017473854626196 0.17469657004201111 2.6650524737617244e-06 -0.79298945598095005 0.21232466902983654 2.075270761659125e-06 -0.81606871674841641 0.20028485565748566 2.7020089953003734e-06 -0.95573418616411632 0.19343657121303276 1.2235243784740595e-05 -0.78017473854626196 0.21327329822865104 7.5807543489942891e-06 -0.95622018627814021 0.17424017102926251 2.5688945647918778e-05 -0.9546710433031167 0.20028485565748566 2.7020089953003734e-06 -0.95573418616411632 0.19343657121303276 1.2235243784740595e-05 -0.78017473854626196 0.24765205643059043 -2.3860476621239067e-05 -0.81693673604438588 0.21327329822865104 7.5807543489942925e-06 -0.95622018627814021 0.21232466902983652 2.0752707616591305e-06 -0.8160687167484163 0.19343657121303273 1.2235243784740596e-05 -0.78017473854626196 0.21232466902983654 2.075270761659125e-06 -0.81606871674841641 0.17469657004201111 2.6650524737617244e-06 -0.79298945598095005 0.20186491310342566 2.7954798057713769e-06 -0.65378913400825045 0.19343657121303279 1.2235243784740598e-05 -0.78017473854626207 0.20186491310342566 2.7954798057713769e-06 -0.65378913400825045 0.24694048328378795 -3.3550280982453852e-05 -0.66363540053605163 0.21232466902983654 2.075270761659125e-06 -0.81606871674841641 0.19343657121303276 1.2235243784740595e-05 -0.78017473854626196 0.17424017102926251 2.5688945647918778e-05 -0.9546710433031167 0.12500339463654486 7.6454517059957147e-06 -0.74232702970158637 0.17469657004201111 2.665052473761724e-06 -0.79298945598095016 0.19343657121303276 1.2235243784740595e-05 -0.78017473854626196 0.17424017102926251 2.5688945647918778e-05 -0.9546710433031167 0.15364196387394732 3.9995308367002498e-06 -0.95402870194810607 0.12500339463654489 7.645451705995713e-06 -0.74232702970158648 0.19343657121303276 1.2235243784740595e-05 -0.78017473854626196 0.20186491310342566 2.7954798057713769e-06 -0.65378913400825045 0.17469657004201111 2.6650524737617244e-06 -0.79298945598095005 0.1525878632943658 2.4473511044160344e-06 -0.64711471781308372 0.19343657121303276 1.2235243784740595e-05 -0.78017473854626196 0.1525878632943658 2.4473511044160344e-06 -0.64711471781308372 0.17469657004201111 2.6650524737617236e-06 -0.79298945598095005 0.12500339463654489 7.645451705995713e-06 -0.74232702970158648 0.19343657121303276 1.2235243784740595e-05 -0.78017473854626196 0.17424017102926251 2.5688945647918778e-05 -0.9546710433031167 0.17469657004201114 2.6650524737617223e-06 -0.79298945598094994 0.20028485565748566 2.7020089953003734e-06 -0.95573418616411632 0.19343657121303276 1.2235243784740595e-05 -0.78017473854626196 0.12778131493899467 2.6839294048070968e-06 -0.79618806112862428 0.15123085105325071 3.2266303051071462e-06 -0.9539494037224342 0.17424017102926254 2.5688945647918788e-05 -0.9546710433031167 0.17469657004201111 2.6650524737617244e-06 -0.79298945598095005 0.17469657004201111 2.6650524737617244e-06 -0.79298945598095005 0.15123085105325074 3.2266303051071491e-06 -0.95394940372243409 0.17424017102926251 2.5688945647918778e-05 -0.9546710433031167 0.20028485565748566 2.7020089953003734e-06 -0.95573418616411632 0.20220743019831838 1.0085325415871227e-05 -0.95570426610723813 0.15364196387394732 3.999530836700249e-06 -0.95402870194810607 0.17424017102926251 2.5688945647918778e-05 -0.9546710433031167 0.19343657121303276 1.2235243784740595e-05 -0.78017473854626196 0.1283020994530813 -1.1468913883916364e-05 -0.95309235763729971 0.17424017102926251 2.5688945647918778e-05 -0.9546710433031167 0.15364196387394732 3.9995308367002498e-06 -0.95402870194810607 0.12500339463654489 7.645451705995713e-06 -0.74232702970158648 0.1283020994530813 -1.1468913883916364e-05 -0.95309235763729971 0.12778131493899467 2.6839294048070989e-06 -0.79618806112862428 0.17424017102926251 2.5688945647918778e-05 -0.9546710433031167 0.12500339463654489 7.645451705995713e-06 -0.74232702970158648 0.15123085105325071 3.2266303051071462e-06 -0.9539494037224342 0.1283020994530813 -1.1468913883916364e-05 -0.95309235763729971 0.10135964832610433 3.6016489110473356e-06 -0.95235166362085411 0.12778131493899467 2.6839294048070968e-06 -0.79618806112862428 0.17424017102926251 2.5688945647918778e-05 -0.9546710433031167 0.1283020994530813 -1.1468913883916364e-05 -0.95309235763729971 0.15123085105325071 3.2266303051071462e-06 -0.9539494037224342 0.12778131493899464 2.6839294048071002e-06 -0.79618806112862406 0.17424017102926251 2.5688945647918778e-05 -0.9546710433031167 0.12778131493899467 2.683929404807101e-06 -0.79618806112862439 0.17469657004201111 2.6650524737617253e-06 -0.79298945598095005 0.12500339463654486 7.645451705995713e-06 -0.74232702970158648 0.12778131493899467 2.6839294048070968e-06 -0.79618806112862428 0.1525878632943658 2.4473511044160348e-06 -0.64711471781308372 0.17469657004201111 2.6650524737617244e-06 -0.79298945598095005 0.12500339463654489 7.6454517059957113e-06 -0.74232702970158648 0.1525878632943658 2.4473511044160344e-06 -0.64711471781308372 0.12448473022069156 -1.6331552767735747e-06 -0.50477677972976209 0.17084725158020134 -1.2972770344301299e-05 -0.65522024145006819 0.12500339463654489 7.6454517059957181e-06 -0.74232702970158648 0.1525878632943658 2.4473511044160344e-06 -0.64711471781308372 0.12448473022069155 -1.6331552767735813e-06 -0.50477677972976209 0.16937938310226036 3.2721411712159527e-06 -0.49923937650213968 0.1915623408445809 9.0972728785947215e-06 -0.47586967716448897 0.1525878632943658 2.4473511044160344e-06 -0.64711471781308372 0.11451310527718393 2.3720649268265637e-06 -0.65709867609237882 0.12448473022069159 -1.6331552767735783e-06 -0.50477677972976209 0.12500339463654489 7.645451705995713e-06 -0.74232702970158648 0.11451310527718393 2.3720649268265637e-06 -0.65709867609237882 0.1525878632943658 2.4473511044160344e-06 -0.64711471781308372 0.12778131493899467 2.6839294048070964e-06 -0.79618806112862428 0.12500339463654489 7.645451705995713e-06 -0.74232702970158648 0.1525878632943658 2.4473511044160344e-06 -0.64711471781308372 0.17084725158020131 -1.2972770344301292e-05 -0.65522024145006807 0.12448473022069158 -1.6331552767735766e-06 -0.5047767797297622 0.1915623408445809 9.0972728785947215e-06 -0.47586967716448897 0.20186491310342566 2.7954798057713769e-06 -0.65378913400825045 0.1525878632943658 2.4473511044160314e-06 -0.64711471781308372 0.17084725158020131 -1.2972770344301302e-05 -0.65522024145006807 0.19343657121303276 1.2235243784740595e-05 -0.78017473854626196 0.1525878632943658 2.4473511044160344e-06 -0.64711471781308372 0.12500339463654489 7.645451705995713e-06 -0.74232702970158648 0.17084725158020134 -1.2972770344301299e-05 -0.65522024145006807 0.19343657121303276 1.2235243784740595e-05 -0.78017473854626196 0.20186491310342566 2.7954798057713769e-06 -0.65378913400825045 0.17084725158020134 -1.2972770344301294e-05 -0.65522024145006819 0.1525878632943658 2.4473511044160344e-06 -0.64711471781308372 0.1915623408445809 9.0972728785947131e-06 -0.47586967716448902 0.20186491310342566 2.7954798057713769e-06 -0.65378913400825045 0.1525878632943658 2.4473511044160344e-06 -0.64711471781308372 0.16937938310226036 3.2721411712159527e-06 -0.49923937650213968 0.1915623408445809 9.0972728785947215e-06 -0.47586967716448897 0.1525878632943658 2.4473511044160344e-06 -0.64711471781308372 0.11451310527718393 2.3720649268265637e-06 -0.65709867609237882 0.12928674328126483 2.8216074349781544e-06 -0.47658643332540351 0.12448473022069158 -1.6331552767735785e-06 -0.50477677972976209 0.1525878632943658 2.4473511044160344e-06 -0.64711471781308372 0.12928674328126483 2.8216074349781544e-06 -0.47658643332540351 0.16937938310226036 3.2721411712159527e-06 -0.49923937650213968 0.12448473022069161 -1.6331552767735789e-06 -0.5047767797297622 0.17084725158020134 -1.2972770344301294e-05 -0.65522024145006819 0.12448473022069156 -1.6331552767735768e-06 -0.50477677972976198 0.12461302250690907 2.4189710463569781e-06 -0.71521544183507713 0.12500339463654489 7.645451705995713e-06 -0.74232702970158648 0.17084725158020134 -1.2972770344301294e-05 -0.65522024145006819 0.1244917378017729 1.879724224873695e-06 -0.47651852079450757 0.18599851868535688 -2.8588321509062833e-06 -0.47589816607970892 0.12461302250690907 2.4189710463569781e-06 -0.71521544183507713 0.17084725158020134 -1.2972770344301294e-05 -0.65522024145006819 0.12461302250690907 2.4189710463569781e-06 -0.71521544183507713 0.18599851868535691 -2.8588321509062808e-06 -0.47589816607970903 0.19413114042855126 -5.7452114339738913e-06 -0.74536748551304033 0.1244917378017729 1.8797242248736909e-06 -0.47651852079450757 0.17084725158020134 -1.2972770344301292e-05 -0.65522024145006819 0.18599851868535691 -2.8588321509062808e-06 -0.47589816607970903 0.12448473022069158 -1.6331552767735775e-06 -0.50477677972976209 0.18599851868535691 -2.8588321509062808e-06 -0.47589816607970903 0.12448473022069158 -1.6331552767735804e-06 -0.50477677972976209 0.17084725158020134 -1.2972770344301294e-05 -0.65522024145006819 0.19156234084458096 9.0972728785947266e-06 -0.47586967716448902 0.17084725158020134 -1.2972770344301294e-05 -0.65522024145006819 0.1244917378017729 1.8797242248736924e-06 -0.47651852079450757 0.12461302250690906 2.4189710463569789e-06 -0.71521544183507713 0.12448473022069155 -1.6331552767735724e-06 -0.50477677972976198 0.19413114042855126 -5.7452114339738913e-06 -0.74536748551304033 0.15364196387394732 3.9995308367002515e-06 -0.95402870194810607 0.12461302250690906 2.4189710463569785e-06 -0.71521544183507701 0.16922242568196225 1.5215046628853471e-06 -0.95450252281983183 0.19413114042855126 -5.7452114339738913e-06 -0.74536748551304033 0.1246130225069091 2.4189710463569738e-06 -0.71521544183507713 0.15364196387394732 3.9995308367002498e-06 -0.95402870194810607 0.17084725158020134 -1.297277034430129e-05 -0.65522024145006819 0.15364196387394732 3.9995308367002498e-06 -0.95402870194810607 0.17084725158020134 -1.2972770344301292e-05 -0.65522024145006819 0.20220743019831838 1.0085325415871227e-05 -0.95570426610723813 0.19413114042855126 -5.745211433973893e-06 -0.74536748551304044 0.17084725158020134 -1.2972770344301294e-05 -0.65522024145006819 0.12500339463654489 7.645451705995713e-06 -0.74232702970158648 0.15364196387394732 3.9995308367002481e-06 -0.95402870194810596 0.19343657121303273 1.2235243784740605e-05 -0.78017473854626185 0.17084725158020134 -1.2972770344301294e-05 -0.65522024145006819 0.12461302250690907 2.4189710463569785e-06 -0.71521544183507724 0.1536419638739473 3.999530836700254e-06 -0.95402870194810596 0.12500339463654489 7.6454517059957147e-06 -0.74232702970158648 0.20220743019831838 1.0085325415871227e-05 -0.95570426610723813 0.17084725158020134 -1.2972770344301304e-05 -0.65522024145006819 0.15364196387394732 3.9995308367002498e-06 -0.95402870194810607 0.19343657121303276 1.2235243784740595e-05 -0.78017473854626196 0.16922242568196222 1.5215046628853482e-06 -0.95450252281983183 0.15364196387394732 3.9995308367002498e-06 -0.95402870194810607 0.20220743019831838 1.0085325415871227e-05 -0.95570426610723813 0.19413114042855126 -5.7452114339738913e-06 -0.74536748551304033 0.11578900094895091 -1.5137047450965682e-05 -0.95269454822774691 0.15364196387394732 3.9995308367002498e-06 -0.95402870194810607 0.12461302250690907 2.4189710463569781e-06 -0.71521544183507713 0.12500339463654489 7.645451705995713e-06 -0.74232702970158648 0.1283020994530813 -1.1468913883916364e-05 -0.95309235763729971 0.15364196387394732 3.999530836700254e-06 -0.95402870194810607 0.11578900094895091 -1.5137047450965682e-05 -0.95269454822774691 0.12500339463654489 7.645451705995713e-06 -0.74232702970158648 0.13127345613506811 7.2914909613762733e-06 -0.9532439598768645 0.11578900094895091 -1.5137047450965682e-05 -0.95269454822774691 0.15364196387394732 3.9995308367002498e-06 -0.95402870194810607 0.12461302250690907 2.4189710463569781e-06 -0.71521544183507713 0.16922242568196222 1.5215046628853482e-06 -0.95450252281983183 0.13127345613506811 7.2914909613762733e-06 -0.9532439598768645 0.15364196387394732 3.9995308367002498e-06 -0.95402870194810607 0.12461302250690907 2.4189710463569781e-06 -0.71521544183507713 0.077987811069174032 1.2556376647052907e-05 -0.65217644304580524 0.054877567368569781 -4.9957030573489003e-06 -0.73857376324073487 0.082256122562391884 5.759398307822863e-06 -0.9518069229782965 0.046424119265471929 -1.6178307936255999e-05 -0.77628489730294481 0.083485077681970499 -8.9623500401441667e-06 -0.95185420304400448 0.082256122562391884 5.759398307822863e-06 -0.9518069229782965 0.13127345613506811 7.2914909613762733e-06 -0.9532439598768645 0.12461302250690907 2.4189710463569768e-06 -0.71521544183507701 0.11578900094895091 -1.5137047450965682e-05 -0.95269454822774691 0.077987811069174032 1.2556376647052907e-05 -0.65217644304580524 0.078762386250999933 8.9142297524910752e-09 -0.95177881920398044 0.12500339463654489 7.645451705995713e-06 -0.74232702970158648 0.083485077681970499 -8.9623500401441667e-06 -0.95185420304400448 0.082256122562391884 5.759398307822863e-06 -0.9518069229782965 0.12461302250690907 2.4189710463569793e-06 -0.71521544183507701 0.054877567368569802 -4.9957030573488936e-06 -0.73857376324073498 0.11578900094895091 -1.5137047450965682e-05 -0.95269454822774691 0.12461302250690906 2.4189710463569755e-06 -0.71521544183507713 0.077987811069174032 1.2556376647052907e-05 -0.65217644304580524 0.12500339463654489 7.645451705995713e-06 -0.74232702970158648 0.082256122562391884 5.759398307822863e-06 -0.9518069229782965 0.077987811069174032 1.2556376647052905e-05 -0.65217644304580524 0.12461302250690906 2.4189710463569827e-06 -0.71521544183507701 0.054877567368569788 -4.9957030573488953e-06 -0.73857376324073487 0.11578900094895091 -1.5137047450965682e-05 -0.95269454822774691 0.13127345613506811 7.2914909613762733e-06 -0.9532439598768645 0.082256122562391884 5.759398307822863e-06 -0.9518069229782965 0.12461302250690907 2.4189710463569781e-06 -0.71521544183507713 0.078762386250999933 8.9142297524910752e-09 -0.95177881920398044 0.11578900094895091 -1.5137047450965682e-05 -0.95269454822774691 0.082256122562391884 5.759398307822863e-06 -0.9518069229782965 0.077987811069174032 1.2556376647052907e-05 -0.65217644304580524 0.11578900094895091 -1.5137047450965682e-05 -0.95269454822774691 0.082256122562391884 5.7593983078228613e-06 -0.9518069229782965 0.077987811069174032 1.2556376647052907e-05 -0.65217644304580524 0.12461302250690907 2.4189710463569781e-06 -0.71521544183507713 0.082256122562391884 5.759398307822863e-06 -0.9518069229782965 0.078762386250999919 8.9142297524880014e-09 -0.95177881920398044 0.077987811069174032 1.2556376647052917e-05 -0.65217644304580524 0.046424119265471936 -1.6178307936255996e-05 -0.77628489730294492 0.077987811069174032 1.2556376647052907e-05 -0.65217644304580524 0.1244917378017729 1.8797242248736867e-06 -0.47651852079450752 0.061829399966502691 2.3281136744550257e-06 -0.42917884230085046 0.12448473022069158 -1.6331552767735809e-06 -0.50477677972976198 0.077987811069174032 1.2556376647052907e-05 -0.65217644304580524 0.12461302250690907 2.4189710463569776e-06 -0.71521544183507713 0.12449173780177292 1.8797242248736865e-06 -0.47651852079450757 0.12448473022069158 -1.6331552767735806e-06 -0.50477677972976209 0.077987811069174032 1.2556376647052907e-05 -0.65217644304580524 0.12448473022069159 -1.6331552767735802e-06 -0.50477677972976209 0.061829399966502684 2.3281136744550253e-06 -0.42917884230085046 0.056194723218661882 7.1145208626088887e-06 -0.45853273043991705 0.1244917378017729 1.8797242248736909e-06 -0.47651852079450757 0.077987811069174032 1.2556376647052907e-05 -0.65217644304580524 0.061829399966502684 2.328113674455024e-06 -0.42917884230085046 0.054877567368569788 -4.9957030573488953e-06 -0.73857376324073487 0.077987811069174032 1.2556376647052907e-05 -0.65217644304580524 0.1244917378017729 1.8797242248736884e-06 -0.47651852079450757 0.12461302250690907 2.4189710463569781e-06 -0.71521544183507713 0.054877567368569774 -4.9957030573488995e-06 -0.73857376324073476 0.12461302250690907 2.4189710463569781e-06 -0.71521544183507713 0.12448473022069159 -1.6331552767735766e-06 -0.50477677972976209 0.077987811069174032 1.2556376647052907e-05 -0.65217644304580524 0.12500339463654489 7.645451705995713e-06 -0.74232702970158648 0.081085593831984118 3.3036288196177573e-06 -0.57136833598898229 0.11451310527718393 2.3720649268265637e-06 -0.65709867609237882 0.077987811069174032 1.2556376647052907e-05 -0.65217644304580524 0.12448473022069158 -1.6331552767735734e-06 -0.50477677972976209 0.11451310527718393 2.3720649268265637e-06 -0.65709867609237882 0.078085125376846254 2.9292548661140577e-06 -0.77540763005329749 0.081085593831984118 3.3036288196177569e-06 -0.57136833598898229 0.077987811069174032 1.2556376647052907e-05 -0.65217644304580524 0.11451310527718393 2.3720649268265637e-06 -0.65709867609237882 0.077987811069174032 1.2556376647052907e-05 -0.65217644304580524 0.12448473022069158 -1.6331552767735775e-06 -0.50477677972976209 0.12500339463654489 7.645451705995713e-06 -0.74232702970158648 0.081085593831984118 3.3036288196177573e-06 -0.57136833598898229 0.077987811069174032 1.2556376647052907e-05 -0.65217644304580524 0.078085125376846268 2.9292548661140708e-06 -0.7754076300532976 0.046424119265471936 -1.6178307936255996e-05 -0.77628489730294492 0.081085593831984118 3.3036288196177573e-06 -0.57136833598898229 0.12448473022069155 -1.6331552767735734e-06 -0.50477677972976198 0.077987811069174046 1.2556376647052907e-05 -0.65217644304580524 0.056194723218661896 7.114520862608887e-06 -0.4585327304399171 0.11451310527718393 2.3720649268265637e-06 -0.65709867609237882 0.078085125376846268 2.9292548661140577e-06 -0.7754076300532976 0.077987811069174004 1.2556376647052908e-05 -0.65217644304580513 0.12500339463654489 7.645451705995713e-06 -0.74232702970158648 0.082060763292326228 3.1709087727488348e-06 -0.3771551990154382 0.12448473022069159 -1.6331552767735796e-06 -0.50477677972976209 0.081085593831984118 3.3036288196177573e-06 -0.57136833598898229 0.056194723218661882 7.1145208626088895e-06 -0.4585327304399171 0.081085593831984118 3.3036288196177573e-06 -0.57136833598898229 0.077987811069174046 1.2556376647052907e-05 -0.65217644304580535 0.039862993345817152 2.7197435756349678e-06 -0.66053537410379615 0.056194723218661882 7.1145208626088878e-06 -0.45853273043991705 0.082060763292326228 3.1709087727488348e-06 -0.3771551990154382 0.12928674328126483 2.8216074349781544e-06 -0.47658643332540351 0.081085593831984118 3.3036288196177573e-06 -0.57136833598898229 0.12448473022069158 -1.6331552767735775e-06 -0.50477677972976209 0.081085593831984118 3.3036288196177573e-06 -0.57136833598898229 0.12928674328126483 2.8216074349781544e-06 -0.47658643332540351 0.11451310527718393 2.3720649268265637e-06 -0.65709867609237882 0.12448473022069158 -1.6331552767735762e-06 -0.50477677972976209 0.11451310527718393 2.3720649268265637e-06 -0.65709867609237882 0.12778131493899467 2.6839294048070968e-06 -0.79618806112862428 0.078085125376846254 2.9292548661140581e-06 -0.77540763005329749 0.12500339463654489 7.645451705995713e-06 -0.74232702970158648 0.078085125376846254 2.9292548661140581e-06 -0.77540763005329749 0.12500339463654492 7.6454517059957147e-06 -0.74232702970158637 0.078762386250999933 8.9142297524910752e-09 -0.95177881920398044 0.046424119265471936 -1.6178307936255996e-05 -0.77628489730294492 0.078085125376846254 2.9292548661140581e-06 -0.77540763005329749 0.077987811069174018 1.255637664705292e-05 -0.65217644304580513 0.12500339463654489 7.6454517059956605e-06 -0.74232702970158659 0.046424119265471936 -1.6178307936255996e-05 -0.77628489730294492 0.1283020994530813 -1.1468913883916364e-05 -0.95309235763729971 0.07808512537684624 2.9292548661140602e-06 -0.7754076300532976 0.12778131493899467 2.6839294048070968e-06 -0.79618806112862428 0.12500339463654489 7.645451705995713e-06 -0.74232702970158648 0.078762386250999933 8.9142297524910752e-09 -0.95177881920398044 0.12500339463654486 7.6454517059956402e-06 -0.74232702970158637 0.077987811069174032 1.2556376647052985e-05 -0.65217644304580547 0.046424119265471936 -1.6178307936255996e-05 -0.77628489730294492 0.078085125376846254 2.9292548661140581e-06 -0.77540763005329749 0.10135964832610433 3.6016489110473356e-06 -0.95235166362085411 0.1283020994530813 -1.1468913883916364e-05 -0.95309235763729971 0.12778131493899467 2.6839294048070968e-06 -0.79618806112862428 0.078085125376846254 2.9292548661140581e-06 -0.77540763005329749 0.10135964832610433 3.6016489110473356e-06 -0.95235166362085411 0.078762386250999933 8.9142297524910752e-09 -0.95177881920398044 0.1283020994530813 -1.1468913883916364e-05 -0.95309235763729971 0.078085125376846254 2.9292548661140581e-06 -0.77540763005329749 0.1283020994530813 -1.1468913883916364e-05 -0.95309235763729971 0.078762386250999933 8.9142297524910752e-09 -0.95177881920398044 0.12500339463654489 7.6454517059957198e-06 -0.74232702970158637 0.11578900094895091 -1.5137047450965682e-05 -0.95269454822774691 0.078762386250999933 8.9142297524910752e-09 -0.95177881920398044 0.1283020994530813 -1.1468913883916364e-05 -0.95309235763729971 0.12500339463654489 7.645451705995713e-06 -0.74232702970158648 0.10135964832610433 3.6016489110473356e-06 -0.95235166362085411 0.050887127282885879 2.954757130119777e-06 -0.95119538343534393 0.078085125376846254 2.9292548661140581e-06 -0.77540763005329749 0.078762386250999933 8.9142297524910752e-09 -0.95177881920398044 0.039862993345817152 2.7197435756349678e-06 -0.66053537410379615 0.078085125376846254 2.9292548661140581e-06 -0.77540763005329749 0.036872073496802438 2.187294322108702e-06 -0.81175535060298543 0.046424119265471936 -1.6178307936255996e-05 -0.77628489730294492 0.078085125376846254 2.9292548661140581e-06 -0.77540763005329749 0.078762386250999933 8.914229752490789e-09 -0.95177881920398044 0.036872073496802438 2.187294322108702e-06 -0.81175535060298543 0.046424119265471936 -1.6178307936255996e-05 -0.77628489730294492 0.078085125376846254 2.9292548661140581e-06 -0.77540763005329749 0.050887127282885872 2.9547571301197766e-06 -0.95119538343534393 0.036872073496802438 2.187294322108702e-06 -0.81175535060298543 0.078762386250999933 8.9142297524910752e-09 -0.95177881920398044 0.037204670437524116 -7.4733312168694334e-06 -0.95101056768817382 0.036872073496802438 2.187294322108702e-06 -0.81175535060298543 0.050887127282885879 2.954757130119777e-06 -0.95119538343534393 0.078762386250999933 8.9142297524910752e-09 -0.95177881920398044 0.078762386250999933 8.9142297524910752e-09 -0.95177881920398044 0.040403248474358687 5.7051232448835007e-07 -0.95105682942287306 0.037204670437524116 -7.4733312168694334e-06 -0.95101056768817382 0.046424119265471936 -1.6178307936255996e-05 -0.77628489730294492 0.037204670437524116 -7.4733312168694334e-06 -0.95101056768817382 0.036872073496802438 2.1872943221087033e-06 -0.81175535060298543 0.078762386250999933 8.9142297524905408e-09 -0.95177881920398033 0.046424119265471929 -1.6178307936255999e-05 -0.77628489730294492 -4.7693771714599915e-09 -3.2043553270411552e-06 -0.81157018252481683 8.2745780757796314e-09 -2.385842819165341e-05 -0.80984088566527135 3.6299697773169332e-08 3.8242637388591653e-06 -0.67073884622914859 0.046424119265471936 -1.6178307936255996e-05 -0.77628489730294492 0.039862993345817152 2.7197435756349678e-06 -0.66053537410379615 -4.7693771697028944e-09 -3.2043553270411561e-06 -0.81157018252481683 3.6299697774556567e-08 3.824263738859162e-06 -0.67073884622914848 0.046424119265471929 -1.6178307936255993e-05 -0.77628489730294481 0.046424119265471936 -1.6178307936255996e-05 -0.77628489730294492 9.9710206009865661e-08 -6.3536923403079587e-06 -0.9507437567852568 0.040403248474358666 5.7051232448834287e-07 -0.95105682942287306 0.037204670437524116 -7.47333121686943e-06 -0.95101056768817371 0.036872073496802438 2.187294322108702e-06 -0.81175535060298543 0.037204670437524116 -7.4733312168694326e-06 -0.95101056768817382 -4.7693771714599915e-09 -3.2043553270411552e-06 -0.81157018252481683 0.046424119265471936 -1.6178307936255996e-05 -0.77628489730294492 -4.7693771714599915e-09 -3.2043553270411552e-06 -0.81157018252481683 9.9710206001609684e-08 -6.3536923403079655e-06 -0.9507437567852568 8.2745780757796314e-09 -2.385842819165341e-05 -0.80984088566527135 0.046424119265471936 -1.6178307936255996e-05 -0.77628489730294492 -4.7693771714599915e-09 -3.2043553270411552e-06 -0.81157018252481683 0.037204670437524116 -7.4733312168694334e-06 -0.95101056768817382 9.9710206003260339e-08 -6.3536923403079647e-06 -0.9507437567852568 0.046424119265471936 -1.6178307936255996e-05 -0.77628489730294492 7.6895650293282369e-08 2.983839035398922e-06 -0.95069923237697473 -4.7693771730735041e-09 -3.2043553270411548e-06 -0.81157018252481694 0.037204670437524116 -7.4733312168694334e-06 -0.95101056768817382 9.9710206001314083e-08 -6.3536923403079655e-06 -0.9507437567852568 -4.7693771714599915e-09 -3.2043553270411552e-06 -0.81157018252481683 0.036872073496802438 2.1872943221087007e-06 -0.81175535060298543 7.6895650293282369e-08 2.983839035398922e-06 -0.95069923237697473 0.037204670437524116 -7.4733312168694334e-06 -0.95101056768817382 0.050887127282885879 2.954757130119777e-06 -0.95119538343534393 7.6895650294389639e-08 2.9838390353989228e-06 -0.95069923237697473 0.036872073496802438 2.187294322108702e-06 -0.81175535060298543 0.037204670437524116 -7.4733312168694334e-06 -0.95101056768817382 0.036872073496802438 2.187294322108702e-06 -0.81175535060298543 7.6895650293282369e-08 2.983839035398922e-06 -0.95069923237697473 -5.2318734826634486e-09 2.6477851591082207e-06 -0.76068563319001958 -4.7693771714599915e-09 -3.2043553270411552e-06 -0.81157018252481683 0.036872073496802438 2.187294322108702e-06 -0.81175535060298543 -4.7693771714513193e-09 -3.2043553270411552e-06 -0.81157018252481683 0.039862993345817152 2.7197435756349678e-06 -0.66053537410379615 0.046424119265471936 -1.6178307936255996e-05 -0.77628489730294492 0.039862993345817152 2.7197435756349678e-06 -0.66053537410379615 -5.2318734922393811e-09 2.6477851591082249e-06 -0.76068563319001958 3.6299697773169332e-08 3.8242637388591653e-06 -0.67073884622914859 -4.7693771714599915e-09 -3.2043553270411552e-06 -0.81157018252481683 -5.2318734796795377e-09 2.6477851591082215e-06 -0.76068563319001958 0.039862993345817152 2.7197435756349678e-06 -0.66053537410379615 0.036872073496802438 2.187294322108702e-06 -0.81175535060298543 -4.7693771714599915e-09 -3.2043553270411552e-06 -0.81157018252481683 3.6299697773169332e-08 3.8242637388591653e-06 -0.67073884622914859 -3.6873062661687123e-09 3.2563025761626071e-06 -0.57061320088075029 -5.2318734796795377e-09 2.6477851591082215e-06 -0.76068563319001958 0.039862993345817152 2.7197435756349678e-06 -0.66053537410379615 0.077987811069174032 1.2556376647052907e-05 -0.65217644304580524 0.056194723218661896 7.1145208626088658e-06 -0.45853273043991716 3.6299697763515307e-08 3.8242637388592119e-06 -0.67073884622914859 0.046424119265471943 -1.6178307936255996e-05 -0.77628489730294492 3.6299697773169332e-08 3.8242637388591653e-06 -0.67073884622914859 -2.1270266598411479e-08 1.2599587669178115e-05 -0.48315795920043431 -3.6873062661687123e-09 3.2563025761626071e-06 -0.57061320088075029 0.039862993345817152 2.7197435756349678e-06 -0.66053537410379615 0.039862993345817152 2.7197435756349678e-06 -0.66053537410379615 0.077987811069174032 1.2556376647052892e-05 -0.65217644304580535 0.081085593831984118 3.3036288196177573e-06 -0.57136833598898229 0.046424119265471936 -1.6178307936255996e-05 -0.77628489730294492 0.039862993345817152 2.7197435756349678e-06 -0.66053537410379615 0.056194723218661931 7.1145208626089276e-06 -0.45853273043991716 0.07798781106917399 1.2556376647052866e-05 -0.65217644304580524 0.046424119265471936 -1.6178307936255996e-05 -0.77628489730294492 0.039862993345817152 2.7197435756349678e-06 -0.66053537410379615 3.6299697784500833e-08 3.8242637388591586e-06 -0.67073884622914859 0.056194723218661889 7.1145208626088895e-06 -0.4585327304399171 0.046424119265471929 -1.6178307936255996e-05 -0.77628489730294492 0.039862993345817152 2.7197435756349678e-06 -0.66053537410379615 0.081085593831984118 3.3036288196177569e-06 -0.57136833598898229 0.078085125376846254 2.9292548661140568e-06 -0.77540763005329749 0.046424119265471936 -1.6178307936255996e-05 -0.77628489730294492 0.081085593831984118 3.3036288196177573e-06 -0.57136833598898229 0.039862993345817152 2.7197435756349678e-06 -0.66053537410379615 0.043023482784123074 2.9805779175268191e-06 -0.47410834104926031 0.056194723218661889 7.1145208626088895e-06 -0.4585327304399171 -2.127026660429267e-08 1.2599587669178114e-05 -0.48315795920043431 0.043023482784123081 2.9805779175268169e-06 -0.47410834104926031 0.039862993345817152 2.7197435756349678e-06 -0.66053537410379615 0.056194723218661889 7.1145208626088895e-06 -0.4585327304399171 -3.6873062661687123e-09 3.2563025761626071e-06 -0.57061320088075029 -1.270909093200977e-08 3.4955220991205951e-06 -0.38047910570922849 0.043023482784123074 2.9805779175268191e-06 -0.47410834104926031 -2.127026660429267e-08 1.2599587669178114e-05 -0.48315795920043431 -2.127026660429267e-08 1.2599587669178114e-05 -0.48315795920043431 0.043023482784123088 2.9805779175268182e-06 -0.47410834104926031 -3.6873062661687123e-09 3.2563025761626071e-06 -0.57061320088075029 0.039862993345817152 2.7197435756349678e-06 -0.66053537410379615 -2.127026660429267e-08 1.2599587669178114e-05 -0.48315795920043431 0.039862993345817152 2.7197435756349678e-06 -0.66053537410379615 3.6299697773169332e-08 3.8242637388591653e-06 -0.67073884622914859 0.056194723218661889 7.1145208626088895e-06 -0.4585327304399171 -3.2808509531534163e-08 2.8940334994547167e-06 -0.57002592420494524 -2.127026660429267e-08 1.2599587669178114e-05 -0.48315795920043431 3.6299697773169332e-08 3.8242637388591653e-06 -0.67073884622914859 0.056194723218661889 7.1145208626088895e-06 -0.4585327304399171 -3.2808509531534163e-08 2.8940334994547167e-06 -0.57002592420494524 3.6299697774285715e-08 3.8242637388591662e-06 -0.67073884622914859 0.077987811069174032 1.2556376647052908e-05 -0.65217644304580513 0.056194723218661889 7.1145208626088895e-06 -0.4585327304399171 -3.2808509531534163e-08 2.8940334994547167e-06 -0.57002592420494524 0.077987811069174004 1.2556376647052773e-05 -0.65217644304580535 3.6299697774924053e-08 3.8242637388591814e-06 -0.67073884622914859 0.046424119265471936 -1.617830793625603e-05 -0.77628489730294492 -3.2808509531534163e-08 2.8940334994547167e-06 -0.57002592420494524 3.6299697773169332e-08 3.8242637388591653e-06 -0.67073884622914859 2.5944863972181448e-08 -1.4437913494593919e-05 -0.69150221320945526 0.046424119265471957 -1.6178307936255996e-05 -0.77628489730294492 -3.2808509531534163e-08 2.8940334994547167e-06 -0.57002592420494524 0.061829399966502691 2.3281136744550215e-06 -0.4291788423008504 0.077987811069174032 1.2556376647052907e-05 -0.65217644304580524 0.054877567368569788 -4.9957030573488986e-06 -0.73857376324073487 -3.2808509531534163e-08 2.8940334994547167e-06 -0.57002592420494524 2.5944863972181448e-08 -1.4437913494593919e-05 -0.69150221320945526 0.077987811069174018 1.2556376647052898e-05 -0.65217644304580535 0.046424119265471943 -1.6178307936255999e-05 -0.77628489730294503 -3.2808509531534163e-08 2.8940334994547167e-06 -0.57002592420494524 2.0558433726186535e-08 -6.4960272942134077e-06 -0.64021660041971495 -2.4416381245026208e-08 8.1424694834671233e-06 -0.49411620917526355 0.054877567368569802 -4.9957030573488944e-06 -0.73857376324073476 2.5944863972181448e-08 -1.4437913494593919e-05 -0.69150221320945526 -3.2808509531534163e-08 2.8940334994547167e-06 -0.57002592420494524 0.077987811069174032 1.2556376647052907e-05 -0.65217644304580524 0.054877567368569788 -4.9957030573488953e-06 -0.73857376324073487 -3.2808509531534163e-08 2.8940334994547167e-06 -0.57002592420494524 0.077987811069174032 1.2556376647052907e-05 -0.65217644304580524 0.061829399966502677 2.3281136744550219e-06 -0.4291788423008504 0.056194723218661889 7.1145208626088895e-06 -0.4585327304399171 -3.2808509531534163e-08 2.8940334994547167e-06 -0.57002592420494524 -2.4416381241984813e-08 8.142469483467125e-06 -0.49411620917526355 0.061829399966502684 2.328113674455024e-06 -0.42917884230085046 0.054877567368569802 -4.9957030573488995e-06 -0.73857376324073487 3.3552353363292535e-10 1.6428997975901956e-06 -0.43429667455156457 -2.127026660430344e-08 1.2599587669178114e-05 -0.48315795920043431 -3.2808509531534163e-08 2.8940334994547167e-06 -0.57002592420494524 0.056194723218661889 7.1145208626088895e-06 -0.4585327304399171 -3.2808509531534163e-08 2.8940334994547167e-06 -0.57002592420494524 -2.4416381241984813e-08 8.142469483467125e-06 -0.49411620917526355 3.3552353363292535e-10 1.6428997975901956e-06 -0.43429667455156457 0.061829399966502684 2.328113674455024e-06 -0.42917884230085046 2.5944863972181448e-08 -1.4437913494593919e-05 -0.69150221320945526 2.0558433726186535e-08 -6.4960272942134077e-06 -0.64021660041971495 -3.280850952953907e-08 2.8940334994547176e-06 -0.57002592420494524 0.054877567368569788 -4.9957030573488953e-06 -0.73857376324073487 -4.5159193203455805e-09 -2.089006429426051e-05 -0.80051745490222292 8.2745780757796314e-09 -2.385842819165341e-05 -0.80984088566527135 0.040403248474358687 5.7051232448835007e-07 -0.95105682942287306 0.054877567368569795 -4.9957030573488953e-06 -0.73857376324073476 2.5944863972181448e-08 -1.4437913494593919e-05 -0.69150221320945526 0.054877567368569788 -4.995703057348891e-06 -0.73857376324073487 0.077987811069174032 1.2556376647052907e-05 -0.65217644304580524 0.046424119265471936 -1.6178307936255999e-05 -0.77628489730294503 0.040403248474358687 5.7051232448835007e-07 -0.95105682942287306 0.054877567368569788 -4.995703057348897e-06 -0.73857376324073487 8.2745780649104963e-09 -2.3858428191653414e-05 -0.80984088566527135 0.046424119265471936 -1.6178307936255993e-05 -0.77628489730294492 -4.5159193203455805e-09 -2.089006429426051e-05 -0.80051745490222292 2.0558433726186535e-08 -6.4960272942134077e-06 -0.64021660041971495 2.5944863972181448e-08 -1.4437913494593919e-05 -0.69150221320945526 0.054877567368569802 -4.995703057348891e-06 -0.73857376324073476 -4.5159193203455805e-09 -2.089006429426051e-05 -0.80051745490222292 2.5944863972181448e-08 -1.4437913494593919e-05 -0.69150221320945526 8.2745780757796314e-09 -2.385842819165341e-05 -0.80984088566527135 0.054877567368569802 -4.9957030573488961e-06 -0.73857376324073498 0.040403248474358687 5.7051232448835007e-07 -0.95105682942287306 0.082256122562391884 5.7593983078228639e-06 -0.9518069229782965 0.054877567368569788 -4.995703057348897e-06 -0.73857376324073487 0.046424119265471936 -1.6178307936255993e-05 -0.77628489730294492 2.5944863972181448e-08 -1.4437913494593919e-05 -0.69150221320945526 8.2745780755528201e-09 -2.385842819165341e-05 -0.80984088566527135 0.054877567368569781 -4.9957030573488978e-06 -0.73857376324073498 0.046424119265471943 -1.6178307936255996e-05 -0.77628489730294492 3.6299697773169332e-08 3.8242637388591653e-06 -0.67073884622914859 8.2745780757796314e-09 -2.385842819165341e-05 -0.80984088566527135 2.5944863970999046e-08 -1.4437913494593919e-05 -0.69150221320945526 0.046424119265471936 -1.6178307936255996e-05 -0.77628489730294492 0.040403248474358687 5.7051232448835007e-07 -0.95105682942287306 0.082256122562391884 5.759398307822863e-06 -0.95180692297829639 0.043766924644096247 -3.0989070751201373e-06 -0.95106442676764935 0.054877567368569788 -4.9957030573488953e-06 -0.73857376324073487 0.040403248474358687 5.7051232448835007e-07 -0.95105682942287306 0.043766924644096254 -3.0989070751201364e-06 -0.95106442676764946 -4.5159193203455805e-09 -2.089006429426051e-05 -0.80051745490222292 0.054877567368569788 -4.9957030573488953e-06 -0.73857376324073487 0.082256122562391884 5.759398307822863e-06 -0.9518069229782965 0.040403248474358687 5.7051232448835007e-07 -0.95105682942287306 0.078762386250999947 8.9142297524913465e-09 -0.95177881920398044 0.046424119265471936 -1.6178307936255996e-05 -0.77628489730294492 0.046424119265471936 -1.6178307936255996e-05 -0.77628489730294492 0.04040324847435868 5.7051232448834859e-07 -0.95105682942287306 9.9710206009770873e-08 -6.3536923403079621e-06 -0.9507437567852568 8.2745780757796314e-09 -2.385842819165341e-05 -0.80984088566527135 8.2745780757796314e-09 -2.385842819165341e-05 -0.80984088566527135 -4.5159193204322525e-09 -2.089006429426051e-05 -0.80051745490222292 0.040403248474358687 5.7051232448835007e-07 -0.95105682942287306 8.3310470320206532e-08 -1.1217948661981059e-05 -0.95085017838641872 0.040403248474358687 5.7051232448835007e-07 -0.95105682942287306 9.9710206001314083e-08 -6.3536923403079655e-06 -0.9507437567852568 8.2745780724572439e-09 -2.385842819165341e-05 -0.80984088566527135 8.3310470320206532e-08 -1.1217948661981059e-05 -0.95085017838641872 8.3310470320206532e-08 -1.1217948661981059e-05 -0.95085017838641872 -4.5159193203455805e-09 -2.089006429426051e-05 -0.80051745490222292 0.040403248474358687 5.7051232448835007e-07 -0.95105682942287306 0.043766924644096254 -3.0989070751201364e-06 -0.95106442676764946 -4.5159193203455805e-09 -2.089006429426051e-05 -0.80051745490222292 8.3310470320206532e-08 -1.1217948661981059e-05 -0.95085017838641872 1.0540409811572842e-07 -1.2582196110068833e-05 -0.95084760866998108 0.043766924644096254 -3.0989070751201364e-06 -0.95106442676764946 0.043766924644096254 -3.0989070751201364e-06 -0.95106442676764946 1.0540409811828702e-07 -1.2582196110068832e-05 -0.95084760866998108 -4.5159193128340236e-09 -2.0890064294260503e-05 -0.80051745490222304 5.3324020895407257e-09 3.7003064006942442e-06 -0.76863456724873414 1.0540409811828702e-07 -1.2582196110068832e-05 -0.95084760866998108 0.043766924644096254 -3.0989070751201364e-06 -0.95106442676764946 0.043062599078402847 5.4727158110615759e-06 -0.95108161752825227 5.3324021041180212e-09 3.7003064006942531e-06 -0.76863456724873425 2.8830383379456275e-08 -8.3260784584549391e-06 -0.81154524485022761 5.3324021041180212e-09 3.7003064006942531e-06 -0.76863456724873425 0.043062599078402847 5.4727158110615742e-06 -0.95108161752825227 0.078681855665283726 -8.184342852369838e-06 -0.6544488823741913 0.043062599078402847 5.4727158110615759e-06 -0.95108161752825227 0.078681855665283698 -8.1843428523698279e-06 -0.65444888237419119 5.3324021062205944e-09 3.7003064006942535e-06 -0.76863456724873436 0.054877567368569781 -4.9957030573488953e-06 -0.73857376324073487 -4.5159193203455805e-09 -2.089006429426051e-05 -0.80051745490222292 5.3324021049032977e-09 3.7003064006942522e-06 -0.76863456724873425 2.0558433726186535e-08 -6.4960272942134077e-06 -0.64021660041971495 0.054877567368569802 -4.995703057348891e-06 -0.73857376324073476 -4.5159193203455805e-09 -2.089006429426051e-05 -0.80051745490222292 0.043766924644096247 -3.0989070751201385e-06 -0.95106442676764946 5.332402105039158e-09 3.7003064006942535e-06 -0.76863456724873425 0.054877567368569795 -4.9957030573488961e-06 -0.73857376324073487 5.3324021041180212e-09 3.7003064006942531e-06 -0.76863456724873425 0.043062599078402847 5.4727158110615759e-06 -0.95108161752825227 1.0540409811828702e-07 -1.2582196110068832e-05 -0.95084760866998108 9.3885924068900691e-08 6.5441558031346188e-06 -0.95083070863150321 0.043766924644096254 -3.0989070751201364e-06 -0.95106442676764946 0.083485077681970499 -8.9623500401441667e-06 -0.95185420304400448 0.043062599078402847 5.4727158110615759e-06 -0.95108161752825227 0.054877567368569788 -4.9957030573488953e-06 -0.73857376324073487 0.043766924644096254 -3.0989070751201364e-06 -0.95106442676764946 0.043062599078402847 5.4727158110615759e-06 -0.95108161752825227 5.3324021140756868e-09 3.7003064006942531e-06 -0.76863456724873414 0.054877567368569781 -4.9957030573488953e-06 -0.73857376324073476 0.080183411301364124 1.3444211058298185e-05 -0.95177077013333278 0.043062599078402847 5.4727158110615759e-06 -0.95108161752825227 0.083485077681970499 -8.9623500401441667e-06 -0.95185420304400448 0.078681855665283684 -8.1843428523698279e-06 -0.65444888237419119 0.082256122562391884 5.759398307822863e-06 -0.9518069229782965 0.083485077681970499 -8.9623500401441667e-06 -0.95185420304400448 0.043766924644096254 -3.0989070751201364e-06 -0.95106442676764946 0.054877567368569788 -4.9957030573488953e-06 -0.73857376324073487 0.11580960955760843 2.0166000758110774e-05 -0.95270146729203264 0.07868185566528367 -8.1843428523698143e-06 -0.65444888237419119 0.12461302250690907 2.4189710463569781e-06 -0.71521544183507713 0.12543233575370627 -1.6305168569981488e-05 -0.74415019024620455 0.083485077681970499 -8.9623500401441667e-06 -0.95185420304400448 0.12461302250690909 2.4189710463569798e-06 -0.71521544183507713 0.078681855665283684 -8.1843428523698279e-06 -0.65444888237419119 0.054877567368569795 -4.9957030573488953e-06 -0.73857376324073487 0.080183411301364124 1.3444211058298185e-05 -0.95177077013333278 0.083485077681970499 -8.9623500401441667e-06 -0.95185420304400448 0.11580960955760843 2.0166000758110774e-05 -0.95270146729203264 0.07868185566528367 -8.1843428523698279e-06 -0.65444888237419119 0.11580960955760843 2.0166000758110774e-05 -0.95270146729203264 0.080183411301364138 1.3444211058298184e-05 -0.95177077013333289 0.078681855665283684 -8.1843428523698279e-06 -0.65444888237419119 0.12543233575370624 -1.6305168569981501e-05 -0.74415019024620421 0.083485077681970499 -8.9623500401441667e-06 -0.95185420304400448 0.11580960955760843 2.0166000758110774e-05 -0.95270146729203264 0.078681855665283684 -8.1843428523698279e-06 -0.65444888237419119 0.12461302250690909 2.4189710463569785e-06 -0.71521544183507713 0.083485077681970499 -8.9623500401441667e-06 -0.95185420304400448 0.078681855665283684 -8.1843428523698279e-06 -0.65444888237419119 0.043062599078402847 5.4727158110615759e-06 -0.95108161752825227 0.054877567368569802 -4.995703057348897e-06 -0.73857376324073498 0.083485077681970499 -8.9623500401441667e-06 -0.95185420304400448 0.13127345613506811 7.2914909613762708e-06 -0.9532439598768645 0.11580960955760843 2.0166000758110774e-05 -0.95270146729203264 0.12461302250690907 2.4189710463569781e-06 -0.71521544183507713 0.078681855665283684 -8.1843428523698279e-06 -0.65444888237419119 0.12461302250690907 2.4189710463569781e-06 -0.71521544183507713 0.12449173780177289 1.8797242248736914e-06 -0.47651852079450757 0.054877567368569781 -4.9957030573488944e-06 -0.73857376324073476 0.061829399966502684 2.328113674455024e-06 -0.42917884230085046 0.12472007677485149 -3.220844700329811e-06 -0.50401888402123041 0.078681855665283656 -8.1843428523698296e-06 -0.65444888237419108 0.055168112198902899 -8.0464361029309185e-06 -0.47580995207382826 0.078681855665283684 -8.1843428523698279e-06 -0.65444888237419119 0.1247200767748515 -3.2208447003298114e-06 -0.50401888402123052 0.12461302250690907 2.4189710463569755e-06 -0.71521544183507713 0.12543233575370624 -1.6305168569981494e-05 -0.74415019024620432 0.1244917378017729 1.8797242248736909e-06 -0.47651852079450757 0.078681855665283684 -8.1843428523698279e-06 -0.65444888237419119 0.061829399966502684 2.328113674455024e-06 -0.42917884230085046 0.1247200767748515 -3.2208447003298114e-06 -0.50401888402123052 0.1244917378017729 1.8797242248736909e-06 -0.47651852079450757 0.1246130225069091 2.4189710463569806e-06 -0.71521544183507724 0.078681855665283698 -8.1843428523698262e-06 -0.65444888237419119 0.1247200767748515 -3.2208447003298114e-06 -0.50401888402123052 0.1244917378017729 1.8797242248736909e-06 -0.47651852079450757 0.061829399966502684 2.328113674455024e-06 -0.42917884230085046 0.078681855665283684 -8.1843428523698279e-06 -0.65444888237419108 0.054877567368569788 -4.9957030573488953e-06 -0.73857376324073487 0.054877567368569788 -4.9957030573488953e-06 -0.73857376324073487 0.078681855665283684 -8.1843428523698279e-06 -0.65444888237419119 -2.441638124067629e-08 8.142469483467125e-06 -0.49411620917526355 0.061829399966502663 2.3281136744550257e-06 -0.42917884230085046 7.9609389490337648e-11 -1.4838261169884726e-06 -0.4357107638530181 0.061829399966502677 2.3281136744550253e-06 -0.42917884230085046 -2.3263547160338686e-09 -2.127309580836916e-06 -0.58055153277092875 0.055168112198902886 -8.0464361029309202e-06 -0.47580995207382826 -2.3263547167069616e-09 -2.127309580836916e-06 -0.58055153277092875 -2.4416381241984813e-08 8.142469483467125e-06 -0.49411620917526355 0.078681855665283684 -8.1843428523698177e-06 -0.65444888237419119 0.061829399966502684 2.328113674455024e-06 -0.42917884230085046 0.054877567368569788 -4.9957030573488953e-06 -0.73857376324073487 -2.3263546966023107e-09 -2.1273095808369121e-06 -0.58055153277092864 -2.4416381241984813e-08 8.142469483467125e-06 -0.49411620917526355 0.078681855665283684 -8.1843428523698279e-06 -0.65444888237419119 -2.3263547167069616e-09 -2.127309580836916e-06 -0.58055153277092875 0.061829399966502691 2.3281136744550236e-06 -0.42917884230085046 0.078681855665283684 -8.1843428523698279e-06 -0.65444888237419119 0.055168112198902886 -8.0464361029309219e-06 -0.4758099520738282 0.054877567368569788 -4.9957030573488953e-06 -0.73857376324073487 -2.4416381241984813e-08 8.142469483467125e-06 -0.49411620917526355 -2.3263547186368724e-09 -2.1273095808369164e-06 -0.58055153277092875 2.0558433726186535e-08 -6.4960272942134077e-06 -0.64021660041971495 -7.2903734743130147e-09 -1.6439226022468499e-05 -0.6597307237597495 -2.3263547167069616e-09 -2.127309580836916e-06 -0.58055153277092875 0.078681855665283684 -8.1843428523698262e-06 -0.65444888237419108 0.055168112198902886 -8.0464361029309202e-06 -0.47580995207382826 -2.3263547167069616e-09 -2.127309580836916e-06 -0.58055153277092875 5.3324021041180212e-09 3.7003064006942531e-06 -0.76863456724873425 0.078681855665283684 -8.1843428523698279e-06 -0.65444888237419119 0.054877567368569781 -4.9957030573488936e-06 -0.73857376324073487 -7.2903734743130147e-09 -1.6439226022468499e-05 -0.6597307237597495 -2.3263547167069616e-09 -2.127309580836916e-06 -0.58055153277092875 5.3324021055000142e-09 3.7003064006942535e-06 -0.76863456724873425 0.078681855665283684 -8.1843428523698279e-06 -0.65444888237419119 7.9609389490337648e-11 -1.4838261169884726e-06 -0.4357107638530181 -2.4416381241984813e-08 8.142469483467125e-06 -0.49411620917526355 -2.3263547167069616e-09 -2.127309580836916e-06 -0.58055153277092875 0.061829399966502684 2.328113674455024e-06 -0.42917884230085046 -2.3263547167069616e-09 -2.127309580836916e-06 -0.58055153277092875 2.0558433727092348e-08 -6.4960272942134077e-06 -0.64021660041971495 5.3324021065354665e-09 3.7003064006942535e-06 -0.76863456724873425 0.05487756736856976 -4.995703057348897e-06 -0.73857376324073476 -2.3263547167069616e-09 -2.127309580836916e-06 -0.58055153277092875 -1.6255853602546363e-08 -9.7605279767957246e-06 -0.48472343187345612 7.9609388509614168e-11 -1.4838261169884724e-06 -0.4357107638530181 0.055168112198902899 -8.0464361029309202e-06 -0.47580995207382826 -7.2903734743130147e-09 -1.6439226022468499e-05 -0.6597307237597495 0.036882668871236084 -2.1873546754243809e-06 -0.8118031737653395 0.047152838773281892 -2.8442588881585493e-06 -0.65031214057073528 0.078681855665283684 -8.1843428523698279e-06 -0.65444888237419119 -7.2903734743130147e-09 -1.6439226022468499e-05 -0.6597307237597495 0.078681855665283684 -8.1843428523698279e-06 -0.65444888237419119 0.047152838773281899 -2.8442588881585489e-06 -0.65031214057073505 0.055168112198902886 -8.0464361029309202e-06 -0.47580995207382826 -7.2903734743130147e-09 -1.6439226022468499e-05 -0.6597307237597495 0.047152838773281892 -2.8442588881585501e-06 -0.65031214057073516 -1.6255853602546363e-08 -9.7605279767957246e-06 -0.48472343187345612 0.055168112198902886 -8.0464361029309202e-06 -0.47580995207382826 -7.2903734743130147e-09 -1.6439226022468499e-05 -0.6597307237597495 -1.6255853602546363e-08 -9.7605279767957246e-06 -0.48472343187345612 -2.3263547184434652e-09 -2.1273095808369151e-06 -0.58055153277092875 0.055168112198902886 -8.0464361029309202e-06 -0.47580995207382826 1.4371869625997748e-08 -3.1044063454370803e-06 -0.76069633334523645 2.4880096789170065e-09 -3.6679851873707379e-06 -0.5706294307843206 -7.2903734743130147e-09 -1.6439226022468499e-05 -0.6597307237597495 0.047152838773281899 -2.8442588881585489e-06 -0.65031214057073516 2.4880096789170065e-09 -3.6679851873707379e-06 -0.5706294307843206 -7.2903734743130147e-09 -1.6439226022468499e-05 -0.6597307237597495 0.047152838773281899 -2.8442588881585489e-06 -0.65031214057073516 -1.6255853602546363e-08 -9.7605279767957246e-06 -0.48472343187345612 0.047152838773281899 -2.8442588881585489e-06 -0.65031214057073516 0.040895730031262352 -2.703922478665906e-06 -0.46488688187789734 2.4880096789170065e-09 -3.6679851873707379e-06 -0.5706294307843206 -1.6255853602546363e-08 -9.7605279767957246e-06 -0.48472343187345612 0.047152838773281899 -2.8442588881585489e-06 -0.65031214057073516 0.077479939380412088 -2.3066989796457788e-06 -0.51573641022540029 0.040895730031262352 -2.7039224786659065e-06 -0.46488688187789734 0.055168112198902886 -8.0464361029309202e-06 -0.47580995207382826 -1.6255853602546363e-08 -9.7605279767957246e-06 -0.48472343187345612 0.047152838773281892 -2.8442588881585484e-06 -0.65031214057073516 0.040895730031262352 -2.703922478665906e-06 -0.46488688187789734 0.055168112198902892 -8.0464361029309185e-06 -0.4758099520738282 0.075606528222604136 -2.724943516241361e-06 -0.79057815130975806 0.099050727122538484 -3.1311630061297181e-06 -0.63875235299860822 0.047152838773281899 -2.8442588881585489e-06 -0.65031214057073516 0.078681855665283684 -8.1843428523698279e-06 -0.65444888237419119 0.077479939380412088 -2.3066989796457788e-06 -0.51573641022540029 0.078681855665283698 -8.1843428523698245e-06 -0.6544488823741913 0.12472007677485149 -3.2208447003298127e-06 -0.50401888402123063 0.055168112198902886 -8.0464361029309202e-06 -0.4758099520738282 0.099050727122538484 -3.1311630061297181e-06 -0.63875235299860822 0.077479939380412088 -2.3066989796457788e-06 -0.51573641022540029 0.078681855665283684 -8.1843428523698279e-06 -0.65444888237419108 0.1247200767748515 -3.2208447003298114e-06 -0.50401888402123041 0.099050727122538484 -3.1311630061297181e-06 -0.63875235299860822 0.078681855665283684 -8.1843428523698279e-06 -0.65444888237419119 0.075606528222604136 -2.724943516241361e-06 -0.79057815130975806 0.12543233575370624 -1.6305168569981494e-05 -0.74415019024620432 0.047152838773281899 -2.8442588881585489e-06 -0.65031214057073516 0.078681855665283684 -8.1843428523698296e-06 -0.65444888237419119 0.077479939380412088 -2.3066989796457788e-06 -0.51573641022540029 0.055168112198902886 -8.0464361029309202e-06 -0.47580995207382826 0.14960384175857455 -3.2828448578837405e-06 -0.64428175830930234 0.1247200767748515 -3.2208447003298093e-06 -0.50401888402123041 0.099050727122538484 -3.1311630061297181e-06 -0.63875235299860822 0.12543233575370624 -1.6305168569981494e-05 -0.74415019024620432 0.077479939380412088 -2.3066989796457788e-06 -0.51573641022540029 0.047152838773281906 -2.8442588881585489e-06 -0.65031214057073516 0.099050727122538484 -3.1311630061297181e-06 -0.63875235299860822 0.078681855665283684 -8.1843428523698279e-06 -0.65444888237419119 0.099050727122538484 -3.1311630061297181e-06 -0.63875235299860822 0.1247200767748515 -3.2208447003298093e-06 -0.50401888402123052 0.078681855665283684 -8.1843428523698245e-06 -0.65444888237419108 0.12543233575370624 -1.6305168569981494e-05 -0.74415019024620432 0.099050727122538484 -3.1311630061297181e-06 -0.63875235299860822 0.14960384175857455 -3.2828448578837405e-06 -0.64428175830930234 0.12440886230235085 -2.845253894038058e-06 -0.45781802184718356 0.1247200767748515 -3.2208447003298118e-06 -0.50401888402123052 0.099050727122538484 -3.1311630061297181e-06 -0.63875235299860822 0.12440886230235083 -2.845253894038058e-06 -0.45781802184718356 0.077479939380412088 -2.3066989796457788e-06 -0.51573641022540029 0.12472007677485152 -3.2208447003298118e-06 -0.50401888402123063 0.12490793798554095 -2.9445977680801866e-06 -0.78884138119000802 0.14960384175857455 -3.2828448578837405e-06 -0.64428175830930234 0.099050727122538484 -3.1311630061297176e-06 -0.63875235299860822 0.12543233575370624 -1.6305168569981494e-05 -0.74415019024620432 0.075606528222604136 -2.724943516241361e-06 -0.79057815130975806 0.03730229558199654 6.3390411487973591e-06 -0.95101221341573661 0.080183411301364124 1.3444211058298185e-05 -0.95177077013333278 0.078681855665283684 -8.1843428523698279e-06 -0.65444888237419119 0.075606528222604136 -2.724943516241361e-06 -0.79057815130975806 0.078681855665283684 -8.1843428523698279e-06 -0.65444888237419119 0.08018341130136411 1.3444211058298187e-05 -0.95177077013333278 0.12543233575370621 -1.6305168569981491e-05 -0.74415019024620432 0.075606528222604136 -2.724943516241361e-06 -0.79057815130975806 0.080183411301364124 1.3444211058298192e-05 -0.95177077013333278 0.12490793798554095 -2.9445977680801866e-06 -0.78884138119000802 0.12543233575370624 -1.6305168569981488e-05 -0.74415019024620432 0.099050727122538484 -3.1311630061297181e-06 -0.63875235299860822 0.075606528222604136 -2.724943516241361e-06 -0.79057815130975806 0.12490793798554095 -2.9445977680801866e-06 -0.78884138119000802 0.12543233575370624 -1.6305168569981494e-05 -0.74415019024620432 0.080183411301364124 1.3444211058298185e-05 -0.95177077013333278 0.10131465474345783 -3.4455546414315355e-06 -0.95224981937987363 0.12490793798554095 -2.9445977680801866e-06 -0.78884138119000802 0.12873723455048952 1.2200385721572135e-05 -0.9531627688530625 0.10131465474345783 -3.4455546414315355e-06 -0.95224981937987363 0.12490793798554095 -2.9445977680801866e-06 -0.78884138119000802 0.075606528222604136 -2.724943516241361e-06 -0.79057815130975806 0.080183411301364124 1.3444211058298185e-05 -0.95177077013333278 0.080183411301364124 1.3444211058298185e-05 -0.95177077013333278 0.12873723455048952 1.2200385721572135e-05 -0.9531627688530625 0.12490793798554095 -2.9445977680801866e-06 -0.78884138119000802 0.12543233575370624 -1.6305168569981488e-05 -0.74415019024620432 0.11580960955760843 2.0166000758110774e-05 -0.95270146729203264 0.12873723455048952 1.2200385721572135e-05 -0.9531627688530625 0.080183411301364124 1.3444211058298185e-05 -0.95177077013333278 0.12543233575370624 -1.6305168569981494e-05 -0.74415019024620432 0.10131465474345783 -3.4455546414315355e-06 -0.95224981937987363 0.075606528222604136 -2.724943516241361e-06 -0.79057815130975806 0.050849793219664201 -2.7161082637753144e-06 -0.95116985938392806 0.080183411301364124 1.3444211058298185e-05 -0.95177077013333278 2.8830383379456275e-08 -8.3260784584549391e-06 -0.81154524485022761 -7.2903734721434531e-09 -1.6439226022468495e-05 -0.65973072375974939 5.3324021041180212e-09 3.7003064006942531e-06 -0.76863456724873425 0.078681855665283698 -8.1843428523698279e-06 -0.65444888237419108 0.043062599078402847 5.4727158110615759e-06 -0.95108161752825227 0.080183411301364124 1.3444211058298185e-05 -0.95177077013333267 0.03730229558199654 6.3390411487973591e-06 -0.95101221341573661 0.078681855665283684 -8.1843428523698279e-06 -0.65444888237419119 0.03730229558199654 6.3390411487973591e-06 -0.95101221341573661 0.050849793219664187 -2.7161082637753152e-06 -0.95116985938392806 0.036882668871236077 -2.1873546754243813e-06 -0.8118031737653395 0.075606528222604136 -2.724943516241361e-06 -0.79057815130975806 0.03730229558199654 6.3390411487973591e-06 -0.95101221341573661 0.07560652822260415 -2.7249435162413606e-06 -0.79057815130975795 0.036882668871236077 -2.1873546754243813e-06 -0.8118031737653395 0.078681855665283712 -8.1843428523698262e-06 -0.65444888237419119 0.03730229558199654 6.3390411487973591e-06 -0.95101221341573661 0.050849793219664201 -2.7161082637753144e-06 -0.95116985938392806 0.075606528222604136 -2.7249435162413614e-06 -0.79057815130975806 0.080183411301364124 1.3444211058298185e-05 -0.95177077013333278 0.047152838773281899 -2.8442588881585489e-06 -0.65031214057073516 0.036882668871236077 -2.1873546754243813e-06 -0.8118031737653395 0.075606528222604136 -2.724943516241361e-06 -0.79057815130975806 0.078681855665283684 -8.1843428523698296e-06 -0.65444888237419119 2.8830383379456275e-08 -8.3260784584549391e-06 -0.81154524485022761 0.043062599078402826 5.47271581106157e-06 -0.95108161752825227 0.037302295581996547 6.3390411487973591e-06 -0.95101221341573661 0.078681855665283698 -8.1843428523698279e-06 -0.65444888237419108 0.03730229558199654 6.3390411487973591e-06 -0.95101221341573661 0.036882668871236077 -2.1873546754243813e-06 -0.8118031737653395 2.8830383379456275e-08 -8.3260784584549391e-06 -0.81154524485022761 0.078681855665283684 -8.1843428523698279e-06 -0.65444888237419119 -7.2903734743130147e-09 -1.6439226022468499e-05 -0.6597307237597495 2.8830383379456275e-08 -8.3260784584549391e-06 -0.81154524485022761 0.036882668871236077 -2.1873546754243813e-06 -0.8118031737653395 0.07868185566528367 -8.1843428523698262e-06 -0.65444888237419108 9.3885924068900691e-08 6.5441558031346188e-06 -0.95083070863150321 5.3324021041180212e-09 3.7003064006942531e-06 -0.76863456724873425 0.043062599078402847 5.4727158110615759e-06 -0.95108161752825227 2.8830383379456275e-08 -8.3260784584549391e-06 -0.81154524485022761 0.03730229558199654 6.3390411487973591e-06 -0.95101221341573661 9.388592406731167e-08 6.5441558031346154e-06 -0.9508307086315031 0.043062599078402847 5.4727158110615759e-06 -0.95108161752825227 2.8830383379456275e-08 -8.3260784584549391e-06 -0.81154524485022761 -7.2903734743130147e-09 -1.6439226022468499e-05 -0.6597307237597495 0.036882668871236084 -2.1873546754243784e-06 -0.8118031737653395 1.4371869625997748e-08 -3.1044063454370803e-06 -0.76069633334523645 0.047152838773281906 -2.8442588881585544e-06 -0.65031214057073528 2.8830383379456275e-08 -8.3260784584549391e-06 -0.81154524485022761 0.036882668871236084 -2.1873546754243822e-06 -0.81180317376533961 1.437186962599775e-08 -3.1044063454370799e-06 -0.76069633334523645 -7.2903734743130147e-09 -1.6439226022468499e-05 -0.6597307237597495 6.4217034131514362e-08 -2.9257224912988397e-06 -0.95071002963635742 9.3885924068900717e-08 6.5441558031346222e-06 -0.95083070863150321 0.03730229558199654 6.3390411487973591e-06 -0.95101221341573661 2.8830383379456275e-08 -8.3260784584549391e-06 -0.81154524485022761 0.036882668871236077 -2.1873546754243813e-06 -0.8118031737653395 1.4371869625722547e-08 -3.1044063454370812e-06 -0.76069633334523645 6.4217034131514362e-08 -2.9257224912988397e-06 -0.95071002963635742 2.8830383379456275e-08 -8.3260784584549391e-06 -0.81154524485022761 6.4217034131514362e-08 -2.9257224912988397e-06 -0.95071002963635742 0.03730229558199654 6.3390411487973608e-06 -0.95101221341573672 0.050849793219664201 -2.7161082637753144e-06 -0.95116985938392806 0.036882668871236077 -2.1873546754243813e-06 -0.8118031737653395 0.036882668871236077 -2.1873546754243813e-06 -0.8118031737653395 6.4217034131514362e-08 -2.9257224912988397e-06 -0.95071002963635742 0.03730229558199654 6.3390411487973591e-06 -0.95101221341573661 2.8830383379456275e-08 -8.3260784584549391e-06 -0.81154524485022761 
</DataArray>
</PointData>
<CellData Scalars="" Vectors="" Tensors="stress,">
<DataArray type="Float64" Name="stress" NumberOfComponents="9" format="ascii">
0.011945529375563202 3.5693472745091526e-05 8.86430137014298e-05 3.5693472745091526e-05 -0.19531319581905884 -2.1642800246110402e-05 8.86430137014298e-05 -2.1642800246110402e-05 -0.98857057882381383 0.012706075894947766 9.3033596418122641e-06 8.2336322181817174e-06 9.3033596418122641e-06 -0.19496511578249021 3.7750377703387165e-06 8.2336322181817174e-06 3.7750377703387165e-06 -0.98747447458697213 0.012557542609280659 1.7863298893582229e-05 3.7518245754952625e-05 1.7863298893582229e-05 -0.19505710170138479 1.4749111258923079e-05 3.7518245754952625e-05 1.4749111258923079e-05 -0.98790415336058457 0.012704340835679334 1.9814745615523213e-06 -7.3992716521309454e-05 1.9814745615523213e-06 -0.19500553331821555 8.9011680333577728e-05 -7.3992716521309454e-05 8.9011680333577728e-05 -0.98769063450857086 0.012687689899185228 -6.4844738109719678e-06 -0.0003105111339916089 -6.4844738109719678e-06 -0.19495420451118889 -5.2744896314099732e-05 -0.0003105111339916089 -5.2744896314099732e-05 -0.98762407883716086 0.012054000508179619 4.4296309019148511e-05 -0.00015554701985912023 4.4296309019148511e-05 -0.19520509778641698 -6.9221732657498425e-05 -0.00015554701985912023 -6.9221732657498425e-05 -0.98802423309271514 0.012680228760924228 -5.3454771992268751e-06 -6.5827244319055511e-05 -5.3454771992268751e-06 -0.19500294792015291 8.3828416126890959e-05 -6.5827244319055511e-05 8.3828416126890959e-05 -0.98768972615139083 0.01203396136853227 5.7278869936706977e-05 -0.00017120902900355506 5.7278869936706977e-05 -0.19523606974893259 -4.9038587194794037e-05 -0.00017120902900355506 -4.9038587194794037e-05 -0.98817833902877228 0.012566805512477713 -5.1241786623830629e-06 -0.00022782825645278892 -5.1241786623830629e-06 -0.19507149477267885 -3.0389752425551142e-05 -0.00022782825645278892 -3.0389752425551142e-05 -0.98809657936561024 0.012575527557045135 -1.1746397371968332e-05 -0.00021031502942792102 -1.1746397371968332e-05 -0.19510812476330458 -6.089718861887472e-05 -0.00021031502942792102 -6.089718861887472e-05 -0.98807107672441585 0.012552289086516222 -3.8537593739476469e-05 -0.00016068895575821474 -3.8537593739476469e-05 -0.19508401516521018 -7.9764144599425713e-05 -0.00016068895575821474 -7.9764144599425713e-05 -0.98790858729107867 0.012711752188971304 2.7100863498061962e-05 -3.6882638865198825e-05 2.7100863498061962e-05 -0.19505127597383987 5.3512031495783763e-05 -3.6882638865198825e-05 5.3512031495783763e-05 -0.98791801344685282 0.012878809053550266 2.5503707820260254e-06 -0.00015740200586533692 2.5503707820260254e-06 -0.19496932288491547 8.2205250295314114e-05 -0.00015740200586533692 8.2205250295314114e-05 -0.98766563117175865 0.01270397749230312 1.52025884579474e-05 -1.1061535875017681e-05 1.52025884579474e-05 -0.1949348642708979 -4.300369346194044e-05 -1.1061535875017681e-05 -4.300369346194044e-05 -0.98751513593281115 0.0126788640936426 8.9887490611804324e-06 6.7817390031457328e-06 8.9887490611804324e-06 -0.19497087917272454 3.7505289810873502e-06 6.7817390031457328e-06 3.7505289810873502e-06 -0.9875883473319611 0.011973466804854303 -3.1309540107741397e-05 -2.563276036282454e-05 -3.1309540107741397e-05 -0.19530994255691972 3.7072087201748684e-06 -2.563276036282454e-05 3.7072087201748684e-06 -0.98862862172674726 0.012078659541592943 -4.150489600229167e-05 -0.00026057298611270596 -4.150489600229167e-05 -0.1952224332910385 -7.3910567893964441e-05 -0.00026057298611270596 -7.3910567893964441e-05 -0.98824424234223351 0.011370466306691637 9.9809098469990902e-05 0.0001193775818963812 9.9809098469990902e-05 -0.19544817440192577 6.6759550750826491e-06 0.0001193775818963812 6.6759550750826491e-06 -0.98878311370369121 0.011914139958864145 6.7878806989979713e-05 6.8685597943790588e-05 6.7878806989979713e-05 -0.19533827008870358 9.8760598767344554e-06 6.8685597943790588e-05 9.8760598767344554e-06 -0.9886109214309573 0.010727498024032911 5.5426513076681531e-05 -0.00049122166006027035 5.5426513076681531e-05 -0.19563746947189048 6.0299782873307617e-06 -0.00049122166006027035 6.0299782873307617e-06 -0.98891950881398771 0.010189159187651675 0.00010544235115888566 0.00014386775228879267 0.00010544235115888566 -0.19598833558235065 -4.1013036883252862e-05 0.00014386775228879267 -4.1013036883252862e-05 -0.99019829240433488 0.010177014160981823 9.0571160788225762e-05 0.00015112358219107578 9.0571160788225762e-05 -0.19600452412084518 -7.7313726749736152e-06 0.00015112358219107578 -7.7313726749736152e-06 -0.99022031153324552 0.010170748363331532 -5.3358268650953906e-05 -5.0653333290296794e-05 -5.3358268650953906e-05 -0.19594478813493904 8.4610533382302618e-06 -5.0653333290296794e-05 8.4610533382302618e-06 -0.99008285544794616 0.010286538370051501 -6.4483104005707569e-05 -0.00038608310689913772 -6.4483104005707569e-05 -0.19579577630697823 -0.00014468212650146499 -0.00038608310689913772 -0.00014468212650146499 -0.98943700280325619 0.010282429578063718 8.8038343741480998e-05 -0.00024565697651310336 8.8038343741480998e-05 -0.19596165102349108 -3.0611718807138644e-05 -0.00024565697651310336 -3.0611718807138644e-05 -0.99008991759230247 0.010420787647924534 0.00010536477943149725 -0.00021168775055040168 0.00010536477943149725 -0.19578843723453448 -0.00015562542553532177 -0.00021168775055040168 -0.00015562542553532177 -0.9894097887429385 0.01169843127513541 -0.00010442915410388556 -0.00080536156134514147 -0.00010442915410388556 -0.19537921917118545 -0.00010666457768926385 -0.00080536156134514147 -0.00010666457768926385 -0.98850505931453347 0.012155395761634713 2.6446434907710313e-05 -0.00038151201746694507 2.6446434907710313e-05 -0.19519076312785899 7.2959925933507863e-05 -0.00038151201746694507 7.2959925933507863e-05 -0.98802976555301347 0.011611817268524838 1.0821320183861099e-05 -0.0010124988065547402 1.0821320183861099e-05 -0.19548459811466573 -1.6198955103352564e-05 -0.0010124988065547402 -1.6198955103352564e-05 -0.98896465997986538 0.010417153201460083 0.00014936220968380653 -0.00061350305771626368 0.00014936220968380653 -0.19592659749606928 2.879557160212487e-05 -0.00061350305771626368 2.879557160212487e-05 -0.99005772340891518 0.010776866307031674 5.392016194304657e-05 -0.00046307295745773303 5.392016194304657e-05 -0.19584519286940316 -7.7365931052994497e-05 -0.00046307295745773303 -7.7365931052994497e-05 -0.98993844536137265 0.012037829920129802 1.8355331108237111e-05 -0.00027249332317258457 1.8355331108237111e-05 -0.19533176285178738 2.757984749568454e-05 -0.00027249332317258457 2.757984749568454e-05 -0.98863158067682777 0.010789659714258455 1.3742536405862263e-05 -0.00038055930599356635 1.3742536405862263e-05 -0.19564179599409384 2.4813660242812077e-05 -0.00038055930599356635 2.4813660242812077e-05 -0.98893499180118261 0.01052486536444565 9.5148981063374966e-05 -0.00056801848552956447 9.5148981063374966e-05 -0.19568933931887358 0.00019027859659515034 -0.00056801848552956447 0.00019027859659515034 -0.98898454736470043 0.010772027398946893 0.00015268348060800348 -0.00085005506858876201 0.00015268348060800348 -0.19559467105905348 -9.2437206262507843e-05 -0.00085005506858876201 -9.2437206262507843e-05 -0.9887368111668664 0.010443321450667065 0.0001487120997851573 -0.00059484699510747863 0.0001487120997851573 -0.19590489928488075 -3.4122694670957188e-06 -0.00059484699510747863 -3.4122694670957188e-06 -0.98995713719156564 0.012558809413762306 2.1225250122015663e-05 -0.00043340465316255017 2.1225250122015663e-05 -0.19515871079324776 3.8752106700346012e-05 -0.00043340465316255017 3.8752106700346012e-05 -0.98822834795440606 0.012324893735861153 7.0679569777443494e-05 -0.00051016296210387724 7.0679569777443494e-05 -0.19509831375884323 -1.3390160686577168e-05 -0.00051016296210387724 -1.3390160686577168e-05 -0.98769390876165852 0.012737147465358555 -5.48851206098738e-05 -0.00029355259936281186 -5.48851206098738e-05 -0.19499008076984112 -5.5564546393493952e-05 -0.00029355259936281186 -5.5564546393493952e-05 -0.98761686036090357 0.012971644751458974 5.5296352306738813e-06 -0.00020226540954881855 5.5296352306738813e-06 -0.19493035266118988 -9.169249482754438e-05 -0.00020226540954881855 -9.169249482754438e-05 -0.98750924539712692 0.012734210678828739 -6.8011580788406012e-05 -5.6389680168085488e-05 -6.8011580788406012e-05 -0.19500884117047734 -5.495276306699548e-05 -5.6389680168085488e-05 -5.495276306699548e-05 -0.98770863900430839 0.013462606166793178 1.8497568849361378e-06 -0.00027505238868519299 1.8497568849361378e-06 -0.19474548996713459 5.9578852156905171e-05 -0.00027505238868519299 5.9578852156905171e-05 -0.98699724130062005 0.013151934963445966 6.8004664624875705e-05 -4.3278048079797848e-05 6.8004664624875705e-05 -0.19487501178535888 4.9440332184069735e-05 -4.3278048079797848e-05 4.9440332184069735e-05 -0.98745077639620749 0.013432522495504307 6.3777796060027809e-06 -0.0002475708524996012 6.3777796060027809e-06 -0.19476440480719182 8.5496810425578218e-05 -0.0002475708524996012 8.5496810425578218e-05 -0.98712897530922938 0.012917050772795147 7.9044887410674747e-07 -0.00019239330780207453 7.9044887410674747e-07 -0.19493469572254873 4.8576268614458629e-05 -0.00019239330780207453 4.8576268614458629e-05 -0.98750887053257586 0.013369002333066121 -1.2096817631167977e-05 -0.00042381506228716948 -1.2096817631167977e-05 -0.19479306425959889 -8.6611770443445479e-05 -0.00042381506228716948 -8.6611770443445479e-05 -0.9872013545685171 0.013385019186062386 -2.6522992935504815e-06 -0.00044088854005153166 -2.6522992935504815e-06 -0.19470233965710049 -7.2373722102003768e-06 -0.00044088854005153166 -7.2373722102003768e-06 -0.98715645738772406 0.012714086187913393 -4.1624539780655698e-06 -0.00033395615489828501 -4.1624539780655698e-06 -0.19493947776838969 1.973977760361123e-06 -0.00033395615489828501 1.973977760361123e-06 -0.98750678053425445 0.013089777200561703 1.1916252355004327e-05 -5.0768942356449465e-05 1.1916252355004327e-05 -0.19488738033295755 -2.4434688138619265e-05 -5.0768942356449465e-05 -2.4434688138619265e-05 -0.98770865207056402 0.01275230711144526 -3.3931655726853767e-06 -0.00033173930788216177 -3.3931655726853767e-06 -0.19490390880864239 1.9229648072799366e-05 -0.00033173930788216177 1.9229648072799366e-05 -0.98735126906987158 0.012683180426459384 0.00011275522238961595 -0.00017576462811913496 0.00011275522238961595 -0.19503442133065285 6.1646527256098427e-05 -0.00017576462811913496 6.1646527256098427e-05 -0.9880257154666281 0.012833640997655493 0.00015150871903290113 -0.00025781449966266745 0.00015150871903290113 -0.19490607444706554 -7.4551374153464245e-05 -0.00025781449966266745 -7.4551374153464245e-05 -0.98748956234482232 0.012677486950045863 1.4710149586690941e-05 -0.00031876466690348992 1.4710149586690941e-05 -0.19499089123539143 0.00012088901439588629 -0.00031876466690348992 0.00012088901439588629 -0.98769210246548145 0.012958043646310036 -0.00024163567791210449 -0.00017242044141441148 -0.00024163567791210449 -0.19487698583573693 0.00011570996593945893 -0.00017242044141441148 0.00011570996593945893 -0.98751817319712099 0.013274838526352473 -7.3097254668864999e-06 -0.00053698914699462641 -7.3097254668864999e-06 -0.19471053238132019 0.00014038166045493572 -0.00053698914699462641 0.00014038166045493572 -0.98702474299894583 0.010600080387593469 -2.5510428038297215e-05 -0.00036212390281853413 -2.5510428038297215e-05 -0.19587793980159607 -1.6565205484680989e-05 -0.00036212390281853413 -1.6565205484680989e-05 -0.9900952837978092 0.01111491380923435 -0.00012244215823752232 -0.00028322935341767996 -0.00012244215823752232 -0.19540975272062328 -1.4435888291780552e-05 -0.00028322935341767996 -1.4435888291780552e-05 -0.98835352732805526 0.010645665696337792 -3.9666191463216486e-05 -0.00040037537483342267 -3.9666191463216486e-05 -0.19586020484490746 2.4141971473545798e-05 -0.00040037537483342267 2.4141971473545798e-05 -0.98999801138725618 0.011321561263366697 -5.4377934397288498e-05 -0.00089037469440661487 -5.4377934397288498e-05 -0.19553423600848657 2.8139674670191184e-05 -0.00089037469440661487 2.8139674670191184e-05 -0.98911005352606951 0.010955612718180296 -0.00019397719370672269 -0.0006068511143056815 -0.00019397719370672269 -0.1957863399583083 0.0002857945292860653 -0.0006068511143056815 0.0002857945292860653 -0.99009264304700184 0.011616847200845826 2.8151186862722096e-05 -0.0010031867351227852 2.8151186862722096e-05 -0.19543201751719624 -1.147316351335359e-05 -0.0010031867351227852 -1.147316351335359e-05 -0.98895750483947509 0.010543020496718902 1.4216417860626117e-06 -0.00018687989665233662 1.4216417860626117e-06 -0.19578256760310769 -0.00043669992182349127 -0.00018687989665233662 -0.00043669992182349127 -0.98925358471763314 0.011043756313695419 -3.3624555961678869e-07 -0.00053245496189929797 -3.3624555961678869e-07 -0.19556995866394342 -6.7719541259163296e-06 -0.00053245496189929797 -6.7719541259163296e-06 -0.98905155190522587 0.010412414683833068 -1.944756271427011e-05 -0.00063303566787997756 -1.944756271427011e-05 -0.19586654616749338 3.2785612253949381e-06 -0.00063303566787997756 3.2785612253949381e-06 -0.98980948756387477 0.010676677393974765 2.6876099904834315e-05 0.00010912432137563706 2.6876099904834315e-05 -0.19570085065810411 -7.6483839729617384e-06 0.00010912432137563706 -7.6483839729617384e-06 -0.98890385736749398 0.011876943119383775 -5.6095490418267801e-05 3.3965894081056103e-05 -5.6095490418267801e-05 -0.19532449251320891 0.00012210058947464963 3.3965894081056103e-05 0.00012210058947464963 -0.98852117547511231 0.010558262742908206 6.8017920154994007e-06 -0.00030491920320541155 6.8017920154994007e-06 -0.19576971095853793 0.00046315669469948473 -0.00030491920320541155 0.00046315669469948473 -0.98941967509024198 0.01098226581138502 -0.00020750958051698603 -0.00046477496861618839 -0.00020750958051698603 -0.19555590932693923 -0.00011565979848410235 -0.00046477496861618839 -0.00011565979848410235 -0.98895426239181661 0.011827540865083974 -3.2971857204128968e-05 0.00011058022558177482 -3.2971857204128968e-05 -0.19540825117990146 -7.9385012292332225e-06 0.00011058022558177482 -7.9385012292332225e-06 -0.98861644252944803 0.010204008028799227 -2.1058315271336177e-06 0.00012454458119655668 -2.1058315271336177e-06 -0.19595238124134623 2.4377836526732203e-06 0.00012454458119655668 2.4377836526732203e-06 -0.99012492767069304 0.010260602854556711 -3.8263858948761357e-05 0.00012451992024176416 -3.8263858948761357e-05 -0.19602480647456758 -7.8225469178830326e-06 0.00012451992024176416 -7.8225469178830326e-06 -0.99012948877190388 0.012539871899812205 -1.074507810319854e-05 -0.00021367664129984254 -1.074507810319854e-05 -0.19511022591588489 1.7609346610748811e-05 -0.00021367664129984254 1.7609346610748811e-05 -0.98818040365061799 0.012535353508469835 1.6994124999735443e-05 -0.00021638113179069454 1.6994124999735443e-05 -0.19511616816666338 7.9091760379346177e-05 -0.00021638113179069454 7.9091760379346177e-05 -0.98818696985613708 0.012621811227368412 9.4414195958654466e-06 -0.00012033923015863923 9.4414195958654466e-06 -0.19508675323738792 -1.2636507918549131e-06 -0.00012033923015863923 -1.2636507918549131e-06 -0.98802373707703706 0.011859933234928732 -4.2312868717797937e-06 6.992973882809636e-05 -4.2312868717797937e-06 -0.19529102273385074 9.1777193290666223e-07 6.992973882809636e-05 9.1777193290666223e-07 -0.98828641969754094 0.012674676246480224 1.1078663641340947e-05 4.4026288288202421e-06 1.1078663641340947e-05 -0.19496513635055848 2.3874141990400051e-06 4.4026288288202421e-06 2.3874141990400051e-06 -0.98758842540423841 0.012660842765741198 6.7410779480961829e-06 -8.9489081336661022e-06 6.7410779480961829e-06 -0.19499377417957789 -2.4727305277139067e-05 -8.9489081336661022e-06 -2.4727305277139067e-05 -0.98762896544889678 0.012635374787889397 -2.5392654919504322e-06 -0.00011347429129077158 -2.5392654919504322e-06 -0.19506309979288575 -3.1777879054052834e-05 -0.00011347429129077158 -3.1777879054052834e-05 -0.98795173642716938 0.012779658277513595 -1.0665042686410404e-06 -0.00018038218250487903 -1.0665042686410404e-06 -0.19492875398234277 -3.9715511772238365e-05 -0.00018038218250487903 -3.9715511772238365e-05 -0.98742518996431938 0.012692219294604561 -1.1059438493622506e-06 4.4832641893758043e-06 -1.1059438493622506e-06 -0.19497456068897343 3.1887405744270025e-06 4.4832641893758043e-06 3.1887405744270025e-06 -0.98766358138702182 0.012667889769651148 1.7565484802099401e-05 2.1388896555462052e-07 1.7565484802099401e-05 -0.19500669919006683 4.5389476474186897e-06 2.1388896555462052e-07 4.5389476474186897e-06 -0.9876681292382864 0.012849767809074472 3.2334948389272367e-05 -0.00018981068902240716 3.2334948389272367e-05 -0.19490262864198743 1.2443974145126546e-05 -0.00018981068902240716 1.2443974145126546e-05 -0.98736059881449778 0.012687619399555122 3.0123891127966875e-05 -0.00011431846930343159 3.0123891127966875e-05 -0.19504867201214388 1.4954755073959269e-05 -0.00011431846930343159 1.4954755073959269e-05 -0.98795268568961081 0.012692387056723769 -2.553921478463638e-05 1.4051901880423738e-05 -2.553921478463638e-05 -0.19498680919525363 4.1989353599117808e-06 1.4051901880423738e-05 4.1989353599117808e-06 -0.98754141082478042 0.011979685804525381 1.8833825101697016e-05 0.00010732711177116605 1.8833825101697016e-05 -0.19524080786670817 2.741847596748892e-05 0.00010732711177116605 2.741847596748892e-05 -0.98821805798350049 0.012704671334349049 -5.4642903676095349e-06 3.0547770067473889e-05 -5.4642903676095349e-06 -0.19497691622332913 4.2992648161710445e-05 3.0547770067473889e-05 4.2992648161710445e-05 -0.98759901767630931 0.012662935058686389 -6.7264702243965583e-06 3.077627295808584e-06 -6.7264702243965583e-06 -0.19500943326695835 1.0672742418578626e-05 3.077627295808584e-06 1.0672742418578626e-05 -0.98755619368634906 0.011897121808775057 -4.1578736030127153e-05 0.0001246048413387503 -4.1578736030127153e-05 -0.19528371894067004 1.3316982260486384e-05 0.0001246048413387503 1.3316982260486384e-05 -0.98821786041717297 0.011898297986361162 -2.9777633361106162e-05 6.6104694674860593e-05 -2.9777633361106162e-05 -0.1952909457707826 5.5985929524652954e-07 6.6104694674860593e-05 5.5985929524652954e-07 -0.98827801611860966 0.012587886151987748 -2.5251006124059057e-05 -0.00015782147016712988 -2.5251006124059057e-05 -0.19510140111687149 -7.8456019086646511e-06 -0.00015782147016712988 -7.8456019086646511e-06 -0.98800982599699827 0.012879410065763652 -1.2259921639168401e-05 -0.00016435708860840226 -1.2259921639168401e-05 -0.1948590317092409 -5.6514134928020709e-05 -0.00016435708860840226 -5.6514134928020709e-05 -0.98745884069014744 0.012801711138349603 5.3917179065508407e-07 -0.00019095560779458509 5.3917179065508407e-07 -0.19490695392158502 3.7710755923375805e-05 -0.00019095560779458509 3.7710755923375805e-05 -0.9873366916952877 0.012624428201203325 -2.0967437181791764e-06 -0.0001210450102965277 -2.0967437181791764e-06 -0.1950774962001906 3.4682600889891085e-05 -0.0001210450102965277 3.4682600889891085e-05 -0.98802384287268641 0.012265903229021768 0.00028618302056350237 -0.00034149218510484691 0.00028618302056350237 -0.19509916385874496 0.00015079468178852418 -0.00034149218510484691 0.00015079468178852418 -0.98797534339417936 0.012818565765557288 1.1705251582162503e-05 -0.00016058389463760592 1.1705251582162503e-05 -0.19504767979309118 3.5601426093077176e-05 -0.00016058389463760592 3.5601426093077176e-05 -0.98800016621682585 0.012881101309287046 2.6017563304699559e-07 -0.00020171413880445965 2.6017563304699559e-07 -0.19494062553207209 -5.4293332653686244e-05 -0.00020171413880445965 -5.4293332653686244e-05 -0.9878785561350798 0.012293947725998566 -1.0986843056551835e-06 -0.00060587166213293964 -1.0986843056551835e-06 -0.1952254864752877 -4.401445781718194e-05 -0.00060587166213293964 -4.401445781718194e-05 -0.98843735460479643 0.01280559651987645 -7.3647096097172019e-08 -0.00019289185681997667 -7.3647096097172019e-08 -0.19491338369199263 2.4740767532449581e-05 -0.00019289185681997667 2.4740767532449581e-05 -0.98731082959291339 0.012623823070229745 -7.3789001480853967e-05 -7.269626526401618e-05 -7.3789001480853967e-05 -0.19499752655837976 2.6838144833285504e-05 -7.269626526401618e-05 2.6838144833285504e-05 -0.9876872298280448 0.01260946770780158 -0.00021047034680810132 -0.0001894813655722305 -0.00021047034680810132 -0.19509364213765751 -0.00010854650587938108 -0.0001894813655722305 -0.00010854650587938108 -0.98801290186808877 0.013292546716917375 -2.2386060949464775e-06 -0.00051606158326134022 -2.2386060949464775e-06 -0.19473418183527524 6.4921467404426697e-05 -0.00051606158326134022 6.4921467404426697e-05 -0.98691235107640529 0.013237393675239906 -2.284135970509961e-06 -0.00052419359277078303 -2.284135970509961e-06 -0.19479297553178021 -9.3601070042248491e-05 -0.00052419359277078303 -9.3601070042248491e-05 -0.98712935275143998 0.013291323640628086 -1.505905286896909e-05 -0.00046767950947590453 -1.505905286896909e-05 -0.1946816154657362 -2.7650931265443823e-05 -0.00046767950947590453 -2.7650931265443823e-05 -0.98679560326232862 0.013166364187194746 7.3591529610506811e-07 -0.00043809412400797054 7.3591529610506811e-07 -0.19475764484142921 -4.6272199835342698e-05 -0.00043809412400797054 -4.6272199835342698e-05 -0.98724392534885874 0.013153863320320647 -1.839064503818681e-05 -0.00043496114312313594 -1.839064503818681e-05 -0.1948195178550457 9.8613091562560484e-06 -0.00043496114312313594 9.8613091562560484e-06 -0.98732966223538154 0.012288903900349618 -5.1267679636832227e-05 -0.00047876560454312989 -5.1267679636832227e-05 -0.19513455315991304 -3.5377401613717607e-05 -0.00047876560454312989 -3.5377401613717607e-05 -0.98795331699949063 0.012855859370246081 -2.0237903019361455e-05 -0.00018823667507777975 -2.0237903019361455e-05 -0.19501147144136149 1.4587265201898569e-05 -0.00018823667507777975 1.4587265201898569e-05 -0.98789764037896433 0.013212762883488952 5.2234533240221857e-05 -0.00044184808274216891 5.2234533240221857e-05 -0.19481772430313415 0.00010584069361674331 -0.00044184808274216891 0.00010584069361674331 -0.98716746774617903 0.013197868513872724 -1.1040032177329343e-06 -0.00046127500914872055 -1.1040032177329343e-06 -0.19471848893542087 6.9337040915495862e-06 -0.00046127500914872055 6.9337040915495862e-06 -0.98712585670572017 0.013388028283619402 -8.5366475076504631e-06 -0.00025104368554440537 -8.5366475076504631e-06 -0.19477234947602784 -8.5962775229764254e-05 -0.00025104368554440537 -8.5962775229764254e-05 -0.98707309574427171 0.013124773343941687 -6.3735267670683089e-05 -6.1416041656991993e-05 -6.3735267670683089e-05 -0.19487651359945152 -4.6964951551486944e-05 -6.1416041656991993e-05 -4.6964951551486944e-05 -0.9874016103597183 0.012862420147044917 2.6264610009533308e-05 -0.00023736217545911042 2.6264610009533308e-05 -0.19493896650167841 0.00011539046858510815 -0.00023736217545911042 0.00011539046858510815 -0.98746018394365143 0.012315585369618588 -1.8358935387141484e-05 -0.00052416658748111189 -1.8358935387141484e-05 -0.19507165730626919 4.817480318919376e-05 -0.00052416658748111189 4.817480318919376e-05 -0.98758565269401011 0.012928387405333641 -9.4026994482712211e-07 -0.0001855004157699236 -9.4026994482712211e-07 -0.19492272070598199 -4.9920884190313153e-05 -0.0001855004157699236 -4.9920884190313153e-05 -0.98743028444371483 0.012906398468182645 -1.2484620279424953e-05 -0.00015897109130841303 -1.2484620279424953e-05 -0.19492161581000889 -5.7238773556289591e-05 -0.00015897109130841303 -5.7238773556289591e-05 -0.98754160702239258 0.012759652377627939 -2.1906709903080673e-05 -4.7584899670050085e-05 -2.1906709903080673e-05 -0.1949861570012289 -4.3230597360444101e-05 -4.7584899670050085e-05 -4.3230597360444101e-05 -0.98780249011334931 0.012463315526222596 4.447490999625706e-06 7.5778395183939316e-05 4.447490999625706e-06 -0.19506944872687249 -1.3577930568078716e-05 7.5778395183939316e-05 -1.3577930568078716e-05 -0.98804101616032036 0.012722442593257666 -1.7417095290673543e-06 -9.4810657848221069e-05 -1.7417095290673543e-06 -0.19498003068495623 -5.520305356132571e-05 -9.4810657848221069e-05 -5.520305356132571e-05 -0.98774366704730054 0.012601198211319553 3.4664649475564365e-05 -2.925637602926856e-05 3.4664649475564365e-05 -0.19501427592073611 -7.7257762301080612e-05 -2.925637602926856e-05 -7.7257762301080612e-05 -0.98783620812870898 0.012546383374384629 -4.5992744886770334e-06 7.6523434130724105e-06 -4.5992744886770334e-06 -0.19498788450383775 2.5408405818710896e-07 7.6523434130724105e-06 2.5408405818710896e-07 -0.98765747142499716 0.012724626781812243 2.3430688525688544e-06 -8.573060976713176e-05 2.3430688525688544e-06 -0.19504539158003542 -3.1138439679879309e-05 -8.573060976713176e-05 -3.1138439679879309e-05 -0.9879022892772048 0.01257325151717581 -3.9663538735414071e-05 1.8673141317372676e-05 -3.9663538735414071e-05 -0.195021654999954 1.6496559099998282e-05 1.8673141317372676e-05 1.6496559099998282e-05 -0.98766816242213529 0.012683148537041805 -5.8135473338281754e-06 -4.1867719356492028e-05 -5.8135473338281754e-06 -0.19504148647160111 -1.0065980679374587e-05 -4.1867719356492028e-05 -1.0065980679374587e-05 -0.98796959775985105 0.012652605618940854 -8.5640419111807833e-07 -2.1267870006336231e-05 -8.5640419111807833e-07 -0.19500213398300603 -2.0167085512556859e-05 -2.1267870006336231e-05 -2.0167085512556859e-05 -0.98761525109653414 0.012657627130144927 -3.6415697459043756e-05 -4.5344169291916536e-05 -3.6415697459043756e-05 -0.19506470581504654 4.6552176715224103e-06 -4.5344169291916536e-05 4.6552176715224103e-06 -0.98796611537448387 0.012857573734334882 1.1544607547597785e-05 -0.00017737481566559854 1.1544607547597785e-05 -0.19494891252820673 -3.825710269300675e-05 -0.00017737481566559854 -3.825710269300675e-05 -0.9875451359821944 0.012848062798586662 -4.3912344537521033e-06 -0.00017172199238890684 -4.3912344537521033e-06 -0.19494430222420792 -9.8743923527266908e-06 -0.00017172199238890684 -9.8743923527266908e-06 -0.98753022813928404 0.011935495409636843 -5.7242692392277619e-05 0.00012549554839334787 -5.7242692392277619e-05 -0.19524052064115366 1.1283681209617313e-05 0.00012549554839334787 1.1283681209617313e-05 -0.98820843913966561 0.011930672178430024 -6.0898852534294542e-05 0.00012620507927691395 -6.0898852534294542e-05 -0.19525921553676395 1.4529657295390499e-05 0.00012620507927691395 1.4529657295390499e-05 -0.98820844318568823 0.012024132655395703 6.4735619759245845e-05 4.8662765751243704e-06 6.4735619759245845e-05 -0.19518161473279982 -9.4053049719602413e-06 4.8662765751243704e-06 -9.4053049719602413e-06 -0.98816095946659521 0.011984697050036963 7.1074517251137312e-05 -0.00024654086773717721 7.1074517251137312e-05 -0.1952359681883146 -0.00016094757997972553 -0.00024654086773717721 -0.00016094757997972553 -0.98840323337947922 0.011845920090020445 -5.3706262835410985e-05 -0.00010740045200091641 -5.3706262835410985e-05 -0.19534276888584834 -7.0662590615888643e-05 -0.00010740045200091641 -7.0662590615888643e-05 -0.98863505861639056 0.012053655251187317 -5.7698492270878976e-05 -0.0002161888228266462 -5.7698492270878976e-05 -0.19515889931065397 -3.8558098806540375e-05 -0.0002161888228266462 -3.8558098806540375e-05 -0.98790391294796309 0.012738032992028251 -9.2322591474954794e-06 -8.194147247403416e-05 -9.2322591474954794e-06 -0.19499974810483175 -8.2787639505976784e-06 -8.194147247403416e-05 -8.2787639505976784e-06 -0.98779686438722136 0.01095593496301478 0.00016162172108163416 0.00029358040243376848 0.00016162172108163416 -0.19550900883975592 2.5215989976457021e-05 0.00029358040243376848 2.5215989976457021e-05 -0.98856065595512743 0.011033903029115694 -0.00094290727257526053 -0.00060905177869663429 -0.00094290727257526053 -0.19558108285363923 -0.00026731420319481281 -0.00060905177869663429 -0.00026731420319481281 -0.98917437342509251 0.010915259454382611 0.00012601056573239948 -0.00044767654117472411 0.00012601056573239948 -0.19562179985507833 2.5463929296365428e-05 -0.00044767654117472411 2.5463929296365428e-05 -0.98908951911942178 0.01140629826706191 -3.5355693669771691e-05 0.00012304401663711735 -3.5355693669771691e-05 -0.19546252133470593 -4.7097297339399874e-06 0.00012304401663711735 -4.7097297339399874e-06 -0.98895072340552415 0.010387266676514212 3.8508264079077986e-05 3.9886950202849825e-05 3.8508264079077986e-05 -0.19589705459581574 0.00036517229216398439 3.9886950202849825e-05 0.00036517229216398439 -0.99011586839467869 0.010355276274456149 -6.3904759150318349e-05 5.7504553661681813e-05 -6.3904759150318349e-05 -0.19596653920553334 -1.3254974864217062e-05 5.7504553661681813e-05 -1.3254974864217062e-05 -0.99034127132347161 0.010101973487704896 1.2345227582245183e-05 -0.00042359068309701803 1.2345227582245183e-05 -0.19591503973208227 -0.00024311851184071089 -0.00042359068309701803 -0.00024311851184071089 -0.98967397806601565 0.010601217862192168 0.00012579854071742761 -4.0052905273345336e-06 0.00012579854071742761 -0.19568175874775021 -7.2844571068530438e-07 -4.0052905273345336e-06 -7.2844571068530438e-07 -0.9891485517708154 0.010173030668645264 -5.7019908807202112e-05 -2.2779130318562046e-05 -5.7019908807202112e-05 -0.19594110386268238 4.247792614447965e-05 -2.2779130318562046e-05 4.247792614447965e-05 -0.98991640648414791 0.0099803066349971603 -0.00012057248323125095 -0.00032295501426789219 -0.00012057248323125095 -0.19606445937112926 6.45662175829953e-06 -0.00032295501426789219 6.45662175829953e-06 -0.99033214864908037 0.011638562138805153 8.3667468780093181e-06 -0.00097443515803818936 8.3667468780093181e-06 -0.19551097361691733 2.9360800938793563e-05 -0.00097443515803818936 2.9360800938793563e-05 -0.98920857493633685 0.011919826919181087 1.588691107978338e-05 -0.00043108367090843869 1.588691107978338e-05 -0.19522660803458236 -5.0472555188051105e-05 -0.00043108367090843869 -5.0472555188051105e-05 -0.9880546549282111 0.010791524052980672 -4.6135886607734046e-05 -0.00053471910214930585 -4.6135886607734046e-05 -0.1955720257821395 -3.3113278126994938e-05 -0.00053471910214930585 -3.3113278126994938e-05 -0.98869778022662436 0.010403472612328546 -1.9321162748299077e-05 -0.0002256038024530671 -1.9321162748299077e-05 -0.19579356439635209 -9.7815986589089299e-05 -0.0002256038024530671 -9.7815986589089299e-05 -0.98940977769679872 0.011659024022400478 -2.8809776747088956e-06 -0.00022388491694502743 -2.8809776747088956e-06 -0.19536410934061499 5.4681873120701607e-06 -0.00022388491694502743 5.4681873120701607e-06 -0.98853204881508883 0.010380557523967826 -4.2359091167957283e-05 -0.00032124902744734563 -4.2359091167957283e-05 -0.19593222522136217 -2.978210821558136e-05 -0.00032124902744734563 -2.978210821558136e-05 -0.99008395232097013 0.010769324876344966 -7.9187262082263768e-05 -0.00065316887663519063 -7.9187262082263768e-05 -0.19575820031283742 5.7444717767585196e-05 -0.00065316887663519063 5.7444717767585196e-05 -0.98961318132903264 0.012060835333081908 -8.7070582004042052e-05 -0.00030373933856653323 -8.7070582004042052e-05 -0.19526008837235462 4.482252248078078e-05 -0.00030373933856653323 4.482252248078078e-05 -0.98842036963297397 0.012620666364958497 5.8376967143621944e-06 -0.00044251324326038954 5.8376967143621944e-06 -0.19517168942037655 2.0373283819430377e-05 -0.00044251324326038954 2.0373283819430377e-05 -0.98839068547837927 0.010591813337783307 -0.0001328554887872102 -0.00078901216214499748 -0.0001328554887872102 -0.19585355878896421 -5.6987212588066605e-05 -0.00078901216214499748 -5.6987212588066605e-05 -0.98995357506459336 0.011610974384982653 -9.2339581995349332e-05 -0.00094621362745461735 -9.2339581995349332e-05 -0.19550308852568957 1.3543336007226792e-05 -0.00094621362745461735 1.3543336007226792e-05 -0.98920233911742217 0.011094144799938921 0.00017998879591948197 -0.00070611780716856032 0.00017998879591948197 -0.19576815309213436 -0.00020478476164731418 -0.00070611780716856032 -0.00020478476164731418 -0.98992221413654624 0.0112951880911214 3.1195453579251634e-05 -0.00089503964563775185 3.1195453579251634e-05 -0.19561307810277417 3.9814905805624079e-06 -0.00089503964563775185 3.9814905805624079e-06 -0.98929203781147868 0.011200665412321342 0.00014001111051617333 -0.00030537809573161212 0.00014001111051617333 -0.19542901021880782 -9.1070964192280224e-06 -0.00030537809573161212 -9.1070964192280224e-06 -0.98834103893429015 0.011101172442825755 0.00019067707289345569 -0.00043823882787236146 0.00019067707289345569 -0.19556937785913386 5.8117455844775012e-05 -0.00043823882787236146 5.8117455844775012e-05 -0.98896237473598037 0.010664156960473237 -6.9423092440718535e-05 0.00016756901109221922 -6.9423092440718535e-05 -0.19572202633127683 8.4923068358661525e-06 0.00016756901109221922 8.4923068358661525e-06 -0.9891746635910964 0.011766350361840004 6.3014550082932157e-06 -0.00027456533584219178 6.3014550082932157e-06 -0.19539307370087872 -3.9721009988946676e-05 -0.00027456533584219178 -3.9721009988946676e-05 -0.98875142513340775 0.010435445847229698 3.144488557099006e-05 -4.2107161560472894e-05 3.144488557099006e-05 -0.19580093500148063 0.00028220127094552572 -4.2107161560472894e-05 0.00028220127094552572 -0.98940621154644937 0.011653336838682034 -5.2378898676021077e-05 -0.00023729158581364818 -5.2378898676021077e-05 -0.19545169419621145 -1.3612242659825913e-05 -0.00023729158581364818 -1.3612242659825913e-05 -0.98880752663858829 0.01035701808699617 -0.00016711965148607372 -0.00023370091561314421 -0.00016711965148607372 -0.19583177980790717 -0.00042227383872045499 -0.00023370091561314421 -0.00042227383872045499 -0.98951095172397596 0.010023137631924597 -2.5029629755575687e-05 -0.00056756964732751491 -2.5029629755575687e-05 -0.19596638830255966 1.5355997025817691e-05 -0.00056756964732751491 1.5355997025817691e-05 -0.98987954260342181 0.011847611777872025 -7.1921938103084908e-06 7.286399386255776e-05 -7.1921938103084908e-06 -0.19525603937373448 -1.0412671722251926e-06 7.286399386255776e-05 -1.0412671722251926e-06 -0.98828226551722864 0.010255070620272477 3.3801894188127992e-05 0.00013771267813571846 3.3801894188127992e-05 -0.19598344698073233 1.1410872206077278e-05 0.00013771267813571846 1.1410872206077278e-05 -0.99011646479864224 0.0065232892822150446 0.00030012467314512821 0.00047603667342699385 0.00030012467314512821 -0.1971791973269319 0.00041906237021560599 0.00047603667342699385 0.00041906237021560599 -0.99264840038051438 0.0071264069721983306 0.00037735786145024326 -0.00042750744640357441 0.00037735786145024326 -0.19694192054592827 -0.0001324708417511089 -0.00042750744640357441 -0.0001324708417511089 -0.99182610970860829 0.0089364751430123235 2.6586364171822431e-05 0.00018237519666623042 2.6586364171822431e-05 -0.19633214897416795 -6.7732162912614857e-05 0.00018237519666623042 -6.7732162912614857e-05 -0.99061230343711437 0.0078648226450998004 5.33141081196852e-05 7.0992147068845289e-05 5.33141081196852e-05 -0.19654829119189016 6.4570264866621603e-06 7.0992147068845289e-05 6.4570264866621603e-06 -0.99070929562081733 0.0083303702880557218 2.1935808783242194e-05 -0.00064061948769611465 2.1935808783242194e-05 -0.19662187393026775 -3.9664366527247807e-05 -0.00064061948769611465 -3.9664366527247807e-05 -0.9914605116973505 0.0070946811924354203 -3.0282371447557856e-06 -0.00071719142940612768 -3.0282371447557856e-06 -0.19696218352507736 -0.00023986703441007673 -0.00071719142940612768 -0.00023986703441007673 -0.99205303984023208 0.0065016600366303787 -0.00071263801660680982 -0.0001405832700355214 -0.00071263801660680982 -0.19705736077941177 0.00025034602739298917 -0.0001405832700355214 0.00025034602739298917 -0.99213685585622113 0.0089143046145118698 -0.00012128394649159578 7.1296792548911092e-05 -0.00012128394649159578 -0.19630769168703027 1.0410793244537049e-05 7.1296792548911092e-05 1.0410793244537049e-05 -0.99045162643605733 0.0058805606248547998 -0.00034567456999484941 0.00026045878926261867 -0.00034567456999484941 -0.19727443287645169 -0.0003637146356565979 0.00026045878926261867 -0.0003637146356565979 -0.99244224682401794 0.0089592628195732105 0.00011300714635282051 0.00014634153962062889 0.00011300714635282051 -0.1963112112282846 -1.1395179563189369e-05 0.00014634153962062889 -1.1395179563189369e-05 -0.99068815026098567 0.0061451601130638189 0.00010437428505154171 -8.2533110659071944e-05 0.00010437428505154171 -0.19735013256577799 -4.1754739535297496e-05 -8.2533110659071944e-05 -4.1754739535297496e-05 -0.99332178703727891 0.0059510372259347633 -0.00010035765909767974 0.00013101946523888888 -0.00010035765909767974 -0.19739365471680853 -4.9967779807007058e-06 0.00013101946523888888 -4.9967779807007058e-06 -0.99321642137606569 0.0091550950865693093 -6.954195023290586e-05 -0.0012216164303171032 -6.954195023290586e-05 -0.19636323852386489 -2.2856361427986416e-05 -0.0012216164303171032 -2.2856361427986416e-05 -0.99098764147615825 0.0092755200876390997 -2.2474062021783172e-05 -0.00020031428135672616 -2.2474062021783172e-05 -0.19619360153626403 2.161314985760221e-05 -0.00020031428135672616 2.161314985760221e-05 -0.99017566816516012 0.0092077025537375679 -0.00026492480539038864 -0.00044256181962240354 -0.00026492480539038864 -0.19624532785698562 -7.0367941346072271e-05 -0.00044256181962240354 -7.0367941346072271e-05 -0.99043214522000955 0.0080686357909351691 8.7493491693297389e-05 -0.0012760205710033723 8.7493491693297389e-05 -0.19655300855139454 0.00062766260968044607 -0.0012760205710033723 0.00062766260968044607 -0.99092215890336377 0.007153060061573846 -0.00021904642785403907 -0.0014314728559079448 -0.00021904642785403907 -0.19699065091734996 7.7314042930098914e-05 -0.0014314728559079448 7.7314042930098914e-05 -0.99232253824645411 0.0069331785731671647 0.00023961540351913658 -0.000183253201912148 0.00023961540351913658 -0.19723553751313658 7.39638923999697e-05 -0.000183253201912148 7.39638923999697e-05 -0.99312499583308 0.0093505083152656959 0.00075677034074822795 -0.00038461404900929502 0.00075677034074822795 -0.19618606340868622 0.00023429126728813365 -0.00038461404900929502 0.00023429126728813365 -0.99028808589465966 0.007778761134989709 1.1867722917321581e-05 -0.0012819882810955752 1.1867722917321581e-05 -0.19688538864073235 9.0678912668784584e-05 -0.0012819882810955752 9.0678912668784584e-05 -0.9921465706906567 0.0065834751069246134 -0.00014089690974284218 0.0003238866126165918 -0.00014089690974284218 -0.19715076240817347 7.4605706616423517e-05 0.0003238866126165918 7.4605706616423517e-05 -0.99246300456176795 0.0071294203924517352 -5.3224597284497263e-05 -0.001463726667665477 -5.3224597284497263e-05 -0.19697295687092334 -0.00013904096464414928 -0.001463726667665477 -0.00013904096464414928 -0.99208155604065085 0.0071786991862079486 0.00032637601245299341 -0.00098471742049910382 0.00032637601245299341 -0.19694964504483747 -9.1562248624832421e-05 -0.00098471742049910382 -9.1562248624832421e-05 -0.99188097434554034 0.0057182704130028794 -0.00019928023637506316 -0.00030872978261835271 -0.00019928023637506316 -0.19760140328768167 -1.6050943447164234e-05 -0.00030872978261835271 -1.6050943447164234e-05 -0.99380385180189479 0.0091354967249736574 -0.00016632565217738641 -0.00057508777694382368 -0.00016632565217738641 -0.19625307832932556 -8.3611611412764963e-05 -0.00057508777694382368 -8.3611611412764963e-05 -0.99045629851509032 0.005756226081232052 -0.00018157242900684729 -0.00056060973926130853 -0.00018157242900684729 -0.19752816105833432 4.7722357499176138e-05 -0.00056060973926130853 4.7722357499176138e-05 -0.99343669826943293 0.0081644502908536087 -1.6134268593412131e-05 -0.00067967712778316258 -1.6134268593412131e-05 -0.19649732763803468 -4.6007737073236465e-05 -0.00067967712778316258 -4.6007737073236465e-05 -0.99070760448927708 0.0085410806814743556 -6.3578195923536055e-05 -0.0011994487819284583 -6.3578195923536055e-05 -0.19657624415956626 -6.6886266658738869e-05 -0.0011994487819284583 -6.6886266658738869e-05 -0.99151078715462515 0.0090963957244925842 -6.4331965955220208e-05 -0.00045602194038685262 -6.4331965955220208e-05 -0.19625377284796555 -7.659561535733328e-05 -0.00045602194038685262 -7.659561535733328e-05 -0.99045356509722871 0.0059793713214291999 0.00012695274986158868 -0.00017802679796885545 0.00012695274986158868 -0.19739199369327889 0.00022959864846061606 -0.00017802679796885545 0.00022959864846061606 -0.99280366584955371 0.0091224695323146032 -0.00011021986396836261 -0.00066980792019555313 -0.00011021986396836261 -0.19629703575199803 -4.0818872612646828e-05 -0.00066980792019555313 -4.0818872612646828e-05 -0.99065118220634107 0.0078963585551014015 -9.6110166481157974e-05 4.0597019507655763e-05 -9.6110166481157974e-05 -0.19674560186395984 -5.9726498272572037e-05 4.0597019507655763e-05 -5.9726498272572037e-05 -0.99166907367289991 0.006559003028921262 0.00027125461260125766 -0.00034339296428648192 0.00027125461260125766 -0.19715334996072309 3.7991288250299737e-05 -0.00034339296428648192 3.7991288250299737e-05 -0.99217536862555122 0.0064263069643516746 0.00023737865755672218 -0.0006155945730766943 0.00023737865755672218 -0.1972495842454301 -1.5916343946847933e-05 -0.0006155945730766943 -1.5916343946847933e-05 -0.99246576595436742 0.0081414519587860168 -0.00016495641526212073 -0.00029630801008720398 -0.00016495641526212073 -0.19652256602775384 4.1896406497987648e-06 -0.00029630801008720398 4.1896406497987648e-06 -0.99078475334540528 0.0064729050249867359 6.8466340262687998e-05 -0.00061689926193836397 6.8466340262687998e-05 -0.19705158031002692 0.00034804036788538273 -0.00061689926193836397 0.00034804036788538273 -0.99230099201023825 0.0080146432698975922 5.2408177993169524e-05 -0.00050749249958709219 5.2408177993169524e-05 -0.19666952177460517 0.0002204841904458626 -0.00050749249958709219 0.0002204841904458626 -0.99135043729143568 0.0092099784124680621 -0.00016911629161250235 0.00011534562569994597 -0.00016911629161250235 -0.1962582253286356 -1.0508154063481497e-05 0.00011534562569994597 -1.0508154063481497e-05 -0.9904958822137867 0.0075550479737866438 -0.00013654345504021857 0.00013870143470782261 -0.00013654345504021857 -0.19661931380968187 -1.0973502723630568e-05 0.00013870143470782261 -1.0973502723630568e-05 -0.99103061628580746 0.0075412743329736909 3.7204969513437568e-05 0.00013211474983606392 3.7204969513437568e-05 -0.19680534352822868 -0.00033229418197772143 0.00013211474983606392 -0.00033229418197772143 -0.99122030143404871 0.0060716305355135725 -0.00011478226966257896 0.00029783514391610027 -0.00011478226966257896 -0.19738353090406141 -5.0608163948588057e-06 0.00029783514391610027 -5.0608163948588057e-06 -0.99247371320919342 0.0073708634528940288 0.00018831479843151939 6.4381055029287895e-06 0.00018831479843151939 -0.19700369494001443 -3.1969663494225922e-05 6.4381055029287895e-06 -3.1969663494225922e-05 -0.99212675302153264 0.0058273470591720389 0.00012606416225423273 -0.00083045064059306117 0.00012606416225423273 -0.19746768647069785 -0.00017766621622439249 -0.00083045064059306117 -0.00017766621622439249 -0.99286762902089487 0.0044740572468661699 -6.7724802451151687e-05 -5.9849888502050419e-05 -6.7724802451151687e-05 -0.19798527271944794 7.8416439771578084e-06 -5.9849888502050419e-05 7.8416439771578084e-06 -0.99409114907467011 0.0043877270868910301 -0.00010634966886468912 -0.00031465446546119491 -0.00010634966886468912 -0.19799561892916251 7.0829265464422697e-06 -0.00031465446546119491 7.0829265464422697e-06 -0.99404854988092195 0.002190724643245847 3.0103877580374086e-05 -9.597225887958416e-05 3.0103877580374086e-05 -0.19853972141771378 -9.9098238383055204e-06 -9.597225887958416e-05 -9.9098238383055204e-06 -0.99462221683888263 0.0044316267855067648 0.00010029987384887229 -0.00049289653255973898 0.00010029987384887229 -0.19789067854150102 -0.00018227525038591597 -0.00049289653255973898 -0.00018227525038591597 -0.99356346588847766 0.004786360828568057 0.00010584098755002369 1.814382643424141e-05 0.00010584098755002369 -0.19767894190120822 -2.0001359469065541e-05 1.814382643424141e-05 -2.0001359469065541e-05 -0.99277961206949339 0.0045907110941685314 4.9391659451281168e-05 0.0002672238813196907 4.9391659451281168e-05 -0.19788227388971338 -7.4131983476345595e-07 0.0002672238813196907 -7.4131983476345595e-07 -0.99374672231408989 0.0047415807033423518 -7.4846669510931132e-05 0.00014906584769636133 -7.4846669510931132e-05 -0.19783894231577942 0.00023290691780714079 0.00014906584769636133 0.00023290691780714079 -0.99350459503944488 0.00204370390625086 -3.7513588140435901e-05 -1.3610968153998648e-05 -3.7513588140435901e-05 -0.19872396172177309 -9.3590974394271165e-05 -1.3610968153998648e-05 -9.3590974394271165e-05 -0.99580232141884961 0.0021432778745730172 -9.5469201649726258e-05 -0.00012275575248982262 -9.5469201649726258e-05 -0.19865497036976093 0.00016772836769929356 -0.00012275575248982262 0.00016772836769929356 -0.99562123231445354 0.0018679527969817367 0.00013879690984710798 -0.00010064942105086905 0.00013879690984710798 -0.19858523274200257 -0.00052712433292262384 -0.00010064942105086905 -0.00052712433292262384 -0.99507897722363914 0.0019854657910067797 -4.6741192661953121e-05 -0.00028915291187023295 -4.6741192661953121e-05 -0.1986657287611171 -4.3027897050351704e-06 -0.00028915291187023295 -4.3027897050351704e-06 -0.99552897667426987 0.0021092148021598367 -7.100006413890784e-06 -0.00034100228333322491 -7.100006413890784e-06 -0.19854932925953778 -1.0539337511827895e-05 -0.00034100228333322491 -1.0539337511827895e-05 -0.99458122890073764 0.0019216613371718094 2.6199590772261536e-05 5.0233420715195048e-05 2.6199590772261536e-05 -0.19855023233525676 -7.5548401774529657e-06 5.0233420715195048e-05 -7.5548401774529657e-06 -0.99442256543657914 0.0017816119377697317 -7.3244072614683708e-05 -7.2268414259791042e-05 -7.3244072614683708e-05 -0.19869616753370725 0.00016781223645100427 -7.2268414259791042e-05 0.00016781223645100427 -0.99513324678065207 0.0014498727225112063 -0.0001611097512421604 -0.00027242116269214639 -0.0001611097512421604 -0.19878445731456443 8.9384205219422697e-05 -0.00027242116269214639 8.9384205219422697e-05 -0.9954461107011191 0.0015470488675757516 -5.5041692062356523e-05 0.00016511789504946285 -5.5041692062356523e-05 -0.19877462353414693 8.4794620191648642e-06 0.00016511789504946285 8.4794620191648642e-06 -0.99565007063860556 0.0022371247228381019 -0.00018312438062261636 0.00025115614073563928 -0.00018312438062261636 -0.19852082276182101 -1.5528311953234567e-05 0.00025115614073563928 -1.5528311953234567e-05 -0.99453081351479089 0.001400797566101411 -0.00024592281185460588 -0.00014012730695067699 -0.00024592281185460588 -0.19866926488319114 -2.7156369679648407e-06 -0.00014012730695067699 -2.7156369679648407e-06 -0.99480499778751574 0.0013894615633647245 -0.00034264928196516155 -0.00027565667581158637 -0.00034264928196516155 -0.19882296633681723 8.581962519019215e-05 -0.00027565667581158637 8.581962519019215e-05 -0.99585364439324864 0.001583613400356676 -0.00023251517306773243 -0.00019394258358457206 -0.00023251517306773243 -0.19870571207846949 0.00011864769315136914 -0.00019394258358457206 0.00011864769315136914 -0.9959115710472124 0.0050055698535218518 9.5008977826845193e-06 -0.00035535733457692231 9.5008977826845193e-06 -0.19781265304721402 -3.404288123942667e-05 -0.00035535733457692231 -3.404288123942667e-05 -0.99372296689503647 0.0026940213339067265 -2.9923686187413651e-05 -0.00055788022955657879 -2.9923686187413651e-05 -0.19834470747527139 -4.4809124707417824e-05 -0.00055788022955657879 -4.4809124707417824e-05 -0.99431891568107345 0.0023147418279307885 0.0010928184679950105 -0.00064607626787477335 0.0010928184679950105 -0.19792707410659283 5.1072338577595744e-05 -0.00064607626787477335 5.1072338577595744e-05 -0.99432702783511573 0.0031049978875842821 0.00019312195038902042 -0.00047873877588489044 0.00019312195038902042 -0.19833180817603413 -0.0002080309688877735 -0.00047873877588489044 -0.0002080309688877735 -0.99491946771946171 0.0047027726738698705 -2.5537033735148292e-06 -0.0010937185038371044 -2.5537033735148292e-06 -0.19794325447596806 -4.4590127142862812e-06 -0.0010937185038371044 -4.4590127142862812e-06 -0.9942745868177445 0.00144891569628669 -0.00032995029731838445 -9.1609078515797471e-05 -0.00032995029731838445 -0.19863762737449908 2.0606687215929398e-05 -9.1609078515797471e-05 2.0606687215929398e-05 -0.99544088750396842 0.00082505400087412584 -0.00023890384877785873 -0.00056298018461736765 -0.00023890384877785873 -0.19898767705292841 0.00020654555984839229 -0.00056298018461736765 0.00020654555984839229 -0.99652145428307382 0.0025953271768309333 0.00023908427434342984 -0.00093116245232760519 0.00023908427434342984 -0.19865851868495241 -3.7683822081469032e-05 -0.00093116245232760519 -3.7683822081469032e-05 -0.99603627322594035 0.0026942297253933489 -6.3223961575751994e-05 -0.00089214762962741556 -6.3223961575751994e-05 -0.19894198923356987 -4.0275275830392587e-05 -0.00089214762962741556 -4.0275275830392587e-05 -0.9960689888437082 0.0026325267761503346 9.9773590857380114e-06 -0.00037114038966973295 9.9773590857380114e-06 -0.19834553599771695 5.5031824381331085e-05 -0.00037114038966973295 5.5031824381331085e-05 -0.99421547989219994 0.0030364610108941092 -0.00011629865735629811 -0.00020472317475814239 -0.00011629865735629811 -0.19834021191686274 -0.0005059450295080703 -0.00020472317475814239 -0.0005059450295080703 -0.99516466543549575 0.0032508065471976155 8.0798621992063345e-05 -0.0004360245003012797 8.0798621992063345e-05 -0.19844107206207057 0.00059980104067702822 -0.0004360245003012797 0.00059980104067702822 -0.99462753911012947 0.0033758972374787755 -8.9219526065934847e-05 -0.00045529183888537439 -8.9219526065934847e-05 -0.19801932396440136 3.9714604178398005e-05 -0.00045529183888537439 3.9714604178398005e-05 -0.99368271332564273 0.0029361142694652731 5.6504794052509007e-05 -0.00020159986318618595 5.6504794052509007e-05 -0.19873277473815582 4.8216113835986008e-06 -0.00020159986318618595 4.8216113835986008e-06 -0.99599151704978373 0.0030962760517437848 -0.00044400675184886408 -0.00030427404389474222 -0.00044400675184886408 -0.19819401680351573 4.6464904294996057e-05 -0.00030427404389474222 4.6464904294996057e-05 -0.99409016987925947 0.0034070386245348971 1.4374775030530767e-05 -0.00094665518057326058 1.4374775030530767e-05 -0.19832269762571358 -0.00014002181305097089 -0.00094665518057326058 -0.00014002181305097089 -0.99426835989246531 0.003479533753154046 -2.6495384624333383e-05 -0.00098357993942159438 -2.6495384624333383e-05 -0.19806160693735766 2.399598252730839e-05 -0.00098357993942159438 2.399598252730839e-05 -0.99400194028948452 0.0022608118820440781 0.00016765900390266377 -0.00076053411427934314 0.00016765900390266377 -0.19874109657853067 5.1061259592199981e-06 -0.00076053411427934314 5.1061259592199981e-06 -0.99620471781684339 0.0022327469011708123 2.309505993396839e-05 -0.00082828200029005927 2.309505993396839e-05 -0.19880987726079802 5.5282216727792211e-05 -0.00082828200029005927 5.5282216727792211e-05 -0.99614230241718582 0.002155250300455408 8.305542114271312e-05 -0.00036319182903682412 8.305542114271312e-05 -0.1984993922721969 -6.9717597195206871e-05 -0.00036319182903682412 -6.9717597195206871e-05 -0.99445125214313035 0.0022955321496259395 1.6210259306492574e-05 -0.00030774678322942339 1.6210259306492574e-05 -0.19837691039990246 -3.5276045580845405e-05 -0.00030774678322942339 -3.5276045580845405e-05 -0.9944868733541008 0.0021613243168557145 6.1077263115864476e-05 -3.7758656171671401e-05 6.1077263115864476e-05 -0.1986284346115138 -1.5036994933881331e-05 -3.7758656171671401e-05 -1.5036994933881331e-05 -0.995682063771274 0.0020667876177330458 0.00012372852851186354 -8.145296028438942e-06 0.00012372852851186354 -0.19876986452341494 -5.8045347594418151e-05 -8.145296028438942e-06 -5.8045347594418151e-05 -0.99575289334707717 0.0045416826121802423 -5.3039765208174485e-06 0.00032920702582636685 -5.3039765208174485e-06 -0.19778180824233055 -6.7585536791259226e-05 0.00032920702582636685 -6.7585536791259226e-05 -0.9936644792428021 0.0048249514762820876 -1.377303207515791e-05 -0.00030413936140222253 -1.377303207515791e-05 -0.19761391439827303 4.133685545701371e-05 -0.00030413936140222253 4.133685545701371e-05 -0.99310455562107136 0.0020557986656459803 -1.6220951711966461e-05 -6.0063464971782388e-05 -1.6220951711966461e-05 -0.19887749469606064 -7.4038126398168203e-05 -6.0063464971782388e-05 -7.4038126398168203e-05 -0.9957650534890885 0.0048607460131414593 7.4772337392372079e-05 0.00029100531681826964 7.4772337392372079e-05 -0.19768011418674641 -7.3441981517129126e-06 0.00029100531681826964 -7.3441981517129126e-06 -0.99347895512576623 0.0024628140171643609 -5.9581455400408055e-05 -0.00039211390145138525 -5.9581455400408055e-05 -0.19837255895625067 -1.4435634929144125e-05 -0.00039211390145138525 -1.4435634929144125e-05 -0.99439681680038572 0.0046348892182996315 -3.3319504782675475e-05 0.00025836646068588332 -3.3319504782675475e-05 -0.19777652394240847 -1.6507040520546929e-05 0.00025836646068588332 -1.6507040520546929e-05 -0.99354660749930102 0.0044772339755017598 1.2956161618771876e-05 0.00027827098397664274 1.2956161618771876e-05 -0.19777324532299406 -2.8472632071365697e-05 0.00027827098397664274 -2.8472632071365697e-05 -0.99373913572595851 0.0016174528934177728 2.6809379015565535e-05 0.00023461535590221363 2.6809379015565535e-05 -0.1988128940992103 -3.4807127618557019e-07 0.00023461535590221363 -3.4807127618557019e-07 -0.99559952486144698 0.0020533758457974781 -0.00012142717139896218 -0.00011683779526609655 -0.00012142717139896218 -0.19861378471289881 0.00035783818135801002 -0.00011683779526609655 0.00035783818135801002 -0.99488865509517366 0.0014267736325382905 -7.4760196386949979e-05 0.00030127300214697348 -7.4760196386949979e-05 -0.198824832770302 -8.1271880579501618e-06 0.00030127300214697348 -8.1271880579501618e-06 -0.99564114861224517 0.0012564021940275061 5.9113004805963944e-05 0.00026428364312089392 5.9113004805963944e-05 -0.19890309789877317 -5.8584114202120396e-05 0.00026428364312089392 -5.8584114202120396e-05 -0.99560039899301833 0.0013856918033065546 -8.4416228237167636e-06 0.0001817558168541533 -8.4416228237167636e-06 -0.19889625259103769 -3.257710206269465e-06 0.0001817558168541533 -3.257710206269465e-06 -0.99547981611131453 0.0029829305960316632 -4.1449738473495254e-05 -0.00057172000601307671 -4.1449738473495254e-05 -0.19817667518912613 -0.00013142912239022531 -0.00057172000601307671 -0.00013142912239022531 -0.99390943793752873 0.0015391324979210919 0.00010045313189910966 0.00015127468671360491 0.00010045313189910966 -0.19866418908500316 -4.7014625488224997e-05 0.00015127468671360491 -4.7014625488224997e-05 -0.9954034289542476 0.0017448836642473542 -0.00010492594278438217 0.00025667684869828955 -0.00010492594278438217 -0.19874047393854249 3.2131417942005136e-05 0.00025667684869828955 3.2131417942005136e-05 -0.99545079932686176 0.0030266719302092151 0.0002147105147039167 -0.00056053118881466829 0.0002147105147039167 -0.19815783437991155 -9.2188142840954335e-05 -0.00056053118881466829 -9.2188142840954335e-05 -0.99389367643242676 0.0049720617762152863 -7.5024068777338783e-05 0.00029462878614620224 -7.5024068777338783e-05 -0.1975966283108892 -9.717737511448412e-06 0.00029462878614620224 -9.717737511448412e-06 -0.99343989585242976 0.0022014501281823473 4.8053726033784548e-05 -0.00036315020267974063 4.8053726033784548e-05 -0.19831922783452788 3.8295424758374996e-05 -0.00036315020267974063 3.8295424758374996e-05 -0.99439122839075611 0.002263489182257522 -0.00013840257852088846 -0.00019294167484745772 -0.00013840257852088846 -0.19842168166916085 6.6143646086288914e-05 -0.00019294167484745772 6.6143646086288914e-05 -0.99436829190096587 0.0020172456899400226 -0.00014136213020206717 -3.8223184420371759e-05 -0.00014136213020206717 -0.19878066174513129 8.0843812781172808e-05 -3.8223184420371759e-05 8.0843812781172808e-05 -0.99591590765019233 0.0016614204246748697 -5.8512551410889325e-05 0.00030499836167113202 -5.8512551410889325e-05 -0.1988494064318968 -4.9540821752737542e-05 0.00030499836167113202 -4.9540821752737542e-05 -0.99558147266229791 0.0016303344886363588 -6.8659563429936761e-05 0.00032486701253351676 -6.8659563429936761e-05 -0.19872987554246471 -8.6665189607150643e-05 0.00032486701253351676 -8.6665189607150643e-05 -0.9955532983808445 0.0015417551469336238 -5.6871951910956734e-05 0.00028674575202570845 -5.6871951910956734e-05 -0.19899009024630493 9.2920077939817602e-05 0.00028674575202570845 9.2920077939817602e-05 -0.99581199080685212 0.0050215585267398208 4.6264034815716285e-05 -0.00015275483174609361 4.6264034815716285e-05 -0.19776224888167951 0.00012148989759869222 -0.00015275483174609361 0.00012148989759869222 -0.99386162663264965 0.0048494057979284189 0.00013070612263427528 0.0001693071697585881 0.00013070612263427528 -0.19761523246525861 -2.8042869687333685e-06 0.0001693071697585881 -2.8042869687333685e-06 -0.99296983441425835 0.0029280486360150904 -0.00013698589647302974 -0.00051318277030237835 -0.00013698589647302974 -0.1986514364106523 0.00014040516725510876 -0.00051318277030237835 0.00014040516725510876 -0.99541477331242678 0.0028930033379548359 -8.1492194757395688e-05 -0.00058165552912869956 -8.1492194757395688e-05 -0.19844377549490416 0.00010450074276292798 -0.00058165552912869956 0.00010450074276292798 -0.99428487777870944 0.0029982375972564083 -0.00024805514435720448 -0.00034445578177905167 -0.00024805514435720448 -0.19822199301617435 9.359621540078189e-05 -0.00034445578177905167 9.359621540078189e-05 -0.99438618682562496 0.0028380729641575009 -0.00016682053661122202 -0.00053530853778124832 -0.00016682053661122202 -0.19824798547899922 9.1807755655093359e-05 -0.00053530853778124832 9.1807755655093359e-05 -0.9942710933710015 0.0047294200668508979 1.2787829546013171e-05 0.0002522588183425413 1.2787829546013171e-05 -0.19772157376250271 0.00026703377577813603 0.0002522588183425413 0.00026703377577813603 -0.99332615347578723 0.0014592576190857881 0.00029762945352538282 -0.00026213256284268738 0.00029762945352538282 -0.19846773291591474 -8.5496202878676542e-05 -0.00026213256284268738 -8.5496202878676542e-05 -0.99468151899412871 0.0012387965035207671 0.00029418548852614838 -0.00045704069843144346 0.00029418548852614838 -0.19869629963490731 -0.00021487412618320656 -0.00045704069843144346 -0.00021487412618320656 -0.99557192438445918 0.0023214705903390875 0.00013065896807229631 0.00034429341380829993 0.00013065896807229631 -0.19846508103683183 9.9509045101479347e-06 0.00034429341380829993 9.9509045101479347e-06 -0.99455786955352321 0.0013508876271601264 0.00026499159098468438 -0.00024250970619730389 0.00026499159098468438 -0.19863769007369758 -0.00018924869262909594 -0.00024250970619730389 -0.00018924869262909594 -0.99543400046879371 0.0015036835385946671 -1.1351861212744907e-05 0.00036330054618842754 -1.1351861212744907e-05 -0.19873154790014111 1.4273881132563543e-05 0.00036330054618842754 1.4273881132563543e-05 -0.99587431240791946 0.0019513416747760485 8.0304189126969194e-05 2.0297567584321257e-05 8.0304189126969194e-05 -0.19857423401393515 -0.0001835569724835092 2.0297567584321257e-05 -0.0001835569724835092 -0.99521430466518457 0.0049824585991532083 -7.6999371436087209e-05 -0.00045185729750729577 -7.6999371436087209e-05 -0.19772864130276127 -0.00029189030890971096 -0.00045185729750729577 -0.00029189030890971096 -0.99348707682569171 0.0045088395078125652 -0.00016374514884457571 5.1884017778533738e-05 -0.00016374514884457571 -0.19792554756277936 4.5916552857494267e-06 5.1884017778533738e-05 4.5916552857494267e-06 -0.99401979631651227 0.0077486550818108664 9.0325766079310611e-05 -0.00046954700737039667 9.0325766079310611e-05 -0.19690338979140767 -3.6378936544186058e-05 -0.00046954700737039667 -3.6378936544186058e-05 -0.9922363375421055 0.0052153121737683328 0.00011314288261226204 -0.00023764160455466699 0.00011314288261226204 -0.1975333039863979 -4.1045196134625872e-05 -0.00023764160455466699 -4.1045196134625872e-05 -0.99285142258202941 0.006177322806726452 0.00016471394014828364 0.00024650789437576602 0.00016471394014828364 -0.19728662078909145 1.4120214974715777e-06 0.00024650789437576602 1.4120214974715777e-06 -0.99244390914316372 0.0092893530173799328 0.00016629874322651519 0.0001865519300833682 0.00016629874322651519 -0.19616088339152901 8.8512355290794861e-06 0.0001865519300833682 8.8512355290794861e-06 -0.99030690352267847 0.0075247699139628938 -0.00015283455743416569 -6.9421124667422212e-06 -0.00015283455743416569 -0.19690897310788955 1.7406167492277577e-05 -6.9421124667422212e-06 1.7406167492277577e-05 -0.99209413514199329 0.0081478011390382389 -2.665641732976349e-05 -0.00050416174728917546 -2.665641732976349e-05 -0.19661445716856615 -0.00022237334793440434 -0.00050416174728917546 -0.00022237334793440434 -0.99142285918978346 0.0082357647774926046 0.00014181939574520265 -0.00036781450002179583 0.00014181939574520265 -0.19647552943833108 -2.7012632616119081e-05 -0.00036781450002179583 -2.7012632616119081e-05 -0.9906134288133468 0.0082033627367311401 0.00014477651049922479 -0.00035695436444786732 0.00014477651049922479 -0.19649687630222465 -1.6120619994064445e-05 -0.00035695436444786732 -1.6120619994064445e-05 -0.99075552965038638 0.00777342646368398 -9.8739870358704546e-06 0.00012921436060973142 -9.8739870358704546e-06 -0.19670878061086727 0.0004148937778361006 0.00012921436060973142 0.0004148937778361006 -0.99105837009037012 0.0078394516728622632 0.00013383812705033629 9.6508367071150553e-05 0.00013383812705033629 -0.19663258871435252 -8.9352807299504401e-06 9.6508367071150553e-05 -8.9352807299504401e-06 -0.99081179321697099 0.0058624197236561522 -7.3422868808362956e-05 0.0002994195989800847 -7.3422868808362956e-05 -0.19735974836083164 -0.00022568456466659503 0.0002994195989800847 -0.00022568456466659503 -0.99273535234335897 0.0077434135222316791 0.00019728812673519032 -0.00043902740364720749 0.00019728812673519032 -0.19683854673207926 -0.00029750142159928883 -0.00043902740364720749 -0.00029750142159928883 -0.99191632614849201 0.0058604717386398497 -0.00014765378002168361 0.00030098177542270697 -0.00014765378002168361 -0.19736616074555674 5.8767597160338188e-06 0.00030098177542270697 5.8767597160338188e-06 -0.99272809146007113 0.0088611458147204725 -0.00011774798698343522 0.00016204740349825774 -0.00011774798698343522 -0.19636570477498055 -8.506201219364592e-06 0.00016204740349825774 -8.506201219364592e-06 -0.99055524265239725 0.0088702275789162566 -7.0032223123669399e-05 0.00018241338346418681 -7.0032223123669399e-05 -0.1963183458844647 2.2596700228083577e-05 0.00018241338346418681 2.2596700228083577e-05 -0.99051806571283429 0.0070706543234911419 -3.4194369710146197e-05 -0.00078001139699515588 -3.4194369710146197e-05 -0.19700048432693509 0.00031683053226213035 -0.00078001139699515588 0.00031683053226213035 -0.99217947845537935 0.0081685548387392531 -3.0529853495987432e-05 -0.00071177489868523569 -3.0529853495987432e-05 -0.19668762773703477 7.2652097563574713e-05 -0.00071177489868523569 7.2652097563574713e-05 -0.99164617971965163 0.0072962499771551392 -0.00038156419340026481 -0.00052139818830732043 -0.00038156419340026481 -0.1969023370466006 0.00020182429097703736 -0.00052139818830732043 0.00020182429097703736 -0.9919272884388225 0.0077844901184452864 -0.0001022984810900642 4.9180445978931018e-05 -0.0001022984810900642 -0.1965581667058367 2.2728733188629706e-06 4.9180445978931018e-05 2.2728733188629706e-06 -0.99072885667652 0.0088544777597558411 7.3979505326662545e-05 9.4110184163941548e-05 7.3979505326662545e-05 -0.19632776683822034 -6.9627210070791196e-06 9.4110184163941548e-05 -6.9627210070791196e-06 -0.99047221859104106 0.0057370147959506235 0.00015033590642297032 0.00011531275296782478 0.00015033590642297032 -0.1974900978736478 1.227971679493452e-05 0.00011531275296782478 1.227971679493452e-05 -0.99326396041607767 0.0078424660470870489 -4.4679954648235819e-05 -0.001176210731587024 -4.4679954648235819e-05 -0.19681132581279148 -8.5004812579225764e-05 -0.001176210731587024 -8.5004812579225764e-05 -0.99198915492952477 0.0070930349634496515 0.00020610695696552007 -0.0013774204631314957 0.00020610695696552007 -0.19707113612683036 -3.8017126610667695e-05 -0.0013774204631314957 -3.8017126610667695e-05 -0.99224235515471171 0.0081974655069368407 -4.1937643127463999e-05 -0.0011152947946267422 -4.1937643127463999e-05 -0.19647764536925744 -0.00055601300293894873 -0.0011152947946267422 -0.00055601300293894873 -0.99054575636391617 0.0070764227965499638 -0.00017548266786317299 -0.00012229551295894758 -0.00017548266786317299 -0.19718983632187248 -2.1494868620075547e-05 -0.00012229551295894758 -2.1494868620075547e-05 -0.99306000116277204 0.008160144280022541 -4.937262483605652e-05 -0.00062972381891593376 -4.937262483605652e-05 -0.19648145831259184 2.4133354810051966e-05 -0.00062972381891593376 2.4133354810051966e-05 -0.99061874758522106 0.008160145805405028 -3.2875238601223753e-05 -0.00064396058700000314 -3.2875238601223753e-05 -0.19648813443373619 -1.7432356713815989e-05 -0.00064396058700000314 -1.7432356713815989e-05 -0.99070615454992095 0.0054168311318012474 0.0001060734740870729 -0.00056845110278924693 0.0001060734740870729 -0.1975936382746768 -9.7823624109677487e-05 -0.00056845110278924693 -9.7823624109677487e-05 -0.99346239579989337 0.0053966600292825809 6.2235870430367665e-05 -0.00056549223931579018 6.2235870430367665e-05 -0.19745962239217296 -6.3830041454049358e-05 -0.00056549223931579018 -6.3830041454049358e-05 -0.99271279164195403 0.0087601227800419013 0.00021840559307693906 -0.00072985861561314369 0.00021840559307693906 -0.196342338976498 4.0396079451332501e-05 -0.00072985861561314369 4.0396079451332501e-05 -0.99047538697685256 0.0070583300033644492 -0.00029204566195656329 -0.00090268377449420623 -0.00029204566195656329 -0.19703794678755246 4.2062586184332673e-05 -0.00090268377449420623 4.2062586184332673e-05 -0.99244139054316249 0.0077013238384680584 2.5890672283079847e-05 -0.00033392015836114508 2.5890672283079847e-05 -0.19687690262819246 -7.0669002161738437e-05 -0.00033392015836114508 -7.0669002161738437e-05 -0.99210369085831795 0.0080547497768240217 2.7794563613902665e-05 -0.00066239258498762554 2.7794563613902665e-05 -0.19651841369502399 7.2052504130303008e-05 -0.00066239258498762554 7.2052504130303008e-05 -0.990661131373336 0.0070435582307651901 1.3201911399642279e-05 -0.0014564754011073822 1.3201911399642279e-05 -0.19702111331849514 9.4011893225498522e-06 -0.0014564754011073822 9.4011893225498522e-06 -0.992202849149321 0.0083497010000268546 0.00023669037501983115 -0.00049193563388860717 0.00023669037501983115 -0.19672397058881785 -0.00022347756842722166 -0.00049193563388860717 -0.00022347756842722166 -0.99197839036909263 0.0087027741766629862 0.00013434236391862342 -0.00064887232442850662 0.00013434236391862342 -0.19632946893698405 -7.3221448779747789e-06 -0.00064887232442850662 -7.3221448779747789e-06 -0.99033999896192149 0.0085046242012202233 0.00010000426327290962 -0.00086452784354273948 0.00010000426327290962 -0.19672667713841574 0.00012999554671155877 -0.00086452784354273948 0.00012999554671155877 -0.9921264606171234 0.005320917962586269 -3.3522670001391358e-05 -0.00074712197370896405 -3.3522670001391358e-05 -0.19745108958735658 1.6109673976805183e-05 -0.00074712197370896405 1.6109673976805183e-05 -0.99289337668460398 0.0031188433838471585 -0.00025814286813211513 -0.00014849339715785476 -0.00025814286813211513 -0.19815616241603051 -1.3894360033822606e-05 -0.00014849339715785476 -1.3894360033822606e-05 -0.99415823703010986 0.002861147719432737 -0.00023518854763937561 -0.00053052193385993984 -0.00023518854763937561 -0.19843656799328879 -3.9276806508836692e-06 -0.00053052193385993984 -3.9276806508836692e-06 -0.99531270243246051 0.0053541048392383023 1.6148046270584595e-05 -0.00063870056374193407 1.6148046270584595e-05 -0.19771789406187068 0.00012632598198547562 -0.00063870056374193407 0.00012632598198547562 -0.99426508764318644 0.0027540530649239735 -0.0001978728937944642 -0.00044514074983681429 -0.0001978728937944642 -0.19834930194338321 0.00016825218359306504 -0.00044514074983681429 0.00016825218359306504 -0.99492156537722309 0.0014745937824713375 0.0002047477578258851 -0.00027170381316565795 0.0002047477578258851 -0.19859309649290646 2.4211609620850005e-05 -0.00027170381316565795 2.4211609620850005e-05 -0.99523592983128828 0.0015819451316456679 3.167389864633531e-05 -0.00023897085047186462 3.167389864633531e-05 -0.19896005941635209 -0.00010162491509507765 -0.00023897085047186462 -0.00010162491509507765 -0.99675685176345041 0.001243912077064202 0.00021741636687642253 -0.0004674014279779648 0.00021741636687642253 -0.19892621122477988 -0.00022171089653044707 -0.0004674014279779648 -0.00022171089653044707 -0.99650049887704539 0.0015597929180873327 0.0001278918274304018 -0.00027983048842838976 0.0001278918274304018 -0.19871340635158963 -0.00010214639137939852 -0.00027983048842838976 -0.00010214639137939852 -0.99591716532591845 0.0026543393230027412 7.9532805616274642e-05 -0.00078285061570049219 7.9532805616274642e-05 -0.19884947888335164 -1.0972808812459434e-05 -0.00078285061570049219 -1.0972808812459434e-05 -0.99613222229196219 0.0024958753020293267 -0.00022381224307881304 -0.00081114797286008233 -0.00022381224307881304 -0.19865201923579595 5.7305916946415181e-05 -0.00081114797286008233 5.7305916946415181e-05 -0.99610683796239186 0.0031922766017882798 0.00043056132985270395 -0.00041465626276473988 0.00043056132985270395 -0.19817961060719316 1.7198296779763478e-05 -0.00041465626276473988 1.7198296779763478e-05 -0.99406497307476671 0.0029319671341270226 1.8592864056408214e-05 -7.1503835832209539e-05 1.8592864056408214e-05 -0.19869477167553362 -5.9487114469736202e-05 -7.1503835832209539e-05 -5.9487114469736202e-05 -0.99599932216642184 0.0034371013604453937 4.0155566304954357e-05 -0.00040156211921382745 4.0155566304954357e-05 -0.19808071120580806 1.6777362576436694e-05 -0.00040156211921382745 1.6777362576436694e-05 -0.99358591494528814 0.0030612419458918572 3.7181373347355075e-05 -0.00043151104346633717 3.7181373347355075e-05 -0.19860367628770997 4.5423629541629928e-05 -0.00043151104346633717 4.5423629541629928e-05 -0.99558623718907135 0.0032096943334855021 -3.946234510263715e-05 -0.00029875669558332429 -3.946234510263715e-05 -0.19851734542307453 -0.0006239247025102701 -0.00029875669558332429 -0.0006239247025102701 -0.99463008871341119 0.0030272681340021423 0.0002960873496219295 -0.00053425119619333883 0.0002960873496219295 -0.19841384770436563 -0.00023623175346737524 -0.00053425119619333883 -0.00023623175346737524 -0.99519392694858144 0.0030877720426690236 9.2925955967012252e-05 -0.00013566631208727919 9.2925955967012252e-05 -0.19836758882365751 0.00040435775492408954 -0.00013566631208727919 0.00040435775492408954 -0.99522324407516538 0.0020575288362645883 6.0435463768892511e-06 5.6012870793098468e-05 6.0435463768892511e-06 -0.19880536707617519 5.3813528690271895e-05 5.6012870793098468e-05 5.3813528690271895e-05 -0.99594347908005298 0.0021871129121991961 -0.00016312139020626494 -0.00072268930330166015 -0.00016312139020626494 -0.19867069936073778 1.4325821029559371e-05 -0.00072268930330166015 1.4325821029559371e-05 -0.99611232216508361 0.0039566945776686735 0.0005807754696196464 -0.00046500094554197124 0.0005807754696196464 -0.19816203887499417 -0.00030557281801746328 -0.00046500094554197124 -0.00030557281801746328 -0.99459978135063754 0.0040986415036038393 -0.00057487933476149113 -0.00018453580636373923 -0.00057487933476149113 -0.19850407981440837 -0.00028902436973643475 -0.00018453580636373923 -0.00028902436973643475 -0.99611810451748051 0.0017953997330181215 -0.00020741370843732133 0.00016949178344927152 -0.00020741370843732133 -0.19895866084415037 0.0001163950702510741 0.00016949178344927152 0.0001163950702510741 -0.99684543061824415 0.0028084921406174163 4.5913170556826467e-05 -0.00033981129050741909 4.5913170556826467e-05 -0.19880677320448414 -1.143508834478002e-05 -0.00033981129050741909 -1.143508834478002e-05 -0.9965870264327612 0.0043097044935936912 -0.0011451073148336193 -0.00045167032349718861 -0.0011451073148336193 -0.19811213863604837 0.00056000450826387826 -0.00045167032349718861 0.00056000450826387826 -0.99480069333491228 0.0037692140796046214 7.333048758879542e-05 -0.0010322208745812411 7.333048758879542e-05 -0.19808250185290899 -8.612136201946452e-05 -0.0010322208745812411 -8.612136201946452e-05 -0.9939436502080663 0.0023370697456782663 -0.00019620898912289854 -0.00036003461073930154 -0.00019620898912289854 -0.19848333385310024 -0.00013882109305235479 -0.00036003461073930154 -0.00013882109305235479 -0.99497677518641714 0.0033911160535614604 0.00059111655620597715 -0.00078868952215294108 0.00059111655620597715 -0.19860312133498559 0.00017064461565263755 -0.00078868952215294108 0.00017064461565263755 -0.99678695015741647 0.0018130101213548189 -0.000351020723441172 -0.00012358720562910541 -0.000351020723441172 -0.1989272094607405 0.00013725724023805341 -0.00012358720562910541 0.00013725724023805341 -0.99687914341263495 0.0023941486288490132 -0.00038775836101982854 -0.00039488115884078745 -0.00038775836101982854 -0.19879561430746451 8.6539501236271299e-05 -0.00039488115884078745 8.6539501236271299e-05 -0.99694509338137216 0.001928392969035464 0.00016180160944529755 -0.00069868790029747885 0.00016180160944529755 -0.19916695423037345 -8.5781389928873963e-05 -0.00069868790029747885 -8.5781389928873963e-05 -0.99688055271381737 0.0025896759595939178 0.00023001632750265205 -0.00037329165728416935 0.00023001632750265205 -0.19890086907213878 -5.273999037269661e-06 -0.00037329165728416935 -5.273999037269661e-06 -0.9966510553551311 0.0024213020485150533 -4.1951014861571953e-05 -4.5197571760691169e-05 -4.1951014861571953e-05 -0.19872503115189383 -0.00034348963972863356 -4.5197571760691169e-05 -0.00034348963972863356 -0.99652529727301897 0.0071336666758557432 0.00017502481018436393 -0.0010605013926818785 0.00017502481018436393 -0.19734225395298149 -4.6954329690152008e-05 -0.0010605013926818785 -4.6954329690152008e-05 -0.99394052864106486 0.0023869011795553119 0.00010662977163698552 -0.00031016634314418035 0.00010662977163698552 -0.198554913608049 -1.8534023882521566e-05 -0.00031016634314418035 -1.8534023882521566e-05 -0.99528361773442242 0.002366366849803514 0.00018670419701457555 -0.00025712859704452029 0.00018670419701457555 -0.19876571007753308 0.00033540733772274844 -0.00025712859704452029 0.00033540733772274844 -0.9953501934860105 0.002401608124873611 2.1824327622002264e-05 2.8747499236092544e-05 2.1824327622002264e-05 -0.19893731217237282 -1.4148173806960429e-05 2.8747499236092544e-05 -1.4148173806960429e-05 -0.99668290987980712 0.0016617446689211057 0.00012670101056687439 -0.00018712149344257689 0.00012670101056687439 -0.1990666607411935 5.1659330023157146e-05 -0.00018712149344257689 5.1659330023157146e-05 -0.9975544874968918 0.0014753876241824226 0.00029778703176889859 -0.00034031712699955641 0.00029778703176889859 -0.19898003352526705 -0.00010229572277842269 -0.00034031712699955641 -0.00010229572277842269 -0.99684965014463378 0.0015022861558271483 0.00015715647232458495 -0.00033477908535956002 0.00015715647232458495 -0.19873815829802011 0.00016674108264291831 -0.00033477908535956002 0.00016674108264291831 -0.99556840808354519 0.005354715673276389 -1.0239188034704238e-05 -0.00045754695984867588 -1.0239188034704238e-05 -0.19780167985212549 -1.8202522254151532e-05 -0.00045754695984867588 -1.8202522254151532e-05 -0.99467883160882753 0.0026113474635976117 -0.00026332181556668342 -0.00019940170907850607 -0.00026332181556668342 -0.19846632598977329 7.2609647620902606e-05 -0.00019940170907850607 7.2609647620902606e-05 -0.99526921755592068 0.0080787847229218945 -1.888381138682054e-05 -0.00066786236339977378 -1.888381138682054e-05 -0.19672617708812712 -0.00015609403484409534 -0.00066786236339977378 -0.00015609403484409534 -0.99177185437343995 0.0068523855054782867 8.6197641456066854e-05 -0.0014543332570154111 8.6197641456066854e-05 -0.1972071128457078 2.790017103904141e-06 -0.0014543332570154111 2.790017103904141e-06 -0.99297843257911289 0.0057282329564698475 -3.678958548689834e-05 -0.00081245990203726581 -3.678958548689834e-05 -0.19761623897870839 0.00012628862865160517 -0.00081245990203726581 0.00012628862865160517 -0.99398697443738682 0.0085814312441363505 -7.6889179136626853e-05 -0.0012458750045860612 -7.6889179136626853e-05 -0.196757994911402 6.9718470871171778e-05 -0.0012458750045860612 6.9718470871171778e-05 -0.99235929718281479 0.0071922823339928277 -0.00017193035477105792 -6.1590689190094139e-05 -0.00017193035477105792 -0.19711024017741752 -1.0269032915122267e-06 -6.1590689190094139e-05 -1.0269032915122267e-06 -0.99291188419124632 0.0085343734935546811 -1.109764950044237e-05 -0.0011427147863296572 -1.109764950044237e-05 -0.19640513031521478 -8.3398137338708267e-05 -0.0011427147863296572 -8.3398137338708267e-05 -0.99055792769725981 0.0064220305347042483 7.4441840258263211e-05 -0.0007836364866918577 7.4441840258263211e-05 -0.19755530956189582 -7.5194700157946159e-06 -0.0007836364866918577 -7.5194700157946159e-06 -0.99429398752278431 0.0082338810788653571 -1.4565653407805862e-05 -0.00038663321628307212 -1.4565653407805862e-05 -0.19661005360605222 5.5508689057681693e-05 -0.00038663321628307212 5.5508689057681693e-05 -0.99128097974515983 0.0088488283170661403 4.0907360639834178e-05 -0.0012991878108602473 4.0907360639834178e-05 -0.19632455487571443 -2.5682155139317153e-05 -0.0012991878108602473 -2.5682155139317153e-05 -0.99057325296749799 0.0076114154420579005 5.5670482533098521e-05 -0.00029735038542121062 5.5670482533098521e-05 -0.19702256511706273 -9.2809281812433753e-05 -0.00029735038542121062 -9.2809281812433753e-05 -0.9928547142947961 0.008158798578037918 -0.00019036050385240838 -0.00064842016554690629 -0.00019036050385240838 -0.19656730781698595 0.00053781703638211553 -0.00064842016554690629 0.00053781703638211553 -0.9909141160917383 0.0081019576543858163 -7.067386096226404e-05 -0.0013803027206948926 -7.067386096226404e-05 -0.19706426923134246 -1.6641065174738401e-05 -0.0013803027206948926 -1.6641065174738401e-05 -0.99330254882849123 0.0086216775858161121 -8.322772064288866e-05 -0.0011511470548126734 -8.322772064288866e-05 -0.19632364102726862 -7.6264631401645744e-05 -0.0011511470548126734 -7.6264631401645744e-05 -0.99052300682963113 0.0072462918656177044 0.00022288680995219244 -0.00024897100344978274 0.00022288680995219244 -0.19715958462893263 -5.4148475620463543e-05 -0.00024897100344978274 -5.4148475620463543e-05 -0.99283556917916216 0.011890200477961965 -7.9383199165368383e-05 -0.0016992861186708175 -7.9383199165368383e-05 -0.19554888459152475 -3.5254592478661806e-05 -0.0016992861186708175 -3.5254592478661806e-05 -0.98998427493384522 0.0070237481807987057 0.00071181287566464749 -0.0013372078935302012 0.00071181287566464749 -0.19711761233243652 -0.00055142397657692577 -0.0013372078935302012 -0.00055142397657692577 -0.99283619633619158 0.0080200256627513122 -0.00046368521709919808 -0.00051160329230715007 -0.00046368521709919808 -0.19686000835360304 -0.00020591781612300242 -0.00051160329230715007 -0.00020591781612300242 -0.99221355129854449 0.0077523358761521499 0.0011387962520147611 -0.00079829878766135565 0.0011387962520147611 -0.19681113376189258 0.00028185033289052086 -0.00079829878766135565 0.00028185033289052086 -0.99243990756395495 0.0095961692962225065 4.288930160909925e-05 -0.00028205528652835987 4.288930160909925e-05 -0.19636790380010352 -0.00011450777809129953 -0.00028205528652835987 -0.00011450777809129953 -0.99174577699500432 0.0083665741848918396 -0.0005866006575990574 -0.0015415559875695539 -0.0005866006575990574 -0.1969980503633228 0.00053053879334319376 -0.0015415559875695539 0.00053053879334319376 -0.99304740849284001 0.0080779056063374766 0.00017794854519736613 -1.8471047539714291e-05 0.00017794854519736613 -0.19680355966260554 -0.00019833341370023572 -1.8471047539714291e-05 -0.00019833341370023572 -0.99220186201672922 0.0077201785308289583 -0.00018598952421756824 -0.00055503935252776415 -0.00018598952421756824 -0.19706681342528309 -0.00015186839022485188 -0.00055503935252776415 -0.00015186839022485188 -0.99392299106079474 0.0073124113138354208 0.00025030558351999191 -0.0010458924161658167 0.00025030558351999191 -0.19726059027698106 0.0001647077486752746 -0.0010458924161658167 0.0001647077486752746 -0.99366598563812847 0.011726977307006226 0.0002972457596888135 -0.0013961391599806028 0.0002972457596888135 -0.19565489726290741 2.9081294075083974e-06 -0.0013961391599806028 2.9081294075083974e-06 -0.98989295262098365 0.0097847326101063725 -1.7486910889202555e-05 -0.0011627353016230302 -1.7486910889202555e-05 -0.19609279924909795 0.00010611881683719737 -0.0011627353016230302 0.00010611881683719737 -0.99038239401450712 0.01195391834628412 -0.00030950890123350905 -0.0016159071916406198 -0.00030950890123350905 -0.19562615506582626 8.3213253500025175e-05 -0.0016159071916406198 8.3213253500025175e-05 -0.99009819930390464 0.0094948696694495682 0.0002357070137987681 -0.0011872399805030465 0.0002357070137987681 -0.19653043827256267 -0.00037751173746169986 -0.0011872399805030465 -0.00037751173746169986 -0.9910794446711404 0.0079274134323927825 -0.00045510894289964104 -0.0020316427231032996 -0.00045510894289964104 -0.19707501781992542 -7.1912026308629251e-05 -0.0020316427231032996 -7.1912026308629251e-05 -0.99301140280065248 0.0073643324781041963 -9.6881153101409449e-05 3.4562546338046118e-05 -9.6881153101409449e-05 -0.19717065112477206 -4.7429271674226392e-05 3.4562546338046118e-05 -4.7429271674226392e-05 -0.99294812261333076 0.0075062865602878448 -0.00029857381726641861 -5.4967880995793195e-06 -0.00029857381726641861 -0.19677790025414443 0.00040126155636011074 -5.4967880995793195e-06 0.00040126155636011074 -0.99267688291131906 0.0096797445883037847 9.3460168342922586e-05 -0.0012715461982137355 9.3460168342922586e-05 -0.19616267914733598 -8.662343723209176e-06 -0.0012715461982137355 -8.662343723209176e-06 -0.99074321554667977 0.0057619790960543593 0.00013687600236827601 -0.00090355009616427395 0.00013687600236827601 -0.19733639285618909 0.00018317183757399214 -0.00090355009616427395 0.00018317183757399214 -0.99264813627912751 0.0094593484887163237 0.00010603269092685967 -0.001653733374666233 0.00010603269092685967 -0.19653066845117728 -8.056014613266882e-05 -0.001653733374666233 -8.056014613266882e-05 -0.99181546997280057 0.0095631365696631221 0.00030059689688650558 -0.00074549245399205266 0.00030059689688650558 -0.19627962302797719 5.2824528801842519e-05 -0.00074549245399205266 5.2824528801842519e-05 -0.99078875313816939 0.0093583417795194412 -0.0004395192934408289 -2.8274855214283079e-05 -0.0004395192934408289 -0.19628062906390775 0.00018106424464237048 -2.8274855214283079e-05 0.00018106424464237048 -0.99123910562438722 0.012424870522268816 0.00016349935327317 -0.0010978395222447368 0.00016349935327317 -0.19538786579679446 -5.6581764255270173e-05 -0.0010978395222447368 -5.6581764255270173e-05 -0.98984069177979439 0.0095554850522254764 -0.00044466422908488615 -0.00043466066426439687 -0.00044466422908488615 -0.19651232851173517 -0.00015422444799195745 -0.00043466066426439687 -0.00015422444799195745 -0.99196259341636939 0.0076266614134564703 -2.3779666617684393e-06 -0.0013624609819629097 -2.3779666617684393e-06 -0.19729130332036293 0.00020904130790189157 -0.0013624609819629097 0.00020904130790189157 -0.99329536884921588 0.0066231728187287064 -7.8024290394514516e-05 -0.00054263701706491752 -7.8024290394514516e-05 -0.19734753238109781 -0.00020145277592575894 -0.00054263701706491752 -0.00020145277592575894 -0.99329373440669411 0.0058172841431410882 0.00014401677360831956 -0.001232023402063076 0.00014401677360831956 -0.19785548776728479 0.00047133668034216036 -0.001232023402063076 0.00047133668034216036 -0.99467998403617086 0.005513922399021931 -0.00012001998663023883 -0.001456765744725308 -0.00012001998663023883 -0.1979458587656111 5.4772449305851012e-05 -0.001456765744725308 5.4772449305851012e-05 -0.99511911736633252 0.0024957320671143146 -4.0986800512581045e-05 -0.00022498898380196586 -4.0986800512581045e-05 -0.19874013680628319 0.00021347617116429518 -0.00022498898380196586 0.00021347617116429518 -0.99619882395256754 0.0055203082803974013 5.1276458919395929e-05 -0.0014300994392474897 5.1276458919395929e-05 -0.19788675751178331 0.00010218799546302115 -0.0014300994392474897 0.00010218799546302115 -0.99488412988560349 0.0051093080265800506 0.0002124183741408165 -0.00038228758512166838 0.0002124183741408165 -0.1981429157019805 3.3663252613891359e-05 -0.00038228758512166838 3.3663252613891359e-05 -0.99570970448701512 0.0056251855550721874 -0.00032297593724865599 -0.00073507931944671867 -0.00032297593724865599 -0.19778868122114135 0.00025196928685899955 -0.00073507931944671867 0.00025196928685899955 -0.99402057115052411 0.0050341711353277807 -0.00033126936464485812 0.0001533593233888908 -0.00033126936464485812 -0.19817505320954665 -2.5179774958861145e-05 0.0001533593233888908 -2.5179774958861145e-05 -0.99553860634235791 0.0019979298390238043 8.1849720324596434e-05 -0.00016782177274876631 8.1849720324596434e-05 -0.19910481620402576 0.00047676231858395646 -0.00016782177274876631 0.00047676231858395646 -0.99763279027664931 0.0022361735386651205 3.8798467474801589e-05 -0.0005756128744289768 3.8798467474801589e-05 -0.198937926411348 0.00010464817038480234 -0.0005756128744289768 0.00010464817038480234 -0.99656421577491106 0.0016068605528964941 -9.3081741303418185e-06 -0.00047291779737990147 -9.3081741303418185e-06 -0.19929750125885448 0.00027085840960139329 -0.00047291779737990147 0.00027085840960139329 -0.99825335159183215 0.0017270863398148872 4.1132297343227811e-05 0.00027893981031557047 4.1132297343227811e-05 -0.19929378267981002 7.0939247231338598e-05 0.00027893981031557047 7.0939247231338598e-05 -0.99879671476452536 0.0015557928320951153 0.00025896631752520097 -0.00020793402920471493 0.00025896631752520097 -0.19884975475194649 0.00029159637914788483 -0.00020793402920471493 0.00029159637914788483 -0.99636897232543542 0.0012127822190349802 0.0003136776509546495 -0.00034613180038411961 0.0003136776509546495 -0.19927003319305381 -3.8984038567280166e-05 -0.00034613180038411961 -3.8984038567280166e-05 -0.99814255191093748 0.002320875506907738 7.9223255386395974e-05 -0.00048203955157433143 7.9223255386395974e-05 -0.19914106568483025 0.00013987769310623566 -0.00048203955157433143 0.00013987769310623566 -0.99774925058722364 0.0022142176921539636 -1.8791077068895211e-05 -0.00055281790495120831 -1.8791077068895211e-05 -0.19912634263185797 3.76789094542751e-05 -0.00055281790495120831 3.76789094542751e-05 -0.99784711221043776 0.0021936927015180352 -0.0001356802192933014 -0.00040622719214367109 -0.0001356802192933014 -0.19885671248607251 6.4770568578502441e-05 -0.00040622719214367109 6.4770568578502441e-05 -0.9963529921655141 0.0018886292656069559 -6.7555406400502551e-05 -0.00010298046376400194 -6.7555406400502551e-05 -0.19910101118301149 -0.00066781898774070925 -0.00010298046376400194 -0.00066781898774070925 -0.99732706326577025 0.0018988965579451733 8.8882460857381683e-05 0.00022543008629760664 8.8882460857381683e-05 -0.19928770532122031 0.00013223990856303658 0.00022543008629760664 0.00013223990856303658 -0.99805950755073081 0.0022231118221426316 0.00010569799615758244 0.00021770703025225657 0.00010569799615758244 -0.19887951566759599 9.1174238922908657e-05 0.00021770703025225657 9.1174238922908657e-05 -0.99658873558255223 0.0018316383231661293 -3.3136488882862601e-05 -0.00064191108612421388 -3.3136488882862601e-05 -0.19928062317104711 -6.0248888103409115e-05 -0.00064191108612421388 -6.0248888103409115e-05 -0.99842614235740168 0.0022486640494042698 5.416348248461443e-06 -0.0001093123952512487 5.416348248461443e-06 -0.19903363595285051 0.00063551343134093941 -0.0001093123952512487 0.00063551343134093941 -0.9971218784019289 0.0024025716624228588 3.1652642029029849e-05 0.00013398795711772049 3.1652642029029849e-05 -0.19880682562544505 -9.9622775419971887e-05 0.00013398795711772049 -9.9622775419971887e-05 -0.99643247979413863 0.0049091198599128744 1.1646167064977083e-05 -0.00047688383943600421 1.1646167064977083e-05 -0.1978102193497438 7.6039987441101076e-06 -0.00047688383943600421 7.6039987441101076e-06 -0.99391097131624107 0.0026204376792210438 -7.628989236346707e-05 -0.0005583445814237864 -7.628989236346707e-05 -0.19893909582551983 -1.7919075916417171e-05 -0.0005583445814237864 -1.7919075916417171e-05 -0.99745955616958071 0.0057457237124231009 4.8170397980220259e-05 -0.0016080387841983512 4.8170397980220259e-05 -0.19782267977449275 -0.0002211570438193089 -0.0016080387841983512 -0.0002211570438193089 -0.99473743411203985 0.0036788706052168774 1.5545406357494018e-05 0.00037495566777047493 1.5545406357494018e-05 -0.1983781123545485 3.704759451328421e-06 0.00037495566777047493 3.704759451328421e-06 -0.99552018708556833 0.001855599970891797 -1.626183615376499e-05 -0.0005822589413280177 -1.626183615376499e-05 -0.1993173958642076 -0.00012694636393259517 -0.0005822589413280177 -0.00012694636393259517 -0.99828953391731723 0.0053842042563243542 -7.5258088061640828e-05 -0.0013858093379857106 -7.5258088061640828e-05 -0.19775884086243001 -0.00010128868026049176 -0.0013858093379857106 -0.00010128868026049176 -0.99501917729630041 0.0023326368408044251 0.00015286109023012024 -0.00047434326898110335 0.00015286109023012024 -0.19921001522252058 -3.3928901908009124e-06 -0.00047434326898110335 -3.3928901908009124e-06 -0.9974294923387137 0.0021774285116827885 -8.4515872944042206e-05 2.8604055675174322e-05 -8.4515872944042206e-05 -0.19891935377875536 -0.0001589711158505383 2.8604055675174322e-05 -0.0001589711158505383 -0.99657975242438246 0.002472466233374826 -0.00015804885562544475 -0.00062565078976395405 -0.00015804885562544475 -0.19904093936503808 -6.1414539939269597e-05 -0.00062565078976395405 -6.1414539939269597e-05 -0.99755763206495018 0.0023080210893468012 -0.00030423649370289437 -0.00043304963668844287 -0.00030423649370289437 -0.19892670888140085 2.2275721600850673e-05 -0.00043304963668844287 2.2275721600850673e-05 -0.99789257876154647 0.0059467658065778251 6.8155799049814339e-05 -0.0016743853365590589 6.8155799049814339e-05 -0.19769628173180742 -1.329820545681315e-06 -0.0016743853365590589 -1.329820545681315e-06 -0.99446961991781402 0.0058256889036845116 9.1620689540494846e-05 -0.0015510549663004802 9.1620689540494846e-05 -0.19765894311549181 -0.00011847514539839454 -0.0015510549663004802 -0.00011847514539839454 -0.99457523392491343 0.0021483648353213258 6.5262314532622102e-05 0.000177619252486938 6.5262314532622102e-05 -0.19876366424623959 -5.8184139481443076e-05 0.000177619252486938 -5.8184139481443076e-05 -0.99644700168227329 0.0016367303919998522 7.4287054766909515e-05 -0.00044820066786477319 7.4287054766909515e-05 -0.19934663634574135 4.3325374372571446e-05 -0.00044820066786477319 4.3325374372571446e-05 -0.99810431304975378 0.0016237614869263339 0.00010531227451631094 -0.00052388477953213552 0.00010531227451631094 -0.19922554592676089 -5.1708647102605143e-05 -0.00052388477953213552 -5.1708647102605143e-05 -0.99825785127018918 0.0031580992294786281 -4.9073528733533446e-05 0.00016829785007299591 -4.9073528733533446e-05 -0.19837577414733443 4.7788918050573059e-05 0.00016829785007299591 4.7788918050573059e-05 -0.99533677437413637 0.0031067313375697791 -0.00012658388352012812 3.6332113725001669e-05 -0.00012658388352012812 -0.19838377765567328 5.5605188333585076e-05 3.6332113725001669e-05 5.5605188333585076e-05 -0.99529922407845506 0.001487111393147944 0.0001290691818015343 -0.0005371781022247557 0.0001290691818015343 -0.19930423633742589 6.0300864734408322e-05 -0.0005371781022247557 6.0300864734408322e-05 -0.99820042634982409 0.0031610630449347976 -0.00013001837680509142 4.9249190128053399e-05 -0.00013001837680509142 -0.19834028636196632 9.5821636115100972e-05 4.9249190128053399e-05 9.5821636115100972e-05 -0.99506510485020438 0.0023766568547004541 -0.00030461415277239389 -0.00090239807635406066 -0.00030461415277239389 -0.19902167232822421 0.00031631908374252227 -0.00090239807635406066 0.00031631908374252227 -0.99770428750209694 0.0026194288592257253 3.5379737832675219e-07 -0.00091823486397402121 3.5379737832675219e-07 -0.19909823593910336 -4.6855000834122862e-05 -0.00091823486397402121 -4.6855000834122862e-05 -0.99803285167492106 0.005837044599947383 -0.00010487164663803067 -0.001612621345050691 -0.00010487164663803067 -0.19768187894411016 0.0002320876400667693 -0.001612621345050691 0.0002320876400667693 -0.99449862407271183 0.0031781446062607577 -0.00025882668517976745 -0.00014863718147606342 -0.00025882668517976745 -0.1985098797771927 0.00044117629877660214 -0.00014863718147606342 0.00044117629877660214 -0.99598859629350933 0.0022576667386005056 5.09757953052038e-05 -0.0003452273799908756 5.09757953052038e-05 -0.19909312446410887 6.1455815666189295e-05 -0.0003452273799908756 6.1455815666189295e-05 -0.9979026414309633 0.002152605929056306 0.00016481833979730852 0.00019206454568321263 0.00016481833979730852 -0.1988086448186801 0.00019158157390031239 0.00019206454568321263 0.00019158157390031239 -0.99643039718263982 0.0022722065877069375 0.00016778365488350801 -0.00033754834619248442 0.00016778365488350801 -0.19850175761252892 0.00010782118997210155 -0.00033754834619248442 0.00010782118997210155 -0.99492338474838449 0.0036385805014824135 -9.1267119204114928e-05 -0.0010852575091503669 -9.1267119204114928e-05 -0.19799936772021925 7.5150189319805882e-05 -0.0010852575091503669 7.5150189319805882e-05 -0.99383596929546703 0.003629690944955688 0.00039083069872240518 -0.00084680665790107246 0.00039083069872240518 -0.19836991053992303 -0.00040701846524088259 -0.00084680665790107246 -0.00040701846524088259 -0.99454711097653936 0.0035408563585502921 0.00046449134876132633 -0.0004343034226202136 0.00046449134876132633 -0.19846068159399366 0.00054234851459566968 -0.0004343034226202136 0.00054234851459566968 -0.99668915013366233 0.0027173248965762994 -9.3992761964930026e-05 -0.00041300911746777746 -9.3992761964930026e-05 -0.19875942018254456 5.0388009783852716e-05 -0.00041300911746777746 5.0388009783852716e-05 -0.99672584889903915 0.0037383781165768459 -0.00062101934297074978 -0.00066318103786244809 -0.00062101934297074978 -0.19815031727444765 0.00037229827481777278 -0.00066318103786244809 0.00037229827481777278 -0.99444388924194227 0.0034584137986550453 -0.00033524648906304634 -0.00043728504398243828 -0.00033524648906304634 -0.19866543716097121 -0.00018847519320353001 -0.00043728504398243828 -0.00018847519320353001 -0.99672417533472191 0.0020565411973658687 0.00029268261116406537 -0.00039426170986689435 0.00029268261116406537 -0.19897839472831058 -0.00025054949826008865 -0.00039426170986689435 -0.00025054949826008865 -0.9970652458554925 0.0019571102238877813 0.00014161635295579107 5.8729808833590802e-05 0.00014161635295579107 -0.19891729606116004 -0.00017771397106125519 5.8729808833590802e-05 -0.00017771397106125519 -0.99666379076437916 0.0020196015277191282 0.00032087344831305134 -0.00028073971316611157 0.00032087344831305134 -0.19896304030961215 -0.00011674168424136155 -0.00028073971316611157 -0.00011674168424136155 -0.9969333438015211 0.0025443782400017545 -0.00022512958201460182 -0.0004284436308951145 -0.00022512958201460182 -0.19909231841058783 2.0166370185648042e-05 -0.0004284436308951145 2.0166370185648042e-05 -0.99683067241579293 0.0027054806627472283 0.0010723957410140226 -0.00050907072795736141 0.0010723957410140226 -0.19801351521826871 -0.00049834121369052298 -0.00050907072795736141 -0.00049834121369052298 -0.99478951713804697 0.0074608290780757702 -4.6745037826146878e-05 -0.0011546855771262798 -4.6745037826146878e-05 -0.19739181255861393 7.5361447846145069e-05 -0.0011546855771262798 7.5361447846145069e-05 -0.99379905337328101 0.004066314613266897 -0.00014422124785939814 0.00027087122387647877 -0.00014422124785939814 -0.19885834948265391 8.3387852854333033e-05 0.00027087122387647877 8.3387852854333033e-05 -0.99515246760334186 0.0028330564163681071 -2.0795952171827221e-05 -0.0006731449265451328 -2.0795952171827221e-05 -0.19910629318218998 0.00012896047930333054 -0.0006731449265451328 0.00012896047930333054 -0.99694709679783289 0.0030156035131907455 1.3828344185446994e-05 -0.00049460277558543986 1.3828344185446994e-05 -0.19837541572728756 -5.4369069784065971e-05 -0.00049460277558543986 -5.4369069784065971e-05 -0.9948769536874924 0.0023106003987598545 0.00013633987329077069 0.00011252782040527265 0.00013633987329077069 -0.19914701438450666 4.190915061497158e-05 0.00011252782040527265 4.190915061497158e-05 -0.99675259507492875 0.0023306681976616663 0.0002200129994605368 0.00013593722376903372 0.0002200129994605368 -0.19883915127726606 -7.4915175680811963e-05 0.00013593722376903372 -7.4915175680811963e-05 -0.99668458779108715 0.00068169158076336611 -0.00021478611102405333 0.00017807308999095994 -0.00021478611102405333 -0.19909412357390943 -4.5006024173344095e-05 0.00017807308999095994 -4.5006024173344095e-05 -0.99706601453579324 0.0016412626066496516 6.4664464171940389e-05 -0.00031213429286625072 6.4664464171940389e-05 -0.19892929335596321 2.1702285735059057e-05 -0.00031213429286625072 2.1702285735059057e-05 -0.99699581491192735 0.0017105726246600117 -0.00045392916095728255 -0.00052273122863744081 -0.00045392916095728255 -0.19856439509056023 0.0002494187205276388 -0.00052273122863744081 0.0002494187205276388 -0.99565756524596427 0.0048011526422847284 -8.4793895152011488e-05 -5.5827750375048169e-05 -8.4793895152011488e-05 -0.19803984437060121 1.5303337039918041e-05 -5.5827750375048169e-05 1.5303337039918041e-05 -0.99485501306607615 0.0031256144286559567 0.00013294812526942182 -0.00046622789285566402 0.00013294812526942182 -0.19841972481321551 9.7057856587645652e-05 -0.00046622789285566402 9.7057856587645652e-05 -0.99542830085723755 0.0019211138647872161 -0.0001621872083083451 -0.00028682007611213756 -0.0001621872083083451 -0.19880982784279844 -9.4924368289062144e-05 -0.00028682007611213756 -9.4924368289062144e-05 -0.99709554787254895 0.0016584760784132957 -0.00036208976543517153 -0.00020740789723872055 -0.00036208976543517153 -0.19868747333379466 -0.00033853801502692349 -0.00020740789723872055 -0.00033853801502692349 -0.99624296255182809 0.0027813368824754908 0.00025280726777774883 -0.00070918380966067396 0.00025280726777774883 -0.19893967139612057 -3.5390320557215915e-05 -0.00070918380966067396 -3.5390320557215915e-05 -0.99750273173868331 0.001152961576563083 -0.00029406533570691239 -0.00052339106252841106 -0.00029406533570691239 -0.19915043892809003 8.0965746101613334e-05 -0.00052339106252841106 8.0965746101613334e-05 -0.99789978179354311 0.0016724228734741331 -5.514984797205322e-06 -0.00050312455321654959 -5.514984797205322e-06 -0.19933656302064562 -9.6126597401546832e-05 -0.00050312455321654959 -9.6126597401546832e-05 -0.99849054236404466 0.0025815967228928205 -0.00012072632384886549 -0.00088000038621482979 -0.00012072632384886549 -0.19875811287362422 0.0001189845887014096 -0.00088000038621482979 0.0001189845887014096 -0.996206562405475 0.0017035987258708918 -1.1800368961486506e-06 0.00016084253070358656 -1.1800368961486506e-06 -0.19921139686053047 -7.025507916769147e-05 0.00016084253070358656 -7.025507916769147e-05 -0.998677735152663 0.0019233073150998203 -4.5003911983619153e-05 -0.00020757434730267477 -4.5003911983619153e-05 -0.19908927578332336 -0.00038987820116331839 -0.00020757434730267477 -0.00038987820116331839 -0.99773113256926838 0.0015494410777669998 -0.00014512626704621064 -0.00047631533864589404 -0.00014512626704621064 -0.19957719942945984 4.576311534298938e-05 -0.00047631533864589404 4.576311534298938e-05 -0.99840745112903351 0.0022145021607096194 0.00033641854067234273 -0.00090319679458850111 0.00033641854067234273 -0.19906716685178383 -0.00041704775882989154 -0.00090319679458850111 -0.00041704775882989154 -0.99756727622459085 0.0026851846713793481 -0.00021813236921056208 0.00035772185179716587 -0.00021813236921056208 -0.19902354450565918 -9.4035092070954285e-05 0.00035772185179716587 -9.4035092070954285e-05 -0.99676425568941696 0.0028094241348612936 6.8322323551270602e-05 -0.00069288183559534922 6.8322323551270602e-05 -0.19915558553274137 -7.3656496675789107e-06 -0.00069288183559534922 -7.3656496675789107e-06 -0.99754484087308271 0.0055268633211291718 5.0399255889492297e-05 -0.0015152244282250205 5.0399255889492297e-05 -0.19777066122409548 -0.00018709803278982307 -0.0015152244282250205 -0.00018709803278982307 -0.9944582239045463 0.0035113549962736412 0.00025787812296783536 -6.1993389428138812e-05 0.00025787812296783536 -0.19851954375634107 -0.0005224018077580328 -6.1993389428138812e-05 -0.0005224018077580328 -0.99606670729694935 0.0038038562517134222 3.2678923323488814e-05 -0.00060241828446283563 3.2678923323488814e-05 -0.19844182938016763 0.00015643158509470734 -0.00060241828446283563 0.00015643158509470734 -0.99579937514534267 0.0050273515747922826 -0.00016022198581927744 2.4963480046991116e-06 -0.00016022198581927744 -0.19806405912369063 -5.8125122304408805e-05 2.4963480046991116e-06 -5.8125122304408805e-05 -0.99508230938439191 0.0054528594449494427 0.00019548737675247882 -0.0015511562499207487 0.00019548737675247882 -0.19789008849286027 -7.5890894681851506e-05 -0.0015511562499207487 -7.5890894681851506e-05 -0.99454246841087368 0.0026010547744764745 0.00010605391416469465 0.00030130411827467007 0.00010605391416469465 -0.19882278246633067 -8.6626806777179155e-05 0.00030130411827467007 -8.6626806777179155e-05 -0.99674899797341476 0.0055434409579189214 1.1820162744365382e-05 -0.0012626801852597125 1.1820162744365382e-05 -0.19792513680781587 -6.3159447398986046e-05 -0.0012626801852597125 -6.3159447398986046e-05 -0.99490799793078466 0.0031997119751316638 0.00024234908769895278 -0.00033945982609417946 0.00024234908769895278 -0.19852806431140227 -0.00030805557286983642 -0.00033945982609417946 -0.00030805557286983642 -0.99590871325189589 0.0075218762658051386 0.00016454958050202178 -9.9467273257936029e-06 0.00016454958050202178 -0.19707218669278215 -3.2838316837979775e-05 -9.9467273257936029e-06 -3.2838316837979775e-05 -0.99261868048978963 0.0075564681944528811 0.00030557639824830988 -2.1013591219976036e-05 0.00030557639824830988 -0.19684702269536047 -0.00021046089729082063 -2.1013591219976036e-05 -0.00021046089729082063 -0.99249571626571154 0.0067105825175672873 0.00012612500024724115 -0.00039719177723385179 0.00012612500024724115 -0.19739114408570957 0.00015739421202254356 -0.00039719177723385179 0.00015739421202254356 -0.99341407746877008 0.0079206998521500482 0.00030720692386983163 -0.001127960981294418 0.00030720692386983163 -0.1969310894538302 -8.0658371574227061e-05 -0.001127960981294418 -8.0658371574227061e-05 -0.99237254612930359 0.0064326877801937909 2.3205069984641955e-06 -0.00094697872061622057 2.3205069984641955e-06 -0.19754345663002348 -0.00035627452075925881 -0.00094697872061622057 -0.00035627452075925881 -0.99370856282312703 0.0092792457313277676 0.00027964047709495908 -6.0683216766443948e-05 0.00027964047709495908 -0.19662637576068354 0.00014029741506760285 -6.0683216766443948e-05 0.00014029741506760285 -0.99171814588599361 0.0071208797059317819 -0.00012530097411117094 -0.0012195409474173857 -0.00012530097411117094 -0.19738755727536927 -0.00029174450667723839 -0.0012195409474173857 -0.00029174450667723839 -0.99335815929761706 0.0067898449571630604 0.00041878847815810606 -0.0008754849188020164 0.00041878847815810606 -0.19725784527339929 0.00019590292075966076 -0.0008754849188020164 0.00019590292075966076 -0.9936864364313438 0.010258065681337802 -7.1509148189167096e-05 -0.001450417524630189 -7.1509148189167096e-05 -0.195997743939331 0.00013552307820274834 -0.001450417524630189 0.00013552307820274834 -0.99040460300643574 0.010285990849525195 -0.00016117606836671657 -0.0014251975282493709 -0.00016117606836671657 -0.19600474500491227 -7.3252873525442297e-05 -0.0014251975282493709 -7.3252873525442297e-05 -0.99026736729582687 0.012148993067488956 -1.0192895846023582e-05 -0.00096815456843413195 -1.0192895846023582e-05 -0.19557199726801477 -0.00030962276608059724 -0.00096815456843413195 -0.00030962276608059724 -0.99046310557337414 0.010162973871244319 0.00050235052900024491 -0.00076425330810346234 0.00050235052900024491 -0.19612816314672088 -0.00023553510140050804 -0.00076425330810346234 -0.00023553510140050804 -0.9906896580149871 0.0092263589112224764 -0.00029304606436935169 -0.00061152243654769359 -0.00029304606436935169 -0.19657450006847998 0.00011170204089228086 -0.00061152243654769359 0.00011170204089228086 -0.99186898821621483 0.009190902827601044 -4.8980438894893826e-05 -0.0015675172052167508 -4.8980438894893826e-05 -0.19654259702638721 6.5470295088188024e-05 -0.0015675172052167508 6.5470295088188024e-05 -0.99178992367514818 0.0086928670261632313 -1.8933869840174413e-05 -0.0010900791319221614 -1.8933869840174413e-05 -0.19632496639213337 -2.8669311260776098e-05 -0.0010900791319221614 -2.8669311260776098e-05 -0.99047553891212914 0.007293885438079406 0.00029875555909387899 -0.00053780576975881456 0.00029875555909387899 -0.19694781393714089 -7.7175705249898918e-05 -0.00053780576975881456 -7.7175705249898918e-05 -0.99197843167145683 0.010001736406321404 -0.00022474678092168968 -0.00098714061562016342 -0.00022474678092168968 -0.19603664888751937 -6.274008546525156e-05 -0.00098714061562016342 -6.274008546525156e-05 -0.99014575171185815 0.010021846863834449 -8.7936907684317919e-05 -0.00066082615250531718 -8.7936907684317919e-05 -0.19607772005207624 -0.00010315448140874039 -0.00066082615250531718 -0.00010315448140874039 -0.99029574083760075 0.0074134959022114644 -4.0180027070027912e-05 -0.00011183457791763551 -4.0180027070027912e-05 -0.19697744504325404 5.8087616272933795e-05 -0.00011183457791763551 5.8087616272933795e-05 -0.99256323823232218 0.0065413744505371518 -9.0983860973496659e-05 -0.00068958731808245466 -9.0983860973496659e-05 -0.19749228861848112 -1.9097333120825233e-05 -0.00068958731808245466 -1.9097333120825233e-05 -0.99426413688838799 0.0080981499638561605 6.8848231690984449e-06 -0.0016013383960451488 6.8848231690984449e-06 -0.19688685975372977 -0.00011911576514883615 -0.0016013383960451488 -0.00011911576514883615 -0.99278548688420631 0.0066851364797277935 -9.1596134062239359e-05 -0.00087618905220479201 -9.1596134062239359e-05 -0.19736272499902063 -0.00011272616538172617 -0.00087618905220479201 -0.00011272616538172617 -0.99373788004826213 0.0069102085354038056 0.0002588722602935023 -0.0012876699346302742 0.0002588722602935023 -0.19722269991394092 -0.00035868251282888952 -0.0012876699346302742 -0.00035868251282888952 -0.99289257193104685 0.009853981717479865 -3.7443233760291045e-05 -0.0012975484031571699 -3.7443233760291045e-05 -0.19611918508100235 1.1052217712692602e-05 -0.0012975484031571699 1.1052217712692602e-05 -0.99053766776410335 0.0081972916410371632 4.0032378055955559e-05 -0.0003960023457922901 4.0032378055955559e-05 -0.19669507846940776 -7.7104746607936647e-05 -0.0003960023457922901 -7.7104746607936647e-05 -0.99175833819532699 0.0088164950308987633 9.5473895285252901e-05 -0.0010474300355187705 9.5473895285252901e-05 -0.19631597952943514 9.8994003853603019e-05 -0.0010474300355187705 9.8994003853603019e-05 -0.99048326576131585 0.0080659407681136219 0.00037252356249651924 -0.00055546113836349442 0.00037252356249651924 -0.19657899721689398 -0.00078004282069898956 -0.00055546113836349442 -0.00078004282069898956 -0.99054327509856277 0.0081488243003268179 0.00011823389347200311 -0.0013507655864561929 0.00011823389347200311 -0.19708759554374011 8.9546704393317356e-05 -0.0013507655864561929 8.9546704393317356e-05 -0.99327229244069648 0.0077260215650034603 -0.0001106816400752924 -0.00025385425527824079 -0.0001106816400752924 -0.19697792516223944 9.594018068037613e-05 -0.00025385425527824079 9.594018068037613e-05 -0.99257722691157735 0.0074484624297398438 -0.00023603427466539214 -0.00021008922061394042 -0.00023603427466539214 -0.19698134790045774 4.069579412746549e-05 -0.00021008922061394042 4.069579412746549e-05 -0.99257606071590709 0.0090245978410721933 -8.8705825267659561e-05 -0.001213460544887246 -8.8705825267659561e-05 -0.19632046118362484 3.8774467159830017e-05 -0.001213460544887246 3.8774467159830017e-05 -0.99055450705990977 0.0079113679157156724 -0.00025908707891026772 6.8910747863970556e-05 -0.00025908707891026772 -0.19688124340265811 0.00023734157041177539 6.8910747863970556e-05 0.00023734157041177539 -0.99233643134333249 0.0082729879255536432 0.00054538030888643535 -0.0004706897356465678 0.00054538030888643535 -0.19684499759236984 0.00028784215771171517 -0.0004706897356465678 0.00028784215771171517 -0.99232096895926514 0.0068766883733716484 0.00027791712541383083 -0.0015273012904522126 0.00027791712541383083 -0.19726946261333009 -0.00029685480554908494 -0.0015273012904522126 -0.00029685480554908494 -0.9932622689304097 0.0081801955391292425 -0.000929525653214693 -0.00068325504459632036 -0.000929525653214693 -0.19670315382491327 -0.00028324623499731416 -0.00068325504459632036 -0.00028324623499731416 -0.99244041661509752 0.0096205012569218207 -2.9186300021225177e-05 -0.0002652147595108012 -2.9186300021225177e-05 -0.1964423733131464 0.00017489566180306504 -0.0002652147595108012 0.00017489566180306504 -0.99191988391406705 0.0069419569058130071 -0.00052038363446250816 -0.0015511824863424645 -0.00052038363446250816 -0.19713705983604679 0.0004501348049630316 -0.0015511824863424645 0.0004501348049630316 -0.99319050204614445 0.0068173453037417842 -0.00036643025435766275 -0.00099638482094577263 -0.00036643025435766275 -0.19732706661643395 -0.00014602635534233244 -0.00099638482094577263 -0.00014602635534233244 -0.99360004329554119 0.011860147296474555 9.5162975134984717e-05 -0.001765169618961962 9.5162975134984717e-05 -0.19559193464438507 7.2767045530497398e-05 -0.001765169618961962 7.2767045530497398e-05 -0.98996177486703996 0.011886773165576181 0.00029448629173763362 -0.001681168694827484 0.00029448629173763362 -0.1956308336639988 7.5320311854865096e-05 -0.001681168694827484 7.5320311854865096e-05 -0.98995378872191031 0.011784187468696694 -0.00034310763450913208 -0.0014979447166547644 -0.00034310763450913208 -0.19569821017111511 2.1821896752705072e-05 -0.0014979447166547644 2.1821896752705072e-05 -0.98987943923613519 0.009764716193535472 -2.7457665691044831e-05 -0.0011237076040861438 -2.7457665691044831e-05 -0.19613933383715898 -0.00010081129907746345 -0.0011237076040861438 -0.00010081129907746345 -0.99046478523468506 0.015214391334075678 -1.3856340766402683e-06 -0.0002168238698392333 -1.3856340766402683e-06 -0.19447858641007629 2.0801851272622685e-05 -0.0002168238698392333 2.0801851272622685e-05 -0.98754092850948971 0.014248902166526078 -3.6159269732319397e-05 -0.00093627388153150193 -3.6159269732319397e-05 -0.19494889767904533 3.5131000601235085e-05 -0.00093627388153150193 3.5131000601235085e-05 -0.98935944520920982 0.0128739745539726 -0.00074286239410134125 -0.00057873130099084236 -0.00074286239410134125 -0.19507405892856983 0.0004231436908508357 -0.00057873130099084236 0.0004231436908508357 -0.98867047805819408 0.013212549374189697 -6.0890027334985134e-05 -0.00018877769185188242 -6.0890027334985134e-05 -0.19481132564902981 5.4608446240302783e-05 -0.00018877769185188242 5.4608446240302783e-05 -0.98763214823585566 0.011480375730569592 4.8568724537858651e-05 -0.00010886234766083192 4.8568724537858651e-05 -0.19553485473109644 2.2948313861181902e-05 -0.00010886234766083192 2.2948313861181902e-05 -0.98931154208999361 0.012965958051531362 0.000450741765225889 -0.00041314151082816331 0.000450741765225889 -0.19489860713250193 0.00026002228485078049 -0.00041314151082816331 0.00026002228485078049 -0.98788777669321537 0.014136924680294927 -0.00012911114977242775 -0.00082213579477929954 -0.00012911114977242775 -0.19518861704528501 0.00025775262046690006 -0.00082213579477929954 0.00025775262046690006 -0.9893862880705977 0.014507101418915536 -0.00011630601871866401 -0.0013329189629904814 -0.00011630601871866401 -0.19467642215840153 -0.00012904197843632836 -0.0013329189629904814 -0.00012904197843632836 -0.9877125820190229 0.013187328777382656 0.00058998958392137541 -0.00090002459418303538 0.00058998958392137541 -0.19509948830129026 -0.00046411702750837058 -0.00090002459418303538 -0.00046411702750837058 -0.98830259693063804 0.015290665317873813 3.3679307754752144e-05 -0.00028882622683523707 3.3679307754752144e-05 -0.19447162227046422 -6.4499862193478918e-05 -0.00028882622683523707 -6.4499862193478918e-05 -0.98757307860182175 0.011447308496246089 -1.7611521280019104e-05 -0.00063954535080179564 -1.7611521280019104e-05 -0.19531838715545452 -3.1380614445297716e-05 -0.00063954535080179564 -3.1380614445297716e-05 -0.98793159365008276 0.011879173303474294 -8.8574745711682951e-05 -0.00091782843713505979 -8.8574745711682951e-05 -0.19560575748230682 3.8709969422345836e-05 -0.00091782843713505979 3.8709969422345836e-05 -0.98983556294530384 0.011728642440672787 -0.00016281417086545368 -0.00056590203963791108 -0.00016281417086545368 -0.19521348740585692 -4.5629871982866277e-05 -0.00056590203963791108 -4.5629871982866277e-05 -0.98784507686212053 0.01158855298893291 0.00017959645543571786 -0.0007806360372574761 0.00017959645543571786 -0.19518048364719121 -5.2210145368603023e-05 -0.0007806360372574761 -5.2210145368603023e-05 -0.98789836789139152 0.012465779740296126 0.00018220235319898014 -0.0010170615068355593 0.00018220235319898014 -0.19535442645119322 -4.7472270793935678e-05 -0.0010170615068355593 -4.7472270793935678e-05 -0.98964524283808308 0.012161749420656731 0.00010353281278532622 -0.00070997760287194733 0.00010353281278532622 -0.1954792404598017 9.7632733973229691e-05 -0.00070997760287194733 9.7632733973229691e-05 -0.98964414825960723 0.011697475758806308 7.397602918538875e-05 -0.00071265524448893558 7.397602918538875e-05 -0.19549331249137136 -0.00012326701243015048 -0.00071265524448893558 -0.00012326701243015048 -0.98908034895433961 0.012084766033810257 5.8280023778625754e-05 -0.0010312018333493711 5.8280023778625754e-05 -0.19524205817328577 -4.0808398848790617e-05 -0.0010312018333493711 -4.0808398848790617e-05 -0.98814526226632049 0.012379997101551354 -8.2961157754687386e-05 -0.00064581929450313602 -8.2961157754687386e-05 -0.19545285899144837 1.0330761328614102e-06 -0.00064581929450313602 1.0330761328614102e-06 -0.98956815460321756 0.014022504697963067 0.00013230970690790656 -0.00071649585608923871 0.00013230970690790656 -0.19475455959163102 -4.1446069730777246e-05 -0.00071649585608923871 -4.1446069730777246e-05 -0.98761922511503553 0.011735115965812892 3.5659967972292963e-05 -0.00048498617371572905 3.5659967972292963e-05 -0.19523137326880102 -3.1066816724989454e-06 -0.00048498617371572905 -3.1066816724989454e-06 -0.98780119293346891 0.012700247792577612 -8.9524837420076634e-05 -0.00091482331471759437 -8.9524837420076634e-05 -0.1952267180343209 7.3195267344505766e-05 -0.00091482331471759437 7.3195267344505766e-05 -0.98869305972507915 0.011664209341127703 0.00015149462289765572 -0.00068134671852404516 0.00015149462289765572 -0.19539788949068024 0.0001225748824978945 -0.00068134671852404516 0.0001225748824978945 -0.9886401839342448 0.013243284293568025 -4.2535520685877042e-05 -0.00081596893381552515 -4.2535520685877042e-05 -0.19485035062592726 -4.0691466781650476e-06 -0.00081596893381552515 -4.0691466781650476e-06 -0.98736051591580987 0.010634171724557051 -0.00010570277689922271 -0.00085456424996910307 -0.00010570277689922271 -0.19563567306369745 8.6457427908026574e-06 -0.00085456424996910307 8.6457427908026574e-06 -0.98890298488122053 0.011254209423177342 -5.8383128642666689e-05 -0.00041068568722302246 -5.8383128642666689e-05 -0.19564976206848994 -1.957807658137245e-05 -0.00041068568722302246 -1.957807658137245e-05 -0.989591746783689 0.01263673228373019 -4.7845351703311799e-05 -0.0011263880609333476 -4.7845351703311799e-05 -0.19540240347469617 -0.00010802415024424583 -0.0011263880609333476 -0.00010802415024424583 -0.98953359095680415 0.013814680560197079 0.00013202599809118522 -0.00015289344989177778 0.00013202599809118522 -0.19472111391510127 0.00016539324348219253 -0.00015289344989177778 0.00016539324348219253 -0.98762683152657305 0.013037780172977742 0.00019547702375960379 -0.0014589789519537932 0.00019547702375960379 -0.1951928411983872 0.00010353467566237562 -0.0014589789519537932 0.00010353467566237562 -0.98927936548169182 0.012325089280726065 -0.00027250918023898773 -0.00020184175564008644 -0.00027250918023898773 -0.19550552194311832 -0.00012100798600256368 -0.00020184175564008644 -0.00012100798600256368 -0.98984908498493773 0.013984160750503571 -0.0018708415256232956 0.00025221337824055112 -0.0018708415256232956 -0.19498437695178317 -0.00075365373952518411 0.00025221337824055112 -0.00075365373952518411 -0.98721741740656732 0.012560500617624037 -1.67934454325851e-05 1.2213445008235624e-05 -1.67934454325851e-05 -0.19514016057770645 0.00034186994906626467 1.2213445008235624e-05 0.00034186994906626467 -0.9887160231133838 0.014432285754419127 0.00038874617353581667 -0.00073943492707462255 0.00038874617353581667 -0.19460960821565176 6.5750321440738446e-05 -0.00073943492707462255 6.5750321440738446e-05 -0.98773073803663403 0.014093524803473478 0.00027502218274171633 -0.00080155504398687905 0.00027502218274171633 -0.19506125524649587 -0.00049432183861397583 -0.00080155504398687905 -0.00049432183861397583 -0.98912774715774354 0.014174139326986634 -6.9969499857571195e-05 -0.00074393045257781232 -6.9969499857571195e-05 -0.19497065574398975 -0.00023381919598230994 -0.00074393045257781232 -0.00023381919598230994 -0.98926023320542145 0.015929442252315074 0.00012271931258634039 -0.00066275773122526083 0.00012271931258634039 -0.1943578626034137 -0.00012602213625401149 -0.00066275773122526083 -0.00012602213625401149 -0.98780795221914985 0.014692947475483775 -4.6521194005076277e-05 -0.0011440517806349249 -4.6521194005076277e-05 -0.19430029002525351 -1.0154568894416016e-05 -0.0011440517806349249 -1.0154568894416016e-05 -0.98661115303904445 0.015044167767313321 -0.00016876547299193113 -0.0002354676982366799 -0.00016876547299193113 -0.19443293865440014 6.9950318271283507e-05 -0.0002354676982366799 6.9950318271283507e-05 -0.98758575196356713 0.015282947327638019 -9.2637805529713083e-05 -8.1831050812830597e-05 -9.2637805529713083e-05 -0.1942797021679189 0.00035098834424696079 -8.1831050812830597e-05 0.00035098834424696079 -0.98677680738031759 0.017240293961602982 0.00034955450590469809 -0.00063587664744879646 0.00034955450590469809 -0.19370366210371281 0.00016585693247817002 -0.00063587664744879646 0.00016585693247817002 -0.98600966692020675 0.016832437191270699 -4.2983387628043214e-05 -0.00096726826764137463 -4.2983387628043214e-05 -0.19401241946903536 -2.2434541819826848e-06 -0.00096726826764137463 -2.2434541819826848e-06 -0.98665525258738196 0.016917261174400622 4.3587918963998107e-05 -0.00099490916855504707 4.3587918963998107e-05 -0.19384753201177696 -2.6038574698628025e-05 -0.00099490916855504707 -2.6038574698628025e-05 -0.98660299992727651 0.015512855903260903 -1.3254807277179077e-05 -0.00068720193873628155 -1.3254807277179077e-05 -0.19401358742939312 4.9845265594233856e-05 -0.00068720193873628155 4.9845265594233856e-05 -0.98625816826893775 0.015266365801254483 -0.0002528833707379401 -0.00060696432303242176 -0.0002528833707379401 -0.19417532515257344 9.3995965762205813e-05 -0.00060696432303242176 9.3995965762205813e-05 -0.98636356314086504 0.018260379786535497 -1.4617988147297248e-05 0.00029269872609982706 -1.4617988147297248e-05 -0.1935549326809427 8.8823370566704085e-05 0.00029269872609982706 8.8823370566704085e-05 -0.98578640899132619 0.015870183731656162 -6.3838432455343529e-05 0.00022031056079740985 -6.3838432455343529e-05 -0.19403169947959986 0.00015456140326786105 0.00022031056079740985 0.00015456140326786105 -0.98640057124692859 0.015529552247840472 -3.6811726438326008e-06 -0.00068180157300146149 -3.6811726438326008e-06 -0.19399821172579035 9.7928641936473326e-05 -0.00068180157300146149 9.7928641936473326e-05 -0.98619098455098619 0.017103877500731113 0.0012209232927176284 -0.00029178246147820719 0.0012209232927176284 -0.19368612656488776 -3.7525466515919703e-05 -0.00029178246147820719 -3.7525466515919703e-05 -0.9859251994918139 0.018334145868279972 -1.0354257075698043e-05 -0.00079298576011366251 -1.0354257075698043e-05 -0.19338693567296583 9.0916890852277277e-05 -0.00079298576011366251 9.0916890852277277e-05 -0.98550226251750228 0.017016757854936726 -0.00048035827452311047 -0.00023311335047138115 -0.00048035827452311047 -0.1937519205353555 0.00017458772501832698 -0.00023311335047138115 0.00017458772501832698 -0.9860469841642816 0.018424213840665615 0.00013458622835897259 4.7531840341230591e-05 0.00013458622835897259 -0.19354576411365532 -0.00014541686618230187 4.7531840341230591e-05 -0.00014541686618230187 -0.98650942636671779 0.015926642615164965 -1.5054530395407541e-06 -0.00044301011432668069 -1.5054530395407541e-06 -0.19390689486946178 -8.3085963958229314e-05 -0.00044301011432668069 -8.3085963958229314e-05 -0.98566404638313365 0.015777555240525307 -3.3780180381656543e-06 -0.0001929790512098517 -3.3780180381656543e-06 -0.19399985547860216 0.00013324422042360062 -0.0001929790512098517 0.00013324422042360062 -0.98615937774068896 0.014572733235882263 -1.4676691739138931e-05 -0.0003653630864965951 -1.4676691739138931e-05 -0.1943350347638344 -0.00015632948933919089 -0.0003653630864965951 -0.00015632948933919089 -0.98634963967392952 0.015370132935524694 0.00016675798822859451 7.4594975490338555e-05 0.00016675798822859451 -0.19413003420266017 -0.00014529869167567711 7.4594975490338555e-05 -0.00014529869167567711 -0.98621376376120651 0.01457569638665257 -7.4161911462622957e-07 -0.00035557926877127777 -7.4161911462622957e-07 -0.1943530297690883 -0.00014246772279091768 -0.00035557926877127777 -0.00014246772279091768 -0.98631762822033187 0.014852445454018093 0.00079522931019547808 6.522503628203502e-05 0.00079522931019547808 -0.19477788926635198 0.0010182616089133845 6.522503628203502e-05 0.0010182616089133845 -0.98677898454138147 0.014571429811253422 1.061223245421148e-05 -0.00035804370156489185 1.061223245421148e-05 -0.19437807776597077 -0.00015906577329705129 -0.00035804370156489185 -0.00015906577329705129 -0.98631304547526022 0.013577515974029453 -7.4345130722300789e-05 -0.00056654563473790276 -7.4345130722300789e-05 -0.19479690705730413 -0.00011387015020114521 -0.00056654563473790276 -0.00011387015020114521 -0.98701807720507873 0.012930045610332064 -1.0259837292822855e-05 -0.0008654160084087259 -1.0259837292822855e-05 -0.19479771805387797 -6.5343949495533238e-05 -0.0008654160084087259 -6.5343949495533238e-05 -0.98737017979140185 0.014577969873177055 -2.8565076963198274e-05 -0.0001050768064394525 -2.8565076963198274e-05 -0.19440132422559919 4.286865506464288e-05 -0.0001050768064394525 4.286865506464288e-05 -0.98676561965229315 0.013729807596899235 0.00011505257452325243 -0.00053810240326845893 0.00011505257452325243 -0.19469761201833835 -0.00015229867832378119 -0.00053810240326845893 -0.00015229867832378119 -0.9876379553705541 0.013147070621475354 3.5502682341259687e-05 -0.00086877399222273777 3.5502682341259687e-05 -0.19481742703583504 -8.0912618394379798e-05 -0.00086877399222273777 -8.0912618394379798e-05 -0.98714784117181287 0.013345383679259842 3.5009460637376153e-05 -0.00010827292505743991 3.5009460637376153e-05 -0.19475050892159565 8.8835228087780216e-05 -0.00010827292505743991 8.8835228087780216e-05 -0.98697206142313487 0.013417074994610201 -9.2677115034869204e-07 -0.00028094253717503292 -9.2677115034869204e-07 -0.19476083462805227 -6.4684063243447554e-05 -0.00028094253717503292 -6.4684063243447554e-05 -0.98693922778443044 0.013945501243968095 -0.0001893280516308489 5.5131399785302015e-05 -0.0001893280516308489 -0.19462782635306874 -6.5624503738481721e-05 5.5131399785302015e-05 -6.5624503738481721e-05 -0.98680346080188652 0.013581466450419986 0.00030632914659913077 -0.00040936612928654803 0.00030632914659913077 -0.1945754124662015 -7.63387824559425e-05 -0.00040936612928654803 -7.63387824559425e-05 -0.9865234890884681 0.013333140682519451 -7.6548371607322736e-06 -0.00043456744646963585 -7.6548371607322736e-06 -0.19460975474392916 -1.2540100964297807e-05 -0.00043456744646963585 -1.2540100964297807e-05 -0.98655898048913127 0.013707115292945105 -0.00019157424382499271 -0.00049231182278267061 -0.00019157424382499271 -0.194749395092632 0.00029213951767559365 -0.00049231182278267061 0.00029213951767559365 -0.98743634762531096 0.013686064796910369 -0.00073156751174100962 0.00015591963093541938 -0.00073156751174100962 -0.1942563216224622 -0.00023804695221141259 0.00015591963093541938 -0.00023804695221141259 -0.98599651980319258 0.015497138655235387 -1.4042202251323859e-05 -0.00068777669050157364 -1.4042202251323859e-05 -0.19407472486176314 3.9581780835629132e-05 -0.00068777669050157364 3.9581780835629132e-05 -0.98627350687848558 0.013625719547639581 -0.00016708180085805389 -0.00028977439793961834 -0.00016708180085805389 -0.19466861590933521 -0.00026124277622940895 -0.00028977439793961834 -0.00026124277622940895 -0.98732666740499675 0.013799148801928229 0.00060742241249412603 -0.00061214321201297217 0.00060742241249412603 -0.19456385210791649 0.00017785545687587501 -0.00061214321201297217 0.00017785545687587501 -0.98655086412488702 0.014918047876688489 2.0265725909599009e-05 -0.00047531409348189335 2.0265725909599009e-05 -0.19442558618040662 1.8798420546528583e-05 -0.00047531409348189335 1.8798420546528583e-05 -0.98711153283156827 0.014317393783501053 -0.00062369030697275525 -0.0010614740250827204 -0.00062369030697275525 -0.19451827143735123 -0.00023376268951791346 -0.0010614740250827204 -0.00023376268951791346 -0.98686366279077831 0.013530206471046968 -3.8603475701263241e-05 -0.00035422380033814371 -3.8603475701263241e-05 -0.19484228581750818 1.0006278887364495e-05 -0.00035422380033814371 1.0006278887364495e-05 -0.98783320604481606 0.013558727952396987 -0.00022931542395838371 -0.0001151359793443163 -0.00022931542395838371 -0.19476224994192659 1.0685428793288931e-05 -0.0001151359793443163 1.0685428793288931e-05 -0.98727440146711887 0.013281007749750717 -1.0645218131573389e-06 -0.00045950633837987809 -1.0645218131573389e-06 -0.19463545685100336 -3.6146644559864605e-05 -0.00045950633837987809 -3.6146644559864605e-05 -0.98679317330490379 0.013310421041632936 -8.1279950326394308e-06 -0.00049529299358286316 -8.1279950326394308e-06 -0.19473566989916369 -7.7785219544157513e-05 -0.00049529299358286316 -7.7785219544157513e-05 -0.98682122357378566 0.015121351427256347 3.0036460574479822e-05 -0.00063914898204697757 3.0036460574479822e-05 -0.1942362873352661 0.0001185372404565177 -0.00063914898204697757 0.0001185372404565177 -0.98628391846614338 0.015871634535824297 -1.3648310642569965e-05 0.00025849255817966821 -1.3648310642569965e-05 -0.19408930466893204 4.7657232826348039e-05 0.00025849255817966821 4.7657232826348039e-05 -0.9862220253307088 0.014635581471985404 -4.0775225060861469e-05 0.00016198143465194839 -4.0775225060861469e-05 -0.19423693618758042 -4.027112674021005e-05 0.00016198143465194839 -4.027112674021005e-05 -0.98576453751372206 0.015926402523473104 2.875138879293147e-05 0.00026486017250360039 2.875138879293147e-05 -0.19412090851116925 0.00011391628020951394 0.00026486017250360039 0.00011391628020951394 -0.98631569738152525 0.015183646778105242 1.9925038266192874e-05 -0.00068224603135025319 1.9925038266192874e-05 -0.19419307240380368 0.00010330811232561743 -0.00068224603135025319 0.00010330811232561743 -0.98601687722601294 0.015120462322948391 2.1731303977778345e-05 -0.00071888087061355854 2.1731303977778345e-05 -0.19424447947727952 -1.0261219520968368e-05 -0.00071888087061355854 -1.0261219520968368e-05 -0.98628134924622524 0.016803758227323939 3.5649313227907238e-05 -0.00088126258657239553 3.5649313227907238e-05 -0.19401959327634444 -8.833398881913368e-06 -0.00088126258657239553 -8.833398881913368e-06 -0.98665151175050081 0.015295499274012969 0.00013429427711190474 -0.00076655170447104126 0.00013429427711190474 -0.19423677378084581 5.0531976896195374e-05 -0.00076655170447104126 5.0531976896195374e-05 -0.98634315539566364 0.015493886012625357 -6.6001438857774157e-06 -0.00068566146111859183 -6.6001438857774157e-06 -0.19408111619337687 2.6267517371891813e-05 -0.00068566146111859183 2.6267517371891813e-05 -0.98628533180726352 0.016802535263391705 1.3960129372685005e-05 -0.0008983074242421285 1.3960129372685005e-05 -0.19391694520037639 -0.00010898929372515909 -0.0008983074242421285 -0.00010898929372515909 -0.98649561663488328 0.015904322429419193 2.6394706127659639e-06 0.00025148433823218852 2.6394706127659639e-06 -0.19401123120149411 -2.2153416570941387e-05 0.00025148433823218852 -2.2153416570941387e-05 -0.98608172599011423 0.016731311970867191 -3.3946253109880616e-06 -0.00092288913149962681 -3.3946253109880616e-06 -0.19402070877329169 -3.523227751611735e-05 -0.00092288913149962681 -3.523227751611735e-05 -0.98670623769176835 0.016765905449074414 -0.00087010047221117767 -0.00011563886272636381 -0.00087010047221117767 -0.19383347632669279 0.00019788385841401634 -0.00011563886272636381 0.00019788385841401634 -0.986019459259456 0.018219423961337577 3.5756546639139628e-05 -0.00055921597598374007 3.5756546639139628e-05 -0.19359604569348154 5.996432246646588e-05 -0.00055921597598374007 5.996432246646588e-05 -0.9861019161907647 0.018317749648935178 2.4908749481607296e-05 -0.00067320419422456368 2.4908749481607296e-05 -0.19346114218220833 0.00026406517796662143 -0.00067320419422456368 0.00026406517796662143 -0.98574506696801878 0.018201343832558448 5.5749294232045931e-05 -0.00054666739242481555 5.5749294232045931e-05 -0.19354258071484465 4.1806883221973123e-07 -0.00054666739242481555 4.1806883221973123e-07 -0.98602832810664065 0.018143478022285553 2.1269247641299024e-05 -0.00052112661261816129 2.1269247641299024e-05 -0.19357772888321012 1.8555353129112717e-05 -0.00052112661261816129 1.8555353129112717e-05 -0.98606622862453897 0.018105175746730984 5.1701379926802535e-05 -0.00051777493892646298 5.1701379926802535e-05 -0.19372270027651717 -2.5069601299776423e-05 -0.00051777493892646298 -2.5069601299776423e-05 -0.98611288845065026 0.018268523003547088 -7.0255130742827464e-05 -0.00050524948266272851 -7.0255130742827464e-05 -0.19361401326764183 1.7027108310863071e-05 -0.00050524948266272851 1.7027108310863071e-05 -0.98611567673324796 0.015336165746385577 0.00028396058593522226 0.00028842233504466908 0.00028396058593522226 -0.19410244161326967 -8.9767578807520287e-05 0.00028842233504466908 -8.9767578807520287e-05 -0.98624646541565286 0.015298725074319099 0.00010187908890620602 0.00028487629782236734 0.00010187908890620602 -0.19420146958494752 7.8859254624363828e-05 0.00028487629782236734 7.8859254624363828e-05 -0.98625071141409248 0.015193936330543556 2.067156502723744e-05 -0.00067773149911221076 2.067156502723744e-05 -0.19425845057782598 -9.9570930445491701e-05 -0.00067773149911221076 -9.9570930445491701e-05 -0.98590006534211927 0.015839169641988726 -0.00013776518538178388 0.00024777261902286796 -0.00013776518538178388 -0.19418917414412384 -3.9963115857272191e-05 0.00024777261902286796 -3.9963115857272191e-05 -0.98613113496099647 0.018439375653347079 2.1099586950424471e-05 -0.00059636633670057115 2.1099586950424471e-05 -0.19360743785555068 -5.3580592739299604e-05 -0.00059636633670057115 -5.3580592739299604e-05 -0.98599840613327272 0.016730321144901916 -0.00012232098579806396 -0.0009999537580309692 -0.00012232098579806396 -0.19401113927929603 6.4846010983110602e-05 -0.0009999537580309692 6.4846010983110602e-05 -0.98657401476860951 0.015670279358113937 -8.9410861140067917e-05 0.00015047916987587229 -8.9410861140067917e-05 -0.19414859130812978 5.1522703858549596e-05 0.00015047916987587229 5.1522703858549596e-05 -0.98619655585648047 0.016443957775183704 -5.3435176269324433e-05 -0.000622065944493988 -5.3435176269324433e-05 -0.19428713965817346 -3.0193189924254682e-05 -0.000622065944493988 -3.0193189924254682e-05 -0.98734985329293767 0.016861152867708284 -3.3161353157973564e-05 -0.0010040402881776878 -3.3161353157973564e-05 -0.19386021761040095 5.2707883186620119e-05 -0.0010040402881776878 5.2707883186620119e-05 -0.98652411176251142 0.011301803629654106 -5.0411370214941652e-05 -0.00012503627187498978 -5.0411370214941652e-05 -0.1955435146889371 1.5294384376529635e-05 -0.00012503627187498978 1.5294384376529635e-05 -0.9893809288028319 0.013166839330727848 -0.0004283417199827524 -0.00035277781067399872 -0.0004283417199827524 -0.19493611106421113 -0.00024848874786953523 -0.00035277781067399872 -0.00024848874786953523 -0.98801764909297585 0.014313508974720945 7.0270299518823971e-05 -0.0013448769837554053 7.0270299518823971e-05 -0.19481964457439049 1.4773788777955321e-05 -0.0013448769837554053 1.4773788777955321e-05 -0.98782663622022371 0.012621247474090713 0.00069411737672835701 -0.00062170453185572683 0.00069411737672835701 -0.19510947152002944 -0.00045631503177734345 -0.00062170453185572683 -0.00045631503177734345 -0.98871697588558494 0.013308204369056414 -0.00045623976343658559 -0.00097027035379715354 -0.00045623976343658559 -0.19509486758528119 0.00033467722550617474 -0.00097027035379715354 0.00033467722550617474 -0.9883144767892188 0.016062758436067026 0.00019968656739971329 -0.00057140399260557917 0.00019968656739971329 -0.19427512875317515 -0.00023241662338002733 -0.00057140399260557917 -0.00023241662338002733 -0.98731252584082552 0.013980358523548175 0.00013394003621588222 -0.00076495037629120688 0.00013394003621588222 -0.19523648903433732 -0.0002527229000892639 -0.00076495037629120688 -0.0002527229000892639 -0.98958263703108651 0.012575555867507998 -0.00020988088919339504 -0.00097303814881732897 -0.00020988088919339504 -0.19538355184882308 -5.7131887034600481e-06 -0.00097303814881732897 -5.7131887034600481e-06 -0.9896406991508907 0.011762392601063876 0.00012103496764186553 -0.00053610601082709763 0.00012103496764186553 -0.19516663586170052 5.3761071178271003e-05 -0.00053610601082709763 5.3761071178271003e-05 -0.98774126662357298 0.012090312653619484 -9.0039700267661508e-05 -0.00079828686983551833 -9.0039700267661508e-05 -0.19545679807087557 -7.3190035964620925e-05 -0.00079828686983551833 -7.3190035964620925e-05 -0.98965551589871703 0.011473234614007954 -6.437745016919866e-06 -0.00060432179116105822 -6.437745016919866e-06 -0.19524826538947504 6.1788409453922277e-05 -0.00060432179116105822 6.1788409453922277e-05 -0.98779811438165366 0.011800199003453998 4.9054853912291498e-05 -0.00098437978308185681 4.9054853912291498e-05 -0.19558561739623034 -2.4513111919977071e-05 -0.00098437978308185681 -2.4513111919977071e-05 -0.98983011626342587 0.011495393828651057 -0.0002350368118871007 -0.00080712575745442439 -0.0002350368118871007 -0.19525612584343627 9.0437921438368818e-06 -0.00080712575745442439 9.0437921438368818e-06 -0.98792073862040297 0.013516739805096878 8.6655304067810227e-05 -0.00011515674938400444 8.6655304067810227e-05 -0.19473138990101696 0.00028067772984441408 -0.00011515674938400444 0.00028067772984441408 -0.98723645827620943 0.013375403592740011 -5.0151430958103433e-05 -0.00044212179685820807 -5.0151430958103433e-05 -0.1946896062970607 1.586298286271326e-05 -0.00044212179685820807 1.586298286271326e-05 -0.98699670983039101 0.013412577490874211 0.00032806537595960508 3.231565266076375e-05 0.00032806537595960508 -0.1948570357178423 -7.3871960702853734e-05 3.231565266076375e-05 -7.3871960702853734e-05 -0.98804247780646293 0.013883096476243417 0.00018922697738049291 -0.00036052387678497944 0.00018922697738049291 -0.19454920368972461 0.00012654618252855299 -0.00036052387678497944 0.00012654618252855299 -0.98680154692394373 0.013630552063711332 -1.2060762247043421e-05 -0.0003042799952180375 -1.2060762247043421e-05 -0.19481014742363201 -2.7238294206699543e-05 -0.0003042799952180375 -2.7238294206699543e-05 -0.98785289222441408 0.014913245842010037 2.0656249964455744e-05 -0.00046845723688271335 2.0656249964455744e-05 -0.19443296673268651 -1.078702980739088e-05 -0.00046845723688271335 -1.078702980739088e-05 -0.98712792403461691 0.013796186518297837 0.00013375435840358806 -0.00042569089894414769 0.00013375435840358806 -0.19465892144912345 -0.00027834629271000777 -0.00042569089894414769 -0.00027834629271000777 -0.98745860594420698 0.014245802613113706 0.00040886120190498199 -0.00078050480170149816 0.00040886120190498199 -0.19441940744444675 5.3054505500416127e-05 -0.00078050480170149816 5.3054505500416127e-05 -0.98629014588954256 0.014253387141067719 -1.0058618565989102e-05 -0.00078724605935509562 -1.0058618565989102e-05 -0.19429610932265007 -2.6934086791774448e-05 -0.00078724605935509562 -2.6934086791774448e-05 -0.98626626898964576 0.013274827224052821 -1.2740851845865305e-05 -0.00053877184121109423 -1.2740851845865305e-05 -0.19469902459220034 0.00012449174319550949 -0.00053877184121109423 0.00012449174319550949 -0.9870362193691693 0.01516667680891981 -3.6408032381601748e-07 -0.00063452478051306827 -3.6408032381601748e-07 -0.19422249669345537 -0.00012871459136643004 -0.00063452478051306827 -0.00012871459136643004 -0.98607177268388346 0.013429522963833818 -2.7424887909388596e-06 -0.00044413274159926797 -2.7424887909388596e-06 -0.1946566343364553 1.7601727858029825e-05 -0.00044413274159926797 1.7601727858029825e-05 -0.9869796542392848 0.014220782785904301 -5.4613940197460868e-05 -0.00023969144940605425 -5.4613940197460868e-05 -0.19453480281116078 -0.00018832288047343493 -0.00023969144940605425 -0.00018832288047343493 -0.98672143903370524 0.014019826250344369 -5.0683616190266179e-05 -0.00041248357486888682 -5.0683616190266179e-05 -0.19472485465074141 -0.00018935324871187029 -0.00041248357486888682 -0.00018935324871187029 -0.98747326518844147 0.013703270493696691 -0.00028873144825661349 -0.00045966819151066485 -0.00028873144825661349 -0.19463201142531239 8.3207943775032156e-05 -0.00045966819151066485 8.3207943775032156e-05 -0.98657841140825431 0.013528944643314078 -5.2552659284295791e-06 -0.00041402033458715071 -5.2552659284295791e-06 -0.19454221708905631 -8.4661748331216202e-05 -0.00041402033458715071 -8.4661748331216202e-05 -0.98659703914173369 0.014395959762188992 1.2624575693065979e-06 -0.00043242149999733748 1.2624575693065979e-06 -0.1944712020729642 0.00012825150542372654 -0.00043242149999733748 0.00012825150542372654 -0.98634956127332529 0.014386261602924 8.5492428428359745e-06 -0.00042173808314133199 8.5492428428359745e-06 -0.19446192001108764 0.00012579054875427875 -0.00042173808314133199 0.00012579054875427875 -0.9864073588173512 0.013917282763769065 0.00015606340747892082 -4.7228499880036523e-05 0.00015606340747892082 -0.19466794442651109 1.9325005270909301e-05 -4.7228499880036523e-05 1.9325005270909301e-05 -0.98706610503305892 0.012869587439894969 1.9932553208507864e-05 -0.00062118443685488245 1.9932553208507864e-05 -0.19487674624898632 5.4969780624247733e-05 -0.00062118443685488245 5.4969780624247733e-05 -0.98712876958129137 0.013426473236787015 -3.2034813539519685e-05 -0.00011956841633442572 -3.2034813539519685e-05 -0.19477392640515545 -7.9280633924039279e-05 -0.00011956841633442572 -7.9280633924039279e-05 -0.98715654297449262 0.013221525479036544 5.1409786288079204e-05 -0.00044804234420103839 5.1409786288079204e-05 -0.19486898325375168 9.9181661094127627e-05 -0.00044804234420103839 9.9181661094127627e-05 -0.9874835008864955 0.011809448633546493 -4.827207065007449e-05 -0.00045110589877095375 -4.827207065007449e-05 -0.19517629328986641 -5.8521543047029834e-05 -0.00045110589877095375 -5.8521543047029834e-05 -0.98759869562634162 0.011643848440317628 -7.0244398113539002e-05 -0.00065826058620765959 -7.0244398113539002e-05 -0.19539047872796872 0.00010628632804324245 -0.00065826058620765959 0.00010628632804324245 -0.98853316398294377 0.012719806359647867 1.3310408659503995e-05 -0.0011673523364252869 1.3310408659503995e-05 -0.19520365201855916 -6.4747359682593153e-05 -0.0011673523364252869 -6.4747359682593153e-05 -0.98860560470127368 0.013085633598020951 8.7713021437151701e-05 -0.00068045985696263411 8.7713021437151701e-05 -0.19488675533317901 -3.2168255671150003e-05 -0.00068045985696263411 -3.2168255671150003e-05 -0.98741390842451793 0.010496711167911066 0.00027147812883860788 -0.00082034319398305994 0.00027147812883860788 -0.19594124915948763 3.8902057231116061e-05 -0.00082034319398305994 3.8902057231116061e-05 -0.99004225680230507 0.012963781548101516 7.144644472859391e-05 -0.00099983074621645684 7.144644472859391e-05 -0.19505996970522632 0.00010581532549858164 -0.00099983074621645684 0.00010581532549858164 -0.98818201707713138 0.012170272280060512 -2.0515414402127264e-05 -0.00075741934025952418 -2.0515414402127264e-05 -0.19551250589920377 -1.876101113240658e-06 -0.00075741934025952418 -1.876101113240658e-06 -0.98963215795377124 0.010479540288481082 6.0299818109275108e-05 -0.0011813362822471613 6.0299818109275108e-05 -0.19594959766213826 1.8920611446926472e-05 -0.0011813362822471613 1.8920611446926472e-05 -0.99022181868273673 0.011153901227529739 4.2577345668328937e-05 -0.00034051255493006138 4.2577345668328937e-05 -0.19557349530956092 -6.4913809677991097e-05 -0.00034051255493006138 -6.4913809677991097e-05 -0.98901749443472387 0.010497650892610677 0.00013489421033935164 -0.00054027494858344127 0.00013489421033935164 -0.19595010766067023 4.3630029509911239e-05 -0.00054027494858344127 4.3630029509911239e-05 -0.9899496349803707 0.016256744539127677 0.00023729999531866782 -0.00039251709396853629 0.00023729999531866782 -0.194198638951598 3.6908228340792881e-05 -0.00039251709396853629 3.6908228340792881e-05 -0.98732623190331137 0.012422665118738033 0.0002722554910806024 -0.0006352711957484658 0.0002722554910806024 -0.19514668615471586 5.4141503212742914e-05 -0.0006352711957484658 5.4141503212742914e-05 -0.98826339174624955 0.012821631860082672 0.00016954591561518212 -0.00064418979081980535 0.00016954591561518212 -0.19515411179848208 0.00017974640579021539 -0.00064418979081980535 0.00017974640579021539 -0.98843028053394288 0.012671275233752888 2.1251217714820632e-05 -0.0013468084471448538 2.1251217714820632e-05 -0.1953062042566126 8.9514291096826071e-05 -0.0013468084471448538 8.9514291096826071e-05 -0.98890396485302423 0.014014091859418931 -0.00020264941381253958 -0.00043466910290934635 -0.00020264941381253958 -0.19489334153048465 -0.00029226609998533881 -0.00043466910290934635 -0.00029226609998533881 -0.98894246408739361 0.012943905088468433 -0.00043203577937680175 2.35576698730533e-05 -0.00043203577937680175 -0.19495042924210326 3.9911254713143052e-05 2.35576698730533e-05 3.9911254713143052e-05 -0.988142540971924 0.013956312339001076 0.00026451450582658226 -0.00084804245095032593 0.00026451450582658226 -0.19518061961388733 5.3466010490499372e-05 -0.00084804245095032593 5.3466010490499372e-05 -0.98968735161066279 0.013936571614431292 6.5707209365102681e-06 -0.00088350666181424842 6.5707209365102681e-06 -0.19505782187398613 0.00032856946010850763 -0.00088350666181424842 0.00032856946010850763 -0.98949686548630256 0.015997984653839725 8.0317320537442235e-05 -0.00061452139394102545 8.0317320537442235e-05 -0.19419877954082077 5.682798449324622e-05 -0.00061452139394102545 5.682798449324622e-05 -0.98743283527957182 0.014273971115456391 -5.7130889987167437e-06 -0.00077250348286783677 -5.7130889987167437e-06 -0.19429295586616599 -4.4057794530427685e-05 -0.00077250348286783677 -4.4057794530427685e-05 -0.986166835362002 0.016459307946658064 -4.5854815067610056e-05 -0.00052828398400683874 -4.5854815067610056e-05 -0.19415933806862584 0.00011887737126414777 -0.00052828398400683874 0.00011887737126414777 -0.98719465615769098 0.015290199760182366 -0.00021450111234714683 -2.9085875991707866e-05 -0.00021450111234714683 -0.19416250189512746 -7.79697700151738e-05 -2.9085875991707866e-05 -7.79697700151738e-05 -0.98640497219313983 0.015032627469333593 8.2254652498348649e-05 -0.00035062031429566876 8.2254652498348649e-05 -0.1943782842096286 0.00013435307809828156 -0.00035062031429566876 0.00013435307809828156 -0.98695494456840183 0.016586175379045942 -4.8587128284041322e-06 -8.1260501744839786e-05 -4.8587128284041322e-06 -0.19393895117332938 -0.00020778645397778739 -8.1260501744839786e-05 -0.00020778645397778739 -0.98663500062978082 0.014795765508268444 -0.00017937777292112845 -0.00092470449331116811 -0.00017937777292112845 -0.19446355035574103 0.00011120942430520309 -0.00092470449331116811 0.00011120942430520309 -0.98703402160825449 0.015854192019172819 2.7851914004781731e-06 0.00034266119178649745 2.7851914004781731e-06 -0.19407382645225346 -3.4874912497331878e-05 0.00034266119178649745 -3.4874912497331878e-05 -0.98616645161354288 0.015839251534653265 8.4877934464885402e-06 0.0003607924802654372 8.4877934464885402e-06 -0.19407906537250907 -7.9755894658195547e-05 0.0003607924802654372 -7.9755894658195547e-05 -0.98620852445458751 0.014804477092949651 -0.00042292948414053241 -0.00082472418481116527 -0.00042292948414053241 -0.19425885483598046 -2.7544176954941157e-05 -0.00082472418481116527 -2.7544176954941157e-05 -0.98604914859941839 0.01843096730206184 -2.4535536556543439e-05 -0.00051013585798131977 -2.4535536556543439e-05 -0.19346261948073418 -0.00015128811058495728 -0.00051013585798131977 -0.00015128811058495728 -0.98618549165914748 0.018674393125222233 -0.000182662796254089 -0.00048845539296848983 -0.000182662796254089 -0.19351280716687991 -6.1968040551807491e-05 -0.00048845539296848983 -6.1968040551807491e-05 -0.98621279332263345 0.015289426727303934 0.00037732554968302086 9.2763953499330754e-05 0.00037732554968302086 -0.1942848440820375 7.8699068055354537e-05 9.2763953499330754e-05 7.8699068055354537e-05 -0.98631825676226992 0.015971575618403566 -4.3497983343584901e-06 -0.0005434763715133073 -4.3497983343584901e-06 -0.19399968685100344 0.00020949680131288062 -0.0005434763715133073 0.00020949680131288062 -0.98570809369339596 0.018901699343731648 6.6993605998453733e-06 -0.00060840357529778899 6.6993605998453733e-06 -0.19337453446880515 -0.00021631686127143723 -0.00060840357529778899 -0.00021631686127143723 -0.98601111864511726 0.015985561680635474 2.4767065595331849e-06 -0.00054865118199221019 2.4767065595331849e-06 -0.19397203456843792 0.00018565358668354293 -0.00054865118199221019 0.00018565358668354293 -0.98566577603316397 0.01833505371079136 0.00022140890417131473 1.525904129962008e-05 0.00022140890417131473 -0.19348695759818191 9.633336116765534e-05 1.525904129962008e-05 9.633336116765534e-05 -0.98608099890832257 0.01742515971408054 0.00061897287836398958 -0.0001998532117559737 0.00061897287836398958 -0.19368765000763977 -4.3155179404452682e-05 -0.0001998532117559737 -4.3155179404452682e-05 -0.98591678787550441 
</DataArray>
</CellData>
</Piece>
</UnstructuredGrid>
</VTKFile>
