<?xml version="1.0"?>
<VTKFile type="UnstructuredGrid" version="0.1" byte_order="LittleEndian">
<UnstructuredGrid>
<Piece NumberOfPoints="2876" NumberOfCells="719">
<Points>
<DataArray type="Float64" NumberOfComponents="3" format="ascii">
0.31610726166346748 0.18804489794572149 0 0.16929708765618309 0.30074819035915368 0 0.14641016151452901 0.14641016151487049 0 0.312576188949791 0.31458070521983672 0.3125761889497819 0 0.20000000000083221 0 0 0 0 0.14641016151452901 0.14641016151487049 0 0 0.14641016151432179 0.14641016151432179 0 0 0 0.19999999999955789 0 0 0.14641016151452901 0.14641016151487049 0 0.1464101615145241 0 0.14641016151486561 0 0.14641016151432179 0.14641016151432179 0 0 0.20000000000083221 0 0 0 0.1464101615145241 0 0.14641016151486561 0 0.14641016151432179 0.14641016151432179 0 0.30074819035869899 0.1692970876565193 0 0.18804489794560331 0.31610726166461361 0.312576188949791 0.31458070521983672 0.3125761889497819 0.31578456131778371 0 0.1865278143482666 0.1464101615145241 0 0.14641016151486561 0.16938214347656569 0 0.30011357660650623 0.312576188949791 0.31458070521983672 0.3125761889497819 0 0.14641016151432179 0.14641016151432179 0 0 0 0.14641016151452901 0.14641016151487049 0 0.1464101615145241 0 0.14641016151486561 0.14641016151452901 0.14641016151487049 0 0.1464101615145241 0 0.14641016151486561 0.31578456131778371 0 0.1865278143482666 0.312576188949791 0.31458070521983672 0.3125761889497819 0.14641016151452901 0.14641016151487049 0 0 0.30074819035869899 0.1692970876565193 0 0.14641016151432179 0.14641016151432179 0.312576188949791 0.31458070521983672 0.3125761889497819 0.14641016151452901 0.14641016151487049 0 0 0.14641016151432179 0.14641016151432179 0.1464101615145241 0 0.14641016151486561 0.312576188949791 0.31458070521983672 0.3125761889497819 0 0.14641016151432179 0.14641016151432179 0.16938214347656569 0 0.30011357660650623 0.1464101615145241 0 0.14641016151486561 0.312576188949791 0.31458070521983672 0.3125761889497819 0.1464101615145241 0 0.14641016151486561 0 0.14641016151432179 0.14641016151432179 0 0 0.20000000000083221 0.16938214347656569 0 0.30011357660650623 0 0.18804489794560331 0.31610726166461361 0 0 0.20000000000083221 0 0.14641016151432179 0.14641016151432179 0.16938214347656569 0 0.30011357660650623 0 0.14641016151432179 0.14641016151432179 0.14641016151452901 0.14641016151487049 0 0 0.20000000000083221 0 0 0.30074819035869899 0.1692970876565193 0 0.30074819035869899 0.1692970876565193 0.14641016151452901 0.14641016151487049 0 0 0.20000000000083221 0 0.16929708765618309 0.30074819035915368 0 0.19999999999955789 0 0 0.14641016151452901 0.14641016151487049 0 0.31578456131778371 0 0.1865278143482666 0.31610726166346748 0.18804489794572149 0 0.19999999999955789 0 0 0.14641016151452901 0.14641016151487049 0 0.1464101615145241 0 0.14641016151486561 0.31578456131778371 0 0.1865278143482666 0.31578456131778371 0 0.1865278143482666 0.3999999999989749 0 0 0.19999999999955789 0 0 0.31610726166346748 0.18804489794572149 0 0.31578456131778371 0 0.1865278143482666 0.31610726166346748 0.18804489794572149 0 0.14641016151452901 0.14641016151487049 0 0.312576188949791 0.31458070521983672 0.3125761889497819 0.31610726166346748 0.18804489794572149 0 0.312576188949791 0.31458070521983672 0.3125761889497819 0.31578456131778371 0 0.1865278143482666 0.5003997205654479 0.21136633249797621 0.2258422409314382 0.31610726166346748 0.18804489794572149 0 0.49391845158624981 0 0.1323760430705655 0.50966790549376417 0.16275515618023731 0 0.5003997205654479 0.21136633249797621 0.2258422409314382 0.31610726166346748 0.18804489794572149 0 0.50966790549376417 0.16275515618023731 0 0.45812322962036273 0.31024977578535839 0 0.5003997205654479 0.21136633249797621 0.2258422409314382 0.49391845158624981 0 0.1323760430705655 0.3999999999989749 0 0 0.31610726166346748 0.18804489794572149 0 0.50966790549376417 0.16275515618023731 0 0.49391845158624981 0 0.1323760430705655 0.3999999999989749 0 0 0.31578456131778371 0 0.1865278143482666 0.31610726166346748 0.18804489794572149 0 0.31578456131778371 0 0.1865278143482666 0.47688326899416439 0 0.31741132792405607 0.49391845158624981 0 0.1323760430705655 0.5003997205654479 0.21136633249797621 0.2258422409314382 0.31610726166346748 0.18804489794572149 0 0.31578456131778371 0 0.1865278143482666 0.49391845158624981 0 0.1323760430705655 0.5003997205654479 0.21136633249797621 0.2258422409314382 0.31030302876556398 0 0.54179813558513157 0.50073570207385831 0.24848280280289631 0.52886631355986169 0.32146143392436449 0 0.38738071487621961 0.22088738526309029 0.22111069116742441 0.50004796911802929 0.32146143392436449 0 0.38738071487621961 0.312576188949791 0.31458070521983672 0.3125761889497819 0.16938214347656569 0 0.30011357660650623 0.22088738526309029 0.22111069116742441 0.50004796911802929 0.32146143392436449 0 0.38738071487621961 0.50073570207385831 0.24848280280289631 0.52886631355986169 0.312576188949791 0.31458070521983672 0.3125761889497819 0.22088738526309029 0.22111069116742441 0.50004796911802929 0.32146143392436449 0 0.38738071487621961 0.50073570207385831 0.24848280280289631 0.52886631355986169 0.47688326899416439 0 0.31741132792405607 0.5003997205654479 0.21136633249797621 0.2258422409314382 0.32146143392436449 0 0.38738071487621961 0.312576188949791 0.31458070521983672 0.3125761889497819 0.50073570207385831 0.24848280280289631 0.52886631355986169 0.5003997205654479 0.21136633249797621 0.2258422409314382 0.32146143392436449 0 0.38738071487621961 0.31578456131778371 0 0.1865278143482666 0.16938214347656569 0 0.30011357660650623 0.312576188949791 0.31458070521983672 0.3125761889497819 0.31578456131778371 0 0.1865278143482666 0.312576188949791 0.31458070521983672 0.3125761889497819 0.32146143392436449 0 0.38738071487621961 0.5003997205654479 0.21136633249797621 0.2258422409314382 0.31578456131778371 0 0.1865278143482666 0.32146143392436449 0 0.38738071487621961 0.47688326899416439 0 0.31741132792405607 0.5003997205654479 0.21136633249797621 0.2258422409314382 0.31030302876556398 0 0.54179813558513157 0.50000000000250922 0 0.48038475773043671 0.32146143392436449 0 0.38738071487621961 0.50073570207385831 0.24848280280289631 0.52886631355986169 0.32146143392436449 0 0.38738071487621961 0.50000000000250922 0 0.48038475773043671 0.47688326899416439 0 0.31741132792405607 0.50073570207385831 0.24848280280289631 0.52886631355986169 0.16370661204827031 0 0.4886650857430957 0.31030302876556398 0 0.54179813558513157 0.32146143392436449 0 0.38738071487621961 0.22088738526309029 0.22111069116742441 0.50004796911802929 0.16370661204827031 0 0.4886650857430957 0.32146143392436449 0 0.38738071487621961 0.16938214347656569 0 0.30011357660650623 0.22088738526309029 0.22111069116742441 0.50004796911802929 0.16938214347656569 0 0.30011357660650623 0 0.14641016151432179 0.14641016151432179 0 0.18804489794560331 0.31610726166461361 0.312576188949791 0.31458070521983672 0.3125761889497819 0 0.18804489794560331 0.31610726166461361 0.16370661204827031 0 0.4886650857430957 0.16938214347656569 0 0.30011357660650623 0.22088738526309029 0.22111069116742441 0.50004796911802929 0 0.18804489794560331 0.31610726166461361 0.16938214347656569 0 0.30011357660650623 0.312576188949791 0.31458070521983672 0.3125761889497819 0.22088738526309029 0.22111069116742441 0.50004796911802929 0 0 0.40000000000166441 0 0 0.60000000000138687 0.16370661204827031 0 0.4886650857430957 0 0.16275515618034081 0.50966790549591257 0 0 0.40000000000166441 0 0.18804489794560331 0.31610726166461361 0.16370661204827031 0 0.4886650857430957 0.16938214347656569 0 0.30011357660650623 0.16370661204827031 0 0.4886650857430957 0 0.18804489794560331 0.31610726166461361 0 0 0.40000000000166441 0 0.16275515618034081 0.50966790549591257 0 0.18804489794560331 0.31610726166461361 0 0 0.40000000000166441 0 0 0.20000000000083221 0.16938214347656569 0 0.30011357660650623 0 0.18804489794560331 0.31610726166461361 0 0.16275515618034081 0.50966790549591257 0.16370661204827031 0 0.4886650857430957 0.22088738526309029 0.22111069116742441 0.50004796911802929 0 0.18804489794560331 0.31610726166461361 0 0.31024977578556651 0.45812322962166352 0 0.16275515618034081 0.50966790549591257 0.22088738526309029 0.22111069116742441 0.50004796911802929 0 0.30074819035869899 0.1692970876565193 0 0.39615100178029522 0.32925244736138171 0 0.18804489794560331 0.31610726166461361 0.312576188949791 0.31458070521983672 0.3125761889497819 0 0.31024977578556651 0.45812322962166352 0.312576188949791 0.31458070521983672 0.3125761889497819 0.24769234054476261 0.52242103280823293 0.45098450226372488 0.22088738526309029 0.22111069116742441 0.50004796911802929 0 0.18804489794560331 0.31610726166461361 0 0.39615100178029522 0.32925244736138171 0 0.31024977578556651 0.45812322962166352 0.312576188949791 0.31458070521983672 0.3125761889497819 0 0.39615100178029522 0.32925244736138171 0.24769234054476261 0.52242103280823293 0.45098450226372488 0.312576188949791 0.31458070521983672 0.3125761889497819 0.22345881830598399 0.5062398304147856 0.22345881830602041 0 0.31024977578556651 0.45812322962166352 0.312576188949791 0.31458070521983672 0.3125761889497819 0 0.39615100178029522 0.32925244736138171 0.24769234054476261 0.52242103280823293 0.45098450226372488 0 0.30074819035869899 0.1692970876565193 0 0.39615100178029522 0.32925244736138171 0.312576188949791 0.31458070521983672 0.3125761889497819 0.22345881830598399 0.5062398304147856 0.22345881830602041 0 0.18804489794560331 0.31610726166461361 0.312576188949791 0.31458070521983672 0.3125761889497819 0 0.31024977578556651 0.45812322962166352 0.22088738526309029 0.22111069116742441 0.50004796911802929 0 0.31024977578556651 0.45812322962166352 0 0.39615100178029522 0.32925244736138171 0 0.50000000000237477 0.51961524226909872 0.24769234054476261 0.52242103280823293 0.45098450226372488 0.50000000000001332 0.49999999999999561 0.49999999999999561 0.50073570207385831 0.24848280280289631 0.52886631355986169 0.312576188949791 0.31458070521983672 0.3125761889497819 0.5004045312576143 0.47050700646456922 0.24963111222780321 0.24769234054476261 0.52242103280823293 0.45098450226372488 0.5004045312576143 0.47050700646456922 0.24963111222780321 0.312576188949791 0.31458070521983672 0.3125761889497819 0.22345881830598399 0.5062398304147856 0.22345881830602041 0.312576188949791 0.31458070521983672 0.3125761889497819 0.5004045312576143 0.47050700646456922 0.24963111222780321 0.50073570207385831 0.24848280280289631 0.52886631355986169 0.5003997205654479 0.21136633249797621 0.2258422409314382 0.50000000000001332 0.49999999999999561 0.49999999999999561 0.24769234054476261 0.52242103280823293 0.45098450226372488 0.312576188949791 0.31458070521983672 0.3125761889497819 0.50073570207385831 0.24848280280289631 0.52886631355986169 0.312576188949791 0.31458070521983672 0.3125761889497819 0.24769234054476261 0.52242103280823293 0.45098450226372488 0.50000000000001332 0.49999999999999561 0.49999999999999561 0.5004045312576143 0.47050700646456922 0.24963111222780321 0.312576188949791 0.31458070521983672 0.3125761889497819 0.50073570207385831 0.24848280280289631 0.52886631355986169 0.24769234054476261 0.52242103280823293 0.45098450226372488 0.22088738526309029 0.22111069116742441 0.50004796911802929 0.32925244736090059 0.39615100178043078 0 0.312576188949791 0.31458070521983672 0.3125761889497819 0.45812322962036273 0.31024977578535839 0 0.5004045312576143 0.47050700646456922 0.24963111222780321 0.32925244736090059 0.39615100178043078 0 0.5004045312576143 0.47050700646456922 0.24963111222780321 0.32446581821364329 0.60020898676454815 0 0.22345881830598399 0.5062398304147856 0.22345881830602041 0.45812322962036273 0.31024977578535839 0 0.5004045312576143 0.47050700646456922 0.24963111222780321 0.312576188949791 0.31458070521983672 0.3125761889497819 0.5003997205654479 0.21136633249797621 0.2258422409314382 0.45812322962036273 0.31024977578535839 0 0.32925244736090059 0.39615100178043078 0 0.31610726166346748 0.18804489794572149 0 0.312576188949791 0.31458070521983672 0.3125761889497819 0.16929708765618309 0.30074819035915368 0 0.312576188949791 0.31458070521983672 0.3125761889497819 0.32925244736090059 0.39615100178043078 0 0.22345881830598399 0.5062398304147856 0.22345881830602041 0.31610726166346748 0.18804489794572149 0 0.45812322962036273 0.31024977578535839 0 0.312576188949791 0.31458070521983672 0.3125761889497819 0.5003997205654479 0.21136633249797621 0.2258422409314382 0.32925244736090059 0.39615100178043078 0 0.312576188949791 0.31458070521983672 0.3125761889497819 0.5004045312576143 0.47050700646456922 0.24963111222780321 0.22345881830598399 0.5062398304147856 0.22345881830602041 0.32925244736090059 0.39615100178043078 0 0.16929708765618309 0.30074819035915368 0 0.31610726166346748 0.18804489794572149 0 0.312576188949791 0.31458070521983672 0.3125761889497819 0.32446581821364329 0.60020898676454815 0 0.32925244736090059 0.39615100178043078 0 0.51961524226956368 0.5000000000025091 0 0.5004045312576143 0.47050700646456922 0.24963111222780321 0.51961524226956368 0.5000000000025091 0 0.32925244736090059 0.39615100178043078 0 0.45812322962036273 0.31024977578535839 0 0.5004045312576143 0.47050700646456922 0.24963111222780321 0 0.30074819035869899 0.1692970876565193 0.14641016151452901 0.14641016151487049 0 0.16929708765618309 0.30074819035915368 0 0.312576188949791 0.31458070521983672 0.3125761889497819 0 0.30074819035869899 0.1692970876565193 0.312576188949791 0.31458070521983672 0.3125761889497819 0.16929708765618309 0.30074819035915368 0 0.22345881830598399 0.5062398304147856 0.22345881830602041 0.17226134197279269 0.49836539647922029 0 0 0.49836539647891548 0.17226134197271731 0.16929708765618309 0.30074819035915368 0 0.22345881830598399 0.5062398304147856 0.22345881830602041 0.17226134197279269 0.49836539647922029 0 0.16929708765618309 0.30074819035915368 0 0.32925244736090059 0.39615100178043078 0 0.22345881830598399 0.5062398304147856 0.22345881830602041 0 0.30074819035869899 0.1692970876565193 0 0.20000000000083221 0 0 0.40000000000166441 0 0.16929708765618309 0.30074819035915368 0 0 0.30074819035869899 0.1692970876565193 0 0.40000000000166441 0 0 0.49836539647891548 0.17226134197271731 0.16929708765618309 0.30074819035915368 0 0 0.30074819035869899 0.1692970876565193 0.16929708765618309 0.30074819035915368 0 0 0.49836539647891548 0.17226134197271731 0.22345881830598399 0.5062398304147856 0.22345881830602041 0 0.30074819035869899 0.1692970876565193 0 0.49836539647891548 0.17226134197271731 0 0.39615100178029522 0.32925244736138171 0.22345881830598399 0.5062398304147856 0.22345881830602041 0 0.49836539647891548 0.17226134197271731 0 0.40000000000166441 0 0 0.60000000000138687 0 0.17226134197279269 0.49836539647922029 0 0.16929708765618309 0.30074819035915368 0 0 0.40000000000166441 0 0 0.49836539647891548 0.17226134197271731 0.17226134197279269 0.49836539647922029 0 0 0.69449451837103049 0.15896804272139439 0 0.60020898676435996 0.32446581821286191 0.22345881830598399 0.5062398304147856 0.22345881830602041 0.19259015428765269 0.77719169076434647 0.19259015428773721 0.1589680427220837 0.69449451837091269 0 0 0.69449451837103049 0.15896804272139439 0.22345881830598399 0.5062398304147856 0.22345881830602041 0.19259015428765269 0.77719169076434647 0.19259015428773721 0 0.69449451837103049 0.15896804272139439 0.17226134197279269 0.49836539647922029 0 0 0.60000000000138687 0 0.1589680427220837 0.69449451837091269 0 0.32446581821364329 0.60020898676454815 0 0.1589680427220837 0.69449451837091269 0 0.22345881830598399 0.5062398304147856 0.22345881830602041 0.19259015428765269 0.77719169076434647 0.19259015428773721 0 0.60000000000138687 0 0 0.49836539647891548 0.17226134197271731 0.17226134197279269 0.49836539647922029 0 0 0.69449451837103049 0.15896804272139439 0 0.69449451837103049 0.15896804272139439 0 0.60000000000138687 0 0 0.79999999999999982 0 0.1589680427220837 0.69449451837091269 0 0.31067093463127438 0.81480288849489035 0 0.1589680427220837 0.69449451837091269 0 0.32446581821364329 0.60020898676454815 0 0.19259015428765269 0.77719169076434647 0.19259015428773721 0.32446581821364329 0.60020898676454815 0 0.1589680427220837 0.69449451837091269 0 0.17226134197279269 0.49836539647922029 0 0.22345881830598399 0.5062398304147856 0.22345881830602041 0.1589680427220837 0.69449451837091269 0 0 0.69449451837103049 0.15896804272139439 0.17226134197279269 0.49836539647922029 0 0.22345881830598399 0.5062398304147856 0.22345881830602041 0 0.69449451837103049 0.15896804272139439 0 0.81480288849496429 0.31067093462946233 0 0.60020898676435996 0.32446581821286191 0.19259015428765269 0.77719169076434647 0.19259015428773721 0 0.49836539647891548 0.17226134197271731 0 0.69449451837103049 0.15896804272139439 0 0.60020898676435996 0.32446581821286191 0.22345881830598399 0.5062398304147856 0.22345881830602041 0 0.49836539647891548 0.17226134197271731 0.17226134197279269 0.49836539647922029 0 0 0.69449451837103049 0.15896804272139439 0.22345881830598399 0.5062398304147856 0.22345881830602041 0 0.60020898676435996 0.32446581821286191 0.22516916914780419 0.77057994845201627 0.48187244075707292 0.35848654557803328 0.70013656506632282 0.30029870175293161 0.19259015428765269 0.77719169076434647 0.19259015428773721 0 0.60020898676435996 0.32446581821286191 0.24769234054476261 0.52242103280823293 0.45098450226372488 0 0.39615100178029522 0.32925244736138171 0.22345881830598399 0.5062398304147856 0.22345881830602041 0 0.60020898676435996 0.32446581821286191 0 0.81480288849496429 0.31067093462946233 0.22516916914780419 0.77057994845201627 0.48187244075707292 0.19259015428765269 0.77719169076434647 0.19259015428773721 0.35848654557803328 0.70013656506632282 0.30029870175293161 0.22345881830598399 0.5062398304147856 0.22345881830602041 0 0.60020898676435996 0.32446581821286191 0.19259015428765269 0.77719169076434647 0.19259015428773721 0 0.49836539647891548 0.17226134197271731 0 0.60020898676435996 0.32446581821286191 0 0.39615100178029522 0.32925244736138171 0.22345881830598399 0.5062398304147856 0.22345881830602041 0 0.60020898676435996 0.32446581821286191 0.24769234054476261 0.52242103280823293 0.45098450226372488 0.35848654557803328 0.70013656506632282 0.30029870175293161 0.22516916914780419 0.77057994845201627 0.48187244075707292 0.35848654557803328 0.70013656506632282 0.30029870175293161 0.24769234054476261 0.52242103280823293 0.45098450226372488 0 0.60020898676435996 0.32446581821286191 0.22345881830598399 0.5062398304147856 0.22345881830602041 0 0.39615100178029522 0.32925244736138171 0 0.60020898676435996 0.32446581821286191 0 0.50000000000237477 0.51961524226909872 0.24769234054476261 0.52242103280823293 0.45098450226372488 0 0.68801781652248195 0.45664527743358641 0 0.50000000000237477 0.51961524226909872 0 0.60020898676435996 0.32446581821286191 0.24769234054476261 0.52242103280823293 0.45098450226372488 0 0.66416205381430016 0.59944234540882957 0.24769234054476261 0.52242103280823293 0.45098450226372488 0 0.68801781652248195 0.45664527743358641 0.22516916914780419 0.77057994845201627 0.48187244075707292 0 0.60020898676435996 0.32446581821286191 0 0.81480288849496429 0.31067093462946233 0 0.68801781652248195 0.45664527743358641 0.22516916914780419 0.77057994845201627 0.48187244075707292 0 0.68801781652248195 0.45664527743358641 0.24769234054476261 0.52242103280823293 0.45098450226372488 0 0.60020898676435996 0.32446581821286191 0.22516916914780419 0.77057994845201627 0.48187244075707292 0.16929708765615539 1 0.30074819035677097 0.32926555316115258 1 0.39615987727515128 0.22516916914780419 0.77057994845201627 0.48187244075707292 0.19259015428765269 0.77719169076434647 0.19259015428773721 0 0.81480288849496429 0.31067093462946233 0.16929708765615539 1 0.30074819035677097 0.22516916914780419 0.77057994845201627 0.48187244075707292 0.19259015428765269 0.77719169076434647 0.19259015428773721 0.17226134197293 1 0.49836539647645101 0 0.83630110503664845 0.50803330197135654 0 0.81480288849496429 0.31067093462946233 0.22516916914780419 0.77057994845201627 0.48187244075707292 0 0.68801781652248195 0.45664527743358641 0 0.81480288849496429 0.31067093462946233 0 0.83630110503664845 0.50803330197135654 0.22516916914780419 0.77057994845201627 0.48187244075707292 0.17226134197293 1 0.49836539647645101 0 1 0.3999999999989749 0 0.81480288849496429 0.31067093462946233 0 0.83630110503664845 0.50803330197135654 0 0.81480288849496429 0.31067093462946233 0.16929708765615539 1 0.30074819035677097 0 1 0.3999999999989749 0.17226134197293 1 0.49836539647645101 0.17226134197293 1 0.49836539647645101 0 0.81480288849496429 0.31067093462946233 0.16929708765615539 1 0.30074819035677097 0.22516916914780419 0.77057994845201627 0.48187244075707292 0.17226134197293 1 0.49836539647645101 0.16929708765615539 1 0.30074819035677097 0.32926555316115258 1 0.39615987727515128 0.22516916914780419 0.77057994845201627 0.48187244075707292 0 1 0.3999999999989749 0 1 0.19999999999955789 0.16929708765615539 1 0.30074819035677097 0 0.81480288849496429 0.31067093462946233 0.16929708765615539 1 0.30074819035677097 0 1 0.19999999999955789 0 0.85358983848655678 0.14641016151332509 0 0.81480288849496429 0.31067093462946233 0.14641016151352521 1 0.1464101615131837 0 1 0.19999999999955789 0 0.85358983848655678 0.14641016151332509 0.16929708765615539 1 0.30074819035677097 0.20000000000083221 1 0 0 1 0 0.14641016151479211 0.85358983848543113 0 0.14641016151352521 1 0.1464101615131837 0 0.85358983848655678 0.14641016151332509 0 1 0 0 1 0.19999999999955789 0.14641016151352521 1 0.1464101615131837 0 0.85358983848655678 0.14641016151332509 0.14641016151479211 0.85358983848543113 0 0 1 0 0.14641016151352521 1 0.1464101615131837 0.14641016151479211 0.85358983848543113 0 0 1 0 0 0.79999999999999982 0 0 0.85358983848655678 0.14641016151332509 0 0.85358983848655678 0.14641016151332509 0 0.69449451837103049 0.15896804272139439 0.1589680427220837 0.69449451837091269 0 0.19259015428765269 0.77719169076434647 0.19259015428773721 0 0.79999999999999982 0 0.1589680427220837 0.69449451837091269 0 0.14641016151479211 0.85358983848543113 0 0 0.85358983848655678 0.14641016151332509 0.14641016151352521 1 0.1464101615131837 0 0.85358983848655678 0.14641016151332509 0.14641016151479211 0.85358983848543113 0 0.19259015428765269 0.77719169076434647 0.19259015428773721 0.1589680427220837 0.69449451837091269 0 0 0.79999999999999982 0 0 0.69449451837103049 0.15896804272139439 0 0.85358983848655678 0.14641016151332509 0.1589680427220837 0.69449451837091269 0 0.14641016151479211 0.85358983848543113 0 0 0.85358983848655678 0.14641016151332509 0.19259015428765269 0.77719169076434647 0.19259015428773721 0.16929708765615539 1 0.30074819035677097 0 0.81480288849496429 0.31067093462946233 0 0.85358983848655678 0.14641016151332509 0.19259015428765269 0.77719169076434647 0.19259015428773721 0 0.85358983848655678 0.14641016151332509 0 0.81480288849496429 0.31067093462946233 0 0.69449451837103049 0.15896804272139439 0.19259015428765269 0.77719169076434647 0.19259015428773721 0.14641016151352521 1 0.1464101615131837 0.14641016151479211 0.85358983848543113 0 0.31067093463127438 0.81480288849489035 0 0.19259015428765269 0.77719169076434647 0.19259015428773721 0.1589680427220837 0.69449451837091269 0 0.31067093463127438 0.81480288849489035 0 0.14641016151479211 0.85358983848543113 0 0.19259015428765269 0.77719169076434647 0.19259015428773721 0.14641016151479211 0.85358983848543113 0 0.31067093463127438 0.81480288849489035 0 0.20000000000083221 1 0 0.14641016151352521 1 0.1464101615131837 0.31635851157303152 1 0.18818969570840721 0.20000000000083221 1 0 0.31067093463127438 0.81480288849489035 0 0.14641016151352521 1 0.1464101615131837 0.31067093463127438 0.81480288849489035 0 0.31635851157303152 1 0.18818969570840721 0.14641016151352521 1 0.1464101615131837 0.19259015428765269 0.77719169076434647 0.19259015428773721 0.31635851157303152 1 0.18818969570840721 0.16929708765615539 1 0.30074819035677097 0.14641016151352521 1 0.1464101615131837 0.19259015428765269 0.77719169076434647 0.19259015428773721 0.14641016151352521 1 0.1464101615131837 0.16929708765615539 1 0.30074819035677097 0 0.85358983848655678 0.14641016151332509 0.19259015428765269 0.77719169076434647 0.19259015428773721 0.35848654557803328 0.70013656506632282 0.30029870175293161 0.19259015428765269 0.77719169076434647 0.19259015428773721 0.31635851157303152 1 0.18818969570840721 0.52894546611500048 0.79133000140429866 0.2082794184507949 0.31067093463127438 0.81480288849489035 0 0.19259015428765269 0.77719169076434647 0.19259015428773721 0.35848654557803328 0.70013656506632282 0.30029870175293161 0.52894546611500048 0.79133000140429866 0.2082794184507949 0.31067093463127438 0.81480288849489035 0 0.31635851157303152 1 0.18818969570840721 0.19259015428765269 0.77719169076434647 0.19259015428773721 0.52894546611500048 0.79133000140429866 0.2082794184507949 0.31067093463127438 0.81480288849489035 0 0.40000000000166441 1 0 0.20000000000083221 1 0 0.31635851157303152 1 0.18818969570840721 0.31067093463127438 0.81480288849489035 0 0.50803330197353713 0.83630110503668265 0 0.31635851157303152 1 0.18818969570840721 0.52894546611500048 0.79133000140429866 0.2082794184507949 0.45664527743509797 0.68801781652245086 0 0.50803330197353713 0.83630110503668265 0 0.31067093463127438 0.81480288849489035 0 0.52894546611500048 0.79133000140429866 0.2082794184507949 0.51133491425992716 1 0.16370661204795281 0.31635851157303152 1 0.18818969570840721 0.40000000000166441 1 0 0.50803330197353713 0.83630110503668265 0 0.31635851157303152 1 0.18818969570840721 0.31067093463127438 0.81480288849489035 0 0.40000000000166441 1 0 0.50803330197353713 0.83630110503668265 0 0.51133491425992716 1 0.16370661204795281 0.45820186441796368 1 0.31030302876579191 0.31635851157303152 1 0.18818969570840721 0.52894546611500048 0.79133000140429866 0.2082794184507949 0.51133491425992716 1 0.16370661204795281 0.31635851157303152 1 0.18818969570840721 0.50803330197353713 0.83630110503668265 0 0.52894546611500048 0.79133000140429866 0.2082794184507949 0.32926555316115258 1 0.39615987727515128 0.35848654557803328 0.70013656506632282 0.30029870175293161 0.49983993748706529 0.75039103705932653 0.52967335724801234 0.22516916914780419 0.77057994845201627 0.48187244075707292 0.35848654557803328 0.70013656506632282 0.30029870175293161 0.22516916914780419 0.77057994845201627 0.48187244075707292 0.32926555316115258 1 0.39615987727515128 0.19259015428765269 0.77719169076434647 0.19259015428773721 0.31635851157303152 1 0.18818969570840721 0.45820186441796368 1 0.31030302876579191 0.32926555316115258 1 0.39615987727515128 0.35848654557803328 0.70013656506632282 0.30029870175293161 0.45820186441796368 1 0.31030302876579191 0.35848654557803328 0.70013656506632282 0.30029870175293161 0.31635851157303152 1 0.18818969570840721 0.52894546611500048 0.79133000140429866 0.2082794184507949 0.31635851157303152 1 0.18818969570840721 0.35848654557803328 0.70013656506632282 0.30029870175293161 0.32926555316115258 1 0.39615987727515128 0.19259015428765269 0.77719169076434647 0.19259015428773721 0.45820186441796368 1 0.31030302876579191 0.49983993748706529 0.75039103705932653 0.52967335724801234 0.35848654557803328 0.70013656506632282 0.30029870175293161 0.52894546611500048 0.79133000140429866 0.2082794184507949 0.45820186441796368 1 0.31030302876579191 0.32926555316115258 1 0.39615987727515128 0.35848654557803328 0.70013656506632282 0.30029870175293161 0.49983993748706529 0.75039103705932653 0.52967335724801234 0.31635851157303152 1 0.18818969570840721 0.32926555316115258 1 0.39615987727515128 0.16929708765615539 1 0.30074819035677097 0.19259015428765269 0.77719169076434647 0.19259015428773721 0.32926555316115258 1 0.39615987727515128 0.32448110831226962 1 0.6002015905153204 0.17226134197293 1 0.49836539647645101 0.22516916914780419 0.77057994845201627 0.48187244075707292 0.45820186441796368 1 0.31030302876579191 0.51961524227008238 1 0.49999999999872219 0.32926555316115258 1 0.39615987727515128 0.49983993748706529 0.75039103705932653 0.52967335724801234 0.24769234054476261 0.52242103280823293 0.45098450226372488 0.49983993748706529 0.75039103705932653 0.52967335724801234 0.35848654557803328 0.70013656506632282 0.30029870175293161 0.22516916914780419 0.77057994845201627 0.48187244075707292 0.35848654557803328 0.70013656506632282 0.30029870175293161 0.50000000000001332 0.49999999999999561 0.49999999999999561 0.24769234054476261 0.52242103280823293 0.45098450226372488 0.5004045312576143 0.47050700646456922 0.24963111222780321 0.35848654557803328 0.70013656506632282 0.30029870175293161 0.24769234054476261 0.52242103280823293 0.45098450226372488 0.50000000000001332 0.49999999999999561 0.49999999999999561 0.49983993748706529 0.75039103705932653 0.52967335724801234 0.35848654557803328 0.70013656506632282 0.30029870175293161 0.5004045312576143 0.47050700646456922 0.24963111222780321 0.24769234054476261 0.52242103280823293 0.45098450226372488 0.22345881830598399 0.5062398304147856 0.22345881830602041 0.35848654557803328 0.70013656506632282 0.30029870175293161 0.32446581821364329 0.60020898676454815 0 0.5004045312576143 0.47050700646456922 0.24963111222780321 0.22345881830598399 0.5062398304147856 0.22345881830602041 0.31067093463127438 0.81480288849489035 0 0.32446581821364329 0.60020898676454815 0 0.45664527743509797 0.68801781652245086 0 0.35848654557803328 0.70013656506632282 0.30029870175293161 0.32446581821364329 0.60020898676454815 0 0.22345881830598399 0.5062398304147856 0.22345881830602041 0.35848654557803328 0.70013656506632282 0.30029870175293161 0.19259015428765269 0.77719169076434647 0.19259015428773721 0.32446581821364329 0.60020898676454815 0 0.45664527743509797 0.68801781652245086 0 0.35848654557803328 0.70013656506632282 0.30029870175293161 0.5004045312576143 0.47050700646456922 0.24963111222780321 0.31067093463127438 0.81480288849489035 0 0.32446581821364329 0.60020898676454815 0 0.35848654557803328 0.70013656506632282 0.30029870175293161 0.19259015428765269 0.77719169076434647 0.19259015428773721 0.45664527743509797 0.68801781652245086 0 0.31067093463127438 0.81480288849489035 0 0.35848654557803328 0.70013656506632282 0.30029870175293161 0.52894546611500048 0.79133000140429866 0.2082794184507949 0.35848654557803328 0.70013656506632282 0.30029870175293161 0.5004045312576143 0.47050700646456922 0.24963111222780321 0.45664527743509797 0.68801781652245086 0 0.52894546611500048 0.79133000140429866 0.2082794184507949 0.17226134197279269 0.49836539647922029 0 0.32925244736090059 0.39615100178043078 0 0.32446581821364329 0.60020898676454815 0 0.22345881830598399 0.5062398304147856 0.22345881830602041 0.32446581821364329 0.60020898676454815 0 0.51961524226956368 0.5000000000025091 0 0.45664527743509797 0.68801781652245086 0 0.5004045312576143 0.47050700646456922 0.24963111222780321 0.72722573386132172 0.60922248848163563 0 0.68456408135056701 0.68607101396845627 0.31096060989957619 0.59944234541082553 0.66416205381394655 0 0.77713227489941183 0.50036915849493024 0.21774643624003751 0.68456408135056701 0.68607101396845627 0.31096060989957619 0.5004045312576143 0.47050700646456922 0.24963111222780321 0.59944234541082553 0.66416205381394655 0 0.77713227489941183 0.50036915849493024 0.21774643624003751 0.59944234541082553 0.66416205381394655 0 0.45664527743509797 0.68801781652245086 0 0.5004045312576143 0.47050700646456922 0.24963111222780321 0.52894546611500048 0.79133000140429866 0.2082794184507949 0.51961524226956368 0.5000000000025091 0 0.67320508075660079 0.46954769941202479 0 0.59944234541082553 0.66416205381394655 0 0.5004045312576143 0.47050700646456922 0.24963111222780321 0.59944234541082553 0.66416205381394655 0 0.5004045312576143 0.47050700646456922 0.24963111222780321 0.68456408135056701 0.68607101396845627 0.31096060989957619 0.52894546611500048 0.79133000140429866 0.2082794184507949 0.59944234541082553 0.66416205381394655 0 0.5004045312576143 0.47050700646456922 0.24963111222780321 0.67320508075660079 0.46954769941202479 0 0.77713227489941183 0.50036915849493024 0.21774643624003751 0.59944234541082553 0.66416205381394655 0 0.52894546611500048 0.79133000140429866 0.2082794184507949 0.68456408135056701 0.68607101396845627 0.31096060989957619 0.81582077266975173 0.77657922508894406 0.18483084990574741 0.59944234541082553 0.66416205381394655 0 0.45664527743509797 0.68801781652245086 0 0.51961524226956368 0.5000000000025091 0 0.5004045312576143 0.47050700646456922 0.24963111222780321 0.59944234541082553 0.66416205381394655 0 0.68456408135056701 0.68607101396845627 0.31096060989957619 0.72722573386132172 0.60922248848163563 0 0.81582077266975173 0.77657922508894406 0.18483084990574741 0.45664527743509797 0.68801781652245086 0 0.59944234541082553 0.66416205381394655 0 0.50803330197353713 0.83630110503668265 0 0.52894546611500048 0.79133000140429866 0.2082794184507949 0.59944234541082553 0.66416205381394655 0 0.72722573386132172 0.60922248848163563 0 0.7054234997318658 0.80860557108880304 0 0.81582077266975173 0.77657922508894406 0.18483084990574741 0.72722573386132172 0.60922248848163563 0 0.59944234541082553 0.66416205381394655 0 0.67320508075660079 0.46954769941202479 0 0.77713227489941183 0.50036915849493024 0.21774643624003751 0.68456408135056701 0.68607101396845627 0.31096060989957619 0.5004045312576143 0.47050700646456922 0.24963111222780321 0.35848654557803328 0.70013656506632282 0.30029870175293161 0.52894546611500048 0.79133000140429866 0.2082794184507949 0.68456408135056701 0.68607101396845627 0.31096060989957619 0.35848654557803328 0.70013656506632282 0.30029870175293161 0.50000000000001332 0.49999999999999561 0.49999999999999561 0.49983993748706529 0.75039103705932653 0.52967335724801234 0.50000000000001332 0.49999999999999561 0.49999999999999561 0.35848654557803328 0.70013656506632282 0.30029870175293161 0.68456408135056701 0.68607101396845627 0.31096060989957619 0.5004045312576143 0.47050700646456922 0.24963111222780321 0.50000000000001332 0.49999999999999561 0.49999999999999561 0.68456408135056701 0.68607101396845627 0.31096060989957619 0.7504488434426726 0.53051757989633308 0.49836643074154852 0.5004045312576143 0.47050700646456922 0.24963111222780321 0.68456408135056701 0.68607101396845627 0.31096060989957619 0.49983993748706529 0.75039103705932653 0.52967335724801234 0.7504488434426726 0.53051757989633308 0.49836643074154852 0.77374673111774417 0.78860835645735528 0.49829081152968557 0.7504488434426726 0.53051757989633308 0.49836643074154852 0.5004045312576143 0.47050700646456922 0.24963111222780321 0.68456408135056701 0.68607101396845627 0.31096060989957619 0.77713227489941183 0.50036915849493024 0.21774643624003751 0.35848654557803328 0.70013656506632282 0.30029870175293161 0.49983993748706529 0.75039103705932653 0.52967335724801234 0.68456408135056701 0.68607101396845627 0.31096060989957619 0.52894546611500048 0.79133000140429866 0.2082794184507949 0.50000000000001332 0.49999999999999561 0.49999999999999561 0.7504488434426726 0.53051757989633308 0.49836643074154852 0.68456408135056701 0.68607101396845627 0.31096060989957619 0.49983993748706529 0.75039103705932653 0.52967335724801234 0.68456408135056701 0.68607101396845627 0.31096060989957619 0.52894546611500048 0.79133000140429866 0.2082794184507949 0.61068558124908323 1 0.33127740899601937 0.81582077266975173 0.77657922508894406 0.18483084990574741 0.61068558124908323 1 0.33127740899601937 0.49983993748706529 0.75039103705932653 0.52967335724801234 0.68456408135056701 0.68607101396845627 0.31096060989957619 0.77374673111774417 0.78860835645735528 0.49829081152968557 0.61068558124908323 1 0.33127740899601937 0.68240285647621723 1 0.52310058211166854 0.49983993748706529 0.75039103705932653 0.52967335724801234 0.77374673111774417 0.78860835645735528 0.49829081152968557 0.82751535738810444 1 0.31407731390515509 0.68456408135056701 0.68607101396845627 0.31096060989957619 0.61068558124908323 1 0.33127740899601937 0.81582077266975173 0.77657922508894406 0.18483084990574741 0.45820186441796368 1 0.31030302876579191 0.61068558124908323 1 0.33127740899601937 0.49983993748706529 0.75039103705932653 0.52967335724801234 0.52894546611500048 0.79133000140429866 0.2082794184507949 0.61068558124908323 1 0.33127740899601937 0.68456408135056701 0.68607101396845627 0.31096060989957619 0.82751535738810444 1 0.31407731390515509 0.77374673111774417 0.78860835645735528 0.49829081152968557 0.68456408135056701 0.68607101396845627 0.31096060989957619 0.49983993748706529 0.75039103705932653 0.52967335724801234 0.61068558124908323 1 0.33127740899601937 0.52894546611500048 0.79133000140429866 0.2082794184507949 0.61068558124908323 1 0.33127740899601937 0.68240285647621723 1 0.52310058211166854 0.51961524227008238 1 0.49999999999872219 0.49983993748706529 0.75039103705932653 0.52967335724801234 0.51961524227008238 1 0.49999999999872219 0.45820186441796368 1 0.31030302876579191 0.61068558124908323 1 0.33127740899601937 0.49983993748706529 0.75039103705932653 0.52967335724801234 0.68240285647621723 1 0.52310058211166854 0.61068558124908323 1 0.33127740899601937 0.82751535738810444 1 0.31407731390515509 0.77374673111774417 0.78860835645735528 0.49829081152968557 0.51133491425992716 1 0.16370661204795281 0.61068558124908323 1 0.33127740899601937 0.45820186441796368 1 0.31030302876579191 0.52894546611500048 0.79133000140429866 0.2082794184507949 0.51133491425992716 1 0.16370661204795281 0.69988642339594154 1 0.16938214347578889 0.61068558124908323 1 0.33127740899601937 0.52894546611500048 0.79133000140429866 0.2082794184507949 0.69988642339594154 1 0.16938214347578889 0.61068558124908323 1 0.33127740899601937 0.52894546611500048 0.79133000140429866 0.2082794184507949 0.81582077266975173 0.77657922508894406 0.18483084990574741 0.69988642339594154 1 0.16938214347578889 0.52894546611500048 0.79133000140429866 0.2082794184507949 0.7054234997318658 0.80860557108880304 0 0.81582077266975173 0.77657922508894406 0.18483084990574741 0.69988642339594154 1 0.16938214347578889 0.51133491425992716 1 0.16370661204795281 0.50803330197353713 0.83630110503668265 0 0.52894546611500048 0.79133000140429866 0.2082794184507949 0.59944234541082553 0.66416205381394655 0 0.7054234997318658 0.80860557108880304 0 0.52894546611500048 0.79133000140429866 0.2082794184507949 0.81582077266975173 0.77657922508894406 0.18483084990574741 0.60000000000138687 1 0 0.69988642339594154 1 0.16938214347578889 0.51133491425992716 1 0.16370661204795281 0.50803330197353713 0.83630110503668265 0 0.51133491425992716 1 0.16370661204795281 0.40000000000166441 1 0 0.60000000000138687 1 0 0.50803330197353713 0.83630110503668265 0 0.50803330197353713 0.83630110503668265 0 0.59944234541082553 0.66416205381394655 0 0.7054234997318658 0.80860557108880304 0 0.52894546611500048 0.79133000140429866 0.2082794184507949 0.69988642339594154 1 0.16938214347578889 0.50803330197353713 0.83630110503668265 0 0.7054234997318658 0.80860557108880304 0 0.52894546611500048 0.79133000140429866 0.2082794184507949 0.60000000000138687 1 0 0.79999999999999982 1 0 0.69988642339594154 1 0.16938214347578889 0.7054234997318658 0.80860557108880304 0 0.50803330197353713 0.83630110503668265 0 0.60000000000138687 1 0 0.69988642339594154 1 0.16938214347578889 0.7054234997318658 0.80860557108880304 0 0.69988642339594154 1 0.16938214347578889 0.82751535738810444 1 0.31407731390515509 0.61068558124908323 1 0.33127740899601937 0.81582077266975173 0.77657922508894406 0.18483084990574741 0.82751535738810444 1 0.31407731390515509 0.69988642339594154 1 0.16938214347578889 0.85358983848665693 1 0.14641016151322461 0.81582077266975173 0.77657922508894406 0.18483084990574741 0.69988642339594154 1 0.16938214347578889 0.85358983848666903 0.85358983848666903 0 0.85358983848665693 1 0.14641016151322461 0.81582077266975173 0.77657922508894406 0.18483084990574741 0.85358983848665693 1 0.14641016151322461 1 0.85358983848655678 0.14641016151332509 0.82751535738810444 1 0.31407731390515509 0.81582077266975173 0.77657922508894406 0.18483084990574741 0.85358983848666903 0.85358983848666903 0 0.85358983848665693 1 0.14641016151322461 0.79999999999999982 1 0 0.69988642339594154 1 0.16938214347578889 0.69988642339594154 1 0.16938214347578889 0.79999999999999982 1 0 0.85358983848666903 0.85358983848666903 0 0.7054234997318658 0.80860557108880304 0 0.85358983848666903 0.85358983848666903 0 0.7054234997318658 0.80860557108880304 0 0.85173693729186062 0.69992182039541118 0 0.81582077266975173 0.77657922508894406 0.18483084990574741 0.69988642339594154 1 0.16938214347578889 0.7054234997318658 0.80860557108880304 0 0.85358983848666903 0.85358983848666903 0 0.81582077266975173 0.77657922508894406 0.18483084990574741 1 0.85358983848655678 0.14641016151332509 1 0.69449451837101916 0.15896804272136739 1 0.8148028884949543 0.31067093462944562 0.81582077266975173 0.77657922508894406 0.18483084990574741 0.82751535738810444 1 0.31407731390515509 1 0.85358983848655678 0.14641016151332509 1 0.8148028884949543 0.31067093462944562 0.81582077266975173 0.77657922508894406 0.18483084990574741 1 0.85358983848655678 0.14641016151332509 0.85358983848666903 0.85358983848666903 0 1 0.79999999999999982 0 0.81582077266975173 0.77657922508894406 0.18483084990574741 1 0.79999999999999982 0 0.81582077266975173 0.77657922508894406 0.18483084990574741 1 0.69449451837101916 0.15896804272136739 1 0.85358983848655678 0.14641016151332509 0.85358983848666903 0.85358983848666903 0 1 0.85358983848655678 0.14641016151332509 0.85358983848665693 1 0.14641016151322461 0.81582077266975173 0.77657922508894406 0.18483084990574741 0.85358983848666903 0.85358983848666903 0 0.85173693729186062 0.69992182039541118 0 1 0.79999999999999982 0 0.81582077266975173 0.77657922508894406 0.18483084990574741 1 0.85358983848655678 0.14641016151332509 0.85358983848665693 1 0.14641016151322461 1 1 0 0.85358983848666903 0.85358983848666903 0 1 1 0.19999999999955789 0.85358983848665693 1 0.14641016151322461 1 1 0 1 0.85358983848655678 0.14641016151332509 1 1 0 1 0.85358983848655678 0.14641016151332509 0.85358983848666903 0.85358983848666903 0 1 0.79999999999999982 0 0.79999999999999982 1 0 1 1 0 0.85358983848665693 1 0.14641016151322461 0.85358983848666903 0.85358983848666903 0 0.82751535738810444 1 0.31407731390515509 0.85358983848665693 1 0.14641016151322461 1 1 0.19999999999955789 1 0.85358983848655678 0.14641016151332509 1 1 0.19999999999955789 1 0.8148028884949543 0.31067093462944562 0.82751535738810444 1 0.31407731390515509 1 0.85358983848655678 0.14641016151332509 1 1 0.3999999999989749 1 0.8148028884949543 0.31067093462944562 0.82751535738810444 1 0.31407731390515509 1 1 0.19999999999955789 0.82751535738810444 1 0.31407731390515509 0.77374673111774417 0.78860835645735528 0.49829081152968557 0.68456408135056701 0.68607101396845627 0.31096060989957619 0.81582077266975173 0.77657922508894406 0.18483084990574741 1 0.8148028884949543 0.31067093462944562 0.77374673111774417 0.78860835645735528 0.49829081152968557 0.82751535738810444 1 0.31407731390515509 0.81582077266975173 0.77657922508894406 0.18483084990574741 1 0.8148028884949543 0.31067093462944562 0.68456408135056701 0.68607101396845627 0.31096060989957619 0.77374673111774417 0.78860835645735528 0.49829081152968557 0.81582077266975173 0.77657922508894406 0.18483084990574741 1 0.8148028884949543 0.31067093462944562 0.86762395692956074 1 0.5060815484123421 0.82751535738810444 1 0.31407731390515509 0.77374673111774417 0.78860835645735528 0.49829081152968557 0.68240285647621723 1 0.52310058211166854 0.82751535738810444 1 0.31407731390515509 0.86762395692956074 1 0.5060815484123421 0.77374673111774417 0.78860835645735528 0.49829081152968557 0.86762395692956074 1 0.5060815484123421 1 1 0.3999999999989749 1 0.8148028884949543 0.31067093462944562 0.82751535738810444 1 0.31407731390515509 1 1 0.3999999999989749 1 0.83630110503662825 0.50803330197135588 0.86762395692956074 1 0.5060815484123421 1 0.8148028884949543 0.31067093462944562 1 0.8148028884949543 0.31067093462944562 1 0.83630110503662825 0.50803330197135588 0.86762395692956074 1 0.5060815484123421 0.77374673111774417 0.78860835645735528 0.49829081152968557 1 0.8148028884949543 0.31067093462944562 1 0.68975022421527898 0.45812322962078778 1 0.83630110503662825 0.50803330197135588 0.77374673111774417 0.78860835645735528 0.49829081152968557 1 0.39615100178016449 0.32925244736082498 0.7504488434426726 0.53051757989633308 0.49836643074154852 1 0.60020898676431722 0.32446581821274012 0.77713227489941183 0.50036915849493024 0.21774643624003751 1 0.68975022421527898 0.45812322962078778 0.68456408135056701 0.68607101396845627 0.31096060989957619 1 0.60020898676431722 0.32446581821274012 0.7504488434426726 0.53051757989633308 0.49836643074154852 1 0.8148028884949543 0.31067093462944562 0.68456408135056701 0.68607101396845627 0.31096060989957619 1 0.68975022421527898 0.45812322962078778 0.77374673111774417 0.78860835645735528 0.49829081152968557 1 0.68975022421527898 0.45812322962078778 0.68456408135056701 0.68607101396845627 0.31096060989957619 0.7504488434426726 0.53051757989633308 0.49836643074154852 0.77374673111774417 0.78860835645735528 0.49829081152968557 1 0.68975022421527898 0.45812322962078778 1 0.8148028884949543 0.31067093462944562 1 0.60020898676431722 0.32446581821274012 0.68456408135056701 0.68607101396845627 0.31096060989957619 0.68456408135056701 0.68607101396845627 0.31096060989957619 1 0.60020898676431722 0.32446581821274012 0.7504488434426726 0.53051757989633308 0.49836643074154852 0.77713227489941183 0.50036915849493024 0.21774643624003751 1 0.8148028884949543 0.31067093462944562 1 0.60020898676431722 0.32446581821274012 0.68456408135056701 0.68607101396845627 0.31096060989957619 0.81582077266975173 0.77657922508894406 0.18483084990574741 1 0.60020898676431722 0.32446581821274012 0.77713227489941183 0.50036915849493024 0.21774643624003751 0.68456408135056701 0.68607101396845627 0.31096060989957619 0.81582077266975173 0.77657922508894406 0.18483084990574741 1 0.50000000000229983 0.51961524226898759 1 0.68975022421527898 0.45812322962078778 1 0.60020898676431722 0.32446581821274012 0.7504488434426726 0.53051757989633308 0.49836643074154852 1 0.39615100178016449 0.32925244736082498 1 0.50000000000229983 0.51961524226898759 1 0.60020898676431722 0.32446581821274012 0.7504488434426726 0.53051757989633308 0.49836643074154852 0.84191918937744659 0.51186163305076127 0 1 0.49836539647890021 0.17226134197269399 1 0.69449451837101916 0.15896804272136739 0.77713227489941183 0.50036915849493024 0.21774643624003751 1 0.69449451837101916 0.15896804272136739 0.85173693729186062 0.69992182039541118 0 0.77713227489941183 0.50036915849493024 0.21774643624003751 0.81582077266975173 0.77657922508894406 0.18483084990574741 1 0.69449451837101916 0.15896804272136739 0.77713227489941183 0.50036915849493024 0.21774643624003751 1 0.60020898676431722 0.32446581821274012 0.81582077266975173 0.77657922508894406 0.18483084990574741 1 0.69449451837101916 0.15896804272136739 1 0.49836539647890021 0.17226134197269399 1 0.60020898676431722 0.32446581821274012 0.77713227489941183 0.50036915849493024 0.21774643624003751 0.72722573386132172 0.60922248848163563 0 0.77713227489941183 0.50036915849493024 0.21774643624003751 0.85173693729186062 0.69992182039541118 0 0.81582077266975173 0.77657922508894406 0.18483084990574741 0.72722573386132172 0.60922248848163563 0 0.68456408135056701 0.68607101396845627 0.31096060989957619 0.77713227489941183 0.50036915849493024 0.21774643624003751 0.81582077266975173 0.77657922508894406 0.18483084990574741 1 0.8148028884949543 0.31067093462944562 1 0.69449451837101916 0.15896804272136739 1 0.60020898676431722 0.32446581821274012 0.81582077266975173 0.77657922508894406 0.18483084990574741 0.72722573386132172 0.60922248848163563 0 0.67320508075660079 0.46954769941202479 0 0.84191918937744659 0.51186163305076127 0 0.77713227489941183 0.50036915849493024 0.21774643624003751 0.84191918937744659 0.51186163305076127 0 1 0.69449451837101916 0.15896804272136739 0.85173693729186062 0.69992182039541118 0 0.77713227489941183 0.50036915849493024 0.21774643624003751 0.72722573386132172 0.60922248848163563 0 0.84191918937744659 0.51186163305076127 0 0.85173693729186062 0.69992182039541118 0 0.77713227489941183 0.50036915849493024 0.21774643624003751 0.7054234997318658 0.80860557108880304 0 0.72722573386132172 0.60922248848163563 0 0.85173693729186062 0.69992182039541118 0 0.81582077266975173 0.77657922508894406 0.18483084990574741 1 0.69449451837101916 0.15896804272136739 0.85173693729186062 0.69992182039541118 0 1 0.79999999999999982 0 1 0.60000000000138687 0 1 0.69449451837101916 0.15896804272136739 0.81582077266975173 0.77657922508894406 0.18483084990574741 1 0.79999999999999982 0 0.85173693729186062 0.69992182039541118 0 0.84191918937744659 0.51186163305076127 0 0.85173693729186062 0.69992182039541118 0 1 0.69449451837101916 0.15896804272136739 1 0.60000000000138687 0 1 0.60000000000138687 0 1 0.69449451837101916 0.15896804272136739 0.84191918937744659 0.51186163305076127 0 1 0.49836539647890021 0.17226134197269399 1 0.40000000000166441 0 1 0.60000000000138687 0 0.84191918937744659 0.51186163305076127 0 1 0.49836539647890021 0.17226134197269399 0.80839867011859301 0.31807971531731721 0 0.85358983848570813 0.1464101615143738 0 1 0.30074819035868428 0.16929708765640439 0.68777432594363841 0.31447353261427252 0.31366778418247038 0.80839867011859301 0.31807971531731721 0 1 0.40000000000166441 0 0.84191918937744659 0.51186163305076127 0 1 0.49836539647890021 0.17226134197269399 1 0.40000000000166441 0 0.80839867011859301 0.31807971531731721 0 1 0.30074819035868428 0.16929708765640439 1 0.49836539647890021 0.17226134197269399 0.80839867011859301 0.31807971531731721 0 0.68777432594363841 0.31447353261427252 0.31366778418247038 1 0.30074819035868428 0.16929708765640439 0.77713227489941183 0.50036915849493024 0.21774643624003751 0.84191918937744659 0.51186163305076127 0 0.67320508075660079 0.46954769941202479 0 0.80839867011859301 0.31807971531731721 0 0.77713227489941183 0.50036915849493024 0.21774643624003751 0.84191918937744659 0.51186163305076127 0 0.80839867011859301 0.31807971531731721 0 1 0.49836539647890021 0.17226134197269399 0.77713227489941183 0.50036915849493024 0.21774643624003751 0.80839867011859301 0.31807971531731721 0 1 0.30074819035868428 0.16929708765640439 1 0.49836539647890021 0.17226134197269399 0.77713227489941183 0.50036915849493024 0.21774643624003751 1 0.30074819035868428 0.16929708765640439 1 0.39615100178016449 0.32925244736082498 1 0.49836539647890021 0.17226134197269399 0.77713227489941183 0.50036915849493024 0.21774643624003751 1 0.30074819035868428 0.16929708765640439 0.80839867011859301 0.31807971531731721 0 1 0.40000000000166441 0 1 0.20000000000083221 0 1 0.30074819035868428 0.16929708765640439 0.80839867011859301 0.31807971531731721 0 1 0.20000000000083221 0 0.85358983848570813 0.1464101615143738 0 1 0.20000000000083221 0 1 0.14641016151453831 0.14641016151419689 1 0.30074819035868428 0.16929708765640439 0.85358983848570813 0.1464101615143738 0 0.83057691269884504 0 0.30018449338884379 0.85358983848650494 0 0.1464101615132356 0.68592116352011878 0 0.1724872797865501 0.68777432594363841 0.31447353261427252 0.31366778418247038 0.80839867011859301 0.31807971531731721 0 0.69380980079964416 0.1619694349440581 0 0.85358983848570813 0.1464101615143738 0 0.68777432594363841 0.31447353261427252 0.31366778418247038 1 0.18804489794556911 0.3161072616634244 1 0.30074819035868428 0.16929708765640439 1 0.14641016151453831 0.14641016151419689 0.68777432594363841 0.31447353261427252 0.31366778418247038 1 0.14641016151453831 0.14641016151419689 1 0.30074819035868428 0.16929708765640439 0.85358983848570813 0.1464101615143738 0 0.68777432594363841 0.31447353261427252 0.31366778418247038 1 0.14641016151453831 0.14641016151419689 0.85358983848650494 0 0.1464101615132356 0.83057691269884504 0 0.30018449338884379 0.68777432594363841 0.31447353261427252 0.31366778418247038 1 0.14641016151453831 0.14641016151419689 0.85358983848570813 0.1464101615143738 0 0.85358983848650494 0 0.1464101615132356 0.68777432594363841 0.31447353261427252 0.31366778418247038 0.69380980079964416 0.1619694349440581 0 0.85358983848650494 0 0.1464101615132356 0.85358983848570813 0.1464101615143738 0 0.68777432594363841 0.31447353261427252 0.31366778418247038 0.85358983848650494 0 0.1464101615132356 0.83057691269884504 0 0.30018449338884379 1 0 0.19999999999955789 1 0.14641016151453831 0.14641016151419689 0.83057691269884504 0 0.30018449338884379 1 0.18804489794556911 0.3161072616634244 1 0 0.19999999999955789 1 0.14641016151453831 0.14641016151419689 0.85358983848570813 0.1464101615143738 0 1 0 0 0.85358983848650494 0 0.1464101615132356 0.79999999999947335 0 0 0.85358983848650494 0 0.1464101615132356 1 0 0.19999999999955789 1 0 0 1 0.14641016151453831 0.14641016151419689 1 0 0 1 0.14641016151453831 0.14641016151419689 1 0.20000000000083221 0 0.85358983848570813 0.1464101615143738 0 1 0.14641016151453831 0.14641016151419689 1 0 0 0.85358983848650494 0 0.1464101615132356 0.85358983848570813 0.1464101615143738 0 0.68592116352011878 0 0.1724872797865501 0.69380980079964416 0.1619694349440581 0 0.85358983848650494 0 0.1464101615132356 0.79999999999947335 0 0 0.85358983848570813 0.1464101615143738 0 0.85358983848650494 0 0.1464101615132356 0.69380980079964416 0.1619694349440581 0 0.79999999999947335 0 0 0.68592116352011878 0 0.1724872797865501 0.68777432594363841 0.31447353261427252 0.31366778418247038 0.69380980079964416 0.1619694349440581 0 0.5003997205654479 0.21136633249797621 0.2258422409314382 0.68592116352011878 0 0.1724872797865501 0.85358983848650494 0 0.1464101615132356 0.69380980079964416 0.1619694349440581 0 0.68777432594363841 0.31447353261427252 0.31366778418247038 0.69380980079964416 0.1619694349440581 0 0.68592116352011878 0 0.1724872797865501 0.59999999999894682 0 0 0.79999999999947335 0 0 0.49391845158624981 0 0.1323760430705655 0.3999999999989749 0 0 0.50966790549376417 0.16275515618023731 0 0.59999999999894682 0 0 0.50966790549376417 0.16275515618023731 0 0.69380980079964416 0.1619694349440581 0 0.68592116352011878 0 0.1724872797865501 0.59999999999894682 0 0 0.68592116352011878 0 0.1724872797865501 0.49391845158624981 0 0.1323760430705655 0.50966790549376417 0.16275515618023731 0 0.59999999999894682 0 0 0.47688326899416439 0 0.31741132792405607 0.68592116352011878 0 0.1724872797865501 0.49391845158624981 0 0.1323760430705655 0.5003997205654479 0.21136633249797621 0.2258422409314382 0.49391845158624981 0 0.1323760430705655 0.68592116352011878 0 0.1724872797865501 0.50966790549376417 0.16275515618023731 0 0.5003997205654479 0.21136633249797621 0.2258422409314382 0.50966790549376417 0.16275515618023731 0 0.68592116352011878 0 0.1724872797865501 0.69380980079964416 0.1619694349440581 0 0.5003997205654479 0.21136633249797621 0.2258422409314382 0.6104699881764214 0.32043363027358418 0 0.50966790549376417 0.16275515618023731 0 0.69380980079964416 0.1619694349440581 0 0.5003997205654479 0.21136633249797621 0.2258422409314382 0.6104699881764214 0.32043363027358418 0 0.68777432594363841 0.31447353261427252 0.31366778418247038 0.80839867011859301 0.31807971531731721 0 0.77713227489941183 0.50036915849493024 0.21774643624003751 0.6104699881764214 0.32043363027358418 0 0.69380980079964416 0.1619694349440581 0 0.68777432594363841 0.31447353261427252 0.31366778418247038 0.5003997205654479 0.21136633249797621 0.2258422409314382 0.80839867011859301 0.31807971531731721 0 0.6104699881764214 0.32043363027358418 0 0.69380980079964416 0.1619694349440581 0 0.68777432594363841 0.31447353261427252 0.31366778418247038 0.6104699881764214 0.32043363027358418 0 0.45812322962036273 0.31024977578535839 0 0.50966790549376417 0.16275515618023731 0 0.5003997205654479 0.21136633249797621 0.2258422409314382 0.45812322962036273 0.31024977578535839 0 0.6104699881764214 0.32043363027358418 0 0.5004045312576143 0.47050700646456922 0.24963111222780321 0.5003997205654479 0.21136633249797621 0.2258422409314382 0.77713227489941183 0.50036915849493024 0.21774643624003751 0.6104699881764214 0.32043363027358418 0 0.5004045312576143 0.47050700646456922 0.24963111222780321 0.67320508075660079 0.46954769941202479 0 0.68777432594363841 0.31447353261427252 0.31366778418247038 0.5004045312576143 0.47050700646456922 0.24963111222780321 0.6104699881764214 0.32043363027358418 0 0.5003997205654479 0.21136633249797621 0.2258422409314382 0.77713227489941183 0.50036915849493024 0.21774643624003751 0.5004045312576143 0.47050700646456922 0.24963111222780321 0.6104699881764214 0.32043363027358418 0 0.68777432594363841 0.31447353261427252 0.31366778418247038 0.51961524226956368 0.5000000000025091 0 0.6104699881764214 0.32043363027358418 0 0.67320508075660079 0.46954769941202479 0 0.5004045312576143 0.47050700646456922 0.24963111222780321 0.45812322962036273 0.31024977578535839 0 0.6104699881764214 0.32043363027358418 0 0.51961524226956368 0.5000000000025091 0 0.5004045312576143 0.47050700646456922 0.24963111222780321 0.6104699881764214 0.32043363027358418 0 0.80839867011859301 0.31807971531731721 0 0.67320508075660079 0.46954769941202479 0 0.77713227489941183 0.50036915849493024 0.21774643624003751 0.68777432594363841 0.31447353261427252 0.31366778418247038 0.7504488434426726 0.53051757989633308 0.49836643074154852 0.50000000000001332 0.49999999999999561 0.49999999999999561 0.50073570207385831 0.24848280280289631 0.52886631355986169 0.7504488434426726 0.53051757989633308 0.49836643074154852 0.50073570207385831 0.24848280280289631 0.52886631355986169 0.68777432594363841 0.31447353261427252 0.31366778418247038 0.77973766487723961 0.22090161127815711 0.50014622462635805 0.50000000000001332 0.49999999999999561 0.49999999999999561 0.7504488434426726 0.53051757989633308 0.49836643074154852 0.68777432594363841 0.31447353261427252 0.31366778418247038 0.5004045312576143 0.47050700646456922 0.24963111222780321 0.68777432594363841 0.31447353261427252 0.31366778418247038 0.5004045312576143 0.47050700646456922 0.24963111222780321 0.7504488434426726 0.53051757989633308 0.49836643074154852 0.77713227489941183 0.50036915849493024 0.21774643624003751 0.50073570207385831 0.24848280280289631 0.52886631355986169 0.5004045312576143 0.47050700646456922 0.24963111222780321 0.68777432594363841 0.31447353261427252 0.31366778418247038 0.5003997205654479 0.21136633249797621 0.2258422409314382 0.50000000000001332 0.49999999999999561 0.49999999999999561 0.68777432594363841 0.31447353261427252 0.31366778418247038 0.50073570207385831 0.24848280280289631 0.52886631355986169 0.5004045312576143 0.47050700646456922 0.24963111222780321 0.83057691269884504 0 0.30018449338884379 0.68777432594363841 0.31447353261427252 0.31366778418247038 0.66852282575985944 0 0.3853248791658106 0.77973766487723961 0.22090161127815711 0.50014622462635805 0.68592116352011878 0 0.1724872797865501 0.66852282575985944 0 0.3853248791658106 0.83057691269884504 0 0.30018449338884379 0.68777432594363841 0.31447353261427252 0.31366778418247038 0.66852282575985944 0 0.3853248791658106 0.47688326899416439 0 0.31741132792405607 0.50073570207385831 0.24848280280289631 0.52886631355986169 0.5003997205654479 0.21136633249797621 0.2258422409314382 0.68969697123394857 0 0.54179813558228873 0.66852282575985944 0 0.3853248791658106 0.50073570207385831 0.24848280280289631 0.52886631355986169 0.77973766487723961 0.22090161127815711 0.50014622462635805 0.68592116352011878 0 0.1724872797865501 0.66852282575985944 0 0.3853248791658106 0.68777432594363841 0.31447353261427252 0.31366778418247038 0.5003997205654479 0.21136633249797621 0.2258422409314382 0.66852282575985944 0 0.3853248791658106 0.50073570207385831 0.24848280280289631 0.52886631355986169 0.68777432594363841 0.31447353261427252 0.31366778418247038 0.5003997205654479 0.21136633249797621 0.2258422409314382 0.68777432594363841 0.31447353261427252 0.31366778418247038 0.50073570207385831 0.24848280280289631 0.52886631355986169 0.66852282575985944 0 0.3853248791658106 0.77973766487723961 0.22090161127815711 0.50014622462635805 0.68592116352011878 0 0.1724872797865501 0.47688326899416439 0 0.31741132792405607 0.66852282575985944 0 0.3853248791658106 0.5003997205654479 0.21136633249797621 0.2258422409314382 0.50000000000250922 0 0.48038475773043671 0.66852282575985944 0 0.3853248791658106 0.47688326899416439 0 0.31741132792405607 0.50073570207385831 0.24848280280289631 0.52886631355986169 0.50000000000250922 0 0.48038475773043671 0.68969697123394857 0 0.54179813558228873 0.66852282575985944 0 0.3853248791658106 0.50073570207385831 0.24848280280289631 0.52886631355986169 0.66852282575985944 0 0.3853248791658106 0.68969697123394857 0 0.54179813558228873 0.83534964916824084 0 0.4902996892628636 0.77973766487723961 0.22090161127815711 0.50014622462635805 1 0.18804489794556911 0.3161072616634244 0.68777432594363841 0.31447353261427252 0.31366778418247038 0.83057691269884504 0 0.30018449338884379 0.77973766487723961 0.22090161127815711 0.50014622462635805 1 0.18804489794556911 0.3161072616634244 1 0.14641016151453831 0.14641016151419689 0.83057691269884504 0 0.30018449338884379 0.68777432594363841 0.31447353261427252 0.31366778418247038 0.83534964916824084 0 0.4902996892628636 0.83057691269884504 0 0.30018449338884379 0.66852282575985944 0 0.3853248791658106 0.77973766487723961 0.22090161127815711 0.50014622462635805 0.83534964916824084 0 0.4902996892628636 1 0.18804489794556911 0.3161072616634244 0.83057691269884504 0 0.30018449338884379 0.77973766487723961 0.22090161127815711 0.50014622462635805 0.83057691269884504 0 0.30018449338884379 0.83534964916824084 0 0.4902996892628636 1 0 0.3999999999989749 1 0.18804489794556911 0.3161072616634244 0.83534964916824084 0 0.4902996892628636 1 0.162755156180173 0.50966790549372887 1 0 0.59999999999894682 1 0 0.3999999999989749 1 0 0.3999999999989749 0.83534964916824084 0 0.4902996892628636 1 0.162755156180173 0.50966790549372887 1 0.18804489794556911 0.3161072616634244 1 0.18804489794556911 0.3161072616634244 1 0 0.3999999999989749 0.83057691269884504 0 0.30018449338884379 1 0 0.19999999999955789 1 0.31024977578542368 0.45812322962028301 1 0.18804489794556911 0.3161072616634244 1 0.162755156180173 0.50966790549372887 0.77973766487723961 0.22090161127815711 0.50014622462635805 0.83534964916824084 0 0.4902996892628636 1 0.162755156180173 0.50966790549372887 1 0.18804489794556911 0.3161072616634244 0.77973766487723961 0.22090161127815711 0.50014622462635805 1 0.39615100178016449 0.32925244736082498 0.68777432594363841 0.31447353261427252 0.31366778418247038 0.7504488434426726 0.53051757989633308 0.49836643074154852 0.77713227489941183 0.50036915849493024 0.21774643624003751 1 0.39615100178016449 0.32925244736082498 1 0.18804489794556911 0.3161072616634244 1 0.31024977578542368 0.45812322962028301 0.68777432594363841 0.31447353261427252 0.31366778418247038 1 0.31024977578542368 0.45812322962028301 0.7504488434426726 0.53051757989633308 0.49836643074154852 0.68777432594363841 0.31447353261427252 0.31366778418247038 0.77973766487723961 0.22090161127815711 0.50014622462635805 1 0.30074819035868428 0.16929708765640439 1 0.18804489794556911 0.3161072616634244 1 0.39615100178016449 0.32925244736082498 0.68777432594363841 0.31447353261427252 0.31366778418247038 1 0.31024977578542368 0.45812322962028301 0.68777432594363841 0.31447353261427252 0.31366778418247038 1 0.18804489794556911 0.3161072616634244 0.77973766487723961 0.22090161127815711 0.50014622462635805 1 0.30074819035868428 0.16929708765640439 0.68777432594363841 0.31447353261427252 0.31366778418247038 1 0.39615100178016449 0.32925244736082498 0.77713227489941183 0.50036915849493024 0.21774643624003751 1 0.39615100178016449 0.32925244736082498 0.68777432594363841 0.31447353261427252 0.31366778418247038 1 0.31024977578542368 0.45812322962028301 0.7504488434426726 0.53051757989633308 0.49836643074154852 1 0.60020898676431722 0.32446581821274012 1 0.49836539647890021 0.17226134197269399 1 0.39615100178016449 0.32925244736082498 0.77713227489941183 0.50036915849493024 0.21774643624003751 1 0.39615100178016449 0.32925244736082498 1 0.31024977578542368 0.45812322962028301 1 0.50000000000229983 0.51961524226898759 0.7504488434426726 0.53051757989633308 0.49836643074154852 1 0.33579115324550912 0.59952339316293046 0.7504488434426726 0.53051757989633308 0.49836643074154852 0.68742751001967084 0.31250796680084852 0.687427510020161 0.78019141325921404 0.49972466465542442 0.78019141325930785 1 0.33579115324550912 0.59952339316293046 1 0.39076805646076263 0.7272421105028648 0.68742751001967084 0.31250796680084852 0.687427510020161 0.81599560342209843 0.22280203704001911 0.81599560342233202 1 0.33579115324550912 0.59952339316293046 1 0.53045230059030524 0.6732050807565132 1 0.50000000000229983 0.51961524226898759 0.7504488434426726 0.53051757989633308 0.49836643074154852 1 0.33579115324550912 0.59952339316293046 0.7504488434426726 0.53051757989633308 0.49836643074154852 1 0.31024977578542368 0.45812322962028301 0.77973766487723961 0.22090161127815711 0.50014622462635805 0.68742751001967084 0.31250796680084852 0.687427510020161 0.77973766487723961 0.22090161127815711 0.50014622462635805 1 0.33579115324550912 0.59952339316293046 0.81599560342209843 0.22280203704001911 0.81599560342233202 1 0.33579115324550912 0.59952339316293046 0.68742751001967084 0.31250796680084852 0.687427510020161 0.7504488434426726 0.53051757989633308 0.49836643074154852 0.77973766487723961 0.22090161127815711 0.50014622462635805 1 0.53045230059030524 0.6732050807565132 0.7504488434426726 0.53051757989633308 0.49836643074154852 1 0.33579115324550912 0.59952339316293046 0.78019141325921404 0.49972466465542442 0.78019141325930785 1 0.39076805646076263 0.7272421105028648 1 0.33579115324550912 0.59952339316293046 0.68742751001967084 0.31250796680084852 0.687427510020161 0.78019141325921404 0.49972466465542442 0.78019141325930785 1 0.33579115324550912 0.59952339316293046 1 0.50000000000229983 0.51961524226898759 1 0.31024977578542368 0.45812322962028301 0.7504488434426726 0.53051757989633308 0.49836643074154852 1 0.39076805646076263 0.7272421105028648 1 0.53045230059030524 0.6732050807565132 1 0.33579115324550912 0.59952339316293046 0.78019141325921404 0.49972466465542442 0.78019141325930785 1 0.33579115324550912 0.59952339316293046 1 0.1912596090855686 0.70565701451953711 1 0.39076805646076263 0.7272421105028648 0.81599560342209843 0.22280203704001911 0.81599560342233202 1 0.33579115324550912 0.59952339316293046 1 0.31024977578542368 0.45812322962028301 1 0.162755156180173 0.50966790549372887 0.77973766487723961 0.22090161127815711 0.50014622462635805 1 0.162755156180173 0.50966790549372887 0.81469961246449951 0 0.68914937826112133 1 0.1912596090855686 0.70565701451953711 0.77973766487723961 0.22090161127815711 0.50014622462635805 0.81469961246449951 0 0.68914937826112133 0.77973766487723961 0.22090161127815711 0.50014622462635805 0.68742751001967084 0.31250796680084852 0.687427510020161 0.81599560342209843 0.22280203704001911 0.81599560342233202 0.81469961246449951 0 0.68914937826112133 1 0.1912596090855686 0.70565701451953711 0.77973766487723961 0.22090161127815711 0.50014622462635805 0.81599560342209843 0.22280203704001911 0.81599560342233202 1 0.1912596090855686 0.70565701451953711 1 0.33579115324550912 0.59952339316293046 0.77973766487723961 0.22090161127815711 0.50014622462635805 0.81599560342209843 0.22280203704001911 0.81599560342233202 1 0.162755156180173 0.50966790549372887 1 0.1912596090855686 0.70565701451953711 1 0.33579115324550912 0.59952339316293046 0.77973766487723961 0.22090161127815711 0.50014622462635805 1 0.1912596090855686 0.70565701451953711 0.81469961246449951 0 0.68914937826112133 1 0 0.59999999999894682 1 0 0.79999999999947335 0.81469961246449951 0 0.68914937826112133 1 0 0.59999999999894682 1 0.162755156180173 0.50966790549372887 1 0.1912596090855686 0.70565701451953711 1 0.162755156180173 0.50966790549372887 1 0 0.59999999999894682 0.81469961246449951 0 0.68914937826112133 0.83534964916824084 0 0.4902996892628636 0.81469961246449951 0 0.68914937826112133 0.83534964916824084 0 0.4902996892628636 0.68969697123394857 0 0.54179813558228873 0.77973766487723961 0.22090161127815711 0.50014622462635805 0.81469961246449951 0 0.68914937826112133 1 0.162755156180173 0.50966790549372887 0.83534964916824084 0 0.4902996892628636 0.77973766487723961 0.22090161127815711 0.50014622462635805 0.68969697123394857 0 0.54179813558228873 0.6002015905170176 0 0.67551889168744117 0.68742751001967084 0.31250796680084852 0.687427510020161 0.50073570207385831 0.24848280280289631 0.52886631355986169 0.6002015905170176 0 0.67551889168744117 0.81469961246449951 0 0.68914937826112133 0.68969697123394857 0 0.54179813558228873 0.68742751001967084 0.31250796680084852 0.687427510020161 0.81469961246449951 0 0.68914937826112133 0.68969697123394857 0 0.54179813558228873 0.68742751001967084 0.31250796680084852 0.687427510020161 0.77973766487723961 0.22090161127815711 0.50014622462635805 0.69447607299129699 0 0.84099946107689361 0.68742751001967084 0.31250796680084852 0.687427510020161 0.6002015905170176 0 0.67551889168744117 0.50084626324420545 0.22238844715913 0.78084811589659187 0.68742751001967084 0.31250796680084852 0.687427510020161 0.68969697123394857 0 0.54179813558228873 0.50073570207385831 0.24848280280289631 0.52886631355986169 0.77973766487723961 0.22090161127815711 0.50014622462635805 0.68742751001967084 0.31250796680084852 0.687427510020161 0.50073570207385831 0.24848280280289631 0.52886631355986169 0.6002015905170176 0 0.67551889168744117 0.50084626324420545 0.22238844715913 0.78084811589659187 0.6002015905170176 0 0.67551889168744117 0.81469961246449951 0 0.68914937826112133 0.68742751001967084 0.31250796680084852 0.687427510020161 0.81599560342209843 0.22280203704001911 0.81599560342233202 0.68969697123394857 0 0.54179813558228873 0.50000000000250922 0 0.48038475773043671 0.6002015905170176 0 0.67551889168744117 0.50073570207385831 0.24848280280289631 0.52886631355986169 0.50000000000001332 0.49999999999999561 0.49999999999999561 0.68742751001967084 0.31250796680084852 0.687427510020161 0.49816183246753282 0.5307146639261795 0.75045686993209071 0.50073570207385831 0.24848280280289631 0.52886631355986169 0.68742751001967084 0.31250796680084852 0.687427510020161 0.50000000000001332 0.49999999999999561 0.49999999999999561 0.7504488434426726 0.53051757989633308 0.49836643074154852 0.50073570207385831 0.24848280280289631 0.52886631355986169 0.68742751001967084 0.31250796680084852 0.687427510020161 0.7504488434426726 0.53051757989633308 0.49836643074154852 0.50000000000001332 0.49999999999999561 0.49999999999999561 0.49816183246753282 0.5307146639261795 0.75045686993209071 0.7504488434426726 0.53051757989633308 0.49836643074154852 0.49816183246753282 0.5307146639261795 0.75045686993209071 0.68742751001967084 0.31250796680084852 0.687427510020161 0.78019141325921404 0.49972466465542442 0.78019141325930785 0.49816183246753282 0.5307146639261795 0.75045686993209071 0.50073570207385831 0.24848280280289631 0.52886631355986169 0.68742751001967084 0.31250796680084852 0.687427510020161 0.50084626324420545 0.22238844715913 0.78084811589659187 0.68742751001967084 0.31250796680084852 0.687427510020161 0.50073570207385831 0.24848280280289631 0.52886631355986169 0.7504488434426726 0.53051757989633308 0.49836643074154852 0.77973766487723961 0.22090161127815711 0.50014622462635805 0.45812322962173568 0.31024977578554058 1 0.49816183246753282 0.5307146639261795 0.75045686993209071 0.59952339316492498 0.33579115324593939 1 0.50084626324420545 0.22238844715913 0.78084811589659187 0.59952339316492498 0.33579115324593939 1 0.68742751001967084 0.31250796680084852 0.687427510020161 0.72724211050425436 0.39076805646176382 1 0.81599560342209843 0.22280203704001911 0.81599560342233202 0.59952339316492498 0.33579115324593939 1 0.68742751001967084 0.31250796680084852 0.687427510020161 0.49816183246753282 0.5307146639261795 0.75045686993209071 0.78019141325921404 0.49972466465542442 0.78019141325930785 0.59952339316492498 0.33579115324593939 1 0.50084626324420545 0.22238844715913 0.78084811589659187 0.68742751001967084 0.31250796680084852 0.687427510020161 0.81599560342209843 0.22280203704001911 0.81599560342233202 0.59952339316492498 0.33579115324593939 1 0.49816183246753282 0.5307146639261795 0.75045686993209071 0.68742751001967084 0.31250796680084852 0.687427510020161 0.50084626324420545 0.22238844715913 0.78084811589659187 0.59952339316492498 0.33579115324593939 1 0.72724211050425436 0.39076805646176382 1 0.68742751001967084 0.31250796680084852 0.687427510020161 0.78019141325921404 0.49972466465542442 0.78019141325930785 0.59952339316492498 0.33579115324593939 1 0.49816183246753282 0.5307146639261795 0.75045686993209071 0.67320508075671459 0.53045230059073867 1 0.78019141325921404 0.49972466465542442 0.78019141325930785 0.70565701452089868 0.1912596090858541 1 0.59952339316492498 0.33579115324593939 1 0.72724211050425436 0.39076805646176382 1 0.81599560342209843 0.22280203704001911 0.81599560342233202 0.59952339316492498 0.33579115324593939 1 0.67320508075671459 0.53045230059073867 1 0.72724211050425436 0.39076805646176382 1 0.78019141325921404 0.49972466465542442 0.78019141325930785 0.45812322962173568 0.31024977578554058 1 0.51961524226934941 0.50000000000250611 1 0.59952339316492498 0.33579115324593939 1 0.49816183246753282 0.5307146639261795 0.75045686993209071 0.67320508075671459 0.53045230059073867 1 0.59952339316492498 0.33579115324593939 1 0.51961524226934941 0.50000000000250611 1 0.49816183246753282 0.5307146639261795 0.75045686993209071 0.59952339316492498 0.33579115324593939 1 0.50966790549576724 0.1627551561802443 1 0.45812322962173568 0.31024977578554058 1 0.50084626324420545 0.22238844715913 0.78084811589659187 0.50966790549576724 0.1627551561802443 1 0.70565701452089868 0.1912596090858541 1 0.69447607299129699 0 0.84099946107689361 0.50084626324420545 0.22238844715913 0.78084811589659187 0.68742751001967084 0.31250796680084852 0.687427510020161 0.50084626324420545 0.22238844715913 0.78084811589659187 0.69447607299129699 0 0.84099946107689361 0.81599560342209843 0.22280203704001911 0.81599560342233202 0.70565701452089868 0.1912596090858541 1 0.69447607299129699 0 0.84099946107689361 0.50084626324420545 0.22238844715913 0.78084811589659187 0.81599560342209843 0.22280203704001911 0.81599560342233202 0.70565701452089868 0.1912596090858541 1 0.50084626324420545 0.22238844715913 0.78084811589659187 0.59952339316492498 0.33579115324593939 1 0.81599560342209843 0.22280203704001911 0.81599560342233202 0.70565701452089868 0.1912596090858541 1 0.50966790549576724 0.1627551561802443 1 0.59952339316492498 0.33579115324593939 1 0.50084626324420545 0.22238844715913 0.78084811589659187 0.6002015905170176 0 0.67551889168744117 0.68742751001967084 0.31250796680084852 0.687427510020161 0.69447607299129699 0 0.84099946107689361 0.81599560342209843 0.22280203704001911 0.81599560342233202 0.69447607299129699 0 0.84099946107689361 0.6002015905170176 0 0.67551889168744117 0.49836539647917322 0 0.82773865802723501 0.50084626324420545 0.22238844715913 0.78084811589659187 0.69447607299129699 0 0.84099946107689361 0.49836539647917322 0 0.82773865802723501 0.50966790549576724 0.1627551561802443 1 0.50084626324420545 0.22238844715913 0.78084811589659187 0.60000000000138687 0 1 0.49836539647917322 0 0.82773865802723501 0.50966790549576724 0.1627551561802443 1 0.69447607299129699 0 0.84099946107689361 0.50966790549576724 0.1627551561802443 1 0.40000000000166441 0 1 0.49836539647917322 0 0.82773865802723501 0.60000000000138687 0 1 0.50966790549576724 0.1627551561802443 1 0.70565701452089868 0.1912596090858541 1 0.60000000000138687 0 1 0.69447607299129699 0 0.84099946107689361 0.70565701452089868 0.1912596090858541 1 0.60000000000138687 0 1 0.69447607299129699 0 0.84099946107689361 0.79999999999999982 0 1 0.6002015905170176 0 0.67551889168744117 0.69447607299129699 0 0.84099946107689361 0.81469961246449951 0 0.68914937826112133 0.81599560342209843 0.22280203704001911 0.81599560342233202 0.70565701452089868 0.1912596090858541 1 0.85358983848646974 0.14641016151341191 1 0.69447607299129699 0 0.84099946107689361 0.81599560342209843 0.22280203704001911 0.81599560342233202 0.85358983848646974 0.14641016151341191 1 0.70565701452089868 0.1912596090858541 1 0.85173693729199718 0.30007817960516198 1 0.81599560342209843 0.22280203704001911 0.81599560342233202 1 0.1912596090855686 0.70565701451953711 0.81469961246449951 0 0.68914937826112133 0.85358983848570524 0 0.85358983848556425 0.81599560342209843 0.22280203704001911 0.81599560342233202 0.69447607299129699 0 0.84099946107689361 0.85358983848570524 0 0.85358983848556425 0.81469961246449951 0 0.68914937826112133 0.81599560342209843 0.22280203704001911 0.81599560342233202 0.85358983848570524 0 0.85358983848556425 0.69447607299129699 0 0.84099946107689361 0.85358983848646974 0.14641016151341191 1 0.81599560342209843 0.22280203704001911 0.81599560342233202 0.79999999999999982 0 1 0.69447607299129699 0 0.84099946107689361 0.70565701452089868 0.1912596090858541 1 0.85358983848646974 0.14641016151341191 1 0.79999999999999982 0 1 0.85358983848570524 0 0.85358983848556425 0.69447607299129699 0 0.84099946107689361 0.85358983848646974 0.14641016151341191 1 1 0 1 1 0.14641016151333891 0.85358983848640169 0.85358983848570524 0 0.85358983848556425 0.85358983848646974 0.14641016151341191 1 0.79999999999999982 0 1 1 0 1 0.85358983848570524 0 0.85358983848556425 0.85358983848646974 0.14641016151341191 1 0.85358983848646974 0.14641016151341191 1 1 0 1 1 0.14641016151333891 0.85358983848640169 1 0.19999999999955789 1 0.85358983848570524 0 0.85358983848556425 1 0.14641016151333891 0.85358983848640169 1 0 1 1 0 0.79999999999947335 0.85358983848570524 0 0.85358983848556425 0.81469961246449951 0 0.68914937826112133 1 0.1912596090855686 0.70565701451953711 1 0 0.79999999999947335 1 0.1912596090855686 0.70565701451953711 1 0.14641016151333891 0.85358983848640169 0.85358983848570524 0 0.85358983848556425 1 0 0.79999999999947335 1 0.14641016151333891 0.85358983848640169 1 0.30007817960499339 0.85173693729139244 1 0.1912596090855686 0.70565701451953711 0.81599560342209843 0.22280203704001911 0.81599560342233202 1 0.1912596090855686 0.70565701451953711 0.85358983848570524 0 0.85358983848556425 1 0.14641016151333891 0.85358983848640169 0.81599560342209843 0.22280203704001911 0.81599560342233202 0.85358983848646974 0.14641016151341191 1 0.85173693729199718 0.30007817960516198 1 1 0.19999999999955789 1 0.81599560342209843 0.22280203704001911 0.81599560342233202 1 0.14641016151333891 0.85358983848640169 0.85358983848646974 0.14641016151341191 1 1 0.19999999999955789 1 0.81599560342209843 0.22280203704001911 0.81599560342233202 1 0.14641016151333891 0.85358983848640169 1 0.19999999999955789 1 1 0.30007817960499339 0.85173693729139244 0.81599560342209843 0.22280203704001911 0.81599560342233202 0.85358983848570524 0 0.85358983848556425 0.85358983848646974 0.14641016151341191 1 1 0.14641016151333891 0.85358983848640169 0.81599560342209843 0.22280203704001911 0.81599560342233202 1 0.19999999999955789 1 1 0.30007817960499339 0.85173693729139244 0.85173693729199718 0.30007817960516198 1 1 0.3999999999989749 1 1 0.19999999999955789 1 0.85173693729199718 0.30007817960516198 1 1 0.30007817960499339 0.85173693729139244 0.81599560342209843 0.22280203704001911 0.81599560342233202 1 0.30007817960499339 0.85173693729139244 0.85173693729199718 0.30007817960516198 1 0.78019141325921404 0.49972466465542442 0.78019141325930785 0.81599560342209843 0.22280203704001911 0.81599560342233202 0.68742751001967084 0.31250796680084852 0.687427510020161 0.78019141325921404 0.49972466465542442 0.78019141325930785 0.72724211050425436 0.39076805646176382 1 0.81599560342209843 0.22280203704001911 0.81599560342233202 1 0.39076805646076263 0.7272421105028648 1 0.30007817960499339 0.85173693729139244 0.78019141325921404 0.49972466465542442 0.78019141325930785 0.81599560342209843 0.22280203704001911 0.81599560342233202 0.85173693729199718 0.30007817960516198 1 0.72724211050425436 0.39076805646176382 1 0.78019141325921404 0.49972466465542442 0.78019141325930785 0.81599560342209843 0.22280203704001911 0.81599560342233202 1 0.39076805646076263 0.7272421105028648 0.78019141325921404 0.49972466465542442 0.78019141325930785 0.68742751001967084 0.31250796680084852 0.687427510020161 0.81599560342209843 0.22280203704001911 0.81599560342233202 0.85173693729199718 0.30007817960516198 1 1 0.30007817960499339 0.85173693729139244 1 0.48813836695007229 0.84191918937727617 1 0.3999999999989749 1 0.72724211050425436 0.39076805646176382 1 0.85173693729199718 0.30007817960516198 1 0.70565701452089868 0.1912596090858541 1 0.81599560342209843 0.22280203704001911 0.81599560342233202 1 0.1912596090855686 0.70565701451953711 1 0.30007817960499339 0.85173693729139244 1 0.39076805646076263 0.7272421105028648 0.81599560342209843 0.22280203704001911 0.81599560342233202 0.85173693729199718 0.30007817960516198 1 1 0.48813836695007229 0.84191918937727617 1 0.30007817960499339 0.85173693729139244 0.78019141325921404 0.49972466465542442 0.78019141325930785 1 0.30007817960499339 0.85173693729139244 1 0.48813836695007229 0.84191918937727617 1 0.39076805646076263 0.7272421105028648 0.78019141325921404 0.49972466465542442 0.78019141325930785 1 0.39076805646076263 0.7272421105028648 1 0.48813836695007229 0.84191918937727617 1 0.53045230059030524 0.6732050807565132 0.78019141325921404 0.49972466465542442 0.78019141325930785 0.72724211050425436 0.39076805646176382 1 0.67320508075671459 0.53045230059073867 1 0.84191918937756771 0.48813836695034618 1 0.78019141325921404 0.49972466465542442 0.78019141325930785 0.84191918937756771 0.48813836695034618 1 0.85173693729199718 0.30007817960516198 1 0.72724211050425436 0.39076805646176382 1 0.78019141325921404 0.49972466465542442 0.78019141325930785 0.84191918937756771 0.48813836695034618 1 1 0.48813836695007229 0.84191918937727617 0.85173693729199718 0.30007817960516198 1 0.78019141325921404 0.49972466465542442 0.78019141325930785 1 0.3999999999989749 1 1 0.48813836695007229 0.84191918937727617 0.84191918937756771 0.48813836695034618 1 1 0.59999999999894682 1 1 0.48813836695007229 0.84191918937727617 0.84191918937756771 0.48813836695034618 1 0.85173693729199718 0.30007817960516198 1 1 0.3999999999989749 1 0.80839867011861499 0.68192028468377774 1 0.78019141325921404 0.49972466465542442 0.78019141325930785 0.68649174659499257 0.68600703198516766 0.6864917465949647 0.77683220420328725 0.81278569633583353 0.81664766512111064 0.80839867011861499 0.68192028468377774 1 1 0.68192028468364885 0.80839867011854549 0.78019141325921404 0.49972466465542442 0.78019141325930785 0.77683220420328725 0.81278569633583353 0.81664766512111064 1 0.59999999999894682 1 1 0.48813836695007229 0.84191918937727617 0.84191918937756771 0.48813836695034618 1 1 0.68192028468364885 0.80839867011854549 0.68649174659499257 0.68600703198516766 0.6864917465949647 0.78019141325921404 0.49972466465542442 0.78019141325930785 1 0.68192028468364885 0.80839867011854549 0.77683220420328725 0.81278569633583353 0.81664766512111064 0.84191918937756771 0.48813836695034618 1 1 0.59999999999894682 1 1 0.68192028468364885 0.80839867011854549 0.80839867011861499 0.68192028468377774 1 1 0.59999999999894682 1 1 0.68192028468364885 0.80839867011854549 0.80839867011861499 0.68192028468377774 1 1 0.79999999999947335 1 0.84191918937756771 0.48813836695034618 1 0.67320508075671459 0.53045230059073867 1 0.80839867011861499 0.68192028468377774 1 0.78019141325921404 0.49972466465542442 0.78019141325930785 0.84191918937756771 0.48813836695034618 1 0.80839867011861499 0.68192028468377774 1 1 0.68192028468364885 0.80839867011854549 0.78019141325921404 0.49972466465542442 0.78019141325930785 1 0.68192028468364885 0.80839867011854549 1 0.53045230059030524 0.6732050807565132 1 0.48813836695007229 0.84191918937727617 0.78019141325921404 0.49972466465542442 0.78019141325930785 1 0.68192028468364885 0.80839867011854549 1 0.48813836695007229 0.84191918937727617 0.84191918937756771 0.48813836695034618 1 0.78019141325921404 0.49972466465542442 0.78019141325930785 1 0.67939035495490308 0.61016512164639347 0.78019141325921404 0.49972466465542442 0.78019141325930785 0.7504488434426726 0.53051757989633308 0.49836643074154852 1 0.53045230059030524 0.6732050807565132 1 0.67939035495490308 0.61016512164639347 0.7504488434426726 0.53051757989633308 0.49836643074154852 0.68649174659499257 0.68600703198516766 0.6864917465949647 0.77374673111774417 0.78860835645735528 0.49829081152968557 1 0.67939035495490308 0.61016512164639347 0.68649174659499257 0.68600703198516766 0.6864917465949647 1 0.83791821520125753 0.69361520514217179 0.77374673111774417 0.78860835645735528 0.49829081152968557 1 0.68192028468364885 0.80839867011854549 1 0.67939035495490308 0.61016512164639347 0.68649174659499257 0.68600703198516766 0.6864917465949647 0.77683220420328725 0.81278569633583353 0.81664766512111064 1 0.67939035495490308 0.61016512164639347 1 0.68975022421527898 0.45812322962078778 0.7504488434426726 0.53051757989633308 0.49836643074154852 0.77374673111774417 0.78860835645735528 0.49829081152968557 0.7504488434426726 0.53051757989633308 0.49836643074154852 0.78019141325921404 0.49972466465542442 0.78019141325930785 1 0.67939035495490308 0.61016512164639347 0.68649174659499257 0.68600703198516766 0.6864917465949647 1 0.68192028468364885 0.80839867011854549 0.68649174659499257 0.68600703198516766 0.6864917465949647 1 0.67939035495490308 0.61016512164639347 0.78019141325921404 0.49972466465542442 0.78019141325930785 1 0.53045230059030524 0.6732050807565132 1 0.68192028468364885 0.80839867011854549 1 0.67939035495490308 0.61016512164639347 0.78019141325921404 0.49972466465542442 0.78019141325930785 1 0.67939035495490308 0.61016512164639347 1 0.50000000000229983 0.51961524226898759 1 0.53045230059030524 0.6732050807565132 0.7504488434426726 0.53051757989633308 0.49836643074154852 1 0.67939035495490308 0.61016512164639347 1 0.68975022421527898 0.45812322962078778 1 0.50000000000229983 0.51961524226898759 0.7504488434426726 0.53051757989633308 0.49836643074154852 1 0.67939035495490308 0.61016512164639347 1 0.83630110503662825 0.50803330197135588 1 0.68975022421527898 0.45812322962078778 0.77374673111774417 0.78860835645735528 0.49829081152968557 1 0.83791821520125753 0.69361520514217179 0.77374673111774417 0.78860835645735528 0.49829081152968557 0.68649174659499257 0.68600703198516766 0.6864917465949647 0.77683220420328725 0.81278569633583353 0.81664766512111064 0.68649174659499257 0.68600703198516766 0.6864917465949647 0.77374673111774417 0.78860835645735528 0.49829081152968557 0.81346205468287114 1 0.68420958956387889 0.77683220420328725 0.81278569633583353 0.81664766512111064 1 0.83791821520125753 0.69361520514217179 0.68649174659499257 0.68600703198516766 0.6864917465949647 1 0.67939035495490308 0.61016512164639347 0.77683220420328725 0.81278569633583353 0.81664766512111064 1 0.68192028468364885 0.80839867011854549 1 0.83791821520125753 0.69361520514217179 1 0.67939035495490308 0.61016512164639347 0.77683220420328725 0.81278569633583353 0.81664766512111064 1 0.83791821520125753 0.69361520514217179 0.81346205468287114 1 0.68420958956387889 0.77374673111774417 0.78860835645735528 0.49829081152968557 0.77683220420328725 0.81278569633583353 0.81664766512111064 1 0.83630110503662825 0.50803330197135588 1 0.67939035495490308 0.61016512164639347 1 0.83791821520125753 0.69361520514217179 0.77374673111774417 0.78860835645735528 0.49829081152968557 1 0.83791821520125753 0.69361520514217179 0.86762395692956074 1 0.5060815484123421 1 0.83630110503662825 0.50803330197135588 0.77374673111774417 0.78860835645735528 0.49829081152968557 1 1 0.59999999999894682 1 0.83630110503662825 0.50803330197135588 1 0.83791821520125753 0.69361520514217179 0.86762395692956074 1 0.5060815484123421 0.86762395692956074 1 0.5060815484123421 1 1 0.59999999999894682 1 0.83630110503662825 0.50803330197135588 1 1 0.3999999999989749 1 0.83791821520125753 0.69361520514217179 0.81346205468287114 1 0.68420958956387889 1 1 0.59999999999894682 0.86762395692956074 1 0.5060815484123421 0.86762395692956074 1 0.5060815484123421 0.81346205468287114 1 0.68420958956387889 0.68240285647621723 1 0.52310058211166854 0.77374673111774417 0.78860835645735528 0.49829081152968557 0.81346205468287114 1 0.68420958956387889 0.86762395692956074 1 0.5060815484123421 1 0.83791821520125753 0.69361520514217179 0.77374673111774417 0.78860835645735528 0.49829081152968557 1 0.83791821520125753 0.69361520514217179 0.81346205468287114 1 0.68420958956387889 1 1 0.79999999999947335 1 1 0.59999999999894682 1 1 0.79999999999947335 0.85358983848569092 1 0.85358983848569092 0.81346205468287114 1 0.68420958956387889 1 0.83791821520125753 0.69361520514217179 0.85358983848569092 1 0.85358983848569092 1 0.83791821520125753 0.69361520514217179 1 0.85358983848587056 0.85358983848587056 0.77683220420328725 0.81278569633583353 0.81664766512111064 0.85358983848569092 1 0.85358983848569092 1 1 0.79999999999947335 1 0.85358983848587056 0.85358983848587056 1 0.83791821520125753 0.69361520514217179 0.85358983848587056 0.85358983848587056 1 1 1 1 1 0.79999999999947335 1 1 0.85358983848587056 0.85358983848587056 0.85358983848587056 0.85358983848587056 1 0.79999999999947335 1 1 1 1 1 0.85358983848569092 1 0.85358983848569092 1 1 0.79999999999947335 1 0.85358983848587056 0.85358983848587056 1 1 1 0.85358983848569092 1 0.85358983848569092 1 0.85358983848587056 0.85358983848587056 0.85358983848587056 0.85358983848587056 1 1 1 1 0.85358983848569092 1 0.85358983848569092 0.85358983848587056 0.85358983848587056 1 1 0.79999999999947335 1 1 0.68192028468364885 0.80839867011854549 1 0.85358983848587056 0.85358983848587056 1 0.79999999999947335 1 1 0.68192028468364885 0.80839867011854549 0.80839867011861499 0.68192028468377774 1 0.85358983848587056 0.85358983848587056 1 0.85358983848587056 0.85358983848587056 1 1 0.85358983848587056 0.85358983848587056 1 0.68192028468364885 0.80839867011854549 0.77683220420328725 0.81278569633583353 0.81664766512111064 1 0.68192028468364885 0.80839867011854549 1 0.85358983848587056 0.85358983848587056 1 0.83791821520125753 0.69361520514217179 0.77683220420328725 0.81278569633583353 0.81664766512111064 0.69361520514218133 0.83791821520130205 1 0.85358983848587056 0.85358983848587056 1 0.80839867011861499 0.68192028468377774 1 0.77683220420328725 0.81278569633583353 0.81664766512111064 0.80839867011861499 0.68192028468377774 1 0.85358983848587056 0.85358983848587056 1 1 0.68192028468364885 0.80839867011854549 0.77683220420328725 0.81278569633583353 0.81664766512111064 0.85358983848587056 0.85358983848587056 1 0.79999999999947335 1 1 0.85358983848569092 1 0.85358983848569092 0.77683220420328725 0.81278569633583353 0.81664766512111064 0.69981550660938663 1 0.83057691269844081 0.85358983848569092 1 0.85358983848569092 0.79999999999947335 1 1 0.77683220420328725 0.81278569633583353 0.81664766512111064 0.85358983848587056 0.85358983848587056 1 0.69361520514218133 0.83791821520130205 1 0.79999999999947335 1 1 0.77683220420328725 0.81278569633583353 0.81664766512111064 1 0.85358983848587056 0.85358983848587056 0.85358983848587056 0.85358983848587056 1 0.85358983848569092 1 0.85358983848569092 0.77683220420328725 0.81278569633583353 0.81664766512111064 0.85358983848569092 1 0.85358983848569092 0.69981550660938663 1 0.83057691269844081 0.81346205468287114 1 0.68420958956387889 0.77683220420328725 0.81278569633583353 0.81664766512111064 0.81346205468287114 1 0.68420958956387889 1 0.83791821520125753 0.69361520514217179 0.85358983848569092 1 0.85358983848569092 0.77683220420328725 0.81278569633583353 0.81664766512111064 0.69361520514218133 0.83791821520130205 1 0.49911199724958061 0.77872228561593948 0.77895350115271889 0.69981550660938663 1 0.83057691269844081 0.77683220420328725 0.81278569633583353 0.81664766512111064 0.69361520514218133 0.83791821520130205 1 0.61016512164652226 0.67939035495506384 1 0.49911199724958061 0.77872228561593948 0.77895350115271889 0.77683220420328725 0.81278569633583353 0.81664766512111064 0.81346205468287114 1 0.68420958956387889 0.69981550660938663 1 0.83057691269844081 0.6123333432449789 1 0.67837347745467769 0.77683220420328725 0.81278569633583353 0.81664766512111064 0.6123333432449789 1 0.67837347745467769 0.69981550660938663 1 0.83057691269844081 0.49911199724958061 0.77872228561593948 0.77895350115271889 0.77683220420328725 0.81278569633583353 0.81664766512111064 0.69361520514218133 0.83791821520130205 1 0.69981550660938663 1 0.83057691269844081 0.79999999999947335 1 1 0.77683220420328725 0.81278569633583353 0.81664766512111064 0.50970031073508926 1 0.83534964916803001 0.59999999999894682 1 1 0.69361520514218133 0.83791821520130205 1 0.69981550660938663 1 0.83057691269844081 0.69981550660938663 1 0.83057691269844081 0.59999999999894682 1 1 0.69361520514218133 0.83791821520130205 1 0.79999999999947335 1 1 0.80839867011861499 0.68192028468377774 1 0.61016512164652226 0.67939035495506384 1 0.69361520514218133 0.83791821520130205 1 0.77683220420328725 0.81278569633583353 0.81664766512111064 0.50803330197137353 0.83630110503667787 1 0.69361520514218133 0.83791821520130205 1 0.61016512164652226 0.67939035495506384 1 0.49911199724958061 0.77872228561593948 0.77895350115271889 0.50803330197137353 0.83630110503667787 1 0.50970031073508926 1 0.83534964916803001 0.69361520514218133 0.83791821520130205 1 0.49911199724958061 0.77872228561593948 0.77895350115271889 0.59999999999894682 1 1 0.50803330197137353 0.83630110503667787 1 0.3999999999989749 1 1 0.50970031073508926 1 0.83534964916803001 0.69361520514218133 0.83791821520130205 1 0.50803330197137353 0.83630110503667787 1 0.59999999999894682 1 1 0.50970031073508926 1 0.83534964916803001 0.69361520514218133 0.83791821520130205 1 0.50970031073508926 1 0.83534964916803001 0.69981550660938663 1 0.83057691269844081 0.49911199724958061 0.77872228561593948 0.77895350115271889 0.50970031073508926 1 0.83534964916803001 0.6123333432449789 1 0.67837347745467769 0.69981550660938663 1 0.83057691269844081 0.49911199724958061 0.77872228561593948 0.77895350115271889 0.6123333432449789 1 0.67837347745467769 0.49983993748706529 0.75039103705932653 0.52967335724801234 0.68649174659499257 0.68600703198516766 0.6864917465949647 0.49911199724958061 0.77872228561593948 0.77895350115271889 0.6123333432449789 1 0.67837347745467769 0.49983993748706529 0.75039103705932653 0.52967335724801234 0.68240285647621723 1 0.52310058211166854 0.77374673111774417 0.78860835645735528 0.49829081152968557 0.6123333432449789 1 0.67837347745467769 0.45820186441573879 1 0.68969697123405882 0.49983993748706529 0.75039103705932653 0.52967335724801234 0.49911199724958061 0.77872228561593948 0.77895350115271889 0.45820186441573879 1 0.68969697123405882 0.6123333432449789 1 0.67837347745467769 0.50970031073508926 1 0.83534964916803001 0.49911199724958061 0.77872228561593948 0.77895350115271889 0.6123333432449789 1 0.67837347745467769 0.68649174659499257 0.68600703198516766 0.6864917465949647 0.49983993748706529 0.75039103705932653 0.52967335724801234 0.77374673111774417 0.78860835645735528 0.49829081152968557 0.81346205468287114 1 0.68420958956387889 0.6123333432449789 1 0.67837347745467769 0.68649174659499257 0.68600703198516766 0.6864917465949647 0.77683220420328725 0.81278569633583353 0.81664766512111064 0.6123333432449789 1 0.67837347745467769 0.49911199724958061 0.77872228561593948 0.77895350115271889 0.68649174659499257 0.68600703198516766 0.6864917465949647 0.77683220420328725 0.81278569633583353 0.81664766512111064 0.81346205468287114 1 0.68420958956387889 0.68649174659499257 0.68600703198516766 0.6864917465949647 0.6123333432449789 1 0.67837347745467769 0.77374673111774417 0.78860835645735528 0.49829081152968557 0.81346205468287114 1 0.68420958956387889 0.6123333432449789 1 0.67837347745467769 0.68240285647621723 1 0.52310058211166854 0.77374673111774417 0.78860835645735528 0.49829081152968557 0.6123333432449789 1 0.67837347745467769 0.45820186441573879 1 0.68969697123405882 0.51961524227008238 1 0.49999999999872219 0.49983993748706529 0.75039103705932653 0.52967335724801234 0.6123333432449789 1 0.67837347745467769 0.51961524227008238 1 0.49999999999872219 0.68240285647621723 1 0.52310058211166854 0.49983993748706529 0.75039103705932653 0.52967335724801234 0.68649174659499257 0.68600703198516766 0.6864917465949647 0.49983993748706529 0.75039103705932653 0.52967335724801234 0.49816183246753282 0.5307146639261795 0.75045686993209071 0.49911199724958061 0.77872228561593948 0.77895350115271889 0.68649174659499257 0.68600703198516766 0.6864917465949647 0.50000000000001332 0.49999999999999561 0.49999999999999561 0.7504488434426726 0.53051757989633308 0.49836643074154852 0.49816183246753282 0.5307146639261795 0.75045686993209071 0.68649174659499257 0.68600703198516766 0.6864917465949647 0.49816183246753282 0.5307146639261795 0.75045686993209071 0.7504488434426726 0.53051757989633308 0.49836643074154852 0.78019141325921404 0.49972466465542442 0.78019141325930785 0.50000000000001332 0.49999999999999561 0.49999999999999561 0.68649174659499257 0.68600703198516766 0.6864917465949647 0.7504488434426726 0.53051757989633308 0.49836643074154852 0.49983993748706529 0.75039103705932653 0.52967335724801234 0.7504488434426726 0.53051757989633308 0.49836643074154852 0.49983993748706529 0.75039103705932653 0.52967335724801234 0.68649174659499257 0.68600703198516766 0.6864917465949647 0.77374673111774417 0.78860835645735528 0.49829081152968557 0.68649174659499257 0.68600703198516766 0.6864917465949647 0.50000000000001332 0.49999999999999561 0.49999999999999561 0.49816183246753282 0.5307146639261795 0.75045686993209071 0.49983993748706529 0.75039103705932653 0.52967335724801234 0.78019141325921404 0.49972466465542442 0.78019141325930785 0.61016512164652226 0.67939035495506384 1 0.49816183246753282 0.5307146639261795 0.75045686993209071 0.67320508075671459 0.53045230059073867 1 0.78019141325921404 0.49972466465542442 0.78019141325930785 0.49816183246753282 0.5307146639261795 0.75045686993209071 0.61016512164652226 0.67939035495506384 1 0.68649174659499257 0.68600703198516766 0.6864917465949647 0.61016512164652226 0.67939035495506384 1 0.68649174659499257 0.68600703198516766 0.6864917465949647 0.80839867011861499 0.68192028468377774 1 0.78019141325921404 0.49972466465542442 0.78019141325930785 0.68649174659499257 0.68600703198516766 0.6864917465949647 0.49911199724958061 0.77872228561593948 0.77895350115271889 0.61016512164652226 0.67939035495506384 1 0.77683220420328725 0.81278569633583353 0.81664766512111064 0.68649174659499257 0.68600703198516766 0.6864917465949647 0.49816183246753282 0.5307146639261795 0.75045686993209071 0.61016512164652226 0.67939035495506384 1 0.49911199724958061 0.77872228561593948 0.77895350115271889 0.80839867011861499 0.68192028468377774 1 0.68649174659499257 0.68600703198516766 0.6864917465949647 0.61016512164652226 0.67939035495506384 1 0.77683220420328725 0.81278569633583353 0.81664766512111064 0.67320508075671459 0.53045230059073867 1 0.61016512164652226 0.67939035495506384 1 0.80839867011861499 0.68192028468377774 1 0.78019141325921404 0.49972466465542442 0.78019141325930785 0.45812322962090041 0.68975022421538157 1 0.61016512164652226 0.67939035495506384 1 0.49816183246753282 0.5307146639261795 0.75045686993209071 0.49911199724958061 0.77872228561593948 0.77895350115271889 0.50803330197137353 0.83630110503667787 1 0.61016512164652226 0.67939035495506384 1 0.45812322962090041 0.68975022421538157 1 0.49911199724958061 0.77872228561593948 0.77895350115271889 0.51961524226934941 0.50000000000250611 1 0.45812322962090041 0.68975022421538157 1 0.61016512164652226 0.67939035495506384 1 0.49816183246753282 0.5307146639261795 0.75045686993209071 0.67320508075671459 0.53045230059073867 1 0.51961524226934941 0.50000000000250611 1 0.61016512164652226 0.67939035495506384 1 0.49816183246753282 0.5307146639261795 0.75045686993209071 0.3115891413135391 0.68758981780459771 0.68521708032990558 0.2184393375098648 0.50004596894495223 0.77634962490704662 0.32446581821293602 0.60020898676440626 1 0.18453958615733529 0.77655623474864555 0.81613222483915937 0.32925244736146098 0.39615100178034629 1 0.32446581821293602 0.60020898676440626 1 0.51961524226934941 0.50000000000250611 1 0.49816183246753282 0.5307146639261795 0.75045686993209071 0.45812322962090041 0.68975022421538157 1 0.3115891413135391 0.68758981780459771 0.68521708032990558 0.31067093462947892 0.81480288849497895 1 0.49911199724958061 0.77872228561593948 0.77895350115271889 0.32925244736146098 0.39615100178034629 1 0.32446581821293602 0.60020898676440626 1 0.49816183246753282 0.5307146639261795 0.75045686993209071 0.2184393375098648 0.50004596894495223 0.77634962490704662 0.45812322962090041 0.68975022421538157 1 0.49816183246753282 0.5307146639261795 0.75045686993209071 0.3115891413135391 0.68758981780459771 0.68521708032990558 0.49911199724958061 0.77872228561593948 0.77895350115271889 0.32446581821293602 0.60020898676440626 1 0.3115891413135391 0.68758981780459771 0.68521708032990558 0.49816183246753282 0.5307146639261795 0.75045686993209071 0.2184393375098648 0.50004596894495223 0.77634962490704662 0.45812322962090041 0.68975022421538157 1 0.51961524226934941 0.50000000000250611 1 0.32446581821293602 0.60020898676440626 1 0.49816183246753282 0.5307146639261795 0.75045686993209071 0.31067093462947892 0.81480288849497895 1 0.45812322962090041 0.68975022421538157 1 0.32446581821293602 0.60020898676440626 1 0.3115891413135391 0.68758981780459771 0.68521708032990558 0.45812322962090041 0.68975022421538157 1 0.32446581821293602 0.60020898676440626 1 0.3115891413135391 0.68758981780459771 0.68521708032990558 0.49816183246753282 0.5307146639261795 0.75045686993209071 0.32446581821293602 0.60020898676440626 1 0.31067093462947892 0.81480288849497895 1 0.3115891413135391 0.68758981780459771 0.68521708032990558 0.18453958615733529 0.77655623474864555 0.81613222483915937 0.3115891413135391 0.68758981780459771 0.68521708032990558 0.50000000000001332 0.49999999999999561 0.49999999999999561 0.24769234054476261 0.52242103280823293 0.45098450226372488 0.49983993748706529 0.75039103705932653 0.52967335724801234 0.3115891413135391 0.68758981780459771 0.68521708032990558 0.49816183246753282 0.5307146639261795 0.75045686993209071 0.50000000000001332 0.49999999999999561 0.49999999999999561 0.49983993748706529 0.75039103705932653 0.52967335724801234 0.3115891413135391 0.68758981780459771 0.68521708032990558 0.49983993748706529 0.75039103705932653 0.52967335724801234 0.24769234054476261 0.52242103280823293 0.45098450226372488 0.22516916914780419 0.77057994845201627 0.48187244075707292 0.50000000000001332 0.49999999999999561 0.49999999999999561 0.3115891413135391 0.68758981780459771 0.68521708032990558 0.24769234054476261 0.52242103280823293 0.45098450226372488 0.2184393375098648 0.50004596894495223 0.77634962490704662 0.3115891413135391 0.68758981780459771 0.68521708032990558 0.50000000000001332 0.49999999999999561 0.49999999999999561 0.49816183246753282 0.5307146639261795 0.75045686993209071 0.2184393375098648 0.50004596894495223 0.77634962490704662 0.49816183246753282 0.5307146639261795 0.75045686993209071 0.49983993748706529 0.75039103705932653 0.52967335724801234 0.3115891413135391 0.68758981780459771 0.68521708032990558 0.49911199724958061 0.77872228561593948 0.77895350115271889 0.32448110831226962 1 0.6002015905153204 0.45820186441573879 1 0.68969697123405882 0.3115891413135391 0.68758981780459771 0.68521708032990558 0.49983993748706529 0.75039103705932653 0.52967335724801234 0.45820186441573879 1 0.68969697123405882 0.31085062173747541 1 0.81469961246428202 0.32448110831226962 1 0.6002015905153204 0.3115891413135391 0.68758981780459771 0.68521708032990558 0.45820186441573879 1 0.68969697123405882 0.3115891413135391 0.68758981780459771 0.68521708032990558 0.49983993748706529 0.75039103705932653 0.52967335724801234 0.49911199724958061 0.77872228561593948 0.77895350115271889 0.32448110831226962 1 0.6002015905153204 0.3115891413135391 0.68758981780459771 0.68521708032990558 0.31085062173747541 1 0.81469961246428202 0.18453958615733529 0.77655623474864555 0.81613222483915937 0.32448110831226962 1 0.6002015905153204 0.49983993748706529 0.75039103705932653 0.52967335724801234 0.3115891413135391 0.68758981780459771 0.68521708032990558 0.22516916914780419 0.77057994845201627 0.48187244075707292 0.45820186441573879 1 0.68969697123405882 0.31085062173747541 1 0.81469961246428202 0.3115891413135391 0.68758981780459771 0.68521708032990558 0.49911199724958061 0.77872228561593948 0.77895350115271889 0.32926555316115258 1 0.39615987727515128 0.49983993748706529 0.75039103705932653 0.52967335724801234 0.32448110831226962 1 0.6002015905153204 0.22516916914780419 0.77057994845201627 0.48187244075707292 0.32448110831226962 1 0.6002015905153204 0.3115891413135391 0.68758981780459771 0.68521708032990558 0.15900053892265181 1 0.69447607299016312 0.22516916914780419 0.77057994845201627 0.48187244075707292 0.32926555316115258 1 0.39615987727515128 0.51961524227008238 1 0.49999999999872219 0.32448110831226962 1 0.6002015905153204 0.49983993748706529 0.75039103705932653 0.52967335724801234 0.32448110831226962 1 0.6002015905153204 0.51961524227008238 1 0.49999999999872219 0.45820186441573879 1 0.68969697123405882 0.49983993748706529 0.75039103705932653 0.52967335724801234 0.45820186441573879 1 0.68969697123405882 0.50970031073508926 1 0.83534964916803001 0.31085062173747541 1 0.81469961246428202 0.49911199724958061 0.77872228561593948 0.77895350115271889 0.31085062173747541 1 0.81469961246428202 0.49911199724958061 0.77872228561593948 0.77895350115271889 0.31067093462947892 0.81480288849497895 1 0.18453958615733529 0.77655623474864555 0.81613222483915937 0.31085062173747541 1 0.81469961246428202 0.3115891413135391 0.68758981780459771 0.68521708032990558 0.49911199724958061 0.77872228561593948 0.77895350115271889 0.18453958615733529 0.77655623474864555 0.81613222483915937 0.50803330197137353 0.83630110503667787 1 0.31085062173747541 1 0.81469961246428202 0.50970031073508926 1 0.83534964916803001 0.49911199724958061 0.77872228561593948 0.77895350115271889 0.31067093462947892 0.81480288849497895 1 0.49911199724958061 0.77872228561593948 0.77895350115271889 0.3115891413135391 0.68758981780459771 0.68521708032990558 0.18453958615733529 0.77655623474864555 0.81613222483915937 0.31085062173747541 1 0.81469961246428202 0.3999999999989749 1 1 0.50803330197137353 0.83630110503667787 1 0.50970031073508926 1 0.83534964916803001 0.31085062173747541 1 0.81469961246428202 0.3999999999989749 1 1 0.31067093462947892 0.81480288849497895 1 0.50803330197137353 0.83630110503667787 1 0.31085062173747541 1 0.81469961246428202 0.50803330197137353 0.83630110503667787 1 0.31067093462947892 0.81480288849497895 1 0.49911199724958061 0.77872228561593948 0.77895350115271889 0.45812322962090041 0.68975022421538157 1 0.31067093462947892 0.81480288849497895 1 0.50803330197137353 0.83630110503667787 1 0.49911199724958061 0.77872228561593948 0.77895350115271889 0.3999999999989749 1 1 0.19999999999955789 1 1 0.31085062173747541 1 0.81469961246428202 0.31067093462947892 0.81480288849497895 1 0.15900053892265181 1 0.69447607299016312 0.31085062173747541 1 0.81469961246428202 0.1464101615132356 1 0.85358983848650494 0.18453958615733529 0.77655623474864555 0.81613222483915937 0.31085062173747541 1 0.81469961246428202 0.31067093462947892 0.81480288849497895 1 0.1464101615132356 1 0.85358983848650494 0.18453958615733529 0.77655623474864555 0.81613222483915937 0.31085062173747541 1 0.81469961246428202 0.19999999999955789 1 1 0.1464101615132356 1 0.85358983848650494 0.31067093462947892 0.81480288849497895 1 0.14641016151332509 0.85358983848655678 1 0.1464101615132356 1 0.85358983848650494 0.19999999999955789 1 1 0.31067093462947892 0.81480288849497895 1 0.31067093462947892 0.81480288849497895 1 0.15896804272141651 0.69449451837104537 1 0.14641016151332509 0.85358983848655678 1 0.18453958615733529 0.77655623474864555 0.81613222483915937 0.14641016151332509 0.85358983848655678 1 0.1464101615132356 1 0.85358983848650494 0.31067093462947892 0.81480288849497895 1 0.18453958615733529 0.77655623474864555 0.81613222483915937 0 0.85358983848682146 0.85358983848668035 0 0.69992182039579531 0.85173693729137989 0 0.80860557108920617 0.70542349973054763 0.18453958615733529 0.77655623474864555 0.81613222483915937 0.15900053892265181 1 0.69447607299016312 0 0.85358983848682146 0.85358983848668035 0 0.80860557108920617 0.70542349973054763 0.18453958615733529 0.77655623474864555 0.81613222483915937 0.18453958615733529 0.77655623474864555 0.81613222483915937 0 0.79999999999999982 1 0.15896804272141651 0.69449451837104537 1 0.14641016151332509 0.85358983848655678 1 0.1464101615132356 1 0.85358983848650494 0.14641016151332509 0.85358983848655678 1 0 0.85358983848682146 0.85358983848668035 0.18453958615733529 0.77655623474864555 0.81613222483915937 0 0.85358983848682146 0.85358983848668035 0 0.79999999999999982 1 0 0.69992182039579531 0.85173693729137989 0.18453958615733529 0.77655623474864555 0.81613222483915937 0 0.85358983848682146 0.85358983848668035 0.14641016151332509 0.85358983848655678 1 0 0.79999999999999982 1 0.18453958615733529 0.77655623474864555 0.81613222483915937 0 1 1 0 0.85358983848682146 0.85358983848668035 0.14641016151332509 0.85358983848655678 1 0 0.79999999999999982 1 0 0.85358983848682146 0.85358983848668035 0.1464101615132356 1 0.85358983848650494 0 1 1 0.14641016151332509 0.85358983848655678 1 0.19999999999955789 1 1 0 1 1 0.1464101615132356 1 0.85358983848650494 0.14641016151332509 0.85358983848655678 1 0.1464101615132356 1 0.85358983848650494 0 1 1 0 1 0.79999999999947335 0 0.85358983848682146 0.85358983848668035 0.1464101615132356 1 0.85358983848650494 0 0.85358983848682146 0.85358983848668035 0.15900053892265181 1 0.69447607299016312 0.18453958615733529 0.77655623474864555 0.81613222483915937 0.15900053892265181 1 0.69447607299016312 0 1 0.79999999999947335 0 0.80860557108920617 0.70542349973054763 0 0.85358983848682146 0.85358983848668035 0 1 0.79999999999947335 0.15900053892265181 1 0.69447607299016312 0.1464101615132356 1 0.85358983848650494 0 0.85358983848682146 0.85358983848668035 0 0.80860557108920617 0.70542349973054763 0 1 0.59999999999894682 0 1 0.79999999999947335 0.15900053892265181 1 0.69447607299016312 0.3115891413135391 0.68758981780459771 0.68521708032990558 0.22516916914780419 0.77057994845201627 0.48187244075707292 0 0.80860557108920617 0.70542349973054763 0.18453958615733529 0.77655623474864555 0.81613222483915937 0 0.80860557108920617 0.70542349973054763 0 0.83630110503664845 0.50803330197135654 0 1 0.59999999999894682 0.15900053892265181 1 0.69447607299016312 0.15900053892265181 1 0.69447607299016312 0.3115891413135391 0.68758981780459771 0.68521708032990558 0.32448110831226962 1 0.6002015905153204 0.18453958615733529 0.77655623474864555 0.81613222483915937 0.15900053892265181 1 0.69447607299016312 0.22516916914780419 0.77057994845201627 0.48187244075707292 0.3115891413135391 0.68758981780459771 0.68521708032990558 0.18453958615733529 0.77655623474864555 0.81613222483915937 0.15900053892265181 1 0.69447607299016312 0 0.80860557108920617 0.70542349973054763 0.22516916914780419 0.77057994845201627 0.48187244075707292 0.18453958615733529 0.77655623474864555 0.81613222483915937 0.15900053892265181 1 0.69447607299016312 0.32448110831226962 1 0.6002015905153204 0.31085062173747541 1 0.81469961246428202 0.18453958615733529 0.77655623474864555 0.81613222483915937 0.32448110831226962 1 0.6002015905153204 0.15900053892265181 1 0.69447607299016312 0.17226134197293 1 0.49836539647645101 0.22516916914780419 0.77057994845201627 0.48187244075707292 0 0.83630110503664845 0.50803330197135654 0.17226134197293 1 0.49836539647645101 0.15900053892265181 1 0.69447607299016312 0.22516916914780419 0.77057994845201627 0.48187244075707292 0 1 0.59999999999894682 0 1 0.3999999999989749 0.17226134197293 1 0.49836539647645101 0 0.83630110503664845 0.50803330197135654 0 0.83630110503664845 0.50803330197135654 0.17226134197293 1 0.49836539647645101 0 1 0.59999999999894682 0.15900053892265181 1 0.69447607299016312 0 0.83630110503664845 0.50803330197135654 0.15900053892265181 1 0.69447607299016312 0 0.80860557108920617 0.70542349973054763 0.22516916914780419 0.77057994845201627 0.48187244075707292 0 0.66416205381430016 0.59944234540882957 0 0.83630110503664845 0.50803330197135654 0 0.80860557108920617 0.70542349973054763 0.22516916914780419 0.77057994845201627 0.48187244075707292 0 0.66416205381430016 0.59944234540882957 0 0.80860557108920617 0.70542349973054763 0.3115891413135391 0.68758981780459771 0.68521708032990558 0.22516916914780419 0.77057994845201627 0.48187244075707292 0 0.66416205381430016 0.59944234540882957 0.3115891413135391 0.68758981780459771 0.68521708032990558 0 0.80860557108920617 0.70542349973054763 0.18453958615733529 0.77655623474864555 0.81613222483915937 0 0.66416205381430016 0.59944234540882957 0 0.80860557108920617 0.70542349973054763 0 0.60922248848335758 0.72722573386012812 0.18453958615733529 0.77655623474864555 0.81613222483915937 0 0.66416205381430016 0.59944234540882957 0.24769234054476261 0.52242103280823293 0.45098450226372488 0.3115891413135391 0.68758981780459771 0.68521708032990558 0.2184393375098648 0.50004596894495223 0.77634962490704662 0 0.66416205381430016 0.59944234540882957 0 0.60922248848335758 0.72722573386012812 0.3115891413135391 0.68758981780459771 0.68521708032990558 0.18453958615733529 0.77655623474864555 0.81613222483915937 0 0.66416205381430016 0.59944234540882957 0 0.46954769941369501 0.67320508075638175 0 0.50000000000237477 0.51961524226909872 0.2184393375098648 0.50004596894495223 0.77634962490704662 0 0.60922248848335758 0.72722573386012812 0 0.66416205381430016 0.59944234540882957 0.3115891413135391 0.68758981780459771 0.68521708032990558 0.2184393375098648 0.50004596894495223 0.77634962490704662 0 0.66416205381430016 0.59944234540882957 0.3115891413135391 0.68758981780459771 0.68521708032990558 0.24769234054476261 0.52242103280823293 0.45098450226372488 0.22516916914780419 0.77057994845201627 0.48187244075707292 0 0.66416205381430016 0.59944234540882957 0 0.50000000000237477 0.51961524226909872 0.24769234054476261 0.52242103280823293 0.45098450226372488 0.2184393375098648 0.50004596894495223 0.77634962490704662 0 0.68801781652248195 0.45664527743358641 0 0.83630110503664845 0.50803330197135654 0 0.66416205381430016 0.59944234540882957 0.22516916914780419 0.77057994845201627 0.48187244075707292 0 0.66416205381430016 0.59944234540882957 0 0.50000000000237477 0.51961524226909872 0 0.68801781652248195 0.45664527743358641 0.24769234054476261 0.52242103280823293 0.45098450226372488 0 0.60922248848335758 0.72722573386012812 0 0.46954769941369501 0.67320508075638175 0 0.66416205381430016 0.59944234540882957 0.2184393375098648 0.50004596894495223 0.77634962490704662 0 0.5118616330515301 0.84191918937737908 0 0.69992182039579531 0.85173693729137989 0.15896804272141651 0.69449451837104537 1 0.2184393375098648 0.50004596894495223 0.77634962490704662 0 0.60922248848335758 0.72722573386012812 0.2184393375098648 0.50004596894495223 0.77634962490704662 0.3115891413135391 0.68758981780459771 0.68521708032990558 0.18453958615733529 0.77655623474864555 0.81613222483915937 0.15896804272141651 0.69449451837104537 1 0.2184393375098648 0.50004596894495223 0.77634962490704662 0 0.69992182039579531 0.85173693729137989 0.18453958615733529 0.77655623474864555 0.81613222483915937 0 0.5118616330515301 0.84191918937737908 0 0.46954769941369501 0.67320508075638175 0 0.60922248848335758 0.72722573386012812 0.2184393375098648 0.50004596894495223 0.77634962490704662 0 0.5118616330515301 0.84191918937737908 0 0.60922248848335758 0.72722573386012812 0 0.69992182039579531 0.85173693729137989 0.2184393375098648 0.50004596894495223 0.77634962490704662 0.15896804272141651 0.69449451837104537 1 0.32446581821293602 0.60020898676440626 1 0.2184393375098648 0.50004596894495223 0.77634962490704662 0.18453958615733529 0.77655623474864555 0.81613222483915937 0 0.60922248848335758 0.72722573386012812 0 0.69992182039579531 0.85173693729137989 0.2184393375098648 0.50004596894495223 0.77634962490704662 0.18453958615733529 0.77655623474864555 0.81613222483915937 0 0.80860557108920617 0.70542349973054763 0 0.69992182039579531 0.85173693729137989 0 0.60922248848335758 0.72722573386012812 0.18453958615733529 0.77655623474864555 0.81613222483915937 0.15896804272141651 0.69449451837104537 1 0.32446581821293602 0.60020898676440626 1 0.17226134197275911 0.49836539647894412 1 0.2184393375098648 0.50004596894495223 0.77634962490704662 0.15896804272141651 0.69449451837104537 1 0.17226134197275911 0.49836539647894412 1 0 0.5118616330515301 0.84191918937737908 0.2184393375098648 0.50004596894495223 0.77634962490704662 0.32446581821293602 0.60020898676440626 1 0.15896804272141651 0.69449451837104537 1 0.31067093462947892 0.81480288849497895 1 0.18453958615733529 0.77655623474864555 0.81613222483915937 0.18453958615733529 0.77655623474864555 0.81613222483915937 0.15896804272141651 0.69449451837104537 1 0 0.79999999999999982 1 0 0.69992182039579531 0.85173693729137989 0 0.69992182039579531 0.85173693729137989 0 0.5118616330515301 0.84191918937737908 0.15896804272141651 0.69449451837104537 1 0 0.60000000000138687 1 0.15896804272141651 0.69449451837104537 1 0 0.79999999999999982 1 0 0.69992182039579531 0.85173693729137989 0 0.60000000000138687 1 0 0.60000000000138687 1 0 0.5118616330515301 0.84191918937737908 0.15896804272141651 0.69449451837104537 1 0.17226134197275911 0.49836539647894412 1 0 0.5118616330515301 0.84191918937737908 0 0.60000000000138687 1 0 0.40000000000166441 1 0.17226134197275911 0.49836539647894412 1 0.17226134197275911 0.49836539647894412 1 0 0.40000000000166441 1 0 0.5118616330515301 0.84191918937737908 0 0.31807971531776508 0.80839867011913336 0 0.40000000000166441 1 0.17226134197275911 0.49836539647894412 1 0.16929708765653109 0.30074819035870082 1 0 0.31807971531776508 0.80839867011913336 0 0.14641016151490169 0.85358983848532144 0 0.31807971531776508 0.80839867011913336 0.16929708765653109 0.30074819035870082 1 0.31426750628021272 0.31270343261798911 0.68761148188185484 0.16929708765653109 0.30074819035870082 1 0.31426750628021272 0.31270343261798911 0.68761148188185484 0 0.31807971531776508 0.80839867011913336 0.2184393375098648 0.50004596894495223 0.77634962490704662 0 0.5118616330515301 0.84191918937737908 0 0.31807971531776508 0.80839867011913336 0 0.46954769941369501 0.67320508075638175 0.2184393375098648 0.50004596894495223 0.77634962490704662 0 0.5118616330515301 0.84191918937737908 0.17226134197275911 0.49836539647894412 1 0 0.31807971531776508 0.80839867011913336 0.2184393375098648 0.50004596894495223 0.77634962490704662 0 0.31807971531776508 0.80839867011913336 0.16929708765653109 0.30074819035870082 1 0 0.40000000000166441 1 0 0.20000000000083221 1 0.17226134197275911 0.49836539647894412 1 0.32925244736146098 0.39615100178034629 1 0.16929708765653109 0.30074819035870082 1 0.2184393375098648 0.50004596894495223 0.77634962490704662 0.17226134197275911 0.49836539647894412 1 0.16929708765653109 0.30074819035870082 1 0 0.31807971531776508 0.80839867011913336 0.2184393375098648 0.50004596894495223 0.77634962490704662 0.31610726166461628 0.1880448979455934 1 0.16929708765653109 0.30074819035870082 1 0.32925244736146098 0.39615100178034629 1 0.31426750628021272 0.31270343261798911 0.68761148188185484 0.32446581821293602 0.60020898676440626 1 0.32925244736146098 0.39615100178034629 1 0.17226134197275911 0.49836539647894412 1 0.2184393375098648 0.50004596894495223 0.77634962490704662 0.45812322962173568 0.31024977578554058 1 0.31426750628021272 0.31270343261798911 0.68761148188185484 0.49816183246753282 0.5307146639261795 0.75045686993209071 0.50084626324420545 0.22238844715913 0.78084811589659187 0.32925244736146098 0.39615100178034629 1 0.49816183246753282 0.5307146639261795 0.75045686993209071 0.31426750628021272 0.31270343261798911 0.68761148188185484 0.2184393375098648 0.50004596894495223 0.77634962490704662 0.31610726166461628 0.1880448979455934 1 0.32925244736146098 0.39615100178034629 1 0.45812322962173568 0.31024977578554058 1 0.31426750628021272 0.31270343261798911 0.68761148188185484 0.45812322962173568 0.31024977578554058 1 0.31610726166461628 0.1880448979455934 1 0.31426750628021272 0.31270343261798911 0.68761148188185484 0.50084626324420545 0.22238844715913 0.78084811589659187 0.32925244736146098 0.39615100178034629 1 0.45812322962173568 0.31024977578554058 1 0.31426750628021272 0.31270343261798911 0.68761148188185484 0.49816183246753282 0.5307146639261795 0.75045686993209071 0.32925244736146098 0.39615100178034629 1 0.31426750628021272 0.31270343261798911 0.68761148188185484 0.16929708765653109 0.30074819035870082 1 0.2184393375098648 0.50004596894495223 0.77634962490704662 0.32925244736146098 0.39615100178034629 1 0.51961524226934941 0.50000000000250611 1 0.45812322962173568 0.31024977578554058 1 0.49816183246753282 0.5307146639261795 0.75045686993209071 0.31426750628021272 0.31270343261798911 0.68761148188185484 0.49816183246753282 0.5307146639261795 0.75045686993209071 0.50000000000001332 0.49999999999999561 0.49999999999999561 0.2184393375098648 0.50004596894495223 0.77634962490704662 0.24769234054476261 0.52242103280823293 0.45098450226372488 0.50073570207385831 0.24848280280289631 0.52886631355986169 0.31426750628021272 0.31270343261798911 0.68761148188185484 0.22088738526309029 0.22111069116742441 0.50004796911802929 0.31426750628021272 0.31270343261798911 0.68761148188185484 0.50073570207385831 0.24848280280289631 0.52886631355986169 0.49816183246753282 0.5307146639261795 0.75045686993209071 0.50084626324420545 0.22238844715913 0.78084811589659187 0.50000000000001332 0.49999999999999561 0.49999999999999561 0.31426750628021272 0.31270343261798911 0.68761148188185484 0.24769234054476261 0.52242103280823293 0.45098450226372488 0.50073570207385831 0.24848280280289631 0.52886631355986169 0.50000000000001332 0.49999999999999561 0.49999999999999561 0.49816183246753282 0.5307146639261795 0.75045686993209071 0.31426750628021272 0.31270343261798911 0.68761148188185484 0.50073570207385831 0.24848280280289631 0.52886631355986169 0.50000000000001332 0.49999999999999561 0.49999999999999561 0.24769234054476261 0.52242103280823293 0.45098450226372488 0.31426750628021272 0.31270343261798911 0.68761148188185484 0.2184393375098648 0.50004596894495223 0.77634962490704662 0.2184393375098648 0.50004596894495223 0.77634962490704662 0.31426750628021272 0.31270343261798911 0.68761148188185484 0 0.50000000000237477 0.51961524226909872 0.24769234054476261 0.52242103280823293 0.45098450226372488 0 0.31024977578556651 0.45812322962166352 0.24769234054476261 0.52242103280823293 0.45098450226372488 0 0.32043363027398297 0.61046998817722586 0.22088738526309029 0.22111069116742441 0.50004796911802929 0 0.32043363027398297 0.61046998817722586 0 0.50000000000237477 0.51961524226909872 0.31426750628021272 0.31270343261798911 0.68761148188185484 0.24769234054476261 0.52242103280823293 0.45098450226372488 0.2184393375098648 0.50004596894495223 0.77634962490704662 0 0.32043363027398297 0.61046998817722586 0 0.50000000000237477 0.51961524226909872 0.31426750628021272 0.31270343261798911 0.68761148188185484 0 0.32043363027398297 0.61046998817722586 0.24769234054476261 0.52242103280823293 0.45098450226372488 0.31426750628021272 0.31270343261798911 0.68761148188185484 0.22088738526309029 0.22111069116742441 0.50004796911802929 0.2184393375098648 0.50004596894495223 0.77634962490704662 0 0.50000000000237477 0.51961524226909872 0 0.32043363027398297 0.61046998817722586 0 0.46954769941369501 0.67320508075638175 0 0.16196943494415611 0.69380980080116506 0 0.32043363027398297 0.61046998817722586 0.31426750628021272 0.31270343261798911 0.68761148188185484 0.22088738526309029 0.22111069116742441 0.50004796911802929 0 0.32043363027398297 0.61046998817722586 0 0.31807971531776508 0.80839867011913336 0.31426750628021272 0.31270343261798911 0.68761148188185484 0.2184393375098648 0.50004596894495223 0.77634962490704662 0 0.16196943494415611 0.69380980080116506 0 0.32043363027398297 0.61046998817722586 0 0.31807971531776508 0.80839867011913336 0.31426750628021272 0.31270343261798911 0.68761148188185484 0 0.31024977578556651 0.45812322962166352 0 0.50000000000237477 0.51961524226909872 0 0.32043363027398297 0.61046998817722586 0.24769234054476261 0.52242103280823293 0.45098450226372488 0 0.32043363027398297 0.61046998817722586 0 0.46954769941369501 0.67320508075638175 0 0.31807971531776508 0.80839867011913336 0.2184393375098648 0.50004596894495223 0.77634962490704662 0 0.32043363027398297 0.61046998817722586 0 0.16275515618034081 0.50966790549591257 0 0.31024977578556651 0.45812322962166352 0.22088738526309029 0.22111069116742441 0.50004796911802929 0 0.16196943494415611 0.69380980080116506 0.14641016151479661 0 0.85358983848542624 0.18818969570926641 0 0.68364148842842287 0.31426750628021272 0.31270343261798911 0.68761148188185484 0 0.16196943494415611 0.69380980080116506 0.31426750628021272 0.31270343261798911 0.68761148188185484 0.18818969570926641 0 0.68364148842842287 0.22088738526309029 0.22111069116742441 0.50004796911802929 0 0.16196943494415611 0.69380980080116506 0.18818969570926641 0 0.68364148842842287 0 0.16275515618034081 0.50966790549591257 0.22088738526309029 0.22111069116742441 0.50004796911802929 0 0.16196943494415611 0.69380980080116506 0 0.16275515618034081 0.50966790549591257 0 0.32043363027398297 0.61046998817722586 0.22088738526309029 0.22111069116742441 0.50004796911802929 0 0 0.79999999999999982 0 0 0.60000000000138687 0 0.16196943494415611 0.69380980080116506 0.18818969570926641 0 0.68364148842842287 0 0 0.60000000000138687 0 0.16196943494415611 0.69380980080116506 0.18818969570926641 0 0.68364148842842287 0 0.16275515618034081 0.50966790549591257 0.18818969570926641 0 0.68364148842842287 0.16370661204827031 0 0.4886650857430957 0 0 0.60000000000138687 0 0.16275515618034081 0.50966790549591257 0.18818969570926641 0 0.68364148842842287 0.31030302876556398 0 0.54179813558513157 0.16370661204827031 0 0.4886650857430957 0.22088738526309029 0.22111069116742441 0.50004796911802929 0 0.16275515618034081 0.50966790549591257 0.18818969570926641 0 0.68364148842842287 0.16370661204827031 0 0.4886650857430957 0.22088738526309029 0.22111069116742441 0.50004796911802929 0.30074819035913852 0 0.83070291234383831 0.39615987727709562 0 0.67073444684008199 0.18818969570926641 0 0.68364148842842287 0.31426750628021272 0.31270343261798911 0.68761148188185484 0.31030302876556398 0 0.54179813558513157 0.31426750628021272 0.31270343261798911 0.68761148188185484 0.50073570207385831 0.24848280280289631 0.52886631355986169 0.22088738526309029 0.22111069116742441 0.50004796911802929 0.39615987727709562 0 0.67073444684008199 0.31030302876556398 0 0.54179813558513157 0.31426750628021272 0.31270343261798911 0.68761148188185484 0.50073570207385831 0.24848280280289631 0.52886631355986169 0.39615987727709562 0 0.67073444684008199 0.31426750628021272 0.31270343261798911 0.68761148188185484 0.30074819035913852 0 0.83070291234383831 0.50084626324420545 0.22238844715913 0.78084811589659187 0.18818969570926641 0 0.68364148842842287 0.31426750628021272 0.31270343261798911 0.68761148188185484 0.31030302876556398 0 0.54179813558513157 0.22088738526309029 0.22111069116742441 0.50004796911802929 0.6002015905170176 0 0.67551889168744117 0.50073570207385831 0.24848280280289631 0.52886631355986169 0.39615987727709562 0 0.67073444684008199 0.50084626324420545 0.22238844715913 0.78084811589659187 0.31030302876556398 0 0.54179813558513157 0.18818969570926641 0 0.68364148842842287 0.39615987727709562 0 0.67073444684008199 0.31426750628021272 0.31270343261798911 0.68761148188185484 0.39615987727709562 0 0.67073444684008199 0.50073570207385831 0.24848280280289631 0.52886631355986169 0.31426750628021272 0.31270343261798911 0.68761148188185484 0.50084626324420545 0.22238844715913 0.78084811589659187 0.39615987727709562 0 0.67073444684008199 0.6002015905170176 0 0.67551889168744117 0.50000000000250922 0 0.48038475773043671 0.50073570207385831 0.24848280280289631 0.52886631355986169 0.39615987727709562 0 0.67073444684008199 0.50000000000250922 0 0.48038475773043671 0.31030302876556398 0 0.54179813558513157 0.50073570207385831 0.24848280280289631 0.52886631355986169 0.49836539647917322 0 0.82773865802723501 0.6002015905170176 0 0.67551889168744117 0.39615987727709562 0 0.67073444684008199 0.50084626324420545 0.22238844715913 0.78084811589659187 0.30074819035913852 0 0.83070291234383831 0.14641016151432179 0.14641016151432179 1 0.31610726166461628 0.1880448979455934 1 0.31426750628021272 0.31270343261798911 0.68761148188185484 0.30074819035913852 0 0.83070291234383831 0.31426750628021272 0.31270343261798911 0.68761148188185484 0.31610726166461628 0.1880448979455934 1 0.50084626324420545 0.22238844715913 0.78084811589659187 0.30074819035913852 0 0.83070291234383831 0.31610726166461628 0.1880448979455934 1 0.49836539647917322 0 0.82773865802723501 0.50084626324420545 0.22238844715913 0.78084811589659187 0.39615987727709562 0 0.67073444684008199 0.30074819035913852 0 0.83070291234383831 0.49836539647917322 0 0.82773865802723501 0.50084626324420545 0.22238844715913 0.78084811589659187 0.31610726166461628 0.1880448979455934 1 0.40000000000166441 0 1 0.49836539647917322 0 0.82773865802723501 0.50966790549576724 0.1627551561802443 1 0.40000000000166441 0 1 0.49836539647917322 0 0.82773865802723501 0.30074819035913852 0 0.83070291234383831 0.31610726166461628 0.1880448979455934 1 0.31610726166461628 0.1880448979455934 1 0.50966790549576724 0.1627551561802443 1 0.49836539647917322 0 0.82773865802723501 0.50084626324420545 0.22238844715913 0.78084811589659187 0.45812322962173568 0.31024977578554058 1 0.50966790549576724 0.1627551561802443 1 0.31610726166461628 0.1880448979455934 1 0.50084626324420545 0.22238844715913 0.78084811589659187 0.40000000000166441 0 1 0.30074819035913852 0 0.83070291234383831 0.20000000000083221 0 1 0.31610726166461628 0.1880448979455934 1 0 0.14641016151490169 0.85358983848532144 0 0.16196943494415611 0.69380980080116506 0 0.31807971531776508 0.80839867011913336 0.31426750628021272 0.31270343261798911 0.68761148188185484 0.16929708765653109 0.30074819035870082 1 0.31610726166461628 0.1880448979455934 1 0.14641016151432179 0.14641016151432179 1 0.31426750628021272 0.31270343261798911 0.68761148188185484 0.14641016151432179 0.14641016151432179 1 0.20000000000083221 0 1 0.14641016151479661 0 0.85358983848542624 0.30074819035913852 0 0.83070291234383831 0.14641016151432179 0.14641016151432179 1 0.30074819035913852 0 0.83070291234383831 0.14641016151479661 0 0.85358983848542624 0.31426750628021272 0.31270343261798911 0.68761148188185484 0.14641016151432179 0.14641016151432179 1 0.20000000000083221 0 1 0.30074819035913852 0 0.83070291234383831 0.31610726166461628 0.1880448979455934 1 0.18818969570926641 0 0.68364148842842287 0.14641016151479661 0 0.85358983848542624 0.30074819035913852 0 0.83070291234383831 0.31426750628021272 0.31270343261798911 0.68761148188185484 0 0.14641016151490169 0.85358983848532144 0.16929708765653109 0.30074819035870082 1 0.14641016151432179 0.14641016151432179 1 0.31426750628021272 0.31270343261798911 0.68761148188185484 0.14641016151432179 0.14641016151432179 1 0.14641016151479661 0 0.85358983848542624 0 0.14641016151490169 0.85358983848532144 0.31426750628021272 0.31270343261798911 0.68761148188185484 0 0.16196943494415611 0.69380980080116506 0 0.14641016151490169 0.85358983848532144 0.14641016151479661 0 0.85358983848542624 0.31426750628021272 0.31270343261798911 0.68761148188185484 0 0.20000000000083221 1 0 0.31807971531776508 0.80839867011913336 0.16929708765653109 0.30074819035870082 1 0 0.14641016151490169 0.85358983848532144 0.14641016151432179 0.14641016151432179 1 0 0.20000000000083221 1 0.16929708765653109 0.30074819035870082 1 0 0.14641016151490169 0.85358983848532144 0 0.16196943494415611 0.69380980080116506 0.14641016151479661 0 0.85358983848542624 0 0 0.79999999999999982 0.18818969570926641 0 0.68364148842842287 0 0.14641016151490169 0.85358983848532144 0.14641016151479661 0 0.85358983848542624 0 0 0.79999999999999982 0 0.16196943494415611 0.69380980080116506 0 0 1 0 0.20000000000083221 1 0.14641016151432179 0.14641016151432179 1 0 0.14641016151490169 0.85358983848532144 0.14641016151479661 0 0.85358983848542624 0 0 0.79999999999999982 0 0 1 0 0.14641016151490169 0.85358983848532144 0 0 1 0.14641016151432179 0.14641016151432179 1 0.20000000000083221 0 1 0.14641016151479661 0 0.85358983848542624 0.14641016151479661 0 0.85358983848542624 0 0 1 0.14641016151432179 0.14641016151432179 1 0 0.14641016151490169 0.85358983848532144 
</DataArray>
</Points>
<Cells>
<DataArray type="UInt32" Name="connectivity" format="ascii">
0 1 2 3 4 5 6 7 8 9 10 11 12 13 14 15 16 17 18 19 20 21 22 23 24 25 26 27 28 29 30 31 32 33 34 35 36 37 38 39 40 41 42 43 44 45 46 47 48 49 50 51 52 53 54 55 56 57 58 59 60 61 62 63 64 65 66 67 68 69 70 71 72 73 74 75 76 77 78 79 80 81 82 83 84 85 86 87 88 89 90 91 92 93 94 95 96 97 98 99 100 101 102 103 104 105 106 107 108 109 110 111 112 113 114 115 116 117 118 119 120 121 122 123 124 125 126 127 128 129 130 131 132 133 134 135 136 137 138 139 140 141 142 143 144 145 146 147 148 149 150 151 152 153 154 155 156 157 158 159 160 161 162 163 164 165 166 167 168 169 170 171 172 173 174 175 176 177 178 179 180 181 182 183 184 185 186 187 188 189 190 191 192 193 194 195 196 197 198 199 200 201 202 203 204 205 206 207 208 209 210 211 212 213 214 215 216 217 218 219 220 221 222 223 224 225 226 227 228 229 230 231 232 233 234 235 236 237 238 239 240 241 242 243 244 245 246 247 248 249 250 251 252 253 254 255 256 257 258 259 260 261 262 263 264 265 266 267 268 269 270 271 272 273 274 275 276 277 278 279 280 281 282 283 284 285 286 287 288 289 290 291 292 293 294 295 296 297 298 299 300 301 302 303 304 305 306 307 308 309 310 311 312 313 314 315 316 317 318 319 320 321 322 323 324 325 326 327 328 329 330 331 332 333 334 335 336 337 338 339 340 341 342 343 344 345 346 347 348 349 350 351 352 353 354 355 356 357 358 359 360 361 362 363 364 365 366 367 368 369 370 371 372 373 374 375 376 377 378 379 380 381 382 383 384 385 386 387 388 389 390 391 392 393 394 395 396 397 398 399 400 401 402 403 404 405 406 407 408 409 410 411 412 413 414 415 416 417 418 419 420 421 422 423 424 425 426 427 428 429 430 431 432 433 434 435 436 437 438 439 440 441 442 443 444 445 446 447 448 449 450 451 452 453 454 455 456 457 458 459 460 461 462 463 464 465 466 467 468 469 470 471 472 473 474 475 476 477 478 479 480 481 482 483 484 485 486 487 488 489 490 491 492 493 494 495 496 497 498 499 500 501 502 503 504 505 506 507 508 509 510 511 512 513 514 515 516 517 518 519 520 521 522 523 524 525 526 527 528 529 530 531 532 533 534 535 536 537 538 539 540 541 542 543 544 545 546 547 548 549 550 551 552 553 554 555 556 557 558 559 560 561 562 563 564 565 566 567 568 569 570 571 572 573 574 575 576 577 578 579 580 581 582 583 584 585 586 587 588 589 590 591 592 593 594 595 596 597 598 599 600 601 602 603 604 605 606 607 608 609 610 611 612 613 614 615 616 617 618 619 620 621 622 623 624 625 626 627 628 629 630 631 632 633 634 635 636 637 638 639 640 641 642 643 644 645 646 647 648 649 650 651 652 653 654 655 656 657 658 659 660 661 662 663 664 665 666 667 668 669 670 671 672 673 674 675 676 677 678 679 680 681 682 683 684 685 686 687 688 689 690 691 692 693 694 695 696 697 698 699 700 701 702 703 704 705 706 707 708 709 710 711 712 713 714 715 716 717 718 719 720 721 722 723 724 725 726 727 728 729 730 731 732 733 734 735 736 737 738 739 740 741 742 743 744 745 746 747 748 749 750 751 752 753 754 755 756 757 758 759 760 761 762 763 764 765 766 767 768 769 770 771 772 773 774 775 776 777 778 779 780 781 782 783 784 785 786 787 788 789 790 791 792 793 794 795 796 797 798 799 800 801 802 803 804 805 806 807 808 809 810 811 812 813 814 815 816 817 818 819 820 821 822 823 824 825 826 827 828 829 830 831 832 833 834 835 836 837 838 839 840 841 842 843 844 845 846 847 848 849 850 851 852 853 854 855 856 857 858 859 860 861 862 863 864 865 866 867 868 869 870 871 872 873 874 875 876 877 878 879 880 881 882 883 884 885 886 887 888 889 890 891 892 893 894 895 896 897 898 899 900 901 902 903 904 905 906 907 908 909 910 911 912 913 914 915 916 917 918 919 920 921 922 923 924 925 926 927 928 929 930 931 932 933 934 935 936 937 938 939 940 941 942 943 944 945 946 947 948 949 950 951 952 953 954 955 956 957 958 959 960 961 962 963 964 965 966 967 968 969 970 971 972 973 974 975 976 977 978 979 980 981 982 983 984 985 986 987 988 989 990 991 992 993 994 995 996 997 998 999 1000 1001 1002 1003 1004 1005 1006 1007 1008 1009 1010 1011 1012 1013 1014 1015 1016 1017 1018 1019 1020 1021 1022 1023 1024 1025 1026 1027 1028 1029 1030 1031 1032 1033 1034 1035 1036 1037 1038 1039 1040 1041 1042 1043 1044 1045 1046 1047 1048 1049 1050 1051 1052 1053 1054 1055 1056 1057 1058 1059 1060 1061 1062 1063 1064 1065 1066 1067 1068 1069 1070 1071 1072 1073 1074 1075 1076 1077 1078 1079 1080 1081 1082 1083 1084 1085 1086 1087 1088 1089 1090 1091 1092 1093 1094 1095 1096 1097 1098 1099 1100 1101 1102 1103 1104 1105 1106 1107 1108 1109 1110 1111 1112 1113 1114 1115 1116 1117 1118 1119 1120 1121 1122 1123 1124 1125 1126 1127 1128 1129 1130 1131 1132 1133 1134 1135 1136 1137 1138 1139 1140 1141 1142 1143 1144 1145 1146 1147 1148 1149 1150 1151 1152 1153 1154 1155 1156 1157 1158 1159 1160 1161 1162 1163 1164 1165 1166 1167 1168 1169 1170 1171 1172 1173 1174 1175 1176 1177 1178 1179 1180 1181 1182 1183 1184 1185 1186 1187 1188 1189 1190 1191 1192 1193 1194 1195 1196 1197 1198 1199 1200 1201 1202 1203 1204 1205 1206 1207 1208 1209 1210 1211 1212 1213 1214 1215 1216 1217 1218 1219 1220 1221 1222 1223 1224 1225 1226 1227 1228 1229 1230 1231 1232 1233 1234 1235 1236 1237 1238 1239 1240 1241 1242 1243 1244 1245 1246 1247 1248 1249 1250 1251 1252 1253 1254 1255 1256 1257 1258 1259 1260 1261 1262 1263 1264 1265 1266 1267 1268 1269 1270 1271 1272 1273 1274 1275 1276 1277 1278 1279 1280 1281 1282 1283 1284 1285 1286 1287 1288 1289 1290 1291 1292 1293 1294 1295 1296 1297 1298 1299 1300 1301 1302 1303 1304 1305 1306 1307 1308 1309 1310 1311 1312 1313 1314 1315 1316 1317 1318 1319 1320 1321 1322 1323 1324 1325 1326 1327 1328 1329 1330 1331 1332 1333 1334 1335 1336 1337 1338 1339 1340 1341 1342 1343 1344 1345 1346 1347 1348 1349 1350 1351 1352 1353 1354 1355 1356 1357 1358 1359 1360 1361 1362 1363 1364 1365 1366 1367 1368 1369 1370 1371 1372 1373 1374 1375 1376 1377 1378 1379 1380 1381 1382 1383 1384 1385 1386 1387 1388 1389 1390 1391 1392 1393 1394 1395 1396 1397 1398 1399 1400 1401 1402 1403 1404 1405 1406 1407 1408 1409 1410 1411 1412 1413 1414 1415 1416 1417 1418 1419 1420 1421 1422 1423 1424 1425 1426 1427 1428 1429 1430 1431 1432 1433 1434 1435 1436 1437 1438 1439 1440 1441 1442 1443 1444 1445 1446 1447 1448 1449 1450 1451 1452 1453 1454 1455 1456 1457 1458 1459 1460 1461 1462 1463 1464 1465 1466 1467 1468 1469 1470 1471 1472 1473 1474 1475 1476 1477 1478 1479 1480 1481 1482 1483 1484 1485 1486 1487 1488 1489 1490 1491 1492 1493 1494 1495 1496 1497 1498 1499 1500 1501 1502 1503 1504 1505 1506 1507 1508 1509 1510 1511 1512 1513 1514 1515 1516 1517 1518 1519 1520 1521 1522 1523 1524 1525 1526 1527 1528 1529 1530 1531 1532 1533 1534 1535 1536 1537 1538 1539 1540 1541 1542 1543 1544 1545 1546 1547 1548 1549 1550 1551 1552 1553 1554 1555 1556 1557 1558 1559 1560 1561 1562 1563 1564 1565 1566 1567 1568 1569 1570 1571 1572 1573 1574 1575 1576 1577 1578 1579 1580 1581 1582 1583 1584 1585 1586 1587 1588 1589 1590 1591 1592 1593 1594 1595 1596 1597 1598 1599 1600 1601 1602 1603 1604 1605 1606 1607 1608 1609 1610 1611 1612 1613 1614 1615 1616 1617 1618 1619 1620 1621 1622 1623 1624 1625 1626 1627 1628 1629 1630 1631 1632 1633 1634 1635 1636 1637 1638 1639 1640 1641 1642 1643 1644 1645 1646 1647 1648 1649 1650 1651 1652 1653 1654 1655 1656 1657 1658 1659 1660 1661 1662 1663 1664 1665 1666 1667 1668 1669 1670 1671 1672 1673 1674 1675 1676 1677 1678 1679 1680 1681 1682 1683 1684 1685 1686 1687 1688 1689 1690 1691 1692 1693 1694 1695 1696 1697 1698 1699 1700 1701 1702 1703 1704 1705 1706 1707 1708 1709 1710 1711 1712 1713 1714 1715 1716 1717 1718 1719 1720 1721 1722 1723 1724 1725 1726 1727 1728 1729 1730 1731 1732 1733 1734 1735 1736 1737 1738 1739 1740 1741 1742 1743 1744 1745 1746 1747 1748 1749 1750 1751 1752 1753 1754 1755 1756 1757 1758 1759 1760 1761 1762 1763 1764 1765 1766 1767 1768 1769 1770 1771 1772 1773 1774 1775 1776 1777 1778 1779 1780 1781 1782 1783 1784 1785 1786 1787 1788 1789 1790 1791 1792 1793 1794 1795 1796 1797 1798 1799 1800 1801 1802 1803 1804 1805 1806 1807 1808 1809 1810 1811 1812 1813 1814 1815 1816 1817 1818 1819 1820 1821 1822 1823 1824 1825 1826 1827 1828 1829 1830 1831 1832 1833 1834 1835 1836 1837 1838 1839 1840 1841 1842 1843 1844 1845 1846 1847 1848 1849 1850 1851 1852 1853 1854 1855 1856 1857 1858 1859 1860 1861 1862 1863 1864 1865 1866 1867 1868 1869 1870 1871 1872 1873 1874 1875 1876 1877 1878 1879 1880 1881 1882 1883 1884 1885 1886 1887 1888 1889 1890 1891 1892 1893 1894 1895 1896 1897 1898 1899 1900 1901 1902 1903 1904 1905 1906 1907 1908 1909 1910 1911 1912 1913 1914 1915 1916 1917 1918 1919 1920 1921 1922 1923 1924 1925 1926 1927 1928 1929 1930 1931 1932 1933 1934 1935 1936 1937 1938 1939 1940 1941 1942 1943 1944 1945 1946 1947 1948 1949 1950 1951 1952 1953 1954 1955 1956 1957 1958 1959 1960 1961 1962 1963 1964 1965 1966 1967 1968 1969 1970 1971 1972 1973 1974 1975 1976 1977 1978 1979 1980 1981 1982 1983 1984 1985 1986 1987 1988 1989 1990 1991 1992 1993 1994 1995 1996 1997 1998 1999 2000 2001 2002 2003 2004 2005 2006 2007 2008 2009 2010 2011 2012 2013 2014 2015 2016 2017 2018 2019 2020 2021 2022 2023 2024 2025 2026 2027 2028 2029 2030 2031 2032 2033 2034 2035 2036 2037 2038 2039 2040 2041 2042 2043 2044 2045 2046 2047 2048 2049 2050 2051 2052 2053 2054 2055 2056 2057 2058 2059 2060 2061 2062 2063 2064 2065 2066 2067 2068 2069 2070 2071 2072 2073 2074 2075 2076 2077 2078 2079 2080 2081 2082 2083 2084 2085 2086 2087 2088 2089 2090 2091 2092 2093 2094 2095 2096 2097 2098 2099 2100 2101 2102 2103 2104 2105 2106 2107 2108 2109 2110 2111 2112 2113 2114 2115 2116 2117 2118 2119 2120 2121 2122 2123 2124 2125 2126 2127 2128 2129 2130 2131 2132 2133 2134 2135 2136 2137 2138 2139 2140 2141 2142 2143 2144 2145 2146 2147 2148 2149 2150 2151 2152 2153 2154 2155 2156 2157 2158 2159 2160 2161 2162 2163 2164 2165 2166 2167 2168 2169 2170 2171 2172 2173 2174 2175 2176 2177 2178 2179 2180 2181 2182 2183 2184 2185 2186 2187 2188 2189 2190 2191 2192 2193 2194 2195 2196 2197 2198 2199 2200 2201 2202 2203 2204 2205 2206 2207 2208 2209 2210 2211 2212 2213 2214 2215 2216 2217 2218 2219 2220 2221 2222 2223 2224 2225 2226 2227 2228 2229 2230 2231 2232 2233 2234 2235 2236 2237 2238 2239 2240 2241 2242 2243 2244 2245 2246 2247 2248 2249 2250 2251 2252 2253 2254 2255 2256 2257 2258 2259 2260 2261 2262 2263 2264 2265 2266 2267 2268 2269 2270 2271 2272 2273 2274 2275 2276 2277 2278 2279 2280 2281 2282 2283 2284 2285 2286 2287 2288 2289 2290 2291 2292 2293 2294 2295 2296 2297 2298 2299 2300 2301 2302 2303 2304 2305 2306 2307 2308 2309 2310 2311 2312 2313 2314 2315 2316 2317 2318 2319 2320 2321 2322 2323 2324 2325 2326 2327 2328 2329 2330 2331 2332 2333 2334 2335 2336 2337 2338 2339 2340 2341 2342 2343 2344 2345 2346 2347 2348 2349 2350 2351 2352 2353 2354 2355 2356 2357 2358 2359 2360 2361 2362 2363 2364 2365 2366 2367 2368 2369 2370 2371 2372 2373 2374 2375 2376 2377 2378 2379 2380 2381 2382 2383 2384 2385 2386 2387 2388 2389 2390 2391 2392 2393 2394 2395 2396 2397 2398 2399 2400 2401 2402 2403 2404 2405 2406 2407 2408 2409 2410 2411 2412 2413 2414 2415 2416 2417 2418 2419 2420 2421 2422 2423 2424 2425 2426 2427 2428 2429 2430 2431 2432 2433 2434 2435 2436 2437 2438 2439 2440 2441 2442 2443 2444 2445 2446 2447 2448 2449 2450 2451 2452 2453 2454 2455 2456 2457 2458 2459 2460 2461 2462 2463 2464 2465 2466 2467 2468 2469 2470 2471 2472 2473 2474 2475 2476 2477 2478 2479 2480 2481 2482 2483 2484 2485 2486 2487 2488 2489 2490 2491 2492 2493 2494 2495 2496 2497 2498 2499 2500 2501 2502 2503 2504 2505 2506 2507 2508 2509 2510 2511 2512 2513 2514 2515 2516 2517 2518 2519 2520 2521 2522 2523 2524 2525 2526 2527 2528 2529 2530 2531 2532 2533 2534 2535 2536 2537 2538 2539 2540 2541 2542 2543 2544 2545 2546 2547 2548 2549 2550 2551 2552 2553 2554 2555 2556 2557 2558 2559 2560 2561 2562 2563 2564 2565 2566 2567 2568 2569 2570 2571 2572 2573 2574 2575 2576 2577 2578 2579 2580 2581 2582 2583 2584 2585 2586 2587 2588 2589 2590 2591 2592 2593 2594 2595 2596 2597 2598 2599 2600 2601 2602 2603 2604 2605 2606 2607 2608 2609 2610 2611 2612 2613 2614 2615 2616 2617 2618 2619 2620 2621 2622 2623 2624 2625 2626 2627 2628 2629 2630 2631 2632 2633 2634 2635 2636 2637 2638 2639 2640 2641 2642 2643 2644 2645 2646 2647 2648 2649 2650 2651 2652 2653 2654 2655 2656 2657 2658 2659 2660 2661 2662 2663 2664 2665 2666 2667 2668 2669 2670 2671 2672 2673 2674 2675 2676 2677 2678 2679 2680 2681 2682 2683 2684 2685 2686 2687 2688 2689 2690 2691 2692 2693 2694 2695 2696 2697 2698 2699 2700 2701 2702 2703 2704 2705 2706 2707 2708 2709 2710 2711 2712 2713 2714 2715 2716 2717 2718 2719 2720 2721 2722 2723 2724 2725 2726 2727 2728 2729 2730 2731 2732 2733 2734 2735 2736 2737 2738 2739 2740 2741 2742 2743 2744 2745 2746 2747 2748 2749 2750 2751 2752 2753 2754 2755 2756 2757 2758 2759 2760 2761 2762 2763 2764 2765 2766 2767 2768 2769 2770 2771 2772 2773 2774 2775 2776 2777 2778 2779 2780 2781 2782 2783 2784 2785 2786 2787 2788 2789 2790 2791 2792 2793 2794 2795 2796 2797 2798 2799 2800 2801 2802 2803 2804 2805 2806 2807 2808 2809 2810 2811 2812 2813 2814 2815 2816 2817 2818 2819 2820 2821 2822 2823 2824 2825 2826 2827 2828 2829 2830 2831 2832 2833 2834 2835 2836 2837 2838 2839 2840 2841 2842 2843 2844 2845 2846 2847 2848 2849 2850 2851 2852 2853 2854 2855 2856 2857 2858 2859 2860 2861 2862 2863 2864 2865 2866 2867 2868 2869 2870 2871 2872 2873 2874 2875 
</DataArray>
<DataArray type="UInt32" Name="offsets" format="ascii">
4 8 12 16 20 24 28 32 36 40 44 48 52 56 60 64 68 72 76 80 84 88 92 96 100 104 108 112 116 120 124 128 132 136 140 144 148 152 156 160 164 168 172 176 180 184 188 192 196 200 204 208 212 216 220 224 228 232 236 240 244 248 252 256 260 264 268 272 276 280 284 288 292 296 300 304 308 312 316 320 324 328 332 336 340 344 348 352 356 360 364 368 372 376 380 384 388 392 396 400 404 408 412 416 420 424 428 432 436 440 444 448 452 456 460 464 468 472 476 480 484 488 492 496 500 504 508 512 516 520 524 528 532 536 540 544 548 552 556 560 564 568 572 576 580 584 588 592 596 600 604 608 612 616 620 624 628 632 636 640 644 648 652 656 660 664 668 672 676 680 684 688 692 696 700 704 708 712 716 720 724 728 732 736 740 744 748 752 756 760 764 768 772 776 780 784 788 792 796 800 804 808 812 816 820 824 828 832 836 840 844 848 852 856 860 864 868 872 876 880 884 888 892 896 900 904 908 912 916 920 924 928 932 936 940 944 948 952 956 960 964 968 972 976 980 984 988 992 996 1000 1004 1008 1012 1016 1020 1024 1028 1032 1036 1040 1044 1048 1052 1056 1060 1064 1068 1072 1076 1080 1084 1088 1092 1096 1100 1104 1108 1112 1116 1120 1124 1128 1132 1136 1140 1144 1148 1152 1156 1160 1164 1168 1172 1176 1180 1184 1188 1192 1196 1200 1204 1208 1212 1216 1220 1224 1228 1232 1236 1240 1244 1248 1252 1256 1260 1264 1268 1272 1276 1280 1284 1288 1292 1296 1300 1304 1308 1312 1316 1320 1324 1328 1332 1336 1340 1344 1348 1352 1356 1360 1364 1368 1372 1376 1380 1384 1388 1392 1396 1400 1404 1408 1412 1416 1420 1424 1428 1432 1436 1440 1444 1448 1452 1456 1460 1464 1468 1472 1476 1480 1484 1488 1492 1496 1500 1504 1508 1512 1516 1520 1524 1528 1532 1536 1540 1544 1548 1552 1556 1560 1564 1568 1572 1576 1580 1584 1588 1592 1596 1600 1604 1608 1612 1616 1620 1624 1628 1632 1636 1640 1644 1648 1652 1656 1660 1664 1668 1672 1676 1680 1684 1688 1692 1696 1700 1704 1708 1712 1716 1720 1724 1728 1732 1736 1740 1744 1748 1752 1756 1760 1764 1768 1772 1776 1780 1784 1788 1792 1796 1800 1804 1808 1812 1816 1820 1824 1828 1832 1836 1840 1844 1848 1852 1856 1860 1864 1868 1872 1876 1880 1884 1888 1892 1896 1900 1904 1908 1912 1916 1920 1924 1928 1932 1936 1940 1944 1948 1952 1956 1960 1964 1968 1972 1976 1980 1984 1988 1992 1996 2000 2004 2008 2012 2016 2020 2024 2028 2032 2036 2040 2044 2048 2052 2056 2060 2064 2068 2072 2076 2080 2084 2088 2092 2096 2100 2104 2108 2112 2116 2120 2124 2128 2132 2136 2140 2144 2148 2152 2156 2160 2164 2168 2172 2176 2180 2184 2188 2192 2196 2200 2204 2208 2212 2216 2220 2224 2228 2232 2236 2240 2244 2248 2252 2256 2260 2264 2268 2272 2276 2280 2284 2288 2292 2296 2300 2304 2308 2312 2316 2320 2324 2328 2332 2336 2340 2344 2348 2352 2356 2360 2364 2368 2372 2376 2380 2384 2388 2392 2396 2400 2404 2408 2412 2416 2420 2424 2428 2432 2436 2440 2444 2448 2452 2456 2460 2464 2468 2472 2476 2480 2484 2488 2492 2496 2500 2504 2508 2512 2516 2520 2524 2528 2532 2536 2540 2544 2548 2552 2556 2560 2564 2568 2572 2576 2580 2584 2588 2592 2596 2600 2604 2608 2612 2616 2620 2624 2628 2632 2636 2640 2644 2648 2652 2656 2660 2664 2668 2672 2676 2680 2684 2688 2692 2696 2700 2704 2708 2712 2716 2720 2724 2728 2732 2736 2740 2744 2748 2752 2756 2760 2764 2768 2772 2776 2780 2784 2788 2792 2796 2800 2804 2808 2812 2816 2820 2824 2828 2832 2836 2840 2844 2848 2852 2856 2860 2864 2868 2872 2876 
</DataArray>
<DataArray type="UInt32" Name="types" format="ascii">
10 10 10 10 10 10 10 10 10 10 10 10 10 10 10 10 10 10 10 10 10 10 10 10 10 10 10 10 10 10 10 10 10 10 10 10 10 10 10 10 10 10 10 10 10 10 10 10 10 10 10 10 10 10 10 10 10 10 10 10 10 10 10 10 10 10 10 10 10 10 10 10 10 10 10 10 10 10 10 10 10 10 10 10 10 10 10 10 10 10 10 10 10 10 10 10 10 10 10 10 10 10 10 10 10 10 10 10 10 10 10 10 10 10 10 10 10 10 10 10 10 10 10 10 10 10 10 10 10 10 10 10 10 10 10 10 10 10 10 10 10 10 10 10 10 10 10 10 10 10 10 10 10 10 10 10 10 10 10 10 10 10 10 10 10 10 10 10 10 10 10 10 10 10 10 10 10 10 10 10 10 10 10 10 10 10 10 10 10 10 10 10 10 10 10 10 10 10 10 10 10 10 10 10 10 10 10 10 10 10 10 10 10 10 10 10 10 10 10 10 10 10 10 10 10 10 10 10 10 10 10 10 10 10 10 10 10 10 10 10 10 10 10 10 10 10 10 10 10 10 10 10 10 10 10 10 10 10 10 10 10 10 10 10 10 10 10 10 10 10 10 10 10 10 10 10 10 10 10 10 10 10 10 10 10 10 10 10 10 10 10 10 10 10 10 10 10 10 10 10 10 10 10 10 10 10 10 10 10 10 10 10 10 10 10 10 10 10 10 10 10 10 10 10 10 10 10 10 10 10 10 10 10 10 10 10 10 10 10 10 10 10 10 10 10 10 10 10 10 10 10 10 10 10 10 10 10 10 10 10 10 10 10 10 10 10 10 10 10 10 10 10 10 10 10 10 10 10 10 10 10 10 10 10 10 10 10 10 10 10 10 10 10 10 10 10 10 10 10 10 10 10 10 10 10 10 10 10 10 10 10 10 10 10 10 10 10 10 10 10 10 10 10 10 10 10 10 10 10 10 10 10 10 10 10 10 10 10 10 10 10 10 10 10 10 10 10 10 10 10 10 10 10 10 10 10 10 10 10 10 10 10 10 10 10 10 10 10 10 10 10 10 10 10 10 10 10 10 10 10 10 10 10 10 10 10 10 10 10 10 10 10 10 10 10 10 10 10 10 10 10 10 10 10 10 10 10 10 10 10 10 10 10 10 10 10 10 10 10 10 10 10 10 10 10 10 10 10 10 10 10 10 10 10 10 10 10 10 10 10 10 10 10 10 10 10 10 10 10 10 10 10 10 10 10 10 10 10 10 10 10 10 10 10 10 10 10 10 10 10 10 10 10 10 10 10 10 10 10 10 10 10 10 10 10 10 10 10 10 10 10 10 10 10 10 10 10 10 10 10 10 10 10 10 10 10 10 10 10 10 10 10 10 10 10 10 10 10 10 10 10 10 10 10 10 10 10 10 10 10 10 10 10 10 10 10 10 10 10 10 10 10 10 10 10 10 10 10 10 10 10 10 10 10 10 10 10 10 10 10 10 10 10 10 10 10 10 10 10 10 10 10 10 10 10 10 10 10 10 10 10 10 10 10 10 10 10 10 10 10 10 10 10 10 10 10 10 10 10 10 10 10 10 10 10 10 10 10 10 10 10 10 10 10 10 10 10 10 10 
</DataArray>
</Cells>
<PointData Scalars="" Vectors="displacement," Tensors="">
<DataArray type="Float64" Name="displacement" NumberOfComponents="3" format="ascii">
0.075906249116017024 -1.7382449050669549e-06 -1.3621063387093192e-05 0.040653714926779085 -1.3093318395676371e-06 -1.3118783731883865e-05 0.03515797363503935 -1.8927526783910797e-06 -1.0484950148746855e-05 0.075059714028960001 -9.1737866064875914e-07 -0.30005033825248573 -3.5581539079117736e-11 -2.1994380580493205e-06 -1.3084481906557332e-05 -1.2074554580974267e-10 -2.8098777324016064e-06 -1.4123777589444362e-05 0.03515797363503935 -1.8927526783910797e-06 -1.0484950148741527e-05 -4.5392140330975338e-10 -1.8045885987596293e-06 -0.14054759350570098 -1.2074554580974264e-10 -2.8098777324016064e-06 -1.412377758943299e-05 0.04802560694993329 -3.0691869891802943e-06 -1.4867255075629604e-05 0.03515797363503935 -1.8927526783910797e-06 -1.0484950148741527e-05 0.035158031781411157 -2.0549887651976586e-06 -0.14054863392915054 -4.5392140330975338e-10 -1.8045885987596293e-06 -0.14054759350570098 -2.3588675194206027e-10 -2.6768936137024916e-06 -0.19198803741828727 -1.2074554580974264e-10 -2.8098777324016064e-06 -1.412377758943299e-05 0.035158031781411157 -2.0549887651976586e-06 -0.14054863392915054 -4.5392140330975338e-10 -1.8045885987596293e-06 -0.14054759350570098 -3.9182600372733369e-10 -7.2718304988107639e-07 -0.16251752485415238 -2.3009444064420062e-10 -1.6931268117506238e-06 -0.30343589480527339 0.075059714028960028 -9.1737866064875861e-07 -0.30005033825248562 0.075829412808479851 -2.7707643885701207e-06 -0.17905969297450303 0.03515803178141115 -2.0549887651976586e-06 -0.14054863392915051 0.040674812435654968 -2.5997838403492481e-06 -0.28808557488956177 0.075059714028960001 -9.1737866064875914e-07 -0.30005033825248573 -4.5392140330975338e-10 -1.8045885987596293e-06 -0.14054759350570098 -1.2074554865494221e-10 -2.8098777324016059e-06 -1.4123777589427303e-05 0.03515797363503935 -1.8927526783910797e-06 -1.0484950148741527e-05 0.035158031781411157 -2.0549887651976586e-06 -0.14054863392915054 0.03515797363503935 -1.8927526783910797e-06 -1.0484950148741527e-05 0.03515803178141115 -2.0549887651976586e-06 -0.14054863392915057 0.075829412808479851 -2.7707643885701207e-06 -0.17905969297450303 0.075059714028960001 -9.1737866064875914e-07 -0.30005033825248573 0.03515797363503935 -1.8927526783910797e-06 -1.0484950148741527e-05 -3.9182600236926194e-10 -7.2718304988107597e-07 -0.16251752485415236 -4.5392140059128437e-10 -1.8045885987596297e-06 -0.14054759350570098 0.075059714028960001 -9.1737866064875914e-07 -0.30005033825248573 0.03515797363503935 -1.8927526783910797e-06 -1.0484950148741527e-05 -4.5392140298802143e-10 -1.8045885987596293e-06 -0.14054759350570095 0.035158031781411157 -2.0549887651976586e-06 -0.14054863392915054 0.075059714028960001 -9.1737866064875903e-07 -0.30005033825248573 -4.5392140330975338e-10 -1.8045885987596293e-06 -0.14054759350570098 0.040674812435654975 -2.5997838403492481e-06 -0.28808557488956177 0.035158031781411157 -2.0549887651976586e-06 -0.14054863392915054 0.075059714028960015 -9.1737866064875925e-07 -0.30005033825248578 0.035158031781411157 -2.0549887651976586e-06 -0.14054863392915054 -4.5392140283947106e-10 -1.8045885987596293e-06 -0.14054759350570098 -2.3588675687008643e-10 -2.6768936137024916e-06 -0.19198803741828727 0.040674812435654968 -2.5997838403492481e-06 -0.28808557488956177 -2.3009444064420062e-10 -1.6931268117506238e-06 -0.30343589480527339 -2.3588675687008643e-10 -2.6768936137024916e-06 -0.19198803741828727 -4.5392140330975338e-10 -1.8045885987596293e-06 -0.14054759350570098 0.040674812435654968 -2.5997838403492481e-06 -0.28808557488956177 -4.5392140330975338e-10 -1.8045885987596293e-06 -0.14054759350570098 0.03515797363503935 -1.8927526783910797e-06 -1.0484950148741527e-05 -3.5581539079117736e-11 -2.1994380580493205e-06 -1.3084481906556419e-05 -3.9182600372733369e-10 -7.2718304988107639e-07 -0.16251752485415238 -3.9182600372733369e-10 -7.2718304988107639e-07 -0.16251752485415238 0.035157973635039357 -1.8927526783910793e-06 -1.0484950148781993e-05 -3.5581539079117736e-11 -2.1994380580493205e-06 -1.3084481906557332e-05 0.040653714926779085 -1.3093318395676371e-06 -1.3118783731883865e-05 0.04802560694993329 -3.0691869891802943e-06 -1.4867255075629604e-05 0.035157973635039343 -1.8927526783910797e-06 -1.0484950148757168e-05 0.075829412808479851 -2.7707643885701207e-06 -0.17905969297450303 0.075906249116017024 -1.7382449050669549e-06 -1.3621063387093192e-05 0.04802560694993329 -3.0691869891802943e-06 -1.4867255075629604e-05 0.035157973635039357 -1.8927526783910797e-06 -1.0484950148741393e-05 0.03515803178141115 -2.0549887651976581e-06 -0.14054863392915054 0.075829412808479851 -2.7707643885701207e-06 -0.17905969297450303 0.075829412808479851 -2.7707643885701207e-06 -0.17905969297450303 0.096049971238672441 -2.8137522891702817e-06 -1.7602472016762504e-05 0.04802560694993329 -3.0691869891802943e-06 -1.4867255075638388e-05 0.075906249116017024 -1.7382449050669549e-06 -1.3621063387093192e-05 0.075829412808479851 -2.7707643885701207e-06 -0.17905969297450303 0.075906249116017024 -1.7382449050669551e-06 -1.3621063387093877e-05 0.035157973635039336 -1.8927526783910795e-06 -1.0484950148750429e-05 0.075059714028959987 -9.1737866064875882e-07 -0.30005033825248573 0.075906249116017024 -1.7382449050669549e-06 -1.3621063387093192e-05 0.075059714028959987 -9.1737866064875903e-07 -0.30005033825248567 0.075829412808479837 -2.7707643885701207e-06 -0.17905969297450305 0.12015758519849008 -1.911362036928739e-06 -0.21679909319336832 0.075906249116017024 -1.7382449050669549e-06 -1.3621063387093192e-05 0.11859989435059001 -2.6067303710178941e-06 -0.12708257387599958 0.12238160850343965 -1.5049868964948791e-06 -1.2742253516018285e-05 0.12015758519849006 -1.9113620369287386e-06 -0.21679909319336835 0.075906249116017024 -1.7382449050669549e-06 -1.3621063387093192e-05 0.12238160850343965 -1.5049868964948791e-06 -1.2742253516047777e-05 0.1100057114573967 -9.5683893961072007e-07 -1.0991951167439164e-05 0.12015758519849006 -1.911362036928739e-06 -0.21679909319336838 0.11859989435059003 -2.6067303710178945e-06 -0.12708257387599967 0.096049971238672441 -2.8137522891702817e-06 -1.7602472016762504e-05 0.075906249116017038 -1.7382449050669553e-06 -1.3621063387031078e-05 0.12238160850343965 -1.5049868964948791e-06 -1.2742253516018285e-05 0.11859989435059003 -2.6067303710178945e-06 -0.12708257387599967 0.096049971238672441 -2.8137522891702817e-06 -1.7602472016762504e-05 0.075829412808479851 -2.7707643885701207e-06 -0.17905969297450303 0.075906249116017038 -1.7382449050669555e-06 -1.3621063387075996e-05 0.075829412808479851 -2.7707643885701207e-06 -0.17905969297450303 0.11451091280183749 -3.1913195675665831e-06 -0.304696275171986 0.11859989435059003 -2.6067303710178945e-06 -0.12708257387599967 0.12015758519849006 -1.911362036928739e-06 -0.21679909319336832 0.075906249116017024 -1.7382449050669549e-06 -1.3621063387093192e-05 0.075829412808479851 -2.7707643885701207e-06 -0.179059692974503 0.11859989435059001 -2.6067303710178941e-06 -0.12708257387599972 0.12015758519849006 -1.9113620369287386e-06 -0.21679909319336838 0.074516038201028659 -2.2250054324116979e-06 -0.52007657366701054 0.12024199134127968 -1.4241527310358041e-06 -0.50767184565359713 0.077193586576419088 -2.4020778131739608e-06 -0.37185475254872646 0.053044001282407813 -1.4737792750102788e-06 -0.47999852865706527 0.077193586576419088 -2.4020778131739608e-06 -0.37185475254872646 0.075059714028960001 -9.1737866064875914e-07 -0.30005033825248573 0.040674812435654968 -2.5997838403492481e-06 -0.28808557488956177 0.053044001282407806 -1.473779275010279e-06 -0.47999852865706527 0.077193586576419088 -2.4020778131739608e-06 -0.37185475254872646 0.12024199134127966 -1.4241527310358039e-06 -0.50767184565359713 0.075059714028960015 -9.1737866064875925e-07 -0.30005033825248573 0.053044001282407813 -1.4737792750102792e-06 -0.47999852865706533 0.077193586576419088 -2.4020778131739608e-06 -0.37185475254872646 0.12024199134127968 -1.4241527310358041e-06 -0.50767184565359691 0.11451091280183751 -3.1913195675665835e-06 -0.30469627517198605 0.12015758519849006 -1.911362036928739e-06 -0.21679909319336832 0.077193586576419088 -2.4020778131739608e-06 -0.37185475254872646 0.075059714028960015 -9.1737866064875935e-07 -0.30005033825248567 0.12024199134127968 -1.4241527310358041e-06 -0.50767184565359713 0.12015758519849003 -1.9113620369287386e-06 -0.21679909319336835 0.077193586576419088 -2.4020778131739608e-06 -0.37185475254872646 0.075829412808479837 -2.7707643885701207e-06 -0.17905969297450303 0.040674812435654968 -2.5997838403492481e-06 -0.28808557488956177 0.075059714028960001 -9.1737866064875914e-07 -0.30005033825248573 0.075829412808479851 -2.7707643885701207e-06 -0.17905969297450303 0.075059714028960001 -9.1737866064875914e-07 -0.30005033825248573 0.077193586576419088 -2.4020778131739608e-06 -0.37185475254872646 0.12015758519849006 -1.911362036928739e-06 -0.21679909319336832 0.075829412808479851 -2.7707643885701207e-06 -0.17905969297450303 0.077193586576419088 -2.4020778131739608e-06 -0.37185475254872646 0.11451091280183751 -3.1913195675665839e-06 -0.304696275171986 0.12015758519849006 -1.911362036928739e-06 -0.21679909319336832 0.074516038201028659 -2.2250054324116979e-06 -0.52007657366701054 0.12006338864591225 -2.7580753009100438e-06 -0.46113460850465182 0.077193586576419088 -2.4020778131739608e-06 -0.37185475254872646 0.12024199134127968 -1.4241527310358045e-06 -0.50767184565359713 0.077193586576419088 -2.4020778131739608e-06 -0.37185475254872646 0.12006338864591225 -2.7580753009100438e-06 -0.46113460850465182 0.11451091280183749 -3.1913195675665831e-06 -0.304696275171986 0.12024199134127968 -1.4241527310358041e-06 -0.50767184565359713 0.039312789037337051 -2.5911718039848979e-06 -0.46907100880786001 0.074516038201028659 -2.2250054324116979e-06 -0.52007657366701054 0.077193586576419088 -2.4020778131739608e-06 -0.37185475254872646 0.053044001282407813 -1.473779275010279e-06 -0.47999852865706527 0.039312789037337051 -2.5911718039848979e-06 -0.46907100880786001 0.077193586576419088 -2.4020778131739608e-06 -0.37185475254872646 0.040674812435654968 -2.5997838403492481e-06 -0.28808557488956177 0.053044001282407813 -1.473779275010279e-06 -0.47999852865706527 0.040674812435654968 -2.5997838403492481e-06 -0.28808557488956177 -4.5392140330975338e-10 -1.8045885987596293e-06 -0.14054759350570098 -2.3009444309490627e-10 -1.693126811750624e-06 -0.30343589480527339 0.075059714028960001 -9.1737866064875903e-07 -0.30005033825248567 -2.3009444064420062e-10 -1.6931268117506238e-06 -0.30343589480527339 0.039312789037337044 -2.5911718039848979e-06 -0.46907100880786007 0.040674812435654968 -2.5997838403492481e-06 -0.28808557488956177 0.053044001282407827 -1.4737792750102786e-06 -0.47999852865706527 -2.3009444064420062e-10 -1.6931268117506238e-06 -0.30343589480527339 0.040674812435654961 -2.5997838403492481e-06 -0.28808557488956177 0.075059714028960001 -9.1737866064875903e-07 -0.30005033825248573 0.053044001282407806 -1.4737792750102788e-06 -0.47999852865706533 -1.7046411958705564e-10 -3.1205447377221257e-06 -0.38396270098236657 1.141662774599332e-10 -3.5150637356469874e-06 -0.57593611146276169 0.039312789037337051 -2.5911718039848979e-06 -0.46907100880786001 -2.7418872951852866e-10 -2.1417306421090709e-06 -0.48922894944262169 -1.7046411958705564e-10 -3.1205447377221257e-06 -0.38396270098236657 -2.3009444064420062e-10 -1.6931268117506238e-06 -0.30343589480527339 0.039312789037337051 -2.5911718039848979e-06 -0.46907100880786001 0.040674812435654968 -2.5997838403492481e-06 -0.28808557488956177 0.039312789037337051 -2.5911718039848979e-06 -0.46907100880786001 -2.3009443736782354e-10 -1.6931268117506238e-06 -0.30343589480527333 -1.7046411949133117e-10 -3.1205447377221257e-06 -0.38396270098236657 -2.7418872951852866e-10 -2.1417306421090709e-06 -0.48922894944262169 -2.3009444064420062e-10 -1.6931268117506238e-06 -0.30343589480527339 -1.704641122062085e-10 -3.1205447377221257e-06 -0.38396270098236657 -2.3588675687008643e-10 -2.6768936137024916e-06 -0.19198803741828727 0.040674812435654968 -2.5997838403492481e-06 -0.28808557488956177 -2.3009444064420062e-10 -1.6931268117506238e-06 -0.30343589480527339 -2.7418872951852866e-10 -2.1417306421090709e-06 -0.48922894944262169 0.039312789037337051 -2.5911718039848979e-06 -0.46907100880786001 0.053044001282407827 -1.4737792750102786e-06 -0.47999852865706527 -2.3009444064420062e-10 -1.6931268117506238e-06 -0.30343589480527339 -2.1848858127598294e-11 -9.288804570411018e-07 -0.43975303168416652 -2.7418872763260241e-10 -2.1417306421090709e-06 -0.48922894944262169 0.053044001282407827 -1.473779275010279e-06 -0.47999852865706527 -3.9182600372733369e-10 -7.2718304988107639e-07 -0.16251752485415238 -2.1992465730297741e-10 -4.2076703148544147e-07 -0.31605416974446987 -2.3009444064420062e-10 -1.6931268117506238e-06 -0.30343589480527339 0.075059714028960001 -9.1737866064875914e-07 -0.30005033825248573 -2.1848859437648914e-11 -9.2888045704110159e-07 -0.43975303168416657 0.075059714028960015 -9.1737866064875925e-07 -0.30005033825248562 0.059480432569937923 2.127723537378526e-07 -0.43290447436461477 0.053044001282407813 -1.473779275010279e-06 -0.47999852865706527 -2.3009444064420062e-10 -1.6931268117506238e-06 -0.30343589480527339 -2.199246546376205e-10 -4.2076703148544147e-07 -0.31605416974446987 -2.1848859604233722e-11 -9.2888045704110159e-07 -0.43975303168416657 0.075059714028960001 -9.1737866064875914e-07 -0.30005033825248573 -2.1992465730297741e-10 -4.2076703148544147e-07 -0.31605416974446987 0.05948043256993793 2.1277235373785258e-07 -0.43290447436461482 0.075059714028960001 -9.1737866064875914e-07 -0.30005033825248567 0.053660101264607525 7.6473464579471321e-08 -0.21450779641885942 -2.1848859437648914e-11 -9.2888045704110159e-07 -0.43975303168416657 0.075059714028960001 -9.1737866064875956e-07 -0.30005033825248567 -2.1992465730297741e-10 -4.2076703148544147e-07 -0.31605416974446987 0.059480432569937923 2.127723537378526e-07 -0.43290447436461477 -3.9182600372733369e-10 -7.2718304988107639e-07 -0.16251752485415238 -2.1992465730297741e-10 -4.2076703148544147e-07 -0.31605416974446987 0.075059714028959987 -9.1737866064875946e-07 -0.30005033825248578 0.053660101264607511 7.647346457947103e-08 -0.21450779641885953 -2.3009444064420062e-10 -1.6931268117506238e-06 -0.30343589480527339 0.075059714028960001 -9.1737866064875903e-07 -0.30005033825248578 -2.1848860056946857e-11 -9.2888045704110149e-07 -0.43975303168416657 0.053044001282407827 -1.4737792750102795e-06 -0.47999852865706533 -2.1848859437648914e-11 -9.2888045704110159e-07 -0.43975303168416657 -2.1992465915481627e-10 -4.2076703148544152e-07 -0.31605416974446987 -3.7268505091579953e-10 1.499188803581715e-07 -0.49877636367451206 0.059480432569937923 2.127723537378526e-07 -0.43290447436461477 0.12006460490304104 7.6197489990551736e-09 -0.47996319588426767 0.12024199134127968 -1.4241527310358041e-06 -0.50767184565359724 0.075059714028959959 -9.1737866064875914e-07 -0.30005033825248562 0.12015835892197567 -1.8095190810047264e-07 -0.23963392001068204 0.059480432569937923 2.127723537378526e-07 -0.43290447436461477 0.12015835892197566 -1.8095190810047291e-07 -0.23963392001068209 0.075059714028960001 -9.1737866064875893e-07 -0.30005033825248567 0.053660101264607525 7.6473464579471414e-08 -0.21450779641885948 0.075059714028960001 -9.1737866064875914e-07 -0.30005033825248573 0.12015835892197567 -1.8095190810047259e-07 -0.23963392001068207 0.12024199134127968 -1.4241527310358043e-06 -0.50767184565359702 0.12015758519849006 -1.911362036928739e-06 -0.21679909319336835 0.12006460490304104 7.6197489990551736e-09 -0.47996319588426767 0.059480432569937923 2.127723537378526e-07 -0.43290447436461477 0.075059714028960028 -9.1737866064875914e-07 -0.30005033825248562 0.12024199134127968 -1.4241527310358041e-06 -0.50767184565359713 0.075059714028960001 -9.1737866064875914e-07 -0.30005033825248573 0.059480432569937923 2.127723537378526e-07 -0.43290447436461477 0.12006460490304104 7.6197489990550164e-09 -0.47996319588426778 0.12015835892197567 -1.8095190810047259e-07 -0.23963392001068209 0.075059714028960001 -9.1737866064875914e-07 -0.30005033825248573 0.12024199134127968 -1.4241527310358043e-06 -0.50767184565359713 0.059480432569937923 2.1277235373785268e-07 -0.43290447436461477 0.053044001282407813 -1.473779275010279e-06 -0.47999852865706527 0.079062932384211471 -7.920752383844787e-07 -1.5131542121053353e-05 0.075059714028959987 -9.1737866064875935e-07 -0.30005033825248573 0.1100057114573967 -9.5683893961072007e-07 -1.0991951167440948e-05 0.12015835892197567 -1.8095190810047259e-07 -0.23963392001068209 0.079062932384211471 -7.920752383844787e-07 -1.5131542121053353e-05 0.12015835892197567 -1.8095190810047259e-07 -0.23963392001068209 0.077913718756765699 5.8454776580694332e-07 -1.5869631033774872e-05 0.053660101264607525 7.6473464579471414e-08 -0.21450779641885948 0.1100057114573967 -9.5683893961072007e-07 -1.0991951167439164e-05 0.12015835892197567 -1.8095190810047259e-07 -0.23963392001068209 0.075059714028960001 -9.1737866064875861e-07 -0.30005033825248573 0.12015758519849008 -1.911362036928739e-06 -0.21679909319336832 0.1100057114573967 -9.5683893961072007e-07 -1.0991951167439164e-05 0.079062932384211471 -7.920752383844787e-07 -1.5131542121053353e-05 0.075906249116017024 -1.7382449050669549e-06 -1.3621063387093192e-05 0.075059714028960001 -9.1737866064875914e-07 -0.30005033825248573 0.040653714926779085 -1.3093318395676371e-06 -1.3118783731883865e-05 0.075059714028959987 -9.1737866064875914e-07 -0.30005033825248573 0.079062932384211471 -7.920752383844787e-07 -1.5131542121053353e-05 0.053660101264607525 7.6473464579471414e-08 -0.21450779641885948 0.075906249116017024 -1.7382449050669549e-06 -1.3621063387093192e-05 0.1100057114573967 -9.5683893961072007e-07 -1.0991951167439164e-05 0.075059714028959987 -9.1737866064875882e-07 -0.30005033825248573 0.12015758519849006 -1.9113620369287394e-06 -0.21679909319336832 0.079062932384211471 -7.920752383844787e-07 -1.5131542121053353e-05 0.075059714028960015 -9.1737866064876009e-07 -0.30005033825248573 0.12015835892197567 -1.8095190810047259e-07 -0.23963392001068209 0.053660101264607539 7.6473464579471771e-08 -0.21450779641885948 0.079062932384211471 -7.920752383844787e-07 -1.5131542121053353e-05 0.040653714926779085 -1.3093318395676373e-06 -1.3118783731880055e-05 0.075906249116017024 -1.7382449050669549e-06 -1.3621063387093192e-05 0.075059714028959987 -9.1737866064875903e-07 -0.30005033825248578 0.077913718756765699 5.8454776580694332e-07 -1.5869631033774872e-05 0.079062932384211471 -7.920752383844787e-07 -1.5131542121053353e-05 0.1247706680246647 2.2047374995816704e-07 -1.4050976129780153e-05 0.12015835892197567 -1.8095190810047259e-07 -0.23963392001068209 0.1247706680246647 2.2047374995816704e-07 -1.4050976129780153e-05 0.079062932384211471 -7.920752383844787e-07 -1.5131542121053353e-05 0.1100057114573967 -9.5683893961072007e-07 -1.0991951167439164e-05 0.12015835892197567 -1.8095190810047259e-07 -0.23963392001068209 -3.9182600372733369e-10 -7.2718304988107639e-07 -0.16251752485415238 0.03515797363503935 -1.8927526783910797e-06 -1.0484950148741527e-05 0.040653714926779085 -1.3093318395676371e-06 -1.3118783731881522e-05 0.075059714028960001 -9.1737866064875914e-07 -0.30005033825248573 -3.9182600372733369e-10 -7.2718304988107639e-07 -0.16251752485415238 0.075059714028959987 -9.1737866064875978e-07 -0.30005033825248573 0.040653714926779085 -1.3093318395676371e-06 -1.3118783731875075e-05 0.053660101264607518 7.6473464579471361e-08 -0.21450779641885948 0.041365575198368705 -9.5011774030823706e-08 -1.4297639622646354e-05 -4.3938062454149604e-10 -4.237375258714831e-08 -0.16536419691941359 0.040653714926779085 -1.3093318395676371e-06 -1.3118783731883865e-05 0.053660101264607525 7.6473464579471414e-08 -0.21450779641885948 0.041365575198368705 -9.5011774030823706e-08 -1.4297639622646354e-05 0.040653714926779085 -1.3093318395676371e-06 -1.3118783731883865e-05 0.079062932384211471 -7.920752383844787e-07 -1.5131542121053353e-05 0.053660101264607525 7.6473464579471414e-08 -0.21450779641885948 -3.9182600372733369e-10 -7.2718304988107639e-07 -0.16251752485415238 -3.5581539079117736e-11 -2.1994380580493205e-06 -1.3084481906557332e-05 -4.5622689887769267e-11 -1.0204684067267436e-06 -1.6700710453638956e-05 0.040653714926779085 -1.3093318395676371e-06 -1.3118783731883865e-05 -3.9182600372733369e-10 -7.2718304988107639e-07 -0.16251752485415238 -4.5622689887769267e-11 -1.0204684067267436e-06 -1.6700710453638956e-05 -4.3938062700204222e-10 -4.2373752587148283e-08 -0.16536419691941359 0.040653714926779085 -1.3093318395676371e-06 -1.3118783731883865e-05 -3.9182600372733369e-10 -7.2718304988107639e-07 -0.16251752485415238 0.040653714926779085 -1.3093318395676371e-06 -1.3118783731883865e-05 -4.3938062454149604e-10 -4.237375258714831e-08 -0.16536419691941359 0.053660101264607511 7.6473464579471295e-08 -0.21450779641885942 -3.9182600372733369e-10 -7.2718304988107639e-07 -0.16251752485415238 -4.3938062454149604e-10 -4.237375258714831e-08 -0.16536419691941359 -2.1992465812721429e-10 -4.2076703148544147e-07 -0.31605416974446987 0.053660101264607511 7.6473464579471401e-08 -0.2145077964188595 -4.3938062454149604e-10 -4.237375258714831e-08 -0.16536419691941359 -4.5622692266449231e-11 -1.0204684067267434e-06 -1.6700710453624773e-05 -1.4648586681281004e-10 8.451617579425907e-07 -1.5590770835962438e-05 0.041365575198368705 -9.5011774030823706e-08 -1.4297639622646354e-05 0.040653714926779085 -1.3093318395676371e-06 -1.3118783731883865e-05 -4.5622689887769267e-11 -1.0204684067267436e-06 -1.6700710453638956e-05 -4.3938062454149604e-10 -4.237375258714831e-08 -0.16536419691941359 0.041365575198368705 -9.5011774030823706e-08 -1.4297639622646354e-05 -2.740468161197673e-10 8.4112545903835482e-07 -0.15260287365057068 -1.8615255343697891e-10 3.5243763886900515e-07 -0.31145943145079324 0.053660101264607532 7.6473464579471215e-08 -0.21450779641885942 0.046247829931479439 1.2630277646147443e-06 -0.18487661401364824 0.038173326315041049 1.0017602088885576e-06 -1.3051262827354894e-05 -2.7404681669405894e-10 8.4112545903835482e-07 -0.15260287365057068 0.053660101264607525 7.6473464579471387e-08 -0.2145077964188595 0.046247829931479439 1.2630277646147443e-06 -0.18487661401364827 -2.740468161197673e-10 8.4112545903835482e-07 -0.15260287365057068 0.041365575198368705 -9.5011774030823706e-08 -1.4297639622646354e-05 -1.4648586661417699e-10 8.451617579425907e-07 -1.5590770835961645e-05 0.038173326315041049 1.0017602088885576e-06 -1.3051262827354894e-05 0.077913718756765699 5.8454776580694332e-07 -1.5869631033774872e-05 0.038173326315041049 1.0017602088885576e-06 -1.3051262827354894e-05 0.053660101264607532 7.647346457947144e-08 -0.2145077964188595 0.046247829931479439 1.2630277646147445e-06 -0.18487661401364827 -1.4648586681281004e-10 8.451617579425907e-07 -1.5590770835962438e-05 -4.3938062454149604e-10 -4.237375258714831e-08 -0.16536419691941359 0.041365575198368705 -9.5011774030823706e-08 -1.4297639622651848e-05 -2.740468161197673e-10 8.4112545903835482e-07 -0.15260287365057068 -2.740468161197673e-10 8.4112545903835482e-07 -0.15260287365057068 -1.4648586681281004e-10 8.451617579425907e-07 -1.5590770835962438e-05 -2.2591002610930406e-10 1.8932807375623312e-06 -1.2683689958279683e-05 0.038173326315041049 1.0017602088885576e-06 -1.3051262827354894e-05 0.074600929883820527 1.8591798331421875e-06 -1.4130011559828724e-05 0.038173326315041056 1.0017602088885578e-06 -1.3051262827350598e-05 0.077913718756765699 5.8454776580694332e-07 -1.5869631033779196e-05 0.046247829931479439 1.2630277646147445e-06 -0.18487661401364827 0.077913718756765699 5.8454776580694332e-07 -1.5869631033774872e-05 0.038173326315041049 1.0017602088885576e-06 -1.3051262827354894e-05 0.041365575198368705 -9.5011774030823706e-08 -1.4297639622646354e-05 0.053660101264607525 7.6473464579471414e-08 -0.21450779641885948 0.038173326315041049 1.0017602088885576e-06 -1.3051262827354894e-05 -2.740468172467314e-10 8.4112545903835482e-07 -0.15260287365057065 0.041365575198368705 -9.5011774030823706e-08 -1.4297639622646354e-05 0.053660101264607525 7.6473464579471414e-08 -0.21450779641885948 -2.740468161197673e-10 8.4112545903835482e-07 -0.15260287365057068 -2.715107395643778e-10 1.8054619235293066e-06 -0.29821798221242951 -1.8615255343697891e-10 3.5243763886900515e-07 -0.31145943145079324 0.046247829931479432 1.2630277646147447e-06 -0.1848766140136483 -4.3938062454149604e-10 -4.237375258714831e-08 -0.16536419691941359 -2.740468161197673e-10 8.4112545903835482e-07 -0.15260287365057068 -1.8615255343697891e-10 3.5243763886900515e-07 -0.31145943145079324 0.053660101264607525 7.6473464579471414e-08 -0.21450779641885948 -4.3938062454149604e-10 -4.237375258714831e-08 -0.16536419691941359 0.041365575198368712 -9.5011774030823693e-08 -1.4297639622650858e-05 -2.740468161197673e-10 8.4112545903835482e-07 -0.15260287365057068 0.053660101264607525 7.6473464579471414e-08 -0.21450779641885948 -1.8615255343697891e-10 3.5243763886900515e-07 -0.31145943145079324 0.054071605673947337 1.6769076850074522e-06 -0.46255250518974173 0.086083373973073057 1.059208799469309e-06 -0.28826636265511296 0.046247829931479439 1.2630277646147443e-06 -0.18487661401364822 -1.8615255343697891e-10 3.5243763886900515e-07 -0.31145943145079324 0.059480432569937937 2.1277235373785258e-07 -0.43290447436461471 -2.1992465730297741e-10 -4.2076703148544147e-07 -0.31605416974446987 0.053660101264607539 7.647346457947148e-08 -0.21450779641885945 -1.8615255343697891e-10 3.5243763886900515e-07 -0.31145943145079324 -2.715107374013931e-10 1.8054619235293066e-06 -0.29821798221242951 0.054071605673947337 1.6769076850074522e-06 -0.46255250518974167 0.046247829931479432 1.2630277646147445e-06 -0.18487661401364824 0.086083373973073057 1.059208799469309e-06 -0.28826636265511296 0.053660101264607539 7.6473464579471493e-08 -0.21450779641885942 -1.8615255155753214e-10 3.5243763886900541e-07 -0.3114594314507933 0.046247829931479426 1.2630277646147445e-06 -0.18487661401364822 -4.3938062454149604e-10 -4.237375258714831e-08 -0.16536419691941359 -1.8615255319968111e-10 3.5243763886900515e-07 -0.31145943145079324 -2.1992465730297741e-10 -4.2076703148544147e-07 -0.31605416974446987 0.053660101264607525 7.6473464579471414e-08 -0.21450779641885948 -1.8615255343697891e-10 3.5243763886900515e-07 -0.31145943145079324 0.059480432569937923 2.1277235373785276e-07 -0.43290447436461477 0.086083373973073057 1.059208799469309e-06 -0.28826636265511296 0.054071605673947344 1.6769076850074518e-06 -0.46255250518974167 0.086083373973073057 1.059208799469309e-06 -0.28826636265511296 0.059480432569937916 2.1277235373785281e-07 -0.43290447436461477 -1.8615256071163325e-10 3.5243763886900531e-07 -0.3114594314507933 0.053660101264607546 7.6473464579471361e-08 -0.2145077964188595 -2.1992465730297741e-10 -4.2076703148544147e-07 -0.31605416974446987 -1.8615255680061666e-10 3.5243763886900515e-07 -0.31145943145079324 -3.7268505091579953e-10 1.499188803581715e-07 -0.49877636367451206 0.059480432569937923 2.127723537378526e-07 -0.43290447436461477 8.5341617082826647e-12 1.0376709383213449e-06 -0.43833437126531705 -3.7268505091579953e-10 1.499188803581715e-07 -0.49877636367451206 -1.8615255343697891e-10 3.5243763886900515e-07 -0.31145943145079324 0.059480432569937923 2.127723537378526e-07 -0.43290447436461477 -4.7091496429362433e-10 9.4541700504337332e-07 -0.57539995674573696 0.05948043256993793 2.1277235373785234e-07 -0.43290447436461477 8.5341617082826647e-12 1.0376709383213449e-06 -0.43833437126531705 0.054071605673947344 1.6769076850074522e-06 -0.46255250518974167 -1.8615255343697891e-10 3.5243763886900515e-07 -0.31145943145079324 -2.715107374013931e-10 1.8054619235293066e-06 -0.29821798221242951 8.5341571884543205e-12 1.0376709383213449e-06 -0.43833437126531705 0.054071605673947344 1.6769076850074522e-06 -0.46255250518974167 8.5341617082826647e-12 1.0376709383213449e-06 -0.43833437126531705 0.059480432569937923 2.1277235373785263e-07 -0.43290447436461477 -1.8615255343697891e-10 3.5243763886900515e-07 -0.31145943145079324 0.054071605673947344 1.6769076850074522e-06 -0.46255250518974167 0.040654389341238398 2.6187127536588908e-06 -0.28869500307598811 0.079067536292025328 3.0542423327690218e-06 -0.38028180044064552 0.054071605673947344 1.6769076850074522e-06 -0.46255250518974167 0.046247829931479439 1.2630277646147445e-06 -0.18487661401364827 -2.715107374013931e-10 1.8054619235293066e-06 -0.29821798221242951 0.040654389341238398 2.6187127536588908e-06 -0.28869500307598811 0.054071605673947344 1.6769076850074522e-06 -0.46255250518974167 0.046247829931479439 1.2630277646147445e-06 -0.18487661401364827 0.041366923123514372 2.8553567895480431e-06 -0.4783821236718665 -3.4742728225330967e-10 2.198960386323061e-06 -0.4876599223997336 -2.7151073630436177e-10 1.8054619235293064e-06 -0.29821798221242946 0.054071605673947344 1.6769076850074522e-06 -0.46255250518974161 8.5341617082826647e-12 1.0376709383213449e-06 -0.43833437126531705 -2.715107374013931e-10 1.8054619235293066e-06 -0.29821798221242951 -3.4742726953443633e-10 2.1989603863230615e-06 -0.4876599223997336 0.054071605673947344 1.6769076850074522e-06 -0.46255250518974167 0.041366923123514372 2.8553567895480431e-06 -0.4783821236718665 -1.3261915680524707e-10 3.3456973121663162e-06 -0.38396286193178153 -2.7151073379100909e-10 1.8054619235293066e-06 -0.29821798221242946 -3.4742726953443633e-10 2.198960386323061e-06 -0.48765992239973355 -2.715107374013931e-10 1.8054619235293066e-06 -0.29821798221242951 0.040654389341238398 2.6187127536588908e-06 -0.28869500307598811 -1.3261915680524707e-10 3.3456973121663162e-06 -0.38396286193178153 0.041366923123514379 2.8553567895480427e-06 -0.47838212367186655 0.041366923123514372 2.8553567895480431e-06 -0.4783821236718665 -2.7151074430282042e-10 1.805461923529306e-06 -0.29821798221242946 0.040654389341238398 2.6187127536588908e-06 -0.28869500307598811 0.05407160567394733 1.6769076850074522e-06 -0.46255250518974167 0.041366923123514372 2.8553567895480431e-06 -0.4783821236718665 0.040654389341238398 2.6187127536588908e-06 -0.28869500307598811 0.079067536292025328 3.0542423327690218e-06 -0.38028180044064552 0.054071605673947344 1.6769076850074522e-06 -0.46255250518974167 -1.3261915680524707e-10 3.3456973121663162e-06 -0.38396286193178153 -2.2802057748457062e-10 2.6202073664454912e-06 -0.19198847646775849 0.040654389341238398 2.6187127536588908e-06 -0.28869500307598811 -2.715107374013931e-10 1.8054619235293066e-06 -0.29821798221242951 0.040654389341238398 2.6187127536588908e-06 -0.28869500307598811 -2.2802058674157786e-10 2.6202073664454912e-06 -0.19198847646775852 -3.6490665277471745e-10 1.7801653250185763e-06 -0.14054811773821937 -2.7151074191493704e-10 1.8054619235293068e-06 -0.29821798221242951 0.035158131064253362 2.0982402785414301e-06 -0.14054929731588514 -2.2802057748457062e-10 2.6202073664454912e-06 -0.19198847646775849 -3.6490663936496291e-10 1.7801653250185765e-06 -0.14054811773821937 0.040654389341238398 2.6187127536588908e-06 -0.28869500307598811 0.048025568074223896 2.9741058164734681e-06 -1.43536661220918e-05 -1.7792754211408621e-10 2.8262250437792555e-06 -1.4365226128655787e-05 0.035157468815171559 1.806443835313146e-06 -1.0459359929709839e-05 0.035158131064253362 2.0982402785414301e-06 -0.14054929731588514 -3.6490663959326656e-10 1.7801653250185763e-06 -0.14054811773821937 -1.7792754107277664e-10 2.826225043779256e-06 -1.4365226128644415e-05 -2.2802057748457062e-10 2.6202073664454912e-06 -0.19198847646775849 0.035158131064253362 2.0982402785414301e-06 -0.14054929731588514 -3.6490663959326656e-10 1.7801653250185763e-06 -0.14054811773821937 0.035157468815171559 1.806443835313146e-06 -1.0459359929709839e-05 -1.7792754107277664e-10 2.826225043779256e-06 -1.4365226128644415e-05 0.035158131064253362 2.0982402785414301e-06 -0.14054929731588514 0.035157468815171559 1.806443835313146e-06 -1.0459359929709839e-05 -1.7792754508882976e-10 2.826225043779256e-06 -1.4365226128658835e-05 -2.2591002872972228e-10 1.8932807375623312e-06 -1.2683689958290157e-05 -3.6490663959326656e-10 1.7801653250185763e-06 -0.14054811773821937 -3.6490663959326656e-10 1.7801653250185763e-06 -0.14054811773821937 -2.740468161197673e-10 8.4112545903835482e-07 -0.15260287365057068 0.038173326315041056 1.0017602088885576e-06 -1.3051262827360589e-05 0.046247829931479439 1.2630277646147445e-06 -0.18487661401364827 -2.2591002872972228e-10 1.8932807375623312e-06 -1.2683689958290157e-05 0.038173326315041049 1.0017602088885576e-06 -1.3051262827354894e-05 0.035157468815171559 1.806443835313146e-06 -1.0459359929709839e-05 -3.6490663959326656e-10 1.7801653250185763e-06 -0.14054811773821937 0.035158131064253362 2.0982402785414301e-06 -0.14054929731588514 -3.6490664075532148e-10 1.7801653250185763e-06 -0.14054811773821935 0.035157468815171559 1.8064438353131458e-06 -1.0459359929705433e-05 0.046247829931479439 1.2630277646147443e-06 -0.18487661401364824 0.038173326315041049 1.0017602088885576e-06 -1.3051262827354894e-05 -2.2591002872972228e-10 1.8932807375623312e-06 -1.2683689958290157e-05 -2.740468161197673e-10 8.4112545903835482e-07 -0.15260287365057068 -3.6490663959326656e-10 1.7801653250185763e-06 -0.14054811773821937 0.038173326315041049 1.0017602088885576e-06 -1.3051262827354894e-05 0.035157468815171559 1.806443835313146e-06 -1.0459359929698477e-05 -3.6490663959326656e-10 1.7801653250185763e-06 -0.14054811773821937 0.046247829931479439 1.2630277646147445e-06 -0.18487661401364827 0.040654389341238398 2.6187127536588908e-06 -0.28869500307598811 -2.7151074711335081e-10 1.8054619235293068e-06 -0.29821798221242951 -3.6490664410681046e-10 1.7801653250185761e-06 -0.1405481177382194 0.046247829931479439 1.2630277646147445e-06 -0.18487661401364827 -3.6490663959326656e-10 1.7801653250185763e-06 -0.14054811773821937 -2.715107374013931e-10 1.8054619235293066e-06 -0.29821798221242951 -2.740468161197673e-10 8.4112545903835482e-07 -0.15260287365057068 0.046247829931479439 1.2630277646147445e-06 -0.18487661401364827 0.035158131064253362 2.0982402785414301e-06 -0.14054929731588514 0.035157468815171566 1.806443835313146e-06 -1.045935992976161e-05 0.074600929883820527 1.8591798331421873e-06 -1.413001155985382e-05 0.046247829931479439 1.2630277646147443e-06 -0.18487661401364824 0.038173326315041049 1.0017602088885576e-06 -1.3051262827354894e-05 0.074600929883820527 1.8591798331421875e-06 -1.4130011559828724e-05 0.035157468815171559 1.806443835313146e-06 -1.0459359929709839e-05 0.046247829931479439 1.2630277646147445e-06 -0.18487661401364827 0.035157468815171559 1.806443835313146e-06 -1.0459359929709839e-05 0.074600929883820527 1.8591798331421875e-06 -1.4130011559828724e-05 0.048025568074223896 2.9741058164734681e-06 -1.43536661220918e-05 0.035158131064253362 2.0982402785414301e-06 -0.14054929731588514 0.0759671276938442 2.7468780186399889e-06 -0.18065537564377279 0.048025568074223902 2.9741058164734689e-06 -1.4353666122080043e-05 0.074600929883820527 1.8591798331421875e-06 -1.4130011559828724e-05 0.035158131064253362 2.0982402785414301e-06 -0.14054929731588514 0.074600929883820527 1.8591798331421875e-06 -1.4130011559828724e-05 0.0759671276938442 2.7468780186399889e-06 -0.18065537564377279 0.035158131064253355 2.0982402785414297e-06 -0.14054929731588509 0.046247829931479439 1.2630277646147443e-06 -0.18487661401364827 0.0759671276938442 2.7468780186399889e-06 -0.18065537564377279 0.040654389341238398 2.6187127536588908e-06 -0.28869500307598811 0.035158131064253362 2.0982402785414301e-06 -0.14054929731588514 0.046247829931479439 1.2630277646147445e-06 -0.18487661401364827 0.035158131064253362 2.0982402785414301e-06 -0.14054929731588514 0.040654389341238398 2.6187127536588908e-06 -0.28869500307598811 -3.6490663959326656e-10 1.7801653250185763e-06 -0.14054811773821937 0.046247829931479439 1.2630277646147445e-06 -0.18487661401364827 0.086083373973073057 1.059208799469309e-06 -0.28826636265511296 0.046247829931479439 1.2630277646147445e-06 -0.18487661401364822 0.0759671276938442 2.7468780186399889e-06 -0.18065537564377279 0.12701097512418691 1.8527202281505679e-06 -0.19994109572531238 0.074600929883820527 1.8591798331421875e-06 -1.4130011559828724e-05 0.046247829931479439 1.2630277646147445e-06 -0.18487661401364827 0.086083373973073085 1.0592087994693088e-06 -0.28826636265511296 0.12701097512418691 1.8527202281505677e-06 -0.19994109572531241 0.074600929883820527 1.8591798331421875e-06 -1.4130011559828724e-05 0.0759671276938442 2.7468780186399893e-06 -0.18065537564377274 0.046247829931479432 1.2630277646147443e-06 -0.18487661401364827 0.12701097512418691 1.8527202281505677e-06 -0.19994109572531241 0.074600929883820527 1.8591798331421875e-06 -1.4130011559828724e-05 0.096050113834347473 3.5117483227123432e-06 -1.6745099153407544e-05 0.048025568074223896 2.9741058164734681e-06 -1.43536661220918e-05 0.0759671276938442 2.7468780186399889e-06 -0.18065537564377279 0.074600929883820527 1.8591798331421875e-06 -1.4130011559828724e-05 0.1219893487807618 2.0977128528268603e-06 -1.3710380768208385e-05 0.0759671276938442 2.7468780186399889e-06 -0.18065537564377279 0.12701097512418691 1.8527202281505677e-06 -0.19994109572531243 0.10965100130140056 9.7727821090115189e-07 -1.0758491387141397e-05 0.1219893487807618 2.0977128528268607e-06 -1.3710380768179467e-05 0.074600929883820527 1.8591798331421875e-06 -1.4130011559824726e-05 0.12701097512418691 1.8527202281505679e-06 -0.19994109572531235 0.12278161986204607 2.5864377070305652e-06 -0.15715676475549689 0.0759671276938442 2.7468780186399889e-06 -0.18065537564377279 0.096050113834347473 3.5117483227123432e-06 -1.6745099153376763e-05 0.1219893487807618 2.0977128528268607e-06 -1.3710380768179467e-05 0.0759671276938442 2.7468780186399889e-06 -0.18065537564377279 0.074600929883820527 1.8591798331421871e-06 -1.4130011559869841e-05 0.096050113834347473 3.5117483227123432e-06 -1.6745099153407544e-05 0.1219893487807618 2.0977128528268607e-06 -1.3710380768179467e-05 0.12278161986204607 2.5864377070305652e-06 -0.15715676475549689 0.11002573596786107 2.0950469805315094e-06 -0.29787272291295586 0.0759671276938442 2.7468780186399889e-06 -0.18065537564377279 0.12701097512418691 1.8527202281505681e-06 -0.19994109572531238 0.12278161986204607 2.5864377070305652e-06 -0.15715676475549689 0.0759671276938442 2.7468780186399889e-06 -0.18065537564377279 0.1219893487807618 2.0977128528268603e-06 -1.3710380768186074e-05 0.12701097512418691 1.8527202281505681e-06 -0.19994109572531235 0.079067536292025328 3.0542423327690218e-06 -0.38028180044064552 0.086083373973073057 1.059208799469309e-06 -0.28826636265511302 0.12002663480556938 1.3351177758321448e-06 -0.50844636468712856 0.054071605673947344 1.6769076850074522e-06 -0.46255250518974167 0.086083373973073057 1.059208799469309e-06 -0.28826636265511296 0.054071605673947344 1.6769076850074522e-06 -0.46255250518974167 0.079067536292025328 3.0542423327690218e-06 -0.38028180044064552 0.046247829931479426 1.2630277646147443e-06 -0.18487661401364822 0.0759671276938442 2.7468780186399889e-06 -0.18065537564377279 0.11002573596786105 2.095046980531509e-06 -0.29787272291295586 0.079067536292025328 3.0542423327690218e-06 -0.38028180044064552 0.086083373973073044 1.0592087994693083e-06 -0.28826636265511296 0.11002573596786105 2.095046980531509e-06 -0.29787272291295586 0.08608337397307303 1.059208799469309e-06 -0.28826636265511302 0.0759671276938442 2.7468780186399889e-06 -0.18065537564377279 0.12701097512418691 1.8527202281505679e-06 -0.19994109572531238 0.0759671276938442 2.7468780186399889e-06 -0.18065537564377279 0.086083373973073085 1.0592087994693088e-06 -0.28826636265511296 0.079067536292025342 3.0542423327690222e-06 -0.38028180044064552 0.046247829931479439 1.2630277646147445e-06 -0.18487661401364827 0.11002573596786105 2.095046980531509e-06 -0.29787272291295586 0.12002663480556933 1.3351177758321444e-06 -0.50844636468712856 0.086083373973073057 1.0592087994693088e-06 -0.28826636265511302 0.12701097512418691 1.8527202281505679e-06 -0.19994109572531238 0.11002573596786105 2.095046980531509e-06 -0.29787272291295586 0.079067536292025328 3.0542423327690218e-06 -0.38028180044064552 0.086083373973073057 1.0592087994693086e-06 -0.28826636265511296 0.12002663480556933 1.3351177758321444e-06 -0.50844636468712834 0.0759671276938442 2.7468780186399889e-06 -0.18065537564377279 0.079067536292025328 3.0542423327690218e-06 -0.38028180044064552 0.040654389341238398 2.6187127536588908e-06 -0.28869500307598811 0.046247829931479439 1.2630277646147445e-06 -0.18487661401364827 0.079067536292025328 3.0542423327690218e-06 -0.38028180044064552 0.077921677332221939 3.1846214896643211e-06 -0.57613766994379512 0.041366923123514372 2.8553567895480431e-06 -0.4783821236718665 0.054071605673947344 1.6769076850074522e-06 -0.46255250518974167 0.11002573596786105 2.095046980531509e-06 -0.29787272291295586 0.12477351215659001 2.7346151016294879e-06 -0.47996448456224594 0.079067536292025328 3.0542423327690218e-06 -0.38028180044064552 0.12002663480556934 1.3351177758321446e-06 -0.50844636468712845 0.059480432569937923 2.127723537378526e-07 -0.43290447436461477 0.12002663480556933 1.3351177758321444e-06 -0.50844636468712834 0.086083373973073057 1.0592087994693092e-06 -0.28826636265511296 0.054071605673947351 1.676907685007452e-06 -0.46255250518974161 0.086083373973073057 1.059208799469309e-06 -0.28826636265511296 0.12006460490304105 7.6197489990553953e-09 -0.47996319588426772 0.059480432569937923 2.127723537378526e-07 -0.43290447436461477 0.12015835892197566 -1.8095190810047285e-07 -0.23963392001068201 0.086083373973073057 1.059208799469309e-06 -0.28826636265511296 0.059480432569937923 2.127723537378526e-07 -0.43290447436461477 0.12006460490304104 7.6197489990550793e-09 -0.47996319588426761 0.12002663480556934 1.3351177758321448e-06 -0.50844636468712845 0.086083373973073057 1.059208799469309e-06 -0.28826636265511296 0.12015835892197567 -1.8095190810047259e-07 -0.23963392001068209 0.059480432569937916 2.127723537378525e-07 -0.43290447436461471 0.053660101264607525 7.6473464579471414e-08 -0.21450779641885948 0.086083373973073057 1.059208799469309e-06 -0.28826636265511296 0.077913718756765699 5.8454776580694332e-07 -1.5869631033774872e-05 0.12015835892197567 -1.8095190810047259e-07 -0.23963392001068209 0.053660101264607525 7.6473464579471414e-08 -0.21450779641885948 0.074600929883820527 1.8591798331421875e-06 -1.4130011559828724e-05 0.077913718756765699 5.8454776580694332e-07 -1.5869631033774872e-05 0.10965100130140056 9.7727821090115189e-07 -1.0758491387141397e-05 0.086083373973073057 1.059208799469309e-06 -0.28826636265511302 0.077913718756765699 5.8454776580694332e-07 -1.5869631033774872e-05 0.053660101264607539 7.6473464579471546e-08 -0.21450779641885948 0.086083373973073057 1.059208799469309e-06 -0.28826636265511302 0.046247829931479439 1.2630277646147445e-06 -0.18487661401364827 0.077913718756765699 5.8454776580694332e-07 -1.5869631033774872e-05 0.10965100130140056 9.7727821090115189e-07 -1.0758491387145794e-05 0.086083373973073057 1.059208799469309e-06 -0.28826636265511296 0.12015835892197567 -1.8095190810047259e-07 -0.23963392001068209 0.074600929883820527 1.8591798331421875e-06 -1.4130011559828724e-05 0.077913718756765699 5.8454776580694332e-07 -1.5869631033774872e-05 0.086083373973073057 1.059208799469309e-06 -0.28826636265511296 0.046247829931479439 1.2630277646147445e-06 -0.18487661401364827 0.10965100130140056 9.7727821090115189e-07 -1.0758491387141397e-05 0.074600929883820527 1.8591798331421875e-06 -1.4130011559829191e-05 0.086083373973073057 1.059208799469309e-06 -0.28826636265511296 0.12701097512418691 1.8527202281505677e-06 -0.19994109572531238 0.086083373973073057 1.059208799469309e-06 -0.28826636265511296 0.12015835892197567 -1.8095190810047259e-07 -0.23963392001068209 0.10965100130140056 9.7727821090115189e-07 -1.0758491387141397e-05 0.12701097512418691 1.8527202281505679e-06 -0.19994109572531238 0.041365575198368705 -9.5011774030823706e-08 -1.4297639622646354e-05 0.079062932384211471 -7.920752383844787e-07 -1.5131542121053353e-05 0.077913718756765699 5.8454776580694332e-07 -1.5869631033774872e-05 0.053660101264607525 7.6473464579471414e-08 -0.21450779641885948 0.077913718756765699 5.8454776580694332e-07 -1.5869631033774872e-05 0.1247706680246647 2.2047374995816704e-07 -1.4050976129780153e-05 0.10965100130140056 9.7727821090115189e-07 -1.0758491387141397e-05 0.12015835892197567 -1.8095190810047259e-07 -0.23963392001068209 0.17461062715593556 8.282807423536173e-07 -9.0114959101538472e-06 0.16437305318419396 1.0646080020185436e-06 -0.29850963795840757 0.14393504155659428 9.1386793717400958e-07 -1.0730932170784231e-05 0.18659289429958481 -2.8121715807010038e-07 -0.20903321789441148 0.16437305318419398 1.0646080020185445e-06 -0.29850963795840757 0.12015835892197566 -1.8095190810047277e-07 -0.23963392001068212 0.14393504155659428 9.1386793717400947e-07 -1.0730932170776538e-05 0.18659289429958478 -2.8121715807010107e-07 -0.20903321789441145 0.14393504155659428 9.1386793717400958e-07 -1.0730932170784231e-05 0.10965100130140056 9.7727821090115189e-07 -1.0758491387148866e-05 0.12015835892197566 -1.8095190810047254e-07 -0.23963392001068212 0.12701097512418691 1.8527202281505681e-06 -0.19994109572531243 0.1247706680246647 2.2047374995816704e-07 -1.4050976129780153e-05 0.16164308838303501 -6.545160081029251e-08 -1.1064188261852618e-05 0.14393504155659428 9.1386793717400958e-07 -1.0730932170784231e-05 0.12015835892197567 -1.8095190810047259e-07 -0.23963392001068209 0.14393504155659428 9.1386793717400958e-07 -1.0730932170784231e-05 0.12015835892197566 -1.8095190810047259e-07 -0.23963392001068209 0.16437305318419398 1.0646080020185443e-06 -0.29850963795840757 0.12701097512418685 1.8527202281505681e-06 -0.19994109572531241 0.14393504155659428 9.1386793717400958e-07 -1.0730932170784231e-05 0.12015835892197566 -1.8095190810047261e-07 -0.23963392001068209 0.16164308838303501 -6.545160081029251e-08 -1.1064188261852618e-05 0.18659289429958476 -2.8121715807010117e-07 -0.20903321789441143 0.14393504155659428 9.1386793717400958e-07 -1.0730932170784231e-05 0.12701097512418691 1.8527202281505692e-06 -0.19994109572531235 0.16437305318419398 1.064608002018544e-06 -0.29850963795840757 0.19587887888786368 1.894614091187694e-06 -0.17743693969876884 0.14393504155659428 9.1386793717400958e-07 -1.0730932170784231e-05 0.10965100130140056 9.7727821090115189e-07 -1.0758491387148068e-05 0.1247706680246647 2.2047374995816704e-07 -1.4050976129780153e-05 0.12015835892197567 -1.8095190810047259e-07 -0.23963392001068209 0.14393504155659428 9.1386793717400958e-07 -1.0730932170784231e-05 0.16437305318419398 1.0646080020185445e-06 -0.29850963795840757 0.17461062715593556 8.282807423536173e-07 -9.0114959101538472e-06 0.19587887888786368 1.8946140911876936e-06 -0.17743693969876884 0.10965100130140056 9.7727821090115189e-07 -1.0758491387141397e-05 0.14393504155659428 9.1386793717400958e-07 -1.0730932170782761e-05 0.1219893487807618 2.0977128528268607e-06 -1.3710380768195456e-05 0.12701097512418688 1.8527202281505679e-06 -0.19994109572531235 0.14393504155659428 9.1386793717400958e-07 -1.0730932170784231e-05 0.17461062715593556 8.282807423536174e-07 -9.0114959101489768e-06 0.16937748269440811 1.5322060931522826e-06 -1.3759222483872081e-05 0.19587887888786368 1.8946140911876936e-06 -0.17743693969876884 0.17461062715593556 8.282807423536173e-07 -9.0114959101538472e-06 0.14393504155659428 9.1386793717400958e-07 -1.0730932170783975e-05 0.16164308838303501 -6.5451600810292484e-08 -1.1064188261844969e-05 0.18659289429958478 -2.8121715807010112e-07 -0.20903321789441145 0.16437305318419398 1.0646080020185445e-06 -0.29850963795840757 0.12015835892197567 -1.8095190810047251e-07 -0.23963392001068201 0.086083373973073057 1.059208799469309e-06 -0.28826636265511296 0.12701097512418688 1.8527202281505675e-06 -0.19994109572531238 0.16437305318419398 1.0646080020185445e-06 -0.29850963795840757 0.086083373973073044 1.0592087994693088e-06 -0.28826636265511291 0.12006460490304104 7.6197489990551736e-09 -0.47996319588426767 0.12002663480556934 1.3351177758321446e-06 -0.50844636468712845 0.12006460490304104 7.6197489990551736e-09 -0.47996319588426767 0.086083373973073057 1.059208799469309e-06 -0.28826636265511302 0.16437305318419398 1.0646080020185445e-06 -0.29850963795840757 0.1201583589219757 -1.8095190810047296e-07 -0.23963392001068212 0.12006460490304104 7.6197489990551736e-09 -0.47996319588426767 0.16437305318419398 1.0646080020185445e-06 -0.29850963795840757 0.18019246994235763 1.0097858867004497e-07 -0.47840846208164595 0.1201583589219757 -1.8095190810047301e-07 -0.23963392001068212 0.16437305318419398 1.0646080020185445e-06 -0.29850963795840757 0.12002663480556934 1.3351177758321446e-06 -0.50844636468712845 0.18019246994235763 1.0097858867004497e-07 -0.47840846208164595 0.18578343696321029 1.8611007748625073e-06 -0.47833655581481715 0.18019246994235763 1.0097858867004497e-07 -0.47840846208164595 0.12015835892197567 -1.8095190810047275e-07 -0.23963392001068221 0.16437305318419398 1.0646080020185445e-06 -0.29850963795840751 0.18659289429958478 -2.8121715807010112e-07 -0.20903321789441145 0.086083373973073057 1.059208799469309e-06 -0.28826636265511296 0.12002663480556934 1.3351177758321446e-06 -0.50844636468712845 0.16437305318419398 1.0646080020185445e-06 -0.29850963795840757 0.12701097512418691 1.8527202281505679e-06 -0.19994109572531238 0.12006460490304104 7.6197489990551736e-09 -0.47996319588426767 0.1801924699423576 1.0097858867004493e-07 -0.478408462081646 0.16437305318419398 1.0646080020185445e-06 -0.29850963795840757 0.12002663480556934 1.3351177758321446e-06 -0.50844636468712845 0.16437305318419398 1.0646080020185445e-06 -0.29850963795840757 0.12701097512418691 1.8527202281505679e-06 -0.19994109572531238 0.14663624294528918 2.9026982699323179e-06 -0.31801080518052427 0.19587887888786368 1.8946140911876936e-06 -0.17743693969876884 0.14663624294528918 2.9026982699323179e-06 -0.31801080518052427 0.12002663480556934 1.3351177758321448e-06 -0.50844636468712834 0.16437305318419398 1.0646080020185445e-06 -0.29850963795840757 0.18578343696321029 1.8611007748625073e-06 -0.47833655581481715 0.14663624294528918 2.9026982699323179e-06 -0.31801080518052427 0.16385719250002309 3.2143162239808023e-06 -0.50214778007564498 0.12002663480556937 1.3351177758321448e-06 -0.50844636468712845 0.18578343696321029 1.8611007748625073e-06 -0.47833655581481715 0.19868738571289529 3.2006314806991975e-06 -0.30150610337571698 0.16437305318419396 1.0646080020185443e-06 -0.29850963795840757 0.14663624294528918 2.9026982699323175e-06 -0.31801080518052427 0.19587887888786368 1.8946140911876936e-06 -0.17743693969876898 0.11002573596786105 2.095046980531509e-06 -0.29787272291295586 0.14663624294528918 2.9026982699323179e-06 -0.31801080518052427 0.12002663480556934 1.3351177758321446e-06 -0.50844636468712845 0.12701097512418691 1.8527202281505679e-06 -0.19994109572531238 0.14663624294528918 2.9026982699323179e-06 -0.31801080518052427 0.16437305318419401 1.0646080020185443e-06 -0.29850963795840763 0.19868738571289529 3.2006314806991975e-06 -0.30150610337571698 0.18578343696321029 1.8611007748625073e-06 -0.47833655581481715 0.16437305318419398 1.0646080020185445e-06 -0.29850963795840757 0.12002663480556935 1.3351177758321448e-06 -0.50844636468712845 0.14663624294528918 2.9026982699323179e-06 -0.31801080518052427 0.12701097512418691 1.8527202281505679e-06 -0.19994109572531241 0.14663624294528918 2.9026982699323179e-06 -0.31801080518052427 0.16385719250002312 3.2143162239808023e-06 -0.50214778007564509 0.12477351215659001 2.7346151016294879e-06 -0.47996448456224594 0.12002663480556934 1.3351177758321446e-06 -0.50844636468712845 0.12477351215659001 2.7346151016294879e-06 -0.47996448456224594 0.11002573596786105 2.095046980531509e-06 -0.29787272291295586 0.14663624294528918 2.9026982699323179e-06 -0.31801080518052427 0.12002663480556934 1.3351177758321444e-06 -0.50844636468712845 0.16385719250002312 3.2143162239808023e-06 -0.50214778007564509 0.14663624294528915 2.9026982699323175e-06 -0.31801080518052427 0.19868738571289529 3.2006314806991975e-06 -0.30150610337571698 0.18578343696321029 1.8611007748625073e-06 -0.47833655581481715 0.12278161986204607 2.5864377070305652e-06 -0.15715676475549689 0.14663624294528918 2.9026982699323179e-06 -0.31801080518052427 0.11002573596786105 2.095046980531509e-06 -0.29787272291295586 0.12701097512418691 1.8527202281505681e-06 -0.19994109572531238 0.12278161986204607 2.5864377070305652e-06 -0.15715676475549689 0.16804887846823094 2.6227357937534401e-06 -0.16260767958881239 0.14663624294528918 2.9026982699323179e-06 -0.31801080518052427 0.12701097512418691 1.8527202281505681e-06 -0.19994109572531238 0.16804887846823094 2.6227357937534401e-06 -0.16260767958881239 0.14663624294528918 2.9026982699323179e-06 -0.31801080518052427 0.12701097512418691 1.8527202281505679e-06 -0.19994109572531241 0.19587887888786368 1.8946140911876936e-06 -0.17743693969876881 0.16804887846823094 2.6227357937534401e-06 -0.16260767958881239 0.12701097512418694 1.8527202281505681e-06 -0.19994109572531238 0.16937748269440811 1.5322060931522829e-06 -1.3759222483873592e-05 0.19587887888786365 1.8946140911876936e-06 -0.17743693969876875 0.16804887846823094 2.6227357937534401e-06 -0.16260767958881239 0.12278161986204607 2.5864377070305652e-06 -0.15715676475549689 0.12198934878076183 2.0977128528268612e-06 -1.3710380768108566e-05 0.12701097512418691 1.8527202281505681e-06 -0.19994109572531232 0.14393504155659428 9.1386793717400958e-07 -1.0730932170784231e-05 0.16937748269440811 1.5322060931522826e-06 -1.3759222483872081e-05 0.12701097512418691 1.8527202281505681e-06 -0.19994109572531243 0.19587887888786368 1.8946140911876936e-06 -0.17743693969876886 0.14406906122808963 3.1132006610301204e-06 -1.7430430620572065e-05 0.16804887846823094 2.6227357937534401e-06 -0.16260767958881239 0.12278161986204607 2.5864377070305652e-06 -0.15715676475549689 0.1219893487807618 2.0977128528268607e-06 -1.3710380768179467e-05 0.12278161986204607 2.5864377070305652e-06 -0.15715676475549689 0.096050113834347473 3.5117483227123432e-06 -1.6745099153422421e-05 0.14406906122808963 3.1132006610301204e-06 -1.7430430620572065e-05 0.1219893487807618 2.0977128528268607e-06 -1.3710380768179467e-05 0.1219893487807618 2.0977128528268607e-06 -1.3710380768179467e-05 0.14393504155659428 9.1386793717400947e-07 -1.073093217078449e-05 0.16937748269440811 1.5322060931522826e-06 -1.3759222483872081e-05 0.12701097512418691 1.8527202281505679e-06 -0.19994109572531238 0.16804887846823094 2.6227357937534401e-06 -0.16260767958881239 0.1219893487807618 2.0977128528268612e-06 -1.3710380768111366e-05 0.16937748269440811 1.5322060931522829e-06 -1.3759222483846279e-05 0.12701097512418691 1.8527202281505681e-06 -0.19994109572531232 0.14406906122808963 3.1132006610301204e-06 -1.7430430620572065e-05 0.1920811857671286 2.6759830368911601e-06 -1.4308668465293817e-05 0.16804887846823094 2.6227357937534401e-06 -0.16260767958881239 0.16937748269440811 1.5322060931522826e-06 -1.3759222483872081e-05 0.1219893487807618 2.0977128528268607e-06 -1.3710380768179467e-05 0.14406906122808963 3.1132006610301204e-06 -1.7430430620572065e-05 0.16804887846823094 2.6227357937534401e-06 -0.1626076795888125 0.16937748269440811 1.5322060931522826e-06 -1.3759222483872081e-05 0.16804887846823094 2.6227357937534401e-06 -0.16260767958881239 0.19868738571289529 3.2006314806991975e-06 -0.30150610337571698 0.14663624294528918 2.9026982699323179e-06 -0.31801080518052427 0.19587887888786371 1.894614091187694e-06 -0.17743693969876886 0.19868738571289529 3.2006314806991975e-06 -0.30150610337571698 0.16804887846823094 2.6227357937534401e-06 -0.16260767958881239 0.20494407368165832 1.9691708502017464e-06 -0.140556881387955 0.19587887888786368 1.8946140911876936e-06 -0.17743693969876881 0.16804887846823094 2.6227357937534401e-06 -0.16260767958881239 0.20494339058448113 2.0741582393395745e-06 -9.731304354719218e-06 0.20494407368165832 1.9691708502017464e-06 -0.140556881387955 0.19587887888786368 1.8946140911876938e-06 -0.17743693969876875 0.20494407368165832 1.9691708502017464e-06 -0.140556881387955 0.24008424890002025 1.7941853462979289e-06 -0.14055867844093825 0.19868738571289529 3.2006314806991975e-06 -0.30150610337571698 0.19587887888786368 1.8946140911876934e-06 -0.17743693969876881 0.20494339058448113 2.0741582393395745e-06 -9.7313043546800817e-06 0.20494407368165832 1.9691708502017464e-06 -0.140556881387955 0.1920811857671286 2.6759830368911601e-06 -1.4308668465293817e-05 0.16804887846823094 2.6227357937534401e-06 -0.16260767958881239 0.16804887846823094 2.6227357937534401e-06 -0.16260767958881239 0.1920811857671286 2.6759830368911601e-06 -1.4308668465292896e-05 0.20494339058448113 2.0741582393395745e-06 -9.7313043546800817e-06 0.16937748269440811 1.5322060931522826e-06 -1.3759222483872081e-05 0.20494339058448113 2.0741582393395745e-06 -9.7313043546800817e-06 0.16937748269440811 1.5322060931522826e-06 -1.3759222483874009e-05 0.20449797224515726 1.4555575528422367e-06 -1.0969576145753435e-05 0.19587887888786368 1.8946140911876936e-06 -0.17743693969876881 0.16804887846823094 2.6227357937534401e-06 -0.16260767958881239 0.16937748269440814 1.5322060931522826e-06 -1.3759222483929801e-05 0.20494339058448113 2.074158239339574e-06 -9.7313043547013575e-06 0.19587887888786368 1.8946140911876938e-06 -0.17743693969876875 0.24008424890002025 1.7941853462979291e-06 -0.14055867844093822 0.24008394400277633 8.2079372036336086e-07 -0.15261349613480352 0.24008636711094269 1.4173121362752526e-06 -0.2982407443864592 0.19587887888786368 1.8946140911876936e-06 -0.17743693969876884 0.19868738571289529 3.2006314806991975e-06 -0.30150610337571698 0.24008424890002025 1.7941853462979291e-06 -0.14055867844093822 0.24008636711094269 1.4173121362752526e-06 -0.2982407443864592 0.19587887888786371 1.894614091187694e-06 -0.17743693969876886 0.24008424890002025 1.7941853462979291e-06 -0.14055867844093822 0.20494339058448113 2.0741582393395745e-06 -9.7313043546800817e-06 0.24008249465498249 1.3989230623867066e-06 -1.273740853323096e-05 0.19587887888786368 1.8946140911876936e-06 -0.17743693969876884 0.24008249465498249 1.3989230623867066e-06 -1.273740853323096e-05 0.19587887888786371 1.8946140911876934e-06 -0.17743693969876881 0.24008394400277633 8.2079372036336086e-07 -0.15261349613480352 0.24008424890002025 1.7941853462979291e-06 -0.14055867844093822 0.20494339058448113 2.0741582393395745e-06 -9.7313043546800817e-06 0.24008424890002025 1.7941853462979291e-06 -0.14055867844093825 0.20494407368165832 1.9691708502017464e-06 -0.140556881387955 0.19587887888786368 1.8946140911876936e-06 -0.17743693969876881 0.20494339058448113 2.0741582393395745e-06 -9.7313043546800817e-06 0.20449797224515728 1.4555575528422369e-06 -1.0969576145744426e-05 0.24008249465498249 1.3989230623867066e-06 -1.2737408533226456e-05 0.19587887888786368 1.8946140911876936e-06 -0.17743693969876881 0.24008424890002025 1.7941853462979291e-06 -0.14055867844093822 0.20494407368165832 1.9691708502017459e-06 -0.140556881387955 0.2400819889383641 2.9315665693292148e-06 -1.4725082065505034e-05 0.20494339058448113 2.0741582393395745e-06 -9.7313043546800817e-06 0.2400831071482058 2.7416012999387779e-06 -0.19200182505494778 0.20494407368165832 1.9691708502017464e-06 -0.140556881387955 0.2400819889383641 2.9315665693292148e-06 -1.4725082065505034e-05 0.24008424890002025 1.7941853462979291e-06 -0.14055867844093822 0.2400819889383641 2.9315665693292148e-06 -1.4725082065505034e-05 0.24008424890002025 1.7941853462979291e-06 -0.14055867844093822 0.20494339058448113 2.0741582393395745e-06 -9.7313043546800817e-06 0.24008249465498249 1.3989230623867066e-06 -1.273740853323096e-05 0.1920811857671286 2.6759830368911601e-06 -1.4308668465293817e-05 0.2400819889383641 2.9315665693292148e-06 -1.4725082065505034e-05 0.20494407368165832 1.9691708502017464e-06 -0.140556881387955 0.20494339058448113 2.0741582393395745e-06 -9.7313043546800817e-06 0.19868738571289529 3.2006314806991975e-06 -0.30150610337571698 0.20494407368165832 1.9691708502017464e-06 -0.140556881387955 0.2400831071482058 2.7416012999387779e-06 -0.19200182505494778 0.24008424890002025 1.7941853462979291e-06 -0.14055867844093822 0.2400831071482058 2.7416012999387779e-06 -0.19200182505494778 0.24008636711094269 1.4173121362752526e-06 -0.2982407443864592 0.19868738571289526 3.2006314806991975e-06 -0.30150610337571693 0.24008424890002025 1.7941853462979291e-06 -0.14055867844093822 0.24008641641632456 2.5797335247068381e-06 -0.3839915931341869 0.24008636711094269 1.4173121362752526e-06 -0.2982407443864592 0.19868738571289529 3.2006314806991975e-06 -0.30150610337571693 0.2400831071482058 2.7416012999387779e-06 -0.19200182505494778 0.19868738571289529 3.2006314806991975e-06 -0.30150610337571698 0.18578343696321026 1.8611007748625073e-06 -0.47833655581481715 0.16437305318419398 1.0646080020185445e-06 -0.29850963795840757 0.19587887888786362 1.8946140911876934e-06 -0.17743693969876884 0.24008636711094269 1.4173121362752526e-06 -0.2982407443864592 0.18578343696321026 1.8611007748625071e-06 -0.47833655581481715 0.19868738571289529 3.2006314806991975e-06 -0.30150610337571698 0.19587887888786368 1.8946140911876936e-06 -0.17743693969876875 0.24008636711094269 1.4173121362752526e-06 -0.2982407443864592 0.16437305318419398 1.064608002018543e-06 -0.29850963795840751 0.18578343696321029 1.8611007748625067e-06 -0.47833655581481721 0.19587887888786368 1.894614091187693e-06 -0.17743693969876881 0.24008636711094269 1.4173121362752526e-06 -0.2982407443864592 0.20831829326431384 2.5968192265753331e-06 -0.48582031506399465 0.19868738571289529 3.2006314806991979e-06 -0.30150610337571698 0.18578343696321029 1.8611007748625073e-06 -0.47833655581481715 0.16385719250002312 3.2143162239808023e-06 -0.50214778007564509 0.19868738571289529 3.2006314806991975e-06 -0.30150610337571698 0.20831829326431381 2.5968192265753339e-06 -0.48582031506399459 0.18578343696321029 1.8611007748625073e-06 -0.47833655581481715 0.20831829326431381 2.5968192265753339e-06 -0.48582031506399459 0.24008641641632456 2.5797335247068381e-06 -0.3839915931341869 0.24008636711094269 1.4173121362752526e-06 -0.2982407443864592 0.19868738571289529 3.2006314806991975e-06 -0.30150610337571698 0.24008641641632456 2.5797335247068381e-06 -0.3839915931341869 0.24008976882735944 1.5178325625276607e-06 -0.48769994473394712 0.20831829326431381 2.5968192265753339e-06 -0.48582031506399459 0.24008636711094269 1.4173121362752526e-06 -0.2982407443864592 0.24008636711094269 1.4173121362752526e-06 -0.2982407443864592 0.24008976882735944 1.5178325625276607e-06 -0.48769994473394712 0.20831829326431381 2.5968192265753339e-06 -0.48582031506399459 0.18578343696321029 1.8611007748625073e-06 -0.47833655581481715 0.24008636711094269 1.4173121362752526e-06 -0.2982407443864592 0.24008908282808245 1.2317790527767371e-06 -0.43978827098532924 0.24008976882735944 1.5178325625276607e-06 -0.48769994473394712 0.18578343696321029 1.8611007748625073e-06 -0.47833655581481715 0.2400863005621445 -6.5771026079340117e-07 -0.31607866153058445 0.18019246994235763 1.00978588670045e-07 -0.47840846208164589 0.24008624868474998 4.3029377832146506e-07 -0.3114829538216784 0.18659289429958478 -2.8121715807010112e-07 -0.20903321789441145 0.24008908282808242 1.2317790527767371e-06 -0.43978827098532919 0.16437305318419398 1.0646080020185445e-06 -0.29850963795840757 0.24008624868475001 4.3029377832146506e-07 -0.3114829538216784 0.18019246994235763 1.0097858867004497e-07 -0.47840846208164595 0.24008636711094269 1.4173121362752526e-06 -0.2982407443864592 0.16437305318419401 1.0646080020185438e-06 -0.29850963795840751 0.24008908282808242 1.2317790527767371e-06 -0.43978827098532919 0.18578343696321029 1.8611007748625073e-06 -0.47833655581481715 0.24008908282808242 1.2317790527767371e-06 -0.43978827098532919 0.16437305318419398 1.0646080020185445e-06 -0.29850963795840757 0.18019246994235766 1.0097858867004529e-07 -0.478408462081646 0.18578343696321023 1.8611007748625073e-06 -0.47833655581481715 0.24008908282808242 1.2317790527767371e-06 -0.43978827098532919 0.24008636711094269 1.4173121362752526e-06 -0.2982407443864592 0.24008624868475001 4.3029377832146506e-07 -0.3114829538216784 0.16437305318419398 1.0646080020185445e-06 -0.29850963795840757 0.16437305318419398 1.0646080020185445e-06 -0.29850963795840757 0.24008624868474998 4.3029377832146485e-07 -0.3114829538216784 0.18019246994235763 1.0097858867004497e-07 -0.47840846208164595 0.18659289429958478 -2.8121715807010123e-07 -0.20903321789441143 0.24008636711094269 1.4173121362752526e-06 -0.2982407443864592 0.24008624868475001 4.3029377832146506e-07 -0.3114829538216784 0.16437305318419396 1.064608002018544e-06 -0.29850963795840763 0.19587887888786368 1.8946140911876936e-06 -0.17743693969876884 0.24008624868475001 4.3029377832146506e-07 -0.3114829538216784 0.18659289429958478 -2.8121715807010112e-07 -0.20903321789441145 0.16437305318419401 1.0646080020185443e-06 -0.29850963795840768 0.19587887888786368 1.894614091187693e-06 -0.17743693969876889 0.2400892560810618 1.0461628744739408e-07 -0.49881785104319554 0.24008908282808242 1.2317790527767371e-06 -0.43978827098532919 0.24008624868475001 4.3029377832146506e-07 -0.3114829538216784 0.18019246994235763 1.0097858867004497e-07 -0.47840846208164595 0.2400863005621445 -6.5771026079340117e-07 -0.31607866153058445 0.2400892560810618 1.0461628744739396e-07 -0.49881785104319554 0.24008624868475001 4.3029377832146506e-07 -0.3114829538216784 0.18019246994235766 1.009785886700449e-07 -0.47840846208164595 0.20214133132118009 6.7575766850446129e-07 -1.2554588868428197e-05 0.24008315024088561 -2.3844344697842334e-07 -0.16537506904514732 0.24008394400277633 8.2079372036336086e-07 -0.15261349613480352 0.18659289429958478 -2.8121715807010112e-07 -0.20903321789441145 0.24008394400277633 8.2079372036336086e-07 -0.15261349613480352 0.20449797224515731 1.4555575528422369e-06 -1.0969576145801011e-05 0.18659289429958476 -2.8121715807010144e-07 -0.20903321789441148 0.19587887888786368 1.8946140911876936e-06 -0.17743693969876884 0.24008394400277633 8.2079372036336086e-07 -0.15261349613480352 0.18659289429958476 -2.8121715807010149e-07 -0.20903321789441145 0.24008624868475001 4.3029377832146506e-07 -0.3114829538216784 0.19587887888786368 1.8946140911876936e-06 -0.17743693969876884 0.24008394400277633 8.2079372036336086e-07 -0.15261349613480352 0.24008315024088561 -2.3844344697842323e-07 -0.16537506904514726 0.24008624868475001 4.3029377832146506e-07 -0.3114829538216784 0.18659289429958476 -2.8121715807010075e-07 -0.20903321789441148 0.17461062715593556 8.282807423536173e-07 -9.0114959101538472e-06 0.18659289429958478 -2.8121715807010112e-07 -0.20903321789441145 0.20449797224515726 1.4555575528422369e-06 -1.0969576145753449e-05 0.19587887888786368 1.8946140911876936e-06 -0.17743693969876884 0.17461062715593556 8.282807423536173e-07 -9.0114959101538472e-06 0.16437305318419398 1.0646080020185443e-06 -0.29850963795840757 0.18659289429958476 -2.8121715807010107e-07 -0.20903321789441145 0.19587887888786368 1.8946140911876936e-06 -0.17743693969876884 0.24008636711094269 1.4173121362752526e-06 -0.2982407443864592 0.24008394400277633 8.2079372036336086e-07 -0.15261349613480352 0.24008624868475001 4.3029377832146506e-07 -0.3114829538216784 0.19587887888786368 1.8946140911876936e-06 -0.17743693969876884 0.17461062715593556 8.282807423536173e-07 -9.0114959101538472e-06 0.16164308838303501 -6.5451600810292471e-08 -1.106418826184728e-05 0.20214133132118009 6.7575766850446129e-07 -1.2554588868435846e-05 0.18659289429958478 -2.8121715807010112e-07 -0.20903321789441145 0.20214133132118009 6.7575766850446129e-07 -1.2554588868428197e-05 0.24008394400277636 8.2079372036336086e-07 -0.15261349613480349 0.20449797224515728 1.4555575528422369e-06 -1.0969576145744426e-05 0.18659289429958478 -2.8121715807010112e-07 -0.20903321789441145 0.17461062715593556 8.282807423536173e-07 -9.0114959101538472e-06 0.20214133132118009 6.757576685044614e-07 -1.2554588868429491e-05 0.20449797224515728 1.4555575528422369e-06 -1.0969576145740603e-05 0.18659289429958478 -2.8121715807010112e-07 -0.20903321789441145 0.16937748269440811 1.5322060931522826e-06 -1.3759222483872081e-05 0.17461062715593556 8.282807423536173e-07 -9.0114959101538472e-06 0.20449797224515728 1.4555575528422369e-06 -1.0969576145753437e-05 0.19587887888786368 1.8946140911876934e-06 -0.17743693969876886 0.24008394400277633 8.2079372036336086e-07 -0.15261349613480352 0.20449797224515731 1.4555575528422369e-06 -1.0969576145727114e-05 0.24008249465498249 1.3989230623867066e-06 -1.2737408533232529e-05 0.24008083009098372 8.7660809483557146e-07 -1.4199493783927112e-05 0.24008394400277633 8.2079372036336086e-07 -0.15261349613480352 0.19587887888786365 1.8946140911876934e-06 -0.17743693969876884 0.24008249465498249 1.3989230623867066e-06 -1.273740853323096e-05 0.20449797224515731 1.4555575528422371e-06 -1.0969576145770442e-05 0.20214133132118009 6.7575766850446129e-07 -1.2554588868428197e-05 0.20449797224515728 1.4555575528422369e-06 -1.0969576145744426e-05 0.24008394400277633 8.2079372036336086e-07 -0.15261349613480352 0.24008083009098372 8.7660809483557146e-07 -1.4199493783927112e-05 0.24008083009098372 8.7660809483557146e-07 -1.4199493783927112e-05 0.24008394400277633 8.2079372036336086e-07 -0.15261349613480352 0.20214133132118009 6.7575766850446129e-07 -1.2554588868428197e-05 0.24008315024088561 -2.3844344697842302e-07 -0.16537506904514732 0.240080352251139 -3.6250828898585557e-09 -1.7247026330297147e-05 0.24008083009098372 8.7660809483557135e-07 -1.4199493783927112e-05 0.20214133132118009 6.7575766850446129e-07 -1.2554588868428197e-05 0.24008315024088561 -2.3844344697842302e-07 -0.16537506904514732 0.19409598945314468 -1.1601494366887037e-06 -1.5123445538479359e-05 0.20494306029421686 -1.4842650071039446e-06 -1.0685664347838112e-05 0.24008406373698638 -6.801701405065875e-07 -0.16253063257340364 0.16514342838211141 -1.0769770216161625e-06 -0.30110916973327734 0.19409598945314468 -1.1601494366887037e-06 -1.5123445538479359e-05 0.24008035225113897 -3.6250828898590864e-09 -1.7247026330342701e-05 0.20214133132118009 6.7575766850446108e-07 -1.2554588868436938e-05 0.24008315024088561 -2.3844344697842302e-07 -0.16537506904514732 0.240080352251139 -3.6250828898585557e-09 -1.7247026330297147e-05 0.19409598945314468 -1.1601494366887037e-06 -1.5123445538479359e-05 0.2400840637369864 -6.8017014050658728e-07 -0.16253063257340364 0.24008315024088561 -2.3844344697842302e-07 -0.16537506904514732 0.19409598945314468 -1.1601494366887037e-06 -1.5123445538479359e-05 0.16514342838211143 -1.0769770216161629e-06 -0.30110916973327739 0.24008406373698638 -6.8017014050658739e-07 -0.16253063257340361 0.18659289429958478 -2.8121715807010091e-07 -0.20903321789441143 0.20214133132118009 6.7575766850446129e-07 -1.2554588868428197e-05 0.16164308838303501 -6.5451600810292404e-08 -1.1064188261852421e-05 0.19409598945314468 -1.1601494366887037e-06 -1.5123445538479359e-05 0.18659289429958478 -2.8121715807010112e-07 -0.20903321789441145 0.20214133132118009 6.7575766850446129e-07 -1.2554588868428197e-05 0.19409598945314468 -1.1601494366887037e-06 -1.5123445538479359e-05 0.24008315024088561 -2.3844344697842318e-07 -0.16537506904514732 0.18659289429958478 -2.8121715807010112e-07 -0.20903321789441145 0.19409598945314468 -1.1601494366887037e-06 -1.5123445538479359e-05 0.2400840637369864 -6.8017014050658718e-07 -0.16253063257340358 0.24008315024088561 -2.3844344697842302e-07 -0.16537506904514732 0.18659289429958478 -2.8121715807010112e-07 -0.20903321789441145 0.2400840637369864 -6.8017014050658728e-07 -0.16253063257340364 0.2400863005621445 -6.5771026079340117e-07 -0.31607866153058445 0.24008315024088564 -2.3844344697842307e-07 -0.16537506904514732 0.18659289429958476 -2.8121715807010123e-07 -0.20903321789441148 0.2400840637369864 -6.8017014050658728e-07 -0.16253063257340364 0.19409598945314471 -1.1601494366887037e-06 -1.5123445538481468e-05 0.240080352251139 -3.6250828898585557e-09 -1.7247026330297147e-05 0.24008126973657373 -1.6748204882256034e-06 -1.4725717199517786e-05 0.2400840637369864 -6.8017014050658728e-07 -0.16253063257340364 0.19409598945314466 -1.1601494366887037e-06 -1.5123445538523561e-05 0.24008126973657373 -1.6748204882256034e-06 -1.4725717199517786e-05 0.20494306029421686 -1.4842650071039446e-06 -1.0685664347838112e-05 0.24008126973657373 -1.6748204882256034e-06 -1.4725717199517786e-05 0.24008502514214711 -1.2591062468240578e-06 -0.14055958743473307 0.2400840637369864 -6.8017014050658728e-07 -0.16253063257340364 0.20494306029421686 -1.4842650071039446e-06 -1.0685664347838112e-05 0.19942208446555806 -2.6213096376644159e-06 -0.28816990938361198 0.20494439988416291 -1.9776462406516076e-06 -0.14055676835832884 0.16469636432987325 -3.1655999232574248e-06 -0.16558714434412944 0.16514342838211143 -1.0769770216161629e-06 -0.30110916973327739 0.19409598945314468 -1.1601494366887037e-06 -1.5123445538479359e-05 0.16658953689276801 -1.9773873165309936e-06 -1.2945635114213398e-05 0.20494306029421686 -1.4842650071039446e-06 -1.0685664347838112e-05 0.16514342838211143 -1.0769770216161627e-06 -0.30110916973327734 0.24008598228125116 -1.2078257820105875e-06 -0.30345982182710807 0.2400840637369864 -6.8017014050658728e-07 -0.16253063257340364 0.24008502514214711 -1.2591062468240578e-06 -0.14055958743473307 0.16514342838211143 -1.0769770216161627e-06 -0.30110916973327739 0.24008502514214711 -1.2591062468240578e-06 -0.14055958743473307 0.2400840637369864 -6.8017014050658728e-07 -0.16253063257340364 0.20494306029421688 -1.4842650071039448e-06 -1.0685664347857492e-05 0.16514342838211146 -1.0769770216161623e-06 -0.30110916973327728 0.24008502514214711 -1.2591062468240578e-06 -0.14055958743473307 0.20494439988416291 -1.977646240651608e-06 -0.14055676835832892 0.19942208446555804 -2.6213096376644159e-06 -0.28816990938361192 0.16514342838211146 -1.0769770216161635e-06 -0.3011091697332775 0.24008502514214711 -1.2591062468240578e-06 -0.14055958743473307 0.20494306029421686 -1.4842650071039446e-06 -1.0685664347842098e-05 0.20494439988416291 -1.9776462406516076e-06 -0.14055676835832884 0.16514342838211146 -1.0769770216161629e-06 -0.30110916973327734 0.16658953689276801 -1.9773873165309936e-06 -1.2945635114218708e-05 0.20494439988416291 -1.9776462406516076e-06 -0.14055676835832884 0.20494306029421686 -1.4842650071039446e-06 -1.0685664347838112e-05 0.16514342838211143 -1.0769770216161627e-06 -0.30110916973327739 0.20494439988416291 -1.9776462406516076e-06 -0.14055676835832884 0.19942208446555806 -2.6213096376644159e-06 -0.28816990938361198 0.240083302920686 -2.6706019791682449e-06 -0.19200198260045689 0.24008502514214711 -1.2591062468240578e-06 -0.14055958743473307 0.19942208446555806 -2.6213096376644159e-06 -0.28816990938361198 0.24008598228125116 -1.2078257820105875e-06 -0.30345982182710807 0.240083302920686 -2.6706019791682449e-06 -0.19200198260045689 0.24008502514214711 -1.2591062468240578e-06 -0.14055958743473307 0.20494306029421686 -1.4842650071039446e-06 -1.0685664347838112e-05 0.2400818919838433 -2.9264732868356371e-06 -1.4056217087988442e-05 0.20494439988416291 -1.9776462406516076e-06 -0.14055676835832884 0.19208084433354111 -2.7505894489132673e-06 -1.3087931723145477e-05 0.20494439988416291 -1.9776462406516076e-06 -0.14055676835832884 0.240083302920686 -2.6706019791682449e-06 -0.19200198260045689 0.2400818919838433 -2.9264732868356367e-06 -1.405621708797474e-05 0.24008502514214711 -1.2591062468240578e-06 -0.14055958743473307 0.2400818919838433 -2.9264732868356371e-06 -1.4056217087988442e-05 0.24008502514214711 -1.2591062468240578e-06 -0.14055958743473307 0.24008126973657373 -1.6748204882256032e-06 -1.4725717199506412e-05 0.20494306029421686 -1.4842650071039446e-06 -1.0685664347838112e-05 0.24008502514214711 -1.2591062468240578e-06 -0.14055958743473307 0.24008189198384333 -2.9264732868356371e-06 -1.4056217087977068e-05 0.20494439988416291 -1.9776462406516076e-06 -0.14055676835832884 0.20494306029421686 -1.4842650071039446e-06 -1.0685664347838112e-05 0.16469636432987325 -3.1655999232574248e-06 -0.16558714434412944 0.16658953689276801 -1.9773873165309936e-06 -1.2945635114218708e-05 0.20494439988416291 -1.977646240651608e-06 -0.14055676835832884 0.19208084433354111 -2.7505894489132673e-06 -1.3087931723145477e-05 0.20494306029421686 -1.4842650071039446e-06 -1.0685664347838112e-05 0.20494439988416291 -1.9776462406516076e-06 -0.14055676835832884 0.16658953689276801 -1.9773873165309936e-06 -1.2945635114224395e-05 0.19208084433354111 -2.7505894489132673e-06 -1.3087931723145477e-05 0.16469636432987325 -3.1655999232574248e-06 -0.16558714434412944 0.16514342838211149 -1.0769770216161623e-06 -0.30110916973327745 0.16658953689276798 -1.9773873165309932e-06 -1.2945635114196109e-05 0.12015758519849004 -1.9113620369287394e-06 -0.21679909319336829 0.16469636432987325 -3.1655999232574248e-06 -0.16558714434412944 0.20494439988416291 -1.9776462406516076e-06 -0.14055676835832884 0.16658953689276801 -1.9773873165309936e-06 -1.2945635114214225e-05 0.16514342838211141 -1.076977021616162e-06 -0.30110916973327745 0.16658953689276801 -1.9773873165309936e-06 -1.2945635114218708e-05 0.16469636432987325 -3.1655999232574248e-06 -0.16558714434412941 0.14406902915647876 -2.5888723596654991e-06 -1.4775207200339907e-05 0.19208084433354111 -2.7505894489132673e-06 -1.3087931723145477e-05 0.11859989435059003 -2.6067303710178945e-06 -0.12708257387599967 0.096049971238672455 -2.8137522891702817e-06 -1.7602472016741806e-05 0.12238160850343965 -1.5049868964948791e-06 -1.2742253516018285e-05 0.14406902915647876 -2.5888723596654991e-06 -1.4775207200339907e-05 0.12238160850343965 -1.5049868964948791e-06 -1.2742253516018285e-05 0.16658953689276801 -1.9773873165309936e-06 -1.2945635114218708e-05 0.16469636432987325 -3.1655999232574248e-06 -0.16558714434412944 0.14406902915647876 -2.5888723596654991e-06 -1.4775207200339907e-05 0.16469636432987325 -3.1655999232574248e-06 -0.16558714434412944 0.11859989435059003 -2.6067303710178945e-06 -0.12708257387599967 0.12238160850343965 -1.5049868964948791e-06 -1.2742253516018285e-05 0.14406902915647876 -2.5888723596654991e-06 -1.4775207200339907e-05 0.11451091280183749 -3.1913195675665831e-06 -0.304696275171986 0.16469636432987325 -3.1655999232574248e-06 -0.16558714434412947 0.11859989435059003 -2.6067303710178945e-06 -0.12708257387599967 0.12015758519849006 -1.911362036928739e-06 -0.21679909319336832 0.11859989435059003 -2.6067303710178945e-06 -0.12708257387599967 0.16469636432987325 -3.1655999232574248e-06 -0.16558714434412944 0.12238160850343965 -1.5049868964948791e-06 -1.2742253516018285e-05 0.12015758519849006 -1.911362036928739e-06 -0.21679909319336832 0.12238160850343965 -1.5049868964948791e-06 -1.2742253516018285e-05 0.16469636432987328 -3.1655999232574252e-06 -0.16558714434412941 0.16658953689276801 -1.9773873165309936e-06 -1.2945635114218708e-05 0.12015758519849006 -1.911362036928739e-06 -0.21679909319336835 0.14658244617552052 -1.0049779901756385e-06 -1.2085283452902114e-05 0.12238160850343965 -1.5049868964948791e-06 -1.2742253516018285e-05 0.16658953689276801 -1.9773873165309936e-06 -1.2945635114218708e-05 0.12015758519849006 -1.911362036928739e-06 -0.21679909319336832 0.14658244617552052 -1.0049779901756385e-06 -1.2085283452902114e-05 0.16514342838211141 -1.0769770216161625e-06 -0.30110916973327734 0.19409598945314468 -1.1601494366887037e-06 -1.5123445538479359e-05 0.18659289429958478 -2.8121715807010112e-07 -0.20903321789441145 0.14658244617552052 -1.0049779901756385e-06 -1.2085283452902114e-05 0.16658953689276801 -1.9773873165309936e-06 -1.2945635114218708e-05 0.16514342838211143 -1.0769770216161629e-06 -0.30110916973327739 0.12015758519849006 -1.911362036928739e-06 -0.21679909319336832 0.19409598945314468 -1.1601494366887037e-06 -1.5123445538479359e-05 0.14658244617552052 -1.0049779901756385e-06 -1.2085283452912733e-05 0.16658953689276801 -1.9773873165309936e-06 -1.2945635114218708e-05 0.16514342838211141 -1.0769770216161625e-06 -0.30110916973327734 0.14658244617552052 -1.0049779901756385e-06 -1.2085283452902114e-05 0.1100057114573967 -9.5683893961072007e-07 -1.0991951167439164e-05 0.12238160850343965 -1.5049868964948791e-06 -1.2742253516010911e-05 0.12015758519849006 -1.911362036928739e-06 -0.21679909319336832 0.1100057114573967 -9.5683893961072007e-07 -1.0991951167439164e-05 0.14658244617552052 -1.0049779901756385e-06 -1.2085283452902114e-05 0.12015835892197567 -1.8095190810047259e-07 -0.23963392001068209 0.12015758519849006 -1.911362036928739e-06 -0.21679909319336832 0.18659289429958478 -2.8121715807010112e-07 -0.20903321789441145 0.14658244617552052 -1.0049779901756385e-06 -1.2085283452910632e-05 0.12015835892197566 -1.8095190810047251e-07 -0.23963392001068207 0.16164308838303501 -6.545160081029251e-08 -1.1064188261852618e-05 0.16514342838211143 -1.0769770216161627e-06 -0.30110916973327739 0.12015835892197567 -1.8095190810047259e-07 -0.23963392001068209 0.14658244617552049 -1.0049779901756385e-06 -1.2085283452919884e-05 0.12015758519849007 -1.9113620369287386e-06 -0.21679909319336832 0.18659289429958478 -2.8121715807010112e-07 -0.20903321789441145 0.12015835892197567 -1.8095190810047259e-07 -0.23963392001068209 0.14658244617552052 -1.0049779901756385e-06 -1.208528345289341e-05 0.16514342838211143 -1.0769770216161627e-06 -0.30110916973327739 0.1247706680246647 2.2047374995816704e-07 -1.4050976129780153e-05 0.14658244617552052 -1.0049779901756385e-06 -1.2085283452900448e-05 0.16164308838303501 -6.545160081029251e-08 -1.1064188261854285e-05 0.12015835892197567 -1.8095190810047259e-07 -0.23963392001068209 0.1100057114573967 -9.5683893961072007e-07 -1.0991951167439164e-05 0.14658244617552052 -1.0049779901756385e-06 -1.2085283452902114e-05 0.1247706680246647 2.2047374995816704e-07 -1.4050976129780153e-05 0.12015835892197567 -1.8095190810047259e-07 -0.23963392001068209 0.14658244617552052 -1.0049779901756385e-06 -1.2085283452902114e-05 0.19409598945314468 -1.1601494366887037e-06 -1.5123445538479359e-05 0.16164308838303504 -6.5451600810292656e-08 -1.1064188261871186e-05 0.18659289429958478 -2.8121715807010112e-07 -0.20903321789441145 0.16514342838211143 -1.0769770216161627e-06 -0.30110916973327739 0.18019246994235763 1.009785886700449e-07 -0.47840846208164595 0.12006460490304105 7.6197489990551355e-09 -0.47996319588426772 0.12024199134127969 -1.4241527310358039e-06 -0.50767184565359713 0.18019246994235763 1.0097858867004497e-07 -0.47840846208164595 0.12024199134127968 -1.4241527310358041e-06 -0.50767184565359713 0.16514342838211143 -1.0769770216161627e-06 -0.30110916973327734 0.18722192433346374 -1.3347631036953122e-06 -0.48011820655181497 0.12006460490304104 7.6197489990551736e-09 -0.47996319588426767 0.18019246994235763 1.0097858867004497e-07 -0.47840846208164595 0.16514342838211143 -1.0769770216161618e-06 -0.30110916973327734 0.12015835892197566 -1.8095190810047235e-07 -0.23963392001068198 0.16514342838211143 -1.0769770216161627e-06 -0.30110916973327739 0.12015835892197567 -1.8095190810047264e-07 -0.23963392001068209 0.18019246994235763 1.0097858867004497e-07 -0.47840846208164595 0.18659289429958478 -2.8121715807010112e-07 -0.20903321789441145 0.12024199134127968 -1.4241527310358041e-06 -0.50767184565359713 0.12015835892197564 -1.8095190810047277e-07 -0.23963392001068209 0.16514342838211141 -1.0769770216161627e-06 -0.30110916973327739 0.12015758519849007 -1.9113620369287398e-06 -0.21679909319336832 0.12006460490304104 7.6197489990551736e-09 -0.47996319588426767 0.16514342838211141 -1.0769770216161627e-06 -0.30110916973327739 0.12024199134127968 -1.4241527310358041e-06 -0.50767184565359713 0.12015835892197566 -1.8095190810047267e-07 -0.23963392001068201 0.19942208446555806 -2.6213096376644159e-06 -0.28816990938361198 0.16514342838211143 -1.0769770216161627e-06 -0.30110916973327739 0.16052205634053937 -2.8831281678490385e-06 -0.36989319875589927 0.18722192433346371 -1.3347631036953122e-06 -0.48011820655181503 0.16469636432987325 -3.1655999232574248e-06 -0.16558714434412944 0.16052205634053937 -2.8831281678490385e-06 -0.36989319875589927 0.19942208446555806 -2.6213096376644159e-06 -0.28816990938361198 0.16514342838211143 -1.0769770216161627e-06 -0.30110916973327739 0.16052205634053937 -2.8831281678490385e-06 -0.36989319875589927 0.11451091280183749 -3.1913195675665831e-06 -0.304696275171986 0.12024199134127968 -1.4241527310358045e-06 -0.50767184565359702 0.12015758519849006 -1.9113620369287394e-06 -0.2167990931933684 0.16560904768065449 -2.2180921207360104e-06 -0.52009615846121515 0.16052205634053937 -2.8831281678490385e-06 -0.36989319875589927 0.12024199134127969 -1.4241527310358043e-06 -0.50767184565359713 0.18722192433346371 -1.3347631036953122e-06 -0.48011820655181497 0.16469636432987325 -3.1655999232574248e-06 -0.16558714434412944 0.16052205634053937 -2.8831281678490385e-06 -0.36989319875589927 0.16514342838211143 -1.0769770216161627e-06 -0.30110916973327734 0.12015758519849003 -1.9113620369287394e-06 -0.21679909319336829 0.16052205634053937 -2.8831281678490385e-06 -0.36989319875589927 0.12024199134127968 -1.4241527310358041e-06 -0.50767184565359713 0.16514342838211149 -1.0769770216161625e-06 -0.30110916973327739 0.12015758519849007 -1.9113620369287386e-06 -0.21679909319336838 0.16514342838211143 -1.0769770216161627e-06 -0.30110916973327739 0.12024199134127968 -1.4241527310358041e-06 -0.50767184565359702 0.16052205634053937 -2.8831281678490385e-06 -0.36989319875589927 0.18722192433346371 -1.3347631036953122e-06 -0.48011820655181503 0.16469636432987325 -3.1655999232574248e-06 -0.16558714434412944 0.11451091280183749 -3.1913195675665831e-06 -0.304696275171986 0.16052205634053937 -2.8831281678490385e-06 -0.36989319875589927 0.12015758519849008 -1.911362036928739e-06 -0.21679909319336835 0.12006338864591225 -2.7580753009100438e-06 -0.46113460850465182 0.16052205634053937 -2.8831281678490385e-06 -0.36989319875589927 0.11451091280183749 -3.1913195675665831e-06 -0.304696275171986 0.12024199134127968 -1.4241527310358041e-06 -0.50767184565359713 0.12006338864591225 -2.7580753009100438e-06 -0.46113460850465182 0.16560904768065449 -2.2180921207360104e-06 -0.52009615846121515 0.16052205634053937 -2.8831281678490385e-06 -0.36989319875589927 0.12024199134127968 -1.4241527310358041e-06 -0.50767184565359713 0.16052205634053937 -2.8831281678490385e-06 -0.36989319875589927 0.16560904768065449 -2.2180921207360104e-06 -0.52009615846121515 0.20057130025444553 -2.6176881809774924e-06 -0.47066939360389459 0.18722192433346371 -1.3347631036953122e-06 -0.48011820655181503 0.24008598228125116 -1.2078257820105875e-06 -0.30345982182710807 0.16514342838211143 -1.0769770216161627e-06 -0.30110916973327739 0.19942208446555806 -2.6213096376644159e-06 -0.28816990938361198 0.18722192433346371 -1.334763103695312e-06 -0.48011820655181503 0.24008598228125116 -1.2078257820105875e-06 -0.30345982182710807 0.24008502514214711 -1.2591062468240578e-06 -0.14055958743473307 0.19942208446555806 -2.6213096376644159e-06 -0.28816990938361198 0.16514342838211143 -1.0769770216161627e-06 -0.30110916973327739 0.20057130025444553 -2.6176881809774924e-06 -0.47066939360389459 0.19942208446555806 -2.6213096376644159e-06 -0.28816990938361198 0.16052205634053937 -2.8831281678490385e-06 -0.36989319875589927 0.18722192433346369 -1.334763103695312e-06 -0.48011820655181497 0.20057130025444553 -2.6176881809774924e-06 -0.47066939360389459 0.24008598228125116 -1.2078257820105871e-06 -0.30345982182710807 0.19942208446555806 -2.6213096376644159e-06 -0.28816990938361198 0.18722192433346374 -1.3347631036953124e-06 -0.48011820655181503 0.19942208446555806 -2.6213096376644159e-06 -0.28816990938361198 0.20057130025444553 -2.6176881809774915e-06 -0.47066939360389465 0.24008586443747371 -3.1402214074024256e-06 -0.38399197227441639 0.24008598228125116 -1.2078257820105875e-06 -0.30345982182710807 0.20057130025444553 -2.6176881809774924e-06 -0.47066939360389459 0.24008993157683903 -1.9164056058266685e-06 -0.48926943295012509 0.24009233369295821 -3.4865309257666896e-06 -0.57598420686943597 0.24008586443747373 -3.1402214074024252e-06 -0.38399197227441639 0.24008586443747373 -3.1402214074024252e-06 -0.38399197227441639 0.20057130025444553 -2.6176881809774924e-06 -0.47066939360389459 0.24008993157683903 -1.9164056058266685e-06 -0.48926943295012509 0.24008598228125116 -1.2078257820105875e-06 -0.30345982182710807 0.24008598228125116 -1.2078257820105875e-06 -0.30345982182710807 0.24008586443747373 -3.1402214074024248e-06 -0.38399197227441639 0.19942208446555806 -2.6213096376644159e-06 -0.28816990938361198 0.240083302920686 -2.6706019791682449e-06 -0.19200198260045689 0.24008940856673308 -1.1828128952422487e-06 -0.43978869020340233 0.24008598228125116 -1.2078257820105875e-06 -0.30345982182710807 0.24008993157683903 -1.9164056058266689e-06 -0.48926943295012509 0.18722192433346371 -1.3347631036953122e-06 -0.48011820655181503 0.20057130025444553 -2.6176881809774924e-06 -0.47066939360389459 0.24008993157683906 -1.9164056058266689e-06 -0.4892694329501252 0.24008598228125116 -1.2078257820105873e-06 -0.30345982182710807 0.18722192433346371 -1.334763103695312e-06 -0.48011820655181492 0.2400863005621445 -6.5771026079340117e-07 -0.31607866153058445 0.16514342838211141 -1.0769770216161627e-06 -0.30110916973327745 0.18019246994235763 1.0097858867004463e-07 -0.47840846208164589 0.18659289429958478 -2.8121715807010112e-07 -0.20903321789441145 0.2400863005621445 -6.5771026079340117e-07 -0.31607866153058445 0.24008598228125116 -1.2078257820105875e-06 -0.30345982182710807 0.24008940856673308 -1.1828128952422487e-06 -0.43978869020340233 0.16514342838211143 -1.0769770216161627e-06 -0.30110916973327739 0.24008940856673308 -1.1828128952422487e-06 -0.43978869020340233 0.18019246994235763 1.0097858867004513e-07 -0.47840846208164606 0.16514342838211141 -1.0769770216161625e-06 -0.30110916973327734 0.18722192433346369 -1.3347631036953118e-06 -0.48011820655181503 0.2400840637369864 -6.8017014050658728e-07 -0.16253063257340364 0.24008598228125114 -1.2078257820105875e-06 -0.30345982182710807 0.2400863005621445 -6.5771026079340117e-07 -0.31607866153058445 0.16514342838211143 -1.0769770216161627e-06 -0.30110916973327739 0.24008940856673308 -1.1828128952422487e-06 -0.43978869020340233 0.16514342838211143 -1.0769770216161627e-06 -0.30110916973327739 0.24008598228125116 -1.2078257820105875e-06 -0.30345982182710807 0.18722192433346374 -1.3347631036953124e-06 -0.48011820655181509 0.2400840637369864 -6.8017014050658728e-07 -0.16253063257340364 0.16514342838211143 -1.0769770216161627e-06 -0.30110916973327734 0.2400863005621445 -6.5771026079340117e-07 -0.31607866153058445 0.18659289429958478 -2.8121715807010075e-07 -0.2090332178944114 0.2400863005621445 -6.5771026079340117e-07 -0.31607866153058445 0.16514342838211143 -1.0769770216161627e-06 -0.30110916973327739 0.24008940856673308 -1.1828128952422487e-06 -0.43978869020340233 0.18019246994235766 1.009785886700444e-07 -0.47840846208164589 0.24008624868475001 4.3029377832146506e-07 -0.3114829538216784 0.24008315024088561 -2.3844344697842302e-07 -0.16537506904514732 0.2400863005621445 -6.5771026079340117e-07 -0.31607866153058445 0.18659289429958478 -2.8121715807010112e-07 -0.20903321789441145 0.2400863005621445 -6.5771026079340117e-07 -0.31607866153058445 0.24008940856673308 -1.1828128952422487e-06 -0.43978869020340233 0.2400892560810618 1.0461628744739408e-07 -0.49881785104319554 0.18019246994235769 1.0097858867004509e-07 -0.478408462081646 0.24009466015517264 -9.5750232772803436e-07 -0.57552759324106773 0.18019246994235763 1.0097858867004497e-07 -0.47840846208164595 0.16506998712245108 -1.0335424545636085e-06 -0.65988945202609717 0.18734497093201635 -1.2365326755189675e-07 -0.7489451812357194 0.24009466015517264 -9.5750232772803436e-07 -0.57552759324106773 0.24010186454578067 -8.7989843863951854e-07 -0.69813301335078504 0.16506998712245108 -1.0335424545636087e-06 -0.65988945202609717 0.19594196358967919 -1.4937768012132321e-06 -0.78331828404785453 0.24009466015517264 -9.5750232772803436e-07 -0.57552759324106773 0.24009667847424349 2.8309195797906408e-07 -0.64625836212377907 0.2400892560810618 1.0461628744739408e-07 -0.49881785104319554 0.18019246994235763 1.0097858867004497e-07 -0.47840846208164595 0.24009466015517264 -9.5750232772803436e-07 -0.57552759324106773 0.18019246994235763 1.0097858867004497e-07 -0.47840846208164595 0.24008940856673308 -1.1828128952422487e-06 -0.43978869020340233 0.18722192433346369 -1.334763103695312e-06 -0.48011820655181497 0.16506998712245108 -1.0335424545636085e-06 -0.65988945202609717 0.18722192433346369 -1.334763103695312e-06 -0.48011820655181503 0.24009466015517264 -9.5750232772803436e-07 -0.57552759324106773 0.19594196358967919 -1.4937768012132321e-06 -0.78331828404785464 0.24009466015517264 -9.5750232772803436e-07 -0.57552759324106773 0.16506998712245108 -1.0335424545636085e-06 -0.65988945202609717 0.18019246994235763 1.0097858867004481e-07 -0.478408462081646 0.18722192433346369 -1.334763103695312e-06 -0.48011820655181497 0.24009667847424349 2.8309195797906408e-07 -0.64625836212377907 0.1801924699423576 1.0097858867004488e-07 -0.47840846208164595 0.24009466015517264 -9.5750232772803436e-07 -0.57552759324106773 0.18734497093201632 -1.2365326755189675e-07 -0.7489451812357194 0.24010186454578067 -8.7989843863951854e-07 -0.69813301335078504 0.24009466015517264 -9.5750232772803436e-07 -0.57552759324106773 0.16506998712245105 -1.0335424545636091e-06 -0.65988945202609717 0.18734497093201632 -1.2365326755189582e-07 -0.74894518123571929 0.24009466015517264 -9.5750232772803436e-07 -0.57552759324106773 0.2400892560810618 1.0461628744739408e-07 -0.49881785104319554 0.24008940856673308 -1.1828128952422487e-06 -0.43978869020340233 0.18019246994235763 1.0097858867004497e-07 -0.47840846208164595 0.24010186454578067 -8.7989843863951854e-07 -0.69813301335078504 0.24009667847424351 2.8309195797906403e-07 -0.64625836212377907 0.24009466015517264 -9.5750232772803436e-07 -0.57552759324106773 0.18734497093201635 -1.2365326755189675e-07 -0.7489451812357194 0.24009466015517264 -9.5750232772803436e-07 -0.57552759324106773 0.24009972282262754 -1.5508488646356265e-06 -0.67741178324472751 0.24010186454578067 -8.7989843863951854e-07 -0.69813301335078504 0.19594196358967919 -1.4937768012132321e-06 -0.78331828404785464 0.24009466015517264 -9.5750232772803436e-07 -0.57552759324106773 0.24008940856673308 -1.1828128952422487e-06 -0.43978869020340233 0.24008993157683903 -1.9164056058266689e-06 -0.48926943295012509 0.18722192433346371 -1.3347631036953122e-06 -0.48011820655181503 0.24008993157683903 -1.9164056058266689e-06 -0.48926943295012509 0.19562327504824656 -2.8278906772006227e-06 -0.66155303408807653 0.24009972282262754 -1.5508488646356265e-06 -0.67741178324472751 0.18722192433346369 -1.3347631036953118e-06 -0.48011820655181503 0.19562327504824656 -2.8278906772006227e-06 -0.66155303408807653 0.18722192433346369 -1.3347631036953124e-06 -0.48011820655181497 0.16506998712245108 -1.0335424545636083e-06 -0.65988945202609706 0.19594196358967919 -1.4937768012132321e-06 -0.78331828404785464 0.19562327504824656 -2.8278906772006227e-06 -0.66155303408807653 0.24009972282262754 -1.5508488646356265e-06 -0.67741178324472762 0.18722192433346371 -1.3347631036953124e-06 -0.48011820655181503 0.19594196358967919 -1.4937768012132321e-06 -0.78331828404785464 0.24009972282262754 -1.5508488646356265e-06 -0.67741178324472751 0.24009466015517264 -9.5750232772803436e-07 -0.57552759324106773 0.18722192433346371 -1.3347631036953122e-06 -0.48011820655181503 0.19594196358967919 -1.4937768012132321e-06 -0.78331828404785464 0.24008993157683903 -1.9164056058266689e-06 -0.48926943295012509 0.24009972282262754 -1.5508488646356265e-06 -0.67741178324472751 0.24009466015517264 -9.5750232772803436e-07 -0.57552759324106773 0.18722192433346371 -1.3347631036953122e-06 -0.48011820655181503 0.24009972282262754 -1.5508488646356265e-06 -0.67741178324472751 0.19562327504824656 -2.8278906772006227e-06 -0.66155303408807653 0.24009233369295821 -3.4865309257666896e-06 -0.57598420686943597 0.24010419750857653 -2.8474038522501835e-06 -0.76797868622156151 0.19562327504824656 -2.8278906772006227e-06 -0.66155303408807653 0.24009233369295821 -3.4865309257666896e-06 -0.57598420686943597 0.24008993157683903 -1.9164056058266689e-06 -0.48926943295012509 0.24009972282262754 -1.5508488646356265e-06 -0.67741178324472751 0.24008993157683903 -1.9164056058266689e-06 -0.48926943295012509 0.24009233369295824 -3.4865309257666896e-06 -0.57598420686943597 0.19562327504824656 -2.8278906772006227e-06 -0.66155303408807653 0.2005713002544455 -2.617688180977492e-06 -0.47066939360389448 0.19562327504824656 -2.8278906772006227e-06 -0.66155303408807653 0.20057130025444553 -2.6176881809774924e-06 -0.47066939360389459 0.16560904768065449 -2.2180921207360104e-06 -0.52009615846121515 0.18722192433346371 -1.3347631036953122e-06 -0.48011820655181503 0.19562327504824656 -2.8278906772006227e-06 -0.66155303408807653 0.24008993157683903 -1.9164056058266689e-06 -0.48926943295012509 0.20057130025444553 -2.6176881809774924e-06 -0.47066939360389459 0.18722192433346371 -1.3347631036953122e-06 -0.48011820655181503 0.16560904768065449 -2.2180921207360104e-06 -0.52009615846121515 0.14412831669131027 -3.197837494162352e-06 -0.64845095661436625 0.16506998712245108 -1.0335424545636085e-06 -0.65988945202609717 0.12024199134127969 -1.4241527310358041e-06 -0.50767184565359713 0.14412831669131027 -3.197837494162352e-06 -0.64845095661436625 0.19562327504824656 -2.8278906772006227e-06 -0.66155303408807653 0.16560904768065449 -2.2180921207360104e-06 -0.52009615846121515 0.16506998712245108 -1.0335424545636085e-06 -0.65988945202609717 0.19562327504824656 -2.8278906772006227e-06 -0.66155303408807653 0.16560904768065449 -2.2180921207360104e-06 -0.52009615846121515 0.16506998712245111 -1.0335424545636083e-06 -0.65988945202609717 0.18722192433346371 -1.334763103695312e-06 -0.48011820655181503 0.1667712571986282 -2.6069419869685314e-06 -0.80730867000966244 0.16506998712245108 -1.0335424545636085e-06 -0.65988945202609706 0.14412831669131027 -3.197837494162352e-06 -0.64845095661436636 0.12027841551673113 -1.8631018964062494e-06 -0.7495490215874987 0.16506998712245108 -1.0335424545636085e-06 -0.65988945202609717 0.16560904768065449 -2.2180921207360104e-06 -0.52009615846121526 0.12024199134127965 -1.4241527310358039e-06 -0.50767184565359702 0.18722192433346371 -1.3347631036953122e-06 -0.48011820655181503 0.16506998712245108 -1.0335424545636085e-06 -0.65988945202609717 0.12024199134127966 -1.4241527310358037e-06 -0.50767184565359713 0.14412831669131027 -3.197837494162352e-06 -0.64845095661436625 0.12027841551673113 -1.8631018964062494e-06 -0.7495490215874987 0.14412831669131027 -3.197837494162352e-06 -0.64845095661436625 0.19562327504824656 -2.8278906772006227e-06 -0.66155303408807653 0.16506998712245108 -1.0335424545636085e-06 -0.65988945202609717 0.19594196358967919 -1.4937768012132321e-06 -0.78331828404785464 0.16560904768065449 -2.2180921207360104e-06 -0.52009615846121515 0.12006338864591225 -2.7580753009100438e-06 -0.46113460850465182 0.14412831669131027 -3.197837494162352e-06 -0.64845095661436625 0.12024199134127968 -1.4241527310358047e-06 -0.50767184565359713 0.12006460490304104 7.6197489990551736e-09 -0.47996319588426767 0.16506998712245108 -1.0335424545636085e-06 -0.65988945202609706 0.11963159519734094 1.6108146863411895e-07 -0.72037682530220171 0.12024199134127968 -1.4241527310358041e-06 -0.50767184565359713 0.16506998712245108 -1.0335424545636085e-06 -0.65988945202609717 0.12006460490304104 7.6197489990550313e-09 -0.47996319588426767 0.1801924699423576 1.0097858867004487e-07 -0.47840846208164589 0.12024199134127965 -1.4241527310358043e-06 -0.50767184565359691 0.16506998712245108 -1.0335424545636085e-06 -0.65988945202609717 0.18019246994235763 1.0097858867004529e-07 -0.47840846208164595 0.12006460490304104 7.6197489990551736e-09 -0.47996319588426767 0.11963159519734098 1.6108146863411887e-07 -0.72037682530220171 0.18019246994235763 1.0097858867004497e-07 -0.47840846208164595 0.11963159519734097 1.6108146863411858e-07 -0.7203768253022016 0.16506998712245108 -1.0335424545636085e-06 -0.65988945202609717 0.18734497093201635 -1.2365326755189675e-07 -0.7489451812357194 0.11963159519734096 1.6108146863411882e-07 -0.7203768253022016 0.12024199134127968 -1.4241527310358041e-06 -0.50767184565359713 0.16506998712245108 -1.0335424545636085e-06 -0.65988945202609717 0.12027841551673113 -1.8631018964062494e-06 -0.7495490215874987 0.16506998712245108 -1.0335424545636085e-06 -0.65988945202609717 0.12024199134127966 -1.4241527310358039e-06 -0.50767184565359713 0.18019246994235766 1.0097858867004494e-07 -0.47840846208164595 0.18722192433346371 -1.3347631036953122e-06 -0.48011820655181503 0.11003403439431582 -8.3906931545362935e-07 -0.95990841378067904 0.11963159519734096 1.6108146863411882e-07 -0.7203768253022016 0.14398831121813688 -9.6034581837788905e-07 -0.95992632229037844 0.12027841551673113 -1.8631018964062494e-06 -0.7495490215874987 0.14398831121813688 -9.6034581837788905e-07 -0.95992632229037844 0.16506998712245108 -1.0335424545636081e-06 -0.65988945202609717 0.17465133897930862 -6.0604442719380888e-07 -0.9599418955973793 0.19594196358967919 -1.4937768012132321e-06 -0.78331828404785464 0.14398831121813688 -9.6034581837788905e-07 -0.95992632229037844 0.16506998712245108 -1.0335424545636085e-06 -0.65988945202609717 0.11963159519734097 1.6108146863411834e-07 -0.72037682530220148 0.18734497093201635 -1.2365326755189675e-07 -0.7489451812357194 0.14398831121813688 -9.6034581837788905e-07 -0.95992632229037844 0.12027841551673113 -1.8631018964062494e-06 -0.7495490215874987 0.16506998712245108 -1.0335424545636089e-06 -0.65988945202609717 0.19594196358967919 -1.4937768012132321e-06 -0.78331828404785464 0.14398831121813688 -9.6034581837788905e-07 -0.95992632229037844 0.11963159519734098 1.6108146863411879e-07 -0.7203768253022016 0.16506998712245108 -1.0335424545636081e-06 -0.65988945202609717 0.12027841551673112 -1.8631018964062494e-06 -0.7495490215874987 0.14398831121813688 -9.6034581837788905e-07 -0.95992632229037844 0.17465133897930862 -6.0604442719380898e-07 -0.9599418955973793 0.16506998712245108 -1.0335424545636085e-06 -0.65988945202609717 0.18734497093201635 -1.2365326755189675e-07 -0.7489451812357194 0.14398831121813688 -9.6034581837788905e-07 -0.95992632229037844 0.11963159519734098 1.6108146863411879e-07 -0.7203768253022016 0.16167939682741322 1.6121492532249149e-07 -0.9599344308891975 0.18734497093201635 -1.2365326755189675e-07 -0.7489451812357194 0.16947016346656835 -2.140930970614691e-06 -0.95993871544540488 0.14398831121813688 -9.6034581837788905e-07 -0.95992632229037844 0.17465133897930862 -6.0604442719380888e-07 -0.9599418955973793 0.19594196358967922 -1.4937768012132321e-06 -0.78331828404785464 0.14398831121813688 -9.6034581837788905e-07 -0.95992632229037844 0.16167939682741325 1.6121492532249143e-07 -0.95993443088919761 0.17465133897930862 -6.0604442719380888e-07 -0.9599418955973793 0.18734497093201635 -1.2365326755189675e-07 -0.7489451812357194 0.11003403439431582 -8.3906931545362935e-07 -0.95990841378067904 0.12480225041196047 6.6876105257150818e-08 -0.95991623901399847 0.14398831121813688 -9.6034581837788905e-07 -0.95992632229037844 0.11963159519734096 1.6108146863411882e-07 -0.7203768253022016 0.16167939682741325 1.6121492532249143e-07 -0.95993443088919761 0.14398831121813685 -9.6034581837788884e-07 -0.95992632229037844 0.12480225041196047 6.6876105257150805e-08 -0.95991623901399847 0.11963159519734096 1.6108146863411882e-07 -0.7203768253022016 0.14398831121813688 -9.6034581837788905e-07 -0.95992632229037844 0.12241276380157108 -1.8944943973775797e-06 -0.95991509313937362 0.11003403439431582 -8.3906931545362935e-07 -0.95990841378067904 0.12027841551673113 -1.8631018964062494e-06 -0.7495490215874987 0.12241276380157108 -1.8944943973775799e-06 -0.95991509313937362 0.16947016346656835 -2.140930970614691e-06 -0.95993871544540488 0.1667712571986282 -2.6069419869685314e-06 -0.80730867000966244 0.12027841551673112 -1.8631018964062492e-06 -0.74954902158749859 0.16506998712245108 -1.0335424545636085e-06 -0.65988945202609717 0.12027841551673113 -1.8631018964062494e-06 -0.7495490215874987 0.1667712571986282 -2.6069419869685314e-06 -0.80730867000966244 0.19594196358967919 -1.4937768012132321e-06 -0.78331828404785464 0.16947016346656835 -2.140930970614691e-06 -0.95993871544540488 0.1667712571986282 -2.6069419869685318e-06 -0.80730867000966244 0.12027841551673114 -1.8631018964062494e-06 -0.7495490215874987 0.19594196358967919 -1.4937768012132319e-06 -0.78331828404785464 0.16947016346656835 -2.140930970614691e-06 -0.95993871544540488 0.12027841551673113 -1.8631018964062494e-06 -0.7495490215874987 0.14398831121813688 -9.6034581837788905e-07 -0.95992632229037844 0.19594196358967919 -1.4937768012132319e-06 -0.78331828404785464 0.16947016346656835 -2.140930970614691e-06 -0.95993871544540488 0.12241276380157108 -1.8944943973775799e-06 -0.95991509313937362 0.14398831121813688 -9.6034581837788905e-07 -0.95992632229037844 0.12027841551673114 -1.8631018964062494e-06 -0.74954902158749892 0.14412831669131027 -3.197837494162352e-06 -0.64845095661436625 0.16506998712245108 -1.0335424545636068e-06 -0.65988945202609739 0.1667712571986282 -2.6069419869685314e-06 -0.80730867000966244 0.19594196358967919 -1.4937768012132321e-06 -0.78331828404785464 0.1667712571986282 -2.6069419869685314e-06 -0.80730867000966244 0.14412831669131027 -3.197837494162352e-06 -0.64845095661436625 0.1196839973475676 -2.856714634416836e-06 -0.79455935799695221 0.12027841551673113 -1.8631018964062494e-06 -0.7495490215874987 0.1667712571986282 -2.6069419869685314e-06 -0.80730867000966244 0.1196839973475676 -2.856714634416836e-06 -0.79455935799695221 0.12241276380157107 -1.8944943973775799e-06 -0.95991509313937362 0.12027841551673113 -1.8631018964062494e-06 -0.7495490215874987 0.14410392193971908 -3.1222703222537307e-06 -0.95992559593440385 0.1196839973475676 -2.856714634416836e-06 -0.79455935799695221 0.12241276380157108 -1.8944943973775799e-06 -0.95991509313937362 0.1667712571986282 -2.6069419869685314e-06 -0.80730867000966244 0.12241276380157108 -1.8944943973775799e-06 -0.95991509313937362 0.096076548540990597 -3.3420571322644395e-06 -0.95990213971501981 0.1196839973475676 -2.8567146344168364e-06 -0.79455935799695221 0.14410392193971908 -3.1222703222537307e-06 -0.95992559593440385 0.12241276380157108 -1.8944943973775799e-06 -0.95991509313937362 0.16947016346656835 -2.140930970614691e-06 -0.95993871544540488 0.14410392193971908 -3.1222703222537303e-06 -0.95992559593440374 0.1667712571986282 -2.6069419869685314e-06 -0.80730867000966244 0.16947016346656835 -2.140930970614691e-06 -0.95993871544540488 0.14410392193971908 -3.1222703222537307e-06 -0.95992559593440385 0.1667712571986282 -2.6069419869685314e-06 -0.80730867000966244 0.19212034858748309 -2.5357823504045566e-06 -0.95995336174122026 0.14412831669131027 -3.197837494162352e-06 -0.64845095661436625 0.16677125719862823 -2.6069419869685314e-06 -0.80730867000966244 0.19562327504824656 -2.8278906772006227e-06 -0.66155303408807653 0.19594196358967919 -1.4937768012132321e-06 -0.78331828404785464 0.16947016346656835 -2.140930970614691e-06 -0.95993871544540488 0.20498305894836941 -1.9284130912346343e-06 -0.95995900640373155 0.1667712571986282 -2.606941986968531e-06 -0.80730867000966233 0.19594196358967922 -1.4937768012132321e-06 -0.78331828404785464 0.20498305894836941 -1.9284130912346343e-06 -0.95995900640373155 0.16947016346656835 -2.140930970614691e-06 -0.95993871544540488 0.20453732161067459 -1.2927567535719779e-06 -0.95995833931685115 0.19594196358967919 -1.4937768012132321e-06 -0.78331828404785464 0.24009972282262754 -1.5508488646356265e-06 -0.67741178324472751 0.19562327504824659 -2.8278906772006227e-06 -0.66155303408807664 0.20496849702520115 -2.0992264346757092e-06 -0.81941161433729892 0.19594196358967916 -1.4937768012132321e-06 -0.78331828404785464 0.1667712571986282 -2.6069419869685314e-06 -0.80730867000966244 0.20496849702520117 -2.0992264346757092e-06 -0.81941161433729892 0.19562327504824656 -2.8278906772006227e-06 -0.66155303408807653 0.19594196358967919 -1.4937768012132321e-06 -0.78331828404785464 0.20496849702520117 -2.0992264346757092e-06 -0.81941161433729892 0.1667712571986282 -2.6069419869685314e-06 -0.80730867000966244 0.20498305894836941 -1.9284130912346343e-06 -0.95995900640373155 0.19594196358967919 -1.4937768012132321e-06 -0.78331828404785464 0.19212034858748309 -2.5357823504045566e-06 -0.95995336174122026 0.16677125719862818 -2.6069419869685314e-06 -0.80730867000966233 0.16947016346656835 -2.140930970614691e-06 -0.95993871544540488 0.20498305894836941 -1.9284130912346343e-06 -0.95995900640373155 0.19212034858748309 -2.5357823504045566e-06 -0.95995336174122026 0.2049684970252012 -2.0992264346757092e-06 -0.81941161433729903 0.1667712571986282 -2.6069419869685314e-06 -0.80730867000966244 0.20498305894836941 -1.9284130912346343e-06 -0.95995900640373155 0.24012384995220021 -2.8755118591868446e-06 -0.95997694918880438 0.24010995663691875 -1.6099602159004886e-06 -0.81942414221370508 0.20496849702520115 -2.0992264346757092e-06 -0.81941161433729892 0.20498305894836941 -1.9284130912346343e-06 -0.95995900640373155 0.19212034858748309 -2.5357823504045566e-06 -0.95995336174122026 0.24012384995220021 -2.8755118591868446e-06 -0.95997694918880438 0.20496849702520117 -2.0992264346757092e-06 -0.81941161433729892 0.20498305894836941 -1.9284130912346343e-06 -0.95995900640373155 0.20498305894836941 -1.9284130912346343e-06 -0.95995900640373155 0.24012384995220021 -2.8755118591868446e-06 -0.95997694918880438 0.24010995663691875 -1.6099602159004886e-06 -0.81942414221370508 0.2401236601581834 -1.4986548313754712e-06 -0.95997474010801109 0.20496849702520117 -2.0992264346757092e-06 -0.81941161433729892 0.24010995663691875 -1.6099602159004886e-06 -0.81942414221370508 0.24012384995220021 -2.8755118591868446e-06 -0.95997694918880438 0.24010419750857653 -2.8474038522501835e-06 -0.76797868622156151 0.20496849702520117 -2.0992264346757092e-06 -0.81941161433729892 0.19562327504824656 -2.8278906772006227e-06 -0.66155303408807653 0.24009972282262754 -1.5508488646356269e-06 -0.67741178324472762 0.24010419750857653 -2.8474038522501835e-06 -0.76797868622156151 0.24009972282262754 -1.5508488646356265e-06 -0.67741178324472751 0.24010995663691875 -1.6099602159004884e-06 -0.81942414221370508 0.20496849702520117 -2.0992264346757092e-06 -0.81941161433729892 0.24010419750857653 -2.8474038522501835e-06 -0.76797868622156151 0.24010995663691875 -1.6099602159004886e-06 -0.81942414221370508 0.24010996518052063 -9.5246682538199643e-07 -0.81764458261712913 0.24009972282262754 -1.5508488646356265e-06 -0.67741178324472751 0.19594196358967919 -1.4937768012132321e-06 -0.78331828404785464 0.24009972282262754 -1.5508488646356265e-06 -0.67741178324472751 0.20496849702520117 -2.0992264346757092e-06 -0.81941161433729892 0.24010995663691875 -1.6099602159004886e-06 -0.81942414221370508 0.19594196358967919 -1.4937768012132321e-06 -0.78331828404785464 0.20498305894836941 -1.9284130912346343e-06 -0.95995900640373155 0.20453732161067459 -1.2927567535719777e-06 -0.95995833931685104 0.2401236601581834 -1.4986548313754712e-06 -0.95997474010801109 0.19594196358967919 -1.4937768012132321e-06 -0.78331828404785464 0.24010995663691875 -1.6099602159004886e-06 -0.81942414221370508 0.20498305894836938 -1.9284130912346338e-06 -0.95995900640373155 0.2401236601581834 -1.4986548313754712e-06 -0.95997474010801109 0.19594196358967919 -1.4937768012132321e-06 -0.78331828404785464 0.24010995663691875 -1.6099602159004886e-06 -0.81942414221370508 0.2401236601581834 -1.4986548313754712e-06 -0.95997474010801109 0.24010996518052063 -9.5246682538199643e-07 -0.81764458261712913 0.19594196358967919 -1.4937768012132321e-06 -0.78331828404785464 0.20496849702520117 -2.0992264346757092e-06 -0.81941161433729892 0.20498305894836941 -1.9284130912346343e-06 -0.95995900640373155 0.24010995663691875 -1.6099602159004886e-06 -0.81942414221370508 0.19594196358967922 -1.4937768012132325e-06 -0.78331828404785475 0.2401236601581834 -1.4986548313754712e-06 -0.95997474010801109 0.24010996518052066 -9.5246682538199643e-07 -0.81764458261712925 0.20453732161067459 -1.2927567535719781e-06 -0.95995833931685115 0.24012289461338296 -3.692030361841618e-07 -0.95997517080631922 0.2401236601581834 -1.4986548313754712e-06 -0.95997474010801109 0.20453732161067459 -1.2927567535719777e-06 -0.95995833931685115 0.24010996518052063 -9.5246682538199643e-07 -0.81764458261712913 0.19594196358967916 -1.4937768012132323e-06 -0.78331828404785453 0.24010996518052063 -9.5246682538199643e-07 -0.81764458261712913 0.20453732161067459 -1.2927567535719777e-06 -0.95995833931685115 0.18734497093201635 -1.2365326755189675e-07 -0.7489451812357194 0.19594196358967925 -1.4937768012132321e-06 -0.78331828404785475 0.16506998712245108 -1.0335424545636085e-06 -0.65988945202609717 0.18734497093201635 -1.236532675518968e-07 -0.7489451812357194 0.17465133897930862 -6.060444271938092e-07 -0.95994189559737941 0.19594196358967919 -1.4937768012132321e-06 -0.78331828404785464 0.24010186454578067 -8.7989843863951854e-07 -0.69813301335078504 0.24010996518052063 -9.5246682538199643e-07 -0.81764458261712913 0.18734497093201635 -1.2365326755189664e-07 -0.7489451812357194 0.19594196358967916 -1.4937768012132323e-06 -0.78331828404785453 0.20453732161067459 -1.2927567535719779e-06 -0.95995833931685115 0.17465133897930862 -6.0604442719380888e-07 -0.9599418955973793 0.18734497093201635 -1.2365326755189675e-07 -0.7489451812357194 0.19594196358967916 -1.4937768012132319e-06 -0.78331828404785453 0.24010186454578067 -8.7989843863951854e-07 -0.69813301335078504 0.18734497093201635 -1.2365326755189672e-07 -0.7489451812357194 0.16506998712245111 -1.0335424545636087e-06 -0.65988945202609717 0.19594196358967916 -1.4937768012132323e-06 -0.78331828404785464 0.20453732161067459 -1.2927567535719779e-06 -0.95995833931685115 0.24010996518052063 -9.5246682538199632e-07 -0.81764458261712925 0.24010837359558485 -6.7371325903336514e-08 -0.80822062532992578 0.24012289461338296 -3.692030361841618e-07 -0.95997517080631922 0.17465133897930862 -6.0604442719380888e-07 -0.9599418955973793 0.20453732161067456 -1.2927567535719779e-06 -0.95995833931685126 0.16947016346656835 -2.140930970614691e-06 -0.95993871544540488 0.19594196358967919 -1.4937768012132321e-06 -0.78331828404785464 0.24009972282262754 -1.5508488646356265e-06 -0.67741178324472751 0.24010996518052063 -9.5246682538199643e-07 -0.81764458261712913 0.24010186454578067 -8.7989843863951854e-07 -0.69813301335078504 0.19594196358967919 -1.4937768012132321e-06 -0.78331828404785464 0.20453732161067459 -1.2927567535719779e-06 -0.95995833931685115 0.24010837359558482 -6.7371325903336514e-08 -0.80822062532992589 0.24010996518052063 -9.5246682538199643e-07 -0.81764458261712913 0.18734497093201635 -1.2365326755189675e-07 -0.7489451812357194 0.24010996518052063 -9.5246682538199643e-07 -0.81764458261712913 0.24010837359558485 -6.7371325903336725e-08 -0.80822062532992578 0.24010186454578067 -8.7989843863951854e-07 -0.69813301335078504 0.18734497093201635 -1.2365326755189675e-07 -0.7489451812357194 0.24010186454578067 -8.7989843863951854e-07 -0.69813301335078504 0.24010837359558485 -6.7371325903336567e-08 -0.80822062532992578 0.24009667847424349 2.8309195797906408e-07 -0.64625836212377907 0.18734497093201635 -1.2365326755189675e-07 -0.7489451812357194 0.17465133897930862 -6.0604442719380888e-07 -0.9599418955973793 0.16167939682741325 1.6121492532249141e-07 -0.95993443088919761 0.20218124223994888 -7.8186959084960866e-08 -0.95995789039873025 0.18734497093201635 -1.2365326755189675e-07 -0.7489451812357194 0.20218124223994888 -7.818695908496088e-08 -0.95995789039873036 0.20453732161067459 -1.2927567535719779e-06 -0.95995833931685115 0.17465133897930862 -6.0604442719380888e-07 -0.9599418955973793 0.18734497093201635 -1.2365326755189675e-07 -0.7489451812357194 0.20218124223994888 -7.818695908496088e-08 -0.95995789039873036 0.24010837359558485 -6.7371325903336514e-08 -0.80822062532992578 0.20453732161067459 -1.2927567535719779e-06 -0.95995833931685115 0.18734497093201635 -1.2365326755189675e-07 -0.7489451812357194 0.24012289461338296 -3.692030361841618e-07 -0.95997517080631922 0.24010837359558485 -6.7371325903336514e-08 -0.80822062532992578 0.20218124223994888 -7.818695908496088e-08 -0.95995789039873036 0.2401232661934776 5.2144767388008526e-07 -0.95997493352022278 0.24010837359558485 -6.7371325903336514e-08 -0.80822062532992578 0.20218124223994891 -7.8186959084960641e-08 -0.95995789039873036 0.20453732161067462 -1.2927567535719781e-06 -0.95995833931685115 0.24012289461338296 -3.692030361841618e-07 -0.95997517080631922 0.19413350717724551 1.0804358385396325e-06 -0.95995177856561553 0.18734497093201641 -1.2365326755189635e-07 -0.7489451812357194 0.16484560152618602 7.5264916385241376e-07 -0.65899058755948814 0.18654030018108328 1.7495411140828422e-06 -0.78394045029662118 0.19413350717724551 1.0804358385396325e-06 -0.95995177856561553 0.2401062475901605 1.0869592766351341e-06 -0.7760410290523484 0.18734497093201635 -1.2365326755189675e-07 -0.7489451812357194 0.18654030018108328 1.7495411140828422e-06 -0.78394045029662118 0.2401232661934776 5.2144767388008526e-07 -0.95997493352022278 0.24010837359558485 -6.7371325903336514e-08 -0.80822062532992578 0.20218124223994888 -7.818695908496088e-08 -0.95995789039873036 0.2401062475901605 1.0869592766351339e-06 -0.7760410290523484 0.16484560152618605 7.5264916385241366e-07 -0.65899058755948803 0.18734497093201635 -1.2365326755189664e-07 -0.74894518123571951 0.2401062475901605 1.0869592766351341e-06 -0.77604102905234851 0.18654030018108328 1.7495411140828424e-06 -0.78394045029662118 0.20218124223994888 -7.818695908496088e-08 -0.95995789039873036 0.2401232661934776 5.2144767388008526e-07 -0.9599749335202229 0.2401062475901605 1.0869592766351339e-06 -0.7760410290523484 0.19413350717724551 1.0804358385396325e-06 -0.95995177856561553 0.2401232661934776 5.2144767388008526e-07 -0.95997493352022278 0.2401062475901605 1.0869592766351339e-06 -0.7760410290523484 0.19413350717724551 1.0804358385396325e-06 -0.95995177856561553 0.24012340443212773 1.5308232056194918e-06 -0.95997505006369332 0.20218124223994888 -7.818695908496088e-08 -0.95995789039873036 0.16167939682741325 1.6121492532249143e-07 -0.95993443088919761 0.19413350717724551 1.0804358385396325e-06 -0.95995177856561553 0.18734497093201635 -1.2365326755189675e-07 -0.7489451812357194 0.20218124223994888 -7.818695908496088e-08 -0.95995789039873036 0.19413350717724551 1.0804358385396325e-06 -0.95995177856561553 0.2401062475901605 1.0869592766351339e-06 -0.7760410290523484 0.18734497093201635 -1.2365326755189675e-07 -0.7489451812357194 0.2401062475901605 1.0869592766351339e-06 -0.7760410290523484 0.24009667847424346 2.8309195797906403e-07 -0.64625836212377896 0.24010837359558485 -6.7371325903336514e-08 -0.80822062532992578 0.18734497093201635 -1.2365326755189675e-07 -0.7489451812357194 0.2401062475901605 1.0869592766351339e-06 -0.7760410290523484 0.24010837359558485 -6.7371325903336514e-08 -0.80822062532992578 0.20218124223994888 -7.8186959084960827e-08 -0.95995789039873036 0.18734497093201635 -1.2365326755189675e-07 -0.7489451812357194 0.24009426853929455 1.2250570137726323e-06 -0.5857432407757257 0.18734497093201635 -1.2365326755189717e-07 -0.74894518123571929 0.18019246994235763 1.0097858867004504e-07 -0.47840846208164595 0.24009667847424349 2.8309195797906408e-07 -0.64625836212377907 0.24009426853929455 1.2250570137726323e-06 -0.5857432407757257 0.18019246994235763 1.0097858867004483e-07 -0.47840846208164589 0.16484560152618602 7.5264916385241387e-07 -0.65899058755948792 0.18578343696321023 1.8611007748625075e-06 -0.4783365558148171 0.24009426853929455 1.2250570137726323e-06 -0.5857432407757257 0.16484560152618608 7.5264916385241398e-07 -0.65899058755948803 0.24009959644023338 1.4420171376281812e-06 -0.66585182261505504 0.18578343696321026 1.8611007748625073e-06 -0.4783365558148171 0.2401062475901605 1.0869592766351339e-06 -0.7760410290523484 0.24009426853929455 1.2250570137726323e-06 -0.58574324077572559 0.16484560152618605 7.526491638524144e-07 -0.65899058755948803 0.18654030018108328 1.7495411140828422e-06 -0.78394045029662118 0.24009426853929455 1.2250570137726323e-06 -0.5857432407757257 0.24008908282808242 1.2317790527767371e-06 -0.43978827098532919 0.18019246994235763 1.0097858867004497e-07 -0.47840846208164595 0.18578343696321023 1.8611007748625073e-06 -0.47833655581481704 0.18019246994235763 1.0097858867004497e-07 -0.47840846208164595 0.18734497093201632 -1.2365326755189683e-07 -0.7489451812357194 0.24009426853929458 1.2250570137726323e-06 -0.5857432407757257 0.16484560152618605 7.5264916385241366e-07 -0.65899058755948803 0.2401062475901605 1.0869592766351339e-06 -0.7760410290523484 0.16484560152618605 7.5264916385241366e-07 -0.65899058755948803 0.24009426853929458 1.2250570137726323e-06 -0.58574324077572582 0.18734497093201635 -1.2365326755189675e-07 -0.7489451812357194 0.24009667847424349 2.8309195797906408e-07 -0.64625836212377907 0.2401062475901605 1.0869592766351337e-06 -0.7760410290523484 0.24009426853929455 1.2250570137726323e-06 -0.5857432407757257 0.18734497093201632 -1.2365326755189678e-07 -0.74894518123571929 0.24009426853929455 1.2250570137726323e-06 -0.5857432407757257 0.2400892560810618 1.0461628744739408e-07 -0.49881785104319554 0.24009667847424349 2.8309195797906408e-07 -0.64625836212377907 0.18019246994235763 1.0097858867004497e-07 -0.47840846208164595 0.24009426853929455 1.2250570137726323e-06 -0.5857432407757257 0.24008908282808242 1.2317790527767371e-06 -0.43978827098532919 0.2400892560810618 1.0461628744739401e-07 -0.49881785104319548 0.18019246994235763 1.0097858867004497e-07 -0.47840846208164595 0.24009426853929455 1.2250570137726323e-06 -0.5857432407757257 0.24008976882735944 1.5178325625276605e-06 -0.48769994473394712 0.24008908282808242 1.2317790527767371e-06 -0.43978827098532919 0.18578343696321026 1.8611007748625073e-06 -0.47833655581481715 0.24009959644023338 1.4420171376281812e-06 -0.66585182261505504 0.18578343696321029 1.8611007748625073e-06 -0.47833655581481715 0.16484560152618608 7.5264916385241186e-07 -0.65899058755948803 0.18654030018108328 1.7495411140828422e-06 -0.78394045029662118 0.16484560152618605 7.5264916385241366e-07 -0.65899058755948803 0.18578343696321031 1.8611007748625071e-06 -0.47833655581481715 0.19532614513871444 2.7708583006152339e-06 -0.65681069663170122 0.18654030018108333 1.7495411140828428e-06 -0.78394045029662129 0.24009959644023338 1.4420171376281812e-06 -0.66585182261505504 0.16484560152618605 7.5264916385241165e-07 -0.65899058755948781 0.24009426853929455 1.2250570137726323e-06 -0.5857432407757257 0.18654030018108328 1.7495411140828422e-06 -0.78394045029662118 0.2401062475901605 1.0869592766351339e-06 -0.7760410290523484 0.24009959644023338 1.4420171376281812e-06 -0.66585182261505504 0.24009426853929455 1.2250570137726323e-06 -0.5857432407757257 0.18654030018108328 1.7495411140828422e-06 -0.78394045029662118 0.24009959644023338 1.4420171376281812e-06 -0.66585182261505504 0.19532614513871444 2.7708583006152334e-06 -0.65681069663170111 0.18578343696321029 1.8611007748625073e-06 -0.47833655581481715 0.18654030018108328 1.7495411140828422e-06 -0.78394045029662118 0.24008976882735944 1.5178325625276607e-06 -0.48769994473394712 0.24009426853929455 1.2250570137726323e-06 -0.5857432407757257 0.24009959644023338 1.4420171376281812e-06 -0.66585182261505504 0.18578343696321029 1.8611007748625073e-06 -0.47833655581481715 0.24009959644023338 1.4420171376281812e-06 -0.66585182261505504 0.20831829326431378 2.5968192265753344e-06 -0.48582031506399459 0.24008976882735944 1.5178325625276607e-06 -0.48769994473394712 0.18578343696321029 1.8611007748625073e-06 -0.47833655581481715 0.24009318879497252 2.8166289928016773e-06 -0.57598477645489143 0.24008976882735944 1.5178325625276607e-06 -0.48769994473394712 0.24009959644023338 1.4420171376281812e-06 -0.66585182261505504 0.20831829326431381 2.5968192265753339e-06 -0.48582031506399459 0.20831829326431381 2.5968192265753339e-06 -0.48582031506399459 0.24009318879497252 2.8166289928016773e-06 -0.57598477645489143 0.24008976882735944 1.5178325625276607e-06 -0.48769994473394712 0.24008641641632456 2.5797335247068381e-06 -0.3839915931341869 0.24009959644023338 1.4420171376281812e-06 -0.66585182261505504 0.19532614513871444 2.7708583006152339e-06 -0.65681069663170111 0.24009318879497252 2.8166289928016773e-06 -0.57598477645489143 0.20831829326431378 2.5968192265753331e-06 -0.48582031506399442 0.20831829326431381 2.5968192265753339e-06 -0.48582031506399459 0.19532614513871444 2.770858300615233e-06 -0.65681069663170111 0.16385719250002312 3.2143162239808023e-06 -0.50214778007564509 0.18578343696321029 1.8611007748625073e-06 -0.47833655581481715 0.19532614513871444 2.7708583006152334e-06 -0.65681069663170111 0.20831829326431381 2.5968192265753339e-06 -0.48582031506399459 0.24009959644023338 1.4420171376281814e-06 -0.66585182261505504 0.18578343696321029 1.8611007748625073e-06 -0.47833655581481715 0.24009959644023338 1.4420171376281812e-06 -0.66585182261505504 0.19532614513871444 2.7708583006152339e-06 -0.65681069663170122 0.24010450271089781 3.0664925308125426e-06 -0.76797829362364456 0.24009318879497252 2.8166289928016773e-06 -0.57598477645489143 0.24010450271089781 3.0664925308125426e-06 -0.76797829362364456 0.20496879045614436 2.0523191202356752e-06 -0.81941122231036534 0.19532614513871444 2.7708583006152334e-06 -0.65681069663170111 0.24009959644023338 1.4420171376281812e-06 -0.66585182261505504 0.20496879045614438 2.0523191202356752e-06 -0.81941122231036534 0.24009959644023338 1.4420171376281812e-06 -0.66585182261505504 0.24010994788203366 1.4725782971967649e-06 -0.81942366459946037 0.18654030018108325 1.7495411140828424e-06 -0.78394045029662129 0.20496879045614438 2.0523191202356752e-06 -0.81941122231036534 0.24010450271089781 3.0664925308125426e-06 -0.76797829362364456 0.24010994788203366 1.4725782971967647e-06 -0.81942366459946026 0.2400995964402334 1.4420171376281818e-06 -0.66585182261505527 0.20498250541925042 1.9318691674485316e-06 -0.95995919004962826 0.2401233870575106 2.8114400057538153e-06 -0.95997626207631792 0.24012340443212773 1.5308232056194918e-06 -0.95997505006369332 0.24010994788203366 1.4725782971967649e-06 -0.81942366459946037 0.20498250541925042 1.9318691674485316e-06 -0.95995919004962826 0.19211914786217493 2.6667266257659458e-06 -0.95995232718406143 0.2401233870575106 2.8114400057538158e-06 -0.95997626207631792 0.20496879045614438 2.0523191202356752e-06 -0.81941122231036534 0.24010450271089781 3.0664925308125426e-06 -0.76797829362364456 0.24010994788203366 1.4725782971967649e-06 -0.81942366459946037 0.2401233870575106 2.8114400057538158e-06 -0.95997626207631792 0.20496879045614438 2.0523191202356752e-06 -0.81941122231036534 0.24010994788203366 1.4725782971967649e-06 -0.81942366459946037 0.20498250541925042 1.9318691674485321e-06 -0.95995919004962826 0.2401233870575106 2.8114400057538158e-06 -0.95997626207631792 0.20496879045614438 2.0523191202356752e-06 -0.81941122231036534 0.20498250541925042 1.9318691674485316e-06 -0.95995919004962826 0.24012340443212773 1.5308232056194918e-06 -0.95997505006369332 0.2401062475901605 1.0869592766351339e-06 -0.7760410290523484 0.24010994788203366 1.4725782971967649e-06 -0.81942366459946037 0.24012340443212773 1.5308232056194918e-06 -0.95997505006369332 0.2401062475901605 1.0869592766351339e-06 -0.7760410290523484 0.19413350717724548 1.0804358385396325e-06 -0.95995177856561553 0.20498250541925042 1.9318691674485316e-06 -0.95995919004962826 0.20498250541925042 1.9318691674485316e-06 -0.95995919004962826 0.24010994788203366 1.4725782971967649e-06 -0.81942366459946037 0.2401062475901605 1.0869592766351339e-06 -0.7760410290523484 0.18654030018108328 1.7495411140828422e-06 -0.78394045029662118 0.2401062475901605 1.0869592766351339e-06 -0.7760410290523484 0.24010994788203366 1.4725782971967649e-06 -0.81942366459946037 0.24009959644023338 1.4420171376281812e-06 -0.66585182261505504 0.18654030018108328 1.7495411140828422e-06 -0.78394045029662118 0.16657947504012521 2.2726393374058892e-06 -0.95993686335055683 0.20498250541925042 1.9318691674485316e-06 -0.95995919004962826 0.19413350717724551 1.0804358385396325e-06 -0.95995177856561553 0.18654030018108328 1.7495411140828422e-06 -0.78394045029662118 0.19413350717724551 1.0804358385396325e-06 -0.95995177856561553 0.20498250541925042 1.9318691674485316e-06 -0.95995919004962826 0.2401062475901605 1.0869592766351339e-06 -0.7760410290523484 0.18654030018108328 1.7495411140828422e-06 -0.78394045029662118 0.20498250541925042 1.9318691674485316e-06 -0.95995919004962826 0.19211914786217493 2.6667266257659458e-06 -0.95995232718406143 0.20496879045614438 2.0523191202356752e-06 -0.81941122231036534 0.18654030018108328 1.7495411140828422e-06 -0.78394045029662118 0.1680526714568949 2.6154865177640994e-06 -0.79730466675990297 0.20496879045614438 2.0523191202356752e-06 -0.81941122231036534 0.19211914786217493 2.6667266257659458e-06 -0.95995232718406143 0.18654030018108328 1.7495411140828422e-06 -0.78394045029662118 0.20498250541925042 1.9318691674485316e-06 -0.95995919004962826 0.16657947504012521 2.2726393374058892e-06 -0.95993686335055683 0.19211914786217493 2.6667266257659458e-06 -0.95995232718406143 0.18654030018108328 1.7495411140828422e-06 -0.78394045029662118 0.24010994788203366 1.4725782971967649e-06 -0.81942366459946037 0.20498250541925042 1.9318691674485316e-06 -0.95995919004962826 0.20496879045614436 2.0523191202356752e-06 -0.81941122231036523 0.18654030018108325 1.7495411140828422e-06 -0.78394045029662118 0.20496879045614438 2.0523191202356752e-06 -0.81941122231036534 0.1680526714568949 2.6154865177640994e-06 -0.79730466675990297 0.19532614513871444 2.7708583006152334e-06 -0.65681069663170111 0.18654030018108328 1.7495411140828422e-06 -0.78394045029662129 0.19532614513871444 2.7708583006152334e-06 -0.65681069663170111 0.24009959644023338 1.4420171376281812e-06 -0.66585182261505504 0.20496879045614438 2.0523191202356752e-06 -0.81941122231036534 0.18654030018108328 1.7495411140828422e-06 -0.78394045029662118 0.16657947504012521 2.2726393374058892e-06 -0.95993686335055683 0.11986195657028144 1.5672345411898419e-06 -0.74773006695120714 0.16805267145689493 2.6154865177640998e-06 -0.79730466675990308 0.18654030018108328 1.7495411140828422e-06 -0.78394045029662118 0.16657947504012521 2.2726393374058892e-06 -0.95993686335055683 0.14654330968658269 1.0437051226852713e-06 -0.95992755210747527 0.11986195657028144 1.5672345411898422e-06 -0.74773006695120725 0.18654030018108328 1.7495411140828422e-06 -0.78394045029662118 0.19532614513871444 2.7708583006152334e-06 -0.65681069663170111 0.1680526714568949 2.6154865177640994e-06 -0.79730466675990297 0.14704091809713266 2.3807245502198714e-06 -0.65119276064469545 0.18654030018108328 1.7495411140828422e-06 -0.78394045029662118 0.14704091809713266 2.3807245502198714e-06 -0.65119276064469545 0.1680526714568949 2.6154865177640994e-06 -0.79730466675990297 0.11986195657028144 1.5672345411898422e-06 -0.74773006695120725 0.18654030018108328 1.7495411140828422e-06 -0.78394045029662118 0.16657947504012521 2.2726393374058892e-06 -0.95993686335055683 0.1680526714568949 2.6154865177640994e-06 -0.79730466675990286 0.19211914786217493 2.6667266257659458e-06 -0.95995232718406143 0.18654030018108328 1.7495411140828422e-06 -0.78394045029662118 0.12240658318694508 2.6072685780861227e-06 -0.80186658487334883 0.14410412706919568 3.1470594364090497e-06 -0.95992678007290755 0.16657947504012524 2.2726393374058888e-06 -0.95993686335055683 0.1680526714568949 2.6154865177640994e-06 -0.79730466675990297 0.1680526714568949 2.6154865177640994e-06 -0.79730466675990297 0.1441041270691957 3.1470594364090497e-06 -0.95992678007290744 0.16657947504012521 2.2726393374058892e-06 -0.95993686335055683 0.19211914786217493 2.6667266257659458e-06 -0.95995232718406143 0.19413350717724551 1.0804358385396325e-06 -0.95995177856561553 0.14654330968658269 1.0437051226852713e-06 -0.95992755210747527 0.16657947504012521 2.2726393374058892e-06 -0.95993686335055683 0.18654030018108328 1.7495411140828422e-06 -0.78394045029662118 0.12201975707891037 1.8759362354254174e-06 -0.95991404033356309 0.16657947504012521 2.2726393374058888e-06 -0.95993686335055683 0.14654330968658269 1.0437051226852713e-06 -0.95992755210747527 0.11986195657028144 1.5672345411898422e-06 -0.74773006695120725 0.12201975707891037 1.8759362354254174e-06 -0.95991404033356309 0.12240658318694508 2.6072685780861227e-06 -0.80186658487334883 0.16657947504012521 2.2726393374058892e-06 -0.95993686335055683 0.11986195657028144 1.5672345411898422e-06 -0.74773006695120725 0.14410412706919568 3.1470594364090497e-06 -0.95992678007290755 0.12201975707891037 1.8759362354254174e-06 -0.95991404033356309 0.096077198493766974 3.4942426873500244e-06 -0.95990369586366864 0.12240658318694508 2.6072685780861227e-06 -0.80186658487334883 0.16657947504012521 2.2726393374058892e-06 -0.95993686335055683 0.12201975707891037 1.8759362354254174e-06 -0.95991404033356309 0.14410412706919568 3.1470594364090497e-06 -0.95992678007290755 0.12240658318694507 2.6072685780861227e-06 -0.80186658487334861 0.16657947504012521 2.2726393374058892e-06 -0.95993686335055683 0.12240658318694508 2.6072685780861227e-06 -0.80186658487334883 0.1680526714568949 2.6154865177640994e-06 -0.79730466675990297 0.11986195657028142 1.5672345411898419e-06 -0.74773006695120725 0.12240658318694508 2.6072685780861227e-06 -0.80186658487334883 0.14704091809713266 2.3807245502198714e-06 -0.65119276064469545 0.1680526714568949 2.6154865177640994e-06 -0.79730466675990297 0.11986195657028144 1.5672345411898422e-06 -0.74773006695120725 0.14704091809713266 2.3807245502198714e-06 -0.65119276064469545 0.12002663480556933 1.3351177758321446e-06 -0.50844636468712845 0.16484560152618605 7.5264916385241355e-07 -0.65899058755948803 0.11986195657028142 1.5672345411898424e-06 -0.74773006695120725 0.14704091809713266 2.3807245502198714e-06 -0.65119276064469545 0.12002663480556933 1.3351177758321446e-06 -0.50844636468712845 0.16385719250002312 3.2143162239808023e-06 -0.50214778007564509 0.18578343696321029 1.8611007748625073e-06 -0.47833655581481715 0.14704091809713266 2.3807245502198714e-06 -0.65119276064469545 0.11003381943915062 2.3059260965991517e-06 -0.66205054143012187 0.12002663480556935 1.3351177758321444e-06 -0.50844636468712845 0.11986195657028144 1.5672345411898422e-06 -0.74773006695120725 0.11003381943915062 2.3059260965991517e-06 -0.66205054143012187 0.14704091809713266 2.3807245502198714e-06 -0.65119276064469545 0.12240658318694508 2.6072685780861227e-06 -0.80186658487334883 0.11986195657028144 1.5672345411898422e-06 -0.74773006695120725 0.14704091809713266 2.3807245502198714e-06 -0.65119276064469545 0.16484560152618602 7.5264916385241366e-07 -0.65899058755948792 0.12002663480556934 1.3351177758321446e-06 -0.50844636468712856 0.18578343696321029 1.8611007748625073e-06 -0.47833655581481715 0.19532614513871444 2.7708583006152334e-06 -0.65681069663170111 0.14704091809713266 2.3807245502198709e-06 -0.65119276064469545 0.16484560152618602 7.5264916385241345e-07 -0.65899058755948792 0.18654030018108328 1.7495411140828422e-06 -0.78394045029662118 0.14704091809713266 2.3807245502198714e-06 -0.65119276064469545 0.11986195657028144 1.5672345411898422e-06 -0.74773006695120725 0.16484560152618605 7.5264916385241345e-07 -0.65899058755948792 0.18654030018108328 1.7495411140828422e-06 -0.78394045029662118 0.19532614513871444 2.7708583006152334e-06 -0.65681069663170111 0.16484560152618605 7.5264916385241376e-07 -0.65899058755948803 0.14704091809713266 2.3807245502198714e-06 -0.65119276064469545 0.18578343696321029 1.8611007748625069e-06 -0.47833655581481721 0.19532614513871444 2.7708583006152334e-06 -0.65681069663170111 0.14704091809713266 2.3807245502198714e-06 -0.65119276064469545 0.16385719250002312 3.2143162239808014e-06 -0.50214778007564498 0.18578343696321029 1.8611007748625073e-06 -0.47833655581481715 0.14704091809713266 2.3807245502198714e-06 -0.65119276064469545 0.11003381943915062 2.3059260965991517e-06 -0.66205054143012187 0.12477351215659001 2.7346151016294879e-06 -0.47996448456224594 0.12002663480556934 1.3351177758321442e-06 -0.50844636468712845 0.14704091809713266 2.3807245502198714e-06 -0.65119276064469545 0.12477351215659001 2.7346151016294879e-06 -0.47996448456224594 0.16385719250002312 3.2143162239808023e-06 -0.50214778007564509 0.12002663480556937 1.3351177758321444e-06 -0.50844636468712856 0.16484560152618605 7.5264916385241366e-07 -0.65899058755948803 0.12002663480556933 1.3351177758321446e-06 -0.50844636468712834 0.11963159519734096 1.6108146863411884e-07 -0.7203768253022016 0.11986195657028144 1.5672345411898422e-06 -0.74773006695120725 0.16484560152618605 7.5264916385241366e-07 -0.65899058755948803 0.12006460490304105 7.6197489990549668e-09 -0.47996319588426767 0.1801924699423576 1.0097858867004506e-07 -0.47840846208164584 0.11963159519734096 1.6108146863411882e-07 -0.7203768253022016 0.16484560152618605 7.5264916385241366e-07 -0.65899058755948803 0.11963159519734096 1.6108146863411882e-07 -0.7203768253022016 0.18019246994235763 1.0097858867004497e-07 -0.47840846208164595 0.18734497093201635 -1.2365326755189675e-07 -0.7489451812357194 0.12006460490304104 7.6197489990551736e-09 -0.47996319588426767 0.16484560152618605 7.5264916385241387e-07 -0.65899058755948803 0.18019246994235763 1.0097858867004497e-07 -0.47840846208164595 0.12002663480556934 1.3351177758321446e-06 -0.50844636468712845 0.18019246994235763 1.0097858867004497e-07 -0.47840846208164595 0.12002663480556934 1.3351177758321444e-06 -0.50844636468712845 0.16484560152618605 7.5264916385241366e-07 -0.65899058755948803 0.18578343696321034 1.8611007748625079e-06 -0.47833655581481721 0.16484560152618605 7.5264916385241366e-07 -0.65899058755948803 0.12006460490304104 7.619748999055339e-09 -0.47996319588426767 0.11963159519734094 1.6108146863411887e-07 -0.7203768253022016 0.12002663480556931 1.335117775832145e-06 -0.50844636468712834 0.18734497093201635 -1.2365326755189675e-07 -0.7489451812357194 0.14654330968658269 1.0437051226852706e-06 -0.95992755210747538 0.11963159519734094 1.610814686341189e-07 -0.72037682530220148 0.16167939682741328 1.6121492532249186e-07 -0.95993443088919761 0.18734497093201635 -1.2365326755189675e-07 -0.7489451812357194 0.11963159519734098 1.6108146863411882e-07 -0.7203768253022016 0.14654330968658269 1.0437051226852713e-06 -0.95992755210747527 0.16484560152618605 7.5264916385241345e-07 -0.65899058755948803 0.14654330968658269 1.0437051226852713e-06 -0.95992755210747527 0.16484560152618605 7.5264916385241324e-07 -0.65899058755948803 0.19413350717724551 1.0804358385396325e-06 -0.95995177856561553 0.18734497093201638 -1.2365326755189651e-07 -0.74894518123571951 0.16484560152618605 7.5264916385241366e-07 -0.65899058755948803 0.11986195657028144 1.5672345411898422e-06 -0.74773006695120725 0.14654330968658269 1.0437051226852713e-06 -0.95992755210747516 0.18654030018108328 1.7495411140828426e-06 -0.78394045029662107 0.16484560152618605 7.5264916385241366e-07 -0.65899058755948803 0.11963159519734096 1.6108146863411879e-07 -0.72037682530220171 0.14654330968658266 1.043705122685271e-06 -0.95992755210747516 0.11986195657028142 1.5672345411898422e-06 -0.74773006695120725 0.19413350717724551 1.0804358385396325e-06 -0.95995177856561553 0.16484560152618605 7.5264916385241324e-07 -0.65899058755948803 0.14654330968658269 1.0437051226852713e-06 -0.95992755210747527 0.18654030018108328 1.7495411140828422e-06 -0.78394045029662118 0.16167939682741325 1.6121492532249143e-07 -0.95993443088919761 0.14654330968658269 1.0437051226852713e-06 -0.95992755210747527 0.19413350717724551 1.0804358385396325e-06 -0.95995177856561553 0.18734497093201635 -1.2365326755189675e-07 -0.7489451812357194 0.11003369558439748 8.4804766082469791e-07 -0.95990827018168678 0.14654330968658269 1.0437051226852713e-06 -0.95992755210747527 0.11963159519734096 1.6108146863411882e-07 -0.7203768253022016 0.11986195657028144 1.5672345411898422e-06 -0.74773006695120725 0.12201975707891037 1.8759362354254174e-06 -0.95991404033356309 0.14654330968658269 1.0437051226852713e-06 -0.95992755210747527 0.11003369558439748 8.4804766082469791e-07 -0.95990827018168678 0.11986195657028144 1.5672345411898422e-06 -0.74773006695120725 0.12480225041196047 6.6876105257150805e-08 -0.95991623901399847 0.11003369558439748 8.4804766082469791e-07 -0.95990827018168678 0.14654330968658269 1.0437051226852713e-06 -0.95992755210747527 0.11963159519734096 1.6108146863411882e-07 -0.7203768253022016 0.16167939682741325 1.6121492532249143e-07 -0.95993443088919761 0.12480225041196047 6.6876105257150765e-08 -0.95991623901399847 0.14654330968658269 1.0437051226852713e-06 -0.95992755210747527 0.11963159519734096 1.6108146863411882e-07 -0.7203768253022016 0.074827556716953833 1.1953205532313378e-06 -0.65774078671412406 0.05246077305066988 -7.6931630707281588e-08 -0.74521234987357465 0.077935001669834067 6.4779559175926907e-07 -0.95989547739288306 0.044320269665835514 1.1655081932168572e-06 -0.78339674167254003 0.079084962887949445 -7.170085237754363e-07 -0.9598961626228093 0.077935001669834067 6.4779559175926907e-07 -0.95989547739288306 0.12480225041196047 6.6876105257150805e-08 -0.95991623901399847 0.11963159519734096 1.6108146863411879e-07 -0.72037682530220148 0.11003369558439748 8.4804766082469791e-07 -0.95990827018168678 0.074827556716953833 1.1953205532313378e-06 -0.65774078671412406 0.074621606342749655 1.8098278024822907e-06 -0.95989505213319659 0.11986195657028144 1.5672345411898422e-06 -0.74773006695120725 0.079084962887949445 -7.170085237754363e-07 -0.9598961626228093 0.077935001669834067 6.4779559175926907e-07 -0.95989547739288306 0.11963159519734096 1.6108146863411884e-07 -0.72037682530220148 0.052460773050669901 -7.6931630707281284e-08 -0.74521234987357476 0.11003369558439748 8.4804766082469791e-07 -0.95990827018168678 0.11963159519734096 1.6108146863411866e-07 -0.7203768253022016 0.074827556716953833 1.1953205532313378e-06 -0.65774078671412406 0.11986195657028144 1.5672345411898422e-06 -0.74773006695120725 0.077935001669834067 6.4779559175926907e-07 -0.95989547739288306 0.074827556716953833 1.1953205532313375e-06 -0.65774078671412406 0.11963159519734094 1.6108146863411919e-07 -0.72037682530220148 0.052460773050669887 -7.6931630707281297e-08 -0.74521234987357465 0.11003369558439748 8.4804766082469791e-07 -0.95990827018168678 0.12480225041196047 6.6876105257150805e-08 -0.95991623901399847 0.077935001669834067 6.4779559175926907e-07 -0.95989547739288306 0.11963159519734096 1.6108146863411882e-07 -0.7203768253022016 0.074621606342749655 1.8098278024822907e-06 -0.95989505213319659 0.11003369558439748 8.4804766082469791e-07 -0.95990827018168678 0.077935001669834067 6.4779559175926907e-07 -0.95989547739288306 0.074827556716953833 1.1953205532313378e-06 -0.65774078671412406 0.11003369558439748 8.4804766082469791e-07 -0.95990827018168678 0.077935001669834067 6.4779559175926907e-07 -0.95989547739288306 0.074827556716953833 1.1953205532313378e-06 -0.65774078671412406 0.11963159519734096 1.6108146863411882e-07 -0.7203768253022016 0.077935001669834067 6.4779559175926907e-07 -0.95989547739288306 0.074621606342749641 1.8098278024822905e-06 -0.95989505213319659 0.074827556716953847 1.195320553231338e-06 -0.65774078671412406 0.044320269665835521 1.1655081932168574e-06 -0.78339674167254014 0.074827556716953833 1.1953205532313378e-06 -0.65774078671412406 0.12006460490304104 7.6197489990552381e-09 -0.47996319588426761 0.05948043256993793 2.1277235373785236e-07 -0.43290447436461477 0.12002663480556934 1.3351177758321446e-06 -0.50844636468712834 0.074827556716953833 1.1953205532313378e-06 -0.65774078671412406 0.11963159519734096 1.6108146863411887e-07 -0.7203768253022016 0.12006460490304105 7.6197489990553787e-09 -0.47996319588426767 0.12002663480556934 1.3351177758321446e-06 -0.50844636468712845 0.074827556716953833 1.1953205532313378e-06 -0.65774078671412406 0.12002663480556935 1.3351177758321446e-06 -0.50844636468712845 0.059480432569937923 2.1277235373785289e-07 -0.43290447436461477 0.054071605673947337 1.676907685007452e-06 -0.46255250518974161 0.12006460490304104 7.6197489990551736e-09 -0.47996319588426767 0.074827556716953833 1.1953205532313378e-06 -0.65774078671412406 0.059480432569937923 2.127723537378526e-07 -0.43290447436461477 0.052460773050669887 -7.6931630707281297e-08 -0.74521234987357465 0.074827556716953833 1.1953205532313378e-06 -0.65774078671412406 0.12006460490304104 7.6197489990549817e-09 -0.47996319588426767 0.11963159519734096 1.6108146863411882e-07 -0.7203768253022016 0.05246077305066988 -7.6931630707281601e-08 -0.74521234987357454 0.11963159519734096 1.6108146863411882e-07 -0.7203768253022016 0.12002663480556935 1.3351177758321446e-06 -0.50844636468712845 0.074827556716953833 1.1953205532313378e-06 -0.65774078671412406 0.11986195657028144 1.5672345411898422e-06 -0.74773006695120725 0.077921677332221939 3.1846214896643211e-06 -0.57613766994379512 0.11003381943915062 2.3059260965991517e-06 -0.66205054143012187 0.074827556716953833 1.1953205532313378e-06 -0.65774078671412406 0.12002663480556933 1.3351177758321446e-06 -0.50844636468712845 0.11003381943915062 2.3059260965991517e-06 -0.66205054143012187 0.074654254270327666 2.8181347250150851e-06 -0.78202867047638169 0.077921677332221939 3.1846214896643211e-06 -0.57613766994379512 0.074827556716953833 1.1953205532313378e-06 -0.65774078671412406 0.11003381943915062 2.3059260965991517e-06 -0.66205054143012187 0.074827556716953833 1.1953205532313378e-06 -0.65774078671412406 0.12002663480556934 1.3351177758321446e-06 -0.50844636468712845 0.11986195657028144 1.5672345411898422e-06 -0.74773006695120725 0.077921677332221939 3.1846214896643211e-06 -0.57613766994379512 0.074827556716953833 1.1953205532313378e-06 -0.65774078671412406 0.07465425427032768 2.8181347250150851e-06 -0.7820286704763818 0.044320269665835521 1.1655081932168574e-06 -0.78339674167254014 0.077921677332221939 3.1846214896643211e-06 -0.57613766994379512 0.12002663480556931 1.3351177758321446e-06 -0.50844636468712845 0.074827556716953847 1.1953205532313378e-06 -0.65774078671412406 0.054071605673947351 1.6769076850074531e-06 -0.46255250518974167 0.11003381943915062 2.3059260965991517e-06 -0.66205054143012187 0.07465425427032768 2.8181347250150851e-06 -0.7820286704763818 0.074827556716953819 1.1953205532313373e-06 -0.65774078671412395 0.11986195657028144 1.5672345411898422e-06 -0.74773006695120725 0.079067536292025328 3.0542423327690218e-06 -0.38028180044064552 0.12002663480556935 1.3351177758321446e-06 -0.50844636468712845 0.077921677332221939 3.1846214896643211e-06 -0.57613766994379512 0.054071605673947337 1.6769076850074522e-06 -0.46255250518974167 0.077921677332221939 3.1846214896643211e-06 -0.57613766994379512 0.074827556716953847 1.1953205532313378e-06 -0.65774078671412417 0.038184654675538575 2.6125248033557317e-06 -0.66662185221026127 0.054071605673947337 1.6769076850074524e-06 -0.46255250518974161 0.079067536292025328 3.0542423327690218e-06 -0.38028180044064552 0.12477351215659001 2.7346151016294879e-06 -0.47996448456224594 0.077921677332221939 3.1846214896643211e-06 -0.57613766994379512 0.12002663480556934 1.3351177758321446e-06 -0.50844636468712845 0.077921677332221939 3.1846214896643211e-06 -0.57613766994379512 0.12477351215659001 2.7346151016294879e-06 -0.47996448456224594 0.11003381943915062 2.3059260965991517e-06 -0.66205054143012187 0.12002663480556934 1.3351177758321452e-06 -0.50844636468712845 0.11003381943915062 2.3059260965991517e-06 -0.66205054143012187 0.12240658318694508 2.6072685780861227e-06 -0.80186658487334883 0.074654254270327666 2.8181347250150851e-06 -0.78202867047638169 0.11986195657028144 1.5672345411898422e-06 -0.74773006695120725 0.074654254270327666 2.8181347250150851e-06 -0.78202867047638169 0.11986195657028144 1.5672345411898422e-06 -0.74773006695120714 0.074621606342749655 1.8098278024822907e-06 -0.95989505213319659 0.044320269665835521 1.1655081932168574e-06 -0.78339674167254014 0.074654254270327666 2.8181347250150851e-06 -0.78202867047638169 0.074827556716953833 1.1953205532313382e-06 -0.65774078671412395 0.11986195657028142 1.5672345411898405e-06 -0.74773006695120736 0.044320269665835521 1.1655081932168574e-06 -0.78339674167254014 0.12201975707891037 1.8759362354254174e-06 -0.95991404033356309 0.074654254270327666 2.8181347250150851e-06 -0.7820286704763818 0.12240658318694508 2.6072685780861227e-06 -0.80186658487334883 0.11986195657028144 1.5672345411898422e-06 -0.74773006695120725 0.074621606342749655 1.8098278024822907e-06 -0.95989505213319659 0.11986195657028142 1.5672345411898415e-06 -0.74773006695120725 0.074827556716953819 1.1953205532313386e-06 -0.65774078671412417 0.044320269665835521 1.1655081932168574e-06 -0.78339674167254014 0.074654254270327666 2.8181347250150851e-06 -0.78202867047638169 0.096077198493766974 3.4942426873500244e-06 -0.95990369586366864 0.12201975707891037 1.8759362354254174e-06 -0.95991404033356309 0.12240658318694508 2.6072685780861227e-06 -0.80186658487334883 0.074654254270327666 2.8181347250150851e-06 -0.78202867047638169 0.096077198493766974 3.4942426873500244e-06 -0.95990369586366864 0.074621606342749655 1.8098278024822907e-06 -0.95989505213319659 0.12201975707891037 1.8759362354254174e-06 -0.95991404033356309 0.074654254270327666 2.8181347250150851e-06 -0.78202867047638169 0.12201975707891037 1.8759362354254174e-06 -0.95991404033356309 0.074621606342749655 1.8098278024822907e-06 -0.95989505213319659 0.11986195657028144 1.5672345411898417e-06 -0.74773006695120714 0.11003369558439748 8.4804766082469791e-07 -0.95990827018168678 0.074621606342749655 1.8098278024822907e-06 -0.95989505213319659 0.12201975707891037 1.8759362354254174e-06 -0.95991404033356309 0.11986195657028144 1.5672345411898422e-06 -0.74773006695120725 0.096077198493766974 3.4942426873500244e-06 -0.95990369586366864 0.048041509085964912 2.8512987487985897e-06 -0.95988689820707285 0.074654254270327666 2.8181347250150851e-06 -0.78202867047638169 0.074621606342749655 1.8098278024822907e-06 -0.95989505213319659 0.038184654675538575 2.6125248033557317e-06 -0.66662185221026127 0.074654254270327666 2.8181347250150851e-06 -0.78202867047638169 0.035163409632816563 2.1015227837094052e-06 -0.81934900566016888 0.044320269665835521 1.1655081932168574e-06 -0.78339674167254014 0.074654254270327666 2.8181347250150851e-06 -0.78202867047638169 0.074621606342749655 1.8098278024822907e-06 -0.95989505213319659 0.035163409632816563 2.1015227837094052e-06 -0.81934900566016888 0.044320269665835521 1.1655081932168574e-06 -0.78339674167254014 0.074654254270327666 2.8181347250150851e-06 -0.78202867047638169 0.048041509085964905 2.8512987487985888e-06 -0.95988689820707285 0.035163409632816563 2.1015227837094052e-06 -0.81934900566016888 0.074621606342749655 1.8098278024822907e-06 -0.95989505213319659 0.035168197236516471 1.7066194886348712e-06 -0.95988390567393256 0.035163409632816563 2.1015227837094052e-06 -0.81934900566016888 0.048041509085964912 2.8512987487985897e-06 -0.95988689820707285 0.074621606342749655 1.8098278024822907e-06 -0.95989505213319659 0.074621606342749655 1.8098278024822907e-06 -0.95989505213319659 0.038184796152053002 1.0165220255652944e-06 -0.95988466946695838 0.035168197236516471 1.7066194886348712e-06 -0.95988390567393256 0.044320269665835521 1.1655081932168574e-06 -0.78339674167254014 0.035168197236516471 1.7066194886348712e-06 -0.95988390567393256 0.035163409632816556 2.1015227837094052e-06 -0.81934900566016888 0.074621606342749655 1.8098278024822905e-06 -0.95989505213319648 0.044320269665835514 1.1655081932168572e-06 -0.78339674167254014 -9.833170384405982e-11 1.6757457256788224e-06 -0.81934631911003697 1.2381765357762544e-10 6.6493604787597392e-07 -0.81756827052983616 5.174460052613201e-10 1.6822205942329496e-06 -0.67712699739033666 0.044320269665835521 1.1655081932168574e-06 -0.78339674167254014 0.038184654675538575 2.6125248033557317e-06 -0.66662185221026127 -9.833170218722062e-11 1.6757457256788222e-06 -0.81934631911003697 5.1744600655858601e-10 1.6822205942329492e-06 -0.67712699739033655 0.044320269665835514 1.1655081932168572e-06 -0.78339674167254003 0.044320269665835521 1.1655081932168574e-06 -0.78339674167254014 1.4378634489344982e-09 1.4343430136906843e-06 -0.95988012171672898 0.038184796152052981 1.0165220255652946e-06 -0.95988466946695838 0.035168197236516471 1.7066194886348712e-06 -0.95988390567393245 0.035163409632816563 2.1015227837094052e-06 -0.81934900566016888 0.035168197236516471 1.7066194886348712e-06 -0.95988390567393256 -9.833170384405982e-11 1.6757457256788224e-06 -0.81934631911003697 0.044320269665835521 1.1655081932168574e-06 -0.78339674167254014 -9.833170384405982e-11 1.6757457256788224e-06 -0.81934631911003697 1.4378634412326718e-09 1.4343430136906847e-06 -0.95988012171672898 1.2381765357762544e-10 6.6493604787597392e-07 -0.81756827052983616 0.044320269665835521 1.1655081932168574e-06 -0.78339674167254014 -9.833170384405982e-11 1.6757457256788224e-06 -0.81934631911003697 0.035168197236516471 1.7066194886348712e-06 -0.95988390567393256 1.4378634427518196e-09 1.4343430136906849e-06 -0.95988012171672898 0.044320269665835521 1.1655081932168574e-06 -0.78339674167254014 1.122182556517844e-09 2.876211883495231e-06 -0.95987965526384045 -9.8331705369237522e-11 1.6757457256788224e-06 -0.81934631911003708 0.035168197236516471 1.7066194886348712e-06 -0.95988390567393256 1.4378634409504676e-09 1.4343430136906847e-06 -0.95988012171672898 -9.833170384405982e-11 1.6757457256788224e-06 -0.81934631911003697 0.035163409632816563 2.1015227837094048e-06 -0.81934900566016888 1.122182556517844e-09 2.876211883495231e-06 -0.95987965526384045 0.035168197236516471 1.7066194886348712e-06 -0.95988390567393256 0.048041509085964912 2.8512987487985897e-06 -0.95988689820707285 1.1221825575596292e-09 2.8762118834952315e-06 -0.95987965526384045 0.035163409632816563 2.1015227837094052e-06 -0.81934900566016888 0.035168197236516471 1.7066194886348712e-06 -0.95988390567393256 0.035163409632816563 2.1015227837094052e-06 -0.81934900566016888 1.122182556517844e-09 2.876211883495231e-06 -0.95987965526384045 -6.2856070534190599e-11 2.535186052515108e-06 -0.7679081241380491 -9.833170384405982e-11 1.6757457256788224e-06 -0.81934631911003697 0.035163409632816563 2.1015227837094052e-06 -0.81934900566016888 -9.8331703834341249e-11 1.6757457256788224e-06 -0.81934631911003697 0.038184654675538575 2.6125248033557317e-06 -0.66662185221026127 0.044320269665835521 1.1655081932168574e-06 -0.78339674167254014 0.038184654675538575 2.6125248033557317e-06 -0.66662185221026127 -6.285607971960511e-11 2.5351860525151088e-06 -0.7679081241380491 5.174460052613201e-10 1.6822205942329496e-06 -0.67712699739033666 -9.833170384405982e-11 1.6757457256788224e-06 -0.81934631911003697 -6.2856067688558145e-11 2.5351860525151084e-06 -0.7679081241380491 0.038184654675538575 2.6125248033557317e-06 -0.66662185221026127 0.035163409632816563 2.1015227837094052e-06 -0.81934900566016888 -9.833170384405982e-11 1.6757457256788224e-06 -0.81934631911003697 5.174460052613201e-10 1.6822205942329496e-06 -0.67712699739033666 -1.4111400376205667e-11 3.1219579118374981e-06 -0.57593589887803598 -6.2856067688558145e-11 2.5351860525151084e-06 -0.7679081241380491 0.038184654675538575 2.6125248033557317e-06 -0.66662185221026127 0.074827556716953833 1.1953205532313378e-06 -0.65774078671412406 0.054071605673947351 1.6769076850074524e-06 -0.46255250518974173 5.1744599626381829e-10 1.6822205942329499e-06 -0.67712699739033666 0.044320269665835528 1.1655081932168574e-06 -0.78339674167254014 5.174460052613201e-10 1.6822205942329496e-06 -0.67712699739033666 -3.4742726390085401e-10 2.1989603863230615e-06 -0.4876599223997336 -1.4111400376205667e-11 3.1219579118374981e-06 -0.57593589887803598 0.038184654675538575 2.6125248033557317e-06 -0.66662185221026127 0.038184654675538575 2.6125248033557317e-06 -0.66662185221026127 0.074827556716953847 1.1953205532313382e-06 -0.65774078671412417 0.077921677332221939 3.1846214896643211e-06 -0.57613766994379512 0.044320269665835521 1.1655081932168574e-06 -0.78339674167254014 0.038184654675538575 2.6125248033557317e-06 -0.66662185221026127 0.054071605673947372 1.6769076850074528e-06 -0.46255250518974173 0.074827556716953805 1.1953205532313371e-06 -0.65774078671412406 0.044320269665835521 1.1655081932168574e-06 -0.78339674167254014 0.038184654675538575 2.6125248033557317e-06 -0.66662185221026127 5.1744601606649724e-10 1.6822205942329492e-06 -0.67712699739033666 0.054071605673947344 1.6769076850074522e-06 -0.46255250518974167 0.044320269665835514 1.1655081932168572e-06 -0.78339674167254014 0.038184654675538575 2.6125248033557317e-06 -0.66662185221026127 0.077921677332221939 3.1846214896643211e-06 -0.57613766994379512 0.074654254270327666 2.8181347250150851e-06 -0.78202867047638169 0.044320269665835521 1.1655081932168574e-06 -0.78339674167254014 0.077921677332221939 3.1846214896643211e-06 -0.57613766994379512 0.038184654675538575 2.6125248033557317e-06 -0.66662185221026127 0.041366923123514372 2.8553567895480431e-06 -0.4783821236718665 0.054071605673947344 1.6769076850074522e-06 -0.46255250518974167 -3.4742726953443633e-10 2.1989603863230615e-06 -0.4876599223997336 0.041366923123514379 2.8553567895480431e-06 -0.4783821236718665 0.038184654675538575 2.6125248033557317e-06 -0.66662185221026127 0.054071605673947344 1.6769076850074522e-06 -0.46255250518974167 -1.4111400376205667e-11 3.1219579118374981e-06 -0.57593589887803598 -1.3261915196867328e-10 3.3456973121663162e-06 -0.38396286193178153 0.041366923123514372 2.8553567895480431e-06 -0.4783821236718665 -3.4742726953443633e-10 2.1989603863230615e-06 -0.4876599223997336 -3.4742726953443633e-10 2.1989603863230615e-06 -0.4876599223997336 0.041366923123514386 2.8553567895480431e-06 -0.4783821236718665 -1.4111400376205667e-11 3.1219579118374981e-06 -0.57593589887803598 0.038184654675538575 2.6125248033557317e-06 -0.66662185221026127 -3.4742726953443633e-10 2.1989603863230615e-06 -0.4876599223997336 0.038184654675538575 2.6125248033557317e-06 -0.66662185221026127 5.174460052613201e-10 1.6822205942329496e-06 -0.67712699739033666 0.054071605673947344 1.6769076850074522e-06 -0.46255250518974167 -4.7091496429362433e-10 9.4541700504337332e-07 -0.57539995674573696 -3.4742726953443633e-10 2.1989603863230615e-06 -0.4876599223997336 5.174460052613201e-10 1.6822205942329496e-06 -0.67712699739033666 0.054071605673947344 1.6769076850074522e-06 -0.46255250518974167 -4.7091496429362433e-10 9.4541700504337332e-07 -0.57539995674573696 5.1744600632813928e-10 1.6822205942329496e-06 -0.67712699739033666 0.074827556716953833 1.1953205532313375e-06 -0.65774078671412395 0.054071605673947344 1.6769076850074522e-06 -0.46255250518974167 -4.7091496429362433e-10 9.4541700504337332e-07 -0.57539995674573696 0.074827556716953805 1.1953205532313344e-06 -0.65774078671412428 5.1744600708478569e-10 1.6822205942329501e-06 -0.67712699739033666 0.044320269665835528 1.1655081932168564e-06 -0.78339674167254014 -4.7091496429362433e-10 9.4541700504337332e-07 -0.57539995674573696 5.174460052613201e-10 1.6822205942329496e-06 -0.67712699739033666 3.7260273435363457e-10 3.5945737834628526e-07 -0.69805473798891216 0.044320269665835542 1.1655081932168572e-06 -0.78339674167254014 -4.7091496429362433e-10 9.4541700504337332e-07 -0.57539995674573696 0.05948043256993793 2.1277235373785231e-07 -0.43290447436461471 0.074827556716953833 1.1953205532313378e-06 -0.65774078671412406 0.052460773050669887 -7.6931630707281549e-08 -0.74521234987357465 -4.7091496429362433e-10 9.4541700504337332e-07 -0.57539995674573696 3.7260273435363457e-10 3.5945737834628526e-07 -0.69805473798891216 0.074827556716953819 1.1953205532313382e-06 -0.65774078671412417 0.044320269665835528 1.1655081932168574e-06 -0.78339674167254025 -4.7091496429362433e-10 9.4541700504337332e-07 -0.57539995674573696 2.9485353812167106e-10 -2.5256375020545327e-07 -0.64620317211056821 -3.7268505382325335e-10 1.499188803581715e-07 -0.49877636367451206 0.052460773050669901 -7.6931630707281231e-08 -0.74521234987357454 3.7260273435363457e-10 3.5945737834628526e-07 -0.69805473798891216 -4.7091496429362433e-10 9.4541700504337332e-07 -0.57539995674573696 0.074827556716953833 1.1953205532313378e-06 -0.65774078671412406 0.052460773050669887 -7.6931630707281297e-08 -0.74521234987357465 -4.7091496429362433e-10 9.4541700504337332e-07 -0.57539995674573696 0.074827556716953833 1.1953205532313378e-06 -0.65774078671412406 0.059480432569937916 2.127723537378522e-07 -0.43290447436461471 0.054071605673947344 1.6769076850074522e-06 -0.46255250518974167 -4.7091496429362433e-10 9.4541700504337332e-07 -0.57539995674573696 -3.7268505091579953e-10 1.499188803581715e-07 -0.49877636367451206 0.059480432569937923 2.127723537378526e-07 -0.43290447436461477 0.052460773050669894 -7.69316307072818e-08 -0.74521234987357465 8.5341617082826647e-12 1.0376709383213449e-06 -0.43833437126531705 -3.4742726954480008e-10 2.1989603863230615e-06 -0.4876599223997336 -4.7091496429362433e-10 9.4541700504337332e-07 -0.57539995674573696 0.054071605673947344 1.6769076850074522e-06 -0.46255250518974167 -4.7091496429362433e-10 9.4541700504337332e-07 -0.57539995674573696 -3.7268505091579953e-10 1.499188803581715e-07 -0.49877636367451206 8.5341617082826647e-12 1.0376709383213449e-06 -0.43833437126531705 0.059480432569937923 2.127723537378526e-07 -0.43290447436461477 3.7260273435363457e-10 3.5945737834628526e-07 -0.69805473798891216 2.9485353812167106e-10 -2.5256375020545327e-07 -0.64620317211056821 -4.7091496238639358e-10 9.4541700504337332e-07 -0.57539995674573696 0.052460773050669887 -7.6931630707281297e-08 -0.74521234987357465 -6.9938899958967129e-11 -2.4869612265007403e-07 -0.80814468202325251 1.2381765357762544e-10 6.6493604787597392e-07 -0.81756827052983616 0.038184796152053002 1.0165220255652944e-06 -0.95988466946695838 0.052460773050669894 -7.6931630707281125e-08 -0.74521234987357454 3.7260273435363457e-10 3.5945737834628526e-07 -0.69805473798891216 0.052460773050669887 -7.693163070728131e-08 -0.74521234987357465 0.074827556716953833 1.1953205532313378e-06 -0.65774078671412406 0.044320269665835521 1.1655081932168577e-06 -0.78339674167254025 0.038184796152053002 1.0165220255652944e-06 -0.95988466946695838 0.05246077305066988 -7.6931630707281297e-08 -0.74521234987357465 1.2381764323376601e-10 6.6493604787597361e-07 -0.81756827052983616 0.044320269665835521 1.1655081932168572e-06 -0.78339674167254014 -6.9938899958967129e-11 -2.4869612265007403e-07 -0.80814468202325251 2.9485353812167106e-10 -2.5256375020545327e-07 -0.64620317211056821 3.7260273435363457e-10 3.5945737834628526e-07 -0.69805473798891216 0.052460773050669901 -7.6931630707281244e-08 -0.74521234987357454 -6.9938899958967129e-11 -2.4869612265007403e-07 -0.80814468202325251 3.7260273435363457e-10 3.5945737834628526e-07 -0.69805473798891216 1.2381765357762544e-10 6.6493604787597392e-07 -0.81756827052983616 0.052460773050669901 -7.693163070728131e-08 -0.74521234987357476 0.038184796152053002 1.0165220255652944e-06 -0.95988466946695838 0.077935001669834067 6.4779559175926896e-07 -0.95989547739288306 0.052460773050669887 -7.6931630707281271e-08 -0.74521234987357465 0.044320269665835521 1.1655081932168574e-06 -0.78339674167254014 3.7260273435363457e-10 3.5945737834628526e-07 -0.69805473798891216 1.2381765336030478e-10 6.6493604787597392e-07 -0.81756827052983616 0.05246077305066988 -7.6931630707281324e-08 -0.74521234987357476 0.044320269665835528 1.1655081932168581e-06 -0.78339674167254014 5.174460052613201e-10 1.6822205942329496e-06 -0.67712699739033666 1.2381765357762544e-10 6.6493604787597392e-07 -0.81756827052983616 3.7260273322481749e-10 3.5945737834628526e-07 -0.69805473798891216 0.044320269665835521 1.1655081932168574e-06 -0.78339674167254014 0.038184796152053002 1.0165220255652944e-06 -0.95988466946695838 0.077935001669834067 6.4779559175926907e-07 -0.95989547739288295 0.041377685141583735 -4.3528562579405329e-08 -0.95988476592425265 0.052460773050669887 -7.6931630707281297e-08 -0.74521234987357465 0.038184796152053002 1.0165220255652944e-06 -0.95988466946695838 0.041377685141583735 -4.352856257940519e-08 -0.95988476592425276 -6.9938899958967129e-11 -2.4869612265007403e-07 -0.80814468202325251 0.052460773050669887 -7.6931630707281297e-08 -0.74521234987357465 0.077935001669834067 6.4779559175926907e-07 -0.95989547739288306 0.038184796152053002 1.0165220255652944e-06 -0.95988466946695838 0.074621606342749669 1.8098278024822907e-06 -0.95989505213319659 0.044320269665835521 1.1655081932168574e-06 -0.78339674167254014 0.044320269665835521 1.1655081932168574e-06 -0.78339674167254014 0.038184796152052995 1.0165220255652946e-06 -0.95988466946695838 1.4378634488935168e-09 1.4343430136906845e-06 -0.95988012171672898 1.2381765357762544e-10 6.6493604787597392e-07 -0.81756827052983616 1.2381765357762544e-10 6.6493604787597392e-07 -0.81756827052983616 -6.99389000408798e-11 -2.4869612265007403e-07 -0.80814468202325251 0.038184796152053002 1.0165220255652944e-06 -0.95988466946695838 1.1999341557585747e-09 3.53979360417328e-07 -0.95988169768476095 0.038184796152053002 1.0165220255652944e-06 -0.95988466946695838 1.4378634409504676e-09 1.4343430136906847e-06 -0.95988012171672898 1.2381765043765642e-10 6.6493604787597382e-07 -0.81756827052983616 1.1999341557585747e-09 3.53979360417328e-07 -0.95988169768476095 1.1999341557585747e-09 3.53979360417328e-07 -0.95988169768476095 -6.9938899958967129e-11 -2.4869612265007403e-07 -0.80814468202325251 0.038184796152053002 1.0165220255652944e-06 -0.95988466946695838 0.041377685141583735 -4.352856257940519e-08 -0.95988476592425276 -6.9938899958967129e-11 -2.4869612265007403e-07 -0.80814468202325251 1.1999341557585747e-09 3.53979360417328e-07 -0.95988169768476095 1.5157466994337356e-09 -6.9024544490182843e-07 -0.95988164859973635 0.041377685141583735 -4.352856257940519e-08 -0.95988476592425276 0.041377685141583735 -4.352856257940519e-08 -0.95988476592425276 1.5157467018526516e-09 -6.9024544490182843e-07 -0.95988164859973635 -6.9938892857455306e-11 -2.4869612265007419e-07 -0.80814468202325263 8.3408323750683926e-11 -9.0016776928338276e-07 -0.77596925988323862 1.5157467018526516e-09 -6.9024544490182843e-07 -0.95988164859973635 0.041377685141583735 -4.352856257940519e-08 -0.95988476592425276 0.040666378088400408 -9.2803662013600269e-07 -0.95988497508988158 8.3408337532221282e-11 -9.0016776928338276e-07 -0.77596925988323873 3.6476129949648161e-10 -1.89919696504011e-06 -0.81934592577086329 8.3408337532221282e-11 -9.0016776928338276e-07 -0.77596925988323873 0.040666378088400408 -9.2803662013600269e-07 -0.95988497508988158 0.075471145667582798 -1.1361172431739727e-06 -0.66003900062289322 0.040666378088400408 -9.2803662013600269e-07 -0.95988497508988158 0.07547114566758277 -1.1361172431739721e-06 -0.66003900062289311 8.3408339474937371e-11 -9.0016776928338265e-07 -0.77596925988323884 0.05246077305066988 -7.6931630707281271e-08 -0.74521234987357465 -6.9938899958967129e-11 -2.4869612265007403e-07 -0.80814468202325251 8.3408338282916277e-11 -9.0016776928338276e-07 -0.77596925988323873 2.9485353812167106e-10 -2.5256375020545327e-07 -0.64620317211056821 0.052460773050669901 -7.6931630707281244e-08 -0.74521234987357454 -6.9938899958967129e-11 -2.4869612265007403e-07 -0.80814468202325251 0.041377685141583728 -4.3528562579405203e-08 -0.95988476592425276 8.3408338416442887e-11 -9.0016776928338276e-07 -0.77596925988323873 0.052460773050669894 -7.6931630707281284e-08 -0.74521234987357465 8.3408337532221282e-11 -9.0016776928338276e-07 -0.77596925988323873 0.040666378088400408 -9.2803662013600269e-07 -0.95988497508988158 1.5157467018526516e-09 -6.9024544490182843e-07 -0.95988164859973635 1.3608038976156807e-09 -1.4383968970562391e-06 -0.95988136236309207 0.041377685141583735 -4.352856257940519e-08 -0.95988476592425276 0.079084962887949445 -7.170085237754363e-07 -0.9598961626228093 0.040666378088400408 -9.2803662013600269e-07 -0.95988497508988158 0.052460773050669887 -7.6931630707281297e-08 -0.74521234987357465 0.041377685141583735 -4.352856257940519e-08 -0.95988476592425276 0.040666378088400408 -9.2803662013600269e-07 -0.95988497508988158 8.3408347058496954e-11 -9.0016776928338265e-07 -0.77596925988323862 0.05246077305066988 -7.6931630707281297e-08 -0.74521234987357454 0.075928034555551832 -1.5871987122484507e-06 -0.9598949240361786 0.040666378088400408 -9.2803662013600269e-07 -0.95988497508988158 0.079084962887949445 -7.170085237754363e-07 -0.9598961626228093 0.07547114566758277 -1.1361172431739721e-06 -0.66003900062289311 0.077935001669834067 6.4779559175926907e-07 -0.95989547739288306 0.079084962887949445 -7.170085237754363e-07 -0.9598961626228093 0.041377685141583735 -4.352856257940519e-08 -0.95988476592425276 0.052460773050669887 -7.6931630707281297e-08 -0.74521234987357465 0.11003403439431582 -8.3906931545362935e-07 -0.95990841378067904 0.075471145667582756 -1.1361172431739717e-06 -0.66003900062289311 0.11963159519734096 1.6108146863411882e-07 -0.7203768253022016 0.12027841551673116 -1.8631018964062494e-06 -0.74954902158749892 0.079084962887949445 -7.170085237754363e-07 -0.9598961626228093 0.11963159519734097 1.610814686341189e-07 -0.7203768253022016 0.07547114566758277 -1.1361172431739723e-06 -0.66003900062289311 0.052460773050669901 -7.6931630707281562e-08 -0.74521234987357465 0.075928034555551832 -1.5871987122484507e-06 -0.9598949240361786 0.079084962887949445 -7.170085237754364e-07 -0.9598961626228093 0.11003403439431582 -8.3906931545362935e-07 -0.95990841378067904 0.075471145667582756 -1.1361172431739721e-06 -0.66003900062289311 0.11003403439431582 -8.3906931545362935e-07 -0.95990841378067904 0.075928034555551846 -1.5871987122484509e-06 -0.95989492403617871 0.07547114566758277 -1.1361172431739723e-06 -0.66003900062289311 0.12027841551673113 -1.8631018964062496e-06 -0.74954902158749859 0.079084962887949445 -7.170085237754363e-07 -0.9598961626228093 0.11003403439431582 -8.3906931545362935e-07 -0.95990841378067904 0.07547114566758277 -1.1361172431739723e-06 -0.66003900062289311 0.11963159519734097 1.6108146863411935e-07 -0.7203768253022016 0.079084962887949445 -7.170085237754363e-07 -0.9598961626228093 0.07547114566758277 -1.1361172431739723e-06 -0.66003900062289311 0.040666378088400408 -9.2803662013600269e-07 -0.95988497508988158 0.052460773050669908 -7.6931630707281734e-08 -0.74521234987357476 0.079084962887949445 -7.170085237754363e-07 -0.9598961626228093 0.12480225041196047 6.6876105257150805e-08 -0.95991623901399847 0.11003403439431582 -8.3906931545362935e-07 -0.95990841378067904 0.11963159519734096 1.6108146863411882e-07 -0.7203768253022016 0.07547114566758277 -1.1361172431739723e-06 -0.66003900062289311 0.11963159519734096 1.61081468634119e-07 -0.7203768253022016 0.12006460490304102 7.6197489990552778e-09 -0.47996319588426767 0.05246077305066988 -7.6931630707281178e-08 -0.74521234987357454 0.059480432569937923 2.127723537378526e-07 -0.43290447436461477 0.12024199134127966 -1.4241527310358043e-06 -0.50767184565359702 0.075471145667582742 -1.1361172431739723e-06 -0.660039000622893 0.053044001282407827 -1.4737792750102788e-06 -0.47999852865706527 0.07547114566758277 -1.1361172431739723e-06 -0.66003900062289311 0.12024199134127968 -1.4241527310358041e-06 -0.50767184565359713 0.11963159519734096 1.6108146863411858e-07 -0.7203768253022016 0.12027841551673113 -1.8631018964062494e-06 -0.7495490215874987 0.12006460490304104 7.6197489990551736e-09 -0.47996319588426767 0.07547114566758277 -1.1361172431739723e-06 -0.66003900062289311 0.059480432569937923 2.127723537378526e-07 -0.43290447436461477 0.12024199134127968 -1.4241527310358041e-06 -0.50767184565359713 0.12006460490304104 7.6197489990551736e-09 -0.47996319588426767 0.11963159519734098 1.6108146863411887e-07 -0.72037682530220171 0.075471145667582784 -1.1361172431739725e-06 -0.66003900062289311 0.12024199134127968 -1.4241527310358041e-06 -0.50767184565359713 0.12006460490304104 7.6197489990551736e-09 -0.47996319588426767 0.059480432569937923 2.127723537378526e-07 -0.43290447436461477 0.07547114566758277 -1.1361172431739725e-06 -0.660039000622893 0.052460773050669887 -7.6931630707281297e-08 -0.74521234987357465 0.052460773050669887 -7.6931630707281297e-08 -0.74521234987357465 0.07547114566758277 -1.1361172431739723e-06 -0.66003900062289311 -3.7268504966067284e-10 1.4991888035817148e-07 -0.49877636367451206 0.059480432569937902 2.1277235373785239e-07 -0.43290447436461477 -2.1848859437648914e-11 -9.2888045704110159e-07 -0.43975303168416657 0.059480432569937916 2.1277235373785268e-07 -0.43290447436461477 -1.5554676516509009e-11 -1.0028614347229092e-06 -0.5859855309717471 0.053044001282407813 -1.473779275010279e-06 -0.47999852865706527 -1.5554677163493171e-11 -1.0028614347229092e-06 -0.5859855309717471 -3.7268505091579953e-10 1.499188803581715e-07 -0.49877636367451206 0.07547114566758277 -1.1361172431739717e-06 -0.66003900062289311 0.059480432569937923 2.127723537378526e-07 -0.43290447436461477 0.052460773050669887 -7.6931630707281297e-08 -0.74521234987357465 -1.5554657858090446e-11 -1.0028614347229088e-06 -0.5859855309717471 -3.7268505091579953e-10 1.499188803581715e-07 -0.49877636367451206 0.07547114566758277 -1.1361172431739723e-06 -0.66003900062289311 -1.5554677163493171e-11 -1.0028614347229092e-06 -0.5859855309717471 0.05948043256993793 2.1277235373785252e-07 -0.43290447436461477 0.07547114566758277 -1.1361172431739723e-06 -0.66003900062289311 0.05304400128240782 -1.4737792750102795e-06 -0.47999852865706522 0.052460773050669887 -7.6931630707281297e-08 -0.74521234987357465 -3.7268505091579953e-10 1.499188803581715e-07 -0.49877636367451206 -1.5554679008418896e-11 -1.0028614347229088e-06 -0.5859855309717471 2.9485353812167106e-10 -2.5256375020545327e-07 -0.64620317211056821 -1.4585367286363469e-10 -2.2121075607181428e-06 -0.66597982631875408 -1.5554677163493171e-11 -1.0028614347229092e-06 -0.5859855309717471 0.07547114566758277 -1.1361172431739721e-06 -0.660039000622893 0.053044001282407813 -1.473779275010279e-06 -0.47999852865706527 -1.5554677163493171e-11 -1.0028614347229092e-06 -0.5859855309717471 8.3408337532221282e-11 -9.0016776928338276e-07 -0.77596925988323873 0.07547114566758277 -1.1361172431739723e-06 -0.66003900062289311 0.052460773050669887 -7.6931630707281681e-08 -0.74521234987357465 -1.4585367286363469e-10 -2.2121075607181428e-06 -0.66597982631875408 -1.5554677163493171e-11 -1.0028614347229092e-06 -0.5859855309717471 8.3408338857820503e-11 -9.0016776928338276e-07 -0.77596925988323873 0.07547114566758277 -1.1361172431739723e-06 -0.66003900062289311 -2.1848859437648914e-11 -9.2888045704110159e-07 -0.43975303168416657 -3.7268505091579953e-10 1.499188803581715e-07 -0.49877636367451206 -1.5554677163493171e-11 -1.0028614347229092e-06 -0.5859855309717471 0.059480432569937923 2.127723537378526e-07 -0.43290447436461477 -1.5554677163493171e-11 -1.0028614347229092e-06 -0.5859855309717471 2.9485353898759325e-10 -2.5256375020545327e-07 -0.64620317211056821 8.3408339843206943e-11 -9.0016776928338287e-07 -0.77596925988323873 0.052460773050669859 -7.6931630707281006e-08 -0.74521234987357454 -1.5554677163493171e-11 -1.0028614347229092e-06 -0.5859855309717471 -2.7418872951852866e-10 -2.1417306421090709e-06 -0.48922894944262169 -2.1848860380612036e-11 -9.2888045704110159e-07 -0.43975303168416657 0.053044001282407827 -1.473779275010279e-06 -0.47999852865706527 -1.4585367286363469e-10 -2.2121075607181428e-06 -0.66597982631875408 0.035163553928987026 -2.099771364040138e-06 -0.8193497022501135 0.04519414445947148 -2.7290123177601237e-06 -0.65622313992856252 0.07547114566758277 -1.1361172431739723e-06 -0.66003900062289311 -1.4585367286363469e-10 -2.2121075607181428e-06 -0.66597982631875408 0.07547114566758277 -1.1361172431739723e-06 -0.66003900062289311 0.04519414445947148 -2.7290123177601237e-06 -0.65622313992856229 0.053044001282407813 -1.473779275010279e-06 -0.47999852865706527 -1.4585367286363469e-10 -2.2121075607181428e-06 -0.66597982631875408 0.045194144459471473 -2.7290123177601241e-06 -0.6562231399285624 -2.7418872951852866e-10 -2.1417306421090709e-06 -0.48922894944262169 0.053044001282407813 -1.473779275010279e-06 -0.47999852865706527 -1.4585367286363469e-10 -2.2121075607181428e-06 -0.66597982631875408 -2.7418872951852866e-10 -2.1417306421090709e-06 -0.48922894944262169 -1.5554678833136051e-11 -1.0028614347229092e-06 -0.5859855309717471 0.053044001282407813 -1.473779275010279e-06 -0.47999852865706527 2.7986771046640984e-10 -2.9794787561896791e-06 -0.76790817923971855 1.141662774599332e-10 -3.5150637356469874e-06 -0.57593611146276169 -1.4585367286363469e-10 -2.2121075607181428e-06 -0.66597982631875408 0.04519414445947148 -2.7290123177601241e-06 -0.6562231399285624 1.141662774599332e-10 -3.5150637356469874e-06 -0.57593611146276169 -1.4585367286363469e-10 -2.2121075607181428e-06 -0.66597982631875408 0.04519414445947148 -2.7290123177601241e-06 -0.6562231399285624 -2.7418872951852866e-10 -2.1417306421090709e-06 -0.48922894944262169 0.04519414445947148 -2.7290123177601241e-06 -0.6562231399285624 0.039312789037337051 -2.5911718039848979e-06 -0.46907100880786001 1.141662774599332e-10 -3.5150637356469874e-06 -0.57593611146276169 -2.7418872951852866e-10 -2.1417306421090709e-06 -0.48922894944262169 0.04519414445947148 -2.7290123177601241e-06 -0.6562231399285624 0.074516038201028659 -2.2250054324116979e-06 -0.52007657366701054 0.039312789037337051 -2.5911718039848979e-06 -0.46907100880786001 0.053044001282407813 -1.473779275010279e-06 -0.47999852865706527 -2.7418872951852866e-10 -2.1417306421090709e-06 -0.48922894944262169 0.045194144459471473 -2.7290123177601241e-06 -0.6562231399285624 0.039312789037337051 -2.5911718039848979e-06 -0.46907100880786001 0.05304400128240782 -1.4737792750102786e-06 -0.47999852865706522 0.072228885703928866 -2.6261791304368588e-06 -0.79738903225025148 0.095135514260194037 -3.0276249269617657e-06 -0.64384443502238387 0.04519414445947148 -2.7290123177601241e-06 -0.6562231399285624 0.07547114566758277 -1.1361172431739723e-06 -0.66003900062289311 0.074516038201028659 -2.2250054324116979e-06 -0.52007657366701054 0.075471145667582784 -1.1361172431739725e-06 -0.66003900062289322 0.12024199134127966 -1.4241527310358041e-06 -0.50767184565359724 0.053044001282407813 -1.4737792750102788e-06 -0.47999852865706522 0.095135514260194037 -3.0276249269617657e-06 -0.64384443502238387 0.074516038201028659 -2.2250054324116979e-06 -0.52007657366701054 0.075471145667582756 -1.1361172431739719e-06 -0.660039000622893 0.12024199134127968 -1.4241527310358035e-06 -0.50767184565359702 0.095135514260194037 -3.0276249269617657e-06 -0.64384443502238387 0.07547114566758277 -1.1361172431739723e-06 -0.66003900062289311 0.072228885703928866 -2.6261791304368588e-06 -0.79738903225025148 0.12027841551673113 -1.8631018964062494e-06 -0.7495490215874987 0.04519414445947148 -2.7290123177601241e-06 -0.6562231399285624 0.07547114566758277 -1.1361172431739719e-06 -0.66003900062289311 0.074516038201028659 -2.2250054324116979e-06 -0.52007657366701054 0.053044001282407813 -1.473779275010279e-06 -0.47999852865706527 0.14412831669131027 -3.197837494162352e-06 -0.64845095661436625 0.12024199134127968 -1.4241527310358041e-06 -0.50767184565359702 0.095135514260194037 -3.0276249269617657e-06 -0.64384443502238387 0.12027841551673113 -1.8631018964062494e-06 -0.7495490215874987 0.074516038201028659 -2.2250054324116979e-06 -0.52007657366701054 0.045194144459471487 -2.7290123177601241e-06 -0.6562231399285624 0.095135514260194037 -3.0276249269617657e-06 -0.64384443502238387 0.07547114566758277 -1.1361172431739723e-06 -0.66003900062289311 0.095135514260194037 -3.0276249269617657e-06 -0.64384443502238387 0.12024199134127968 -1.4241527310358037e-06 -0.50767184565359713 0.07547114566758277 -1.1361172431739719e-06 -0.660039000622893 0.12027841551673113 -1.8631018964062494e-06 -0.7495490215874987 0.095135514260194037 -3.0276249269617657e-06 -0.64384443502238387 0.14412831669131027 -3.197837494162352e-06 -0.64845095661436625 0.12006338864591225 -2.7580753009100438e-06 -0.46113460850465182 0.12024199134127968 -1.4241527310358039e-06 -0.50767184565359713 0.095135514260194037 -3.0276249269617657e-06 -0.64384443502238387 0.12006338864591225 -2.7580753009100438e-06 -0.46113460850465182 0.074516038201028659 -2.2250054324116979e-06 -0.52007657366701054 0.12024199134127969 -1.4241527310358039e-06 -0.50767184565359724 0.1196839973475676 -2.856714634416836e-06 -0.79455935799695221 0.14412831669131027 -3.197837494162352e-06 -0.64845095661436625 0.095135514260194037 -3.0276249269617657e-06 -0.64384443502238387 0.12027841551673113 -1.8631018964062494e-06 -0.7495490215874987 0.072228885703928866 -2.6261791304368588e-06 -0.79738903225025148 0.035169653314061147 -1.6535988674894006e-06 -0.95988392347124118 0.075928034555551832 -1.5871987122484507e-06 -0.9598949240361786 0.07547114566758277 -1.1361172431739723e-06 -0.66003900062289311 0.072228885703928866 -2.6261791304368588e-06 -0.79738903225025148 0.07547114566758277 -1.1361172431739723e-06 -0.66003900062289311 0.075928034555551818 -1.5871987122484507e-06 -0.9598949240361786 0.1202784155167311 -1.8631018964062494e-06 -0.7495490215874987 0.072228885703928866 -2.6261791304368588e-06 -0.79738903225025148 0.075928034555551832 -1.5871987122484507e-06 -0.9598949240361786 0.1196839973475676 -2.856714634416836e-06 -0.79455935799695221 0.12027841551673113 -1.8631018964062498e-06 -0.7495490215874987 0.095135514260194037 -3.0276249269617657e-06 -0.64384443502238387 0.072228885703928866 -2.6261791304368588e-06 -0.79738903225025148 0.1196839973475676 -2.856714634416836e-06 -0.79455935799695221 0.12027841551673113 -1.8631018964062494e-06 -0.7495490215874987 0.075928034555551832 -1.5871987122484507e-06 -0.9598949240361786 0.096076548540990597 -3.3420571322644395e-06 -0.95990213971501981 0.1196839973475676 -2.856714634416836e-06 -0.79455935799695221 0.12241276380157108 -1.8944943973775799e-06 -0.95991509313937362 0.096076548540990597 -3.3420571322644395e-06 -0.95990213971501981 0.1196839973475676 -2.856714634416836e-06 -0.79455935799695221 0.072228885703928866 -2.6261791304368588e-06 -0.79738903225025148 0.075928034555551832 -1.5871987122484507e-06 -0.9598949240361786 0.075928034555551832 -1.5871987122484507e-06 -0.9598949240361786 0.12241276380157108 -1.8944943973775799e-06 -0.95991509313937362 0.1196839973475676 -2.856714634416836e-06 -0.79455935799695221 0.12027841551673113 -1.8631018964062496e-06 -0.7495490215874987 0.11003403439431582 -8.3906931545362935e-07 -0.95990841378067904 0.12241276380157108 -1.8944943973775799e-06 -0.95991509313937362 0.075928034555551832 -1.5871987122484507e-06 -0.9598949240361786 0.12027841551673113 -1.8631018964062494e-06 -0.7495490215874987 0.096076548540990597 -3.3420571322644395e-06 -0.95990213971501981 0.072228885703928866 -2.6261791304368588e-06 -0.79738903225025148 0.048041002743979669 -2.6175552839806319e-06 -0.9598863773541787 0.075928034555551832 -1.5871987122484507e-06 -0.9598949240361786 3.6476129949648161e-10 -1.89919696504011e-06 -0.81934592577086329 -1.4585367078260696e-10 -2.2121075607181423e-06 -0.66597982631875396 8.3408337532221282e-11 -9.0016776928338276e-07 -0.77596925988323873 0.075471145667582784 -1.1361172431739721e-06 -0.660039000622893 0.040666378088400408 -9.2803662013600269e-07 -0.95988497508988158 0.075928034555551832 -1.5871987122484507e-06 -0.95989492403617849 0.035169653314061147 -1.6535988674894006e-06 -0.95988392347124118 0.07547114566758277 -1.1361172431739723e-06 -0.66003900062289311 0.035169653314061147 -1.6535988674894006e-06 -0.95988392347124118 0.048041002743979662 -2.6175552839806319e-06 -0.9598863773541787 0.035163553928987019 -2.0997713640401376e-06 -0.8193497022501135 0.072228885703928866 -2.6261791304368588e-06 -0.79738903225025148 0.035169653314061147 -1.6535988674894006e-06 -0.95988392347124118 0.07222888570392888 -2.6261791304368592e-06 -0.79738903225025137 0.035163553928987019 -2.0997713640401376e-06 -0.8193497022501135 0.075471145667582798 -1.1361172431739729e-06 -0.66003900062289322 0.035169653314061147 -1.6535988674894006e-06 -0.95988392347124118 0.048041002743979669 -2.6175552839806319e-06 -0.9598863773541787 0.072228885703928866 -2.6261791304368588e-06 -0.79738903225025148 0.075928034555551832 -1.5871987122484507e-06 -0.9598949240361786 0.04519414445947148 -2.7290123177601241e-06 -0.6562231399285624 0.035163553928987019 -2.0997713640401376e-06 -0.8193497022501135 0.072228885703928866 -2.6261791304368588e-06 -0.79738903225025148 0.07547114566758277 -1.1361172431739717e-06 -0.66003900062289311 3.6476129949648161e-10 -1.89919696504011e-06 -0.81934592577086329 0.040666378088400394 -9.2803662013600237e-07 -0.95988497508988158 0.035169653314061147 -1.6535988674894008e-06 -0.95988392347124118 0.075471145667582784 -1.1361172431739721e-06 -0.660039000622893 0.035169653314061147 -1.6535988674894006e-06 -0.95988392347124118 0.035163553928987019 -2.0997713640401376e-06 -0.8193497022501135 3.6476129949648161e-10 -1.89919696504011e-06 -0.81934592577086329 0.07547114566758277 -1.1361172431739723e-06 -0.66003900062289311 -1.4585367286363469e-10 -2.2121075607181428e-06 -0.66597982631875408 3.6476129949648161e-10 -1.89919696504011e-06 -0.81934592577086329 0.035163553928987019 -2.0997713640401376e-06 -0.8193497022501135 0.075471145667582756 -1.1361172431739723e-06 -0.660039000622893 1.3608038976156807e-09 -1.4383968970562391e-06 -0.95988136236309207 8.3408337532221282e-11 -9.0016776928338276e-07 -0.77596925988323873 0.040666378088400408 -9.2803662013600269e-07 -0.95988497508988158 3.6476129949648161e-10 -1.89919696504011e-06 -0.81934592577086329 0.035169653314061147 -1.6535988674894006e-06 -0.95988392347124118 1.3608038961210268e-09 -1.4383968970562389e-06 -0.95988136236309196 0.040666378088400408 -9.2803662013600269e-07 -0.95988497508988158 3.6476129949648161e-10 -1.89919696504011e-06 -0.81934592577086329 -1.4585367286363469e-10 -2.2121075607181428e-06 -0.66597982631875408 0.035163553928987026 -2.099771364040138e-06 -0.8193497022501135 2.7986771046640984e-10 -2.9794787561896791e-06 -0.76790817923971855 0.04519414445947148 -2.7290123177601233e-06 -0.65622313992856252 3.6476129949648161e-10 -1.89919696504011e-06 -0.81934592577086329 0.035163553928987026 -2.0997713640401372e-06 -0.81934970225011361 2.7986771046640984e-10 -2.9794787561896791e-06 -0.76790817923971855 -1.4585367286363469e-10 -2.2121075607181428e-06 -0.66597982631875408 9.4994069903257086e-10 -2.824398383161155e-06 -0.95987974415803157 1.3608038976156809e-09 -1.4383968970562391e-06 -0.95988136236309207 0.035169653314061147 -1.6535988674894006e-06 -0.95988392347124118 3.6476129949648161e-10 -1.89919696504011e-06 -0.81934592577086329 0.035163553928987019 -2.0997713640401376e-06 -0.8193497022501135 2.7986771020403642e-10 -2.9794787561896791e-06 -0.76790817923971855 9.4994069903257086e-10 -2.824398383161155e-06 -0.95987974415803157 3.6476129949648161e-10 -1.89919696504011e-06 -0.81934592577086329 9.4994069903257086e-10 -2.824398383161155e-06 -0.95987974415803157 0.035169653314061147 -1.6535988674894006e-06 -0.9598839234712413 0.048041002743979669 -2.6175552839806319e-06 -0.9598863773541787 0.035163553928987019 -2.0997713640401376e-06 -0.8193497022501135 0.035163553928987019 -2.0997713640401376e-06 -0.8193497022501135 9.4994069903257086e-10 -2.824398383161155e-06 -0.95987974415803157 0.035169653314061147 -1.6535988674894006e-06 -0.95988392347124118 3.6476129949648161e-10 -1.89919696504011e-06 -0.81934592577086329 
</DataArray>
</PointData>
<CellData Scalars="" Vectors="" Tensors="stress,">
<DataArray type="Float64" Name="stress" NumberOfComponents="9" format="ascii">
0.00017226518158380832 1.344690705792155e-07 -4.4271652516316062e-06 1.344690705792155e-07 -0.19992749763414083 -5.7379533481572395e-06 -4.4271652516316062e-06 -5.7379533481572395e-06 -0.99982866714879681 0.00018614202284206183 1.3384616914055569e-06 8.189364063293976e-06 1.3384616914055569e-06 -0.19992250285592134 3.754388548374693e-06 8.189364063293976e-06 3.754388548374693e-06 -0.99981391729430746 0.0001819068222222997 1.7060743745824403e-06 8.6286852709669781e-07 1.7060743745824403e-06 -0.19991848878363608 1.4593156194041598e-05 8.6286852709669781e-07 1.4593156194041598e-05 -0.99981215387487754 0.00018664720513709201 1.8705695876225729e-06 4.2198073468835418e-07 1.8705695876225729e-06 -0.19991970518623561 3.6601961714736243e-06 4.2198073468835418e-07 3.6601961714736243e-06 -0.99981617979571502 0.00018408375351430806 -1.7587495215108618e-07 -3.6276975836635472e-06 -1.7587495215108618e-07 -0.19992041359659174 -4.1071580619972403e-06 -3.6276975836635472e-06 -4.1071580619972403e-06 -0.99982186828119746 0.00017600640193216055 -1.1747419512824241e-06 -5.7465531848599483e-06 -1.1747419512824241e-06 -0.19992323067996015 -7.7472763493346974e-07 -5.7465531848599483e-06 -7.7472763493346974e-07 -0.99982748868312044 0.00018362870740004644 8.6549852544518999e-07 3.7796467397266387e-06 8.6549852544518999e-07 -0.19992440380702037 7.8579237003939539e-06 3.7796467397266387e-06 7.8579237003939539e-06 -0.9998255836063854 0.00017301452723936239 -1.4637080771778058e-06 -5.5970797467608246e-06 -1.4637080771778058e-06 -0.19992877433451592 3.5915550223308834e-06 -5.5970797467608246e-06 3.5915550223308834e-06 -0.99983931927500425 0.00018045064567331903 -3.0341244265455885e-07 -1.2368149717723043e-06 -3.0341244265455885e-07 -0.19992438606780086 -2.8725280222033356e-06 -1.2368149717723043e-06 -2.8725280222033356e-06 -0.99983744606018365 0.00017868474878698914 2.0537004554413592e-08 -2.3553462838166173e-06 2.0537004554413592e-08 -0.19993016572192501 1.3139525309457945e-06 -2.3553462838166173e-06 1.3139525309457945e-06 -0.99984192558429519 0.00018131975325999874 2.9359130302294288e-07 -2.7148596873360908e-06 2.9359130302294288e-07 -0.19992501879643779 -2.6792693956223523e-06 -2.7148596873360908e-06 -2.6792693956223523e-06 -0.9998280000501657 0.0001842871846993166 1.5701806373783406e-06 -1.0148455459324524e-07 1.5701806373783406e-06 -0.19992428737055112 1.0119857368762197e-07 -1.0148455459324524e-07 1.0119857368762197e-07 -0.99982826187151985 0.00018699068673100339 3.7119790142437436e-07 -1.7680340940184891e-06 3.7119790142437436e-07 -0.19992190855270209 1.7912986393087138e-06 -1.7680340940184891e-06 1.7912986393087138e-06 -0.9998249714690699 0.00018556836436979529 1.8251023703024755e-06 5.9995928249345631e-06 1.8251023703024755e-06 -0.1999204183837574 -1.7418351356823791e-06 5.9995928249345631e-06 -1.7418351356823791e-06 -0.99981887071346809 0.00018588569298554585 9.2735591649092629e-07 4.8137723647381906e-06 9.2735591649092629e-07 -0.19992223266714276 -4.9776099015374871e-06 4.8137723647381906e-06 -4.9776099015374871e-06 -0.99981350353047238 0.00017516893039684091 1.0323071118406721e-06 -6.9687748744021156e-06 1.0323071118406721e-06 -0.1999207111219595 9.7760071366290809e-06 -6.9687748744021156e-06 9.7760071366290809e-06 -0.99981711889208458 0.00017751223960434104 -3.2883195900869789e-07 -6.0392942782261372e-06 -3.2883195900869789e-07 -0.19992235506018399 1.1560375921593202e-05 -6.0392942782261372e-06 1.1560375921593202e-05 -0.99981958323045617 0.00017204017051180505 2.2050992344155957e-06 -2.5574168816125869e-06 2.2050992344155957e-06 -0.19992423669541209 6.6160052822158801e-06 -2.5574168816125869e-06 6.6160052822158801e-06 -0.99982466967400752 0.00017060312153019397 4.043597748640801e-08 -6.406984865883758e-06 4.043597748640801e-08 -0.19992744758546369 1.8117644057236149e-06 -6.406984865883758e-06 1.8117644057236149e-06 -0.99983670537178382 0.00015545354882299991 -6.2073426232506523e-07 -4.9396030227799592e-06 -6.2073426232506523e-07 -0.19993123903342819 1.8167012036805937e-06 -4.9396030227799592e-06 1.8167012036805937e-06 -0.99984046244637048 0.00014817474138006936 2.768129755625978e-06 4.4415211084766759e-06 2.768129755625978e-06 -0.19993824272425831 2.7699835905559134e-06 4.4415211084766759e-06 2.7699835905559134e-06 -0.99986148423006327 0.00014754450584469891 1.8199013148994031e-06 4.8993592345446034e-06 1.8199013148994031e-06 -0.19993869610276671 4.7655710311287602e-06 4.8993592345446034e-06 4.7655710311287602e-06 -0.99986270247792242 0.00015301453786814139 -1.8959533963175146e-07 1.4416292395081331e-06 -1.8959533963175146e-07 -0.19993074408080846 1.0302951903764336e-05 1.4416292395081331e-06 1.0302951903764336e-05 -0.99983995665093084 0.00015127960179783795 -1.409913287639334e-06 -4.3573392892182206e-06 -1.409913287639334e-06 -0.19992907930856013 7.3967498686710651e-06 -4.3573392892182206e-06 7.3967498686710651e-06 -0.99982783524502794 0.00014792032914107134 1.7039779806218639e-06 -3.6247717256354672e-06 1.7039779806218639e-06 -0.19993571922936354 8.0011553527103985e-07 -3.6247717256354672e-06 8.0011553527103985e-07 -0.99984996566881801 0.00014946415774041988 1.7979315173884299e-06 -2.6730126472668259e-06 1.7979315173884299e-06 -0.19993493435843002 4.2681762674190438e-07 -2.6730126472668259e-06 4.2681762674190438e-07 -0.999843929423605 0.00016981147028714144 -1.7615009164908576e-06 -1.1541629705846823e-05 -1.7615009164908576e-06 -0.19992899745219364 -7.7507783857733159e-07 -1.1541629705846823e-05 -7.7507783857733159e-07 -0.99983228223161202 0.00017546137080426405 7.8950281349278234e-07 -6.6483164355979341e-06 7.8950281349278234e-07 -0.19992565029563031 1.383353259193365e-06 -6.6483164355979341e-06 1.383353259193365e-06 -0.99982753173305761 0.00016867930895547723 -6.9743296268939611e-08 -1.450050366669231e-05 -6.9743296268939611e-08 -0.1999295890258122 -1.0990299043056595e-07 -1.450050366669231e-05 -1.0990299043056595e-07 -0.99983924350359776 0.00015043906342640523 4.5314409622641638e-07 -8.9780046939880176e-06 4.5314409622641638e-07 -0.19993440271170224 1.8449855053170872e-06 -8.9780046939880176e-06 1.8449855053170872e-06 -0.99985702345971739 0.00015610628561027462 -2.1717234075250221e-07 -5.6945835646415865e-06 -2.1717234075250221e-07 -0.19993494042947765 -4.3318334164155203e-07 -5.6945835646415865e-06 -4.3318334164155203e-07 -0.99985530614897555 0.00017547389359523491 2.2119303815708569e-07 -6.3648571256846864e-06 2.2119303815708569e-07 -0.19992602706524221 1.7792735462762721e-06 -6.3648571256846864e-06 1.7792735462762721e-06 -0.99983141672524867 0.00015674566024411266 -7.0447101953591923e-07 -3.9304305695653241e-06 -7.0447101953591923e-07 -0.1999307824281619 1.8493139158099609e-06 -3.9304305695653241e-06 1.8493139158099609e-06 -0.99983626515288371 0.00015284445819933705 -2.8517690740079187e-07 -7.9140010327272137e-06 -2.8517690740079187e-07 -0.19992935918448976 5.3806043199267073e-06 -7.9140010327272137e-06 5.3806043199267073e-06 -0.99983648721787655 0.00015618154320196087 1.3461483296507466e-06 -1.1994365942680218e-05 1.3461483296507466e-06 -0.19993064661897464 -7.8785404078463017e-07 -1.1994365942680218e-05 -7.8785404078463017e-07 -0.99983535032220638 0.0001510662082677694 7.8699298464342677e-07 -8.1253025377425736e-06 7.8699298464342677e-07 -0.19993569015905355 1.4177887490696151e-06 -8.1253025377425736e-06 1.4177887490696151e-06 -0.99985331413948675 0.00018199750178471419 1.0354943915774759e-06 -6.7663909699700042e-06 1.0354943915774759e-06 -0.19992478409663272 1.1581216925460325e-06 -6.7663909699700042e-06 1.1581216925460325e-06 -0.99982822919702752 0.00017794411143284838 1.4580353285569509e-06 -8.5144622584687468e-06 1.4580353285569509e-06 -0.19992421292768087 8.3919859172887357e-08 -8.5144622584687468e-06 8.3919859172887357e-08 -0.99982263589472198 0.00018422480763006371 -9.1387164206084988e-07 -4.5631728166628527e-06 -9.1387164206084988e-07 -0.1999227574003111 -9.7154018452449975e-07 -4.5631728166628527e-06 -9.7154018452449975e-07 -0.99982403853211854 0.00018845686289745145 1.1972911508654024e-08 -3.3602547552247231e-06 1.1972911508654024e-08 -0.19992122423353501 -1.2398051328910142e-06 -3.3602547552247231e-06 -1.2398051328910142e-06 -0.99981957168530411 0.00018496919952626367 -1.08781105833821e-06 -1.2625078952901991e-06 -1.08781105833821e-06 -0.19992225199998404 -8.3306539527816525e-07 -1.2625078952901991e-06 -8.3306539527816525e-07 -0.99982213992854274 0.00019644779718264171 1.7918537094698206e-06 -4.1056445931886287e-06 1.7918537094698206e-06 -0.19991554146298052 1.0158343721755614e-07 -4.1056445931886287e-06 1.0158343721755614e-07 -0.99981087113646705 0.00019207471055560088 2.1968158204356232e-06 -8.2521696354032059e-07 2.1968158204356232e-06 -0.19991751659637608 1.0455273657949959e-06 -8.2521696354032059e-07 1.0455273657949959e-06 -0.9998179257608204 0.00019566527475556317 1.6649036593152413e-06 -3.5556535380454335e-06 1.6649036593152413e-06 -0.19991664183006119 1.0219980281500618e-06 -3.5556535380454335e-06 1.0219980281500618e-06 -0.99981368800972503 0.00018854250854299925 7.3590570065082194e-07 -2.9186491368182743e-06 7.3590570065082194e-07 -0.19991959599902492 -2.6684333770399249e-08 -2.9186491368182743e-06 -2.6684333770399249e-08 -0.99981952851449885 0.00019369147865291869 2.9917698186775038e-07 -6.3181324330141564e-06 2.9917698186775038e-07 -0.19991966783374532 -1.7804698621004533e-06 -6.3181324330141564e-06 -1.7804698621004533e-06 -0.99981552811266639 0.000194282489148212 3.8199261834073384e-07 -6.3341930421900727e-06 3.8199261834073384e-07 -0.19991630627861068 -1.3424105591575142e-06 -6.3341930421900727e-06 -1.3424105591575142e-06 -0.99981465261363001 0.00018507873946782549 -2.4828008920509791e-08 -4.5947365712173394e-06 -2.4828008920509791e-08 -0.1999201817675994 -1.9591157550680194e-06 -4.5947365712173394e-06 -1.9591157550680194e-06 -0.99981712564451719 0.0001897738429949003 1.2829251794124309e-07 -6.3838844405195161e-07 1.2829251794124309e-07 -0.1999208452137472 -6.6446992674773497e-07 -6.3838844405195161e-07 -6.6446992674773497e-07 -0.99982183840365746 0.00018525176235939522 4.7461514247793469e-09 -4.5831255716666242e-06 4.7461514247793469e-09 -0.19992011013623778 -1.1762290520606067e-06 -4.5831255716666242e-06 -1.1762290520606067e-06 -0.99981633223878674 0.00018475694543823584 1.8055188480322468e-06 -2.6497856978960344e-06 1.8055188480322468e-06 -0.19992253710623903 6.3510066372618468e-08 -2.6497856978960344e-06 6.3510066372618468e-08 -0.99982345010735973 0.00018656637386504915 2.0750100529609602e-06 -3.3059574068572406e-06 2.0750100529609602e-06 -0.19992052614378758 -1.8310276305166795e-06 -3.3059574068572406e-06 -1.8310276305166795e-06 -0.99981695359966261 0.00018429416721227332 5.0292209504229837e-07 -4.5701348699300759e-06 5.0292209504229837e-07 -0.1999226361910538 3.3115188119436922e-07 -4.5701348699300759e-06 3.3115188119436922e-07 -0.99982047265581209 0.00018782021117447201 -3.3700501020587686e-06 -2.5271620206490653e-06 -3.3700501020587686e-06 -0.19992030144356265 8.4150431611806908e-07 -2.5271620206490653e-06 8.4150431611806908e-07 -0.99982005280165342 0.00019284026547039534 -1.2558198609994814e-07 -7.4599784873896624e-06 -1.2558198609994814e-07 -0.19991768980756369 1.4751337830132272e-06 -7.4599784873896624e-06 1.4751337830132272e-06 -0.9998099201715831 0.00015289008775221102 -8.9290233447882556e-07 -4.3010274571320117e-06 -8.9290233447882556e-07 -0.1999351496345767 -2.3481432751687459e-07 -4.3010274571320117e-06 -2.3481432751687459e-07 -0.9998571357193704 0.0001601924550727607 -1.9491414441144783e-06 -3.0642558392912633e-06 -1.9491414441144783e-06 -0.19992859447424932 -6.027183769852229e-07 -3.0642558392912633e-06 -6.027183769852229e-07 -0.99982903416928015 0.00015417204878653834 -1.6356635223621039e-06 -4.9713577252030738e-06 -1.6356635223621039e-06 -0.19993371159673301 5.0569541043543609e-07 -4.9713577252030738e-06 5.0569541043543609e-07 -0.9998557502628822 0.00016419222043795312 -9.6875644730605633e-07 -1.2348902887759916e-05 -9.6875644730605633e-07 -0.19992999516144605 8.9904063971246728e-08 -1.2348902887759916e-05 8.9904063971246728e-08 -0.99984238760478639 0.00015841244604503091 -3.3130111833653214e-06 -7.9083247769562437e-06 -3.3130111833653214e-06 -0.19993452673049772 4.289253020761663e-06 -7.9083247769562437e-06 4.289253020761663e-06 -0.99985719427921316 0.00016868026343397347 1.2779360565756635e-07 -1.4294260904601508e-05 1.2779360565756635e-07 -0.19992864311802164 -5.9144398734112258e-07 -1.4294260904601508e-05 -5.9144398734112258e-07 -0.99983974261779185 0.00015099363866356852 3.3738666312699581e-07 4.828569214576639e-06 3.3738666312699581e-07 -0.19993500401133252 -1.4262632739459047e-05 4.828569214576639e-06 -1.4262632739459047e-05 -0.99984405520119024 0.00016089299893692899 1.9878275959192053e-07 -6.8349532565958881e-06 1.9878275959192053e-07 -0.19992784867184493 -1.4340476636749006e-06 -6.8349532565958881e-06 -1.4340476636749006e-06 -0.99983385487164855 0.00014878190259558222 -1.5717857559464492e-06 -9.5711531244990766e-06 -1.5717857559464492e-06 -0.19993579714364562 -3.5121899555345948e-08 -9.5711531244990766e-06 -3.5121899555345948e-08 -0.99986156572779006 0.00015506955130051292 1.5304325185444317e-06 1.2312525381534728e-05 1.5304325185444317e-06 -0.1999315171152784 -3.3601678639764033e-06 1.2312525381534728e-05 -3.3601678639764033e-06 -0.99983485699289942 0.0001734186350326461 -6.5191261386912552e-08 -3.1445822111231259e-06 -6.5191261386912552e-08 -0.19992575092085413 -4.8636224359022151e-07 -3.1445822111231259e-06 -4.8636224359022151e-07 -0.99983028676282126 0.00015317095437698824 -3.6486502479414957e-07 -1.0931142017112094e-06 -3.6486502479414957e-07 -0.19993174782975487 1.1957612628565872e-05 -1.0931142017112094e-06 1.1957612628565872e-05 -0.99985110639889552 0.0001591189829609832 -3.0926369858072737e-06 -5.5133372771631883e-06 -3.0926369858072737e-06 -0.19992956993004157 -1.2371230504459874e-06 -5.5133372771631883e-06 -1.2371230504459874e-06 -0.99983453934383548 0.00017213585585534874 6.4370793539450979e-07 -1.929768970952162e-06 6.4370793539450979e-07 -0.19992744257820275 -2.4628390720234414e-06 -1.929768970952162e-06 -2.4628390720234414e-06 -0.99983191028845453 0.00015119559737580834 8.6971417960909016e-07 3.7410653079735103e-06 8.6971417960909016e-07 -0.19993340020978445 -1.7174638385349942e-06 3.7410653079735103e-06 -1.7174638385349942e-06 -0.99985211759380166 0.00014994935682494104 1.5078685196625272e-06 7.943901783322117e-06 1.5078685196625272e-06 -0.19993540036952423 -9.4175943980935824e-06 7.943901783322117e-06 -9.4175943980935824e-06 -0.99985416663108162 0.00018112002082218415 -1.0909885455673586e-06 -2.0044853690781572e-06 -1.0909885455673586e-06 -0.1999259676366561 -6.0475662775685834e-06 -2.0044853690781572e-06 -6.0475662775685834e-06 -0.99983106011626688 0.00018123127179638793 9.7451826592598883e-08 -2.237586478973444e-06 9.7451826592598883e-08 -0.19992476417982694 4.1499571912240185e-07 -2.237586478973444e-06 4.1499571912240185e-07 -0.99983126894215646 0.00018411114884006596 1.7244130750907689e-07 1.8864505829663258e-07 1.7244130750907689e-07 -0.19992235222120863 -2.2701904371482187e-06 1.8864505829663258e-07 -2.2701904371482187e-06 -0.99982658132696478 0.00017408008976199651 -3.2633957862230997e-08 -2.376625003324918e-06 -3.2633957862230997e-08 -0.19992445339355752 -2.1576717114907477e-06 -2.376625003324918e-06 -2.1576717114907477e-06 -0.9998271037377402 0.00018579948284967314 7.2900059053560429e-07 4.3980609847318934e-06 7.2900059053560429e-07 -0.19991961653261606 -5.3720285518127106e-06 4.3980609847318934e-06 -5.3720285518127106e-06 -0.99981335638721291 0.00018689775217273219 1.2179528564143644e-07 7.0811985899949011e-06 1.2179528564143644e-07 -0.1999205894219086 -1.4023858745937368e-06 7.0811985899949011e-06 -1.4023858745937368e-06 -0.99980689168836656 0.00018354007707044317 -1.3682435125136771e-07 2.1596008392688049e-07 -1.3682435125136771e-07 -0.19992515626780277 -1.5397772538802354e-06 2.1596008392688049e-07 -1.5397772538802354e-06 -0.9998264131517296 0.00018681785055130185 1.8514800757893718e-07 -1.3832874130037531e-06 1.8514800757893718e-07 -0.19992211489525741 -2.9736137477053004e-06 -1.3832874130037531e-06 -2.9736137477053004e-06 -0.99981473043150149 0.00018683811979036024 1.8872739943882502e-08 4.4913066542163579e-06 1.8872739943882502e-08 -0.19991594340635915 2.4587782063400151e-06 4.4913066542163579e-06 2.4587782063400151e-06 -0.99981319590570294 0.0001876649494128323 8.8097911931771631e-07 7.2375654329634703e-06 8.8097911931771631e-07 -0.19991768094089218 -1.684463469964226e-06 7.2375654329634703e-06 -1.684463469964226e-06 -0.99980665272625546 0.00018785507909852006 7.9207048679852124e-07 -2.3656592637311125e-06 7.9207048679852124e-07 -0.19992117526279535 1.513206209113882e-06 -2.3656592637311125e-06 1.513206209113882e-06 -0.99981558865722397 0.00018398455536941527 8.7322724232926923e-07 -4.9149761333078246e-07 8.7322724232926923e-07 -0.19992472298855818 9.9988624630009681e-07 -4.9149761333078246e-07 9.9988624630009681e-07 -0.99982939993503694 0.00018592099285675342 -1.1437216599285424e-06 5.0080919114551146e-06 -1.1437216599285424e-06 -0.19991985702718301 1.6211260787910233e-06 5.0080919114551146e-06 1.6211260787910233e-06 -0.9998124046232626 0.00017600761082284255 3.8027126253271112e-07 -4.8113476474043182e-06 3.8027126253271112e-07 -0.1999262282386266 5.9332505569775762e-07 -4.8113476474043182e-06 5.9332505569775762e-07 -0.99982873274362349 0.00018582494215388379 -1.2096707376171934e-06 5.053769342927561e-06 -1.2096707376171934e-06 -0.1999211235249567 2.1825054813406908e-06 5.053769342927561e-06 2.1825054813406908e-06 -0.99981308539929858 0.00018431846965503653 -8.8768410000757111e-07 3.0559127809094745e-06 -8.8768410000757111e-07 -0.19992137970660342 4.7478646363286233e-06 3.0559127809094745e-06 4.7478646363286233e-06 -0.99981741997716278 0.00017423463647936455 -1.7602093501493373e-07 -3.0318899681307545e-06 -1.7602093501493373e-07 -0.19992551237692396 2.4597462834396489e-06 -3.0318899681307545e-06 2.4597462834396489e-06 -0.9998317831409651 0.00017582570321422741 -1.0118010596291229e-07 -4.5199396028597393e-06 -1.0118010596291229e-07 -0.1999244021409976 2.4249021231857192e-06 -4.5199396028597393e-06 2.4249021231857192e-06 -0.99982603124763259 0.0001834155643793689 3.5800973437174905e-07 -1.7934011753428791e-07 3.5800973437174905e-07 -0.19992304931818253 2.7111861310366581e-06 -1.7934011753428791e-07 2.7111861310366581e-06 -0.9998270576363717 0.00018888092106988941 -3.7792338519930752e-07 -1.9672610073184771e-06 -3.7792338519930752e-07 -0.19991876362174538 6.6738531512289256e-07 -1.9672610073184771e-06 6.6738531512289256e-07 -0.9998168560756544 0.00018733380910140873 1.9462158241301612e-07 -1.6810940376421613e-06 1.9462158241301612e-07 -0.1999207574248969 3.0751420487876158e-06 -1.6810940376421613e-06 3.0751420487876158e-06 -0.99981350810541203 0.00018356824167478636 1.3749410096389837e-07 3.6209846232537757e-08 1.3749410096389837e-07 -0.19992423137824947 3.1198418852240728e-06 3.6209846232537757e-08 3.1198418852240728e-06 -0.99982743530395624 0.00017673825910008434 5.1552610826165033e-06 -4.7320334570222222e-06 5.1552610826165033e-06 -0.19992417541678764 3.2213934686997625e-06 -4.7320334570222222e-06 3.2213934686997625e-06 -0.99982642310381409 0.00018683907685462797 2.4506109316339461e-07 -2.8099079177612563e-06 2.4506109316339461e-07 -0.19992348445060554 4.5915222950110302e-07 -2.8099079177612563e-06 4.5915222950110302e-07 -0.9998232395618567 0.0001878728064845514 -1.6203385066063368e-07 -3.2157694168644113e-06 -1.6203385066063368e-07 -0.19992037684135897 7.7862470889214497e-07 -3.2157694168644113e-06 7.7862470889214497e-07 -0.99982413952760807 0.00017800330170203438 1.3689065222226175e-07 -9.6781320645805691e-06 1.3689065222226175e-07 -0.19992611755678219 8.8058670860702293e-07 -9.6781320645805691e-06 8.8058670860702293e-07 -0.99983101054519508 0.00018837711308294924 1.6053093949588611e-07 -2.0075599820312817e-06 1.6053093949588611e-07 -0.19992028650095872 4.9987620898139795e-07 -2.0075599820312817e-06 4.9987620898139795e-07 -0.99980876208858405 0.00018286595418304241 -9.2077836124917084e-07 -2.2429768650744641e-07 -9.2077836124917084e-07 -0.19992195269775248 9.8259756775576079e-07 -2.2429768650744641e-07 9.8259756775576079e-07 -0.99982140006551035 0.00018337834623141647 -3.4065457430742441e-06 -2.7082521868726506e-06 -3.4065457430742441e-06 -0.19992359591226405 -4.1883118556684806e-07 -2.7082521868726506e-06 -4.1883118556684806e-07 -0.9998237292819252 0.00019269432652946339 6.8167612090884015e-08 -7.2034860769676357e-06 6.8167612090884015e-08 -0.19991943155687919 8.472722012355105e-07 -7.2034860769676357e-06 8.472722012355105e-07 -0.99980890560966884 0.00019237798873705803 1.0071015917421096e-07 -7.3127414192963869e-06 1.0071015917421096e-07 -0.19991852142522148 -9.5650806969382884e-07 -7.3127414192963869e-06 -9.5650806969382884e-07 -0.99981139792648133 0.00019299934480963843 2.0077427034579685e-09 -6.4346455675989844e-06 2.0077427034579685e-09 -0.19991702069138528 -1.7792264006555314e-07 -6.4346455675989844e-06 -1.7792264006555314e-07 -0.99980767660346892 0.00019119061367689483 1.1112130210771556e-07 -6.3223138518919697e-06 1.1112130210771556e-07 -0.19991787885873913 5.9216718784060873e-07 -6.3223138518919697e-06 5.9216718784060873e-07 -0.99981465158124472 0.00019127272493119074 -5.6018745563335456e-08 -6.0356754997270556e-06 -5.6018745563335456e-08 -0.1999188249723915 5.6080294807969722e-07 -6.0356754997270556e-06 5.6080294807969722e-07 -0.99981432036010243 0.00017837031690129401 1.4259594692682031e-07 -7.8973062654918991e-06 1.4259594692682031e-07 -0.19992377460998637 -4.5427474318349148e-07 -7.8973062654918991e-06 -4.5427474318349148e-07 -0.99982541063251784 0.00018733919251173736 -4.3113148726384014e-07 -3.2786899294701133e-06 -4.3113148726384014e-07 -0.19992225077816062 4.5723592168034344e-07 -3.2786899294701133e-06 4.5723592168034344e-07 -0.99982462165857111 0.00019146214399749784 6.3844661928832569e-07 -6.3780792803891373e-06 6.3844661928832569e-07 -0.19991975985007304 1.8091548019683046e-06 -6.3780792803891373e-06 1.8091548019683046e-06 -0.9998145778620704 0.00019151490020974382 -7.163657976107107e-09 -6.4468619269675287e-06 -7.163657976107107e-09 -0.19991704920497971 1.0788062938527077e-06 -6.4468619269675287e-06 1.0788062938527077e-06 -0.99981386459409616 0.00019487972462739478 -1.4588123138635619e-06 -3.5062192927926006e-06 -1.4588123138635619e-06 -0.19991572732095353 -1.2179485465724227e-06 -3.5062192927926006e-06 -1.2179485465724227e-06 -0.99981233088021604 0.00019171567558040614 -2.1976005425050434e-06 -1.2585122463049103e-06 -2.1976005425050434e-06 -0.19991724128691996 -5.2750891782471498e-07 -1.2585122463049103e-06 -5.2750891782471498e-07 -0.99981648895833075 0.00018735372650899654 3.1055546808849913e-07 -3.9741241297797103e-06 3.1055546808849913e-07 -0.1999212102809628 1.956737910147055e-06 -3.9741241297797103e-06 1.956737910147055e-06 -0.99981805665276424 0.00017875131646527022 6.0551744140542091e-07 -8.5415606146943546e-06 6.0551744140542091e-07 -0.19992271190238936 8.7109641333515953e-07 -8.5415606146943546e-06 8.7109641333515953e-07 -0.9998199112470465 0.00018893159647526137 -9.02913725064272e-07 -2.8718622591128451e-06 -9.02913725064272e-07 -0.19991924461605121 5.7194927416404084e-07 -2.8718622591128451e-06 5.7194927416404084e-07 -0.99981798992682847 0.00018728583227345386 -3.4776001751454879e-07 -1.7345356965736691e-06 -3.4776001751454879e-07 -0.19992200508029473 -1.5028019223484179e-06 -1.7345356965736691e-06 -1.5028019223484179e-06 -0.99982345754106283 0.00018544184495739024 -1.2184940907943443e-06 -6.3699644259340715e-07 -1.2184940907943443e-06 -0.19992358630468399 -3.6480751375300713e-07 -6.3699644259340715e-07 -3.6480751375300713e-07 -0.99982528963866757 0.00017988197375751191 -5.8259224854170635e-07 2.7994469656162468e-06 -5.8259224854170635e-07 -0.19992023187683355 -1.3471414376097875e-05 2.7994469656162468e-06 -1.3471414376097875e-05 -0.99981956455316912 0.00018710220936735134 -1.6421305841432018e-06 -3.6700529798538994e-07 -1.6421305841432018e-06 -0.19991988758275434 -3.4192468123528386e-06 -3.6700529798538994e-07 -3.4192468123528386e-06 -0.99981711328494838 0.00018132950897772893 -5.5878819883698991e-08 4.8214304955163101e-06 -5.5878819883698991e-08 -0.19992506406061905 -8.3095713433734009e-06 4.8214304955163101e-06 -8.3095713433734009e-06 -0.99982949413087163 0.00018133150947030607 -9.5844739240389408e-07 7.6120184279879099e-06 -9.5844739240389408e-07 -0.19992309716002921 -4.5365333621743103e-06 7.6120184279879099e-06 -4.5365333621743103e-06 -0.99982014091727178 0.000184837017175421 6.0713105296955887e-08 -4.667986012174552e-07 6.0713105296955887e-08 -0.19992309115583601 1.3019367349278999e-06 -4.667986012174552e-07 1.3019367349278999e-06 -0.99982936238344533 0.00017963467485015983 -1.8394367515235279e-06 4.0481322957764787e-06 -1.8394367515235279e-06 -0.19992524461493097 6.0184548380481953e-06 4.0481322957764787e-06 6.0184548380481953e-06 -0.99983020946849954 0.0001799464496715919 -5.5952374868934131e-07 1.4552166957559898e-07 -5.5952374868934131e-07 -0.19992963517994369 -2.0396325081661892e-06 1.4552166957559898e-07 -2.0396325081661892e-06 -0.99984442435770604 0.00018261740768582557 -7.6699779605441517e-07 3.225249903260341e-07 -7.6699779605441517e-07 -0.19992271666834985 7.5027186996479145e-07 3.225249903260341e-07 7.5027186996479145e-07 -0.99982458755943848 0.0001816840685331389 -9.519112273483854e-07 2.6216693183034323e-06 -9.519112273483854e-07 -0.19992603336449172 6.5597581909611347e-06 2.6216693183034323e-06 6.5597581909611347e-06 -0.99983693262589557 0.00018722818154276455 -2.726951111445412e-07 -3.330395357825644e-06 -2.726951111445412e-07 -0.19992176263500311 6.1844986354309128e-09 -3.330395357825644e-06 6.1844986354309128e-09 -0.99982256968031413 0.00018773749749850799 -2.8045653058665224e-07 -2.4734786348568072e-06 -2.8045653058665224e-07 -0.19992057754134857 2.67333024983607e-06 -2.4734786348568072e-06 2.67333024983607e-06 -0.99982075950487226 0.00017203509526916849 -1.8969801302671198e-07 -7.4311807218702119e-06 -1.8969801302671198e-07 -0.19993050704331541 -3.6018018320649325e-06 -7.4311807218702119e-06 -3.6018018320649325e-06 -0.99984282166356431 0.00017432632930836078 -3.4418504917705223e-07 -5.3909644058385381e-06 -3.4418504917705223e-07 -0.19992679721327905 5.6943386883180427e-06 -5.3909644058385381e-06 5.6943386883180427e-06 -0.99983421117294669 0.00017577898101261979 1.3133985855926862e-07 -8.3803706003922384e-06 1.3133985855926862e-07 -0.19992376299985223 -9.2473111871489029e-06 -8.3803706003922384e-06 -9.2473111871489029e-06 -0.99983075723609005 0.00017484406987039458 7.7280348566082914e-07 -4.6868899910013084e-06 7.7280348566082914e-07 -0.19992150425796024 -6.4141823570285084e-06 -4.6868899910013084e-06 -6.4141823570285084e-06 -0.9998269603777219 0.00017178206993229139 6.0487080818605101e-07 -4.2111917126913534e-06 6.0487080818605101e-07 -0.19992833452446634 -1.5424065278324406e-06 -4.2111917126913534e-06 -1.5424065278324406e-06 -0.99983624435198992 0.00017485281689508247 2.3167520348295678e-07 -5.7201406915563524e-06 2.3167520348295678e-07 -0.19992517287115483 2.2844820180001335e-07 -5.7201406915563524e-06 2.2844820180001335e-07 -0.99982569156652057 0.00018555724520182351 -1.1143691313343635e-06 -2.2790242557579887e-06 -1.1143691313343635e-06 -0.19992372445647127 1.2584205691390515e-06 -2.2790242557579887e-06 1.2584205691390515e-06 -0.99982471039199661 0.00015712095657305358 2.8881306670226292e-06 3.5195242386598657e-06 2.8881306670226292e-06 -0.1999308146982407 -1.9606521213522132e-06 3.5195242386598657e-06 -1.9606521213522132e-06 -0.99984029022983245 0.00016027246304478604 -1.130546851015697e-05 -8.5167361528748486e-06 -1.130546851015697e-05 -0.19993114669296039 -1.6381391859665584e-06 -8.5167361528748486e-06 -1.6381391859665584e-06 -0.9998380841530019 0.00015873520995479673 2.4540909493491944e-06 -6.2052471103135609e-06 2.4540909493491944e-06 -0.19993018050593725 -2.3329660282234155e-06 -6.2052471103135609e-06 -2.3329660282234155e-06 -0.9998385101019599 0.0001716613921306509 -5.7852354503208118e-07 -2.2448834289767153e-06 -5.7852354503208118e-07 -0.19992425706846703 -4.6761032846692446e-06 -2.2448834289767153e-06 -4.6761032846692446e-06 -0.99983107996897369 0.00015037205180437607 5.8871245948543697e-07 1.4160247989794539e-06 5.8871245948543697e-07 -0.19993600785680216 3.6776927627157896e-06 1.4160247989794539e-06 3.6776927627157896e-06 -0.99985516221984694 0.00014953664212641327 -8.9489649880176274e-07 2.4871051056112381e-06 -8.9489649880176274e-07 -0.19993508624223633 -8.778665179296018e-06 2.4871051056112381e-06 -8.778665179296018e-06 -0.99986205379671889 0.00014994915561597556 -8.5262004601393833e-07 -5.6388922396648512e-06 -8.5262004601393833e-07 -0.19992954890447867 -1.2808696793903897e-05 -5.6388922396648512e-06 -1.2808696793903897e-05 -0.9998362244410629 0.00015799544472602317 1.2898175708248262e-06 1.6909541350655923e-06 1.2898175708248262e-06 -0.19992498307955309 -8.308086763325007e-06 1.6909541350655923e-06 -8.308086763325007e-06 -0.9998269250322408 0.00014728791314813638 -1.5158184197292936e-06 -7.3355716784240244e-07 -1.5158184197292936e-06 -0.19993785163602465 -3.4835598211047092e-06 -7.3355716784240244e-07 -3.4835598211047092e-06 -0.99984949261133316 0.00014383914629079175 -2.2101581110576658e-06 -5.0822960670701689e-06 -2.2101581110576658e-06 -0.19993967295240503 -2.8337200868033818e-06 -5.0822960670701689e-06 -2.8337200868033818e-06 -0.99985903121490982 0.00016905040373699221 2.2816229162088563e-07 -1.3747739463165765e-05 2.2816229162088563e-07 -0.19992832382555109 -1.8790569156212911e-07 -1.3747739463165765e-05 -1.8790569156212911e-07 -0.99984307838542641 0.00017140241256097255 9.5733308133747081e-07 -6.5839310322557409e-06 9.5733308133747081e-07 -0.19992494199299346 -8.8385101838089897e-07 -6.5839310322557409e-06 -8.8385101838089897e-07 -0.99982733098602439 0.00015613260233715565 -2.8973092332014601e-06 -7.2881612763753267e-06 -2.8973092332014601e-06 -0.19992998505925313 -6.7859270785897152e-07 -7.2881612763753267e-06 -6.7859270785897152e-07 -0.99983332593717988 0.00015073804583737305 -1.5027234991567992e-07 -2.6116550651544834e-06 -1.5027234991567992e-07 -0.19993542404934783 -4.7502693207440716e-06 -2.6116550651544834e-06 -4.7502693207440716e-06 -0.99984619020978394 0.00016824299644414495 5.2784269449505934e-07 -4.633286563526795e-06 5.2784269449505934e-07 -0.19992619902054665 -5.142391882734243e-07 -4.633286563526795e-06 -5.142391882734243e-07 -0.99983058370740863 0.00015086261514379862 5.3934855489653505e-07 -3.7661235227082202e-06 5.3934855489653505e-07 -0.19993875894003102 -1.852492260451255e-06 -3.7661235227082202e-06 -1.852492260451255e-06 -0.99985759229969207 0.00015581928454555527 -3.0607270726525967e-06 -9.2171161930609813e-06 -3.0607270726525967e-06 -0.19993356501241977 1.5141503959537062e-06 -9.2171161930609813e-06 1.5141503959537062e-06 -0.99984906375089211 0.00017564375025178741 -5.6188649024766352e-07 -6.001008129419283e-06 -5.6188649024766352e-07 -0.19992498323009569 1.1968833768527531e-07 -6.001008129419283e-06 1.1968833768527531e-07 -0.99982868278261339 0.00018377321167060284 8.393714304883186e-07 -6.8812280054064701e-06 8.393714304883186e-07 -0.19992381643666571 3.047011096768415e-07 -6.8812280054064701e-06 3.047011096768415e-07 -0.99983026490592464 0.00015351137900132539 -3.6344574012529863e-06 -1.1157310656040309e-05 -3.6344574012529863e-06 -0.19993337424181346 6.9236115651793995e-07 -1.1157310656040309e-05 6.9236115651793995e-07 -0.99985293535924713 0.00016815589759044958 -1.4927160423961049e-06 -1.3166065267355975e-05 -1.4927160423961049e-06 -0.19992940305326967 5.6753494648287273e-07 -1.3166065267355975e-05 5.6753494648287273e-07 -0.99984394633191465 0.0001606886131207963 2.5205168057192082e-06 -9.3996899594023242e-06 2.5205168057192082e-06 -0.19993363854430521 -2.9090053864089249e-06 -9.3996899594023242e-06 -2.9090053864089249e-06 -0.99985452807970077 0.00016367176570963871 2.6495078507995741e-07 -1.2222109692289207e-05 2.6495078507995741e-07 -0.1999310932499937 1.9576802590126618e-07 -1.2222109692289207e-05 1.9576802590126618e-07 -0.9998454690187295 0.00016149094924985952 1.7497252012531629e-06 -3.2572028885735627e-06 1.7497252012531629e-06 -0.19992831804765795 3.0316589476331313e-07 -3.2572028885735627e-06 3.0316589476331313e-07 -0.9998289054917785 0.00016169226498510825 2.514794026091005e-06 -5.5623947171068444e-06 2.514794026091005e-06 -0.19992866545925725 4.5071990956158103e-07 -5.5623947171068444e-06 4.5071990956158103e-07 -0.99983147474540135 0.00015446109184530377 -1.3830116096337469e-06 1.4974648442039717e-05 -1.3830116096337469e-06 -0.199931561732719 4.1202061533838996e-06 1.4974648442039717e-05 4.1202061533838996e-06 -0.99984166801139562 0.0001705620482476064 3.9577467448600328e-07 -5.553726608431564e-06 3.9577467448600328e-07 -0.19992732845266256 8.5681755587763142e-07 -5.553726608431564e-06 8.5681755587763142e-07 -0.99982958363337482 0.00015038050326161845 3.753571677705115e-07 1.0231719739933753e-05 3.753571677705115e-07 -0.19993419074521784 1.0736253971854737e-05 1.0231719739933753e-05 1.0736253971854737e-05 -0.99984704982145911 0.00016897137773801835 1.5981296377909736e-07 -3.6220426717914478e-06 1.5981296377909736e-07 -0.1999265273638027 2.8003668449821939e-06 -3.6220426717914478e-06 2.8003668449821939e-06 -0.9998319577137148 0.00014965868419815342 -1.7873602368735533e-06 -5.4608627253482922e-07 -1.7873602368735533e-06 -0.19993301996595864 -1.3269513689073698e-05 -5.4608627253482922e-07 -1.3269513689073698e-05 -0.99985319176997645 0.00014345261703258005 5.6198521687613491e-07 -9.9695868450155878e-06 5.6198521687613491e-07 -0.19993777339401958 7.0205787378041506e-08 -9.9695868450155878e-06 7.0205787378041506e-08 -0.99986365366077945 0.00017450102469718232 3.3575678590379683e-07 -1.8644012839224502e-06 3.3575678590379683e-07 -0.19992380761416759 -1.3578519562862403e-06 -1.8644012839224502e-06 -1.3578519562862403e-06 -0.99982726457672844 0.00015116677340182294 -8.8034993399472843e-08 9.7478003083181023e-06 -8.8034993399472843e-08 -0.19993526511296089 9.9224647724639004e-06 9.7478003083181023e-06 9.9224647724639004e-06 -0.99984802532491246 9.0011613175053351e-05 4.3033803800640142e-06 1.5390725144226458e-05 4.3033803800640142e-06 -0.19995391555071632 1.1859119489754377e-05 1.5390725144226458e-05 1.1859119489754377e-05 -0.99990717047800026 0.00010355884801754867 4.9478866766825756e-06 -5.6941189552905946e-06 4.9478866766825756e-06 -0.19995040934017311 -6.4391497150984023e-07 -5.6941189552905946e-06 -6.4391497150984023e-07 -0.99988849135883584 0.0001256368833470467 9.0264339292344422e-07 2.4264513983629499e-06 9.0264339292344422e-07 -0.19994362480032452 -1.1600534678968266e-06 2.4264513983629499e-06 -1.1600534678968266e-06 -0.99987570530004333 0.00010984229940691481 1.3127687852126572e-07 8.3488533311414139e-06 1.3127687852126572e-07 -0.19994538411038248 3.6224101224282805e-06 8.3488533311414139e-06 3.6224101224282805e-06 -0.99986015316330612 0.00011915996914968474 3.4726239754592619e-07 -6.4974932322825474e-06 3.4726239754592619e-07 -0.19994669172369275 -1.0386144241869566e-06 -6.4974932322825474e-06 -1.0386144241869566e-06 -0.9998848786796497 0.0001022988499314037 2.0051966023905555e-07 -9.3154834829300981e-06 2.0051966023905555e-07 -0.19995345754479818 -3.1582407899327647e-06 -9.3154834829300981e-06 -3.1582407899327647e-06 -0.99989285282690776 9.3026845683089054e-05 -1.0176090280985428e-05 -1.2035176021885086e-06 -1.0176090280985428e-05 -0.19995187056154295 8.2242402932308778e-07 -1.2035176021885086e-06 8.2242402932308778e-07 -0.99989269112001122 0.00012860074593873394 -2.8461817023291755e-06 9.5026137120639714e-07 -2.8461817023291755e-06 -0.19994136370288418 7.2973164572080113e-06 9.5026137120639714e-07 7.2973164572080113e-06 -0.99985595025320673 8.2971400134357332e-05 -4.2002856257354381e-06 6.6767152084590276e-06 -4.2002856257354381e-06 -0.199957241794918 -1.1558625991892058e-05 6.6767152084590276e-06 -1.1558625991892058e-05 -0.99989854039157555 0.00012870348703653001 2.010163804559374e-06 7.8399264361110222e-07 2.010163804559374e-06 -0.19994015807541557 -7.7338292912036217e-06 7.8399264361110222e-07 -7.7338292912036217e-06 -0.99986593381568001 8.8576589243383186e-05 1.8701311399597966e-06 1.7401203221480583e-07 1.8701311399597966e-06 -0.19995907230919041 -8.9104362566099532e-06 1.7401203221480583e-07 -8.9104362566099532e-06 -0.99990207730881286 8.1447751846985827e-05 -8.4024530042003286e-07 9.7582081474284081e-06 -8.4024530042003286e-07 -0.1999618161550305 2.2866811648848033e-06 9.7582081474284081e-06 2.2866811648848033e-06 -0.99991907091890164 0.00013386467167331162 -5.3643653216967999e-07 -1.7186938671663599e-05 -5.3643653216967999e-07 -0.19994082343909281 -1.057721434549741e-06 -1.7186938671663599e-05 -1.057721434549741e-06 -0.99986824092975324 0.00013494995045171265 -2.3413012688023357e-07 -2.0897963859487639e-06 -2.3413012688023357e-07 -0.19993938722913507 3.021731806995831e-07 -2.0897963859487639e-06 3.021731806995831e-07 -0.99985846386621047 0.00013410088103812945 -3.5249709048876211e-06 -5.3770908997620957e-06 -3.5249709048876211e-06 -0.19993998441256455 -8.3875324252691286e-07 -5.3770908997620957e-06 -8.3875324252691286e-07 -0.99986169280746662 0.00011739046481204496 1.5297490819439291e-06 -1.7962612197282291e-05 1.5297490819439291e-06 -0.19994422288876737 9.7026231967722865e-06 -1.7962612197282291e-05 9.7026231967722865e-06 -0.99986891686459767 0.00010350843890893913 -3.135883802758309e-06 -2.0637315350291452e-05 -3.135883802758309e-06 -0.19995071999833891 1.0056687683723808e-06 -2.0637315350291452e-05 1.0056687683723808e-06 -0.99989075963739704 0.00010206108494498212 3.0243250548826359e-06 -1.9208043192664448e-06 3.0243250548826359e-06 -0.1999534808717644 1.643821208513474e-06 -1.9208043192664448e-06 1.643821208513474e-06 -0.9999017864580837 0.00013670533813378571 1.159462293112778e-05 -4.9108963616484314e-06 1.159462293112778e-05 -0.19993711033581091 2.6868958037384871e-06 -4.9108963616484314e-06 2.6868958037384871e-06 -0.99985922302124886 0.00011286892338296939 1.4859799404162574e-07 -1.8242502937526606e-05 1.4859799404162574e-07 -0.19994966641686451 1.2416271001347567e-06 -1.8242502937526606e-05 1.2416271001347567e-06 -0.9998880544679547 9.4653559566310053e-05 -2.2881405940731949e-06 5.448455514645012e-06 -2.2881405940731949e-06 -0.19995384266279473 -5.5567945887735615e-07 5.448455514645012e-06 -5.5567945887735615e-07 -0.99989411860757171 0.00010342410969388371 -6.0401817613938597e-07 -2.0909892794018781e-05 -6.0401817613938597e-07 -0.1999503843006529 -3.3515093049441003e-06 -2.0909892794018781e-05 -3.3515093049441003e-06 -0.99988580756525502 0.00010516946020860951 4.9271472349050478e-06 -1.3928598087797894e-05 4.9271472349050478e-06 -0.19994815153674819 -1.2350405487193683e-06 -1.3928598087797894e-05 -1.2350405487193683e-06 -0.99987964130419649 8.2474705460411357e-05 -2.3513570138816079e-06 -3.438267447239407e-06 -2.3513570138816079e-06 -0.19995983143021728 -9.3196556601865543e-07 -3.438267447239407e-06 -9.3196556601865543e-07 -0.99991269794997328 0.00013177660365992772 -3.1753439837355787e-07 -8.5156474908740232e-06 -3.1753439837355787e-07 -0.19994299834813434 -2.7812035320873285e-06 -8.5156474908740232e-06 -2.7812035320873285e-06 -0.99986342191647304 8.3217855150974351e-05 -2.1447854729691777e-06 -7.0442688009514365e-06 -2.1447854729691777e-06 -0.19995852391571955 -6.3637950769440677e-07 -7.0442688009514365e-06 -6.3637950769440677e-07 -0.99990668073568534 0.0001181000247414965 -5.6491170890810063e-07 -9.8004764389481025e-06 -5.6491170890810063e-07 -0.19994387887009046 -2.426942929373288e-06 -9.8004764389481025e-06 -2.426942929373288e-06 -0.99986643151574817 0.00012432174482412961 2.6710765657048366e-07 -1.7143021159071736e-05 2.6710765657048366e-07 -0.19994462250618761 -1.1400874301292774e-06 -1.7143021159071736e-05 -1.1400874301292774e-06 -0.99987465995638081 0.00013242740529831321 1.1527353459135401e-06 -6.7923351383392117e-06 1.1527353459135401e-06 -0.19994009563986029 -7.890571284141501e-07 -6.7923351383392117e-06 -7.890571284141501e-07 -0.99985996642033437 8.7652162051449212e-05 2.4002738330117805e-06 -1.3689075578637855e-06 2.4002738330117805e-06 -0.19995431726684157 3.691959375662357e-06 -1.3689075578637855e-06 3.691959375662357e-06 -0.99989376630171389 0.00013327934769946648 5.5849616947785936e-07 -1.0251278995898616e-05 5.5849616947785936e-07 -0.19994162858154468 -3.7254442146750222e-06 -1.0251278995898616e-05 -3.7254442146750222e-06 -0.99985986023597517 0.0001139791254209932 -1.4041078068482927e-06 1.4589754921898179e-07 -1.4041078068482927e-06 -0.19994819833673416 -2.6869414518904122e-06 1.4589754921898179e-07 -2.6869414518904122e-06 -0.99987453813476046 9.6832284588885265e-05 3.3376934198022865e-06 -3.3434403585719252e-06 3.3376934198022865e-06 -0.19995274190182771 -2.6343915782434113e-06 -3.3434403585719252e-06 -2.6343915782434113e-06 -0.99987882083358737 9.4050988825644666e-05 2.8353456251922794e-06 -8.0461000455667175e-06 2.8353456251922794e-06 -0.19995471205966298 -2.8160244280595048e-06 -8.0461000455667175e-06 -2.8160244280595048e-06 -0.99988605315379253 0.00011647310465992544 -2.4412657291626883e-06 -5.0026659127282158e-06 -2.4412657291626883e-06 -0.19994640584606219 -2.9255279024309466e-06 -5.0026659127282158e-06 -2.9255279024309466e-06 -0.99986568420646027 9.3853123002085592e-05 1.3628441244802983e-06 -8.2517646985968973e-06 1.3628441244802983e-06 -0.19995455863224459 -2.8815685357286291e-06 -8.2517646985968973e-06 -2.8815685357286291e-06 -0.99988608711476468 0.00011948175558923468 1.2018358691983045e-06 -8.7051284450856414e-06 1.2018358691983045e-06 -0.19994144212146409 -7.002493631481372e-06 -8.7051284450856414e-06 -7.002493631481372e-06 -0.99985690950847828 0.00013904362556555182 -3.3952953673236413e-06 4.6085816296640759e-08 -3.3952953673236413e-06 -0.19993380141806083 -1.0457023344178124e-05 4.6085816296640759e-08 -1.0457023344178124e-05 -0.99984466529933191 0.00010912162775189582 -2.9839181365719481e-06 7.1068085062950178e-07 -2.9839181365719481e-06 -0.19994661674796527 -7.7351528101055079e-06 7.1068085062950178e-07 -7.7351528101055079e-06 -0.99987114092621776 0.00010970058055276288 -1.3437129550140176e-06 1.0994308116477058e-06 -1.3437129550140176e-06 -0.19994678451584921 -7.3805571574325768e-06 1.0994308116477058e-06 -7.3805571574325768e-06 -0.99987087319426637 9.3998962411689924e-05 -1.7609342774161237e-06 9.0133834692344274e-06 -1.7609342774161237e-06 -0.19995063973212157 -5.0792550989784062e-06 9.0133834692344274e-06 -5.0792550989784062e-06 -0.99988247894011839 0.00011215841872235161 1.4840035119665504e-06 -2.1409223605418833e-06 1.4840035119665504e-06 -0.199943597415147 -9.4754275405536177e-06 -2.1409223605418833e-06 -9.4754275405536177e-06 -0.99986635574277649 8.6786734574795243e-05 2.0339570828086788e-06 -1.0012252626201423e-05 2.0339570828086788e-06 -0.19995598419658583 -5.1335827249698873e-06 -1.0012252626201423e-05 -5.1335827249698873e-06 -0.99988800156607782 6.7369607407358201e-05 -2.2660394636625963e-06 3.6528666756963091e-06 -2.2660394636625963e-06 -0.19996720894571246 8.6643983121525991e-07 3.6528666756963091e-06 8.6643983121525991e-07 -0.9999136958856979 6.2045157438933574e-05 -3.1603401703245808e-06 2.2600296699371025e-07 -3.1603401703245808e-06 -0.19997280036855311 -3.5015875658461759e-06 2.2600296699371025e-07 -3.5015875658461759e-06 -0.99993017766418768 3.3802548062303317e-05 9.8567756249556665e-07 -2.6285170906525934e-06 9.8567756249556665e-07 -0.19997647044087741 1.7187121139072836e-06 -2.6285170906525934e-06 1.7187121139072836e-06 -0.99992388830730694 6.7347952743573858e-05 2.3974052213536569e-06 -3.831774606000149e-06 2.3974052213536569e-06 -0.19996450865475068 -1.4836361879239091e-05 -3.831774606000149e-06 -1.4836361879239091e-05 -0.99990181365739716 7.0637879371087878e-05 4.8010843710597766e-06 1.0584856524825613e-05 4.8010843710597766e-06 -0.19995657900977146 -7.5893437998490884e-06 1.0584856524825613e-05 -7.5893437998490884e-06 -0.99987805468717383 6.2526519717831519e-05 2.7798147252129813e-06 1.4554880184642172e-05 2.7798147252129813e-06 -0.19996674436251924 3.7299232426105777e-06 1.4554880184642172e-05 3.7299232426105777e-06 -0.99991622878426512 6.5605954578773495e-05 -5.9626250186949683e-07 1.3059506220103323e-05 -5.9626250186949683e-07 -0.19996522183466214 4.8721112320126991e-06 1.3059506220103323e-05 4.8721112320126991e-06 -0.9999144044330126 3.1601139197423578e-05 -1.106224622286377e-07 -2.5075182821798769e-06 -1.106224622286377e-07 -0.19997533725206479 -6.6908459415288002e-07 -2.5075182821798769e-06 -6.6908459415288002e-07 -0.99993853716554271 3.3364320880475973e-05 -1.4894897067277004e-06 -3.6473437726169955e-06 -1.4894897067277004e-06 -0.19997419574030975 1.6205030746729854e-06 -3.6473437726169955e-06 1.6205030746729854e-06 -0.99993668198595342 2.6297569557534595e-05 4.101376448629334e-06 -5.2431269652597479e-06 4.101376448629334e-06 -0.19997681405238404 9.156195191484251e-07 -5.2431269652597479e-06 9.156195191484251e-07 -0.9999372695545915 3.2041677830385584e-05 -1.0130622121210785e-07 -3.3626413545040368e-06 -1.0130622121210785e-07 -0.19997442431801171 -1.2269135929443564e-08 -3.3626413545040368e-06 -1.2269135929443564e-08 -0.99993493126869382 2.8582577685176691e-05 1.1732743899768615e-07 -5.8903985249991742e-06 1.1732743899768615e-07 -0.19998201897085494 -2.6599690615691785e-06 -5.8903985249991742e-06 -2.6599690615691785e-06 -0.99994021520727527 2.3662714561556442e-05 6.2453830664365817e-07 -5.8157169095852798e-06 6.2453830664365817e-07 -0.19997814831877131 3.4800969810285161e-06 -5.8157169095852798e-06 3.4800969810285161e-06 -0.99993472052124632 2.3737765157763375e-05 -1.2727396000515019e-06 -5.4751603895913187e-06 -1.2727396000515019e-06 -0.19997872009022694 -6.3165775038515553e-06 -5.4751603895913187e-06 -6.3165775038515553e-06 -0.99993496666884019 2.2050138530317169e-05 -1.7588822098624362e-06 -3.8040546963914568e-06 -1.7588822098624362e-06 -0.1999739471960251 -1.4152113959609025e-06 -3.8040546963914568e-06 -1.4152113959609025e-06 -0.99992587927803245 2.1985026464009353e-05 -1.806497010733292e-06 -4.6927193043282843e-06 -1.806497010733292e-06 -0.19997464446536689 -4.1848368120484497e-06 -4.6927193043282843e-06 -4.1848368120484497e-06 -0.99993352344097208 2.7161266887065771e-05 -6.8663078152395179e-07 2.2955850178052334e-06 -6.8663078152395179e-07 -0.19997237003814511 -1.5550598087577248e-05 2.2955850178052334e-06 -1.5550598087577248e-05 -0.99991190290830623 2.0545589156574506e-05 -3.3423759064306392e-06 -3.1320599485074041e-06 -3.3423759064306392e-06 -0.19997757700612043 2.159943487067828e-06 -3.1320599485074041e-06 2.159943487067828e-06 -0.99992664703479084 1.9687500232179467e-05 -6.1042881221237744e-06 -5.7320678781835888e-06 -6.1042881221237744e-06 -0.19997744858738609 7.4921383330650571e-07 -5.7320678781835888e-06 7.4921383330650571e-07 -0.99994057626374122 2.4403608769485441e-05 -4.5464111375905915e-06 -3.0265716173816237e-06 -4.5464111375905915e-06 -0.19997629600119576 7.5163261864519271e-07 -3.0265716173816237e-06 7.5163261864519271e-07 -0.99993921887747916 7.255304201722601e-05 -8.2249086991769072e-09 -3.8198566425506897e-06 -8.2249086991769072e-09 -0.19996191852036654 -1.7953264989656326e-06 -3.8198566425506897e-06 -1.7953264989656326e-06 -0.99991078076494877 3.943847627616015e-05 -7.5627757511632254e-07 -8.4384250198243915e-06 -7.5627757511632254e-07 -0.19996960221981119 -1.7447863333297509e-06 -8.4384250198243915e-06 -1.7447863333297509e-06 -0.99991990723859558 3.4100379944668191e-05 1.5216684544467824e-05 -1.0078862286766466e-05 1.5216684544467824e-05 -0.19996307921676143 1.9106697906057235e-06 -1.0078862286766466e-05 1.9106697906057235e-06 -0.9999202306784567 4.5704585610081838e-05 1.7234711143230801e-06 -6.459781555001598e-06 1.7234711143230801e-06 -0.19997057298523607 -4.4270755611419688e-06 -6.459781555001598e-06 -4.4270755611419688e-06 -0.99992624034049304 6.8568248101641416e-05 -1.5037913017780984e-06 -1.5318418612020324e-05 -1.5037913017780984e-06 -0.1999645144593582 -1.3896516029010542e-06 -1.5318418612020324e-05 -1.3896516029010542e-06 -0.99991687776926197 2.1850530259159839e-05 -5.7555168525985744e-06 -9.0802991792315879e-07 -5.7555168525985744e-06 -0.19997480542903101 -1.1754001582597873e-06 -9.0802991792315879e-07 -1.1754001582597873e-06 -0.99993370213536048 1.2095370337916744e-05 -3.6542746910783477e-06 -8.100219486828486e-06 -3.6542746910783477e-06 -0.19998133709371152 2.60377678884538e-06 -8.100219486828486e-06 2.60377678884538e-06 -0.99995060808420333 3.7620509893400433e-05 3.2273587579905991e-06 -1.3400141825603562e-05 3.2273587579905991e-06 -0.19997661682027487 -9.0929319618293647e-07 -1.3400141825603562e-05 -9.0929319618293647e-07 -0.99994361944303767 3.9461822128439294e-05 -1.3144017663495285e-06 -1.2947977527044685e-05 -1.3144017663495285e-06 -0.19997902450180277 -4.5444478780076736e-07 -1.2947977527044685e-05 -4.5444478780076736e-07 -0.99994381916297725 3.8063180786723771e-05 2.0094929982031611e-07 -6.708426737611628e-06 2.0094929982031611e-07 -0.19997079685556471 2.1161484134819483e-06 -6.708426737611628e-06 2.1161484134819483e-06 -0.9999188034214429 4.4755632092885467e-05 -2.1977359465722486e-06 -3.6172203944917491e-06 -2.1977359465722486e-06 -0.19996964699319095 -6.7384188527919164e-06 -3.6172203944917491e-06 -6.7384188527919164e-06 -0.99993007774866149 4.7471063444937123e-05 9.4375574780459708e-07 -6.6110065207181101e-06 9.4375574780459708e-07 -0.19997109449747436 8.6950192432766471e-06 -6.6110065207181101e-06 8.6950192432766471e-06 -0.99992366001516353 4.9129796051761154e-05 -1.6482468052972766e-06 -6.842521339034402e-06 -1.6482468052972766e-06 -0.19996538380528039 6.534264147539659e-07 -6.842521339034402e-06 6.534264147539659e-07 -0.9999100307510127 4.342034072163381e-05 4.1925632711523844e-07 -3.5927805609459185e-06 4.1925632711523844e-07 -0.19997495472488308 6.4255029585957857e-07 -3.5927805609459185e-06 6.4255029585957857e-07 -0.99994208964218489 4.5421616171631429e-05 -6.7594738640737201e-06 -5.1835086884860493e-06 -6.7594738640737201e-06 -0.19996728332707489 5.4896864459808015e-07 -5.1835086884860493e-06 5.4896864459808015e-07 -0.99991612029336163 4.9444046306412748e-05 -1.6855884932349541e-07 -1.4083887414039625e-05 -1.6855884932349541e-07 -0.19996982386881762 -1.7261283615163658e-06 -1.4083887414039625e-05 -1.7261283615163658e-06 -0.99992022621304932 5.0413443774321998e-05 -7.2749563217684826e-07 -1.4730125047338061e-05 -7.2749563217684826e-07 -0.1999655923554827 5.2705920333684375e-07 -1.4730125047338061e-05 5.2705920333684375e-07 -0.99991714586989933 3.2960418773764211e-05 2.317227161059143e-06 -1.1679142510323537e-05 2.317227161059143e-06 -0.19997592445327239 5.3772197761148277e-07 -1.1679142510323537e-05 5.3772197761148277e-07 -0.99994496917363662 3.2816768553045605e-05 2.8589452209882362e-07 -1.2569052938560255e-05 2.8589452209882362e-07 -0.19997668807424435 2.0080646335740582e-06 -1.2569052938560255e-05 2.0080646335740582e-06 -0.99994304323873773 3.1329648704170321e-05 1.5643563072941206e-06 -6.1991020205987013e-06 1.5643563072941206e-06 -0.19997281134795172 1.1592460476966826e-07 -6.1991020205987013e-06 1.1592460476966826e-07 -0.9999209270770546 3.2900947745273523e-05 -3.3653972859245274e-07 -4.9909884316245989e-06 -3.3653972859245274e-07 -0.19997098523218587 -6.4040003261434109e-07 -4.9909884316245989e-06 -6.4040003261434109e-07 -0.99992807009197415 3.2302110918994154e-05 3.2053654435242346e-07 -1.8174980731255896e-06 3.2053654435242346e-07 -0.19997269544366897 6.0912368787802151e-07 -1.8174980731255896e-06 6.0912368787802151e-07 -0.99993783454624796 3.0057020226736952e-05 2.326946954109659e-06 -2.5567695280948044e-06 2.326946954109659e-06 -0.19997579602901738 1.8154857774690947e-06 -2.5567695280948044e-06 1.8154857774690947e-06 -0.99993629357745961 6.1425716732566027e-05 -7.8865793164814425e-07 -1.3545428217132116e-06 -7.8865793164814425e-07 -0.1999639294636944 -5.8337353492365907e-07 -1.3545428217132116e-06 -5.8337353492365907e-07 -0.99992033387949442 6.8696434333943845e-05 -9.7403351465918363e-07 -8.0322151767009409e-06 -9.7403351465918363e-07 -0.19996126064931682 4.0790949706881463e-07 -8.0322151767009409e-06 4.0790949706881463e-07 -0.99991379646042411 3.0677056449768259e-05 -9.3023888849104452e-07 -2.0327309764311963e-06 -9.3023888849104452e-07 -0.19997704102147251 -2.4608439674889127e-07 -2.0327309764311963e-06 -2.4608439674889127e-07 -0.9999389665333297 6.520083566119439e-05 2.5635828570310457e-06 4.2049051623247618e-08 2.5635828570310457e-06 -0.19996368999581654 7.0237802488481924e-06 4.2049051623247618e-08 7.0237802488481924e-06 -0.99990967252237217 3.3884656546606662e-05 6.7433699407233872e-07 -7.9028305980943792e-06 6.7433699407233872e-07 -0.19997342792421891 2.3440363151293331e-06 -7.9028305980943792e-06 2.3440363151293331e-06 -0.99992168807116721 6.1174697296551006e-05 9.0669161443790439e-07 -4.0317297785384886e-06 9.0669161443790439e-07 -0.19996657681384269 2.5237449279930454e-06 -4.0317297785384886e-06 2.5237449279930454e-06 -0.99991424407685159 6.2130635875068396e-05 1.3525187046711273e-06 5.2021802663109951e-06 1.3525187046711273e-06 -0.19996529887563841 -9.3319108704508809e-06 5.2021802663109951e-06 -9.3319108704508809e-06 -0.99990752646140491 2.1189734759004026e-05 2.5741706998845421e-06 -9.2382869731610229e-07 2.5741706998845421e-06 -0.19997975018868169 2.2528906264078707e-06 -9.2382869731610229e-07 2.2528906264078707e-06 -0.9999329985523564 2.9651554990172608e-05 -2.5889280803660302e-06 -3.453485760606319e-06 -2.5889280803660302e-06 -0.19997547169584484 2.1946286347077617e-06 -3.453485760606319e-06 2.1946286347077617e-06 -0.99993155529531519 1.6618367403708577e-05 4.087411312172879e-07 1.1708839549902435e-06 4.087411312172879e-07 -0.19997947478200184 2.6630030563449066e-06 1.1708839549902435e-06 2.6630030563449066e-06 -0.99993500497088117 1.5800988625164214e-05 1.4814117934992732e-06 1.5856457145357883e-06 1.4814117934992732e-06 -0.19997804062514138 2.9691825992328447e-07 1.5856457145357883e-06 2.9691825992328447e-07 -0.99993184748869601 1.9127855746758904e-05 5.024471384652582e-07 -1.6761896241982766e-06 5.024471384652582e-07 -0.19997664382375452 4.7338910958899141e-06 -1.6761896241982766e-06 4.7338910958899141e-06 -0.99992435280396252 4.4753531299623894e-05 9.6938316640611599e-08 -9.0981568908188315e-06 9.6938316640611599e-08 -0.19997014309835581 -1.2651401255822647e-05 -9.0981568908188315e-06 -1.2651401255822647e-05 -0.9999073270621105 2.0168108678331187e-05 1.8444019363714128e-06 -1.3124006240617742e-06 1.8444019363714128e-06 -0.1999716223307752 4.0934046945678889e-06 -1.3124006240617742e-06 4.0934046945678889e-06 -0.99992379588916003 2.3458492287520283e-05 6.4620108950629418e-08 2.3875112534210707e-06 6.4620108950629418e-08 -0.199976584040363 1.0659077371300008e-06 2.3875112534210707e-06 1.0659077371300008e-06 -0.99991775469147703 4.6209715328364431e-05 4.4824792190537002e-06 -8.0687798548334522e-06 4.4824792190537002e-06 -0.19996793744033511 2.0402154437548781e-06 -8.0687798548334522e-06 2.0402154437548781e-06 -0.99990537847286098 6.8588226932064789e-05 -1.2456830304933089e-06 5.974103927137828e-07 -1.2456830304933089e-06 -0.19995875449788952 5.0701219377224999e-06 5.974103927137828e-07 5.0701219377224999e-06 -0.99990790739033208 3.26741226889804e-05 -5.2011436779366683e-08 -6.1908893698725542e-06 -5.2011436779366683e-08 -0.19996767973988575 5.2613116420865969e-06 -6.1908893698725542e-06 5.2613116420865969e-06 -0.99991891833762714 3.4348283661667089e-05 -1.7017550692741781e-06 -3.5278387702231129e-06 -1.7017550692741781e-06 -0.19997286669100117 3.0978587310156319e-06 -3.5278387702231129e-06 3.0978587310156319e-06 -0.99990968619489173 2.9307295433433911e-05 -2.045576751598646e-06 -2.4733715333624673e-06 -2.045576751598646e-06 -0.19997913680156409 1.7935076943587092e-06 -2.4733715333624673e-06 1.7935076943587092e-06 -0.99993625789045626 2.209206421879664e-05 -8.8499040024472572e-07 5.6417385044080857e-06 -8.8499040024472572e-07 -0.19997276885126111 -4.8766606788198653e-06 5.6417385044080857e-06 -4.8766606788198653e-06 -0.99992771620565757 2.1624183964829957e-05 -3.5493938525888653e-06 1.6470134708694831e-06 -3.5493938525888653e-06 -0.19997793989318763 -1.0486690654857694e-05 1.6470134708694831e-06 -1.0486690654857694e-05 -0.99991837156184604 1.9263988492043693e-05 -4.9891575512252628e-06 -1.3370142129225065e-06 -4.9891575512252628e-06 -0.19997970128950127 -8.6071667459997059e-07 -1.3370142129225065e-06 -8.6071667459997059e-07 -0.99993356340806683 7.2355785054309396e-05 3.4125760753087137e-06 1.613673794031989e-07 3.4125760753087137e-06 -0.19996006035719305 1.5129501246824439e-06 1.613673794031989e-07 1.5129501246824439e-06 -0.99991285464022606 7.0201430771854589e-05 2.8817328848419221e-06 7.7657682366201804e-06 2.8817328848419221e-06 -0.19996071042115415 -8.8007468362327667e-06 7.7657682366201804e-06 -8.8007468362327667e-06 -0.99988761108067936 4.2641965225881373e-05 -2.5787614655083664e-06 -9.6747873554736685e-06 -2.5787614655083664e-06 -0.19997402884492071 -2.5293304982132447e-06 -9.6747873554736685e-06 -2.5293304982132447e-06 -0.99993201726995884 4.1926840354394868e-05 -2.1377374666364886e-06 -1.0491747752028324e-05 -2.1377374666364886e-06 -0.1999729513549795 -2.6380259957534125e-06 -1.0491747752028324e-05 -2.6380259957534125e-06 -0.99992538709205103 4.5315301965765525e-05 -3.7150942535199135e-06 -5.4111704814174821e-06 -3.7150942535199135e-06 -0.19997025993099687 -7.5236337404582798e-07 -5.4111704814174821e-06 -7.5236337404582798e-07 -0.99992178421424094 4.0778911725131151e-05 -2.1894392829746805e-06 -8.8828067415225309e-06 -2.1894392829746805e-06 -0.19997427140403867 1.9656092377362544e-06 -8.8828067415225309e-06 1.9656092377362544e-06 -0.99992972601098284 6.466238653754508e-05 1.2559361192199482e-06 1.0244036434233633e-05 1.2559361192199482e-06 -0.1999646939101026 7.9684793849454927e-06 1.0244036434233633e-05 7.9684793849454927e-06 -0.99990935315707152 2.1349819940619241e-05 4.4452072504075737e-06 -4.617821046104531e-06 4.4452072504075737e-06 -0.19997305728075937 -3.1296593982488297e-06 -4.617821046104531e-06 -3.1296593982488297e-06 -0.99992634806879366 1.7166100926502281e-05 4.6990210345511204e-06 -8.115775106787293e-06 4.6990210345511204e-06 -0.19997503656215099 -3.4350910716463012e-06 -8.115775106787293e-06 -3.4350910716463012e-06 -0.99993708773331758 2.7918642002170087e-05 6.9795660783985578e-07 2.8594401678851602e-06 6.9795660783985578e-07 -0.1999689706949398 9.9087777373950146e-06 2.8594401678851602e-06 9.9087777373950146e-06 -0.99991762734944445 2.0231239063060733e-05 3.8099717771934911e-06 -3.3340511333498251e-06 3.8099717771934911e-06 -0.19997183532738141 -1.2162000592730315e-06 -3.3340511333498251e-06 -1.2162000592730315e-06 -0.99992995273663021 1.7796001898474237e-05 -2.7930992054162176e-06 -7.74040984903869e-07 -2.7930992054162176e-06 -0.19997663252767631 7.4273504989130236e-07 -7.74040984903869e-07 7.4273504989130236e-07 -0.9999322499602451 2.6916986780174097e-05 1.522407227877508e-06 -2.4430228310730969e-06 1.522407227877508e-06 -0.19997427450801311 2.4552358127908921e-06 -2.4430228310730969e-06 2.4552358127908921e-06 -0.99993518498975631 7.2458648997672094e-05 7.4876248021813172e-07 -5.5114186972923431e-06 7.4876248021813172e-07 -0.19995666672122248 -1.4471344136823141e-06 -5.5114186972923431e-06 -1.4471344136823141e-06 -0.99990418236881162 6.2451587472296723e-05 -2.439958991046948e-06 6.1252586104290536e-06 -2.439958991046948e-06 -0.1999636473409431 6.13956993129426e-06 6.1252586104290536e-06 6.13956993129426e-06 -0.99991699185412453 0.0001121398922889847 1.8290298454542599e-06 -6.9187380076773941e-06 1.8290298454542599e-06 -0.19994851812184222 1.3250501238945556e-07 -6.9187380076773941e-06 1.3250501238945556e-07 -0.99988888494802963 7.4943949118694286e-05 4.6503483176697032e-06 -1.251764398177424e-06 4.6503483176697032e-06 -0.1999578504241239 9.2251034422563549e-08 -1.251764398177424e-06 9.2251034422563549e-08 -0.99989777914549216 9.0483196444256255e-05 1.2416978041173458e-06 6.3657528719693343e-06 1.2416978041173458e-06 -0.19995521034948466 1.4453222444255546e-06 6.3657528719693343e-06 1.4453222444255546e-06 -0.99988775309169309 0.00013875181924478491 2.7462985785769006e-06 7.6064586654046897e-06 2.7462985785769006e-06 -0.19993458644669426 8.7928921412688189e-06 7.6064586654046897e-06 8.7928921412688189e-06 -0.99984810240240829 0.00011012157997453682 -3.400498737043221e-06 -9.5944953749834389e-07 -3.400498737043221e-06 -0.19994826949137789 4.0955086452946395e-06 -9.5944953749834389e-07 4.0955086452946395e-06 -0.99987770995663117 0.00012018311290170639 -1.4768147639736729e-06 -5.5351555843118849e-06 -1.4768147639736729e-06 -0.19994499490553744 2.4835020121558474e-06 -5.5351555843118849e-06 2.4835020121558474e-06 -0.99987160347194604 0.00012182559089582434 1.5034716574471979e-06 -2.6777569185620909e-06 1.5034716574471979e-06 -0.19994199644816471 5.8468810154588269e-07 -2.6777569185620909e-06 5.8468810154588269e-07 -0.99985603055906436 0.00011862481624341781 1.6592330185174991e-06 -2.0650762867779893e-06 1.6592330185174991e-06 -0.19994555644041984 2.9999679705405846e-06 -2.0650762867779893e-06 2.9999679705405846e-06 -0.99986960577287243 0.0001112255929423267 -8.5370706843101313e-07 1.442820350157966e-06 -8.5370706843101313e-07 -0.1999478777951513 5.8557238625245311e-06 1.442820350157966e-06 5.8557238625245311e-06 -0.99987271206734762 0.00011207052111744664 8.9831912867535321e-07 1.0447360826644513e-06 8.9831912867535321e-07 -0.19994673237962046 8.0116018784991768e-07 1.0447360826644513e-06 8.0116018784991768e-07 -0.99986972251689721 8.3431777046673664e-05 -5.2605756780194978e-07 -1.3668186850173888e-06 -5.2605756780194978e-07 -0.19995756714561735 1.2027113796553301e-06 -1.3668186850173888e-06 1.2027113796553301e-06 -0.99989452132403533 0.00011197568138542058 3.0845279871183219e-06 -6.6124950324208953e-06 3.0845279871183219e-06 -0.1999480550342394 -2.6825048083101155e-06 -6.6124950324208953e-06 -2.6825048083101155e-06 -0.99988545270262885 8.3634526487796901e-05 -3.0693645271249754e-06 -1.4350736262233766e-06 -3.0693645271249754e-06 -0.19995637925960313 -1.0849466659848178e-06 -1.4350736262233766e-06 -1.0849466659848178e-06 -0.99989433171552722 0.00012649752851123797 -1.8943430700978067e-06 -7.362008192769831e-07 -1.8943430700978067e-06 -0.19994470260360681 2.7353334966417336e-06 -7.362008192769831e-07 2.7353334966417336e-06 -0.99986762880472591 0.00012625812256500391 -1.1964360674750724e-06 -1.5766758067539688e-07 -1.1964360674750724e-06 -0.19994212314290025 4.6157832001014754e-09 -1.5766758067539688e-07 4.6157832001014754e-09 -0.99987077271379643 0.0001028002924934787 -1.3473796968221518e-06 -1.0341906957279633e-05 -1.3473796968221518e-06 -0.19995148232389962 6.5263147298848115e-06 -1.0341906957279633e-05 6.5263147298848115e-06 -0.99989435710964092 0.00011824294263935303 -4.0710584631788354e-07 -9.3458350985953231e-06 -4.0710584631788354e-07 -0.19994612428904837 6.852867160955789e-07 -9.3458350985953231e-06 6.852867160955789e-07 -0.99988240220750668 0.00010635770830294544 -5.739095386082007e-06 -6.4619550739358766e-06 -5.739095386082007e-06 -0.19995137089124565 3.0141877597200661e-06 -6.4619550739358766e-06 3.0141877597200661e-06 -0.99988688363761291 0.00010938046315916994 -7.913483323269429e-07 7.2922218579055996e-06 -7.913483323269429e-07 -0.19994386875801121 -8.7922917460430818e-07 7.2922218579055996e-06 -8.7922917460430818e-07 -0.9998614168633706 0.00012810888624764649 2.8745909232402026e-06 -2.2951334597881804e-06 2.8745909232402026e-06 -0.19994000700554493 -6.252083213130204e-06 -2.2951334597881804e-06 -6.252083213130204e-06 -0.99986037686777007 8.1642258235592458e-05 2.0452678760522997e-06 -3.4554964264407038e-06 2.0452678760522997e-06 -0.1999577952771133 4.8547526422091405e-06 -3.4554964264407038e-06 4.8547526422091405e-06 -0.99990360637121045 0.00011424449930164116 -7.6179444521155762e-07 -1.6616997889101759e-05 -7.6179444521155762e-07 -0.19994827323902958 -1.1553779273310028e-06 -1.6616997889101759e-05 -1.1553779273310028e-06 -0.99988398204152706 0.00010301225311343254 2.9883131284299806e-06 -1.9887902692361514e-05 2.9883131284299806e-06 -0.19995232387287531 -1.9580120746987006e-07 -1.9887902692361514e-05 -1.9580120746987006e-07 -0.99988823379708869 0.00011942465280362358 -9.5132895696668176e-07 -1.5498633697930142e-05 -9.5132895696668176e-07 -0.19994333987317081 -7.9410198828289147e-06 -1.5498633697930142e-05 -7.9410198828289147e-06 -0.99986332796854738 0.00010371388152574657 -2.9320988381871448e-06 -1.0679773568278428e-06 -2.9320988381871448e-06 -0.19995446593913468 5.9915019479106491e-07 -1.0679773568278428e-06 5.9915019479106491e-07 -0.99990133464441222 0.0001191780795500863 -9.1255529685607142e-07 -8.9384734351938278e-06 -9.1255529685607142e-07 -0.19994245770869787 5.0454983385739283e-07 -8.9384734351938278e-06 5.0454983385739283e-07 -0.9998644875849162 0.00011942475178150502 -6.3061728376155193e-07 -8.8016308026905854e-06 -6.3061728376155193e-07 -0.19994351647321101 -2.4820112262680105e-07 -8.8016308026905854e-06 -2.4820112262680105e-07 -0.99986551565428905 7.8408083951653218e-05 2.2888172563119397e-06 -7.737446099442824e-06 2.2888172563119397e-06 -0.1999598055047026 -1.2308616946232753e-06 -7.737446099442824e-06 -1.2308616946232753e-06 -0.99990620869262914 7.8765081877416043e-05 2.0590712056034711e-06 -7.2630659800898556e-06 2.0590712056034711e-06 -0.1999569272432134 1.8486300407127843e-07 -7.2630659800898556e-06 1.8486300407127843e-07 -0.99989311577678897 0.00012730847193026529 3.884685170441181e-06 -9.8075767780286816e-06 3.884685170441181e-06 -0.19994085776398532 1.9520959010366212e-06 -9.8075767780286816e-06 1.9520959010366212e-06 -0.99986296133881292 0.00010248517955223357 -3.8783094107323809e-06 -1.3020971236010759e-05 -3.8783094107323809e-06 -0.19995322526585779 2.439326612257986e-06 -1.3020971236010759e-05 2.439326612257986e-06 -0.99989008653839884 0.00011188392688908991 7.3135835531542334e-07 -5.2401045702032967e-06 7.3135835531542334e-07 -0.19994852106469727 7.6446167531635245e-08 -5.2401045702032967e-06 7.6446167531635245e-08 -0.99988461260107575 0.00011678967787745465 8.2387996799622819e-07 -9.7369352597964642e-06 8.2387996799622819e-07 -0.19994386681221157 1.7662904694612513e-06 -9.7369352597964642e-06 1.7662904694612513e-06 -0.99986560581807737 0.00010252012589107018 3.9816174317600464e-07 -2.0941593227519206e-05 3.9816174317600464e-07 -0.19995104573177236 6.7872151614245535e-07 -2.0941593227519206e-05 6.7872151614245535e-07 -0.99988739643734204 0.00012183803449850039 4.1648063956894043e-06 -6.4741576653037924e-06 4.1648063956894043e-06 -0.19994555156209887 -1.2204218972078351e-06 -6.4741576653037924e-06 -1.2204218972078351e-06 -0.99988232947987443 0.00012673552860703596 2.3717258176730088e-06 -8.9437740707909441e-06 2.3717258176730088e-06 -0.19994151014653022 1.1082000570539208e-06 -8.9437740707909441e-06 1.1082000570539208e-06 -0.99985862089481903 0.00012348160690800469 2.2322709016059767e-06 -1.2304786491945663e-05 2.2322709016059767e-06 -0.19994780525729372 3.7638848562338012e-06 -1.2304786491945663e-05 3.7638848562338012e-06 -0.9998853832547705 7.6916732777279617e-05 -6.7349309425555845e-07 -1.0714795707800207e-05 -6.7349309425555845e-07 -0.19995862456643648 2.1391962531369657e-06 -1.0714795707800207e-05 2.1391962531369657e-06 -0.99989660450695728 4.592948017778653e-05 -3.3171377328666155e-06 -2.5379776553216549e-06 -3.3171377328666155e-06 -0.19996819682765021 -2.6660085678670287e-07 -2.5379776553216549e-06 -2.6660085678670287e-07 -0.99991567374861501 4.2092195483130201e-05 -2.9369594792581867e-06 -8.635284925839759e-06 -2.9369594792581867e-06 -0.19997234235208911 -5.9969168730855671e-07 -8.635284925839759e-06 -5.9969168730855671e-07 -0.99993304669265104 7.7307976116592486e-05 1.1888693132001502e-06 -8.8336985507586618e-06 1.1888693132001502e-06 -0.1999618264266137 2.0126779977092113e-06 -8.8336985507586618e-06 2.0126779977092113e-06 -0.99991750284991121 4.0435206486505101e-05 -2.3548688882366105e-06 -6.9427679778577556e-06 -2.3548688882366105e-06 -0.19997109592790197 2.4044078985596684e-06 -6.9427679778577556e-06 2.4044078985596684e-06 -0.99992682433881486 2.1066403137811468e-05 2.6290737848659122e-06 -4.2751958211351138e-06 2.6290737848659122e-06 -0.19997165899362762 2.2809702981962943e-07 -4.2751958211351138e-06 2.2809702981962943e-07 -0.99993095982100755 2.2651409311125192e-05 -3.8730529408070744e-07 -3.6655192108270285e-06 -3.8730529408070744e-07 -0.19997720014134723 -2.0769887968397072e-06 -3.6655192108270285e-06 -2.0769887968397072e-06 -0.99995208272163971 1.7664229155001099e-05 2.4199491026640746e-06 -6.9841324455421905e-06 2.4199491026640746e-06 -0.19997693608555406 -3.7267016476660864e-06 -6.9841324455421905e-06 -3.7267016476660864e-06 -0.99994823489561369 2.2766722613143386e-05 1.9421285120020863e-06 -4.9249811146234723e-06 1.9421285120020863e-06 -0.199974267682336 -2.4837473182881542e-06 -4.9249811146234723e-06 -2.4837473182881542e-06 -0.99994024856454056 3.9021410003559076e-05 9.4729383583666865e-07 -1.1681117999540191e-05 9.4729383583666865e-07 -0.19997692016434815 -8.8264384512370953e-07 -1.1681117999540191e-05 -8.8264384512370953e-07 -0.99994297786206943 3.6490971759020607e-05 -3.3808005326399149e-06 -1.2027708404915849e-05 -3.3808005326399149e-06 -0.19997560426485089 1.6189320428683374e-07 -1.2027708404915849e-05 1.6189320428683374e-07 -0.99994292415072139 4.6061141139058792e-05 6.2223000550389546e-06 -7.1796627720555062e-06 6.2223000550389546e-06 -0.19996947774506391 1.929566609937261e-06 -7.1796627720555062e-06 1.929566609937261e-06 -0.99991691070891986 4.3140732533863968e-05 3.0466882304453266e-07 -1.8313515490198107e-06 3.0466882304453266e-07 -0.19997678315519485 -1.0505487104406352e-06 -1.8313515490198107e-06 -1.0505487104406352e-06 -0.99994097457667719 5.0182793824959937e-05 4.9162651091737195e-07 -6.1299237144041285e-06 4.9162651091737195e-07 -0.19996685388072116 6.0533885470892557e-07 -6.1299237144041285e-06 6.0533885470892557e-07 -0.99990725018837123 4.6815181498127689e-05 5.7189428948033684e-07 -6.3870566430201947e-06 5.7189428948033684e-07 -0.19997344017093416 -1.0600619578804427e-06 -6.3870566430201947e-06 -1.0600619578804427e-06 -0.99992770458342228 4.6752375141734248e-05 -6.327674168557655e-07 -4.697475501247439e-06 -6.327674168557655e-07 -0.19997397662424765 -8.8123502280934574e-06 -4.697475501247439e-06 -8.8123502280934574e-06 -0.99992246311792821 4.4405445064260585e-05 4.8828600684836701e-06 -8.876709490693302e-06 4.8828600684836701e-06 -0.19997353120017439 -1.5929244625567662e-06 -8.876709490693302e-06 -1.5929244625567662e-06 -0.99992757157452705 4.5682866828156143e-05 1.2799294009700193e-06 -2.7839008718277825e-06 1.2799294009700193e-06 -0.19997100795189615 6.014462319070546e-06 -2.7839008718277825e-06 6.014462319070546e-06 -0.99992931253319783 3.0680169379460054e-05 2.6077166735842266e-07 -1.1860232049798469e-06 2.6077166735842266e-07 -0.19997578504786997 1.9637930787075319e-06 -1.1860232049798469e-06 1.9637930787075319e-06 -0.99993635998009944 3.217035656299938e-05 -2.6207390604447554e-06 -1.1090722998985392e-05 -2.6207390604447554e-06 -0.1999752322840006 7.7723850333555333e-07 -1.1090722998985392e-05 7.7723850333555333e-07 -0.99994165921845957 5.7627533071924475e-05 8.3470785640300051e-06 -6.9680127791627022e-06 8.3470785640300051e-06 -0.19996780626576904 -4.1916958930521275e-06 -6.9680127791627022e-06 -4.1916958930521275e-06 -0.99992199828096284 5.9609421541928498e-05 -8.3114537316919132e-06 -2.9043346242985102e-06 -8.3114537316919132e-06 -0.19997331735093887 -3.8075850268270983e-06 -2.9043346242985102e-06 -3.8075850268270983e-06 -0.99994357685697421 2.6053824817573457e-05 -3.2325742968528331e-06 2.227704421153831e-06 -3.2325742968528331e-06 -0.19997923362154046 2.0381266013780319e-06 2.227704421153831e-06 2.0381266013780319e-06 -0.99995429523509305 4.1199219848742086e-05 5.3284138903852338e-07 -5.3565085135209856e-06 5.3284138903852338e-07 -0.19997719384256946 -5.9259902540631515e-09 -5.3565085135209856e-06 -5.9259902540631515e-09 -0.9999499001711063 6.2464345030321944e-05 -1.6545932461797329e-05 -6.754542746734149e-06 -1.6545932461797329e-05 -0.19996836189783923 8.2252876647537221e-06 -6.754542746734149e-06 8.2252876647537221e-06 -0.99992484040456597 5.4838564254588995e-05 9.5636835366834218e-07 -1.5194967476428456e-05 9.5636835366834218e-07 -0.19996693882052385 -1.1399721843163846e-06 -1.5194967476428456e-05 -1.1399721843163846e-06 -0.9999125415779293 3.399509679280488e-05 -2.9464469029890016e-06 -5.4373121084472231e-06 -2.9464469029890016e-06 -0.19997224825029147 -1.7557964313574814e-06 -5.4373121084472231e-06 -1.7557964313574814e-06 -0.99992744988615856 4.940589776514237e-05 8.6391982197955103e-06 -1.168466962869763e-05 8.6391982197955103e-06 -0.19997443853953967 2.7637884718600958e-06 -1.168466962869763e-05 2.7637884718600958e-06 -0.99995315595997791 2.6396038878551131e-05 -5.3509368375985647e-06 -2.1136200465399213e-06 -5.3509368375985647e-06 -0.19997891108314947 2.230392982638385e-06 -2.1136200465399213e-06 2.230392982638385e-06 -0.99995424264310673 3.4880199177411697e-05 -5.6408042184301878e-06 -5.8638912190378534e-06 -5.6408042184301878e-06 -0.19997678109460448 1.5633912140433637e-06 -5.8638912190378534e-06 1.5633912140433637e-06 -0.99995547985571065 2.825921789062491e-05 1.921969327116903e-06 -1.040440979793722e-05 1.921969327116903e-06 -0.19998176865071593 -1.0388907887293186e-06 -1.040440979793722e-05 -1.0388907887293186e-06 -0.99995439416236209 3.8194563577703677e-05 3.1572907339928564e-06 -5.7265207734635837e-06 3.1572907339928564e-06 -0.19997723606315074 -3.4105579072019054e-07 -5.7265207734635837e-06 -3.4105579072019054e-07 -0.99995038565981031 3.5396428084560894e-05 -8.5899499789823197e-07 -8.628772342200719e-07 -8.5899499789823197e-07 -0.19997549533945561 -4.8464429494021743e-06 -8.628772342200719e-07 -4.8464429494021743e-06 -0.99994950379918557 0.00010411625062439755 3.289523991272149e-06 -1.5566986486525991e-05 3.289523991272149e-06 -0.19995514962773714 -6.1699145192939397e-07 -1.5566986486525991e-05 -6.1699145192939397e-07 -0.99991182470553153 3.4994303545921035e-05 1.2603845373590877e-06 -4.7641210502158415e-06 1.2603845373590877e-06 -0.19997295565369666 -9.1373354660362338e-08 -4.7641210502158415e-06 -9.1373354660362338e-08 -0.99993137838312274 3.4733244491658155e-05 2.3915288436217302e-06 -3.9831753408936521e-06 2.3915288436217302e-06 -0.19997579447512459 5.1079487454197547e-06 -3.9831753408936521e-06 5.1079487454197547e-06 -0.99993229684011498 3.5127615215818642e-05 4.7187441132661687e-08 2.3214172584218318e-07 4.7187441132661687e-08 -0.19997838172574292 -1.8914517507795381e-08 2.3214172584218318e-07 -1.8914517507795381e-08 -0.99995176957307674 2.3503460625295958e-05 1.6031479205018638e-06 -2.5257480793516862e-06 1.6031479205018638e-06 -0.19997966997098704 1.8567352860765496e-06 -2.5257480793516862e-06 1.8567352860765496e-06 -0.99996363006017308 2.0685916049090203e-05 3.6046723594006819e-06 -5.2086965002251517e-06 3.6046723594006819e-06 -0.19997676049481883 -1.5295346971200274e-06 -5.2086965002251517e-06 -1.5295346971200274e-06 -0.99995391082667417 2.123328366321342e-05 1.4275091645096145e-06 -4.8382708164318444e-06 1.4275091645096145e-06 -0.19997400109278973 1.8157688712605591e-06 -4.8382708164318444e-06 1.8157688712605591e-06 -0.99993530854429613 7.7280183375424971e-05 -1.1746068750944427e-06 -6.502727604607017e-06 -1.1746068750944427e-06 -0.19996410726181685 -7.5041547276111231e-07 -6.502727604607017e-06 -7.5041547276111231e-07 -0.99992309197462004 3.7944537102624354e-05 -3.9838303327042962e-06 -2.8595955773313975e-06 -3.9838303327042962e-06 -0.19997312603175607 6.2496990427263199e-07 -2.8595955773313975e-06 6.2496990427263199e-07 -0.99993146817700829 0.00011709534229070728 1.3268073735508906e-06 -9.4909970584922121e-06 1.3268073735508906e-06 -0.19994677204021277 -4.1046878161699052e-06 -9.4909970584922121e-06 -4.1046878161699052e-06 -0.99988089905587718 9.959069256870734e-05 2.1604737137099976e-06 -2.0828070703360346e-05 2.1604737137099976e-06 -0.19995314965270583 -2.2638753592874039e-06 -2.0828070703360346e-05 -2.2638753592874039e-06 -0.9998981628459056 8.3423338195665053e-05 -1.7351303548522963e-06 -1.1860086913562107e-05 -1.7351303548522963e-06 -0.19996121777356302 1.3491259530651334e-06 -1.1860086913562107e-05 1.3491259530651334e-06 -0.99991291875183208 0.00012476863907284752 -5.0357636000414871e-07 -1.7886496997965295e-05 -5.0357636000414871e-07 -0.19994672526252955 2.2868471544756908e-06 -1.7886496997965295e-05 2.2868471544756908e-06 -0.99988906684193335 0.00010408161010933004 -2.3320595101275021e-06 -1.0453431799062329e-06 -2.3320595101275021e-06 -0.19995497947016705 3.4437145290944216e-07 -1.0453431799062329e-06 3.4437145290944216e-07 -0.99989766025041726 0.00012414569430385658 -2.9311302653101578e-07 -1.6468184158791033e-05 -2.9311302653101578e-07 -0.19994096605265266 -1.1837060501784791e-06 -1.6468184158791033e-05 -1.1837060501784791e-06 -0.99986289650478 9.3287982968481842e-05 1.8395637440223345e-06 -1.1214943151038881e-05 1.8395637440223345e-06 -0.19995837388007298 -6.8422708401905119e-09 -1.1214943151038881e-05 -6.8422708401905119e-09 -0.99991746482845922 0.00011976145788739068 1.6803069001019132e-06 -5.1955548443505251e-06 1.6803069001019132e-06 -0.19994448663282216 -7.5942766253334071e-07 -5.1955548443505251e-06 -7.5942766253334071e-07 -0.99987331968093507 0.00012830222028263616 4.2543521592163594e-07 -1.8651827280891098e-05 4.2543521592163594e-07 -0.19994133539568276 -3.7362895088932646e-07 -1.8651827280891098e-05 -3.7362895088932646e-07 -0.99986339756485054 0.00011076796820341794 6.6328024683631013e-07 -4.1430753666554798e-06 6.6328024683631013e-07 -0.19995149972966619 -1.4338917049272482e-06 -4.1430753666554798e-06 -1.4338917049272482e-06 -0.99989702486784582 0.00011883268586210249 -2.7062205574282662e-06 -9.0311388795949465e-06 -2.7062205574282662e-06 -0.19994462868115015 7.9759801207002212e-06 -9.0311388795949465e-06 7.9759801207002212e-06 -0.9998682380051116 0.00011753625921195887 -1.0350104797954284e-06 -1.9935563160489167e-05 -1.0350104797954284e-06 -0.19995200159046078 -1.3233020834668707e-07 -1.9935563160489167e-05 -1.3233020834668707e-07 -0.99990335792015372 0.0001251902241509173 -1.2217033743995542e-06 -1.6569191466420108e-05 -1.2217033743995542e-06 -0.19994103625178716 -1.2003588654163622e-06 -1.6569191466420108e-05 -1.2003588654163622e-06 -0.99986270236304664 0.0001053439730673289 3.2089794172409299e-06 -3.6462888646227043e-06 3.2089794172409299e-06 -0.19995347274146474 -6.2119483401623654e-07 -3.6462888646227043e-06 -6.2119483401623654e-07 -0.99989624013299161 0.00017221821166424345 -1.0922392037842451e-06 -2.4610197505742226e-05 -1.0922392037842451e-06 -0.19992976121420158 -4.1048756327377589e-07 -2.4610197505742226e-05 -4.1048756327377589e-07 -0.99985453933037904 0.00010181430698980032 1.0568631407356102e-05 -1.9429041341334496e-05 1.0568631407356102e-05 -0.19995332645908756 -7.7790572925451329e-06 -1.9429041341334496e-05 -7.7790572925451329e-06 -0.99989627743496545 0.00011648909186490197 -6.7368894838495875e-06 -7.367498825905372e-06 -6.7368894838495875e-06 -0.19994890389799402 -2.9606131173309791e-06 -7.367498825905372e-06 -2.9606131173309791e-06 -0.99988699023205418 0.00011235723031777223 1.6751669226277977e-05 -1.1564812411934966e-05 1.6751669226277977e-05 -0.19994876778381354 4.3965625113884244e-06 -1.1564812411934966e-05 4.3965625113884244e-06 -0.9998904923855978 0.00013932385435830308 6.7975859318921474e-07 -3.9860902809607524e-06 6.7975859318921474e-07 -0.1999415755333416 -1.5662811663208487e-06 -3.9860902809607524e-06 -1.5662811663208487e-06 -0.99988014117176027 0.00012140499875873401 -8.3352261929682802e-06 -2.2356499347120362e-05 -8.3352261929682802e-06 -0.1999512369053883 7.8117579982439622e-06 -2.2356499347120362e-05 7.8117579982439622e-06 -0.99989921076693866 0.00011734987086475801 2.5529586102877061e-06 -2.2884249473165141e-07 2.5529586102877061e-06 -0.19994798294925831 -2.827669819238654e-06 -2.2884249473165141e-07 -2.827669819238654e-06 -0.99988681040687943 0.00011206704761512754 -2.4869322634778902e-06 -8.0588383473134684e-06 -2.4869322634778902e-06 -0.19995215198171046 -2.2532394661212152e-06 -8.0588383473134684e-06 -2.2532394661212152e-06 -0.99991159865494783 0.00010620836957775381 3.7327673827646261e-06 -1.5165768696423498e-05 3.7327673827646261e-06 -0.19995475569215715 2.5227090814095021e-06 -1.5165768696423498e-05 2.5227090814095021e-06 -0.99990813019661084 0.0001698222153223572 4.3743010430025778e-06 -2.0202589601225895e-05 4.3743010430025778e-06 -0.19993133244781713 9.662341793337248e-08 -2.0202589601225895e-05 9.662341793337248e-08 -0.99985331693897361 0.0001418447934307121 -2.2886922237195614e-07 -1.680791093505718e-05 -2.2886922237195614e-07 -0.19993773078049037 1.6012374581819699e-06 -1.680791093505718e-05 1.6012374581819699e-06 -0.99986038733960836 0.00017334834297733082 -4.4540188354891927e-06 -2.3401463259187238e-05 -4.4540188354891927e-06 -0.19993006426753313 1.1070696095405452e-06 -2.3401463259187238e-05 1.1070696095405452e-06 -0.99985591401605012 0.00013757402999736712 3.8852281419540691e-06 -1.7209216780611492e-05 3.8852281419540691e-06 -0.1999444388987488 -5.6234787320086355e-06 -1.7209216780611492e-05 -5.6234787320086355e-06 -0.9998703488283418 0.00011476783299979587 -6.3494593901556595e-06 -2.9434211819112654e-05 -6.3494593901556595e-06 -0.19995289398689864 -9.340561442083839e-07 -2.9434211819112654e-05 -9.340561442083839e-07 -0.99989911627654671 0.00010676852408786353 -1.1551150105638423e-06 4.6187661317809159e-07 -1.1551150105638423e-06 -0.19995414348354701 -5.9477833458387863e-07 4.6187661317809159e-07 -5.9477833458387863e-07 -0.999897558556337 0.00010897926465303076 -4.0324847028554733e-06 -1.0830211594203831e-07 -4.0324847028554733e-06 -0.19994778952617798 5.8281586532427099e-06 -1.0830211594203831e-07 5.8281586532427099e-06 -0.9998935106676643 0.00014038656465875654 1.8267076801994643e-06 -1.8403549378320783e-05 1.8267076801994643e-06 -0.19993845551660683 -3.1970473379772102e-07 -1.8403549378320783e-05 -3.1970473379772102e-07 -0.99986539369449812 8.3679825665816665e-05 9.5432928680225376e-07 -1.291745750719997e-05 9.5432928680225376e-07 -0.19995404248837834 4.9251173650510793e-06 -1.291745750719997e-05 4.9251173650510793e-06 -0.99989293225498432 0.00013755765029288547 2.0449222014046734e-06 -2.3866169115427383e-05 2.0449222014046734e-06 -0.19994363911556112 1.5236826689246641e-07 -2.3866169115427383e-05 1.5236826689246641e-07 -0.99988115264857669 0.00013897142609731183 4.9569755345324971e-06 -1.0755928984931828e-05 4.9569755345324971e-06 -0.19994072891135339 6.2757471730456871e-07 -1.0755928984931828e-05 6.2757471730456871e-07 -0.99986603000402408 0.00013620628570720772 -5.9193000753349268e-06 -1.4822108429513037e-07 -5.9193000753349268e-06 -0.19993903774550292 2.189380200801061e-06 -1.4822108429513037e-07 2.189380200801061e-06 -0.99987309611599651 0.00018105935234757897 2.7825094343470618e-06 -1.57069362287654e-05 2.7825094343470618e-06 -0.19992620178626885 -1.1466081948352524e-06 -1.57069362287654e-05 -1.1466081948352524e-06 -0.99985283642187239 0.00013864477927372221 -6.193105657528406e-06 -6.2094102841747656e-06 -6.193105657528406e-06 -0.19994270999721664 -2.8013974033846978e-06 -6.2094102841747656e-06 -2.8013974033846978e-06 -0.99988386722101197 0.00011053523577508884 9.6061945864327475e-07 -1.9371020677061423e-05 9.6061945864327475e-07 -0.19995498332400319 2.7495850198899774e-06 -1.9371020677061423e-05 2.7495850198899774e-06 -0.9999030066995469 9.5824482819084622e-05 -5.0167329616554021e-07 -7.6233275130288547e-06 -5.0167329616554021e-07 -0.19995701157330215 -1.7466202841820433e-06 -7.6233275130288547e-06 -1.7466202841820433e-06 -0.99990313220475846 8.462329043290584e-05 2.3853348031766487e-06 -1.7740453902848063e-05 2.3853348031766487e-06 -0.1999640944168376 6.925425618975467e-06 -1.7740453902848063e-05 6.925425618975467e-06 -0.99992248275275886 8.0177823887694899e-05 -1.4005241431620844e-06 -2.1047771879167954e-05 -1.4005241431620844e-06 -0.19996561498624699 6.3086388513156066e-07 -2.1047771879167954e-05 6.3086388513156066e-07 -0.99992909834827159 3.6195635938901516e-05 -1.6861465399881327e-07 -3.3597712736366248e-06 -1.6861465399881327e-07 -0.19997796912932844 4.8218893775597849e-06 -3.3597712736366248e-06 4.8218893775597849e-06 -0.99994505873565676 7.9616286071892972e-05 1.9379102723310265e-06 -2.0455372588906728e-05 1.9379102723310265e-06 -0.19996548950890203 3.0648849411729628e-06 -2.0455372588906728e-05 3.0648849411729628e-06 -0.99992625386231726 7.3590146339119755e-05 4.4222105330038461e-06 -5.3298290730724451e-06 4.4222105330038461e-06 -0.19996989119784425 1.3005977295144078e-07 -5.3298290730724451e-06 1.3005977295144078e-07 -0.9999379205468415 8.1659188293059515e-05 -4.4140645319292214e-06 -1.0405185046025167e-05 -4.4140645319292214e-06 -0.19996313292493606 3.8857189841312589e-06 -1.0405185046025167e-05 3.8857189841312589e-06 -0.9999136275141316 7.2509116368357773e-05 -3.5233228830053083e-06 2.5420567295597607e-06 -3.5233228830053083e-06 -0.19996975293110364 -7.6278204996782506e-07 2.5420567295597607e-06 -7.6278204996782506e-07 -0.99993592080310068 2.8686330329596998e-05 2.9992105719526812e-07 -2.8678314689667417e-06 2.9992105719526812e-07 -0.19998251713807169 6.1473578831794384e-06 -2.8678314689667417e-06 6.1473578831794384e-06 -0.9999657984089505 3.1567555783373891e-05 -1.0746913468338055e-07 -8.2992399652592752e-06 -1.0746913468338055e-07 -0.19997904633275376 4.2115945442233738e-07 -8.2992399652592752e-06 4.2115945442233738e-07 -0.99995065000625605 2.3576030412364446e-05 -2.2228742890409385e-07 -7.317482979996015e-06 -2.2228742890409385e-07 -0.19998328467520565 3.8690877637304055e-06 -7.317482979996015e-06 3.8690877637304055e-06 -0.99997442083213528 2.3956437399608177e-05 -7.4686582734236248e-07 4.3689845921068837e-06 -7.4686582734236248e-07 -0.19998334383679528 8.6213892536157744e-07 4.3689845921068837e-06 8.6213892536157744e-07 -0.99998319231356536 2.1923545354241014e-05 3.0571090065395733e-06 -2.569509828020955e-06 3.0571090065395733e-06 -0.19997569728465048 5.9856109460021401e-06 -2.569509828020955e-06 5.9856109460021401e-06 -0.99994710655940278 1.679491831074742e-05 3.423740230492783e-06 -4.3309212589548451e-06 3.423740230492783e-06 -0.19998343749919889 -9.2827005193640844e-08 -4.3309212589548451e-06 -9.2827005193640844e-08 -0.99997267904020237 3.409824574251985e-05 7.7432565602901071e-07 -6.9495574974709484e-06 7.7432565602901071e-07 -0.19998223240488255 2.5904168077170442e-06 -6.9495574974709484e-06 2.5904168077170442e-06 -0.99996670789021724 3.2207037324427645e-05 -7.1049536654944416e-07 -7.8537446950299739e-06 -7.1049536654944416e-07 -0.19998439980808236 9.4784261994718122e-07 -7.8537446950299739e-06 9.4784261994718122e-07 -0.99996858483352469 3.2028394360450463e-05 -2.1469269152428652e-06 -5.9923900850300527e-06 -2.1469269152428652e-06 -0.19997882166840886 8.7715609028288233e-07 -5.9923900850300527e-06 8.7715609028288233e-07 -0.9999469048231111 2.7724868250200707e-05 -1.2958151419511122e-06 -1.6410840700809004e-06 -1.2958151419511122e-06 -0.19998231814335066 -9.7920730564027281e-06 -1.6410840700809004e-06 -9.7920730564027281e-06 -0.99996105720731432 2.7927766891755468e-05 1.0349178183258702e-06 3.204917757848591e-06 1.0349178183258702e-06 -0.19998448109918199 1.8642305650296009e-06 3.204917757848591e-06 1.8642305650296009e-06 -0.99997167819731114 3.2296310916946069e-05 1.1446632967954737e-06 3.1607633734775931e-06 1.1446632967954737e-06 -0.19998105887852202 1.194623559852559e-06 3.1607633734775931e-06 1.194623559852559e-06 -0.99995059347523707 2.6765817592311336e-05 -5.8522320536210958e-07 -9.2864292478012089e-06 -5.8522320536210958e-07 -0.19998438073272418 -8.4394997457160059e-07 -9.2864292478012089e-06 -8.4394997457160059e-07 -0.99997690577609344 3.2805588637940808e-05 -3.1965146063477558e-08 -1.5812677232052152e-06 -3.1965146063477558e-08 -0.19998094575468783 9.1562365851505234e-06 -1.5812677232052152e-06 9.1562365851505234e-06 -0.99995811257354683 3.4915065415419555e-05 4.3947461804336769e-07 1.8654046539667846e-06 4.3947461804336769e-07 -0.19997773688103659 -1.3566046483948213e-06 1.8654046539667846e-06 -1.3566046483948213e-06 -0.99994827759636751 7.1172830995428274e-05 4.7599532835142568e-07 -6.9904587765012849e-06 4.7599532835142568e-07 -0.1999631934036781 2.6416150156194362e-07 -6.9904587765012849e-06 2.6416150156194362e-07 -0.99991178760058841 3.8155877845613695e-05 -1.1524691138473261e-06 -8.2615293273136103e-06 -1.1524691138473261e-06 -0.1999795941326129 -8.7223723133078579e-08 -8.2615293273136103e-06 -8.7223723133078579e-08 -0.99996304427730953 8.3504286559343832e-05 7.6326222380865731e-07 -2.3327543224649361e-05 7.6326222380865731e-07 -0.19996342775448361 -3.1300516194487926e-06 -2.3327543224649361e-05 -3.1300516194487926e-06 -0.99992371253905299 5.3511062082511884e-05 2.6055772689561887e-07 5.2540326985961103e-06 2.6055772689561887e-07 -0.19997135639799479 4.7959910309813836e-07 5.2540326985961103e-06 4.7959910309813836e-07 -0.99993494080325895 2.6989446754610569e-05 -3.1095375206132743e-07 -8.5327976018234608e-06 -3.1095375206132743e-07 -0.19998488095490963 -1.7296527958510222e-06 -8.5327976018234608e-06 -1.7296527958510222e-06 -0.99997511862140964 7.838318734743055e-05 -9.3396097148894454e-07 -2.0164816318724021e-05 -9.3396097148894454e-07 -0.19996215944151441 -1.533246446028258e-06 -2.0164816318724021e-05 -1.533246446028258e-06 -0.99992760281182935 3.4247676678700323e-05 1.9571661299678202e-06 -7.0519051524886578e-06 1.9571661299678202e-06 -0.1999824302063048 4.52679165263703e-07 -7.0519051524886578e-06 4.52679165263703e-07 -0.99996227764805079 3.1618971714220123e-05 -1.2338137646687642e-06 3.0958052543716974e-07 -1.2338137646687642e-06 -0.19997911002580926 -2.1264512677018899e-06 3.0958052543716974e-07 -2.1264512677018899e-06 -0.99995033554743795 3.5984771208585897e-05 -2.3270756083249169e-06 -9.2667164437454375e-06 -2.3270756083249169e-06 -0.19998082029056863 -6.2730406391597882e-07 -9.2667164437454375e-06 -6.2730406391597882e-07 -0.99996439059825359 3.3618377128119548e-05 -4.4695877111866949e-06 -6.4009630611483459e-06 -4.4695877111866949e-06 -0.19997880260913825 5.1228450637097467e-07 -6.4009630611483459e-06 5.1228450637097467e-07 -0.99996928399918339 8.6370184436468378e-05 9.5537317095099848e-07 -2.429470497844477e-05 9.5537317095099848e-07 -0.19996121810318757 4.9659672596291671e-08 -2.429470497844477e-05 4.9659672596291671e-08 -0.99991983614835611 8.4579594698541705e-05 1.3756166913649267e-06 -2.2555216323549843e-05 1.3756166913649267e-06 -0.19996094799330144 -1.6270056066858274e-06 -2.2555216323549843e-05 -1.6270056066858274e-06 -0.99992139147419712 3.1141364742692801e-05 9.5323159592078377e-07 2.4835427159253243e-06 9.5323159592078377e-07 -0.19997699509686773 -7.4436138662592466e-07 2.4835427159253243e-06 -7.4436138662592466e-07 -0.99994853464459954 2.377049153323707e-05 1.0416213437238832e-06 -6.5659124544037439e-06 1.0416213437238832e-06 -0.19998528396204074 7.3333452177415381e-07 -6.5659124544037439e-06 7.3333452177415381e-07 -0.99997245656948808 2.3576429267535559e-05 1.4863597766064856e-06 -7.6598748219858237e-06 1.4863597766064856e-06 -0.19998368016929113 -6.9786323259046767e-07 -7.6598748219858237e-06 -6.9786323259046767e-07 -0.99997474249795015 4.5763855091029981e-05 -1.0436729135277119e-06 2.3504904076432354e-06 -1.0436729135277119e-06 -0.19997133046295823 8.0839770499885333e-07 2.3504904076432354e-06 8.0839770499885333e-07 -0.99993232924614794 4.5145948081359855e-05 -1.7991566996983437e-06 5.1362898156881442e-07 -1.7991566996983437e-06 -0.19997139508203043 8.6837207557977081e-07 5.1362898156881442e-07 8.6837207557977081e-07 -0.99993177969925062 2.1596578456128945e-05 1.8232986151837381e-06 -7.8685752611384885e-06 1.8232986151837381e-06 -0.19998456571453083 9.504729223674957e-07 -7.8685752611384885e-06 9.504729223674957e-07 -0.99997383152107622 4.5918366069264138e-05 -1.8376186857759668e-06 6.7090660904600696e-07 -1.8376186857759668e-06 -0.19997072532611138 1.2159732175609506e-06 6.7090660904600696e-07 1.2159732175609506e-06 -0.99992851307692288 3.45203887230916e-05 -4.4783067941485559e-06 -1.3143763002654296e-05 -4.4783067941485559e-06 -0.19998052236087982 4.6085401914641722e-06 -1.3143763002654296e-05 4.6085401914641722e-06 -0.99996668995526949 3.8096088239569781e-05 -2.8516164312500949e-08 -1.3325118266460656e-05 -2.8516164312500949e-08 -0.19998160401413445 -5.7349847226717543e-07 -1.3325118266460656e-05 -5.7349847226717543e-07 -0.99997135054720498 8.4721110629959462e-05 -1.61101557121742e-06 -2.3389721651057016e-05 -1.61101557121742e-06 -0.19996112061585325 3.4690205232834614e-06 -2.3389721651057016e-05 3.4690205232834614e-06 -0.99992029205375266 4.6183582338099605e-05 -3.758422578632224e-06 -2.2161106045803791e-06 -3.758422578632224e-06 -0.19997307827424926 6.4682468560173234e-06 -2.2161106045803791e-06 6.4682468560173234e-06 -0.99994184814837439 3.2805671871027897e-05 7.5070932725610859e-07 -5.1091952824044995e-06 7.5070932725610859e-07 -0.19998149688962297 9.8146462956805181e-07 -5.1091952824044995e-06 9.8146462956805181e-07 -0.99996954704240704 3.1273194535996751e-05 2.3941753057875009e-06 2.6934462669103709e-06 2.3941753057875009e-06 -0.19997736457582949 2.8994345944721722e-06 2.6934462669103709e-06 2.8994345944721722e-06 -0.99994822150322138 3.3028630649384327e-05 2.4175421996661724e-06 -5.085818128636177e-06 2.4175421996661724e-06 -0.19997250403120345 1.6376531610795553e-06 -5.085818128636177e-06 1.6376531610795553e-06 -0.99992673079362271 5.2967857607277846e-05 -1.3856563497135893e-06 -1.5727923559194501e-05 -1.3856563497135893e-06 -0.19996490041066839 6.9627811483119473e-07 -1.5727923559194501e-05 6.9627811483119473e-07 -0.99991100435145919 5.2937971055433408e-05 5.6500837019050356e-06 -1.219852551631595e-05 5.6500837019050356e-06 -0.19997025462299867 -6.0835104779832783e-06 -1.219852551631595e-05 -6.0835104779832783e-06 -0.99992094513320717 5.1382138796178534e-05 6.7549233510803504e-06 -6.3089634397481276e-06 6.7549233510803504e-06 -0.19997251504212943 7.711736550231052e-06 -6.3089634397481276e-06 7.711736550231052e-06 -0.99995209567450594 3.994318478536818e-05 -1.6983935307109488e-06 -6.2255408630473852e-06 -1.6983935307109488e-06 -0.19997572102541045 9.0146856646100559e-07 -6.2255408630473852e-06 9.0146856646100559e-07 -0.99995252939699841 5.4185286672558952e-05 -8.9233586015082927e-06 -9.6799042269557489e-06 -8.9233586015082927e-06 -0.19996787853152564 5.2482937755726766e-06 -9.6799042269557489e-06 5.2482937755726766e-06 -0.99991997665185917 5.0199427797844795e-05 -4.8106838689353843e-06 -6.3527131669155468e-06 -4.8106838689353843e-06 -0.19997543880875676 -2.8926251989247476e-06 -6.3527131669155468e-06 -2.8926251989247476e-06 -0.99995259174022999 2.995652166859486e-05 4.1590929589785498e-06 -5.8436230567782133e-06 4.1590929589785498e-06 -0.19997949716165542 -3.65659559586895e-06 -5.8436230567782133e-06 -3.65659559586895e-06 -0.99995742874783877 2.8530937171922233e-05 1.9724121885899039e-06 5.8600179875245573e-07 1.9724121885899039e-06 -0.19997831233916563 -2.322015749123274e-06 5.8600179875245573e-07 -2.322015749123274e-06 -0.99995153583418261 2.9393668046336086e-05 4.6221512477891571e-06 -4.4647994700275362e-06 4.6221512477891571e-06 -0.19997919855818513 -1.2613776361192208e-06 -4.4647994700275362e-06 -1.2613776361192208e-06 -0.99995568508165711 3.7373988025279914e-05 -3.6264958005214334e-06 -6.280020384274998e-06 -3.6264958005214334e-06 -0.19998143914553812 7.9597406710263385e-07 -6.280020384274998e-06 7.9597406710263385e-07 -0.99995418148360216 3.9560846027519858e-05 1.5502723575898076e-05 -7.3134152926979112e-06 1.5502723575898076e-05 -0.19996555575635522 -7.5208628835810032e-06 -7.3134152926979112e-06 -7.5208628835810032e-06 -0.99992459012855228 0.00010801110941327519 -4.8445630995963834e-07 -1.6372293243804847e-05 -4.8445630995963834e-07 -0.19995686858325745 5.6628968359007104e-07 -1.6372293243804847e-05 5.6628968359007104e-07 -0.99991035842725173 5.9201628615390689e-05 -2.0777538336773481e-06 3.8110598994389733e-06 -2.0777538336773481e-06 -0.19997703387505439 7.9584252432596259e-07 3.8110598994389733e-06 7.9584252432596259e-07 -0.99992986553916019 4.1383440841702424e-05 -6.6884039373178961e-08 -9.7177635005607499e-06 -6.6884039373178961e-08 -0.19998110248777112 1.8079043089258562e-06 -9.7177635005607499e-06 1.8079043089258562e-06 -0.999955631112873 4.3982467639702705e-05 2.6392025578749989e-07 -7.0830704240743003e-06 2.6392025578749989e-07 -0.19997097668787889 -1.2609536410579381e-06 -7.0830704240743003e-06 -1.2609536410579381e-06 -0.99992587505531727 3.3899370233236858e-05 1.6351939650169293e-06 1.6165781941968049e-06 1.6351939650169293e-06 -0.19998229668009859 1.0476987712948471e-06 1.6165781941968049e-06 1.0476987712948471e-06 -0.99995333748292881 3.3867921542305064e-05 2.9352281123244731e-06 2.0392945280223174e-06 2.9352281123244731e-06 -0.19997916946951416 -1.0368612389788368e-06 2.0392945280223174e-06 -1.0368612389788368e-06 -0.99995267496412166 9.5661499017740681e-06 -2.8755882501496398e-06 2.6947911935248925e-06 -2.8755882501496398e-06 -0.19998148470305288 -5.7401311748250805e-07 2.6947911935248925e-06 -5.7401311748250805e-07 -0.99995800831891479 2.3782761073842806e-05 1.1200833701871127e-06 -4.6157147398639964e-06 1.1200833701871127e-06 -0.19997938213000288 6.5604636390048654e-07 -4.6157147398639964e-06 6.5604636390048654e-07 -0.99995703647744305 2.4842802393787444e-05 -6.5735114976329449e-06 -7.6655500748090688e-06 -6.5735114976329449e-06 -0.19997324124043259 4.0638811751314563e-06 -7.6655500748090688e-06 4.0638811751314563e-06 -0.99993697416106508 6.9974652023629957e-05 -2.5929393821258226e-06 -4.402479609755261e-07 -2.5929393821258226e-06 -0.19996605260096745 -1.4061546760313348e-07 -4.402479609755261e-07 -1.4061546760313348e-07 -0.99992505672582732 4.5511347603471863e-05 1.6037794722366621e-06 -6.8386577101176016e-06 1.6037794722366621e-06 -0.1999729085910949 1.5914197533106744e-06 -6.8386577101176016e-06 1.5914197533106744e-06 -0.99993402061393 2.7645584204982754e-05 -2.5210804543845495e-06 -4.4759645847491925e-06 -2.5210804543845495e-06 -0.19997674965653656 -8.0676238467525252e-07 -4.4759645847491925e-06 -8.0676238467525252e-07 -0.99995740665570487 2.3512831286320868e-05 -4.2326248576582935e-06 -2.3292378836803351e-06 -4.2326248576582935e-06 -0.19997074106690194 -6.8466737124239785e-06 -2.3292378836803351e-06 -6.8466737124239785e-06 -0.99994509803272047 4.007786444026884e-05 3.8586690798115806e-06 -9.9203636187983335e-06 3.8586690798115806e-06 -0.19998257448377421 -1.0409732440486152e-06 -9.9203636187983335e-06 -1.0409732440486152e-06 -0.99996446653652082 1.5618774066972207e-05 -2.6757289485974844e-06 -6.8142269651350063e-06 -2.6757289485974844e-06 -0.19998017471047236 7.4957360485239377e-07 -6.8142269651350063e-06 7.4957360485239377e-07 -0.99996937878249348 2.4293782776796391e-05 -2.009902244566727e-07 -7.7774579230194263e-06 -2.009902244566727e-07 -0.19998434699616663 -1.3827298304125435e-06 -7.7774579230194263e-06 -1.3827298304125435e-06 -0.99997804418361458 3.6851767030388061e-05 -1.5780264579734557e-06 -1.2712646625612223e-05 -1.5780264579734557e-06 -0.19997640820163509 3.1381982052991475e-06 -1.2712646625612223e-05 3.1381982052991475e-06 -0.9999453128434439 2.3425279657818265e-05 1.5957071537830987e-06 2.9949900404169227e-06 1.5957071537830987e-06 -0.19998117346551503 -1.4694191021735747e-06 2.9949900404169227e-06 -1.4694191021735747e-06 -0.99998139189801005 2.7557999312532999e-05 3.4211009449591159e-08 -3.3583977481210781e-06 3.4211009449591159e-08 -0.19998297811382493 -4.8541229080711901e-06 -3.3583977481210781e-06 -4.8541229080711901e-06 -0.99996736677845544 2.2813434740642791e-05 -1.8467907087436282e-06 -7.0818986008802653e-06 -1.8467907087436282e-06 -0.19998882744029878 8.0611058939084046e-07 -7.0818986008802653e-06 8.0611058939084046e-07 -0.99997671737967941 3.2215001856350511e-05 4.8701180580792842e-06 -1.3082162646504969e-05 4.8701180580792842e-06 -0.1999812924210651 -5.9355200310307055e-06 -1.3082162646504969e-05 -5.9355200310307055e-06 -0.99996458479742767 3.9475906308372721e-05 -2.8821234299973517e-06 5.1090893451455344e-06 -2.8821234299973517e-06 -0.19998076341161708 -1.1874388987087592e-06 5.1090893451455344e-06 -1.1874388987087592e-06 -0.99995277487306744 4.1189975758415542e-05 1.2468347192166527e-06 -9.7567245302965233e-06 1.2468347192166527e-06 -0.1999823748352465 -4.8347515796409724e-07 -9.7567245302965233e-06 -4.8347515796409724e-07 -0.99996433478740343 8.0361070279533209e-05 2.3144080520216937e-07 -2.177212114823357e-05 2.3144080520216937e-07 -0.19996215127315509 -2.3942678755162206e-06 -2.177212114823357e-05 -2.3942678755162206e-06 -0.99991945046887132 5.1073923460265291e-05 3.7828829671356925e-06 -8.3602253919679015e-07 3.7828829671356925e-06 -0.19997335859520371 -7.4159761754288844e-06 -8.3602253919679015e-07 -7.4159761754288844e-06 -0.99994273838577818 5.4815773642968857e-05 -1.4779515586902699e-06 -8.2606106941440771e-06 -1.4779515586902699e-06 -0.19997373336027635 2.9893768715982816e-06 -8.2606106941440771e-06 2.9893768715982816e-06 -0.99993945214549873 7.2234188382092057e-05 -3.9827944191568142e-06 3.7368711375274088e-07 -3.9827944191568142e-06 -0.19996866144859071 2.2908613450667303e-08 3.7368711375274088e-07 2.2908613450667303e-08 -0.99992929474344283 7.9245506746206118e-05 2.4022382472940593e-06 -2.2258199469660234e-05 2.4022382472940593e-06 -0.19996416567310638 -1.2170011758350086e-06 -2.2258199469660234e-05 -1.2170011758350086e-06 -0.99992053750892129 3.7615127575496565e-05 1.6862095966488181e-06 4.3826305033967117e-06 1.6862095966488181e-06 -0.19998100231950011 -1.1537616257939476e-06 4.3826305033967117e-06 -1.1537616257939476e-06 -0.99995321292480055 7.9763115810926877e-05 -1.1323521150192164e-06 -1.7758587912641843e-05 -1.1323521150192164e-06 -0.19996585213859097 -2.5760973783039987e-06 -1.7758587912641843e-05 -2.5760973783039987e-06 -0.99992699636272597 4.6214195071864195e-05 3.0075938419685583e-06 -4.7716835713806915e-06 3.0075938419685583e-06 -0.19997524206238129 -6.2090209016485431e-06 -4.7716835713806915e-06 -6.2090209016485431e-06 -0.99994135183834587 0.00010902345340180197 2.2713350286153874e-06 -8.8914724472033413e-08 2.2713350286153874e-06 -0.19995237643631503 -4.49189493822999e-07 -8.8914724472033413e-08 -4.49189493822999e-07 -0.99989286152903167 0.00010975658270884203 4.1680836806305602e-06 -2.5291170713259703e-07 4.1680836806305602e-06 -0.199948207383285 -2.8404925505043366e-06 -2.5291170713259703e-07 -2.8404925505043366e-06 -0.99989095916698023 9.7205224295127124e-05 2.6060131363291319e-06 -5.1620932137730335e-06 2.6060131363291319e-06 -0.19995612281395325 2.2533313148720424e-06 -5.1620932137730335e-06 2.2533313148720424e-06 -0.99990474855653311 0.00011469846002776229 4.2740932054479933e-06 -1.6110411823033743e-05 4.2740932054479933e-06 -0.1999504813523334 -7.8500589495433815e-07 -1.6110411823033743e-05 -7.8500589495433815e-07 -0.99988941197844916 9.3199296301693657e-05 -2.6021858895437928e-07 -1.3608211117288604e-05 -2.6021858895437928e-07 -0.19995937431583033 -5.1847433490959105e-06 -1.3608211117288604e-05 -5.1847433490959105e-06 -0.99990863814197262 0.00013474310541394807 4.2145034645152755e-06 -6.9618697318141187e-07 4.2145034645152755e-06 -0.19994364827641142 2.5493656969910461e-06 -6.9618697318141187e-07 2.5493656969910461e-06 -0.9998803167351209 0.00010308987792484459 -2.7175825903967144e-06 -1.713563481753333e-05 -2.7175825903967144e-06 -0.1999561569438868 -4.1016052321207752e-06 -1.713563481753333e-05 -4.1016052321207752e-06 -0.99990391348781049 9.8670494490527005e-05 5.8321789029777671e-06 -1.270867980637802e-05 5.8321789029777671e-06 -0.19995422585864731 3.1130343653984482e-06 -1.270867980637802e-05 3.1130343653984482e-06 -0.99990833179133087 0.00014892521020781757 -1.4453479957146964e-06 -2.102510747371486e-05 -1.4453479957146964e-06 -0.19993564962605204 2.3368057471273573e-06 -2.102510747371486e-05 2.3368057471273573e-06 -0.99986046057787359 0.00014897091156995668 -2.6055861859111155e-06 -2.0691234633321218e-05 -2.6055861859111155e-06 -0.19993736489747416 -8.8951165500006368e-07 -2.0691234633321218e-05 -8.8951165500006368e-07 -0.99985863891261628 0.00017660177177125647 -7.7470674618314301e-07 -1.4029393112791055e-05 -7.7470674618314301e-07 -0.19992831708207026 -3.6457392407207578e-06 -1.4029393112791055e-05 -3.6457392407207578e-06 -0.99986188844495949 0.00014750908204352875 7.0591769585520501e-06 -1.1052184456971509e-05 7.0591769585520501e-06 -0.1999369684373058 -2.7660285009112329e-06 -1.1052184456971509e-05 -2.7660285009112329e-06 -0.99986533315725268 0.00013349855767108565 -4.1601806055259798e-06 -8.7164228965500024e-06 -4.1601806055259798e-06 -0.19994555522325785 1.4856515717642793e-06 -8.7164228965500024e-06 1.4856515717642793e-06 -0.9998822204167741 0.00013292422366029122 -6.5514494426652259e-07 -2.2412837448415601e-05 -6.5514494426652259e-07 -0.19994533642667633 1.16243380809955e-06 -2.2412837448415601e-05 1.16243380809955e-06 -0.99988118129426873 0.00012595646547353123 -6.1268893162414454e-07 -1.5714928253585114e-05 -6.1268893162414454e-07 -0.19994244687249307 -7.4977274652776593e-07 -1.5714928253585114e-05 -7.4977274652776593e-07 -0.99986204315575211 0.00010649556539654714 4.1699154702455312e-06 -7.4479406603211729e-06 4.1699154702455312e-06 -0.19994812828165831 -3.8195121563333601e-06 -7.4479406603211729e-06 -3.8195121563333601e-06 -0.99988290835750915 0.00014461732184800624 -3.0904275626315235e-06 -1.416272108768768e-05 -3.0904275626315235e-06 -0.1999389217378913 -1.2468146959321302e-06 -1.416272108768768e-05 -1.2468146959321302e-06 -0.99985744707444324 0.00014505973829304075 -1.0130835133262653e-06 -9.3518858340080335e-06 -1.0130835133262653e-06 -0.19993873462345957 -1.1105080954809665e-06 -9.3518858340080335e-06 -1.1105080954809665e-06 -0.9998597282869035 0.0001072949243606236 -4.1504423073838571e-07 -1.3020580317268937e-06 -4.1504423073838571e-07 -0.19995179424654386 -6.3446496112451456e-09 -1.3020580317268937e-06 -6.3446496112451456e-09 -0.99989289972327811 9.4438675179997489e-05 -6.0078840599932334e-07 -9.5138076920825432e-06 -6.0078840599932334e-07 -0.19995892257389469 -9.9917552364575668e-07 -9.5138076920825432e-06 -9.9917552364575668e-07 -0.99991734515966435 0.00011728977223546266 -7.131654755031143e-08 -2.3157497989312326e-05 -7.131654755031143e-08 -0.1999503941781211 -1.710176447511369e-06 -2.3157497989312326e-05 -1.710176447511369e-06 -0.99989512282495685 9.6565875918219746e-05 -6.1798767938292363e-07 -1.2237407131111822e-05 -6.1798767938292363e-07 -0.19995699169695991 -2.0795625994725342e-06 -1.2237407131111822e-05 -2.0795625994725342e-06 -0.99990955903286149 0.00010088732955559898 4.5145057612347329e-06 -1.8216276213373073e-05 4.5145057612347329e-06 -0.1999511683006101 -7.4016731759218857e-06 -1.8216276213373073e-05 -7.4016731759218857e-06 -0.99989580766316033 0.00014296825462745133 -3.9744325790441985e-07 -1.8713170051753991e-05 -3.9744325790441985e-07 -0.19993852198067663 -1.1799238587295591e-06 -1.8713170051753991e-05 -1.1799238587295591e-06 -0.99986220208193011 0.00011866511750430186 2.0272386283179717e-06 -5.3516987947865857e-06 2.0272386283179717e-06 -0.19994747222419101 -3.1718915974865425e-06 -5.3516987947865857e-06 -3.1718915974865425e-06 -0.99988042321417425 0.00012804109477926318 1.2558056224136017e-06 -1.4970370473377237e-05 1.2558056224136017e-06 -0.19994113723860008 1.3411484487413361e-06 -1.4970370473377237e-05 1.3411484487413361e-06 -0.99986193920538069 0.00011753869645425574 5.1844517161186912e-06 -7.5932419766333581e-06 5.1844517161186912e-06 -0.19994504873192498 -1.1564798372498686e-05 -7.5932419766333581e-06 -1.1564798372498686e-05 -0.9998627681405674 0.00011810860273264723 1.6353578875675179e-06 -1.9530925640109942e-05 1.6353578875675179e-06 -0.19995267636693431 1.2141626674067041e-06 -1.9530925640109942e-05 1.2141626674067041e-06 -0.99990305094186072 0.00011250194807832514 -1.6142540727036332e-06 -3.4438397634034557e-06 -1.6142540727036332e-06 -0.19995060151393651 1.2301099638900581e-06 -3.4438397634034557e-06 1.2301099638900581e-06 -0.99989268624590188 0.00010830018040192124 -3.4131430510312665e-06 -2.7916065175048743e-06 -3.4131430510312665e-06 -0.19995008300389266 2.0491224628216287e-07 -2.7916065175048743e-06 2.0491224628216287e-07 -0.99989246565178092 0.00013103196901377567 -1.4093276948703667e-06 -1.7331368416084736e-05 -1.4093276948703667e-06 -0.1999410935110858 4.8796951490626128e-07 -1.7331368416084736e-05 4.8796951490626128e-07 -0.99986303199881021 0.00011495209958067854 -3.7954543766608344e-06 1.0495791468168036e-06 -3.7954543766608344e-06 -0.19994900817614947 3.5711799784010623e-06 1.0495791468168036e-06 3.5711799784010623e-06 -0.9998887547399038 0.00012011968339564749 7.8275958796818973e-06 -6.770975222142317e-06 7.8275958796818973e-06 -0.19994881658067598 4.3468235750854234e-06 -6.770975222142317e-06 4.3468235750854234e-06 -0.99988853747932938 9.974265135852256e-05 3.8080372276857687e-06 -2.2160571375211269e-05 3.8080372276857687e-06 -0.19995521020376888 -4.202848786549751e-06 -2.2160571375211269e-05 -4.202848786549751e-06 -0.99990229861493352 0.00011850510963565264 -1.3639646340225909e-05 -9.8508001923347521e-06 -1.3639646340225909e-05 -0.19994729318601209 -4.1212510915045186e-06 -9.8508001923347521e-06 -4.1212510915045186e-06 -0.99989042912228265 0.00013956942774492886 -4.5026211056265533e-07 -3.731865107381438e-06 -4.5026211056265533e-07 -0.19994304139132016 2.6378560571416187e-06 -3.731865107381438e-06 2.6378560571416187e-06 -0.99988271690917341 0.00010064605287954387 -7.7803354046036067e-06 -2.2506434203914405e-05 -7.7803354046036067e-06 -0.19995346222626967 6.5753586628858329e-06 -2.2506434203914405e-05 6.5753586628858329e-06 -0.9999013032116425 9.8949265173065015e-05 -5.5153451615979529e-06 -1.4480805255345786e-05 -5.5153451615979529e-06 -0.19995568281135923 -2.0825267273982817e-06 -1.4480805255345786e-05 -2.0825267273982817e-06 -0.99990722025368095 0.00017173011760529544 1.2665078142081732e-06 -2.5520913526741462e-05 1.2665078142081732e-06 -0.19993077445109708 1.1899866780851198e-06 -2.5520913526741462e-05 1.1899866780851198e-06 -0.99985428324694903 0.00017246418219718507 4.1176776765624827e-06 -2.4338571282367383e-05 4.1176776765624827e-06 -0.1999298510108205 1.4098815417362687e-06 -2.4338571282367383e-05 1.4098815417362687e-06 -0.99985385162438156 0.00017072397454409582 -5.0825894272676608e-06 -2.1636560000537486e-05 -5.0825894272676608e-06 -0.19993183622220123 4.0574349147171063e-07 -2.1636560000537486e-05 4.0574349147171063e-07 -0.99985308632804992 0.0001416353088911082 -4.7389059640658789e-07 -1.6260684352786825e-05 -4.7389059640658789e-07 -0.19993827249239537 -1.3636300288943914e-06 -1.6260684352786825e-05 -1.3636300288943914e-06 -0.99986152936307837 0.00022047395424076854 2.0828973340401662e-07 -2.8998213632558389e-06 2.0828973340401662e-07 -0.19991476510175807 2.8389620754243339e-07 -2.8998213632558389e-06 2.8389620754243339e-07 -0.99981908054371693 0.00020647312063271084 -6.3445637994067929e-07 -1.3506924075201709e-05 -6.3445637994067929e-07 -0.1999211240612816 5.3340924651562593e-07 -1.3506924075201709e-05 5.3340924651562593e-07 -0.99984558933302514 0.00018655200077249967 -1.0871951458197087e-05 -8.1981803419228783e-06 -1.0871951458197087e-05 -0.19992311402297092 6.3580735150114975e-06 -8.1981803419228783e-06 6.3580735150114975e-06 -0.99983538636077629 0.00019171361919601004 -9.6954010942792773e-07 -2.4920580983245344e-06 -9.6954010942792773e-07 -0.19991901920382382 8.33612240493109e-07 -2.4920580983245344e-06 8.33612240493109e-07 -0.99982026692073189 0.00016651254575617003 5.0134295268727759e-07 -1.3608226809846968e-06 5.0134295268727759e-07 -0.19992985824092036 4.4928967968260736e-07 -1.3608226809846968e-06 4.4928967968260736e-07 -0.99984472633944232 0.00018812031053669354 6.4530173209134997e-06 -5.7411042180266492e-06 6.4530173209134997e-06 -0.1999203770916281 3.8008041753911925e-06 -5.7411042180266492e-06 3.8008041753911925e-06 -0.99982397245220989 0.00020487613231146007 -1.9635679673293888e-06 -1.1819345443697671e-05 -1.9635679673293888e-06 -0.1999244286570907 3.832224355293512e-06 -1.1819345443697671e-05 3.832224355293512e-06 -0.99984592650656268 0.00021020495557366736 -1.7154745964282724e-06 -1.9136695083465938e-05 -1.7154745964282724e-06 -0.19991695354686478 -1.7450084732750781e-06 -1.9136695083465938e-05 -1.7450084732750781e-06 -0.99982139165086137 0.00019122411033120623 8.4432946088985766e-06 -1.2834855146026669e-05 8.4432946088985766e-06 -0.19992318897133401 -6.7090796154190002e-06 -1.2834855146026669e-05 -6.7090796154190002e-06 -0.99983000183178572 0.00022185331675121656 1.0296403612569945e-06 -3.8761125011887998e-06 1.0296403612569945e-06 -0.19991382306916688 -8.1421305669904243e-07 -3.8761125011887998e-06 -8.1421305669904243e-07 -0.99981928617545246 0.00016626742949771289 -3.7944754307862722e-07 -8.7071970446828129e-06 -3.7944754307862722e-07 -0.19992640705866188 -6.2991841520698699e-07 -8.7071970446828129e-06 -6.2991841520698699e-07 -0.99982443116146658 0.0001722452498803817 -1.3358592325822633e-06 -1.2986630521072406e-05 -1.3358592325822633e-06 -0.19993077464934103 4.8754779113924229e-07 -1.2986630521072406e-05 4.8754779113924229e-07 -0.99985265075459095 0.00017014355139216564 -2.4394991646098472e-06 -7.8564570452632765e-06 -2.4394991646098472e-06 -0.19992489847678935 -6.1611922963500376e-07 -7.8564570452632765e-06 -6.1611922963500376e-07 -0.99982350868257019 0.00016831374281256473 2.4802309012231806e-06 -1.0767184172033595e-05 2.4802309012231806e-06 -0.19992448374002814 -9.3657271138525289e-07 -1.0767184172033595e-05 -9.3657271138525289e-07 -0.99982390627813267 0.00018074194402488419 2.5689058177347464e-06 -1.4475700993110685e-05 2.5689058177347464e-06 -0.19992719524964614 -8.157441144795996e-07 -1.4475700993110685e-05 -8.157441144795996e-07 -0.99984989010166969 0.00017628841193750855 1.3931678718953239e-06 -9.9878767757521913e-06 1.3931678718953239e-06 -0.19992906929949172 1.3210993987655684e-06 -9.9878767757521913e-06 1.3210993987655684e-06 -0.99984983599891541 0.0001694701408294641 -4.4526428769110534e-07 -1.0061180018006155e-05 -4.4526428769110534e-07 -0.19992891612958408 -3.7911672277901598e-06 -1.0061180018006155e-05 -3.7911672277901598e-06 -0.99984176849601036 0.00017544551943327047 -1.302756294579355e-06 -1.4849201192435046e-05 -1.302756294579355e-06 -0.19992435630210348 -1.5826551801323419e-06 -1.4849201192435046e-05 -1.5826551801323419e-06 -0.99982736429228947 0.00017901099784112251 -1.0104240360002978e-06 -8.9421646083387429e-06 -1.0104240360002978e-06 -0.19993046846182405 -2.7444976968826751e-07 -8.9421646083387429e-06 -2.7444976968826751e-07 -0.99984910371575264 0.00020332384059643105 1.7589111219526683e-06 -1.0272155536839023e-05 1.7589111219526683e-06 -0.1999174607753996 -1.4661026976614533e-06 -1.0272155536839023e-05 -1.4661026976614533e-06 -0.99981981238308826 0.00017046379390883715 3.9912834005937406e-07 -6.700823825034341e-06 3.9912834005937406e-07 -0.19992391081536376 -2.1009586098630351e-07 -6.700823825034341e-06 -2.1009586098630351e-07 -0.99982298618689747 0.00018404080939138368 -1.8212082763654981e-06 -1.3008554393234562e-05 -1.8212082763654981e-06 -0.1999261633478997 1.9669415587397765e-06 -1.3008554393234562e-05 1.9669415587397765e-06 -0.99983550818038136 0.00016987610396053919 2.131539201930182e-06 -9.8773886558767288e-06 2.131539201930182e-06 -0.19992613141563623 1.5573320868433882e-06 -9.8773886558767288e-06 1.5573320868433882e-06 -0.99983366892333569 0.00019238619633088483 4.9900311691471563e-07 -1.1905736333472916e-05 4.9900311691471563e-07 -0.19991882138370043 -7.7021882607941627e-07 -1.1905736333472916e-05 -7.7021882607941627e-07 -0.99981620421498452 0.00015427168784398759 -2.3476793777388876e-06 -1.233281219481519e-05 -2.3476793777388876e-06 -0.19993088408917248 -6.8609531722607642e-08 -1.233281219481519e-05 -6.8609531722607642e-08 -0.99983787092786747 0.00016315280404466392 -2.5386539210342608e-06 -5.9168917780905161e-06 -2.5386539210342608e-06 -0.19993156474184515 -2.2179698251356683e-06 -5.9168917780905161e-06 -2.2179698251356683e-06 -0.99984851396482988 0.00018305862502976389 -1.2281761450489862e-06 -1.6270452290356729e-05 -1.2281761450489862e-06 -0.19992897794106446 -9.058616723400803e-07 -1.6270452290356729e-05 -9.058616723400803e-07 -0.99984853275293872 0.00020050858220499457 1.9479520362167937e-06 -1.918303203618521e-06 1.9479520362167937e-06 -0.1999172336165983 2.542358254808974e-06 -1.918303203618521e-06 2.542358254808974e-06 -0.99981981917352014 0.00018932424888351562 2.7653179375072823e-06 -2.0826777121230045e-05 2.7653179375072823e-06 -0.19992389479015404 7.8786051949109037e-07 -2.0826777121230045e-05 7.8786051949109037e-07 -0.99984358867122225 0.00017880461009966986 -4.3858938896153787e-06 -3.1073005624798755e-06 -4.3858938896153787e-06 -0.19993004090032129 -1.5710100214061384e-06 -3.1073005624798755e-06 -1.5710100214061384e-06 -0.99985249252559516 0.00020202714568084978 -2.7016216379020333e-05 3.9460145153658033e-06 -2.7016216379020333e-05 -0.19992476004764348 -1.0428255868610847e-05 3.9460145153658033e-06 -1.0428255868610847e-05 -0.99981485510282209 0.0001826449322007706 -7.5805972351893145e-07 9.4508337822318822e-08 -7.5805972351893145e-07 -0.19992192398091158 5.7868952414441566e-06 9.4508337822318822e-08 5.7868952414441566e-06 -0.99983669495979788 0.00020930559250642577 5.6547573920006201e-06 -1.0513065396011712e-05 5.6547573920006201e-06 -0.19991320587386274 1.5417457259747636e-06 -1.0513065396011712e-05 1.5417457259747636e-06 -0.99982248046524402 0.00020411369010997493 4.0157131142361048e-06 -1.1578186059457707e-05 4.0157131142361048e-06 -0.19992212212379357 -7.0427124574390376e-06 -1.1578186059457707e-05 -7.0427124574390376e-06 -0.99984190308379484 0.00020528530776453557 -8.9869801425033907e-07 -1.0795077252101493e-05 -8.9869801425033907e-07 -0.19992056248211632 -3.0474542147551631e-06 -1.0795077252101493e-05 -3.0474542147551631e-06 -0.99984392579362424 0.00023160202031080601 2.8602674875758781e-06 -9.8445183296380634e-06 2.8602674875758781e-06 -0.19991081663961729 -1.6915199165801198e-06 -9.8445183296380634e-06 -1.6915199165801198e-06 -0.99982340845738094 0.00021259529632544627 7.7857086469281347e-07 -1.6629988196736889e-05 7.7857086469281347e-07 -0.19991334798892324 -1.3771350799718363e-06 -1.6629988196736889e-05 -1.3771350799718363e-06 -0.99980585785182186 0.00021781121718644769 -8.4687348604874395e-07 -3.3500047998957783e-06 -8.4687348604874395e-07 -0.19991533965639119 4.0808522450141993e-07 -3.3500047998957783e-06 4.0808522450141993e-07 -0.99981945940801031 0.00022185515808081924 3.7186072272540094e-07 -1.6164826583953129e-06 3.7186072272540094e-07 -0.19990861945785254 5.6665223233665074e-06 -1.6164826583953129e-06 5.6665223233665074e-06 -0.99980838446908393 0.00025013273859042506 5.3876454640176289e-06 -9.8123502318969713e-06 5.3876454640176289e-06 -0.19990251804510795 3.4733218668980825e-06 -9.8123502318969713e-06 3.4733218668980825e-06 -0.99979764617963163 0.00024443010870145443 -2.349047272052568e-07 -1.4059331647775508e-05 -2.349047272052568e-07 -0.19990777725546449 3.5549637100729115e-07 -1.4059331647775508e-05 3.5549637100729115e-07 -0.99980566916014357 0.00024517675664303962 8.9457501638181162e-07 -1.4573977937804017e-05 8.9457501638181162e-07 -0.19990779145597559 2.5494000910342152e-08 -1.4573977937804017e-05 2.5494000910342152e-08 -0.99980519424333592 0.00022500433567862466 -1.7746775734868474e-07 -9.8841255669057659e-06 -1.7746775734868474e-07 -0.19990843768309774 4.5803676326089393e-07 -9.8841255669057659e-06 4.5803676326089393e-07 -0.9998002056370332 0.00022146836468509012 -3.6398685778090583e-06 -8.7203140006764102e-06 -3.6398685778090583e-06 -0.19991058689107019 1.0647903816440873e-06 -8.7203140006764102e-06 1.0647903816440873e-06 -0.99980167902944916 0.0002646940645030238 -2.8466544455562864e-07 4.2889961997527593e-06 -2.8466544455562864e-07 -0.19990133315215819 1.6062587633314251e-06 4.2889961997527593e-06 1.6062587633314251e-06 -0.99979315233527277 0.00022968957351698904 -1.112116643723348e-06 3.1348899312000356e-06 -1.112116643723348e-06 -0.19991068908870013 2.5958226321787237e-06 3.1348899312000356e-06 2.5958226321787237e-06 -0.99980232921628076 0.00022526034448910881 5.3714228164869835e-08 -9.8005273714285579e-06 5.3714228164869835e-08 -0.1999082120991561 1.621545337560093e-06 -9.8005273714285579e-06 1.621545337560093e-06 -0.99979916468691643 0.0002478867880754132 1.762725994452185e-05 -4.1360024570780141e-06 1.762725994452185e-05 -0.1999036831173141 -1.8003305735092567e-07 -4.1360024570780141e-06 -1.8003305735092567e-07 -0.99979521076797928 0.00026592233109812291 -3.2529111361660561e-07 -1.1120275707154903e-05 -3.2529111361660561e-07 -0.19989744063994519 1.3842735140379148e-06 -1.1120275707154903e-05 1.3842735140379148e-06 -0.99978917225256936 0.00024643722867034867 -7.869157958675359e-06 -3.056675645485285e-06 -7.869157958675359e-06 -0.19990477310259336 3.3715536862377604e-06 -3.056675645485285e-06 3.3715536862377604e-06 -0.99979754418165001 0.00026656155944126958 1.7369857349372129e-06 3.2439854802390755e-07 1.7369857349372129e-06 -0.19989983504097442 -8.4050669713064963e-07 3.2439854802390755e-07 -8.4050669713064963e-07 -0.99980505625903238 0.00023084679683060827 -1.493201967732329e-06 -6.4428561135088103e-06 -1.493201967732329e-06 -0.19990586842381419 -4.8982115519180525e-07 -6.4428561135088103e-06 -4.8982115519180525e-07 -0.99979265995182587 0.00022835183125079206 -5.0248411831642487e-07 -2.8112971275362497e-06 -5.0248411831642487e-07 -0.19990973891821684 5.5355850814287066e-07 -2.8112971275362497e-06 5.5355850814287066e-07 -0.99979944656469444 0.00021137837422124939 -2.5222626510164499e-07 -5.4006493581670867e-06 -2.5222626510164499e-07 -0.1999127683982922 -2.4385682226846228e-06 -5.4006493581670867e-06 -2.4385682226846228e-06 -0.99980156338314785 0.00022256722791613726 1.6920162542141345e-06 8.821735093533789e-07 1.6920162542141345e-06 -0.19991086074762499 -3.3243904589141948e-06 8.821735093533789e-07 -3.3243904589141948e-06 -0.99980009242794488 0.00021160233821815311 -6.0984211289445403e-07 -5.3551743539603791e-06 -6.0984211289445403e-07 -0.19991201496186994 -3.0090623028833363e-06 -5.3551743539603791e-06 -3.0090623028833363e-06 -0.99980120882226897 0.00021551603151626075 1.166499116056881e-05 1.1539409403571455e-06 1.166499116056881e-05 -0.19991888430116689 1.4519559239367652e-05 1.1539409403571455e-06 1.4519559239367652e-05 -0.99980812486704451 0.00021176442294185138 -9.1593537286412859e-07 -5.3312428889285002e-06 -9.1593537286412859e-07 -0.19991128116609763 -2.5125704827821949e-06 -5.3312428889285002e-06 -2.5125704827821949e-06 -0.99980111861743626 0.00019748187537471651 1.0402000299287447e-06 -8.3478542300952085e-06 1.0402000299287447e-06 -0.19991705179333286 -7.1177961169510695e-07 -8.3478542300952085e-06 -7.1177961169510695e-07 -0.9998116400649959 0.0001872246022148194 -3.0191495784937115e-07 -1.2412713649379015e-05 -3.0191495784937115e-07 -0.19991976313152066 -1.2869904002510424e-06 -1.2412713649379015e-05 -1.2869904002510424e-06 -0.9998169134314987 0.00021136586274184133 -4.3067814609119526e-07 -1.3279153433520818e-06 -4.3067814609119526e-07 -0.19991389664748449 3.0535296291489544e-07 -1.3279153433520818e-06 3.0535296291489544e-07 -0.99980806014803725 0.00019892381085728772 2.6503472089042386e-06 -7.9104280226172108e-06 2.6503472089042386e-06 -0.19991838594877143 -2.8655263233368089e-06 -7.9104280226172108e-06 -2.8655263233368089e-06 -0.9998205007712464 0.0001909526003239792 1.6987361928492585e-06 -1.2653354232283753e-05 1.6987361928492585e-06 -0.19991855344763365 -1.7986322414786926e-06 -1.2653354232283753e-05 -1.7986322414786926e-06 -0.99981307869754943 0.00019366126924382984 2.9231089113159287e-07 -1.5221027436229662e-06 2.9231089113159287e-07 -0.19991841299272181 5.9111616523832566e-07 -1.5221027436229662e-06 5.9111616523832566e-07 -0.99981071252430087 0.00019529031240339556 -9.1916067286780567e-07 -4.2139871190283174e-06 -9.1916067286780567e-07 -0.19991656291356519 -1.3439725596864349e-06 -4.2139871190283174e-06 -1.3439725596864349e-06 -0.99980943925163945 0.00020287254365225493 -3.7071851946047016e-06 5.5833142509342792e-07 -3.7071851946047016e-06 -0.1999145609479458 -1.3960873234131199e-06 5.5833142509342792e-07 -1.3960873234131199e-06 -0.99980779816538679 0.00019694487043584591 4.2050766861102965e-06 -5.8373255364951859e-06 4.2050766861102965e-06 -0.1999160320896716 -1.6120001364861025e-06 -5.8373255364951859e-06 -1.6120001364861025e-06 -0.99980470840816793 0.00019351175440629476 -2.7391406174347651e-07 -6.1447865825625669e-06 -2.7391406174347651e-07 -0.1999159328513147 -4.7156650306856562e-07 -6.1447865825625669e-06 -4.7156650306856562e-07 -0.99980500780313175 0.00019885022252541518 -2.7233277080764214e-06 -6.9096164777016078e-06 -2.7233277080764214e-06 -0.19991836350400738 4.1095178681116451e-06 -6.9096164777016078e-06 4.1095178681116451e-06 -0.99981758528489362 0.00019846581305049682 -1.0598538054505422e-05 2.5786142596739836e-06 -1.0598538054505422e-05 -0.19991121458265182 -3.5519787213722509e-06 2.5786142596739836e-06 -3.5519787213722509e-06 -0.99979691447792263 0.00022492631419246401 -2.4573352692854875e-07 -9.8782928539264958e-06 -2.4573352692854875e-07 -0.19990864994404456 4.3228474932988092e-07 -9.8782928539264958e-06 4.3228474932988092e-07 -0.9998003530680668 0.00019767713660179265 -2.4123947926956882e-06 -3.9442584569837624e-06 -2.4123947926956882e-06 -0.19991724453570514 -3.8243790583258885e-06 -3.9442584569837624e-06 -3.8243790583258885e-06 -0.99981572869035062 0.0002001304308092422 8.8745784344599948e-06 -8.6272399316134063e-06 8.8745784344599948e-06 -0.19991598856903281 2.2804754815641815e-06 -8.6272399316134063e-06 2.2804754815641815e-06 -0.99980458967492813 0.00021651839638103798 3.070852594581762e-07 -6.7886757217916482e-06 3.070852594581762e-07 -0.19991361735822821 1.1923442144734508e-07 -6.7886757217916482e-06 1.1923442144734508e-07 -0.99981251475633348 0.00020776592140692163 -9.0412393447575587e-06 -1.520784846925638e-05 -9.0412393447575587e-06 -0.19991513547367734 -3.4543259856967268e-06 -1.520784846925638e-05 -3.4543259856967268e-06 -0.99980884211077159 0.00019634655088995867 -4.8485460029676971e-07 -4.8969985801117222e-06 -4.8485460029676971e-07 -0.19991942495623138 1.204255700715251e-07 -4.8969985801117222e-06 1.204255700715251e-07 -0.99982320992686802 0.00019667264433620435 -3.3205351533497646e-06 -1.4870878163875112e-06 -3.3205351533497646e-06 -0.1999185417514478 1.1610541750251002e-08 -1.4870878163875112e-06 1.1610541750251002e-08 -0.99981499915760397 0.00019320936890054874 -1.0173165352978413e-08 -6.4112922967263231e-06 -1.0173165352978413e-08 -0.19991519313806894 -7.1534892454039323e-09 -6.4112922967263231e-06 -7.1534892454039323e-09 -0.99980724806011922 0.00019304805693309834 -5.6406225783872431e-08 -7.0132921416998784e-06 -5.6406225783872431e-08 -0.19991827591294753 -1.1830609211171961e-06 -7.0132921416998784e-06 -1.1830609211171961e-06 -0.99980828902520935 0.00021943020046499839 4.8302776332682373e-07 -9.1488399012185084e-06 4.8302776332682373e-07 -0.19991095820596327 1.4889395907324854e-06 -9.1488399012185084e-06 1.4889395907324854e-06 -0.99980060961259287 0.00023022795951832542 -1.7898679541906845e-07 3.8315053294546431e-06 -1.7898679541906845e-07 -0.19990910595655254 7.023650750448418e-07 3.8315053294546431e-06 7.023650750448418e-07 -0.99979976718858499 0.00021222615835192471 -5.6324832505329015e-07 2.5843168423023144e-06 -5.6324832505329015e-07 -0.19991125513885777 -7.9582565282176887e-07 2.5843168423023144e-06 -7.9582565282176887e-07 -0.99979348271674517 0.00023103976050031783 4.4375318973753087e-07 3.9158590688925798e-06 4.4375318973753087e-07 -0.19990957711954715 1.668794794351669e-06 3.9158590688925798e-06 1.668794794351669e-06 -0.99980112612082905 0.00022032315708298 2.8838351883767503e-07 -9.785835969555734e-06 2.8838351883767503e-07 -0.19991043072106573 1.3717472859831048e-06 -9.785835969555734e-06 1.3717472859831048e-06 -0.99979668990814829 0.00021940566223022095 2.9781718249746997e-07 -1.0297993589869492e-05 2.9781718249746997e-07 -0.19991128606426578 -2.5949247883794158e-07 -1.0297993589869492e-05 -2.5949247883794158e-07 -0.99980042147845394 0.00024360621200325561 6.1309890506219324e-07 -1.2665704699488245e-05 6.1309890506219324e-07 -0.19990812427686855 -9.2679022234420927e-08 -1.2665704699488245e-05 -9.2679022234420927e-08 -0.99980600849875945 0.00022196631324922222 1.9419940049408034e-06 -1.1000074406242177e-05 1.9419940049408034e-06 -0.19991116423028443 6.171055042525353e-07 -1.1000074406242177e-05 6.171055042525353e-07 -0.99980130406876278 0.00022488239644702368 -1.5297439608554899e-07 -9.8488152078246571e-06 -1.5297439608554899e-07 -0.19990873359179162 2.655569237841604e-07 -9.8488152078246571e-06 2.655569237841604e-07 -0.99980051688013649 0.00024358773453792004 3.0685674139174212e-07 -1.2898028686203489e-05 3.0685674139174212e-07 -0.19990657003582657 -1.5497053564850205e-06 -1.2898028686203489e-05 -1.5497053564850205e-06 -0.99980376227220047 0.00023070507055222844 5.4409103110234467e-08 3.7237946921564458e-06 5.4409103110234467e-08 -0.1999079238822018 -3.1388298216139532e-07 3.7237946921564458e-06 -3.1388298216139532e-07 -0.99979776077351401 0.00024282589074831051 2.4767965414207693e-07 -1.3212754790936643e-05 2.4767965414207693e-07 -0.19990725634685225 -2.2704912217008655e-07 -1.3212754790936643e-05 -2.2704912217008655e-07 -0.99980646869900003 0.00024321693903694985 -1.2561419415295131e-05 -1.6451803799277798e-06 -1.2561419415295131e-05 -0.1999054503212474 3.0260132208859147e-06 -1.6451803799277798e-06 3.0260132208859147e-06 -0.99979669307134778 0.00026423140659459499 5.4827199026952995e-07 -8.0199625753785142e-06 5.4827199026952995e-07 -0.19990195386688447 8.6719018679848325e-07 -8.0199625753785142e-06 8.6719018679848325e-07 -0.99979799494518229 0.00026569689945210584 3.9916189783717516e-07 -9.7375510330621751e-06 3.9916189783717516e-07 -0.19989998561523137 3.9262759194969021e-06 -9.7375510330621751e-06 3.9262759194969021e-06 -0.99979263406694008 0.00026397470427597103 8.2689708037616804e-07 -7.8491044630535356e-06 8.2689708037616804e-07 -0.1999011256948996 7.9309148137696184e-09 -7.8491044630535356e-06 7.9309148137696184e-09 -0.99979693858645025 0.00026312875518674783 3.2137926401523025e-07 -7.4780942691532459e-06 3.2137926401523025e-07 -0.19990165144389171 2.7332311591798941e-07 -7.4780942691532459e-06 2.7332311591798941e-07 -0.99979749159477871 0.000262593497570629 7.4827348810989751e-07 -7.4335530977354125e-06 7.4827348810989751e-07 -0.19990368318959728 -3.3438770574711896e-07 -7.4335530977354125e-06 -3.3438770574711896e-07 -0.99979813805548545 0.00026498530086471739 -1.0181703667056679e-06 -7.205564371171036e-06 -1.0181703667056679e-06 -0.19990216831886198 2.2127690257889299e-07 -7.205564371171036e-06 2.2127690257889299e-07 -0.99979811556308018 0.00022247423594240479 4.0910428537827328e-06 4.3394073746538808e-06 4.0910428537827328e-06 -0.19990954018058954 -1.2905388923623029e-06 4.3394073746538808e-06 -1.2905388923623029e-06 -0.99980022640041599 0.00022204661649312396 1.4286488615284129e-06 4.2844893517052229e-06 1.4286488615284129e-06 -0.19991049830287966 1.1166741338275443e-06 4.2844893517052229e-06 1.1166741338275443e-06 -0.99980017583648273 0.00022045294011907579 2.993248386740903e-07 -9.7222724475543032e-06 2.993248386740903e-07 -0.19991141132926926 -1.4785464804711879e-06 -9.7222724475543032e-06 -1.4785464804711879e-06 -0.99979506059444301 0.00022977547846925184 -1.9796888924365534e-06 3.6705630943600909e-06 -1.9796888924365534e-06 -0.19991044420106663 -5.6202431147900356e-07 3.6705630943600909e-06 -5.6202431147900356e-07 -0.99979846174672282 0.00026749510409296295 3.2885215522627227e-07 -8.5336380031275638e-06 3.2885215522627227e-07 -0.19990204075515161 -8.0622740661340231e-07 -8.5336380031275638e-06 -8.0622740661340231e-07 -0.99979640266615499 0.0002425855956252887 -1.9653095795376319e-06 -1.4438652594650492e-05 -1.9653095795376319e-06 -0.19990797344872357 8.4517314125065468e-07 -1.4438652594650492e-05 8.4517314125065468e-07 -0.99980493435121831 0.00022735918443117509 -1.2687888888201178e-06 2.3271368856381258e-06 -1.2687888888201178e-06 -0.19990993107549249 6.9629371711801835e-07 2.3271368856381258e-06 6.9629371711801835e-07 -0.99979938863729112 0.00023865826992730543 -1.1827007032288982e-06 -8.9963081928434718e-06 -1.1827007032288982e-06 -0.19991123580110504 -5.5468372051059589e-07 -8.9963081928434718e-06 -5.5468372051059589e-07 -0.99981613016561344 0.00024461947910980886 -5.3961301332987653e-07 -1.4441678874987929e-05 -5.3961301332987653e-07 -0.19990519320724476 7.8917385526455774e-07 -1.4441678874987929e-05 7.8917385526455774e-07 -0.99980403480089786 0.00016395734133300977 -9.6295559196970903e-07 -1.7491744783715291e-06 -9.6295559196970903e-07 -0.19992963391971363 2.6881856696192585e-07 -1.7491744783715291e-06 2.6881856696192585e-07 -0.9998457199151245 0.00019096570307647331 -6.3198029606835113e-06 -4.8819263780419675e-06 -6.3198029606835113e-06 -0.19992114501888897 -3.6609063169823486e-06 -4.8819263780419675e-06 -3.6609063169823486e-06 -0.99982598838626902 0.00020752059614181917 8.0328465313539665e-07 -1.9481393385145651e-05 8.0328465313539665e-07 -0.19991904802149996 9.198363176698976e-08 -1.9481393385145651e-05 9.198363176698976e-08 -0.99982311040082061 0.00018306238137638653 9.811937594361494e-06 -9.0218048764967307e-06 9.811937594361494e-06 -0.19992320814173331 -6.7193496824380361e-06 -9.0218048764967307e-06 -6.7193496824380361e-06 -0.99983598007349594 0.00019296006416388845 -6.8195091067106974e-06 -1.3970065964707956e-05 -6.8195091067106974e-06 -0.19992316755856257 4.8819678747369366e-06 -1.3970065964707956e-05 4.8819678747369366e-06 -0.99983030560130459 0.0002329488927435841 2.6560421986331703e-06 -8.2193644066475002e-06 2.6560421986331703e-06 -0.19991175347174064 -3.500241388509906e-06 -8.2193644066475002e-06 -3.500241388509906e-06 -0.99981572026362653 0.00020267859781042397 1.7587710076632367e-06 -1.1049064611690085e-05 1.7587710076632367e-06 -0.19992503291360331 -3.5833497937787229e-06 -1.1049064611690085e-05 -3.5833497937787229e-06 -0.99984873665383667 0.00018232386800538791 -3.1745642668399778e-06 -1.3842785708595429e-05 -3.1745642668399778e-06 -0.1999277053280088 -9.8231817791116782e-08 -1.3842785708595429e-05 -9.8231817791116782e-08 -0.9998498757892087 0.00017080086321930033 1.4831066330062622e-06 -7.423711086418372e-06 1.4831066330062622e-06 -0.19992473229405816 4.4301679769098712e-07 -7.423711086418372e-06 4.4301679769098712e-07 -0.99982196923769262 0.00017528461169669107 -1.4823740545167649e-06 -1.1447230238048611e-05 -1.4823740545167649e-06 -0.19992852076103751 -1.1558042852799488e-06 -1.1447230238048611e-05 -1.1558042852799488e-06 -0.99985017464896053 0.00016664722949655264 -3.1677807222916715e-07 -8.2433839187490143e-06 -3.1677807222916715e-07 -0.19992552566330191 8.7157300765472456e-07 -8.2433839187490143e-06 8.7157300765472456e-07 -0.99982234962880323 0.00017119059361095368 5.3930769110803155e-07 -1.4019698555078897e-05 5.3930769110803155e-07 -0.1999305972372718 -3.5645853624366453e-07 -1.4019698555078897e-05 -3.5645853624366453e-07 -0.99985259756024547 0.0001669345907712172 -3.5952703253751407e-06 -1.1147289652624348e-05 -3.5952703253751407e-06 -0.19992566622672447 6.4815183664634901e-08 -1.1147289652624348e-05 6.4815183664634901e-08 -0.99982423250742336 0.0001961087123323324 1.1746142075843021e-06 -1.4869245068549475e-06 1.1746142075843021e-06 -0.19991796593418648 3.8527826664580545e-06 -1.4869245068549475e-06 3.8527826664580545e-06 -0.99981442577710156 0.00019400370957246837 -7.3184170583470302e-07 -6.233144014156089e-06 -7.3184170583470302e-07 -0.19991792632160932 -2.2281800637902194e-07 -6.233144014156089e-06 -2.2281800637902194e-07 -0.99981097331150526 0.00019466677767709939 4.8766090419157156e-06 8.2293753927986657e-07 4.8766090419157156e-06 -0.19991980167917789 -1.3011086219538726e-06 8.2293753927986657e-07 -1.3011086219538726e-06 -0.99982610792720372 0.00020164898401908715 2.7358945100796297e-06 -5.1195168568884952e-06 2.7358945100796297e-06 -0.19991527827797406 1.6210800251603708e-06 -5.1195168568884952e-06 1.6210800251603708e-06 -0.99980806228053432 0.00019776693928919009 -1.5751605753937426e-07 -4.1967093124817278e-06 -1.5751605753937426e-07 -0.19991967166010194 -8.2527082545524877e-07 -4.1967093124817278e-06 -8.2527082545524877e-07 -0.99982347632261481 0.00021647784875078457 3.0043945155511625e-07 -6.6789335360084578e-06 3.0043945155511625e-07 -0.19991359072107717 -3.4371063228899601e-07 -6.6789335360084578e-06 -3.4371063228899601e-07 -0.99981274097472905 0.00020035391977568651 2.0688948100385944e-06 -5.9690507826504202e-06 2.0688948100385944e-06 -0.19991668151838504 -4.5104723131461633e-06 -5.9690507826504202e-06 -4.5104723131461633e-06 -0.99981774881798824 0.00020678188496425429 5.8599564167878822e-06 -1.1150895300286734e-05 5.8599564167878822e-06 -0.19991366537739386 7.2971275266731084e-07 -1.1150895300286734e-05 7.2971275266731084e-07 -0.9998008790742503 0.00020720181112166003 -1.5744335348799728e-07 -1.1245778758439684e-05 -1.5744335348799728e-07 -0.19991065046617695 -3.1827666135963995e-07 -1.1245778758439684e-05 -3.1827666135963995e-07 -0.99980022241506727 0.00019249331998061336 -2.2246178129556071e-07 -7.650863068531244e-06 -2.2246178129556071e-07 -0.19991783178636546 1.3607716413677196e-06 -7.650863068531244e-06 1.3607716413677196e-06 -0.99981151279475 0.00022005431937399678 -5.6121480910188304e-08 -9.0477688314827276e-06 -5.6121480910188304e-08 -0.19991074262713393 -1.8885127691659065e-06 -9.0477688314827276e-06 -1.8885127691659065e-06 -0.99979771471666679 0.0001954530899749285 3.7606734110122393e-07 -6.4177949309351945e-06 3.7606734110122393e-07 -0.19991505090952999 -6.2230754926950738e-07 -6.4177949309351945e-06 -6.2230754926950738e-07 -0.99981005499489228 0.00020619314884731677 -4.520824150655012e-07 -3.358825209409666e-06 -4.520824150655012e-07 -0.19991577914199918 -1.1258154657411978e-06 -3.358825209409666e-06 -1.1258154657411978e-06 -0.99980759173451961 0.00020339706668981439 -4.6084317477759447e-07 -5.7905815211908851e-06 -4.6084317477759447e-07 -0.19991831926287895 -3.1423968349826581e-06 -5.7905815211908851e-06 -3.1423968349826581e-06 -0.99981814678699132 0.00019876481790682228 -3.6058344921212583e-06 -6.7335699719395237e-06 -3.6058344921212583e-06 -0.19991628690903729 1.0353868278301093e-06 -6.7335699719395237e-06 1.0353868278301093e-06 -0.9998058667969123 0.00019637713515622407 4.3439312374991232e-07 -6.0856517546392652e-06 4.3439312374991232e-07 -0.19991447927196834 -1.3453137952534888e-06 -6.0856517546392652e-06 -1.3453137952534888e-06 -0.99980600722806512 0.00020956101512281666 1.2435886707884988e-06 -6.3784995287807789e-06 1.2435886707884988e-06 -0.1999117496705779 2.6395746728358205e-06 -6.3784995287807789e-06 2.6395746728358205e-06 -0.99980077662253253 0.00020948801277598239 1.8038057099858454e-06 -6.0053944966331763e-06 1.8038057099858454e-06 -0.19991036273668128 1.865468998163422e-06 -6.0053944966331763e-06 1.865468998163422e-06 -0.99980252887955334 0.00020288584402550214 4.1067410638179056e-06 -8.9856178586700253e-07 4.1067410638179056e-06 -0.19991400321794717 -1.2796780324286772e-07 -8.9856178586700253e-07 -1.2796780324286772e-07 -0.99981147269964588 0.00018627333126675083 1.3647293854693765e-06 -9.4156526633248916e-06 1.3647293854693765e-06 -0.19992106432834511 4.0648478272231614e-07 -9.4156526633248916e-06 4.0648478272231614e-07 -0.99981340708310817 0.00019479531181516158 3.4086762901329311e-08 -2.0479685988172847e-06 3.4086762901329311e-08 -0.19991912663566397 -1.500116513564187e-06 -2.0479685988172847e-06 -1.500116513564187e-06 -0.99981366459676679 0.00019166059702957483 2.8586397418595344e-07 -6.6255501460776856e-06 2.8586397418595344e-07 -0.19991973722234135 2.2350002332194308e-06 -6.6255501460776856e-06 2.2350002332194308e-06 -0.99981838726193129 0.00017095330132066433 -8.9274222379681226e-07 -6.2339385278331605e-06 -8.9274222379681226e-07 -0.19992659722242589 -5.0779602733808105e-07 -6.2339385278331605e-06 -5.0779602733808105e-07 -0.99982079695066739 0.00016877114608238042 -2.3079088180019393e-06 -9.391909942091381e-06 -2.3079088180019393e-06 -0.19992754000653717 1.0223775970263915e-07 -9.391909942091381e-06 1.0223775970263915e-07 -0.99983367160838799 0.00018472211194509036 -2.328397961472326e-07 -1.6814531814013378e-05 -2.328397961472326e-07 -0.19992444502139328 -9.3432080849886745e-08 -1.6814531814013378e-05 -9.3432080849886745e-08 -0.99983430045397093 0.00018993039831971537 2.2430739566502076e-06 -9.9772155159882914e-06 2.2430739566502076e-06 -0.19992133376421273 -9.7389713854534321e-07 -9.9772155159882914e-06 -9.7389713854534321e-07 -0.999817202879834 0.00015280717811694267 3.6868520764386462e-06 -1.1711745028286646e-05 3.6868520764386462e-06 -0.19993435376139246 6.1598889011804658e-07 -1.1711745028286646e-05 6.1598889011804658e-07 -0.99985539238340104 0.00018813883312152058 4.0696809819326304e-07 -1.4695537005504633e-05 4.0696809819326304e-07 -0.19992207080242919 -4.5879707577523021e-07 -1.4695537005504633e-05 -4.5879707577523021e-07 -0.9998278113695882 0.00017681158793214635 -2.0086824488559588e-07 -1.0794017667237199e-05 -2.0086824488559588e-07 -0.19992855854724723 8.7486370925482504e-09 -1.0794017667237199e-05 8.7486370925482504e-09 -0.99984958297718407 0.00015239501422026347 6.8679560702783528e-07 -1.6867935248670446e-05 6.8679560702783528e-07 -0.19993536891502484 -2.306230458826164e-07 -1.6867935248670446e-05 -2.306230458826164e-07 -0.9998578949953294 0.00016160363040185199 -8.4706144538213692e-07 -4.8024102357047127e-06 -8.4706144538213692e-07 -0.19992969829474005 -2.1588818734930015e-06 -4.8024102357047127e-06 -2.1588818734930015e-06 -0.99984048925587743 0.00015263979382151849 1.6673329853637412e-06 -7.6120024361525651e-06 1.6673329853637412e-06 -0.19993544167583399 1.431231770876451e-06 -7.6120024361525651e-06 1.431231770876451e-06 -0.999853983239126 0.0002358270223196679 2.9903948656279636e-06 -5.714814545532132e-06 2.9903948656279636e-06 -0.19991091821154577 5.1137870504813776e-07 -5.714814545532132e-06 5.1137870504813776e-07 -0.99981576372265546 0.00018014098078433793 3.8028318535362935e-06 -9.0657739619803834e-06 3.8028318535362935e-06 -0.19992473294571822 7.4320746103195834e-07 -9.0657739619803834e-06 7.4320746103195834e-07 -0.99982939595395903 0.00018619408131093085 2.067027800667237e-06 -9.1280810876614993e-06 2.067027800667237e-06 -0.19992439033398635 2.3986477553084029e-06 -9.1280810876614993e-06 2.3986477553084029e-06 -0.99983162968167028 0.0001840941536801477 -8.2573860147388289e-08 -1.9394126817617874e-05 -8.2573860147388289e-08 -0.19992604202453612 2.185046418912151e-06 -1.9394126817617874e-05 2.185046418912151e-06 -0.99983863678225315 0.00020340822747322296 -2.9358995705960322e-06 -6.4058969679869904e-06 -2.9358995705960322e-06 -0.1999181465381652 -4.857534564250976e-06 -6.4058969679869904e-06 -4.857534564250976e-06 -0.9998399291350144 0.00018823734395945202 -6.4939681852384306e-06 3.4845107865777436e-07 -6.4939681852384306e-06 -0.19991922152823882 -2.0655830645921469e-07 3.4845107865777436e-07 -2.0655830645921469e-07 -0.99982828580865624 0.00020212407020225864 3.5594059169984884e-06 -1.2334832433208431e-05 3.5594059169984884e-06 -0.19992488234782779 6.7935121061957204e-07 -1.2334832433208431e-05 6.7935121061957204e-07 -0.9998501759578482 0.00020203600752999318 -2.0132965207275216e-07 -1.2888551126799541e-05 -2.0132965207275216e-07 -0.19992213267346792 4.6089571671403817e-06 -1.2888551126799541e-05 4.6089571671403817e-06 -0.99984728281001534 0.00023230234033144725 -6.1615988767959401e-08 -9.2392054080736585e-06 -6.1615988767959401e-08 -0.19990937513854834 4.6119942886946319e-07 -9.2392054080736585e-06 4.6119942886946319e-07 -0.99981775808007134 0.000207239952580901 1.4818836359527522e-07 -1.0999097303732164e-05 1.4818836359527522e-07 -0.19991182309916997 2.1039300523995053e-08 -1.0999097303732164e-05 2.1039300523995053e-08 -0.99979886391366557 0.00023880062682668513 -1.2508860676739423e-06 -7.654871746032299e-06 -1.2508860676739423e-06 -0.19991024729265494 1.4118046456346178e-06 -7.654871746032299e-06 1.4118046456346178e-06 -0.99981412912554246 0.0002211649559267781 -4.3966751230877054e-06 -5.6559527816801847e-07 -4.3966751230877054e-06 -0.1999111695413997 -1.521408877214192e-06 -5.6559527816801847e-07 -1.521408877214192e-06 -0.99980310128595096 0.00021764218766240351 -2.3205939630130628e-07 -5.0429187681139132e-06 -2.3205939630130628e-07 -0.1999142109251798 1.3248825191380931e-06 -5.0429187681139132e-06 1.3248825191380931e-06 -0.99981036016049218 0.00024040574770423095 -4.0037661084463381e-07 -1.4275126885010536e-06 -4.0037661084463381e-07 -0.19990702820829542 -2.9210478866836809e-06 -1.4275126885010536e-06 -2.9210478866836809e-06 -0.99980641091429145 0.00021457560761140027 -3.7269241252451339e-06 -1.34401661053829e-05 -3.7269241252451339e-06 -0.19991320643003052 2.8914649840006135e-06 -1.34401661053829e-05 2.8914649840006135e-06 -0.99981187605985222 0.00022992908722541117 6.3759664886780956e-08 5.1770477154100547e-06 6.3759664886780956e-08 -0.19990920472467166 -5.7377765423638483e-07 5.1770477154100547e-06 -5.7377765423638483e-07 -0.99979903561573691 0.00022918075929934112 4.92030173614645e-07 5.3242449490342736e-06 4.92030173614645e-07 -0.19991151185768286 -1.14428286573931e-06 5.3242449490342736e-06 -1.14428286573931e-06 -0.99979988244601636 0.00021433724979335461 -5.4567147973628664e-06 -1.1868032622652791e-05 -5.4567147973628664e-06 -0.19991338839618947 4.3521737569385266e-07 -1.1868032622652791e-05 4.3521737569385266e-07 -0.99979763007221412 0.00026729292862814891 -2.4741270446638722e-07 -7.3057093306072574e-06 -2.4741270446638722e-07 -0.19990030742785603 -2.2734098918952839e-06 -7.3057093306072574e-06 -2.2734098918952839e-06 -0.99979914876350762 0.00027079435724441936 -2.5044914351720814e-06 -6.9432099998323338e-06 -2.5044914351720814e-06 -0.19990106982378153 -1.0679055200135679e-06 -6.9432099998323338e-06 -1.0679055200135679e-06 -0.99979947266216307 0.00022252425657021124 7.181674817104893e-06 9.3223589159308062e-07 7.181674817104893e-06 -0.19990784559643859 2.51612654356137e-06 9.3223589159308062e-07 2.51612654356137e-06 -0.99980101868171678 0.00023206659799512863 2.1091060278942345e-06 -8.3483449737631332e-06 2.1091060278942345e-06 -0.19990552034900655 3.474761568700302e-06 -8.3483449737631332e-06 3.474761568700302e-06 -0.99979183020639706 0.00027438115606015501 4.453151213324959e-07 -8.5200681687602753e-06 4.453151213324959e-07 -0.19989750284030405 -3.1167754481753462e-06 -8.5200681687602753e-06 -3.1167754481753462e-06 -0.99979654539473284 0.00023206016172494515 2.385020817650667e-06 -8.243767038562666e-06 2.385020817650667e-06 -0.199904974827531 2.8253512009968063e-06 -8.243767038562666e-06 2.8253512009968063e-06 -0.99979240752472531 0.00026549894156935316 3.8408765350391753e-06 1.2904443691397205e-07 3.8408765350391753e-06 -0.19989953978783515 2.9402565671077241e-07 1.2904443691397205e-07 2.9402565671077241e-07 -0.99979801035029325 0.00025248274017275474 1.0058820730528728e-05 -2.6407291515706532e-06 1.0058820730528728e-05 -0.19990391870900093 -1.254840870545948e-06 -2.6407291515706532e-06 -1.254840870545948e-06 -0.99979549293024617 
</DataArray>
</CellData>
</Piece>
</UnstructuredGrid>
</VTKFile>
