<?xml version="1.0"?>
<VTKFile type="UnstructuredGrid" version="0.1" byte_order="LittleEndian">
<UnstructuredGrid>
<Piece NumberOfPoints="2876" NumberOfCells="719">
<Points>
<DataArray type="Float64" NumberOfComponents="3" format="ascii">
0.31610726166346748 0.18804489794572149 0 0.16929708765618309 0.30074819035915368 0 0.14641016151452901 0.14641016151487049 0 0.312576188949791 0.31458070521983672 0.3125761889497819 0 0.20000000000083221 0 0 0 0 0.14641016151452901 0.14641016151487049 0 0 0.14641016151432179 0.14641016151432179 0 0 0 0.19999999999955789 0 0 0.14641016151452901 0.14641016151487049 0 0.1464101615145241 0 0.14641016151486561 0 0.14641016151432179 0.14641016151432179 0 0 0.20000000000083221 0 0 0 0.1464101615145241 0 0.14641016151486561 0 0.14641016151432179 0.14641016151432179 0 0.30074819035869899 0.1692970876565193 0 0.18804489794560331 0.31610726166461361 0.312576188949791 0.31458070521983672 0.3125761889497819 0.31578456131778371 0 0.1865278143482666 0.1464101615145241 0 0.14641016151486561 0.16938214347656569 0 0.30011357660650623 0.312576188949791 0.31458070521983672 0.3125761889497819 0 0.14641016151432179 0.14641016151432179 0 0 0 0.14641016151452901 0.14641016151487049 0 0.1464101615145241 0 0.14641016151486561 0.14641016151452901 0.14641016151487049 0 0.1464101615145241 0 0.14641016151486561 0.31578456131778371 0 0.1865278143482666 0.312576188949791 0.31458070521983672 0.3125761889497819 0.14641016151452901 0.14641016151487049 0 0 0.30074819035869899 0.1692970876565193 0 0.14641016151432179 0.14641016151432179 0.312576188949791 0.31458070521983672 0.3125761889497819 0.14641016151452901 0.14641016151487049 0 0 0.14641016151432179 0.14641016151432179 0.1464101615145241 0 0.14641016151486561 0.312576188949791 0.31458070521983672 0.3125761889497819 0 0.14641016151432179 0.14641016151432179 0.16938214347656569 0 0.30011357660650623 0.1464101615145241 0 0.14641016151486561 0.312576188949791 0.31458070521983672 0.3125761889497819 0.1464101615145241 0 0.14641016151486561 0 0.14641016151432179 0.14641016151432179 0 0 0.20000000000083221 0.16938214347656569 0 0.30011357660650623 0 0.18804489794560331 0.31610726166461361 0 0 0.20000000000083221 0 0.14641016151432179 0.14641016151432179 0.16938214347656569 0 0.30011357660650623 0 0.14641016151432179 0.14641016151432179 0.14641016151452901 0.14641016151487049 0 0 0.20000000000083221 0 0 0.30074819035869899 0.1692970876565193 0 0.30074819035869899 0.1692970876565193 0.14641016151452901 0.14641016151487049 0 0 0.20000000000083221 0 0.16929708765618309 0.30074819035915368 0 0.19999999999955789 0 0 0.14641016151452901 0.14641016151487049 0 0.31578456131778371 0 0.1865278143482666 0.31610726166346748 0.18804489794572149 0 0.19999999999955789 0 0 0.14641016151452901 0.14641016151487049 0 0.1464101615145241 0 0.14641016151486561 0.31578456131778371 0 0.1865278143482666 0.31578456131778371 0 0.1865278143482666 0.3999999999989749 0 0 0.19999999999955789 0 0 0.31610726166346748 0.18804489794572149 0 0.31578456131778371 0 0.1865278143482666 0.31610726166346748 0.18804489794572149 0 0.14641016151452901 0.14641016151487049 0 0.312576188949791 0.31458070521983672 0.3125761889497819 0.31610726166346748 0.18804489794572149 0 0.312576188949791 0.31458070521983672 0.3125761889497819 0.31578456131778371 0 0.1865278143482666 0.5003997205654479 0.21136633249797621 0.2258422409314382 0.31610726166346748 0.18804489794572149 0 0.49391845158624981 0 0.1323760430705655 0.50966790549376417 0.16275515618023731 0 0.5003997205654479 0.21136633249797621 0.2258422409314382 0.31610726166346748 0.18804489794572149 0 0.50966790549376417 0.16275515618023731 0 0.45812322962036273 0.31024977578535839 0 0.5003997205654479 0.21136633249797621 0.2258422409314382 0.49391845158624981 0 0.1323760430705655 0.3999999999989749 0 0 0.31610726166346748 0.18804489794572149 0 0.50966790549376417 0.16275515618023731 0 0.49391845158624981 0 0.1323760430705655 0.3999999999989749 0 0 0.31578456131778371 0 0.1865278143482666 0.31610726166346748 0.18804489794572149 0 0.31578456131778371 0 0.1865278143482666 0.47688326899416439 0 0.31741132792405607 0.49391845158624981 0 0.1323760430705655 0.5003997205654479 0.21136633249797621 0.2258422409314382 0.31610726166346748 0.18804489794572149 0 0.31578456131778371 0 0.1865278143482666 0.49391845158624981 0 0.1323760430705655 0.5003997205654479 0.21136633249797621 0.2258422409314382 0.31030302876556398 0 0.54179813558513157 0.50073570207385831 0.24848280280289631 0.52886631355986169 0.32146143392436449 0 0.38738071487621961 0.22088738526309029 0.22111069116742441 0.50004796911802929 0.32146143392436449 0 0.38738071487621961 0.312576188949791 0.31458070521983672 0.3125761889497819 0.16938214347656569 0 0.30011357660650623 0.22088738526309029 0.22111069116742441 0.50004796911802929 0.32146143392436449 0 0.38738071487621961 0.50073570207385831 0.24848280280289631 0.52886631355986169 0.312576188949791 0.31458070521983672 0.3125761889497819 0.22088738526309029 0.22111069116742441 0.50004796911802929 0.32146143392436449 0 0.38738071487621961 0.50073570207385831 0.24848280280289631 0.52886631355986169 0.47688326899416439 0 0.31741132792405607 0.5003997205654479 0.21136633249797621 0.2258422409314382 0.32146143392436449 0 0.38738071487621961 0.312576188949791 0.31458070521983672 0.3125761889497819 0.50073570207385831 0.24848280280289631 0.52886631355986169 0.5003997205654479 0.21136633249797621 0.2258422409314382 0.32146143392436449 0 0.38738071487621961 0.31578456131778371 0 0.1865278143482666 0.16938214347656569 0 0.30011357660650623 0.312576188949791 0.31458070521983672 0.3125761889497819 0.31578456131778371 0 0.1865278143482666 0.312576188949791 0.31458070521983672 0.3125761889497819 0.32146143392436449 0 0.38738071487621961 0.5003997205654479 0.21136633249797621 0.2258422409314382 0.31578456131778371 0 0.1865278143482666 0.32146143392436449 0 0.38738071487621961 0.47688326899416439 0 0.31741132792405607 0.5003997205654479 0.21136633249797621 0.2258422409314382 0.31030302876556398 0 0.54179813558513157 0.50000000000250922 0 0.48038475773043671 0.32146143392436449 0 0.38738071487621961 0.50073570207385831 0.24848280280289631 0.52886631355986169 0.32146143392436449 0 0.38738071487621961 0.50000000000250922 0 0.48038475773043671 0.47688326899416439 0 0.31741132792405607 0.50073570207385831 0.24848280280289631 0.52886631355986169 0.16370661204827031 0 0.4886650857430957 0.31030302876556398 0 0.54179813558513157 0.32146143392436449 0 0.38738071487621961 0.22088738526309029 0.22111069116742441 0.50004796911802929 0.16370661204827031 0 0.4886650857430957 0.32146143392436449 0 0.38738071487621961 0.16938214347656569 0 0.30011357660650623 0.22088738526309029 0.22111069116742441 0.50004796911802929 0.16938214347656569 0 0.30011357660650623 0 0.14641016151432179 0.14641016151432179 0 0.18804489794560331 0.31610726166461361 0.312576188949791 0.31458070521983672 0.3125761889497819 0 0.18804489794560331 0.31610726166461361 0.16370661204827031 0 0.4886650857430957 0.16938214347656569 0 0.30011357660650623 0.22088738526309029 0.22111069116742441 0.50004796911802929 0 0.18804489794560331 0.31610726166461361 0.16938214347656569 0 0.30011357660650623 0.312576188949791 0.31458070521983672 0.3125761889497819 0.22088738526309029 0.22111069116742441 0.50004796911802929 0 0 0.40000000000166441 0 0 0.60000000000138687 0.16370661204827031 0 0.4886650857430957 0 0.16275515618034081 0.50966790549591257 0 0 0.40000000000166441 0 0.18804489794560331 0.31610726166461361 0.16370661204827031 0 0.4886650857430957 0.16938214347656569 0 0.30011357660650623 0.16370661204827031 0 0.4886650857430957 0 0.18804489794560331 0.31610726166461361 0 0 0.40000000000166441 0 0.16275515618034081 0.50966790549591257 0 0.18804489794560331 0.31610726166461361 0 0 0.40000000000166441 0 0 0.20000000000083221 0.16938214347656569 0 0.30011357660650623 0 0.18804489794560331 0.31610726166461361 0 0.16275515618034081 0.50966790549591257 0.16370661204827031 0 0.4886650857430957 0.22088738526309029 0.22111069116742441 0.50004796911802929 0 0.18804489794560331 0.31610726166461361 0 0.31024977578556651 0.45812322962166352 0 0.16275515618034081 0.50966790549591257 0.22088738526309029 0.22111069116742441 0.50004796911802929 0 0.30074819035869899 0.1692970876565193 0 0.39615100178029522 0.32925244736138171 0 0.18804489794560331 0.31610726166461361 0.312576188949791 0.31458070521983672 0.3125761889497819 0 0.31024977578556651 0.45812322962166352 0.312576188949791 0.31458070521983672 0.3125761889497819 0.24769234054476261 0.52242103280823293 0.45098450226372488 0.22088738526309029 0.22111069116742441 0.50004796911802929 0 0.18804489794560331 0.31610726166461361 0 0.39615100178029522 0.32925244736138171 0 0.31024977578556651 0.45812322962166352 0.312576188949791 0.31458070521983672 0.3125761889497819 0 0.39615100178029522 0.32925244736138171 0.24769234054476261 0.52242103280823293 0.45098450226372488 0.312576188949791 0.31458070521983672 0.3125761889497819 0.22345881830598399 0.5062398304147856 0.22345881830602041 0 0.31024977578556651 0.45812322962166352 0.312576188949791 0.31458070521983672 0.3125761889497819 0 0.39615100178029522 0.32925244736138171 0.24769234054476261 0.52242103280823293 0.45098450226372488 0 0.30074819035869899 0.1692970876565193 0 0.39615100178029522 0.32925244736138171 0.312576188949791 0.31458070521983672 0.3125761889497819 0.22345881830598399 0.5062398304147856 0.22345881830602041 0 0.18804489794560331 0.31610726166461361 0.312576188949791 0.31458070521983672 0.3125761889497819 0 0.31024977578556651 0.45812322962166352 0.22088738526309029 0.22111069116742441 0.50004796911802929 0 0.31024977578556651 0.45812322962166352 0 0.39615100178029522 0.32925244736138171 0 0.50000000000237477 0.51961524226909872 0.24769234054476261 0.52242103280823293 0.45098450226372488 0.50000000000001332 0.49999999999999561 0.49999999999999561 0.50073570207385831 0.24848280280289631 0.52886631355986169 0.312576188949791 0.31458070521983672 0.3125761889497819 0.5004045312576143 0.47050700646456922 0.24963111222780321 0.24769234054476261 0.52242103280823293 0.45098450226372488 0.5004045312576143 0.47050700646456922 0.24963111222780321 0.312576188949791 0.31458070521983672 0.3125761889497819 0.22345881830598399 0.5062398304147856 0.22345881830602041 0.312576188949791 0.31458070521983672 0.3125761889497819 0.5004045312576143 0.47050700646456922 0.24963111222780321 0.50073570207385831 0.24848280280289631 0.52886631355986169 0.5003997205654479 0.21136633249797621 0.2258422409314382 0.50000000000001332 0.49999999999999561 0.49999999999999561 0.24769234054476261 0.52242103280823293 0.45098450226372488 0.312576188949791 0.31458070521983672 0.3125761889497819 0.50073570207385831 0.24848280280289631 0.52886631355986169 0.312576188949791 0.31458070521983672 0.3125761889497819 0.24769234054476261 0.52242103280823293 0.45098450226372488 0.50000000000001332 0.49999999999999561 0.49999999999999561 0.5004045312576143 0.47050700646456922 0.24963111222780321 0.312576188949791 0.31458070521983672 0.3125761889497819 0.50073570207385831 0.24848280280289631 0.52886631355986169 0.24769234054476261 0.52242103280823293 0.45098450226372488 0.22088738526309029 0.22111069116742441 0.50004796911802929 0.32925244736090059 0.39615100178043078 0 0.312576188949791 0.31458070521983672 0.3125761889497819 0.45812322962036273 0.31024977578535839 0 0.5004045312576143 0.47050700646456922 0.24963111222780321 0.32925244736090059 0.39615100178043078 0 0.5004045312576143 0.47050700646456922 0.24963111222780321 0.32446581821364329 0.60020898676454815 0 0.22345881830598399 0.5062398304147856 0.22345881830602041 0.45812322962036273 0.31024977578535839 0 0.5004045312576143 0.47050700646456922 0.24963111222780321 0.312576188949791 0.31458070521983672 0.3125761889497819 0.5003997205654479 0.21136633249797621 0.2258422409314382 0.45812322962036273 0.31024977578535839 0 0.32925244736090059 0.39615100178043078 0 0.31610726166346748 0.18804489794572149 0 0.312576188949791 0.31458070521983672 0.3125761889497819 0.16929708765618309 0.30074819035915368 0 0.312576188949791 0.31458070521983672 0.3125761889497819 0.32925244736090059 0.39615100178043078 0 0.22345881830598399 0.5062398304147856 0.22345881830602041 0.31610726166346748 0.18804489794572149 0 0.45812322962036273 0.31024977578535839 0 0.312576188949791 0.31458070521983672 0.3125761889497819 0.5003997205654479 0.21136633249797621 0.2258422409314382 0.32925244736090059 0.39615100178043078 0 0.312576188949791 0.31458070521983672 0.3125761889497819 0.5004045312576143 0.47050700646456922 0.24963111222780321 0.22345881830598399 0.5062398304147856 0.22345881830602041 0.32925244736090059 0.39615100178043078 0 0.16929708765618309 0.30074819035915368 0 0.31610726166346748 0.18804489794572149 0 0.312576188949791 0.31458070521983672 0.3125761889497819 0.32446581821364329 0.60020898676454815 0 0.32925244736090059 0.39615100178043078 0 0.51961524226956368 0.5000000000025091 0 0.5004045312576143 0.47050700646456922 0.24963111222780321 0.51961524226956368 0.5000000000025091 0 0.32925244736090059 0.39615100178043078 0 0.45812322962036273 0.31024977578535839 0 0.5004045312576143 0.47050700646456922 0.24963111222780321 0 0.30074819035869899 0.1692970876565193 0.14641016151452901 0.14641016151487049 0 0.16929708765618309 0.30074819035915368 0 0.312576188949791 0.31458070521983672 0.3125761889497819 0 0.30074819035869899 0.1692970876565193 0.312576188949791 0.31458070521983672 0.3125761889497819 0.16929708765618309 0.30074819035915368 0 0.22345881830598399 0.5062398304147856 0.22345881830602041 0.17226134197279269 0.49836539647922029 0 0 0.49836539647891548 0.17226134197271731 0.16929708765618309 0.30074819035915368 0 0.22345881830598399 0.5062398304147856 0.22345881830602041 0.17226134197279269 0.49836539647922029 0 0.16929708765618309 0.30074819035915368 0 0.32925244736090059 0.39615100178043078 0 0.22345881830598399 0.5062398304147856 0.22345881830602041 0 0.30074819035869899 0.1692970876565193 0 0.20000000000083221 0 0 0.40000000000166441 0 0.16929708765618309 0.30074819035915368 0 0 0.30074819035869899 0.1692970876565193 0 0.40000000000166441 0 0 0.49836539647891548 0.17226134197271731 0.16929708765618309 0.30074819035915368 0 0 0.30074819035869899 0.1692970876565193 0.16929708765618309 0.30074819035915368 0 0 0.49836539647891548 0.17226134197271731 0.22345881830598399 0.5062398304147856 0.22345881830602041 0 0.30074819035869899 0.1692970876565193 0 0.49836539647891548 0.17226134197271731 0 0.39615100178029522 0.32925244736138171 0.22345881830598399 0.5062398304147856 0.22345881830602041 0 0.49836539647891548 0.17226134197271731 0 0.40000000000166441 0 0 0.60000000000138687 0 0.17226134197279269 0.49836539647922029 0 0.16929708765618309 0.30074819035915368 0 0 0.40000000000166441 0 0 0.49836539647891548 0.17226134197271731 0.17226134197279269 0.49836539647922029 0 0 0.69449451837103049 0.15896804272139439 0 0.60020898676435996 0.32446581821286191 0.22345881830598399 0.5062398304147856 0.22345881830602041 0.19259015428765269 0.77719169076434647 0.19259015428773721 0.1589680427220837 0.69449451837091269 0 0 0.69449451837103049 0.15896804272139439 0.22345881830598399 0.5062398304147856 0.22345881830602041 0.19259015428765269 0.77719169076434647 0.19259015428773721 0 0.69449451837103049 0.15896804272139439 0.17226134197279269 0.49836539647922029 0 0 0.60000000000138687 0 0.1589680427220837 0.69449451837091269 0 0.32446581821364329 0.60020898676454815 0 0.1589680427220837 0.69449451837091269 0 0.22345881830598399 0.5062398304147856 0.22345881830602041 0.19259015428765269 0.77719169076434647 0.19259015428773721 0 0.60000000000138687 0 0 0.49836539647891548 0.17226134197271731 0.17226134197279269 0.49836539647922029 0 0 0.69449451837103049 0.15896804272139439 0 0.69449451837103049 0.15896804272139439 0 0.60000000000138687 0 0 0.79999999999999982 0 0.1589680427220837 0.69449451837091269 0 0.31067093463127438 0.81480288849489035 0 0.1589680427220837 0.69449451837091269 0 0.32446581821364329 0.60020898676454815 0 0.19259015428765269 0.77719169076434647 0.19259015428773721 0.32446581821364329 0.60020898676454815 0 0.1589680427220837 0.69449451837091269 0 0.17226134197279269 0.49836539647922029 0 0.22345881830598399 0.5062398304147856 0.22345881830602041 0.1589680427220837 0.69449451837091269 0 0 0.69449451837103049 0.15896804272139439 0.17226134197279269 0.49836539647922029 0 0.22345881830598399 0.5062398304147856 0.22345881830602041 0 0.69449451837103049 0.15896804272139439 0 0.81480288849496429 0.31067093462946233 0 0.60020898676435996 0.32446581821286191 0.19259015428765269 0.77719169076434647 0.19259015428773721 0 0.49836539647891548 0.17226134197271731 0 0.69449451837103049 0.15896804272139439 0 0.60020898676435996 0.32446581821286191 0.22345881830598399 0.5062398304147856 0.22345881830602041 0 0.49836539647891548 0.17226134197271731 0.17226134197279269 0.49836539647922029 0 0 0.69449451837103049 0.15896804272139439 0.22345881830598399 0.5062398304147856 0.22345881830602041 0 0.60020898676435996 0.32446581821286191 0.22516916914780419 0.77057994845201627 0.48187244075707292 0.35848654557803328 0.70013656506632282 0.30029870175293161 0.19259015428765269 0.77719169076434647 0.19259015428773721 0 0.60020898676435996 0.32446581821286191 0.24769234054476261 0.52242103280823293 0.45098450226372488 0 0.39615100178029522 0.32925244736138171 0.22345881830598399 0.5062398304147856 0.22345881830602041 0 0.60020898676435996 0.32446581821286191 0 0.81480288849496429 0.31067093462946233 0.22516916914780419 0.77057994845201627 0.48187244075707292 0.19259015428765269 0.77719169076434647 0.19259015428773721 0.35848654557803328 0.70013656506632282 0.30029870175293161 0.22345881830598399 0.5062398304147856 0.22345881830602041 0 0.60020898676435996 0.32446581821286191 0.19259015428765269 0.77719169076434647 0.19259015428773721 0 0.49836539647891548 0.17226134197271731 0 0.60020898676435996 0.32446581821286191 0 0.39615100178029522 0.32925244736138171 0.22345881830598399 0.5062398304147856 0.22345881830602041 0 0.60020898676435996 0.32446581821286191 0.24769234054476261 0.52242103280823293 0.45098450226372488 0.35848654557803328 0.70013656506632282 0.30029870175293161 0.22516916914780419 0.77057994845201627 0.48187244075707292 0.35848654557803328 0.70013656506632282 0.30029870175293161 0.24769234054476261 0.52242103280823293 0.45098450226372488 0 0.60020898676435996 0.32446581821286191 0.22345881830598399 0.5062398304147856 0.22345881830602041 0 0.39615100178029522 0.32925244736138171 0 0.60020898676435996 0.32446581821286191 0 0.50000000000237477 0.51961524226909872 0.24769234054476261 0.52242103280823293 0.45098450226372488 0 0.68801781652248195 0.45664527743358641 0 0.50000000000237477 0.51961524226909872 0 0.60020898676435996 0.32446581821286191 0.24769234054476261 0.52242103280823293 0.45098450226372488 0 0.66416205381430016 0.59944234540882957 0.24769234054476261 0.52242103280823293 0.45098450226372488 0 0.68801781652248195 0.45664527743358641 0.22516916914780419 0.77057994845201627 0.48187244075707292 0 0.60020898676435996 0.32446581821286191 0 0.81480288849496429 0.31067093462946233 0 0.68801781652248195 0.45664527743358641 0.22516916914780419 0.77057994845201627 0.48187244075707292 0 0.68801781652248195 0.45664527743358641 0.24769234054476261 0.52242103280823293 0.45098450226372488 0 0.60020898676435996 0.32446581821286191 0.22516916914780419 0.77057994845201627 0.48187244075707292 0.16929708765615539 1 0.30074819035677097 0.32926555316115258 1 0.39615987727515128 0.22516916914780419 0.77057994845201627 0.48187244075707292 0.19259015428765269 0.77719169076434647 0.19259015428773721 0 0.81480288849496429 0.31067093462946233 0.16929708765615539 1 0.30074819035677097 0.22516916914780419 0.77057994845201627 0.48187244075707292 0.19259015428765269 0.77719169076434647 0.19259015428773721 0.17226134197293 1 0.49836539647645101 0 0.83630110503664845 0.50803330197135654 0 0.81480288849496429 0.31067093462946233 0.22516916914780419 0.77057994845201627 0.48187244075707292 0 0.68801781652248195 0.45664527743358641 0 0.81480288849496429 0.31067093462946233 0 0.83630110503664845 0.50803330197135654 0.22516916914780419 0.77057994845201627 0.48187244075707292 0.17226134197293 1 0.49836539647645101 0 1 0.3999999999989749 0 0.81480288849496429 0.31067093462946233 0 0.83630110503664845 0.50803330197135654 0 0.81480288849496429 0.31067093462946233 0.16929708765615539 1 0.30074819035677097 0 1 0.3999999999989749 0.17226134197293 1 0.49836539647645101 0.17226134197293 1 0.49836539647645101 0 0.81480288849496429 0.31067093462946233 0.16929708765615539 1 0.30074819035677097 0.22516916914780419 0.77057994845201627 0.48187244075707292 0.17226134197293 1 0.49836539647645101 0.16929708765615539 1 0.30074819035677097 0.32926555316115258 1 0.39615987727515128 0.22516916914780419 0.77057994845201627 0.48187244075707292 0 1 0.3999999999989749 0 1 0.19999999999955789 0.16929708765615539 1 0.30074819035677097 0 0.81480288849496429 0.31067093462946233 0.16929708765615539 1 0.30074819035677097 0 1 0.19999999999955789 0 0.85358983848655678 0.14641016151332509 0 0.81480288849496429 0.31067093462946233 0.14641016151352521 1 0.1464101615131837 0 1 0.19999999999955789 0 0.85358983848655678 0.14641016151332509 0.16929708765615539 1 0.30074819035677097 0.20000000000083221 1 0 0 1 0 0.14641016151479211 0.85358983848543113 0 0.14641016151352521 1 0.1464101615131837 0 0.85358983848655678 0.14641016151332509 0 1 0 0 1 0.19999999999955789 0.14641016151352521 1 0.1464101615131837 0 0.85358983848655678 0.14641016151332509 0.14641016151479211 0.85358983848543113 0 0 1 0 0.14641016151352521 1 0.1464101615131837 0.14641016151479211 0.85358983848543113 0 0 1 0 0 0.79999999999999982 0 0 0.85358983848655678 0.14641016151332509 0 0.85358983848655678 0.14641016151332509 0 0.69449451837103049 0.15896804272139439 0.1589680427220837 0.69449451837091269 0 0.19259015428765269 0.77719169076434647 0.19259015428773721 0 0.79999999999999982 0 0.1589680427220837 0.69449451837091269 0 0.14641016151479211 0.85358983848543113 0 0 0.85358983848655678 0.14641016151332509 0.14641016151352521 1 0.1464101615131837 0 0.85358983848655678 0.14641016151332509 0.14641016151479211 0.85358983848543113 0 0.19259015428765269 0.77719169076434647 0.19259015428773721 0.1589680427220837 0.69449451837091269 0 0 0.79999999999999982 0 0 0.69449451837103049 0.15896804272139439 0 0.85358983848655678 0.14641016151332509 0.1589680427220837 0.69449451837091269 0 0.14641016151479211 0.85358983848543113 0 0 0.85358983848655678 0.14641016151332509 0.19259015428765269 0.77719169076434647 0.19259015428773721 0.16929708765615539 1 0.30074819035677097 0 0.81480288849496429 0.31067093462946233 0 0.85358983848655678 0.14641016151332509 0.19259015428765269 0.77719169076434647 0.19259015428773721 0 0.85358983848655678 0.14641016151332509 0 0.81480288849496429 0.31067093462946233 0 0.69449451837103049 0.15896804272139439 0.19259015428765269 0.77719169076434647 0.19259015428773721 0.14641016151352521 1 0.1464101615131837 0.14641016151479211 0.85358983848543113 0 0.31067093463127438 0.81480288849489035 0 0.19259015428765269 0.77719169076434647 0.19259015428773721 0.1589680427220837 0.69449451837091269 0 0.31067093463127438 0.81480288849489035 0 0.14641016151479211 0.85358983848543113 0 0.19259015428765269 0.77719169076434647 0.19259015428773721 0.14641016151479211 0.85358983848543113 0 0.31067093463127438 0.81480288849489035 0 0.20000000000083221 1 0 0.14641016151352521 1 0.1464101615131837 0.31635851157303152 1 0.18818969570840721 0.20000000000083221 1 0 0.31067093463127438 0.81480288849489035 0 0.14641016151352521 1 0.1464101615131837 0.31067093463127438 0.81480288849489035 0 0.31635851157303152 1 0.18818969570840721 0.14641016151352521 1 0.1464101615131837 0.19259015428765269 0.77719169076434647 0.19259015428773721 0.31635851157303152 1 0.18818969570840721 0.16929708765615539 1 0.30074819035677097 0.14641016151352521 1 0.1464101615131837 0.19259015428765269 0.77719169076434647 0.19259015428773721 0.14641016151352521 1 0.1464101615131837 0.16929708765615539 1 0.30074819035677097 0 0.85358983848655678 0.14641016151332509 0.19259015428765269 0.77719169076434647 0.19259015428773721 0.35848654557803328 0.70013656506632282 0.30029870175293161 0.19259015428765269 0.77719169076434647 0.19259015428773721 0.31635851157303152 1 0.18818969570840721 0.52894546611500048 0.79133000140429866 0.2082794184507949 0.31067093463127438 0.81480288849489035 0 0.19259015428765269 0.77719169076434647 0.19259015428773721 0.35848654557803328 0.70013656506632282 0.30029870175293161 0.52894546611500048 0.79133000140429866 0.2082794184507949 0.31067093463127438 0.81480288849489035 0 0.31635851157303152 1 0.18818969570840721 0.19259015428765269 0.77719169076434647 0.19259015428773721 0.52894546611500048 0.79133000140429866 0.2082794184507949 0.31067093463127438 0.81480288849489035 0 0.40000000000166441 1 0 0.20000000000083221 1 0 0.31635851157303152 1 0.18818969570840721 0.31067093463127438 0.81480288849489035 0 0.50803330197353713 0.83630110503668265 0 0.31635851157303152 1 0.18818969570840721 0.52894546611500048 0.79133000140429866 0.2082794184507949 0.45664527743509797 0.68801781652245086 0 0.50803330197353713 0.83630110503668265 0 0.31067093463127438 0.81480288849489035 0 0.52894546611500048 0.79133000140429866 0.2082794184507949 0.51133491425992716 1 0.16370661204795281 0.31635851157303152 1 0.18818969570840721 0.40000000000166441 1 0 0.50803330197353713 0.83630110503668265 0 0.31635851157303152 1 0.18818969570840721 0.31067093463127438 0.81480288849489035 0 0.40000000000166441 1 0 0.50803330197353713 0.83630110503668265 0 0.51133491425992716 1 0.16370661204795281 0.45820186441796368 1 0.31030302876579191 0.31635851157303152 1 0.18818969570840721 0.52894546611500048 0.79133000140429866 0.2082794184507949 0.51133491425992716 1 0.16370661204795281 0.31635851157303152 1 0.18818969570840721 0.50803330197353713 0.83630110503668265 0 0.52894546611500048 0.79133000140429866 0.2082794184507949 0.32926555316115258 1 0.39615987727515128 0.35848654557803328 0.70013656506632282 0.30029870175293161 0.49983993748706529 0.75039103705932653 0.52967335724801234 0.22516916914780419 0.77057994845201627 0.48187244075707292 0.35848654557803328 0.70013656506632282 0.30029870175293161 0.22516916914780419 0.77057994845201627 0.48187244075707292 0.32926555316115258 1 0.39615987727515128 0.19259015428765269 0.77719169076434647 0.19259015428773721 0.31635851157303152 1 0.18818969570840721 0.45820186441796368 1 0.31030302876579191 0.32926555316115258 1 0.39615987727515128 0.35848654557803328 0.70013656506632282 0.30029870175293161 0.45820186441796368 1 0.31030302876579191 0.35848654557803328 0.70013656506632282 0.30029870175293161 0.31635851157303152 1 0.18818969570840721 0.52894546611500048 0.79133000140429866 0.2082794184507949 0.31635851157303152 1 0.18818969570840721 0.35848654557803328 0.70013656506632282 0.30029870175293161 0.32926555316115258 1 0.39615987727515128 0.19259015428765269 0.77719169076434647 0.19259015428773721 0.45820186441796368 1 0.31030302876579191 0.49983993748706529 0.75039103705932653 0.52967335724801234 0.35848654557803328 0.70013656506632282 0.30029870175293161 0.52894546611500048 0.79133000140429866 0.2082794184507949 0.45820186441796368 1 0.31030302876579191 0.32926555316115258 1 0.39615987727515128 0.35848654557803328 0.70013656506632282 0.30029870175293161 0.49983993748706529 0.75039103705932653 0.52967335724801234 0.31635851157303152 1 0.18818969570840721 0.32926555316115258 1 0.39615987727515128 0.16929708765615539 1 0.30074819035677097 0.19259015428765269 0.77719169076434647 0.19259015428773721 0.32926555316115258 1 0.39615987727515128 0.32448110831226962 1 0.6002015905153204 0.17226134197293 1 0.49836539647645101 0.22516916914780419 0.77057994845201627 0.48187244075707292 0.45820186441796368 1 0.31030302876579191 0.51961524227008238 1 0.49999999999872219 0.32926555316115258 1 0.39615987727515128 0.49983993748706529 0.75039103705932653 0.52967335724801234 0.24769234054476261 0.52242103280823293 0.45098450226372488 0.49983993748706529 0.75039103705932653 0.52967335724801234 0.35848654557803328 0.70013656506632282 0.30029870175293161 0.22516916914780419 0.77057994845201627 0.48187244075707292 0.35848654557803328 0.70013656506632282 0.30029870175293161 0.50000000000001332 0.49999999999999561 0.49999999999999561 0.24769234054476261 0.52242103280823293 0.45098450226372488 0.5004045312576143 0.47050700646456922 0.24963111222780321 0.35848654557803328 0.70013656506632282 0.30029870175293161 0.24769234054476261 0.52242103280823293 0.45098450226372488 0.50000000000001332 0.49999999999999561 0.49999999999999561 0.49983993748706529 0.75039103705932653 0.52967335724801234 0.35848654557803328 0.70013656506632282 0.30029870175293161 0.5004045312576143 0.47050700646456922 0.24963111222780321 0.24769234054476261 0.52242103280823293 0.45098450226372488 0.22345881830598399 0.5062398304147856 0.22345881830602041 0.35848654557803328 0.70013656506632282 0.30029870175293161 0.32446581821364329 0.60020898676454815 0 0.5004045312576143 0.47050700646456922 0.24963111222780321 0.22345881830598399 0.5062398304147856 0.22345881830602041 0.31067093463127438 0.81480288849489035 0 0.32446581821364329 0.60020898676454815 0 0.45664527743509797 0.68801781652245086 0 0.35848654557803328 0.70013656506632282 0.30029870175293161 0.32446581821364329 0.60020898676454815 0 0.22345881830598399 0.5062398304147856 0.22345881830602041 0.35848654557803328 0.70013656506632282 0.30029870175293161 0.19259015428765269 0.77719169076434647 0.19259015428773721 0.32446581821364329 0.60020898676454815 0 0.45664527743509797 0.68801781652245086 0 0.35848654557803328 0.70013656506632282 0.30029870175293161 0.5004045312576143 0.47050700646456922 0.24963111222780321 0.31067093463127438 0.81480288849489035 0 0.32446581821364329 0.60020898676454815 0 0.35848654557803328 0.70013656506632282 0.30029870175293161 0.19259015428765269 0.77719169076434647 0.19259015428773721 0.45664527743509797 0.68801781652245086 0 0.31067093463127438 0.81480288849489035 0 0.35848654557803328 0.70013656506632282 0.30029870175293161 0.52894546611500048 0.79133000140429866 0.2082794184507949 0.35848654557803328 0.70013656506632282 0.30029870175293161 0.5004045312576143 0.47050700646456922 0.24963111222780321 0.45664527743509797 0.68801781652245086 0 0.52894546611500048 0.79133000140429866 0.2082794184507949 0.17226134197279269 0.49836539647922029 0 0.32925244736090059 0.39615100178043078 0 0.32446581821364329 0.60020898676454815 0 0.22345881830598399 0.5062398304147856 0.22345881830602041 0.32446581821364329 0.60020898676454815 0 0.51961524226956368 0.5000000000025091 0 0.45664527743509797 0.68801781652245086 0 0.5004045312576143 0.47050700646456922 0.24963111222780321 0.72722573386132172 0.60922248848163563 0 0.68456408135056701 0.68607101396845627 0.31096060989957619 0.59944234541082553 0.66416205381394655 0 0.77713227489941183 0.50036915849493024 0.21774643624003751 0.68456408135056701 0.68607101396845627 0.31096060989957619 0.5004045312576143 0.47050700646456922 0.24963111222780321 0.59944234541082553 0.66416205381394655 0 0.77713227489941183 0.50036915849493024 0.21774643624003751 0.59944234541082553 0.66416205381394655 0 0.45664527743509797 0.68801781652245086 0 0.5004045312576143 0.47050700646456922 0.24963111222780321 0.52894546611500048 0.79133000140429866 0.2082794184507949 0.51961524226956368 0.5000000000025091 0 0.67320508075660079 0.46954769941202479 0 0.59944234541082553 0.66416205381394655 0 0.5004045312576143 0.47050700646456922 0.24963111222780321 0.59944234541082553 0.66416205381394655 0 0.5004045312576143 0.47050700646456922 0.24963111222780321 0.68456408135056701 0.68607101396845627 0.31096060989957619 0.52894546611500048 0.79133000140429866 0.2082794184507949 0.59944234541082553 0.66416205381394655 0 0.5004045312576143 0.47050700646456922 0.24963111222780321 0.67320508075660079 0.46954769941202479 0 0.77713227489941183 0.50036915849493024 0.21774643624003751 0.59944234541082553 0.66416205381394655 0 0.52894546611500048 0.79133000140429866 0.2082794184507949 0.68456408135056701 0.68607101396845627 0.31096060989957619 0.81582077266975173 0.77657922508894406 0.18483084990574741 0.59944234541082553 0.66416205381394655 0 0.45664527743509797 0.68801781652245086 0 0.51961524226956368 0.5000000000025091 0 0.5004045312576143 0.47050700646456922 0.24963111222780321 0.59944234541082553 0.66416205381394655 0 0.68456408135056701 0.68607101396845627 0.31096060989957619 0.72722573386132172 0.60922248848163563 0 0.81582077266975173 0.77657922508894406 0.18483084990574741 0.45664527743509797 0.68801781652245086 0 0.59944234541082553 0.66416205381394655 0 0.50803330197353713 0.83630110503668265 0 0.52894546611500048 0.79133000140429866 0.2082794184507949 0.59944234541082553 0.66416205381394655 0 0.72722573386132172 0.60922248848163563 0 0.7054234997318658 0.80860557108880304 0 0.81582077266975173 0.77657922508894406 0.18483084990574741 0.72722573386132172 0.60922248848163563 0 0.59944234541082553 0.66416205381394655 0 0.67320508075660079 0.46954769941202479 0 0.77713227489941183 0.50036915849493024 0.21774643624003751 0.68456408135056701 0.68607101396845627 0.31096060989957619 0.5004045312576143 0.47050700646456922 0.24963111222780321 0.35848654557803328 0.70013656506632282 0.30029870175293161 0.52894546611500048 0.79133000140429866 0.2082794184507949 0.68456408135056701 0.68607101396845627 0.31096060989957619 0.35848654557803328 0.70013656506632282 0.30029870175293161 0.50000000000001332 0.49999999999999561 0.49999999999999561 0.49983993748706529 0.75039103705932653 0.52967335724801234 0.50000000000001332 0.49999999999999561 0.49999999999999561 0.35848654557803328 0.70013656506632282 0.30029870175293161 0.68456408135056701 0.68607101396845627 0.31096060989957619 0.5004045312576143 0.47050700646456922 0.24963111222780321 0.50000000000001332 0.49999999999999561 0.49999999999999561 0.68456408135056701 0.68607101396845627 0.31096060989957619 0.7504488434426726 0.53051757989633308 0.49836643074154852 0.5004045312576143 0.47050700646456922 0.24963111222780321 0.68456408135056701 0.68607101396845627 0.31096060989957619 0.49983993748706529 0.75039103705932653 0.52967335724801234 0.7504488434426726 0.53051757989633308 0.49836643074154852 0.77374673111774417 0.78860835645735528 0.49829081152968557 0.7504488434426726 0.53051757989633308 0.49836643074154852 0.5004045312576143 0.47050700646456922 0.24963111222780321 0.68456408135056701 0.68607101396845627 0.31096060989957619 0.77713227489941183 0.50036915849493024 0.21774643624003751 0.35848654557803328 0.70013656506632282 0.30029870175293161 0.49983993748706529 0.75039103705932653 0.52967335724801234 0.68456408135056701 0.68607101396845627 0.31096060989957619 0.52894546611500048 0.79133000140429866 0.2082794184507949 0.50000000000001332 0.49999999999999561 0.49999999999999561 0.7504488434426726 0.53051757989633308 0.49836643074154852 0.68456408135056701 0.68607101396845627 0.31096060989957619 0.49983993748706529 0.75039103705932653 0.52967335724801234 0.68456408135056701 0.68607101396845627 0.31096060989957619 0.52894546611500048 0.79133000140429866 0.2082794184507949 0.61068558124908323 1 0.33127740899601937 0.81582077266975173 0.77657922508894406 0.18483084990574741 0.61068558124908323 1 0.33127740899601937 0.49983993748706529 0.75039103705932653 0.52967335724801234 0.68456408135056701 0.68607101396845627 0.31096060989957619 0.77374673111774417 0.78860835645735528 0.49829081152968557 0.61068558124908323 1 0.33127740899601937 0.68240285647621723 1 0.52310058211166854 0.49983993748706529 0.75039103705932653 0.52967335724801234 0.77374673111774417 0.78860835645735528 0.49829081152968557 0.82751535738810444 1 0.31407731390515509 0.68456408135056701 0.68607101396845627 0.31096060989957619 0.61068558124908323 1 0.33127740899601937 0.81582077266975173 0.77657922508894406 0.18483084990574741 0.45820186441796368 1 0.31030302876579191 0.61068558124908323 1 0.33127740899601937 0.49983993748706529 0.75039103705932653 0.52967335724801234 0.52894546611500048 0.79133000140429866 0.2082794184507949 0.61068558124908323 1 0.33127740899601937 0.68456408135056701 0.68607101396845627 0.31096060989957619 0.82751535738810444 1 0.31407731390515509 0.77374673111774417 0.78860835645735528 0.49829081152968557 0.68456408135056701 0.68607101396845627 0.31096060989957619 0.49983993748706529 0.75039103705932653 0.52967335724801234 0.61068558124908323 1 0.33127740899601937 0.52894546611500048 0.79133000140429866 0.2082794184507949 0.61068558124908323 1 0.33127740899601937 0.68240285647621723 1 0.52310058211166854 0.51961524227008238 1 0.49999999999872219 0.49983993748706529 0.75039103705932653 0.52967335724801234 0.51961524227008238 1 0.49999999999872219 0.45820186441796368 1 0.31030302876579191 0.61068558124908323 1 0.33127740899601937 0.49983993748706529 0.75039103705932653 0.52967335724801234 0.68240285647621723 1 0.52310058211166854 0.61068558124908323 1 0.33127740899601937 0.82751535738810444 1 0.31407731390515509 0.77374673111774417 0.78860835645735528 0.49829081152968557 0.51133491425992716 1 0.16370661204795281 0.61068558124908323 1 0.33127740899601937 0.45820186441796368 1 0.31030302876579191 0.52894546611500048 0.79133000140429866 0.2082794184507949 0.51133491425992716 1 0.16370661204795281 0.69988642339594154 1 0.16938214347578889 0.61068558124908323 1 0.33127740899601937 0.52894546611500048 0.79133000140429866 0.2082794184507949 0.69988642339594154 1 0.16938214347578889 0.61068558124908323 1 0.33127740899601937 0.52894546611500048 0.79133000140429866 0.2082794184507949 0.81582077266975173 0.77657922508894406 0.18483084990574741 0.69988642339594154 1 0.16938214347578889 0.52894546611500048 0.79133000140429866 0.2082794184507949 0.7054234997318658 0.80860557108880304 0 0.81582077266975173 0.77657922508894406 0.18483084990574741 0.69988642339594154 1 0.16938214347578889 0.51133491425992716 1 0.16370661204795281 0.50803330197353713 0.83630110503668265 0 0.52894546611500048 0.79133000140429866 0.2082794184507949 0.59944234541082553 0.66416205381394655 0 0.7054234997318658 0.80860557108880304 0 0.52894546611500048 0.79133000140429866 0.2082794184507949 0.81582077266975173 0.77657922508894406 0.18483084990574741 0.60000000000138687 1 0 0.69988642339594154 1 0.16938214347578889 0.51133491425992716 1 0.16370661204795281 0.50803330197353713 0.83630110503668265 0 0.51133491425992716 1 0.16370661204795281 0.40000000000166441 1 0 0.60000000000138687 1 0 0.50803330197353713 0.83630110503668265 0 0.50803330197353713 0.83630110503668265 0 0.59944234541082553 0.66416205381394655 0 0.7054234997318658 0.80860557108880304 0 0.52894546611500048 0.79133000140429866 0.2082794184507949 0.69988642339594154 1 0.16938214347578889 0.50803330197353713 0.83630110503668265 0 0.7054234997318658 0.80860557108880304 0 0.52894546611500048 0.79133000140429866 0.2082794184507949 0.60000000000138687 1 0 0.79999999999999982 1 0 0.69988642339594154 1 0.16938214347578889 0.7054234997318658 0.80860557108880304 0 0.50803330197353713 0.83630110503668265 0 0.60000000000138687 1 0 0.69988642339594154 1 0.16938214347578889 0.7054234997318658 0.80860557108880304 0 0.69988642339594154 1 0.16938214347578889 0.82751535738810444 1 0.31407731390515509 0.61068558124908323 1 0.33127740899601937 0.81582077266975173 0.77657922508894406 0.18483084990574741 0.82751535738810444 1 0.31407731390515509 0.69988642339594154 1 0.16938214347578889 0.85358983848665693 1 0.14641016151322461 0.81582077266975173 0.77657922508894406 0.18483084990574741 0.69988642339594154 1 0.16938214347578889 0.85358983848666903 0.85358983848666903 0 0.85358983848665693 1 0.14641016151322461 0.81582077266975173 0.77657922508894406 0.18483084990574741 0.85358983848665693 1 0.14641016151322461 1 0.85358983848655678 0.14641016151332509 0.82751535738810444 1 0.31407731390515509 0.81582077266975173 0.77657922508894406 0.18483084990574741 0.85358983848666903 0.85358983848666903 0 0.85358983848665693 1 0.14641016151322461 0.79999999999999982 1 0 0.69988642339594154 1 0.16938214347578889 0.69988642339594154 1 0.16938214347578889 0.79999999999999982 1 0 0.85358983848666903 0.85358983848666903 0 0.7054234997318658 0.80860557108880304 0 0.85358983848666903 0.85358983848666903 0 0.7054234997318658 0.80860557108880304 0 0.85173693729186062 0.69992182039541118 0 0.81582077266975173 0.77657922508894406 0.18483084990574741 0.69988642339594154 1 0.16938214347578889 0.7054234997318658 0.80860557108880304 0 0.85358983848666903 0.85358983848666903 0 0.81582077266975173 0.77657922508894406 0.18483084990574741 1 0.85358983848655678 0.14641016151332509 1 0.69449451837101916 0.15896804272136739 1 0.8148028884949543 0.31067093462944562 0.81582077266975173 0.77657922508894406 0.18483084990574741 0.82751535738810444 1 0.31407731390515509 1 0.85358983848655678 0.14641016151332509 1 0.8148028884949543 0.31067093462944562 0.81582077266975173 0.77657922508894406 0.18483084990574741 1 0.85358983848655678 0.14641016151332509 0.85358983848666903 0.85358983848666903 0 1 0.79999999999999982 0 0.81582077266975173 0.77657922508894406 0.18483084990574741 1 0.79999999999999982 0 0.81582077266975173 0.77657922508894406 0.18483084990574741 1 0.69449451837101916 0.15896804272136739 1 0.85358983848655678 0.14641016151332509 0.85358983848666903 0.85358983848666903 0 1 0.85358983848655678 0.14641016151332509 0.85358983848665693 1 0.14641016151322461 0.81582077266975173 0.77657922508894406 0.18483084990574741 0.85358983848666903 0.85358983848666903 0 0.85173693729186062 0.69992182039541118 0 1 0.79999999999999982 0 0.81582077266975173 0.77657922508894406 0.18483084990574741 1 0.85358983848655678 0.14641016151332509 0.85358983848665693 1 0.14641016151322461 1 1 0 0.85358983848666903 0.85358983848666903 0 1 1 0.19999999999955789 0.85358983848665693 1 0.14641016151322461 1 1 0 1 0.85358983848655678 0.14641016151332509 1 1 0 1 0.85358983848655678 0.14641016151332509 0.85358983848666903 0.85358983848666903 0 1 0.79999999999999982 0 0.79999999999999982 1 0 1 1 0 0.85358983848665693 1 0.14641016151322461 0.85358983848666903 0.85358983848666903 0 0.82751535738810444 1 0.31407731390515509 0.85358983848665693 1 0.14641016151322461 1 1 0.19999999999955789 1 0.85358983848655678 0.14641016151332509 1 1 0.19999999999955789 1 0.8148028884949543 0.31067093462944562 0.82751535738810444 1 0.31407731390515509 1 0.85358983848655678 0.14641016151332509 1 1 0.3999999999989749 1 0.8148028884949543 0.31067093462944562 0.82751535738810444 1 0.31407731390515509 1 1 0.19999999999955789 0.82751535738810444 1 0.31407731390515509 0.77374673111774417 0.78860835645735528 0.49829081152968557 0.68456408135056701 0.68607101396845627 0.31096060989957619 0.81582077266975173 0.77657922508894406 0.18483084990574741 1 0.8148028884949543 0.31067093462944562 0.77374673111774417 0.78860835645735528 0.49829081152968557 0.82751535738810444 1 0.31407731390515509 0.81582077266975173 0.77657922508894406 0.18483084990574741 1 0.8148028884949543 0.31067093462944562 0.68456408135056701 0.68607101396845627 0.31096060989957619 0.77374673111774417 0.78860835645735528 0.49829081152968557 0.81582077266975173 0.77657922508894406 0.18483084990574741 1 0.8148028884949543 0.31067093462944562 0.86762395692956074 1 0.5060815484123421 0.82751535738810444 1 0.31407731390515509 0.77374673111774417 0.78860835645735528 0.49829081152968557 0.68240285647621723 1 0.52310058211166854 0.82751535738810444 1 0.31407731390515509 0.86762395692956074 1 0.5060815484123421 0.77374673111774417 0.78860835645735528 0.49829081152968557 0.86762395692956074 1 0.5060815484123421 1 1 0.3999999999989749 1 0.8148028884949543 0.31067093462944562 0.82751535738810444 1 0.31407731390515509 1 1 0.3999999999989749 1 0.83630110503662825 0.50803330197135588 0.86762395692956074 1 0.5060815484123421 1 0.8148028884949543 0.31067093462944562 1 0.8148028884949543 0.31067093462944562 1 0.83630110503662825 0.50803330197135588 0.86762395692956074 1 0.5060815484123421 0.77374673111774417 0.78860835645735528 0.49829081152968557 1 0.8148028884949543 0.31067093462944562 1 0.68975022421527898 0.45812322962078778 1 0.83630110503662825 0.50803330197135588 0.77374673111774417 0.78860835645735528 0.49829081152968557 1 0.39615100178016449 0.32925244736082498 0.7504488434426726 0.53051757989633308 0.49836643074154852 1 0.60020898676431722 0.32446581821274012 0.77713227489941183 0.50036915849493024 0.21774643624003751 1 0.68975022421527898 0.45812322962078778 0.68456408135056701 0.68607101396845627 0.31096060989957619 1 0.60020898676431722 0.32446581821274012 0.7504488434426726 0.53051757989633308 0.49836643074154852 1 0.8148028884949543 0.31067093462944562 0.68456408135056701 0.68607101396845627 0.31096060989957619 1 0.68975022421527898 0.45812322962078778 0.77374673111774417 0.78860835645735528 0.49829081152968557 1 0.68975022421527898 0.45812322962078778 0.68456408135056701 0.68607101396845627 0.31096060989957619 0.7504488434426726 0.53051757989633308 0.49836643074154852 0.77374673111774417 0.78860835645735528 0.49829081152968557 1 0.68975022421527898 0.45812322962078778 1 0.8148028884949543 0.31067093462944562 1 0.60020898676431722 0.32446581821274012 0.68456408135056701 0.68607101396845627 0.31096060989957619 0.68456408135056701 0.68607101396845627 0.31096060989957619 1 0.60020898676431722 0.32446581821274012 0.7504488434426726 0.53051757989633308 0.49836643074154852 0.77713227489941183 0.50036915849493024 0.21774643624003751 1 0.8148028884949543 0.31067093462944562 1 0.60020898676431722 0.32446581821274012 0.68456408135056701 0.68607101396845627 0.31096060989957619 0.81582077266975173 0.77657922508894406 0.18483084990574741 1 0.60020898676431722 0.32446581821274012 0.77713227489941183 0.50036915849493024 0.21774643624003751 0.68456408135056701 0.68607101396845627 0.31096060989957619 0.81582077266975173 0.77657922508894406 0.18483084990574741 1 0.50000000000229983 0.51961524226898759 1 0.68975022421527898 0.45812322962078778 1 0.60020898676431722 0.32446581821274012 0.7504488434426726 0.53051757989633308 0.49836643074154852 1 0.39615100178016449 0.32925244736082498 1 0.50000000000229983 0.51961524226898759 1 0.60020898676431722 0.32446581821274012 0.7504488434426726 0.53051757989633308 0.49836643074154852 0.84191918937744659 0.51186163305076127 0 1 0.49836539647890021 0.17226134197269399 1 0.69449451837101916 0.15896804272136739 0.77713227489941183 0.50036915849493024 0.21774643624003751 1 0.69449451837101916 0.15896804272136739 0.85173693729186062 0.69992182039541118 0 0.77713227489941183 0.50036915849493024 0.21774643624003751 0.81582077266975173 0.77657922508894406 0.18483084990574741 1 0.69449451837101916 0.15896804272136739 0.77713227489941183 0.50036915849493024 0.21774643624003751 1 0.60020898676431722 0.32446581821274012 0.81582077266975173 0.77657922508894406 0.18483084990574741 1 0.69449451837101916 0.15896804272136739 1 0.49836539647890021 0.17226134197269399 1 0.60020898676431722 0.32446581821274012 0.77713227489941183 0.50036915849493024 0.21774643624003751 0.72722573386132172 0.60922248848163563 0 0.77713227489941183 0.50036915849493024 0.21774643624003751 0.85173693729186062 0.69992182039541118 0 0.81582077266975173 0.77657922508894406 0.18483084990574741 0.72722573386132172 0.60922248848163563 0 0.68456408135056701 0.68607101396845627 0.31096060989957619 0.77713227489941183 0.50036915849493024 0.21774643624003751 0.81582077266975173 0.77657922508894406 0.18483084990574741 1 0.8148028884949543 0.31067093462944562 1 0.69449451837101916 0.15896804272136739 1 0.60020898676431722 0.32446581821274012 0.81582077266975173 0.77657922508894406 0.18483084990574741 0.72722573386132172 0.60922248848163563 0 0.67320508075660079 0.46954769941202479 0 0.84191918937744659 0.51186163305076127 0 0.77713227489941183 0.50036915849493024 0.21774643624003751 0.84191918937744659 0.51186163305076127 0 1 0.69449451837101916 0.15896804272136739 0.85173693729186062 0.69992182039541118 0 0.77713227489941183 0.50036915849493024 0.21774643624003751 0.72722573386132172 0.60922248848163563 0 0.84191918937744659 0.51186163305076127 0 0.85173693729186062 0.69992182039541118 0 0.77713227489941183 0.50036915849493024 0.21774643624003751 0.7054234997318658 0.80860557108880304 0 0.72722573386132172 0.60922248848163563 0 0.85173693729186062 0.69992182039541118 0 0.81582077266975173 0.77657922508894406 0.18483084990574741 1 0.69449451837101916 0.15896804272136739 0.85173693729186062 0.69992182039541118 0 1 0.79999999999999982 0 1 0.60000000000138687 0 1 0.69449451837101916 0.15896804272136739 0.81582077266975173 0.77657922508894406 0.18483084990574741 1 0.79999999999999982 0 0.85173693729186062 0.69992182039541118 0 0.84191918937744659 0.51186163305076127 0 0.85173693729186062 0.69992182039541118 0 1 0.69449451837101916 0.15896804272136739 1 0.60000000000138687 0 1 0.60000000000138687 0 1 0.69449451837101916 0.15896804272136739 0.84191918937744659 0.51186163305076127 0 1 0.49836539647890021 0.17226134197269399 1 0.40000000000166441 0 1 0.60000000000138687 0 0.84191918937744659 0.51186163305076127 0 1 0.49836539647890021 0.17226134197269399 0.80839867011859301 0.31807971531731721 0 0.85358983848570813 0.1464101615143738 0 1 0.30074819035868428 0.16929708765640439 0.68777432594363841 0.31447353261427252 0.31366778418247038 0.80839867011859301 0.31807971531731721 0 1 0.40000000000166441 0 0.84191918937744659 0.51186163305076127 0 1 0.49836539647890021 0.17226134197269399 1 0.40000000000166441 0 0.80839867011859301 0.31807971531731721 0 1 0.30074819035868428 0.16929708765640439 1 0.49836539647890021 0.17226134197269399 0.80839867011859301 0.31807971531731721 0 0.68777432594363841 0.31447353261427252 0.31366778418247038 1 0.30074819035868428 0.16929708765640439 0.77713227489941183 0.50036915849493024 0.21774643624003751 0.84191918937744659 0.51186163305076127 0 0.67320508075660079 0.46954769941202479 0 0.80839867011859301 0.31807971531731721 0 0.77713227489941183 0.50036915849493024 0.21774643624003751 0.84191918937744659 0.51186163305076127 0 0.80839867011859301 0.31807971531731721 0 1 0.49836539647890021 0.17226134197269399 0.77713227489941183 0.50036915849493024 0.21774643624003751 0.80839867011859301 0.31807971531731721 0 1 0.30074819035868428 0.16929708765640439 1 0.49836539647890021 0.17226134197269399 0.77713227489941183 0.50036915849493024 0.21774643624003751 1 0.30074819035868428 0.16929708765640439 1 0.39615100178016449 0.32925244736082498 1 0.49836539647890021 0.17226134197269399 0.77713227489941183 0.50036915849493024 0.21774643624003751 1 0.30074819035868428 0.16929708765640439 0.80839867011859301 0.31807971531731721 0 1 0.40000000000166441 0 1 0.20000000000083221 0 1 0.30074819035868428 0.16929708765640439 0.80839867011859301 0.31807971531731721 0 1 0.20000000000083221 0 0.85358983848570813 0.1464101615143738 0 1 0.20000000000083221 0 1 0.14641016151453831 0.14641016151419689 1 0.30074819035868428 0.16929708765640439 0.85358983848570813 0.1464101615143738 0 0.83057691269884504 0 0.30018449338884379 0.85358983848650494 0 0.1464101615132356 0.68592116352011878 0 0.1724872797865501 0.68777432594363841 0.31447353261427252 0.31366778418247038 0.80839867011859301 0.31807971531731721 0 0.69380980079964416 0.1619694349440581 0 0.85358983848570813 0.1464101615143738 0 0.68777432594363841 0.31447353261427252 0.31366778418247038 1 0.18804489794556911 0.3161072616634244 1 0.30074819035868428 0.16929708765640439 1 0.14641016151453831 0.14641016151419689 0.68777432594363841 0.31447353261427252 0.31366778418247038 1 0.14641016151453831 0.14641016151419689 1 0.30074819035868428 0.16929708765640439 0.85358983848570813 0.1464101615143738 0 0.68777432594363841 0.31447353261427252 0.31366778418247038 1 0.14641016151453831 0.14641016151419689 0.85358983848650494 0 0.1464101615132356 0.83057691269884504 0 0.30018449338884379 0.68777432594363841 0.31447353261427252 0.31366778418247038 1 0.14641016151453831 0.14641016151419689 0.85358983848570813 0.1464101615143738 0 0.85358983848650494 0 0.1464101615132356 0.68777432594363841 0.31447353261427252 0.31366778418247038 0.69380980079964416 0.1619694349440581 0 0.85358983848650494 0 0.1464101615132356 0.85358983848570813 0.1464101615143738 0 0.68777432594363841 0.31447353261427252 0.31366778418247038 0.85358983848650494 0 0.1464101615132356 0.83057691269884504 0 0.30018449338884379 1 0 0.19999999999955789 1 0.14641016151453831 0.14641016151419689 0.83057691269884504 0 0.30018449338884379 1 0.18804489794556911 0.3161072616634244 1 0 0.19999999999955789 1 0.14641016151453831 0.14641016151419689 0.85358983848570813 0.1464101615143738 0 1 0 0 0.85358983848650494 0 0.1464101615132356 0.79999999999947335 0 0 0.85358983848650494 0 0.1464101615132356 1 0 0.19999999999955789 1 0 0 1 0.14641016151453831 0.14641016151419689 1 0 0 1 0.14641016151453831 0.14641016151419689 1 0.20000000000083221 0 0.85358983848570813 0.1464101615143738 0 1 0.14641016151453831 0.14641016151419689 1 0 0 0.85358983848650494 0 0.1464101615132356 0.85358983848570813 0.1464101615143738 0 0.68592116352011878 0 0.1724872797865501 0.69380980079964416 0.1619694349440581 0 0.85358983848650494 0 0.1464101615132356 0.79999999999947335 0 0 0.85358983848570813 0.1464101615143738 0 0.85358983848650494 0 0.1464101615132356 0.69380980079964416 0.1619694349440581 0 0.79999999999947335 0 0 0.68592116352011878 0 0.1724872797865501 0.68777432594363841 0.31447353261427252 0.31366778418247038 0.69380980079964416 0.1619694349440581 0 0.5003997205654479 0.21136633249797621 0.2258422409314382 0.68592116352011878 0 0.1724872797865501 0.85358983848650494 0 0.1464101615132356 0.69380980079964416 0.1619694349440581 0 0.68777432594363841 0.31447353261427252 0.31366778418247038 0.69380980079964416 0.1619694349440581 0 0.68592116352011878 0 0.1724872797865501 0.59999999999894682 0 0 0.79999999999947335 0 0 0.49391845158624981 0 0.1323760430705655 0.3999999999989749 0 0 0.50966790549376417 0.16275515618023731 0 0.59999999999894682 0 0 0.50966790549376417 0.16275515618023731 0 0.69380980079964416 0.1619694349440581 0 0.68592116352011878 0 0.1724872797865501 0.59999999999894682 0 0 0.68592116352011878 0 0.1724872797865501 0.49391845158624981 0 0.1323760430705655 0.50966790549376417 0.16275515618023731 0 0.59999999999894682 0 0 0.47688326899416439 0 0.31741132792405607 0.68592116352011878 0 0.1724872797865501 0.49391845158624981 0 0.1323760430705655 0.5003997205654479 0.21136633249797621 0.2258422409314382 0.49391845158624981 0 0.1323760430705655 0.68592116352011878 0 0.1724872797865501 0.50966790549376417 0.16275515618023731 0 0.5003997205654479 0.21136633249797621 0.2258422409314382 0.50966790549376417 0.16275515618023731 0 0.68592116352011878 0 0.1724872797865501 0.69380980079964416 0.1619694349440581 0 0.5003997205654479 0.21136633249797621 0.2258422409314382 0.6104699881764214 0.32043363027358418 0 0.50966790549376417 0.16275515618023731 0 0.69380980079964416 0.1619694349440581 0 0.5003997205654479 0.21136633249797621 0.2258422409314382 0.6104699881764214 0.32043363027358418 0 0.68777432594363841 0.31447353261427252 0.31366778418247038 0.80839867011859301 0.31807971531731721 0 0.77713227489941183 0.50036915849493024 0.21774643624003751 0.6104699881764214 0.32043363027358418 0 0.69380980079964416 0.1619694349440581 0 0.68777432594363841 0.31447353261427252 0.31366778418247038 0.5003997205654479 0.21136633249797621 0.2258422409314382 0.80839867011859301 0.31807971531731721 0 0.6104699881764214 0.32043363027358418 0 0.69380980079964416 0.1619694349440581 0 0.68777432594363841 0.31447353261427252 0.31366778418247038 0.6104699881764214 0.32043363027358418 0 0.45812322962036273 0.31024977578535839 0 0.50966790549376417 0.16275515618023731 0 0.5003997205654479 0.21136633249797621 0.2258422409314382 0.45812322962036273 0.31024977578535839 0 0.6104699881764214 0.32043363027358418 0 0.5004045312576143 0.47050700646456922 0.24963111222780321 0.5003997205654479 0.21136633249797621 0.2258422409314382 0.77713227489941183 0.50036915849493024 0.21774643624003751 0.6104699881764214 0.32043363027358418 0 0.5004045312576143 0.47050700646456922 0.24963111222780321 0.67320508075660079 0.46954769941202479 0 0.68777432594363841 0.31447353261427252 0.31366778418247038 0.5004045312576143 0.47050700646456922 0.24963111222780321 0.6104699881764214 0.32043363027358418 0 0.5003997205654479 0.21136633249797621 0.2258422409314382 0.77713227489941183 0.50036915849493024 0.21774643624003751 0.5004045312576143 0.47050700646456922 0.24963111222780321 0.6104699881764214 0.32043363027358418 0 0.68777432594363841 0.31447353261427252 0.31366778418247038 0.51961524226956368 0.5000000000025091 0 0.6104699881764214 0.32043363027358418 0 0.67320508075660079 0.46954769941202479 0 0.5004045312576143 0.47050700646456922 0.24963111222780321 0.45812322962036273 0.31024977578535839 0 0.6104699881764214 0.32043363027358418 0 0.51961524226956368 0.5000000000025091 0 0.5004045312576143 0.47050700646456922 0.24963111222780321 0.6104699881764214 0.32043363027358418 0 0.80839867011859301 0.31807971531731721 0 0.67320508075660079 0.46954769941202479 0 0.77713227489941183 0.50036915849493024 0.21774643624003751 0.68777432594363841 0.31447353261427252 0.31366778418247038 0.7504488434426726 0.53051757989633308 0.49836643074154852 0.50000000000001332 0.49999999999999561 0.49999999999999561 0.50073570207385831 0.24848280280289631 0.52886631355986169 0.7504488434426726 0.53051757989633308 0.49836643074154852 0.50073570207385831 0.24848280280289631 0.52886631355986169 0.68777432594363841 0.31447353261427252 0.31366778418247038 0.77973766487723961 0.22090161127815711 0.50014622462635805 0.50000000000001332 0.49999999999999561 0.49999999999999561 0.7504488434426726 0.53051757989633308 0.49836643074154852 0.68777432594363841 0.31447353261427252 0.31366778418247038 0.5004045312576143 0.47050700646456922 0.24963111222780321 0.68777432594363841 0.31447353261427252 0.31366778418247038 0.5004045312576143 0.47050700646456922 0.24963111222780321 0.7504488434426726 0.53051757989633308 0.49836643074154852 0.77713227489941183 0.50036915849493024 0.21774643624003751 0.50073570207385831 0.24848280280289631 0.52886631355986169 0.5004045312576143 0.47050700646456922 0.24963111222780321 0.68777432594363841 0.31447353261427252 0.31366778418247038 0.5003997205654479 0.21136633249797621 0.2258422409314382 0.50000000000001332 0.49999999999999561 0.49999999999999561 0.68777432594363841 0.31447353261427252 0.31366778418247038 0.50073570207385831 0.24848280280289631 0.52886631355986169 0.5004045312576143 0.47050700646456922 0.24963111222780321 0.83057691269884504 0 0.30018449338884379 0.68777432594363841 0.31447353261427252 0.31366778418247038 0.66852282575985944 0 0.3853248791658106 0.77973766487723961 0.22090161127815711 0.50014622462635805 0.68592116352011878 0 0.1724872797865501 0.66852282575985944 0 0.3853248791658106 0.83057691269884504 0 0.30018449338884379 0.68777432594363841 0.31447353261427252 0.31366778418247038 0.66852282575985944 0 0.3853248791658106 0.47688326899416439 0 0.31741132792405607 0.50073570207385831 0.24848280280289631 0.52886631355986169 0.5003997205654479 0.21136633249797621 0.2258422409314382 0.68969697123394857 0 0.54179813558228873 0.66852282575985944 0 0.3853248791658106 0.50073570207385831 0.24848280280289631 0.52886631355986169 0.77973766487723961 0.22090161127815711 0.50014622462635805 0.68592116352011878 0 0.1724872797865501 0.66852282575985944 0 0.3853248791658106 0.68777432594363841 0.31447353261427252 0.31366778418247038 0.5003997205654479 0.21136633249797621 0.2258422409314382 0.66852282575985944 0 0.3853248791658106 0.50073570207385831 0.24848280280289631 0.52886631355986169 0.68777432594363841 0.31447353261427252 0.31366778418247038 0.5003997205654479 0.21136633249797621 0.2258422409314382 0.68777432594363841 0.31447353261427252 0.31366778418247038 0.50073570207385831 0.24848280280289631 0.52886631355986169 0.66852282575985944 0 0.3853248791658106 0.77973766487723961 0.22090161127815711 0.50014622462635805 0.68592116352011878 0 0.1724872797865501 0.47688326899416439 0 0.31741132792405607 0.66852282575985944 0 0.3853248791658106 0.5003997205654479 0.21136633249797621 0.2258422409314382 0.50000000000250922 0 0.48038475773043671 0.66852282575985944 0 0.3853248791658106 0.47688326899416439 0 0.31741132792405607 0.50073570207385831 0.24848280280289631 0.52886631355986169 0.50000000000250922 0 0.48038475773043671 0.68969697123394857 0 0.54179813558228873 0.66852282575985944 0 0.3853248791658106 0.50073570207385831 0.24848280280289631 0.52886631355986169 0.66852282575985944 0 0.3853248791658106 0.68969697123394857 0 0.54179813558228873 0.83534964916824084 0 0.4902996892628636 0.77973766487723961 0.22090161127815711 0.50014622462635805 1 0.18804489794556911 0.3161072616634244 0.68777432594363841 0.31447353261427252 0.31366778418247038 0.83057691269884504 0 0.30018449338884379 0.77973766487723961 0.22090161127815711 0.50014622462635805 1 0.18804489794556911 0.3161072616634244 1 0.14641016151453831 0.14641016151419689 0.83057691269884504 0 0.30018449338884379 0.68777432594363841 0.31447353261427252 0.31366778418247038 0.83534964916824084 0 0.4902996892628636 0.83057691269884504 0 0.30018449338884379 0.66852282575985944 0 0.3853248791658106 0.77973766487723961 0.22090161127815711 0.50014622462635805 0.83534964916824084 0 0.4902996892628636 1 0.18804489794556911 0.3161072616634244 0.83057691269884504 0 0.30018449338884379 0.77973766487723961 0.22090161127815711 0.50014622462635805 0.83057691269884504 0 0.30018449338884379 0.83534964916824084 0 0.4902996892628636 1 0 0.3999999999989749 1 0.18804489794556911 0.3161072616634244 0.83534964916824084 0 0.4902996892628636 1 0.162755156180173 0.50966790549372887 1 0 0.59999999999894682 1 0 0.3999999999989749 1 0 0.3999999999989749 0.83534964916824084 0 0.4902996892628636 1 0.162755156180173 0.50966790549372887 1 0.18804489794556911 0.3161072616634244 1 0.18804489794556911 0.3161072616634244 1 0 0.3999999999989749 0.83057691269884504 0 0.30018449338884379 1 0 0.19999999999955789 1 0.31024977578542368 0.45812322962028301 1 0.18804489794556911 0.3161072616634244 1 0.162755156180173 0.50966790549372887 0.77973766487723961 0.22090161127815711 0.50014622462635805 0.83534964916824084 0 0.4902996892628636 1 0.162755156180173 0.50966790549372887 1 0.18804489794556911 0.3161072616634244 0.77973766487723961 0.22090161127815711 0.50014622462635805 1 0.39615100178016449 0.32925244736082498 0.68777432594363841 0.31447353261427252 0.31366778418247038 0.7504488434426726 0.53051757989633308 0.49836643074154852 0.77713227489941183 0.50036915849493024 0.21774643624003751 1 0.39615100178016449 0.32925244736082498 1 0.18804489794556911 0.3161072616634244 1 0.31024977578542368 0.45812322962028301 0.68777432594363841 0.31447353261427252 0.31366778418247038 1 0.31024977578542368 0.45812322962028301 0.7504488434426726 0.53051757989633308 0.49836643074154852 0.68777432594363841 0.31447353261427252 0.31366778418247038 0.77973766487723961 0.22090161127815711 0.50014622462635805 1 0.30074819035868428 0.16929708765640439 1 0.18804489794556911 0.3161072616634244 1 0.39615100178016449 0.32925244736082498 0.68777432594363841 0.31447353261427252 0.31366778418247038 1 0.31024977578542368 0.45812322962028301 0.68777432594363841 0.31447353261427252 0.31366778418247038 1 0.18804489794556911 0.3161072616634244 0.77973766487723961 0.22090161127815711 0.50014622462635805 1 0.30074819035868428 0.16929708765640439 0.68777432594363841 0.31447353261427252 0.31366778418247038 1 0.39615100178016449 0.32925244736082498 0.77713227489941183 0.50036915849493024 0.21774643624003751 1 0.39615100178016449 0.32925244736082498 0.68777432594363841 0.31447353261427252 0.31366778418247038 1 0.31024977578542368 0.45812322962028301 0.7504488434426726 0.53051757989633308 0.49836643074154852 1 0.60020898676431722 0.32446581821274012 1 0.49836539647890021 0.17226134197269399 1 0.39615100178016449 0.32925244736082498 0.77713227489941183 0.50036915849493024 0.21774643624003751 1 0.39615100178016449 0.32925244736082498 1 0.31024977578542368 0.45812322962028301 1 0.50000000000229983 0.51961524226898759 0.7504488434426726 0.53051757989633308 0.49836643074154852 1 0.33579115324550912 0.59952339316293046 0.7504488434426726 0.53051757989633308 0.49836643074154852 0.68742751001967084 0.31250796680084852 0.687427510020161 0.78019141325921404 0.49972466465542442 0.78019141325930785 1 0.33579115324550912 0.59952339316293046 1 0.39076805646076263 0.7272421105028648 0.68742751001967084 0.31250796680084852 0.687427510020161 0.81599560342209843 0.22280203704001911 0.81599560342233202 1 0.33579115324550912 0.59952339316293046 1 0.53045230059030524 0.6732050807565132 1 0.50000000000229983 0.51961524226898759 0.7504488434426726 0.53051757989633308 0.49836643074154852 1 0.33579115324550912 0.59952339316293046 0.7504488434426726 0.53051757989633308 0.49836643074154852 1 0.31024977578542368 0.45812322962028301 0.77973766487723961 0.22090161127815711 0.50014622462635805 0.68742751001967084 0.31250796680084852 0.687427510020161 0.77973766487723961 0.22090161127815711 0.50014622462635805 1 0.33579115324550912 0.59952339316293046 0.81599560342209843 0.22280203704001911 0.81599560342233202 1 0.33579115324550912 0.59952339316293046 0.68742751001967084 0.31250796680084852 0.687427510020161 0.7504488434426726 0.53051757989633308 0.49836643074154852 0.77973766487723961 0.22090161127815711 0.50014622462635805 1 0.53045230059030524 0.6732050807565132 0.7504488434426726 0.53051757989633308 0.49836643074154852 1 0.33579115324550912 0.59952339316293046 0.78019141325921404 0.49972466465542442 0.78019141325930785 1 0.39076805646076263 0.7272421105028648 1 0.33579115324550912 0.59952339316293046 0.68742751001967084 0.31250796680084852 0.687427510020161 0.78019141325921404 0.49972466465542442 0.78019141325930785 1 0.33579115324550912 0.59952339316293046 1 0.50000000000229983 0.51961524226898759 1 0.31024977578542368 0.45812322962028301 0.7504488434426726 0.53051757989633308 0.49836643074154852 1 0.39076805646076263 0.7272421105028648 1 0.53045230059030524 0.6732050807565132 1 0.33579115324550912 0.59952339316293046 0.78019141325921404 0.49972466465542442 0.78019141325930785 1 0.33579115324550912 0.59952339316293046 1 0.1912596090855686 0.70565701451953711 1 0.39076805646076263 0.7272421105028648 0.81599560342209843 0.22280203704001911 0.81599560342233202 1 0.33579115324550912 0.59952339316293046 1 0.31024977578542368 0.45812322962028301 1 0.162755156180173 0.50966790549372887 0.77973766487723961 0.22090161127815711 0.50014622462635805 1 0.162755156180173 0.50966790549372887 0.81469961246449951 0 0.68914937826112133 1 0.1912596090855686 0.70565701451953711 0.77973766487723961 0.22090161127815711 0.50014622462635805 0.81469961246449951 0 0.68914937826112133 0.77973766487723961 0.22090161127815711 0.50014622462635805 0.68742751001967084 0.31250796680084852 0.687427510020161 0.81599560342209843 0.22280203704001911 0.81599560342233202 0.81469961246449951 0 0.68914937826112133 1 0.1912596090855686 0.70565701451953711 0.77973766487723961 0.22090161127815711 0.50014622462635805 0.81599560342209843 0.22280203704001911 0.81599560342233202 1 0.1912596090855686 0.70565701451953711 1 0.33579115324550912 0.59952339316293046 0.77973766487723961 0.22090161127815711 0.50014622462635805 0.81599560342209843 0.22280203704001911 0.81599560342233202 1 0.162755156180173 0.50966790549372887 1 0.1912596090855686 0.70565701451953711 1 0.33579115324550912 0.59952339316293046 0.77973766487723961 0.22090161127815711 0.50014622462635805 1 0.1912596090855686 0.70565701451953711 0.81469961246449951 0 0.68914937826112133 1 0 0.59999999999894682 1 0 0.79999999999947335 0.81469961246449951 0 0.68914937826112133 1 0 0.59999999999894682 1 0.162755156180173 0.50966790549372887 1 0.1912596090855686 0.70565701451953711 1 0.162755156180173 0.50966790549372887 1 0 0.59999999999894682 0.81469961246449951 0 0.68914937826112133 0.83534964916824084 0 0.4902996892628636 0.81469961246449951 0 0.68914937826112133 0.83534964916824084 0 0.4902996892628636 0.68969697123394857 0 0.54179813558228873 0.77973766487723961 0.22090161127815711 0.50014622462635805 0.81469961246449951 0 0.68914937826112133 1 0.162755156180173 0.50966790549372887 0.83534964916824084 0 0.4902996892628636 0.77973766487723961 0.22090161127815711 0.50014622462635805 0.68969697123394857 0 0.54179813558228873 0.6002015905170176 0 0.67551889168744117 0.68742751001967084 0.31250796680084852 0.687427510020161 0.50073570207385831 0.24848280280289631 0.52886631355986169 0.6002015905170176 0 0.67551889168744117 0.81469961246449951 0 0.68914937826112133 0.68969697123394857 0 0.54179813558228873 0.68742751001967084 0.31250796680084852 0.687427510020161 0.81469961246449951 0 0.68914937826112133 0.68969697123394857 0 0.54179813558228873 0.68742751001967084 0.31250796680084852 0.687427510020161 0.77973766487723961 0.22090161127815711 0.50014622462635805 0.69447607299129699 0 0.84099946107689361 0.68742751001967084 0.31250796680084852 0.687427510020161 0.6002015905170176 0 0.67551889168744117 0.50084626324420545 0.22238844715913 0.78084811589659187 0.68742751001967084 0.31250796680084852 0.687427510020161 0.68969697123394857 0 0.54179813558228873 0.50073570207385831 0.24848280280289631 0.52886631355986169 0.77973766487723961 0.22090161127815711 0.50014622462635805 0.68742751001967084 0.31250796680084852 0.687427510020161 0.50073570207385831 0.24848280280289631 0.52886631355986169 0.6002015905170176 0 0.67551889168744117 0.50084626324420545 0.22238844715913 0.78084811589659187 0.6002015905170176 0 0.67551889168744117 0.81469961246449951 0 0.68914937826112133 0.68742751001967084 0.31250796680084852 0.687427510020161 0.81599560342209843 0.22280203704001911 0.81599560342233202 0.68969697123394857 0 0.54179813558228873 0.50000000000250922 0 0.48038475773043671 0.6002015905170176 0 0.67551889168744117 0.50073570207385831 0.24848280280289631 0.52886631355986169 0.50000000000001332 0.49999999999999561 0.49999999999999561 0.68742751001967084 0.31250796680084852 0.687427510020161 0.49816183246753282 0.5307146639261795 0.75045686993209071 0.50073570207385831 0.24848280280289631 0.52886631355986169 0.68742751001967084 0.31250796680084852 0.687427510020161 0.50000000000001332 0.49999999999999561 0.49999999999999561 0.7504488434426726 0.53051757989633308 0.49836643074154852 0.50073570207385831 0.24848280280289631 0.52886631355986169 0.68742751001967084 0.31250796680084852 0.687427510020161 0.7504488434426726 0.53051757989633308 0.49836643074154852 0.50000000000001332 0.49999999999999561 0.49999999999999561 0.49816183246753282 0.5307146639261795 0.75045686993209071 0.7504488434426726 0.53051757989633308 0.49836643074154852 0.49816183246753282 0.5307146639261795 0.75045686993209071 0.68742751001967084 0.31250796680084852 0.687427510020161 0.78019141325921404 0.49972466465542442 0.78019141325930785 0.49816183246753282 0.5307146639261795 0.75045686993209071 0.50073570207385831 0.24848280280289631 0.52886631355986169 0.68742751001967084 0.31250796680084852 0.687427510020161 0.50084626324420545 0.22238844715913 0.78084811589659187 0.68742751001967084 0.31250796680084852 0.687427510020161 0.50073570207385831 0.24848280280289631 0.52886631355986169 0.7504488434426726 0.53051757989633308 0.49836643074154852 0.77973766487723961 0.22090161127815711 0.50014622462635805 0.45812322962173568 0.31024977578554058 1 0.49816183246753282 0.5307146639261795 0.75045686993209071 0.59952339316492498 0.33579115324593939 1 0.50084626324420545 0.22238844715913 0.78084811589659187 0.59952339316492498 0.33579115324593939 1 0.68742751001967084 0.31250796680084852 0.687427510020161 0.72724211050425436 0.39076805646176382 1 0.81599560342209843 0.22280203704001911 0.81599560342233202 0.59952339316492498 0.33579115324593939 1 0.68742751001967084 0.31250796680084852 0.687427510020161 0.49816183246753282 0.5307146639261795 0.75045686993209071 0.78019141325921404 0.49972466465542442 0.78019141325930785 0.59952339316492498 0.33579115324593939 1 0.50084626324420545 0.22238844715913 0.78084811589659187 0.68742751001967084 0.31250796680084852 0.687427510020161 0.81599560342209843 0.22280203704001911 0.81599560342233202 0.59952339316492498 0.33579115324593939 1 0.49816183246753282 0.5307146639261795 0.75045686993209071 0.68742751001967084 0.31250796680084852 0.687427510020161 0.50084626324420545 0.22238844715913 0.78084811589659187 0.59952339316492498 0.33579115324593939 1 0.72724211050425436 0.39076805646176382 1 0.68742751001967084 0.31250796680084852 0.687427510020161 0.78019141325921404 0.49972466465542442 0.78019141325930785 0.59952339316492498 0.33579115324593939 1 0.49816183246753282 0.5307146639261795 0.75045686993209071 0.67320508075671459 0.53045230059073867 1 0.78019141325921404 0.49972466465542442 0.78019141325930785 0.70565701452089868 0.1912596090858541 1 0.59952339316492498 0.33579115324593939 1 0.72724211050425436 0.39076805646176382 1 0.81599560342209843 0.22280203704001911 0.81599560342233202 0.59952339316492498 0.33579115324593939 1 0.67320508075671459 0.53045230059073867 1 0.72724211050425436 0.39076805646176382 1 0.78019141325921404 0.49972466465542442 0.78019141325930785 0.45812322962173568 0.31024977578554058 1 0.51961524226934941 0.50000000000250611 1 0.59952339316492498 0.33579115324593939 1 0.49816183246753282 0.5307146639261795 0.75045686993209071 0.67320508075671459 0.53045230059073867 1 0.59952339316492498 0.33579115324593939 1 0.51961524226934941 0.50000000000250611 1 0.49816183246753282 0.5307146639261795 0.75045686993209071 0.59952339316492498 0.33579115324593939 1 0.50966790549576724 0.1627551561802443 1 0.45812322962173568 0.31024977578554058 1 0.50084626324420545 0.22238844715913 0.78084811589659187 0.50966790549576724 0.1627551561802443 1 0.70565701452089868 0.1912596090858541 1 0.69447607299129699 0 0.84099946107689361 0.50084626324420545 0.22238844715913 0.78084811589659187 0.68742751001967084 0.31250796680084852 0.687427510020161 0.50084626324420545 0.22238844715913 0.78084811589659187 0.69447607299129699 0 0.84099946107689361 0.81599560342209843 0.22280203704001911 0.81599560342233202 0.70565701452089868 0.1912596090858541 1 0.69447607299129699 0 0.84099946107689361 0.50084626324420545 0.22238844715913 0.78084811589659187 0.81599560342209843 0.22280203704001911 0.81599560342233202 0.70565701452089868 0.1912596090858541 1 0.50084626324420545 0.22238844715913 0.78084811589659187 0.59952339316492498 0.33579115324593939 1 0.81599560342209843 0.22280203704001911 0.81599560342233202 0.70565701452089868 0.1912596090858541 1 0.50966790549576724 0.1627551561802443 1 0.59952339316492498 0.33579115324593939 1 0.50084626324420545 0.22238844715913 0.78084811589659187 0.6002015905170176 0 0.67551889168744117 0.68742751001967084 0.31250796680084852 0.687427510020161 0.69447607299129699 0 0.84099946107689361 0.81599560342209843 0.22280203704001911 0.81599560342233202 0.69447607299129699 0 0.84099946107689361 0.6002015905170176 0 0.67551889168744117 0.49836539647917322 0 0.82773865802723501 0.50084626324420545 0.22238844715913 0.78084811589659187 0.69447607299129699 0 0.84099946107689361 0.49836539647917322 0 0.82773865802723501 0.50966790549576724 0.1627551561802443 1 0.50084626324420545 0.22238844715913 0.78084811589659187 0.60000000000138687 0 1 0.49836539647917322 0 0.82773865802723501 0.50966790549576724 0.1627551561802443 1 0.69447607299129699 0 0.84099946107689361 0.50966790549576724 0.1627551561802443 1 0.40000000000166441 0 1 0.49836539647917322 0 0.82773865802723501 0.60000000000138687 0 1 0.50966790549576724 0.1627551561802443 1 0.70565701452089868 0.1912596090858541 1 0.60000000000138687 0 1 0.69447607299129699 0 0.84099946107689361 0.70565701452089868 0.1912596090858541 1 0.60000000000138687 0 1 0.69447607299129699 0 0.84099946107689361 0.79999999999999982 0 1 0.6002015905170176 0 0.67551889168744117 0.69447607299129699 0 0.84099946107689361 0.81469961246449951 0 0.68914937826112133 0.81599560342209843 0.22280203704001911 0.81599560342233202 0.70565701452089868 0.1912596090858541 1 0.85358983848646974 0.14641016151341191 1 0.69447607299129699 0 0.84099946107689361 0.81599560342209843 0.22280203704001911 0.81599560342233202 0.85358983848646974 0.14641016151341191 1 0.70565701452089868 0.1912596090858541 1 0.85173693729199718 0.30007817960516198 1 0.81599560342209843 0.22280203704001911 0.81599560342233202 1 0.1912596090855686 0.70565701451953711 0.81469961246449951 0 0.68914937826112133 0.85358983848570524 0 0.85358983848556425 0.81599560342209843 0.22280203704001911 0.81599560342233202 0.69447607299129699 0 0.84099946107689361 0.85358983848570524 0 0.85358983848556425 0.81469961246449951 0 0.68914937826112133 0.81599560342209843 0.22280203704001911 0.81599560342233202 0.85358983848570524 0 0.85358983848556425 0.69447607299129699 0 0.84099946107689361 0.85358983848646974 0.14641016151341191 1 0.81599560342209843 0.22280203704001911 0.81599560342233202 0.79999999999999982 0 1 0.69447607299129699 0 0.84099946107689361 0.70565701452089868 0.1912596090858541 1 0.85358983848646974 0.14641016151341191 1 0.79999999999999982 0 1 0.85358983848570524 0 0.85358983848556425 0.69447607299129699 0 0.84099946107689361 0.85358983848646974 0.14641016151341191 1 1 0 1 1 0.14641016151333891 0.85358983848640169 0.85358983848570524 0 0.85358983848556425 0.85358983848646974 0.14641016151341191 1 0.79999999999999982 0 1 1 0 1 0.85358983848570524 0 0.85358983848556425 0.85358983848646974 0.14641016151341191 1 0.85358983848646974 0.14641016151341191 1 1 0 1 1 0.14641016151333891 0.85358983848640169 1 0.19999999999955789 1 0.85358983848570524 0 0.85358983848556425 1 0.14641016151333891 0.85358983848640169 1 0 1 1 0 0.79999999999947335 0.85358983848570524 0 0.85358983848556425 0.81469961246449951 0 0.68914937826112133 1 0.1912596090855686 0.70565701451953711 1 0 0.79999999999947335 1 0.1912596090855686 0.70565701451953711 1 0.14641016151333891 0.85358983848640169 0.85358983848570524 0 0.85358983848556425 1 0 0.79999999999947335 1 0.14641016151333891 0.85358983848640169 1 0.30007817960499339 0.85173693729139244 1 0.1912596090855686 0.70565701451953711 0.81599560342209843 0.22280203704001911 0.81599560342233202 1 0.1912596090855686 0.70565701451953711 0.85358983848570524 0 0.85358983848556425 1 0.14641016151333891 0.85358983848640169 0.81599560342209843 0.22280203704001911 0.81599560342233202 0.85358983848646974 0.14641016151341191 1 0.85173693729199718 0.30007817960516198 1 1 0.19999999999955789 1 0.81599560342209843 0.22280203704001911 0.81599560342233202 1 0.14641016151333891 0.85358983848640169 0.85358983848646974 0.14641016151341191 1 1 0.19999999999955789 1 0.81599560342209843 0.22280203704001911 0.81599560342233202 1 0.14641016151333891 0.85358983848640169 1 0.19999999999955789 1 1 0.30007817960499339 0.85173693729139244 0.81599560342209843 0.22280203704001911 0.81599560342233202 0.85358983848570524 0 0.85358983848556425 0.85358983848646974 0.14641016151341191 1 1 0.14641016151333891 0.85358983848640169 0.81599560342209843 0.22280203704001911 0.81599560342233202 1 0.19999999999955789 1 1 0.30007817960499339 0.85173693729139244 0.85173693729199718 0.30007817960516198 1 1 0.3999999999989749 1 1 0.19999999999955789 1 0.85173693729199718 0.30007817960516198 1 1 0.30007817960499339 0.85173693729139244 0.81599560342209843 0.22280203704001911 0.81599560342233202 1 0.30007817960499339 0.85173693729139244 0.85173693729199718 0.30007817960516198 1 0.78019141325921404 0.49972466465542442 0.78019141325930785 0.81599560342209843 0.22280203704001911 0.81599560342233202 0.68742751001967084 0.31250796680084852 0.687427510020161 0.78019141325921404 0.49972466465542442 0.78019141325930785 0.72724211050425436 0.39076805646176382 1 0.81599560342209843 0.22280203704001911 0.81599560342233202 1 0.39076805646076263 0.7272421105028648 1 0.30007817960499339 0.85173693729139244 0.78019141325921404 0.49972466465542442 0.78019141325930785 0.81599560342209843 0.22280203704001911 0.81599560342233202 0.85173693729199718 0.30007817960516198 1 0.72724211050425436 0.39076805646176382 1 0.78019141325921404 0.49972466465542442 0.78019141325930785 0.81599560342209843 0.22280203704001911 0.81599560342233202 1 0.39076805646076263 0.7272421105028648 0.78019141325921404 0.49972466465542442 0.78019141325930785 0.68742751001967084 0.31250796680084852 0.687427510020161 0.81599560342209843 0.22280203704001911 0.81599560342233202 0.85173693729199718 0.30007817960516198 1 1 0.30007817960499339 0.85173693729139244 1 0.48813836695007229 0.84191918937727617 1 0.3999999999989749 1 0.72724211050425436 0.39076805646176382 1 0.85173693729199718 0.30007817960516198 1 0.70565701452089868 0.1912596090858541 1 0.81599560342209843 0.22280203704001911 0.81599560342233202 1 0.1912596090855686 0.70565701451953711 1 0.30007817960499339 0.85173693729139244 1 0.39076805646076263 0.7272421105028648 0.81599560342209843 0.22280203704001911 0.81599560342233202 0.85173693729199718 0.30007817960516198 1 1 0.48813836695007229 0.84191918937727617 1 0.30007817960499339 0.85173693729139244 0.78019141325921404 0.49972466465542442 0.78019141325930785 1 0.30007817960499339 0.85173693729139244 1 0.48813836695007229 0.84191918937727617 1 0.39076805646076263 0.7272421105028648 0.78019141325921404 0.49972466465542442 0.78019141325930785 1 0.39076805646076263 0.7272421105028648 1 0.48813836695007229 0.84191918937727617 1 0.53045230059030524 0.6732050807565132 0.78019141325921404 0.49972466465542442 0.78019141325930785 0.72724211050425436 0.39076805646176382 1 0.67320508075671459 0.53045230059073867 1 0.84191918937756771 0.48813836695034618 1 0.78019141325921404 0.49972466465542442 0.78019141325930785 0.84191918937756771 0.48813836695034618 1 0.85173693729199718 0.30007817960516198 1 0.72724211050425436 0.39076805646176382 1 0.78019141325921404 0.49972466465542442 0.78019141325930785 0.84191918937756771 0.48813836695034618 1 1 0.48813836695007229 0.84191918937727617 0.85173693729199718 0.30007817960516198 1 0.78019141325921404 0.49972466465542442 0.78019141325930785 1 0.3999999999989749 1 1 0.48813836695007229 0.84191918937727617 0.84191918937756771 0.48813836695034618 1 1 0.59999999999894682 1 1 0.48813836695007229 0.84191918937727617 0.84191918937756771 0.48813836695034618 1 0.85173693729199718 0.30007817960516198 1 1 0.3999999999989749 1 0.80839867011861499 0.68192028468377774 1 0.78019141325921404 0.49972466465542442 0.78019141325930785 0.68649174659499257 0.68600703198516766 0.6864917465949647 0.77683220420328725 0.81278569633583353 0.81664766512111064 0.80839867011861499 0.68192028468377774 1 1 0.68192028468364885 0.80839867011854549 0.78019141325921404 0.49972466465542442 0.78019141325930785 0.77683220420328725 0.81278569633583353 0.81664766512111064 1 0.59999999999894682 1 1 0.48813836695007229 0.84191918937727617 0.84191918937756771 0.48813836695034618 1 1 0.68192028468364885 0.80839867011854549 0.68649174659499257 0.68600703198516766 0.6864917465949647 0.78019141325921404 0.49972466465542442 0.78019141325930785 1 0.68192028468364885 0.80839867011854549 0.77683220420328725 0.81278569633583353 0.81664766512111064 0.84191918937756771 0.48813836695034618 1 1 0.59999999999894682 1 1 0.68192028468364885 0.80839867011854549 0.80839867011861499 0.68192028468377774 1 1 0.59999999999894682 1 1 0.68192028468364885 0.80839867011854549 0.80839867011861499 0.68192028468377774 1 1 0.79999999999947335 1 0.84191918937756771 0.48813836695034618 1 0.67320508075671459 0.53045230059073867 1 0.80839867011861499 0.68192028468377774 1 0.78019141325921404 0.49972466465542442 0.78019141325930785 0.84191918937756771 0.48813836695034618 1 0.80839867011861499 0.68192028468377774 1 1 0.68192028468364885 0.80839867011854549 0.78019141325921404 0.49972466465542442 0.78019141325930785 1 0.68192028468364885 0.80839867011854549 1 0.53045230059030524 0.6732050807565132 1 0.48813836695007229 0.84191918937727617 0.78019141325921404 0.49972466465542442 0.78019141325930785 1 0.68192028468364885 0.80839867011854549 1 0.48813836695007229 0.84191918937727617 0.84191918937756771 0.48813836695034618 1 0.78019141325921404 0.49972466465542442 0.78019141325930785 1 0.67939035495490308 0.61016512164639347 0.78019141325921404 0.49972466465542442 0.78019141325930785 0.7504488434426726 0.53051757989633308 0.49836643074154852 1 0.53045230059030524 0.6732050807565132 1 0.67939035495490308 0.61016512164639347 0.7504488434426726 0.53051757989633308 0.49836643074154852 0.68649174659499257 0.68600703198516766 0.6864917465949647 0.77374673111774417 0.78860835645735528 0.49829081152968557 1 0.67939035495490308 0.61016512164639347 0.68649174659499257 0.68600703198516766 0.6864917465949647 1 0.83791821520125753 0.69361520514217179 0.77374673111774417 0.78860835645735528 0.49829081152968557 1 0.68192028468364885 0.80839867011854549 1 0.67939035495490308 0.61016512164639347 0.68649174659499257 0.68600703198516766 0.6864917465949647 0.77683220420328725 0.81278569633583353 0.81664766512111064 1 0.67939035495490308 0.61016512164639347 1 0.68975022421527898 0.45812322962078778 0.7504488434426726 0.53051757989633308 0.49836643074154852 0.77374673111774417 0.78860835645735528 0.49829081152968557 0.7504488434426726 0.53051757989633308 0.49836643074154852 0.78019141325921404 0.49972466465542442 0.78019141325930785 1 0.67939035495490308 0.61016512164639347 0.68649174659499257 0.68600703198516766 0.6864917465949647 1 0.68192028468364885 0.80839867011854549 0.68649174659499257 0.68600703198516766 0.6864917465949647 1 0.67939035495490308 0.61016512164639347 0.78019141325921404 0.49972466465542442 0.78019141325930785 1 0.53045230059030524 0.6732050807565132 1 0.68192028468364885 0.80839867011854549 1 0.67939035495490308 0.61016512164639347 0.78019141325921404 0.49972466465542442 0.78019141325930785 1 0.67939035495490308 0.61016512164639347 1 0.50000000000229983 0.51961524226898759 1 0.53045230059030524 0.6732050807565132 0.7504488434426726 0.53051757989633308 0.49836643074154852 1 0.67939035495490308 0.61016512164639347 1 0.68975022421527898 0.45812322962078778 1 0.50000000000229983 0.51961524226898759 0.7504488434426726 0.53051757989633308 0.49836643074154852 1 0.67939035495490308 0.61016512164639347 1 0.83630110503662825 0.50803330197135588 1 0.68975022421527898 0.45812322962078778 0.77374673111774417 0.78860835645735528 0.49829081152968557 1 0.83791821520125753 0.69361520514217179 0.77374673111774417 0.78860835645735528 0.49829081152968557 0.68649174659499257 0.68600703198516766 0.6864917465949647 0.77683220420328725 0.81278569633583353 0.81664766512111064 0.68649174659499257 0.68600703198516766 0.6864917465949647 0.77374673111774417 0.78860835645735528 0.49829081152968557 0.81346205468287114 1 0.68420958956387889 0.77683220420328725 0.81278569633583353 0.81664766512111064 1 0.83791821520125753 0.69361520514217179 0.68649174659499257 0.68600703198516766 0.6864917465949647 1 0.67939035495490308 0.61016512164639347 0.77683220420328725 0.81278569633583353 0.81664766512111064 1 0.68192028468364885 0.80839867011854549 1 0.83791821520125753 0.69361520514217179 1 0.67939035495490308 0.61016512164639347 0.77683220420328725 0.81278569633583353 0.81664766512111064 1 0.83791821520125753 0.69361520514217179 0.81346205468287114 1 0.68420958956387889 0.77374673111774417 0.78860835645735528 0.49829081152968557 0.77683220420328725 0.81278569633583353 0.81664766512111064 1 0.83630110503662825 0.50803330197135588 1 0.67939035495490308 0.61016512164639347 1 0.83791821520125753 0.69361520514217179 0.77374673111774417 0.78860835645735528 0.49829081152968557 1 0.83791821520125753 0.69361520514217179 0.86762395692956074 1 0.5060815484123421 1 0.83630110503662825 0.50803330197135588 0.77374673111774417 0.78860835645735528 0.49829081152968557 1 1 0.59999999999894682 1 0.83630110503662825 0.50803330197135588 1 0.83791821520125753 0.69361520514217179 0.86762395692956074 1 0.5060815484123421 0.86762395692956074 1 0.5060815484123421 1 1 0.59999999999894682 1 0.83630110503662825 0.50803330197135588 1 1 0.3999999999989749 1 0.83791821520125753 0.69361520514217179 0.81346205468287114 1 0.68420958956387889 1 1 0.59999999999894682 0.86762395692956074 1 0.5060815484123421 0.86762395692956074 1 0.5060815484123421 0.81346205468287114 1 0.68420958956387889 0.68240285647621723 1 0.52310058211166854 0.77374673111774417 0.78860835645735528 0.49829081152968557 0.81346205468287114 1 0.68420958956387889 0.86762395692956074 1 0.5060815484123421 1 0.83791821520125753 0.69361520514217179 0.77374673111774417 0.78860835645735528 0.49829081152968557 1 0.83791821520125753 0.69361520514217179 0.81346205468287114 1 0.68420958956387889 1 1 0.79999999999947335 1 1 0.59999999999894682 1 1 0.79999999999947335 0.85358983848569092 1 0.85358983848569092 0.81346205468287114 1 0.68420958956387889 1 0.83791821520125753 0.69361520514217179 0.85358983848569092 1 0.85358983848569092 1 0.83791821520125753 0.69361520514217179 1 0.85358983848587056 0.85358983848587056 0.77683220420328725 0.81278569633583353 0.81664766512111064 0.85358983848569092 1 0.85358983848569092 1 1 0.79999999999947335 1 0.85358983848587056 0.85358983848587056 1 0.83791821520125753 0.69361520514217179 0.85358983848587056 0.85358983848587056 1 1 1 1 1 0.79999999999947335 1 1 0.85358983848587056 0.85358983848587056 0.85358983848587056 0.85358983848587056 1 0.79999999999947335 1 1 1 1 1 0.85358983848569092 1 0.85358983848569092 1 1 0.79999999999947335 1 0.85358983848587056 0.85358983848587056 1 1 1 0.85358983848569092 1 0.85358983848569092 1 0.85358983848587056 0.85358983848587056 0.85358983848587056 0.85358983848587056 1 1 1 1 0.85358983848569092 1 0.85358983848569092 0.85358983848587056 0.85358983848587056 1 1 0.79999999999947335 1 1 0.68192028468364885 0.80839867011854549 1 0.85358983848587056 0.85358983848587056 1 0.79999999999947335 1 1 0.68192028468364885 0.80839867011854549 0.80839867011861499 0.68192028468377774 1 0.85358983848587056 0.85358983848587056 1 0.85358983848587056 0.85358983848587056 1 1 0.85358983848587056 0.85358983848587056 1 0.68192028468364885 0.80839867011854549 0.77683220420328725 0.81278569633583353 0.81664766512111064 1 0.68192028468364885 0.80839867011854549 1 0.85358983848587056 0.85358983848587056 1 0.83791821520125753 0.69361520514217179 0.77683220420328725 0.81278569633583353 0.81664766512111064 0.69361520514218133 0.83791821520130205 1 0.85358983848587056 0.85358983848587056 1 0.80839867011861499 0.68192028468377774 1 0.77683220420328725 0.81278569633583353 0.81664766512111064 0.80839867011861499 0.68192028468377774 1 0.85358983848587056 0.85358983848587056 1 1 0.68192028468364885 0.80839867011854549 0.77683220420328725 0.81278569633583353 0.81664766512111064 0.85358983848587056 0.85358983848587056 1 0.79999999999947335 1 1 0.85358983848569092 1 0.85358983848569092 0.77683220420328725 0.81278569633583353 0.81664766512111064 0.69981550660938663 1 0.83057691269844081 0.85358983848569092 1 0.85358983848569092 0.79999999999947335 1 1 0.77683220420328725 0.81278569633583353 0.81664766512111064 0.85358983848587056 0.85358983848587056 1 0.69361520514218133 0.83791821520130205 1 0.79999999999947335 1 1 0.77683220420328725 0.81278569633583353 0.81664766512111064 1 0.85358983848587056 0.85358983848587056 0.85358983848587056 0.85358983848587056 1 0.85358983848569092 1 0.85358983848569092 0.77683220420328725 0.81278569633583353 0.81664766512111064 0.85358983848569092 1 0.85358983848569092 0.69981550660938663 1 0.83057691269844081 0.81346205468287114 1 0.68420958956387889 0.77683220420328725 0.81278569633583353 0.81664766512111064 0.81346205468287114 1 0.68420958956387889 1 0.83791821520125753 0.69361520514217179 0.85358983848569092 1 0.85358983848569092 0.77683220420328725 0.81278569633583353 0.81664766512111064 0.69361520514218133 0.83791821520130205 1 0.49911199724958061 0.77872228561593948 0.77895350115271889 0.69981550660938663 1 0.83057691269844081 0.77683220420328725 0.81278569633583353 0.81664766512111064 0.69361520514218133 0.83791821520130205 1 0.61016512164652226 0.67939035495506384 1 0.49911199724958061 0.77872228561593948 0.77895350115271889 0.77683220420328725 0.81278569633583353 0.81664766512111064 0.81346205468287114 1 0.68420958956387889 0.69981550660938663 1 0.83057691269844081 0.6123333432449789 1 0.67837347745467769 0.77683220420328725 0.81278569633583353 0.81664766512111064 0.6123333432449789 1 0.67837347745467769 0.69981550660938663 1 0.83057691269844081 0.49911199724958061 0.77872228561593948 0.77895350115271889 0.77683220420328725 0.81278569633583353 0.81664766512111064 0.69361520514218133 0.83791821520130205 1 0.69981550660938663 1 0.83057691269844081 0.79999999999947335 1 1 0.77683220420328725 0.81278569633583353 0.81664766512111064 0.50970031073508926 1 0.83534964916803001 0.59999999999894682 1 1 0.69361520514218133 0.83791821520130205 1 0.69981550660938663 1 0.83057691269844081 0.69981550660938663 1 0.83057691269844081 0.59999999999894682 1 1 0.69361520514218133 0.83791821520130205 1 0.79999999999947335 1 1 0.80839867011861499 0.68192028468377774 1 0.61016512164652226 0.67939035495506384 1 0.69361520514218133 0.83791821520130205 1 0.77683220420328725 0.81278569633583353 0.81664766512111064 0.50803330197137353 0.83630110503667787 1 0.69361520514218133 0.83791821520130205 1 0.61016512164652226 0.67939035495506384 1 0.49911199724958061 0.77872228561593948 0.77895350115271889 0.50803330197137353 0.83630110503667787 1 0.50970031073508926 1 0.83534964916803001 0.69361520514218133 0.83791821520130205 1 0.49911199724958061 0.77872228561593948 0.77895350115271889 0.59999999999894682 1 1 0.50803330197137353 0.83630110503667787 1 0.3999999999989749 1 1 0.50970031073508926 1 0.83534964916803001 0.69361520514218133 0.83791821520130205 1 0.50803330197137353 0.83630110503667787 1 0.59999999999894682 1 1 0.50970031073508926 1 0.83534964916803001 0.69361520514218133 0.83791821520130205 1 0.50970031073508926 1 0.83534964916803001 0.69981550660938663 1 0.83057691269844081 0.49911199724958061 0.77872228561593948 0.77895350115271889 0.50970031073508926 1 0.83534964916803001 0.6123333432449789 1 0.67837347745467769 0.69981550660938663 1 0.83057691269844081 0.49911199724958061 0.77872228561593948 0.77895350115271889 0.6123333432449789 1 0.67837347745467769 0.49983993748706529 0.75039103705932653 0.52967335724801234 0.68649174659499257 0.68600703198516766 0.6864917465949647 0.49911199724958061 0.77872228561593948 0.77895350115271889 0.6123333432449789 1 0.67837347745467769 0.49983993748706529 0.75039103705932653 0.52967335724801234 0.68240285647621723 1 0.52310058211166854 0.77374673111774417 0.78860835645735528 0.49829081152968557 0.6123333432449789 1 0.67837347745467769 0.45820186441573879 1 0.68969697123405882 0.49983993748706529 0.75039103705932653 0.52967335724801234 0.49911199724958061 0.77872228561593948 0.77895350115271889 0.45820186441573879 1 0.68969697123405882 0.6123333432449789 1 0.67837347745467769 0.50970031073508926 1 0.83534964916803001 0.49911199724958061 0.77872228561593948 0.77895350115271889 0.6123333432449789 1 0.67837347745467769 0.68649174659499257 0.68600703198516766 0.6864917465949647 0.49983993748706529 0.75039103705932653 0.52967335724801234 0.77374673111774417 0.78860835645735528 0.49829081152968557 0.81346205468287114 1 0.68420958956387889 0.6123333432449789 1 0.67837347745467769 0.68649174659499257 0.68600703198516766 0.6864917465949647 0.77683220420328725 0.81278569633583353 0.81664766512111064 0.6123333432449789 1 0.67837347745467769 0.49911199724958061 0.77872228561593948 0.77895350115271889 0.68649174659499257 0.68600703198516766 0.6864917465949647 0.77683220420328725 0.81278569633583353 0.81664766512111064 0.81346205468287114 1 0.68420958956387889 0.68649174659499257 0.68600703198516766 0.6864917465949647 0.6123333432449789 1 0.67837347745467769 0.77374673111774417 0.78860835645735528 0.49829081152968557 0.81346205468287114 1 0.68420958956387889 0.6123333432449789 1 0.67837347745467769 0.68240285647621723 1 0.52310058211166854 0.77374673111774417 0.78860835645735528 0.49829081152968557 0.6123333432449789 1 0.67837347745467769 0.45820186441573879 1 0.68969697123405882 0.51961524227008238 1 0.49999999999872219 0.49983993748706529 0.75039103705932653 0.52967335724801234 0.6123333432449789 1 0.67837347745467769 0.51961524227008238 1 0.49999999999872219 0.68240285647621723 1 0.52310058211166854 0.49983993748706529 0.75039103705932653 0.52967335724801234 0.68649174659499257 0.68600703198516766 0.6864917465949647 0.49983993748706529 0.75039103705932653 0.52967335724801234 0.49816183246753282 0.5307146639261795 0.75045686993209071 0.49911199724958061 0.77872228561593948 0.77895350115271889 0.68649174659499257 0.68600703198516766 0.6864917465949647 0.50000000000001332 0.49999999999999561 0.49999999999999561 0.7504488434426726 0.53051757989633308 0.49836643074154852 0.49816183246753282 0.5307146639261795 0.75045686993209071 0.68649174659499257 0.68600703198516766 0.6864917465949647 0.49816183246753282 0.5307146639261795 0.75045686993209071 0.7504488434426726 0.53051757989633308 0.49836643074154852 0.78019141325921404 0.49972466465542442 0.78019141325930785 0.50000000000001332 0.49999999999999561 0.49999999999999561 0.68649174659499257 0.68600703198516766 0.6864917465949647 0.7504488434426726 0.53051757989633308 0.49836643074154852 0.49983993748706529 0.75039103705932653 0.52967335724801234 0.7504488434426726 0.53051757989633308 0.49836643074154852 0.49983993748706529 0.75039103705932653 0.52967335724801234 0.68649174659499257 0.68600703198516766 0.6864917465949647 0.77374673111774417 0.78860835645735528 0.49829081152968557 0.68649174659499257 0.68600703198516766 0.6864917465949647 0.50000000000001332 0.49999999999999561 0.49999999999999561 0.49816183246753282 0.5307146639261795 0.75045686993209071 0.49983993748706529 0.75039103705932653 0.52967335724801234 0.78019141325921404 0.49972466465542442 0.78019141325930785 0.61016512164652226 0.67939035495506384 1 0.49816183246753282 0.5307146639261795 0.75045686993209071 0.67320508075671459 0.53045230059073867 1 0.78019141325921404 0.49972466465542442 0.78019141325930785 0.49816183246753282 0.5307146639261795 0.75045686993209071 0.61016512164652226 0.67939035495506384 1 0.68649174659499257 0.68600703198516766 0.6864917465949647 0.61016512164652226 0.67939035495506384 1 0.68649174659499257 0.68600703198516766 0.6864917465949647 0.80839867011861499 0.68192028468377774 1 0.78019141325921404 0.49972466465542442 0.78019141325930785 0.68649174659499257 0.68600703198516766 0.6864917465949647 0.49911199724958061 0.77872228561593948 0.77895350115271889 0.61016512164652226 0.67939035495506384 1 0.77683220420328725 0.81278569633583353 0.81664766512111064 0.68649174659499257 0.68600703198516766 0.6864917465949647 0.49816183246753282 0.5307146639261795 0.75045686993209071 0.61016512164652226 0.67939035495506384 1 0.49911199724958061 0.77872228561593948 0.77895350115271889 0.80839867011861499 0.68192028468377774 1 0.68649174659499257 0.68600703198516766 0.6864917465949647 0.61016512164652226 0.67939035495506384 1 0.77683220420328725 0.81278569633583353 0.81664766512111064 0.67320508075671459 0.53045230059073867 1 0.61016512164652226 0.67939035495506384 1 0.80839867011861499 0.68192028468377774 1 0.78019141325921404 0.49972466465542442 0.78019141325930785 0.45812322962090041 0.68975022421538157 1 0.61016512164652226 0.67939035495506384 1 0.49816183246753282 0.5307146639261795 0.75045686993209071 0.49911199724958061 0.77872228561593948 0.77895350115271889 0.50803330197137353 0.83630110503667787 1 0.61016512164652226 0.67939035495506384 1 0.45812322962090041 0.68975022421538157 1 0.49911199724958061 0.77872228561593948 0.77895350115271889 0.51961524226934941 0.50000000000250611 1 0.45812322962090041 0.68975022421538157 1 0.61016512164652226 0.67939035495506384 1 0.49816183246753282 0.5307146639261795 0.75045686993209071 0.67320508075671459 0.53045230059073867 1 0.51961524226934941 0.50000000000250611 1 0.61016512164652226 0.67939035495506384 1 0.49816183246753282 0.5307146639261795 0.75045686993209071 0.3115891413135391 0.68758981780459771 0.68521708032990558 0.2184393375098648 0.50004596894495223 0.77634962490704662 0.32446581821293602 0.60020898676440626 1 0.18453958615733529 0.77655623474864555 0.81613222483915937 0.32925244736146098 0.39615100178034629 1 0.32446581821293602 0.60020898676440626 1 0.51961524226934941 0.50000000000250611 1 0.49816183246753282 0.5307146639261795 0.75045686993209071 0.45812322962090041 0.68975022421538157 1 0.3115891413135391 0.68758981780459771 0.68521708032990558 0.31067093462947892 0.81480288849497895 1 0.49911199724958061 0.77872228561593948 0.77895350115271889 0.32925244736146098 0.39615100178034629 1 0.32446581821293602 0.60020898676440626 1 0.49816183246753282 0.5307146639261795 0.75045686993209071 0.2184393375098648 0.50004596894495223 0.77634962490704662 0.45812322962090041 0.68975022421538157 1 0.49816183246753282 0.5307146639261795 0.75045686993209071 0.3115891413135391 0.68758981780459771 0.68521708032990558 0.49911199724958061 0.77872228561593948 0.77895350115271889 0.32446581821293602 0.60020898676440626 1 0.3115891413135391 0.68758981780459771 0.68521708032990558 0.49816183246753282 0.5307146639261795 0.75045686993209071 0.2184393375098648 0.50004596894495223 0.77634962490704662 0.45812322962090041 0.68975022421538157 1 0.51961524226934941 0.50000000000250611 1 0.32446581821293602 0.60020898676440626 1 0.49816183246753282 0.5307146639261795 0.75045686993209071 0.31067093462947892 0.81480288849497895 1 0.45812322962090041 0.68975022421538157 1 0.32446581821293602 0.60020898676440626 1 0.3115891413135391 0.68758981780459771 0.68521708032990558 0.45812322962090041 0.68975022421538157 1 0.32446581821293602 0.60020898676440626 1 0.3115891413135391 0.68758981780459771 0.68521708032990558 0.49816183246753282 0.5307146639261795 0.75045686993209071 0.32446581821293602 0.60020898676440626 1 0.31067093462947892 0.81480288849497895 1 0.3115891413135391 0.68758981780459771 0.68521708032990558 0.18453958615733529 0.77655623474864555 0.81613222483915937 0.3115891413135391 0.68758981780459771 0.68521708032990558 0.50000000000001332 0.49999999999999561 0.49999999999999561 0.24769234054476261 0.52242103280823293 0.45098450226372488 0.49983993748706529 0.75039103705932653 0.52967335724801234 0.3115891413135391 0.68758981780459771 0.68521708032990558 0.49816183246753282 0.5307146639261795 0.75045686993209071 0.50000000000001332 0.49999999999999561 0.49999999999999561 0.49983993748706529 0.75039103705932653 0.52967335724801234 0.3115891413135391 0.68758981780459771 0.68521708032990558 0.49983993748706529 0.75039103705932653 0.52967335724801234 0.24769234054476261 0.52242103280823293 0.45098450226372488 0.22516916914780419 0.77057994845201627 0.48187244075707292 0.50000000000001332 0.49999999999999561 0.49999999999999561 0.3115891413135391 0.68758981780459771 0.68521708032990558 0.24769234054476261 0.52242103280823293 0.45098450226372488 0.2184393375098648 0.50004596894495223 0.77634962490704662 0.3115891413135391 0.68758981780459771 0.68521708032990558 0.50000000000001332 0.49999999999999561 0.49999999999999561 0.49816183246753282 0.5307146639261795 0.75045686993209071 0.2184393375098648 0.50004596894495223 0.77634962490704662 0.49816183246753282 0.5307146639261795 0.75045686993209071 0.49983993748706529 0.75039103705932653 0.52967335724801234 0.3115891413135391 0.68758981780459771 0.68521708032990558 0.49911199724958061 0.77872228561593948 0.77895350115271889 0.32448110831226962 1 0.6002015905153204 0.45820186441573879 1 0.68969697123405882 0.3115891413135391 0.68758981780459771 0.68521708032990558 0.49983993748706529 0.75039103705932653 0.52967335724801234 0.45820186441573879 1 0.68969697123405882 0.31085062173747541 1 0.81469961246428202 0.32448110831226962 1 0.6002015905153204 0.3115891413135391 0.68758981780459771 0.68521708032990558 0.45820186441573879 1 0.68969697123405882 0.3115891413135391 0.68758981780459771 0.68521708032990558 0.49983993748706529 0.75039103705932653 0.52967335724801234 0.49911199724958061 0.77872228561593948 0.77895350115271889 0.32448110831226962 1 0.6002015905153204 0.3115891413135391 0.68758981780459771 0.68521708032990558 0.31085062173747541 1 0.81469961246428202 0.18453958615733529 0.77655623474864555 0.81613222483915937 0.32448110831226962 1 0.6002015905153204 0.49983993748706529 0.75039103705932653 0.52967335724801234 0.3115891413135391 0.68758981780459771 0.68521708032990558 0.22516916914780419 0.77057994845201627 0.48187244075707292 0.45820186441573879 1 0.68969697123405882 0.31085062173747541 1 0.81469961246428202 0.3115891413135391 0.68758981780459771 0.68521708032990558 0.49911199724958061 0.77872228561593948 0.77895350115271889 0.32926555316115258 1 0.39615987727515128 0.49983993748706529 0.75039103705932653 0.52967335724801234 0.32448110831226962 1 0.6002015905153204 0.22516916914780419 0.77057994845201627 0.48187244075707292 0.32448110831226962 1 0.6002015905153204 0.3115891413135391 0.68758981780459771 0.68521708032990558 0.15900053892265181 1 0.69447607299016312 0.22516916914780419 0.77057994845201627 0.48187244075707292 0.32926555316115258 1 0.39615987727515128 0.51961524227008238 1 0.49999999999872219 0.32448110831226962 1 0.6002015905153204 0.49983993748706529 0.75039103705932653 0.52967335724801234 0.32448110831226962 1 0.6002015905153204 0.51961524227008238 1 0.49999999999872219 0.45820186441573879 1 0.68969697123405882 0.49983993748706529 0.75039103705932653 0.52967335724801234 0.45820186441573879 1 0.68969697123405882 0.50970031073508926 1 0.83534964916803001 0.31085062173747541 1 0.81469961246428202 0.49911199724958061 0.77872228561593948 0.77895350115271889 0.31085062173747541 1 0.81469961246428202 0.49911199724958061 0.77872228561593948 0.77895350115271889 0.31067093462947892 0.81480288849497895 1 0.18453958615733529 0.77655623474864555 0.81613222483915937 0.31085062173747541 1 0.81469961246428202 0.3115891413135391 0.68758981780459771 0.68521708032990558 0.49911199724958061 0.77872228561593948 0.77895350115271889 0.18453958615733529 0.77655623474864555 0.81613222483915937 0.50803330197137353 0.83630110503667787 1 0.31085062173747541 1 0.81469961246428202 0.50970031073508926 1 0.83534964916803001 0.49911199724958061 0.77872228561593948 0.77895350115271889 0.31067093462947892 0.81480288849497895 1 0.49911199724958061 0.77872228561593948 0.77895350115271889 0.3115891413135391 0.68758981780459771 0.68521708032990558 0.18453958615733529 0.77655623474864555 0.81613222483915937 0.31085062173747541 1 0.81469961246428202 0.3999999999989749 1 1 0.50803330197137353 0.83630110503667787 1 0.50970031073508926 1 0.83534964916803001 0.31085062173747541 1 0.81469961246428202 0.3999999999989749 1 1 0.31067093462947892 0.81480288849497895 1 0.50803330197137353 0.83630110503667787 1 0.31085062173747541 1 0.81469961246428202 0.50803330197137353 0.83630110503667787 1 0.31067093462947892 0.81480288849497895 1 0.49911199724958061 0.77872228561593948 0.77895350115271889 0.45812322962090041 0.68975022421538157 1 0.31067093462947892 0.81480288849497895 1 0.50803330197137353 0.83630110503667787 1 0.49911199724958061 0.77872228561593948 0.77895350115271889 0.3999999999989749 1 1 0.19999999999955789 1 1 0.31085062173747541 1 0.81469961246428202 0.31067093462947892 0.81480288849497895 1 0.15900053892265181 1 0.69447607299016312 0.31085062173747541 1 0.81469961246428202 0.1464101615132356 1 0.85358983848650494 0.18453958615733529 0.77655623474864555 0.81613222483915937 0.31085062173747541 1 0.81469961246428202 0.31067093462947892 0.81480288849497895 1 0.1464101615132356 1 0.85358983848650494 0.18453958615733529 0.77655623474864555 0.81613222483915937 0.31085062173747541 1 0.81469961246428202 0.19999999999955789 1 1 0.1464101615132356 1 0.85358983848650494 0.31067093462947892 0.81480288849497895 1 0.14641016151332509 0.85358983848655678 1 0.1464101615132356 1 0.85358983848650494 0.19999999999955789 1 1 0.31067093462947892 0.81480288849497895 1 0.31067093462947892 0.81480288849497895 1 0.15896804272141651 0.69449451837104537 1 0.14641016151332509 0.85358983848655678 1 0.18453958615733529 0.77655623474864555 0.81613222483915937 0.14641016151332509 0.85358983848655678 1 0.1464101615132356 1 0.85358983848650494 0.31067093462947892 0.81480288849497895 1 0.18453958615733529 0.77655623474864555 0.81613222483915937 0 0.85358983848682146 0.85358983848668035 0 0.69992182039579531 0.85173693729137989 0 0.80860557108920617 0.70542349973054763 0.18453958615733529 0.77655623474864555 0.81613222483915937 0.15900053892265181 1 0.69447607299016312 0 0.85358983848682146 0.85358983848668035 0 0.80860557108920617 0.70542349973054763 0.18453958615733529 0.77655623474864555 0.81613222483915937 0.18453958615733529 0.77655623474864555 0.81613222483915937 0 0.79999999999999982 1 0.15896804272141651 0.69449451837104537 1 0.14641016151332509 0.85358983848655678 1 0.1464101615132356 1 0.85358983848650494 0.14641016151332509 0.85358983848655678 1 0 0.85358983848682146 0.85358983848668035 0.18453958615733529 0.77655623474864555 0.81613222483915937 0 0.85358983848682146 0.85358983848668035 0 0.79999999999999982 1 0 0.69992182039579531 0.85173693729137989 0.18453958615733529 0.77655623474864555 0.81613222483915937 0 0.85358983848682146 0.85358983848668035 0.14641016151332509 0.85358983848655678 1 0 0.79999999999999982 1 0.18453958615733529 0.77655623474864555 0.81613222483915937 0 1 1 0 0.85358983848682146 0.85358983848668035 0.14641016151332509 0.85358983848655678 1 0 0.79999999999999982 1 0 0.85358983848682146 0.85358983848668035 0.1464101615132356 1 0.85358983848650494 0 1 1 0.14641016151332509 0.85358983848655678 1 0.19999999999955789 1 1 0 1 1 0.1464101615132356 1 0.85358983848650494 0.14641016151332509 0.85358983848655678 1 0.1464101615132356 1 0.85358983848650494 0 1 1 0 1 0.79999999999947335 0 0.85358983848682146 0.85358983848668035 0.1464101615132356 1 0.85358983848650494 0 0.85358983848682146 0.85358983848668035 0.15900053892265181 1 0.69447607299016312 0.18453958615733529 0.77655623474864555 0.81613222483915937 0.15900053892265181 1 0.69447607299016312 0 1 0.79999999999947335 0 0.80860557108920617 0.70542349973054763 0 0.85358983848682146 0.85358983848668035 0 1 0.79999999999947335 0.15900053892265181 1 0.69447607299016312 0.1464101615132356 1 0.85358983848650494 0 0.85358983848682146 0.85358983848668035 0 0.80860557108920617 0.70542349973054763 0 1 0.59999999999894682 0 1 0.79999999999947335 0.15900053892265181 1 0.69447607299016312 0.3115891413135391 0.68758981780459771 0.68521708032990558 0.22516916914780419 0.77057994845201627 0.48187244075707292 0 0.80860557108920617 0.70542349973054763 0.18453958615733529 0.77655623474864555 0.81613222483915937 0 0.80860557108920617 0.70542349973054763 0 0.83630110503664845 0.50803330197135654 0 1 0.59999999999894682 0.15900053892265181 1 0.69447607299016312 0.15900053892265181 1 0.69447607299016312 0.3115891413135391 0.68758981780459771 0.68521708032990558 0.32448110831226962 1 0.6002015905153204 0.18453958615733529 0.77655623474864555 0.81613222483915937 0.15900053892265181 1 0.69447607299016312 0.22516916914780419 0.77057994845201627 0.48187244075707292 0.3115891413135391 0.68758981780459771 0.68521708032990558 0.18453958615733529 0.77655623474864555 0.81613222483915937 0.15900053892265181 1 0.69447607299016312 0 0.80860557108920617 0.70542349973054763 0.22516916914780419 0.77057994845201627 0.48187244075707292 0.18453958615733529 0.77655623474864555 0.81613222483915937 0.15900053892265181 1 0.69447607299016312 0.32448110831226962 1 0.6002015905153204 0.31085062173747541 1 0.81469961246428202 0.18453958615733529 0.77655623474864555 0.81613222483915937 0.32448110831226962 1 0.6002015905153204 0.15900053892265181 1 0.69447607299016312 0.17226134197293 1 0.49836539647645101 0.22516916914780419 0.77057994845201627 0.48187244075707292 0 0.83630110503664845 0.50803330197135654 0.17226134197293 1 0.49836539647645101 0.15900053892265181 1 0.69447607299016312 0.22516916914780419 0.77057994845201627 0.48187244075707292 0 1 0.59999999999894682 0 1 0.3999999999989749 0.17226134197293 1 0.49836539647645101 0 0.83630110503664845 0.50803330197135654 0 0.83630110503664845 0.50803330197135654 0.17226134197293 1 0.49836539647645101 0 1 0.59999999999894682 0.15900053892265181 1 0.69447607299016312 0 0.83630110503664845 0.50803330197135654 0.15900053892265181 1 0.69447607299016312 0 0.80860557108920617 0.70542349973054763 0.22516916914780419 0.77057994845201627 0.48187244075707292 0 0.66416205381430016 0.59944234540882957 0 0.83630110503664845 0.50803330197135654 0 0.80860557108920617 0.70542349973054763 0.22516916914780419 0.77057994845201627 0.48187244075707292 0 0.66416205381430016 0.59944234540882957 0 0.80860557108920617 0.70542349973054763 0.3115891413135391 0.68758981780459771 0.68521708032990558 0.22516916914780419 0.77057994845201627 0.48187244075707292 0 0.66416205381430016 0.59944234540882957 0.3115891413135391 0.68758981780459771 0.68521708032990558 0 0.80860557108920617 0.70542349973054763 0.18453958615733529 0.77655623474864555 0.81613222483915937 0 0.66416205381430016 0.59944234540882957 0 0.80860557108920617 0.70542349973054763 0 0.60922248848335758 0.72722573386012812 0.18453958615733529 0.77655623474864555 0.81613222483915937 0 0.66416205381430016 0.59944234540882957 0.24769234054476261 0.52242103280823293 0.45098450226372488 0.3115891413135391 0.68758981780459771 0.68521708032990558 0.2184393375098648 0.50004596894495223 0.77634962490704662 0 0.66416205381430016 0.59944234540882957 0 0.60922248848335758 0.72722573386012812 0.3115891413135391 0.68758981780459771 0.68521708032990558 0.18453958615733529 0.77655623474864555 0.81613222483915937 0 0.66416205381430016 0.59944234540882957 0 0.46954769941369501 0.67320508075638175 0 0.50000000000237477 0.51961524226909872 0.2184393375098648 0.50004596894495223 0.77634962490704662 0 0.60922248848335758 0.72722573386012812 0 0.66416205381430016 0.59944234540882957 0.3115891413135391 0.68758981780459771 0.68521708032990558 0.2184393375098648 0.50004596894495223 0.77634962490704662 0 0.66416205381430016 0.59944234540882957 0.3115891413135391 0.68758981780459771 0.68521708032990558 0.24769234054476261 0.52242103280823293 0.45098450226372488 0.22516916914780419 0.77057994845201627 0.48187244075707292 0 0.66416205381430016 0.59944234540882957 0 0.50000000000237477 0.51961524226909872 0.24769234054476261 0.52242103280823293 0.45098450226372488 0.2184393375098648 0.50004596894495223 0.77634962490704662 0 0.68801781652248195 0.45664527743358641 0 0.83630110503664845 0.50803330197135654 0 0.66416205381430016 0.59944234540882957 0.22516916914780419 0.77057994845201627 0.48187244075707292 0 0.66416205381430016 0.59944234540882957 0 0.50000000000237477 0.51961524226909872 0 0.68801781652248195 0.45664527743358641 0.24769234054476261 0.52242103280823293 0.45098450226372488 0 0.60922248848335758 0.72722573386012812 0 0.46954769941369501 0.67320508075638175 0 0.66416205381430016 0.59944234540882957 0.2184393375098648 0.50004596894495223 0.77634962490704662 0 0.5118616330515301 0.84191918937737908 0 0.69992182039579531 0.85173693729137989 0.15896804272141651 0.69449451837104537 1 0.2184393375098648 0.50004596894495223 0.77634962490704662 0 0.60922248848335758 0.72722573386012812 0.2184393375098648 0.50004596894495223 0.77634962490704662 0.3115891413135391 0.68758981780459771 0.68521708032990558 0.18453958615733529 0.77655623474864555 0.81613222483915937 0.15896804272141651 0.69449451837104537 1 0.2184393375098648 0.50004596894495223 0.77634962490704662 0 0.69992182039579531 0.85173693729137989 0.18453958615733529 0.77655623474864555 0.81613222483915937 0 0.5118616330515301 0.84191918937737908 0 0.46954769941369501 0.67320508075638175 0 0.60922248848335758 0.72722573386012812 0.2184393375098648 0.50004596894495223 0.77634962490704662 0 0.5118616330515301 0.84191918937737908 0 0.60922248848335758 0.72722573386012812 0 0.69992182039579531 0.85173693729137989 0.2184393375098648 0.50004596894495223 0.77634962490704662 0.15896804272141651 0.69449451837104537 1 0.32446581821293602 0.60020898676440626 1 0.2184393375098648 0.50004596894495223 0.77634962490704662 0.18453958615733529 0.77655623474864555 0.81613222483915937 0 0.60922248848335758 0.72722573386012812 0 0.69992182039579531 0.85173693729137989 0.2184393375098648 0.50004596894495223 0.77634962490704662 0.18453958615733529 0.77655623474864555 0.81613222483915937 0 0.80860557108920617 0.70542349973054763 0 0.69992182039579531 0.85173693729137989 0 0.60922248848335758 0.72722573386012812 0.18453958615733529 0.77655623474864555 0.81613222483915937 0.15896804272141651 0.69449451837104537 1 0.32446581821293602 0.60020898676440626 1 0.17226134197275911 0.49836539647894412 1 0.2184393375098648 0.50004596894495223 0.77634962490704662 0.15896804272141651 0.69449451837104537 1 0.17226134197275911 0.49836539647894412 1 0 0.5118616330515301 0.84191918937737908 0.2184393375098648 0.50004596894495223 0.77634962490704662 0.32446581821293602 0.60020898676440626 1 0.15896804272141651 0.69449451837104537 1 0.31067093462947892 0.81480288849497895 1 0.18453958615733529 0.77655623474864555 0.81613222483915937 0.18453958615733529 0.77655623474864555 0.81613222483915937 0.15896804272141651 0.69449451837104537 1 0 0.79999999999999982 1 0 0.69992182039579531 0.85173693729137989 0 0.69992182039579531 0.85173693729137989 0 0.5118616330515301 0.84191918937737908 0.15896804272141651 0.69449451837104537 1 0 0.60000000000138687 1 0.15896804272141651 0.69449451837104537 1 0 0.79999999999999982 1 0 0.69992182039579531 0.85173693729137989 0 0.60000000000138687 1 0 0.60000000000138687 1 0 0.5118616330515301 0.84191918937737908 0.15896804272141651 0.69449451837104537 1 0.17226134197275911 0.49836539647894412 1 0 0.5118616330515301 0.84191918937737908 0 0.60000000000138687 1 0 0.40000000000166441 1 0.17226134197275911 0.49836539647894412 1 0.17226134197275911 0.49836539647894412 1 0 0.40000000000166441 1 0 0.5118616330515301 0.84191918937737908 0 0.31807971531776508 0.80839867011913336 0 0.40000000000166441 1 0.17226134197275911 0.49836539647894412 1 0.16929708765653109 0.30074819035870082 1 0 0.31807971531776508 0.80839867011913336 0 0.14641016151490169 0.85358983848532144 0 0.31807971531776508 0.80839867011913336 0.16929708765653109 0.30074819035870082 1 0.31426750628021272 0.31270343261798911 0.68761148188185484 0.16929708765653109 0.30074819035870082 1 0.31426750628021272 0.31270343261798911 0.68761148188185484 0 0.31807971531776508 0.80839867011913336 0.2184393375098648 0.50004596894495223 0.77634962490704662 0 0.5118616330515301 0.84191918937737908 0 0.31807971531776508 0.80839867011913336 0 0.46954769941369501 0.67320508075638175 0.2184393375098648 0.50004596894495223 0.77634962490704662 0 0.5118616330515301 0.84191918937737908 0.17226134197275911 0.49836539647894412 1 0 0.31807971531776508 0.80839867011913336 0.2184393375098648 0.50004596894495223 0.77634962490704662 0 0.31807971531776508 0.80839867011913336 0.16929708765653109 0.30074819035870082 1 0 0.40000000000166441 1 0 0.20000000000083221 1 0.17226134197275911 0.49836539647894412 1 0.32925244736146098 0.39615100178034629 1 0.16929708765653109 0.30074819035870082 1 0.2184393375098648 0.50004596894495223 0.77634962490704662 0.17226134197275911 0.49836539647894412 1 0.16929708765653109 0.30074819035870082 1 0 0.31807971531776508 0.80839867011913336 0.2184393375098648 0.50004596894495223 0.77634962490704662 0.31610726166461628 0.1880448979455934 1 0.16929708765653109 0.30074819035870082 1 0.32925244736146098 0.39615100178034629 1 0.31426750628021272 0.31270343261798911 0.68761148188185484 0.32446581821293602 0.60020898676440626 1 0.32925244736146098 0.39615100178034629 1 0.17226134197275911 0.49836539647894412 1 0.2184393375098648 0.50004596894495223 0.77634962490704662 0.45812322962173568 0.31024977578554058 1 0.31426750628021272 0.31270343261798911 0.68761148188185484 0.49816183246753282 0.5307146639261795 0.75045686993209071 0.50084626324420545 0.22238844715913 0.78084811589659187 0.32925244736146098 0.39615100178034629 1 0.49816183246753282 0.5307146639261795 0.75045686993209071 0.31426750628021272 0.31270343261798911 0.68761148188185484 0.2184393375098648 0.50004596894495223 0.77634962490704662 0.31610726166461628 0.1880448979455934 1 0.32925244736146098 0.39615100178034629 1 0.45812322962173568 0.31024977578554058 1 0.31426750628021272 0.31270343261798911 0.68761148188185484 0.45812322962173568 0.31024977578554058 1 0.31610726166461628 0.1880448979455934 1 0.31426750628021272 0.31270343261798911 0.68761148188185484 0.50084626324420545 0.22238844715913 0.78084811589659187 0.32925244736146098 0.39615100178034629 1 0.45812322962173568 0.31024977578554058 1 0.31426750628021272 0.31270343261798911 0.68761148188185484 0.49816183246753282 0.5307146639261795 0.75045686993209071 0.32925244736146098 0.39615100178034629 1 0.31426750628021272 0.31270343261798911 0.68761148188185484 0.16929708765653109 0.30074819035870082 1 0.2184393375098648 0.50004596894495223 0.77634962490704662 0.32925244736146098 0.39615100178034629 1 0.51961524226934941 0.50000000000250611 1 0.45812322962173568 0.31024977578554058 1 0.49816183246753282 0.5307146639261795 0.75045686993209071 0.31426750628021272 0.31270343261798911 0.68761148188185484 0.49816183246753282 0.5307146639261795 0.75045686993209071 0.50000000000001332 0.49999999999999561 0.49999999999999561 0.2184393375098648 0.50004596894495223 0.77634962490704662 0.24769234054476261 0.52242103280823293 0.45098450226372488 0.50073570207385831 0.24848280280289631 0.52886631355986169 0.31426750628021272 0.31270343261798911 0.68761148188185484 0.22088738526309029 0.22111069116742441 0.50004796911802929 0.31426750628021272 0.31270343261798911 0.68761148188185484 0.50073570207385831 0.24848280280289631 0.52886631355986169 0.49816183246753282 0.5307146639261795 0.75045686993209071 0.50084626324420545 0.22238844715913 0.78084811589659187 0.50000000000001332 0.49999999999999561 0.49999999999999561 0.31426750628021272 0.31270343261798911 0.68761148188185484 0.24769234054476261 0.52242103280823293 0.45098450226372488 0.50073570207385831 0.24848280280289631 0.52886631355986169 0.50000000000001332 0.49999999999999561 0.49999999999999561 0.49816183246753282 0.5307146639261795 0.75045686993209071 0.31426750628021272 0.31270343261798911 0.68761148188185484 0.50073570207385831 0.24848280280289631 0.52886631355986169 0.50000000000001332 0.49999999999999561 0.49999999999999561 0.24769234054476261 0.52242103280823293 0.45098450226372488 0.31426750628021272 0.31270343261798911 0.68761148188185484 0.2184393375098648 0.50004596894495223 0.77634962490704662 0.2184393375098648 0.50004596894495223 0.77634962490704662 0.31426750628021272 0.31270343261798911 0.68761148188185484 0 0.50000000000237477 0.51961524226909872 0.24769234054476261 0.52242103280823293 0.45098450226372488 0 0.31024977578556651 0.45812322962166352 0.24769234054476261 0.52242103280823293 0.45098450226372488 0 0.32043363027398297 0.61046998817722586 0.22088738526309029 0.22111069116742441 0.50004796911802929 0 0.32043363027398297 0.61046998817722586 0 0.50000000000237477 0.51961524226909872 0.31426750628021272 0.31270343261798911 0.68761148188185484 0.24769234054476261 0.52242103280823293 0.45098450226372488 0.2184393375098648 0.50004596894495223 0.77634962490704662 0 0.32043363027398297 0.61046998817722586 0 0.50000000000237477 0.51961524226909872 0.31426750628021272 0.31270343261798911 0.68761148188185484 0 0.32043363027398297 0.61046998817722586 0.24769234054476261 0.52242103280823293 0.45098450226372488 0.31426750628021272 0.31270343261798911 0.68761148188185484 0.22088738526309029 0.22111069116742441 0.50004796911802929 0.2184393375098648 0.50004596894495223 0.77634962490704662 0 0.50000000000237477 0.51961524226909872 0 0.32043363027398297 0.61046998817722586 0 0.46954769941369501 0.67320508075638175 0 0.16196943494415611 0.69380980080116506 0 0.32043363027398297 0.61046998817722586 0.31426750628021272 0.31270343261798911 0.68761148188185484 0.22088738526309029 0.22111069116742441 0.50004796911802929 0 0.32043363027398297 0.61046998817722586 0 0.31807971531776508 0.80839867011913336 0.31426750628021272 0.31270343261798911 0.68761148188185484 0.2184393375098648 0.50004596894495223 0.77634962490704662 0 0.16196943494415611 0.69380980080116506 0 0.32043363027398297 0.61046998817722586 0 0.31807971531776508 0.80839867011913336 0.31426750628021272 0.31270343261798911 0.68761148188185484 0 0.31024977578556651 0.45812322962166352 0 0.50000000000237477 0.51961524226909872 0 0.32043363027398297 0.61046998817722586 0.24769234054476261 0.52242103280823293 0.45098450226372488 0 0.32043363027398297 0.61046998817722586 0 0.46954769941369501 0.67320508075638175 0 0.31807971531776508 0.80839867011913336 0.2184393375098648 0.50004596894495223 0.77634962490704662 0 0.32043363027398297 0.61046998817722586 0 0.16275515618034081 0.50966790549591257 0 0.31024977578556651 0.45812322962166352 0.22088738526309029 0.22111069116742441 0.50004796911802929 0 0.16196943494415611 0.69380980080116506 0.14641016151479661 0 0.85358983848542624 0.18818969570926641 0 0.68364148842842287 0.31426750628021272 0.31270343261798911 0.68761148188185484 0 0.16196943494415611 0.69380980080116506 0.31426750628021272 0.31270343261798911 0.68761148188185484 0.18818969570926641 0 0.68364148842842287 0.22088738526309029 0.22111069116742441 0.50004796911802929 0 0.16196943494415611 0.69380980080116506 0.18818969570926641 0 0.68364148842842287 0 0.16275515618034081 0.50966790549591257 0.22088738526309029 0.22111069116742441 0.50004796911802929 0 0.16196943494415611 0.69380980080116506 0 0.16275515618034081 0.50966790549591257 0 0.32043363027398297 0.61046998817722586 0.22088738526309029 0.22111069116742441 0.50004796911802929 0 0 0.79999999999999982 0 0 0.60000000000138687 0 0.16196943494415611 0.69380980080116506 0.18818969570926641 0 0.68364148842842287 0 0 0.60000000000138687 0 0.16196943494415611 0.69380980080116506 0.18818969570926641 0 0.68364148842842287 0 0.16275515618034081 0.50966790549591257 0.18818969570926641 0 0.68364148842842287 0.16370661204827031 0 0.4886650857430957 0 0 0.60000000000138687 0 0.16275515618034081 0.50966790549591257 0.18818969570926641 0 0.68364148842842287 0.31030302876556398 0 0.54179813558513157 0.16370661204827031 0 0.4886650857430957 0.22088738526309029 0.22111069116742441 0.50004796911802929 0 0.16275515618034081 0.50966790549591257 0.18818969570926641 0 0.68364148842842287 0.16370661204827031 0 0.4886650857430957 0.22088738526309029 0.22111069116742441 0.50004796911802929 0.30074819035913852 0 0.83070291234383831 0.39615987727709562 0 0.67073444684008199 0.18818969570926641 0 0.68364148842842287 0.31426750628021272 0.31270343261798911 0.68761148188185484 0.31030302876556398 0 0.54179813558513157 0.31426750628021272 0.31270343261798911 0.68761148188185484 0.50073570207385831 0.24848280280289631 0.52886631355986169 0.22088738526309029 0.22111069116742441 0.50004796911802929 0.39615987727709562 0 0.67073444684008199 0.31030302876556398 0 0.54179813558513157 0.31426750628021272 0.31270343261798911 0.68761148188185484 0.50073570207385831 0.24848280280289631 0.52886631355986169 0.39615987727709562 0 0.67073444684008199 0.31426750628021272 0.31270343261798911 0.68761148188185484 0.30074819035913852 0 0.83070291234383831 0.50084626324420545 0.22238844715913 0.78084811589659187 0.18818969570926641 0 0.68364148842842287 0.31426750628021272 0.31270343261798911 0.68761148188185484 0.31030302876556398 0 0.54179813558513157 0.22088738526309029 0.22111069116742441 0.50004796911802929 0.6002015905170176 0 0.67551889168744117 0.50073570207385831 0.24848280280289631 0.52886631355986169 0.39615987727709562 0 0.67073444684008199 0.50084626324420545 0.22238844715913 0.78084811589659187 0.31030302876556398 0 0.54179813558513157 0.18818969570926641 0 0.68364148842842287 0.39615987727709562 0 0.67073444684008199 0.31426750628021272 0.31270343261798911 0.68761148188185484 0.39615987727709562 0 0.67073444684008199 0.50073570207385831 0.24848280280289631 0.52886631355986169 0.31426750628021272 0.31270343261798911 0.68761148188185484 0.50084626324420545 0.22238844715913 0.78084811589659187 0.39615987727709562 0 0.67073444684008199 0.6002015905170176 0 0.67551889168744117 0.50000000000250922 0 0.48038475773043671 0.50073570207385831 0.24848280280289631 0.52886631355986169 0.39615987727709562 0 0.67073444684008199 0.50000000000250922 0 0.48038475773043671 0.31030302876556398 0 0.54179813558513157 0.50073570207385831 0.24848280280289631 0.52886631355986169 0.49836539647917322 0 0.82773865802723501 0.6002015905170176 0 0.67551889168744117 0.39615987727709562 0 0.67073444684008199 0.50084626324420545 0.22238844715913 0.78084811589659187 0.30074819035913852 0 0.83070291234383831 0.14641016151432179 0.14641016151432179 1 0.31610726166461628 0.1880448979455934 1 0.31426750628021272 0.31270343261798911 0.68761148188185484 0.30074819035913852 0 0.83070291234383831 0.31426750628021272 0.31270343261798911 0.68761148188185484 0.31610726166461628 0.1880448979455934 1 0.50084626324420545 0.22238844715913 0.78084811589659187 0.30074819035913852 0 0.83070291234383831 0.31610726166461628 0.1880448979455934 1 0.49836539647917322 0 0.82773865802723501 0.50084626324420545 0.22238844715913 0.78084811589659187 0.39615987727709562 0 0.67073444684008199 0.30074819035913852 0 0.83070291234383831 0.49836539647917322 0 0.82773865802723501 0.50084626324420545 0.22238844715913 0.78084811589659187 0.31610726166461628 0.1880448979455934 1 0.40000000000166441 0 1 0.49836539647917322 0 0.82773865802723501 0.50966790549576724 0.1627551561802443 1 0.40000000000166441 0 1 0.49836539647917322 0 0.82773865802723501 0.30074819035913852 0 0.83070291234383831 0.31610726166461628 0.1880448979455934 1 0.31610726166461628 0.1880448979455934 1 0.50966790549576724 0.1627551561802443 1 0.49836539647917322 0 0.82773865802723501 0.50084626324420545 0.22238844715913 0.78084811589659187 0.45812322962173568 0.31024977578554058 1 0.50966790549576724 0.1627551561802443 1 0.31610726166461628 0.1880448979455934 1 0.50084626324420545 0.22238844715913 0.78084811589659187 0.40000000000166441 0 1 0.30074819035913852 0 0.83070291234383831 0.20000000000083221 0 1 0.31610726166461628 0.1880448979455934 1 0 0.14641016151490169 0.85358983848532144 0 0.16196943494415611 0.69380980080116506 0 0.31807971531776508 0.80839867011913336 0.31426750628021272 0.31270343261798911 0.68761148188185484 0.16929708765653109 0.30074819035870082 1 0.31610726166461628 0.1880448979455934 1 0.14641016151432179 0.14641016151432179 1 0.31426750628021272 0.31270343261798911 0.68761148188185484 0.14641016151432179 0.14641016151432179 1 0.20000000000083221 0 1 0.14641016151479661 0 0.85358983848542624 0.30074819035913852 0 0.83070291234383831 0.14641016151432179 0.14641016151432179 1 0.30074819035913852 0 0.83070291234383831 0.14641016151479661 0 0.85358983848542624 0.31426750628021272 0.31270343261798911 0.68761148188185484 0.14641016151432179 0.14641016151432179 1 0.20000000000083221 0 1 0.30074819035913852 0 0.83070291234383831 0.31610726166461628 0.1880448979455934 1 0.18818969570926641 0 0.68364148842842287 0.14641016151479661 0 0.85358983848542624 0.30074819035913852 0 0.83070291234383831 0.31426750628021272 0.31270343261798911 0.68761148188185484 0 0.14641016151490169 0.85358983848532144 0.16929708765653109 0.30074819035870082 1 0.14641016151432179 0.14641016151432179 1 0.31426750628021272 0.31270343261798911 0.68761148188185484 0.14641016151432179 0.14641016151432179 1 0.14641016151479661 0 0.85358983848542624 0 0.14641016151490169 0.85358983848532144 0.31426750628021272 0.31270343261798911 0.68761148188185484 0 0.16196943494415611 0.69380980080116506 0 0.14641016151490169 0.85358983848532144 0.14641016151479661 0 0.85358983848542624 0.31426750628021272 0.31270343261798911 0.68761148188185484 0 0.20000000000083221 1 0 0.31807971531776508 0.80839867011913336 0.16929708765653109 0.30074819035870082 1 0 0.14641016151490169 0.85358983848532144 0.14641016151432179 0.14641016151432179 1 0 0.20000000000083221 1 0.16929708765653109 0.30074819035870082 1 0 0.14641016151490169 0.85358983848532144 0 0.16196943494415611 0.69380980080116506 0.14641016151479661 0 0.85358983848542624 0 0 0.79999999999999982 0.18818969570926641 0 0.68364148842842287 0 0.14641016151490169 0.85358983848532144 0.14641016151479661 0 0.85358983848542624 0 0 0.79999999999999982 0 0.16196943494415611 0.69380980080116506 0 0 1 0 0.20000000000083221 1 0.14641016151432179 0.14641016151432179 1 0 0.14641016151490169 0.85358983848532144 0.14641016151479661 0 0.85358983848542624 0 0 0.79999999999999982 0 0 1 0 0.14641016151490169 0.85358983848532144 0 0 1 0.14641016151432179 0.14641016151432179 1 0.20000000000083221 0 1 0.14641016151479661 0 0.85358983848542624 0.14641016151479661 0 0.85358983848542624 0 0 1 0.14641016151432179 0.14641016151432179 1 0 0.14641016151490169 0.85358983848532144 
</DataArray>
</Points>
<Cells>
<DataArray type="UInt32" Name="connectivity" format="ascii">
0 1 2 3 4 5 6 7 8 9 10 11 12 13 14 15 16 17 18 19 20 21 22 23 24 25 26 27 28 29 30 31 32 33 34 35 36 37 38 39 40 41 42 43 44 45 46 47 48 49 50 51 52 53 54 55 56 57 58 59 60 61 62 63 64 65 66 67 68 69 70 71 72 73 74 75 76 77 78 79 80 81 82 83 84 85 86 87 88 89 90 91 92 93 94 95 96 97 98 99 100 101 102 103 104 105 106 107 108 109 110 111 112 113 114 115 116 117 118 119 120 121 122 123 124 125 126 127 128 129 130 131 132 133 134 135 136 137 138 139 140 141 142 143 144 145 146 147 148 149 150 151 152 153 154 155 156 157 158 159 160 161 162 163 164 165 166 167 168 169 170 171 172 173 174 175 176 177 178 179 180 181 182 183 184 185 186 187 188 189 190 191 192 193 194 195 196 197 198 199 200 201 202 203 204 205 206 207 208 209 210 211 212 213 214 215 216 217 218 219 220 221 222 223 224 225 226 227 228 229 230 231 232 233 234 235 236 237 238 239 240 241 242 243 244 245 246 247 248 249 250 251 252 253 254 255 256 257 258 259 260 261 262 263 264 265 266 267 268 269 270 271 272 273 274 275 276 277 278 279 280 281 282 283 284 285 286 287 288 289 290 291 292 293 294 295 296 297 298 299 300 301 302 303 304 305 306 307 308 309 310 311 312 313 314 315 316 317 318 319 320 321 322 323 324 325 326 327 328 329 330 331 332 333 334 335 336 337 338 339 340 341 342 343 344 345 346 347 348 349 350 351 352 353 354 355 356 357 358 359 360 361 362 363 364 365 366 367 368 369 370 371 372 373 374 375 376 377 378 379 380 381 382 383 384 385 386 387 388 389 390 391 392 393 394 395 396 397 398 399 400 401 402 403 404 405 406 407 408 409 410 411 412 413 414 415 416 417 418 419 420 421 422 423 424 425 426 427 428 429 430 431 432 433 434 435 436 437 438 439 440 441 442 443 444 445 446 447 448 449 450 451 452 453 454 455 456 457 458 459 460 461 462 463 464 465 466 467 468 469 470 471 472 473 474 475 476 477 478 479 480 481 482 483 484 485 486 487 488 489 490 491 492 493 494 495 496 497 498 499 500 501 502 503 504 505 506 507 508 509 510 511 512 513 514 515 516 517 518 519 520 521 522 523 524 525 526 527 528 529 530 531 532 533 534 535 536 537 538 539 540 541 542 543 544 545 546 547 548 549 550 551 552 553 554 555 556 557 558 559 560 561 562 563 564 565 566 567 568 569 570 571 572 573 574 575 576 577 578 579 580 581 582 583 584 585 586 587 588 589 590 591 592 593 594 595 596 597 598 599 600 601 602 603 604 605 606 607 608 609 610 611 612 613 614 615 616 617 618 619 620 621 622 623 624 625 626 627 628 629 630 631 632 633 634 635 636 637 638 639 640 641 642 643 644 645 646 647 648 649 650 651 652 653 654 655 656 657 658 659 660 661 662 663 664 665 666 667 668 669 670 671 672 673 674 675 676 677 678 679 680 681 682 683 684 685 686 687 688 689 690 691 692 693 694 695 696 697 698 699 700 701 702 703 704 705 706 707 708 709 710 711 712 713 714 715 716 717 718 719 720 721 722 723 724 725 726 727 728 729 730 731 732 733 734 735 736 737 738 739 740 741 742 743 744 745 746 747 748 749 750 751 752 753 754 755 756 757 758 759 760 761 762 763 764 765 766 767 768 769 770 771 772 773 774 775 776 777 778 779 780 781 782 783 784 785 786 787 788 789 790 791 792 793 794 795 796 797 798 799 800 801 802 803 804 805 806 807 808 809 810 811 812 813 814 815 816 817 818 819 820 821 822 823 824 825 826 827 828 829 830 831 832 833 834 835 836 837 838 839 840 841 842 843 844 845 846 847 848 849 850 851 852 853 854 855 856 857 858 859 860 861 862 863 864 865 866 867 868 869 870 871 872 873 874 875 876 877 878 879 880 881 882 883 884 885 886 887 888 889 890 891 892 893 894 895 896 897 898 899 900 901 902 903 904 905 906 907 908 909 910 911 912 913 914 915 916 917 918 919 920 921 922 923 924 925 926 927 928 929 930 931 932 933 934 935 936 937 938 939 940 941 942 943 944 945 946 947 948 949 950 951 952 953 954 955 956 957 958 959 960 961 962 963 964 965 966 967 968 969 970 971 972 973 974 975 976 977 978 979 980 981 982 983 984 985 986 987 988 989 990 991 992 993 994 995 996 997 998 999 1000 1001 1002 1003 1004 1005 1006 1007 1008 1009 1010 1011 1012 1013 1014 1015 1016 1017 1018 1019 1020 1021 1022 1023 1024 1025 1026 1027 1028 1029 1030 1031 1032 1033 1034 1035 1036 1037 1038 1039 1040 1041 1042 1043 1044 1045 1046 1047 1048 1049 1050 1051 1052 1053 1054 1055 1056 1057 1058 1059 1060 1061 1062 1063 1064 1065 1066 1067 1068 1069 1070 1071 1072 1073 1074 1075 1076 1077 1078 1079 1080 1081 1082 1083 1084 1085 1086 1087 1088 1089 1090 1091 1092 1093 1094 1095 1096 1097 1098 1099 1100 1101 1102 1103 1104 1105 1106 1107 1108 1109 1110 1111 1112 1113 1114 1115 1116 1117 1118 1119 1120 1121 1122 1123 1124 1125 1126 1127 1128 1129 1130 1131 1132 1133 1134 1135 1136 1137 1138 1139 1140 1141 1142 1143 1144 1145 1146 1147 1148 1149 1150 1151 1152 1153 1154 1155 1156 1157 1158 1159 1160 1161 1162 1163 1164 1165 1166 1167 1168 1169 1170 1171 1172 1173 1174 1175 1176 1177 1178 1179 1180 1181 1182 1183 1184 1185 1186 1187 1188 1189 1190 1191 1192 1193 1194 1195 1196 1197 1198 1199 1200 1201 1202 1203 1204 1205 1206 1207 1208 1209 1210 1211 1212 1213 1214 1215 1216 1217 1218 1219 1220 1221 1222 1223 1224 1225 1226 1227 1228 1229 1230 1231 1232 1233 1234 1235 1236 1237 1238 1239 1240 1241 1242 1243 1244 1245 1246 1247 1248 1249 1250 1251 1252 1253 1254 1255 1256 1257 1258 1259 1260 1261 1262 1263 1264 1265 1266 1267 1268 1269 1270 1271 1272 1273 1274 1275 1276 1277 1278 1279 1280 1281 1282 1283 1284 1285 1286 1287 1288 1289 1290 1291 1292 1293 1294 1295 1296 1297 1298 1299 1300 1301 1302 1303 1304 1305 1306 1307 1308 1309 1310 1311 1312 1313 1314 1315 1316 1317 1318 1319 1320 1321 1322 1323 1324 1325 1326 1327 1328 1329 1330 1331 1332 1333 1334 1335 1336 1337 1338 1339 1340 1341 1342 1343 1344 1345 1346 1347 1348 1349 1350 1351 1352 1353 1354 1355 1356 1357 1358 1359 1360 1361 1362 1363 1364 1365 1366 1367 1368 1369 1370 1371 1372 1373 1374 1375 1376 1377 1378 1379 1380 1381 1382 1383 1384 1385 1386 1387 1388 1389 1390 1391 1392 1393 1394 1395 1396 1397 1398 1399 1400 1401 1402 1403 1404 1405 1406 1407 1408 1409 1410 1411 1412 1413 1414 1415 1416 1417 1418 1419 1420 1421 1422 1423 1424 1425 1426 1427 1428 1429 1430 1431 1432 1433 1434 1435 1436 1437 1438 1439 1440 1441 1442 1443 1444 1445 1446 1447 1448 1449 1450 1451 1452 1453 1454 1455 1456 1457 1458 1459 1460 1461 1462 1463 1464 1465 1466 1467 1468 1469 1470 1471 1472 1473 1474 1475 1476 1477 1478 1479 1480 1481 1482 1483 1484 1485 1486 1487 1488 1489 1490 1491 1492 1493 1494 1495 1496 1497 1498 1499 1500 1501 1502 1503 1504 1505 1506 1507 1508 1509 1510 1511 1512 1513 1514 1515 1516 1517 1518 1519 1520 1521 1522 1523 1524 1525 1526 1527 1528 1529 1530 1531 1532 1533 1534 1535 1536 1537 1538 1539 1540 1541 1542 1543 1544 1545 1546 1547 1548 1549 1550 1551 1552 1553 1554 1555 1556 1557 1558 1559 1560 1561 1562 1563 1564 1565 1566 1567 1568 1569 1570 1571 1572 1573 1574 1575 1576 1577 1578 1579 1580 1581 1582 1583 1584 1585 1586 1587 1588 1589 1590 1591 1592 1593 1594 1595 1596 1597 1598 1599 1600 1601 1602 1603 1604 1605 1606 1607 1608 1609 1610 1611 1612 1613 1614 1615 1616 1617 1618 1619 1620 1621 1622 1623 1624 1625 1626 1627 1628 1629 1630 1631 1632 1633 1634 1635 1636 1637 1638 1639 1640 1641 1642 1643 1644 1645 1646 1647 1648 1649 1650 1651 1652 1653 1654 1655 1656 1657 1658 1659 1660 1661 1662 1663 1664 1665 1666 1667 1668 1669 1670 1671 1672 1673 1674 1675 1676 1677 1678 1679 1680 1681 1682 1683 1684 1685 1686 1687 1688 1689 1690 1691 1692 1693 1694 1695 1696 1697 1698 1699 1700 1701 1702 1703 1704 1705 1706 1707 1708 1709 1710 1711 1712 1713 1714 1715 1716 1717 1718 1719 1720 1721 1722 1723 1724 1725 1726 1727 1728 1729 1730 1731 1732 1733 1734 1735 1736 1737 1738 1739 1740 1741 1742 1743 1744 1745 1746 1747 1748 1749 1750 1751 1752 1753 1754 1755 1756 1757 1758 1759 1760 1761 1762 1763 1764 1765 1766 1767 1768 1769 1770 1771 1772 1773 1774 1775 1776 1777 1778 1779 1780 1781 1782 1783 1784 1785 1786 1787 1788 1789 1790 1791 1792 1793 1794 1795 1796 1797 1798 1799 1800 1801 1802 1803 1804 1805 1806 1807 1808 1809 1810 1811 1812 1813 1814 1815 1816 1817 1818 1819 1820 1821 1822 1823 1824 1825 1826 1827 1828 1829 1830 1831 1832 1833 1834 1835 1836 1837 1838 1839 1840 1841 1842 1843 1844 1845 1846 1847 1848 1849 1850 1851 1852 1853 1854 1855 1856 1857 1858 1859 1860 1861 1862 1863 1864 1865 1866 1867 1868 1869 1870 1871 1872 1873 1874 1875 1876 1877 1878 1879 1880 1881 1882 1883 1884 1885 1886 1887 1888 1889 1890 1891 1892 1893 1894 1895 1896 1897 1898 1899 1900 1901 1902 1903 1904 1905 1906 1907 1908 1909 1910 1911 1912 1913 1914 1915 1916 1917 1918 1919 1920 1921 1922 1923 1924 1925 1926 1927 1928 1929 1930 1931 1932 1933 1934 1935 1936 1937 1938 1939 1940 1941 1942 1943 1944 1945 1946 1947 1948 1949 1950 1951 1952 1953 1954 1955 1956 1957 1958 1959 1960 1961 1962 1963 1964 1965 1966 1967 1968 1969 1970 1971 1972 1973 1974 1975 1976 1977 1978 1979 1980 1981 1982 1983 1984 1985 1986 1987 1988 1989 1990 1991 1992 1993 1994 1995 1996 1997 1998 1999 2000 2001 2002 2003 2004 2005 2006 2007 2008 2009 2010 2011 2012 2013 2014 2015 2016 2017 2018 2019 2020 2021 2022 2023 2024 2025 2026 2027 2028 2029 2030 2031 2032 2033 2034 2035 2036 2037 2038 2039 2040 2041 2042 2043 2044 2045 2046 2047 2048 2049 2050 2051 2052 2053 2054 2055 2056 2057 2058 2059 2060 2061 2062 2063 2064 2065 2066 2067 2068 2069 2070 2071 2072 2073 2074 2075 2076 2077 2078 2079 2080 2081 2082 2083 2084 2085 2086 2087 2088 2089 2090 2091 2092 2093 2094 2095 2096 2097 2098 2099 2100 2101 2102 2103 2104 2105 2106 2107 2108 2109 2110 2111 2112 2113 2114 2115 2116 2117 2118 2119 2120 2121 2122 2123 2124 2125 2126 2127 2128 2129 2130 2131 2132 2133 2134 2135 2136 2137 2138 2139 2140 2141 2142 2143 2144 2145 2146 2147 2148 2149 2150 2151 2152 2153 2154 2155 2156 2157 2158 2159 2160 2161 2162 2163 2164 2165 2166 2167 2168 2169 2170 2171 2172 2173 2174 2175 2176 2177 2178 2179 2180 2181 2182 2183 2184 2185 2186 2187 2188 2189 2190 2191 2192 2193 2194 2195 2196 2197 2198 2199 2200 2201 2202 2203 2204 2205 2206 2207 2208 2209 2210 2211 2212 2213 2214 2215 2216 2217 2218 2219 2220 2221 2222 2223 2224 2225 2226 2227 2228 2229 2230 2231 2232 2233 2234 2235 2236 2237 2238 2239 2240 2241 2242 2243 2244 2245 2246 2247 2248 2249 2250 2251 2252 2253 2254 2255 2256 2257 2258 2259 2260 2261 2262 2263 2264 2265 2266 2267 2268 2269 2270 2271 2272 2273 2274 2275 2276 2277 2278 2279 2280 2281 2282 2283 2284 2285 2286 2287 2288 2289 2290 2291 2292 2293 2294 2295 2296 2297 2298 2299 2300 2301 2302 2303 2304 2305 2306 2307 2308 2309 2310 2311 2312 2313 2314 2315 2316 2317 2318 2319 2320 2321 2322 2323 2324 2325 2326 2327 2328 2329 2330 2331 2332 2333 2334 2335 2336 2337 2338 2339 2340 2341 2342 2343 2344 2345 2346 2347 2348 2349 2350 2351 2352 2353 2354 2355 2356 2357 2358 2359 2360 2361 2362 2363 2364 2365 2366 2367 2368 2369 2370 2371 2372 2373 2374 2375 2376 2377 2378 2379 2380 2381 2382 2383 2384 2385 2386 2387 2388 2389 2390 2391 2392 2393 2394 2395 2396 2397 2398 2399 2400 2401 2402 2403 2404 2405 2406 2407 2408 2409 2410 2411 2412 2413 2414 2415 2416 2417 2418 2419 2420 2421 2422 2423 2424 2425 2426 2427 2428 2429 2430 2431 2432 2433 2434 2435 2436 2437 2438 2439 2440 2441 2442 2443 2444 2445 2446 2447 2448 2449 2450 2451 2452 2453 2454 2455 2456 2457 2458 2459 2460 2461 2462 2463 2464 2465 2466 2467 2468 2469 2470 2471 2472 2473 2474 2475 2476 2477 2478 2479 2480 2481 2482 2483 2484 2485 2486 2487 2488 2489 2490 2491 2492 2493 2494 2495 2496 2497 2498 2499 2500 2501 2502 2503 2504 2505 2506 2507 2508 2509 2510 2511 2512 2513 2514 2515 2516 2517 2518 2519 2520 2521 2522 2523 2524 2525 2526 2527 2528 2529 2530 2531 2532 2533 2534 2535 2536 2537 2538 2539 2540 2541 2542 2543 2544 2545 2546 2547 2548 2549 2550 2551 2552 2553 2554 2555 2556 2557 2558 2559 2560 2561 2562 2563 2564 2565 2566 2567 2568 2569 2570 2571 2572 2573 2574 2575 2576 2577 2578 2579 2580 2581 2582 2583 2584 2585 2586 2587 2588 2589 2590 2591 2592 2593 2594 2595 2596 2597 2598 2599 2600 2601 2602 2603 2604 2605 2606 2607 2608 2609 2610 2611 2612 2613 2614 2615 2616 2617 2618 2619 2620 2621 2622 2623 2624 2625 2626 2627 2628 2629 2630 2631 2632 2633 2634 2635 2636 2637 2638 2639 2640 2641 2642 2643 2644 2645 2646 2647 2648 2649 2650 2651 2652 2653 2654 2655 2656 2657 2658 2659 2660 2661 2662 2663 2664 2665 2666 2667 2668 2669 2670 2671 2672 2673 2674 2675 2676 2677 2678 2679 2680 2681 2682 2683 2684 2685 2686 2687 2688 2689 2690 2691 2692 2693 2694 2695 2696 2697 2698 2699 2700 2701 2702 2703 2704 2705 2706 2707 2708 2709 2710 2711 2712 2713 2714 2715 2716 2717 2718 2719 2720 2721 2722 2723 2724 2725 2726 2727 2728 2729 2730 2731 2732 2733 2734 2735 2736 2737 2738 2739 2740 2741 2742 2743 2744 2745 2746 2747 2748 2749 2750 2751 2752 2753 2754 2755 2756 2757 2758 2759 2760 2761 2762 2763 2764 2765 2766 2767 2768 2769 2770 2771 2772 2773 2774 2775 2776 2777 2778 2779 2780 2781 2782 2783 2784 2785 2786 2787 2788 2789 2790 2791 2792 2793 2794 2795 2796 2797 2798 2799 2800 2801 2802 2803 2804 2805 2806 2807 2808 2809 2810 2811 2812 2813 2814 2815 2816 2817 2818 2819 2820 2821 2822 2823 2824 2825 2826 2827 2828 2829 2830 2831 2832 2833 2834 2835 2836 2837 2838 2839 2840 2841 2842 2843 2844 2845 2846 2847 2848 2849 2850 2851 2852 2853 2854 2855 2856 2857 2858 2859 2860 2861 2862 2863 2864 2865 2866 2867 2868 2869 2870 2871 2872 2873 2874 2875 
</DataArray>
<DataArray type="UInt32" Name="offsets" format="ascii">
4 8 12 16 20 24 28 32 36 40 44 48 52 56 60 64 68 72 76 80 84 88 92 96 100 104 108 112 116 120 124 128 132 136 140 144 148 152 156 160 164 168 172 176 180 184 188 192 196 200 204 208 212 216 220 224 228 232 236 240 244 248 252 256 260 264 268 272 276 280 284 288 292 296 300 304 308 312 316 320 324 328 332 336 340 344 348 352 356 360 364 368 372 376 380 384 388 392 396 400 404 408 412 416 420 424 428 432 436 440 444 448 452 456 460 464 468 472 476 480 484 488 492 496 500 504 508 512 516 520 524 528 532 536 540 544 548 552 556 560 564 568 572 576 580 584 588 592 596 600 604 608 612 616 620 624 628 632 636 640 644 648 652 656 660 664 668 672 676 680 684 688 692 696 700 704 708 712 716 720 724 728 732 736 740 744 748 752 756 760 764 768 772 776 780 784 788 792 796 800 804 808 812 816 820 824 828 832 836 840 844 848 852 856 860 864 868 872 876 880 884 888 892 896 900 904 908 912 916 920 924 928 932 936 940 944 948 952 956 960 964 968 972 976 980 984 988 992 996 1000 1004 1008 1012 1016 1020 1024 1028 1032 1036 1040 1044 1048 1052 1056 1060 1064 1068 1072 1076 1080 1084 1088 1092 1096 1100 1104 1108 1112 1116 1120 1124 1128 1132 1136 1140 1144 1148 1152 1156 1160 1164 1168 1172 1176 1180 1184 1188 1192 1196 1200 1204 1208 1212 1216 1220 1224 1228 1232 1236 1240 1244 1248 1252 1256 1260 1264 1268 1272 1276 1280 1284 1288 1292 1296 1300 1304 1308 1312 1316 1320 1324 1328 1332 1336 1340 1344 1348 1352 1356 1360 1364 1368 1372 1376 1380 1384 1388 1392 1396 1400 1404 1408 1412 1416 1420 1424 1428 1432 1436 1440 1444 1448 1452 1456 1460 1464 1468 1472 1476 1480 1484 1488 1492 1496 1500 1504 1508 1512 1516 1520 1524 1528 1532 1536 1540 1544 1548 1552 1556 1560 1564 1568 1572 1576 1580 1584 1588 1592 1596 1600 1604 1608 1612 1616 1620 1624 1628 1632 1636 1640 1644 1648 1652 1656 1660 1664 1668 1672 1676 1680 1684 1688 1692 1696 1700 1704 1708 1712 1716 1720 1724 1728 1732 1736 1740 1744 1748 1752 1756 1760 1764 1768 1772 1776 1780 1784 1788 1792 1796 1800 1804 1808 1812 1816 1820 1824 1828 1832 1836 1840 1844 1848 1852 1856 1860 1864 1868 1872 1876 1880 1884 1888 1892 1896 1900 1904 1908 1912 1916 1920 1924 1928 1932 1936 1940 1944 1948 1952 1956 1960 1964 1968 1972 1976 1980 1984 1988 1992 1996 2000 2004 2008 2012 2016 2020 2024 2028 2032 2036 2040 2044 2048 2052 2056 2060 2064 2068 2072 2076 2080 2084 2088 2092 2096 2100 2104 2108 2112 2116 2120 2124 2128 2132 2136 2140 2144 2148 2152 2156 2160 2164 2168 2172 2176 2180 2184 2188 2192 2196 2200 2204 2208 2212 2216 2220 2224 2228 2232 2236 2240 2244 2248 2252 2256 2260 2264 2268 2272 2276 2280 2284 2288 2292 2296 2300 2304 2308 2312 2316 2320 2324 2328 2332 2336 2340 2344 2348 2352 2356 2360 2364 2368 2372 2376 2380 2384 2388 2392 2396 2400 2404 2408 2412 2416 2420 2424 2428 2432 2436 2440 2444 2448 2452 2456 2460 2464 2468 2472 2476 2480 2484 2488 2492 2496 2500 2504 2508 2512 2516 2520 2524 2528 2532 2536 2540 2544 2548 2552 2556 2560 2564 2568 2572 2576 2580 2584 2588 2592 2596 2600 2604 2608 2612 2616 2620 2624 2628 2632 2636 2640 2644 2648 2652 2656 2660 2664 2668 2672 2676 2680 2684 2688 2692 2696 2700 2704 2708 2712 2716 2720 2724 2728 2732 2736 2740 2744 2748 2752 2756 2760 2764 2768 2772 2776 2780 2784 2788 2792 2796 2800 2804 2808 2812 2816 2820 2824 2828 2832 2836 2840 2844 2848 2852 2856 2860 2864 2868 2872 2876 
</DataArray>
<DataArray type="UInt32" Name="types" format="ascii">
10 10 10 10 10 10 10 10 10 10 10 10 10 10 10 10 10 10 10 10 10 10 10 10 10 10 10 10 10 10 10 10 10 10 10 10 10 10 10 10 10 10 10 10 10 10 10 10 10 10 10 10 10 10 10 10 10 10 10 10 10 10 10 10 10 10 10 10 10 10 10 10 10 10 10 10 10 10 10 10 10 10 10 10 10 10 10 10 10 10 10 10 10 10 10 10 10 10 10 10 10 10 10 10 10 10 10 10 10 10 10 10 10 10 10 10 10 10 10 10 10 10 10 10 10 10 10 10 10 10 10 10 10 10 10 10 10 10 10 10 10 10 10 10 10 10 10 10 10 10 10 10 10 10 10 10 10 10 10 10 10 10 10 10 10 10 10 10 10 10 10 10 10 10 10 10 10 10 10 10 10 10 10 10 10 10 10 10 10 10 10 10 10 10 10 10 10 10 10 10 10 10 10 10 10 10 10 10 10 10 10 10 10 10 10 10 10 10 10 10 10 10 10 10 10 10 10 10 10 10 10 10 10 10 10 10 10 10 10 10 10 10 10 10 10 10 10 10 10 10 10 10 10 10 10 10 10 10 10 10 10 10 10 10 10 10 10 10 10 10 10 10 10 10 10 10 10 10 10 10 10 10 10 10 10 10 10 10 10 10 10 10 10 10 10 10 10 10 10 10 10 10 10 10 10 10 10 10 10 10 10 10 10 10 10 10 10 10 10 10 10 10 10 10 10 10 10 10 10 10 10 10 10 10 10 10 10 10 10 10 10 10 10 10 10 10 10 10 10 10 10 10 10 10 10 10 10 10 10 10 10 10 10 10 10 10 10 10 10 10 10 10 10 10 10 10 10 10 10 10 10 10 10 10 10 10 10 10 10 10 10 10 10 10 10 10 10 10 10 10 10 10 10 10 10 10 10 10 10 10 10 10 10 10 10 10 10 10 10 10 10 10 10 10 10 10 10 10 10 10 10 10 10 10 10 10 10 10 10 10 10 10 10 10 10 10 10 10 10 10 10 10 10 10 10 10 10 10 10 10 10 10 10 10 10 10 10 10 10 10 10 10 10 10 10 10 10 10 10 10 10 10 10 10 10 10 10 10 10 10 10 10 10 10 10 10 10 10 10 10 10 10 10 10 10 10 10 10 10 10 10 10 10 10 10 10 10 10 10 10 10 10 10 10 10 10 10 10 10 10 10 10 10 10 10 10 10 10 10 10 10 10 10 10 10 10 10 10 10 10 10 10 10 10 10 10 10 10 10 10 10 10 10 10 10 10 10 10 10 10 10 10 10 10 10 10 10 10 10 10 10 10 10 10 10 10 10 10 10 10 10 10 10 10 10 10 10 10 10 10 10 10 10 10 10 10 10 10 10 10 10 10 10 10 10 10 10 10 10 10 10 10 10 10 10 10 10 10 10 10 10 10 10 10 10 10 10 10 10 10 10 10 10 10 10 10 10 10 10 10 10 10 10 10 10 10 10 10 10 10 10 10 10 10 10 10 10 10 10 10 10 10 10 10 10 10 10 10 10 10 10 10 10 10 10 10 10 10 10 10 10 10 10 10 10 10 10 10 10 10 10 10 10 10 10 10 10 10 10 10 10 10 10 10 10 10 10 10 10 
</DataArray>
</Cells>
<PointData Scalars="" Vectors="displacement," Tensors="">
<DataArray type="Float64" Name="displacement" NumberOfComponents="3" format="ascii">
0.076205986794273137 -1.1820060685691272e-06 -1.3622502019572059e-05 0.040818491589118301 -1.0552410197458867e-06 -1.3121484182159447e-05 0.035300594103341902 -1.8325698578915632e-06 -1.0486334926773345e-05 0.075364560134059663 -1.5439778236322056e-06 -0.29978228386039663 -2.0521225519449375e-09 -2.5243849450433683e-06 -1.3086739887284551e-05 -2.3296706468283824e-09 -2.823266732168478e-06 -1.4126637247861635e-05 0.035300594103341902 -1.8325698578915632e-06 -1.0486334926768022e-05 -1.8850599627509727e-09 -2.0471922283876576e-06 -0.14040845080943254 -2.3296706468283824e-09 -2.823266732168478e-06 -1.4126637247850274e-05 0.048219593524309004 -3.0834612594221311e-06 -1.4870460613484732e-05 0.035300594103341902 -1.8325698578915632e-06 -1.0486334926768022e-05 0.03530143064371434 -2.0648667702247698e-06 -0.14041552777510052 -1.8850599627509727e-09 -2.0471922283876576e-06 -0.14040845080943254 -2.5064777083063623e-09 -2.6900848982645969e-06 -0.19180236558326288 -2.3296706468283824e-09 -2.823266732168478e-06 -1.4126637247850274e-05 0.03530143064371434 -2.0648667702247698e-06 -0.14041552777510052 -1.8850599627509727e-09 -2.0471922283876576e-06 -0.14040845080943254 -2.3634960588205829e-09 -5.8636022453121675e-07 -0.16235859174612233 -2.0494231459050899e-09 -2.1746326599348507e-06 -0.30313843864525991 0.075364560134059691 -1.5439778236322049e-06 -0.29978228386039651 0.076130023983465064 -2.782181752346609e-06 -0.17890122598808939 0.035301430643714334 -2.0648667702247698e-06 -0.1404155277751005 0.040843636948885369 -2.6116196728216053e-06 -0.28781384082298367 0.075364560134059663 -1.5439778236322056e-06 -0.29978228386039663 -1.8850599627509727e-09 -2.0471922283876576e-06 -0.14040845080943254 -2.3296706496852182e-09 -2.8232667321684776e-06 -1.4126637247844591e-05 0.035300594103341902 -1.8325698578915632e-06 -1.0486334926768022e-05 0.03530143064371434 -2.0648667702247698e-06 -0.14041552777510052 0.035300594103341902 -1.8325698578915632e-06 -1.0486334926768022e-05 0.035301430643714334 -2.0648667702247698e-06 -0.14041552777510055 0.076130023983465064 -2.782181752346609e-06 -0.17890122598808939 0.075364560134059663 -1.5439778236322056e-06 -0.29978228386039663 0.035300594103341902 -1.8325698578915632e-06 -1.0486334926768022e-05 -2.3634960574570245e-09 -5.8636022453121601e-07 -0.1623585917461223 -1.8850599600214512e-09 -2.047192228387658e-06 -0.14040845080943254 0.075364560134059663 -1.5439778236322056e-06 -0.29978228386039663 0.035300594103341902 -1.8325698578915632e-06 -1.0486334926768022e-05 -1.8850599624280186e-09 -2.0471922283876572e-06 -0.14040845080943251 0.03530143064371434 -2.0648667702247698e-06 -0.14041552777510052 0.075364560134059663 -1.5439778236322056e-06 -0.29978228386039663 -1.8850599627509727e-09 -2.0471922283876576e-06 -0.14040845080943254 0.040843636948885376 -2.6116196728216053e-06 -0.28781384082298367 0.03530143064371434 -2.0648667702247698e-06 -0.14041552777510052 0.075364560134059677 -1.5439778236322058e-06 -0.29978228386039668 0.03530143064371434 -2.0648667702247698e-06 -0.14041552777510052 -1.8850599622787113e-09 -2.0471922283876576e-06 -0.14040845080943254 -2.5064777132544889e-09 -2.6900848982645969e-06 -0.19180236558326288 0.040843636948885369 -2.6116196728216053e-06 -0.28781384082298367 -2.0494231459050899e-09 -2.1746326599348507e-06 -0.30313843864525991 -2.5064777132544889e-09 -2.6900848982645969e-06 -0.19180236558326288 -1.8850599627509727e-09 -2.0471922283876576e-06 -0.14040845080943254 0.040843636948885369 -2.6116196728216053e-06 -0.28781384082298367 -1.8850599627509727e-09 -2.0471922283876576e-06 -0.14040845080943254 0.035300594103341902 -1.8325698578915632e-06 -1.0486334926768022e-05 -2.0521225519449375e-09 -2.5243849450433683e-06 -1.3086739887283639e-05 -2.3634960588205829e-09 -5.8636022453121675e-07 -0.16235859174612233 -2.3634960588205829e-09 -5.8636022453121675e-07 -0.16235859174612233 0.035300594103341909 -1.8325698578915626e-06 -1.0486334926808449e-05 -2.0521225519449375e-09 -2.5243849450433683e-06 -1.3086739887284551e-05 0.040818491589118301 -1.0552410197458867e-06 -1.3121484182159447e-05 0.048219593524309004 -3.0834612594221311e-06 -1.4870460613484732e-05 0.035300594103341895 -1.8325698578915632e-06 -1.048633492678365e-05 0.076130023983465064 -2.782181752346609e-06 -0.17890122598808939 0.076205986794273137 -1.1820060685691272e-06 -1.3622502019572059e-05 0.048219593524309004 -3.0834612594221311e-06 -1.4870460613484732e-05 0.035300594103341909 -1.8325698578915632e-06 -1.048633492676789e-05 0.035301430643714334 -2.0648667702247694e-06 -0.14041552777510052 0.076130023983465064 -2.782181752346609e-06 -0.17890122598808939 0.076130023983465064 -2.782181752346609e-06 -0.17890122598808939 0.096417955635292582 -2.8253077788135234e-06 -1.7605410752665098e-05 0.048219593524309004 -3.0834612594221311e-06 -1.4870460613493509e-05 0.076205986794273137 -1.1820060685691272e-06 -1.3622502019572059e-05 0.076130023983465064 -2.782181752346609e-06 -0.17890122598808939 0.076205986794273137 -1.1820060685691272e-06 -1.3622502019572742e-05 0.035300594103341888 -1.8325698578915632e-06 -1.0486334926776916e-05 0.075364560134059649 -1.5439778236322054e-06 -0.29978228386039663 0.076205986794273137 -1.1820060685691272e-06 -1.3622502019572059e-05 0.075364560134059649 -1.5439778236322054e-06 -0.29978228386039657 0.076130023983465051 -2.782181752346609e-06 -0.17890122598808941 0.12061123952193563 -2.0315526522824278e-06 -0.21663289817526166 0.076205986794273137 -1.1820060685691272e-06 -1.3622502019572059e-05 0.11903945741120074 -2.6153980368073512e-06 -0.12698364536418555 0.12283288225313503 -8.9516370415116136e-07 -1.2742114571906417e-05 0.1206112395219356 -2.0315526522824274e-06 -0.21663289817526168 0.076205986794273137 -1.1820060685691272e-06 -1.3622502019572059e-05 0.12283288225313503 -8.9516370415116157e-07 -1.2742114571935887e-05 0.11041982175438786 -3.6492711398288457e-07 -1.0993988557159337e-05 0.1206112395219356 -2.0315526522824282e-06 -0.21663289817526171 0.11903945741120076 -2.6153980368073516e-06 -0.12698364536418563 0.096417955635292582 -2.8253077788135234e-06 -1.7605410752665098e-05 0.076205986794273151 -1.1820060685691279e-06 -1.3622502019509992e-05 0.12283288225313503 -8.9516370415116136e-07 -1.2742114571906417e-05 0.11903945741120076 -2.6153980368073516e-06 -0.12698364536418563 0.096417955635292582 -2.8253077788135234e-06 -1.7605410752665098e-05 0.076130023983465064 -2.782181752346609e-06 -0.17890122598808939 0.076205986794273151 -1.1820060685691283e-06 -1.3622502019554873e-05 0.076130023983465064 -2.782181752346609e-06 -0.17890122598808939 0.11494535284214874 -3.2021476982081624e-06 -0.30445756757517567 0.11903945741120076 -2.6153980368073516e-06 -0.12698364536418563 0.1206112395219356 -2.0315526522824278e-06 -0.21663289817526166 0.076205986794273137 -1.1820060685691272e-06 -1.3622502019572059e-05 0.076130023983465064 -2.782181752346609e-06 -0.17890122598808936 0.11903945741120074 -2.6153980368073512e-06 -0.12698364536418569 0.1206112395219356 -2.0315526522824274e-06 -0.21663289817526171 0.074834785943312387 -2.2337892533068267e-06 -0.51961008881750526 0.12072349859429032 -1.6182024021828868e-06 -0.5072793067240704 0.077508705068315031 -2.4126897502003971e-06 -0.37152621356946514 0.053272439667793915 -2.18083346481541e-06 -0.47954833646673867 0.077508705068315031 -2.4126897502003971e-06 -0.37152621356946514 0.075364560134059663 -1.5439778236322056e-06 -0.29978228386039663 0.040843636948885369 -2.6116196728216053e-06 -0.28781384082298367 0.053272439667793908 -2.18083346481541e-06 -0.47954833646673867 0.077508705068315031 -2.4126897502003971e-06 -0.37152621356946514 0.12072349859429031 -1.6182024021828863e-06 -0.5072793067240704 0.075364560134059677 -1.5439778236322056e-06 -0.29978228386039663 0.053272439667793915 -2.18083346481541e-06 -0.47954833646673872 0.077508705068315031 -2.4126897502003971e-06 -0.37152621356946514 0.12072349859429032 -1.6182024021828865e-06 -0.50727930672407018 0.11494535284214875 -3.2021476982081624e-06 -0.30445756757517572 0.1206112395219356 -2.0315526522824278e-06 -0.21663289817526166 0.077508705068315031 -2.4126897502003971e-06 -0.37152621356946514 0.075364560134059677 -1.5439778236322058e-06 -0.29978228386039657 0.12072349859429032 -1.6182024021828865e-06 -0.5072793067240704 0.12061123952193557 -2.0315526522824278e-06 -0.21663289817526168 0.077508705068315031 -2.4126897502003971e-06 -0.37152621356946514 0.076130023983465051 -2.782181752346609e-06 -0.17890122598808939 0.040843636948885369 -2.6116196728216053e-06 -0.28781384082298367 0.075364560134059663 -1.5439778236322056e-06 -0.29978228386039663 0.076130023983465064 -2.782181752346609e-06 -0.17890122598808939 0.075364560134059663 -1.5439778236322056e-06 -0.29978228386039663 0.077508705068315031 -2.4126897502003971e-06 -0.37152621356946514 0.1206112395219356 -2.0315526522824278e-06 -0.21663289817526166 0.076130023983465064 -2.782181752346609e-06 -0.17890122598808939 0.077508705068315031 -2.4126897502003971e-06 -0.37152621356946514 0.11494535284214875 -3.2021476982081632e-06 -0.30445756757517567 0.1206112395219356 -2.0315526522824278e-06 -0.21663289817526166 0.074834785943312387 -2.2337892533068267e-06 -0.51961008881750526 0.12053060417443807 -2.7674442173667959e-06 -0.46077822354018794 0.077508705068315031 -2.4126897502003971e-06 -0.37152621356946514 0.12072349859429032 -1.6182024021828868e-06 -0.5072793067240704 0.077508705068315031 -2.4126897502003971e-06 -0.37152621356946514 0.12053060417443807 -2.7674442173667959e-06 -0.46077822354018794 0.11494535284214874 -3.2021476982081624e-06 -0.30445756757517567 0.12072349859429032 -1.6182024021828865e-06 -0.5072793067240704 0.039483029452033608 -2.6032980807011488e-06 -0.46862127762100481 0.074834785943312387 -2.2337892533068267e-06 -0.51961008881750526 0.077508705068315031 -2.4126897502003971e-06 -0.37152621356946514 0.053272439667793915 -2.18083346481541e-06 -0.47954833646673867 0.039483029452033608 -2.6032980807011488e-06 -0.46862127762100481 0.077508705068315031 -2.4126897502003971e-06 -0.37152621356946514 0.040843636948885369 -2.6116196728216053e-06 -0.28781384082298367 0.053272439667793915 -2.18083346481541e-06 -0.47954833646673867 0.040843636948885369 -2.6116196728216053e-06 -0.28781384082298367 -1.8850599627509727e-09 -2.0471922283876576e-06 -0.14040845080943254 -2.0494231483654902e-09 -2.1746326599348507e-06 -0.30313843864525991 0.075364560134059663 -1.5439778236322054e-06 -0.29978228386039657 -2.0494231459050899e-09 -2.1746326599348507e-06 -0.30313843864525991 0.039483029452033601 -2.6032980807011488e-06 -0.46862127762100486 0.040843636948885369 -2.6116196728216053e-06 -0.28781384082298367 0.053272439667793929 -2.1808334648154096e-06 -0.47954833646673867 -2.0494231459050899e-09 -2.1746326599348507e-06 -0.30313843864525991 0.040843636948885362 -2.6116196728216053e-06 -0.28781384082298367 0.075364560134059663 -1.5439778236322054e-06 -0.29978228386039663 0.053272439667793908 -2.1808334648154096e-06 -0.47954833646673872 -1.7886329486126109e-09 -3.1356584068713894e-06 -0.38358852744402472 3.6669000209814099e-10 -3.5315171774803239e-06 -0.57536563674947916 0.039483029452033608 -2.6032980807011488e-06 -0.46862127762100481 -1.9964439141181704e-09 -2.9634872766635212e-06 -0.48874464532700457 -1.7886329486126109e-09 -3.1356584068713894e-06 -0.38358852744402472 -2.0494231459050899e-09 -2.1746326599348507e-06 -0.30313843864525991 0.039483029452033608 -2.6032980807011488e-06 -0.46862127762100481 0.040843636948885369 -2.6116196728216053e-06 -0.28781384082298367 0.039483029452033608 -2.6032980807011488e-06 -0.46862127762100481 -2.0494231426145244e-09 -2.1746326599348507e-06 -0.30313843864525986 -1.7886329485164718e-09 -3.1356584068713894e-06 -0.38358852744402472 -1.9964439141181704e-09 -2.9634872766635212e-06 -0.48874464532700457 -2.0494231459050899e-09 -2.1746326599348507e-06 -0.30313843864525991 -1.7886329412011284e-09 -3.1356584068713894e-06 -0.38358852744402472 -2.5064777132544889e-09 -2.6900848982645969e-06 -0.19180236558326288 0.040843636948885369 -2.6116196728216053e-06 -0.28781384082298367 -2.0494231459050899e-09 -2.1746326599348507e-06 -0.30313843864525991 -1.9964439141181704e-09 -2.9634872766635212e-06 -0.48874464532700457 0.039483029452033608 -2.6032980807011488e-06 -0.46862127762100481 0.053272439667793929 -2.1808334648154096e-06 -0.47954833646673867 -2.0494231459050899e-09 -2.1746326599348507e-06 -0.30313843864525991 -7.9641996865439268e-12 -9.8901094398598422e-07 -0.43931854752710564 -1.9964439122241224e-09 -2.9634872766635212e-06 -0.48874464532700457 0.053272439667793929 -2.18083346481541e-06 -0.47954833646673867 -2.3634960588205829e-09 -5.8636022453121675e-07 -0.16235859174612233 -2.2226725960361705e-09 -6.5228734453908165e-07 -0.31574339627826775 -2.0494231459050899e-09 -2.1746326599348507e-06 -0.30313843864525991 0.075364560134059663 -1.5439778236322056e-06 -0.29978228386039663 -7.9642010022360397e-12 -9.890109439859838e-07 -0.4393185475271057 0.075364560134059677 -1.5439778236322058e-06 -0.29978228386039651 0.059733042149764583 4.4059680971283411e-07 -0.43250406457022267 0.053272439667793915 -2.18083346481541e-06 -0.47954833646673867 -2.0494231459050899e-09 -2.1746326599348507e-06 -0.30313843864525991 -2.2226725933599885e-09 -6.5228734453908165e-07 -0.31574339627826775 -7.9642011694974171e-12 -9.890109439859838e-07 -0.4393185475271057 0.075364560134059663 -1.5439778236322056e-06 -0.29978228386039663 -2.2226725960361705e-09 -6.5228734453908165e-07 -0.31574339627826775 0.05973304214976459 4.4059680971283411e-07 -0.43250406457022272 0.075364560134059663 -1.5439778236322056e-06 -0.29978228386039657 0.053879122667132795 -3.8332749697464253e-08 -0.2143090538902106 -7.9642010022360397e-12 -9.890109439859838e-07 -0.4393185475271057 0.075364560134059663 -1.5439778236322064e-06 -0.29978228386039657 -2.2226725960361705e-09 -6.5228734453908165e-07 -0.31574339627826775 0.059733042149764583 4.4059680971283411e-07 -0.43250406457022267 -2.3634960588205829e-09 -5.8636022453121675e-07 -0.16235859174612233 -2.2226725960361705e-09 -6.5228734453908165e-07 -0.31574339627826775 0.075364560134059649 -1.543977823632206e-06 -0.29978228386039668 0.053879122667132781 -3.8332749697464564e-08 -0.21430905389021071 -2.0494231459050899e-09 -2.1746326599348507e-06 -0.30313843864525991 0.075364560134059663 -1.5439778236322056e-06 -0.29978228386039668 -7.9642016258854973e-12 -9.890109439859838e-07 -0.4393185475271057 0.053272439667793929 -2.1808334648154104e-06 -0.47954833646673872 -7.9642010022360397e-12 -9.890109439859838e-07 -0.4393185475271057 -2.2226725978958739e-09 -6.5228734453908165e-07 -0.31574339627826775 -2.964175235264503e-09 1.0112551424143779e-06 -0.49827542508678557 0.059733042149764583 4.4059680971283411e-07 -0.43250406457022267 0.12054062213368207 2.0907643544325915e-07 -0.47959305399077723 0.12072349859429032 -1.6182024021828863e-06 -0.50727930672407051 0.075364560134059622 -1.5439778236322056e-06 -0.29978228386039651 0.12061094978397684 -2.0650790975513779e-07 -0.23944831995837371 0.059733042149764583 4.4059680971283411e-07 -0.43250406457022267 0.12061094978397682 -2.0650790975513829e-07 -0.23944831995837376 0.075364560134059663 -1.5439778236322051e-06 -0.29978228386039657 0.053879122667132795 -3.8332749697464034e-08 -0.21430905389021065 0.075364560134059663 -1.5439778236322056e-06 -0.29978228386039663 0.12061094978397684 -2.0650790975513776e-07 -0.23944831995837373 0.12072349859429032 -1.6182024021828868e-06 -0.50727930672407029 0.1206112395219356 -2.0315526522824278e-06 -0.21663289817526168 0.12054062213368207 2.0907643544325915e-07 -0.47959305399077723 0.059733042149764583 4.4059680971283411e-07 -0.43250406457022267 0.075364560134059691 -1.5439778236322058e-06 -0.29978228386039651 0.12072349859429032 -1.6182024021828865e-06 -0.5072793067240704 0.075364560134059663 -1.5439778236322056e-06 -0.29978228386039663 0.059733042149764583 4.4059680971283411e-07 -0.43250406457022267 0.12054062213368207 2.0907643544325891e-07 -0.47959305399077734 0.12061094978397684 -2.0650790975513773e-07 -0.23944831995837376 0.075364560134059663 -1.5439778236322056e-06 -0.29978228386039663 0.12072349859429032 -1.6182024021828865e-06 -0.5072793067240704 0.059733042149764583 4.4059680971283427e-07 -0.43250406457022267 0.053272439667793915 -2.18083346481541e-06 -0.47954833646673867 0.079373404395970973 -1.5006335017556649e-06 -1.5133210523918143e-05 0.075364560134059649 -1.543977823632206e-06 -0.29978228386039663 0.11041982175438786 -3.6492711398288447e-07 -1.0993988557161121e-05 0.12061094978397684 -2.0650790975513773e-07 -0.23944831995837376 0.079373404395970973 -1.5006335017556649e-06 -1.5133210523918143e-05 0.12061094978397684 -2.0650790975513773e-07 -0.23944831995837376 0.07822001580790483 4.1838215960837502e-07 -1.5871342038432145e-05 0.053879122667132795 -3.8332749697464034e-08 -0.21430905389021065 0.11041982175438786 -3.6492711398288457e-07 -1.0993988557159337e-05 0.12061094978397684 -2.0650790975513773e-07 -0.23944831995837376 0.075364560134059663 -1.5439778236322049e-06 -0.29978228386039663 0.12061123952193563 -2.0315526522824278e-06 -0.21663289817526166 0.11041982175438786 -3.6492711398288457e-07 -1.0993988557159337e-05 0.079373404395970973 -1.5006335017556649e-06 -1.5133210523918143e-05 0.076205986794273137 -1.1820060685691272e-06 -1.3622502019572059e-05 0.075364560134059663 -1.5439778236322056e-06 -0.29978228386039663 0.040818491589118301 -1.0552410197458867e-06 -1.3121484182159447e-05 0.075364560134059649 -1.5439778236322054e-06 -0.29978228386039663 0.079373404395970973 -1.5006335017556649e-06 -1.5133210523918143e-05 0.053879122667132795 -3.8332749697464034e-08 -0.21430905389021065 0.076205986794273137 -1.1820060685691272e-06 -1.3622502019572059e-05 0.11041982175438786 -3.6492711398288457e-07 -1.0993988557159337e-05 0.075364560134059649 -1.5439778236322056e-06 -0.29978228386039663 0.1206112395219356 -2.0315526522824282e-06 -0.21663289817526166 0.079373404395970973 -1.5006335017556649e-06 -1.5133210523918143e-05 0.075364560134059677 -1.5439778236322071e-06 -0.29978228386039663 0.12061094978397684 -2.0650790975513773e-07 -0.23944831995837376 0.053879122667132809 -3.8332749697463425e-08 -0.21430905389021065 0.079373404395970973 -1.5006335017556649e-06 -1.5133210523918143e-05 0.040818491589118301 -1.0552410197458867e-06 -1.3121484182155641e-05 0.076205986794273137 -1.1820060685691272e-06 -1.3622502019572059e-05 0.075364560134059649 -1.5439778236322056e-06 -0.29978228386039668 0.07822001580790483 4.1838215960837502e-07 -1.5871342038432145e-05 0.079373404395970973 -1.5006335017556649e-06 -1.5133210523918143e-05 0.12523046663851925 3.0951330088184014e-08 -1.4051663673503716e-05 0.12061094978397684 -2.0650790975513773e-07 -0.23944831995837376 0.12523046663851925 3.0951330088184014e-08 -1.4051663673503716e-05 0.079373404395970973 -1.5006335017556649e-06 -1.5133210523918143e-05 0.11041982175438786 -3.6492711398288457e-07 -1.0993988557159337e-05 0.12061094978397684 -2.0650790975513773e-07 -0.23944831995837376 -2.3634960588205829e-09 -5.8636022453121675e-07 -0.16235859174612233 0.035300594103341902 -1.8325698578915632e-06 -1.0486334926768022e-05 0.040818491589118301 -1.0552410197458867e-06 -1.3121484182157106e-05 0.075364560134059663 -1.5439778236322056e-06 -0.29978228386039663 -2.3634960588205829e-09 -5.8636022453121675e-07 -0.16235859174612233 0.075364560134059649 -1.5439778236322064e-06 -0.29978228386039663 0.040818491589118301 -1.0552410197458867e-06 -1.3121484182150665e-05 0.053879122667132788 -3.8332749697463981e-08 -0.21430905389021065 0.04153387159389426 -1.0897028636446482e-07 -1.4300778357744518e-05 -2.817168240080728e-09 2.6706565570063142e-08 -0.16520389022538845 0.040818491589118301 -1.0552410197458867e-06 -1.3121484182159447e-05 0.053879122667132795 -3.8332749697464034e-08 -0.21430905389021065 0.04153387159389426 -1.0897028636446482e-07 -1.4300778357744518e-05 0.040818491589118301 -1.0552410197458867e-06 -1.3121484182159447e-05 0.079373404395970973 -1.5006335017556649e-06 -1.5133210523918143e-05 0.053879122667132795 -3.8332749697464034e-08 -0.21430905389021065 -2.3634960588205829e-09 -5.8636022453121675e-07 -0.16235859174612233 -2.0521225519449375e-09 -2.5243849450433683e-06 -1.3086739887284551e-05 -2.5564904704836268e-09 -1.0934493312840132e-06 -1.6703663921254202e-05 0.040818491589118301 -1.0552410197458867e-06 -1.3121484182159447e-05 -2.3634960588205829e-09 -5.8636022453121675e-07 -0.16235859174612233 -2.5564904704836268e-09 -1.0934493312840132e-06 -1.6703663921254202e-05 -2.8171682425512472e-09 2.6706565570063135e-08 -0.16520389022538845 0.040818491589118301 -1.0552410197458867e-06 -1.3121484182159447e-05 -2.3634960588205829e-09 -5.8636022453121675e-07 -0.16235859174612233 0.040818491589118301 -1.0552410197458867e-06 -1.3121484182159447e-05 -2.817168240080728e-09 2.6706565570063142e-08 -0.16520389022538845 0.053879122667132781 -3.833274969746408e-08 -0.2143090538902106 -2.3634960588205829e-09 -5.8636022453121675e-07 -0.16235859174612233 -2.817168240080728e-09 2.6706565570063142e-08 -0.16520389022538845 -2.2226725968637717e-09 -6.5228734453908165e-07 -0.31574339627826775 0.053879122667132781 -3.8332749697464061e-08 -0.21430905389021068 -2.817168240080728e-09 2.6706565570063142e-08 -0.16520389022538845 -2.5564904728719847e-09 -1.093449331284013e-06 -1.6703663921240033e-05 -2.3629427216936252e-09 9.9509527239808411e-07 -1.5593398025781501e-05 0.04153387159389426 -1.0897028636446482e-07 -1.4300778357744518e-05 0.040818491589118301 -1.0552410197458867e-06 -1.3121484182159447e-05 -2.5564904704836268e-09 -1.0934493312840132e-06 -1.6703663921254202e-05 -2.817168240080728e-09 2.6706565570063142e-08 -0.16520389022538845 0.04153387159389426 -1.0897028636446482e-07 -1.4300778357744518e-05 -2.0307093376086526e-09 8.6869759112559793e-07 -0.1524528352835722 -1.6983078428217455e-09 -2.1979476525360438e-07 -0.31115137711252511 0.053879122667132802 -3.8332749697464028e-08 -0.2143090538902106 0.046438479593551345 1.1266580470157604e-06 -0.18470400043413293 0.038327892693751378 5.4533729962359633e-07 -1.3053378275160085e-05 -2.0307093381852682e-09 8.6869759112559793e-07 -0.1524528352835722 0.053879122667132795 -3.8332749697464021e-08 -0.21430905389021068 0.046438479593551345 1.1266580470157602e-06 -0.18470400043413296 -2.0307093376086526e-09 8.6869759112559793e-07 -0.1524528352835722 0.04153387159389426 -1.0897028636446482e-07 -1.4300778357744518e-05 -2.3629427214941879e-09 9.9509527239808411e-07 -1.5593398025780708e-05 0.038327892693751378 5.4533729962359633e-07 -1.3053378275160085e-05 0.07822001580790483 4.1838215960837502e-07 -1.5871342038432145e-05 0.038327892693751378 5.4533729962359633e-07 -1.3053378275160085e-05 0.053879122667132802 -3.8332749697463961e-08 -0.21430905389021068 0.046438479593551345 1.1266580470157604e-06 -0.18470400043413296 -2.3629427216936252e-09 9.9509527239808411e-07 -1.5593398025781501e-05 -2.817168240080728e-09 2.6706565570063142e-08 -0.16520389022538845 0.04153387159389426 -1.0897028636446484e-07 -1.4300778357750005e-05 -2.0307093376086526e-09 8.6869759112559793e-07 -0.1524528352835722 -2.0307093376086526e-09 8.6869759112559793e-07 -0.1524528352835722 -2.3629427216936252e-09 9.9509527239808411e-07 -1.5593398025781501e-05 -2.4989520579675982e-09 1.2681600674958466e-06 -1.2686092157741152e-05 0.038327892693751378 5.4533729962359633e-07 -1.3053378275160085e-05 0.074892327764016262 1.0999222524925756e-06 -1.4131964295927475e-05 0.038327892693751385 5.4533729962359644e-07 -1.3053378275155793e-05 0.07822001580790483 4.1838215960837502e-07 -1.5871342038436464e-05 0.046438479593551345 1.1266580470157604e-06 -0.18470400043413296 0.07822001580790483 4.1838215960837502e-07 -1.5871342038432145e-05 0.038327892693751378 5.4533729962359633e-07 -1.3053378275160085e-05 0.04153387159389426 -1.0897028636446482e-07 -1.4300778357744518e-05 0.053879122667132795 -3.8332749697464034e-08 -0.21430905389021065 0.038327892693751378 5.4533729962359633e-07 -1.3053378275160085e-05 -2.0307093387402662e-09 8.6869759112559793e-07 -0.15245283528357217 0.04153387159389426 -1.0897028636446482e-07 -1.4300778357744518e-05 0.053879122667132795 -3.8332749697464034e-08 -0.21430905389021065 -2.0307093376086526e-09 8.6869759112559793e-07 -0.1524528352835722 -2.4861319917368323e-09 2.3975277618316086e-06 -0.29792604011908991 -1.6983078428217455e-09 -2.1979476525360438e-07 -0.31115137711252511 0.046438479593551338 1.1266580470157607e-06 -0.18470400043413299 -2.817168240080728e-09 2.6706565570063142e-08 -0.16520389022538845 -2.0307093376086526e-09 8.6869759112559793e-07 -0.1524528352835722 -1.6983078428217455e-09 -2.1979476525360438e-07 -0.31115137711252511 0.053879122667132795 -3.8332749697464034e-08 -0.21430905389021065 -2.817168240080728e-09 2.6706565570063142e-08 -0.16520389022538845 0.041533871593894267 -1.0897028636446482e-07 -1.4300778357749019e-05 -2.0307093376086526e-09 8.6869759112559793e-07 -0.1524528352835722 0.053879122667132795 -3.8332749697464034e-08 -0.21430905389021065 -1.6983078428217455e-09 -2.1979476525360438e-07 -0.31115137711252511 0.054299928027270232 2.2616486841708695e-06 -0.46212046912569338 0.086427356134795449 9.4715553676726539e-07 -0.28801715310764497 0.046438479593551345 1.1266580470157602e-06 -0.1847040004341329 -1.6983078428217455e-09 -2.1979476525360438e-07 -0.31115137711252511 0.059733042149764597 4.4059680971283416e-07 -0.43250406457022261 -2.2226725960361705e-09 -6.5228734453908165e-07 -0.31574339627826775 0.053879122667132809 -3.8332749697464028e-08 -0.21430905389021063 -1.6983078428217455e-09 -2.1979476525360438e-07 -0.31115137711252511 -2.4861319895649311e-09 2.3975277618316086e-06 -0.29792604011908991 0.054299928027270232 2.2616486841708695e-06 -0.46212046912569332 0.046438479593551338 1.1266580470157604e-06 -0.18470400043413293 0.086427356134795449 9.4715553676726539e-07 -0.28801715310764497 0.053879122667132809 -3.8332749697463803e-08 -0.2143090538902106 -1.698307840937512e-09 -2.1979476525360424e-07 -0.31115137711252516 0.046438479593551331 1.1266580470157604e-06 -0.1847040004341329 -2.817168240080728e-09 2.6706565570063142e-08 -0.16520389022538845 -1.6983078425834792e-09 -2.1979476525360435e-07 -0.31115137711252511 -2.2226725960361705e-09 -6.5228734453908165e-07 -0.31574339627826775 0.053879122667132795 -3.8332749697464034e-08 -0.21430905389021065 -1.6983078428217455e-09 -2.1979476525360438e-07 -0.31115137711252511 0.059733042149764583 4.4059680971283443e-07 -0.43250406457022267 0.086427356134795449 9.4715553676726539e-07 -0.28801715310764497 0.054299928027270239 2.2616486841708686e-06 -0.46212046912569332 0.086427356134795449 9.4715553676726539e-07 -0.28801715310764497 0.059733042149764576 4.4059680971283416e-07 -0.43250406457022267 -1.6983078501271489e-09 -2.1979476525360427e-07 -0.31115137711252516 0.053879122667132816 -3.8332749697463928e-08 -0.21430905389021068 -2.2226725960361705e-09 -6.5228734453908165e-07 -0.31574339627826775 -1.6983078461996686e-09 -2.1979476525360438e-07 -0.31115137711252511 -2.964175235264503e-09 1.0112551424143779e-06 -0.49827542508678557 0.059733042149764583 4.4059680971283411e-07 -0.43250406457022267 4.5782575532127895e-11 1.1030676923647978e-06 -0.43790037565232209 -2.964175235264503e-09 1.0112551424143779e-06 -0.49827542508678557 -1.6983078428217455e-09 -2.1979476525360438e-07 -0.31115137711252511 0.059733042149764583 4.4059680971283411e-07 -0.43250406457022267 -3.9556928910975519e-09 1.1555127316221945e-06 -0.57482223280880951 0.05973304214976459 4.4059680971283374e-07 -0.43250406457022267 4.5782575532127895e-11 1.1030676923647978e-06 -0.43790037565232209 0.054299928027270239 2.2616486841708691e-06 -0.46212046912569332 -1.6983078428217455e-09 -2.1979476525360438e-07 -0.31115137711252511 -2.4861319895649311e-09 2.3975277618316086e-06 -0.29792604011908991 4.5782570993214373e-11 1.1030676923647978e-06 -0.43790037565232209 0.054299928027270239 2.2616486841708691e-06 -0.46212046912569332 4.5782575532127895e-11 1.1030676923647978e-06 -0.43790037565232209 0.059733042149764583 4.4059680971283427e-07 -0.43250406457022267 -1.6983078428217455e-09 -2.1979476525360438e-07 -0.31115137711252511 0.054299928027270239 2.2616486841708691e-06 -0.46212046912569332 0.040823005422488991 2.6309887808502697e-06 -0.28842288950612949 0.07938938371403291 3.0667828743114171e-06 -0.37994580330188538 0.054299928027270239 2.2616486841708691e-06 -0.46212046912569332 0.046438479593551345 1.1266580470157604e-06 -0.18470400043413296 -2.4861319895649311e-09 2.3975277618316086e-06 -0.29792604011908991 0.040823005422488991 2.6309887808502697e-06 -0.28842288950612949 0.054299928027270239 2.2616486841708691e-06 -0.46212046912569332 0.046438479593551345 1.1266580470157604e-06 -0.18470400043413296 0.04154508022431657 2.8688243338658676e-06 -0.47792274936618984 -2.6015744016651021e-09 3.3201776183781603e-06 -0.48717599734163458 -2.4861319884635678e-09 2.3975277618316082e-06 -0.29792604011908985 0.054299928027270239 2.2616486841708691e-06 -0.46212046912569327 4.5782575532127895e-11 1.1030676923647978e-06 -0.43790037565232209 -2.4861319895649311e-09 2.3975277618316086e-06 -0.29792604011908991 -2.6015743888922373e-09 3.3201776183781603e-06 -0.48717599734163458 0.054299928027270239 2.2616486841708691e-06 -0.46212046912569332 0.04154508022431657 2.8688243338658676e-06 -0.47792274936618984 -1.4817462101316874e-09 3.3618082070455106e-06 -0.38358843427314648 -2.4861319859389977e-09 2.3975277618316086e-06 -0.29792604011908985 -2.6015743888922373e-09 3.3201776183781599e-06 -0.48717599734163453 -2.4861319895649311e-09 2.3975277618316086e-06 -0.29792604011908991 0.040823005422488991 2.6309887808502697e-06 -0.28842288950612949 -1.4817462101316874e-09 3.3618082070455106e-06 -0.38358843427314648 0.041545080224316577 2.8688243338658672e-06 -0.47792274936618989 0.04154508022431657 2.8688243338658676e-06 -0.47792274936618984 -2.4861319964974354e-09 2.3975277618316082e-06 -0.29792604011908985 0.040823005422488991 2.6309887808502697e-06 -0.28842288950612949 0.054299928027270225 2.2616486841708691e-06 -0.46212046912569332 0.04154508022431657 2.8688243338658676e-06 -0.47792274936618984 0.040823005422488991 2.6309887808502697e-06 -0.28842288950612949 0.07938938371403291 3.0667828743114171e-06 -0.37994580330188538 0.054299928027270239 2.2616486841708691e-06 -0.46212046912569332 -1.4817462101316874e-09 3.3618082070455106e-06 -0.38358843427314648 -2.2951687981443267e-09 2.632882214568752e-06 -0.19180411231381098 0.040823005422488991 2.6309887808502697e-06 -0.28842288950612949 -2.4861319895649311e-09 2.3975277618316086e-06 -0.29792604011908991 0.040823005422488991 2.6309887808502697e-06 -0.28842288950612949 -2.2951688074397283e-09 2.632882214568752e-06 -0.191804112313811 -1.657058907020691e-09 1.5090752637910297e-06 -0.14041120140857902 -2.4861319940971955e-09 2.3975277618316086e-06 -0.29792604011908991 0.035301893776555425 2.1083044339246975e-06 -0.14041790597032536 -2.2951687981443267e-09 2.632882214568752e-06 -0.19180411231381098 -1.6570588935552325e-09 1.5090752637910295e-06 -0.14041120140857902 0.040823005422488991 2.6309887808502697e-06 -0.28842288950612949 0.048218168990495441 2.9875583197919556e-06 -1.4356159315547397e-05 -2.6261765744795589e-09 2.8399254901012222e-06 -1.4368134871511483e-05 0.035298270468219435 1.2147245281247402e-06 -1.0461400222259949e-05 0.035301893776555425 2.1083044339246975e-06 -0.14041790597032536 -1.6570588937845685e-09 1.5090752637910293e-06 -0.14041120140857902 -2.6261765734342971e-09 2.8399254901012226e-06 -1.4368134871500121e-05 -2.2951687981443267e-09 2.632882214568752e-06 -0.19180411231381098 0.035301893776555425 2.1083044339246975e-06 -0.14041790597032536 -1.6570588937845685e-09 1.5090752637910293e-06 -0.14041120140857902 0.035298270468219435 1.2147245281247402e-06 -1.0461400222259949e-05 -2.6261765734342971e-09 2.8399254901012226e-06 -1.4368134871500121e-05 0.035301893776555425 2.1083044339246975e-06 -0.14041790597032536 0.035298270468219435 1.2147245281247402e-06 -1.0461400222259949e-05 -2.6261765774664341e-09 2.8399254901012226e-06 -1.4368134871514527e-05 -2.4989520605986269e-09 1.2681600674958468e-06 -1.2686092157751616e-05 -1.6570588937845685e-09 1.5090752637910293e-06 -0.14041120140857902 -1.6570588937845685e-09 1.5090752637910293e-06 -0.14041120140857902 -2.0307093376086526e-09 8.6869759112559793e-07 -0.1524528352835722 0.038327892693751385 5.4533729962359622e-07 -1.3053378275165776e-05 0.046438479593551345 1.1266580470157604e-06 -0.18470400043413296 -2.4989520605986269e-09 1.2681600674958468e-06 -1.2686092157751616e-05 0.038327892693751378 5.4533729962359633e-07 -1.3053378275160085e-05 0.035298270468219435 1.2147245281247402e-06 -1.0461400222259949e-05 -1.6570588937845685e-09 1.5090752637910293e-06 -0.14041120140857902 0.035301893776555425 2.1083044339246975e-06 -0.14041790597032536 -1.657058894951661e-09 1.5090752637910293e-06 -0.14041120140857899 0.035298270468219435 1.21472452812474e-06 -1.0461400222255546e-05 0.046438479593551345 1.1266580470157602e-06 -0.18470400043413293 0.038327892693751378 5.4533729962359633e-07 -1.3053378275160085e-05 -2.4989520605986269e-09 1.2681600674958468e-06 -1.2686092157751616e-05 -2.0307093376086526e-09 8.6869759112559793e-07 -0.1524528352835722 -1.6570588937845685e-09 1.5090752637910293e-06 -0.14041120140857902 0.038327892693751378 5.4533729962359633e-07 -1.3053378275160085e-05 0.035298270468219435 1.2147245281247402e-06 -1.0461400222248597e-05 -1.6570588937845685e-09 1.5090752637910293e-06 -0.14041120140857902 0.046438479593551345 1.1266580470157604e-06 -0.18470400043413296 0.040823005422488991 2.6309887808502697e-06 -0.28842288950612949 -2.4861319993168048e-09 2.3975277618316086e-06 -0.29792604011908991 -1.657058898316833e-09 1.5090752637910293e-06 -0.14041120140857904 0.046438479593551345 1.1266580470157604e-06 -0.18470400043413296 -1.6570588937845685e-09 1.5090752637910293e-06 -0.14041120140857902 -2.4861319895649311e-09 2.3975277618316086e-06 -0.29792604011908991 -2.0307093376086526e-09 8.6869759112559793e-07 -0.1524528352835722 0.046438479593551345 1.1266580470157604e-06 -0.18470400043413296 0.035301893776555425 2.1083044339246975e-06 -0.14041790597032536 0.035298270468219442 1.2147245281247405e-06 -1.0461400222311671e-05 0.074892327764016262 1.0999222524925754e-06 -1.4131964295952547e-05 0.046438479593551345 1.1266580470157602e-06 -0.18470400043413293 0.038327892693751378 5.4533729962359633e-07 -1.3053378275160085e-05 0.074892327764016262 1.0999222524925756e-06 -1.4131964295927475e-05 0.035298270468219435 1.2147245281247402e-06 -1.0461400222259949e-05 0.046438479593551345 1.1266580470157604e-06 -0.18470400043413296 0.035298270468219435 1.2147245281247402e-06 -1.0461400222259949e-05 0.074892327764016262 1.0999222524925756e-06 -1.4131964295927475e-05 0.048218168990495441 2.9875583197919556e-06 -1.4356159315547397e-05 0.035301893776555425 2.1083044339246975e-06 -0.14041790597032536 0.076267963468664296 2.7586724542405859e-06 -0.18049884880866651 0.048218168990495448 2.9875583197919564e-06 -1.4356159315535654e-05 0.074892327764016262 1.0999222524925756e-06 -1.4131964295927475e-05 0.035301893776555425 2.1083044339246975e-06 -0.14041790597032536 0.074892327764016262 1.0999222524925756e-06 -1.4131964295927475e-05 0.076267963468664296 2.7586724542405859e-06 -0.18049884880866651 0.035301893776555418 2.1083044339246971e-06 -0.1404179059703253 0.046438479593551345 1.1266580470157602e-06 -0.18470400043413296 0.076267963468664296 2.7586724542405859e-06 -0.18049884880866651 0.040823005422488991 2.6309887808502697e-06 -0.28842288950612949 0.035301893776555425 2.1083044339246975e-06 -0.14041790597032536 0.046438479593551345 1.1266580470157604e-06 -0.18470400043413296 0.035301893776555425 2.1083044339246975e-06 -0.14041790597032536 0.040823005422488991 2.6309887808502697e-06 -0.28842288950612949 -1.6570588937845685e-09 1.5090752637910293e-06 -0.14041120140857902 0.046438479593551345 1.1266580470157604e-06 -0.18470400043413296 0.086427356134795449 9.4715553676726539e-07 -0.28801715310764497 0.046438479593551345 1.1266580470157604e-06 -0.1847040004341329 0.076267963468664296 2.7586724542405859e-06 -0.18049884880866651 0.12748193423483373 1.7471337192333207e-06 -0.19979149458143902 0.074892327764016262 1.0999222524925756e-06 -1.4131964295927475e-05 0.046438479593551345 1.1266580470157604e-06 -0.18470400043413296 0.086427356134795477 9.4715553676726465e-07 -0.28801715310764497 0.12748193423483373 1.7471337192333205e-06 -0.19979149458143905 0.074892327764016262 1.0999222524925756e-06 -1.4131964295927475e-05 0.076267963468664296 2.7586724542405859e-06 -0.18049884880866646 0.046438479593551338 1.1266580470157602e-06 -0.18470400043413296 0.12748193423483373 1.7471337192333207e-06 -0.19979149458143905 0.074892327764016262 1.0999222524925756e-06 -1.4131964295927475e-05 0.096418248856642325 3.5251254849099824e-06 -1.6746636585334825e-05 0.048218168990495441 2.9875583197919556e-06 -1.4356159315547397e-05 0.076267963468664296 2.7586724542405859e-06 -0.18049884880866651 0.074892327764016262 1.0999222524925756e-06 -1.4131964295927475e-05 0.12243952115840359 2.2545668092703655e-06 -1.3711305906024473e-05 0.076267963468664296 2.7586724542405859e-06 -0.18049884880866651 0.12748193423483373 1.7471337192333203e-06 -0.19979149458143908 0.11006277889632235 5.4051405360131981e-07 -1.0760323386726471e-05 0.12243952115840359 2.2545668092703659e-06 -1.3711305905995577e-05 0.074892327764016262 1.0999222524925756e-06 -1.413196429592348e-05 0.12748193423483373 1.7471337192333207e-06 -0.19979149458143899 0.12323197483857966 2.5948913304650355e-06 -0.15703718082261156 0.076267963468664296 2.7586724542405859e-06 -0.18049884880866651 0.096418248856642325 3.5251254849099824e-06 -1.6746636585304071e-05 0.12243952115840359 2.2545668092703659e-06 -1.3711305905995577e-05 0.076267963468664296 2.7586724542405859e-06 -0.18049884880866651 0.074892327764016262 1.0999222524925752e-06 -1.4131964295968556e-05 0.096418248856642325 3.5251254849099824e-06 -1.6746636585334825e-05 0.12243952115840359 2.2545668092703659e-06 -1.3711305905995577e-05 0.12323197483857966 2.5948913304650355e-06 -0.15703718082261156 0.1104476504105634 2.1022682464158487e-06 -0.29763589079823927 0.076267963468664296 2.7586724542405859e-06 -0.18049884880866651 0.12748193423483373 1.7471337192333209e-06 -0.19979149458143902 0.12323197483857966 2.5948913304650355e-06 -0.15703718082261156 0.076267963468664296 2.7586724542405859e-06 -0.18049884880866651 0.12243952115840359 2.2545668092703655e-06 -1.3711305906002177e-05 0.12748193423483373 1.7471337192333209e-06 -0.19979149458143899 0.07938938371403291 3.0667828743114171e-06 -0.37994580330188538 0.086427356134795449 9.471555367672656e-07 -0.28801715310764503 0.12050599184941362 1.0142916990298577e-06 -0.5080520351360478 0.054299928027270239 2.2616486841708691e-06 -0.46212046912569332 0.086427356134795449 9.4715553676726539e-07 -0.28801715310764497 0.054299928027270239 2.2616486841708691e-06 -0.46212046912569332 0.07938938371403291 3.0667828743114171e-06 -0.37994580330188538 0.046438479593551331 1.1266580470157604e-06 -0.1847040004341329 0.076267963468664296 2.7586724542405859e-06 -0.18049884880866651 0.11044765041056338 2.1022682464158483e-06 -0.29763589079823927 0.07938938371403291 3.0667828743114171e-06 -0.37994580330188538 0.086427356134795436 9.4715553676726465e-07 -0.28801715310764497 0.11044765041056338 2.1022682464158483e-06 -0.29763589079823927 0.086427356134795422 9.4715553676726507e-07 -0.28801715310764503 0.076267963468664296 2.7586724542405859e-06 -0.18049884880866651 0.12748193423483373 1.7471337192333207e-06 -0.19979149458143902 0.076267963468664296 2.7586724542405859e-06 -0.18049884880866651 0.086427356134795477 9.4715553676726507e-07 -0.28801715310764497 0.079389383714032924 3.0667828743114175e-06 -0.37994580330188538 0.046438479593551345 1.1266580470157604e-06 -0.18470400043413296 0.11044765041056338 2.1022682464158483e-06 -0.29763589079823927 0.12050599184941356 1.0142916990298577e-06 -0.5080520351360478 0.086427356134795449 9.4715553676726529e-07 -0.28801715310764503 0.12748193423483373 1.7471337192333207e-06 -0.19979149458143902 0.11044765041056338 2.1022682464158483e-06 -0.29763589079823927 0.07938938371403291 3.0667828743114171e-06 -0.37994580330188538 0.086427356134795449 9.4715553676726507e-07 -0.28801715310764497 0.12050599184941356 1.0142916990298577e-06 -0.50805203513604758 0.076267963468664296 2.7586724542405859e-06 -0.18049884880866651 0.07938938371403291 3.0667828743114171e-06 -0.37994580330188538 0.040823005422488991 2.6309887808502697e-06 -0.28842288950612949 0.046438479593551345 1.1266580470157604e-06 -0.18470400043413296 0.07938938371403291 3.0667828743114171e-06 -0.37994580330188538 0.07826195787729015 3.1974186994246386e-06 -0.57562504116706048 0.04154508022431657 2.8688243338658676e-06 -0.47792274936618984 0.054299928027270239 2.2616486841708691e-06 -0.46212046912569332 0.11044765041056338 2.1022682464158483e-06 -0.29763589079823927 0.12525877043522263 2.7439642098960071e-06 -0.47960149868838475 0.07938938371403291 3.0667828743114171e-06 -0.37994580330188538 0.12050599184941357 1.0142916990298579e-06 -0.50805203513604769 0.059733042149764583 4.4059680971283411e-07 -0.43250406457022267 0.12050599184941356 1.0142916990298577e-06 -0.50805203513604758 0.086427356134795449 9.4715553676726571e-07 -0.28801715310764497 0.054299928027270246 2.2616486841708691e-06 -0.46212046912569327 0.086427356134795449 9.4715553676726539e-07 -0.28801715310764497 0.12054062213368208 2.0907643544325941e-07 -0.47959305399077728 0.059733042149764583 4.4059680971283411e-07 -0.43250406457022267 0.12061094978397682 -2.06507909755138e-07 -0.23944831995837368 0.086427356134795449 9.4715553676726539e-07 -0.28801715310764497 0.059733042149764583 4.4059680971283411e-07 -0.43250406457022267 0.12054062213368207 2.0907643544325909e-07 -0.47959305399077717 0.12050599184941357 1.0142916990298582e-06 -0.50805203513604769 0.086427356134795449 9.4715553676726539e-07 -0.28801715310764497 0.12061094978397684 -2.0650790975513773e-07 -0.23944831995837376 0.059733042149764576 4.40596809712834e-07 -0.43250406457022261 0.053879122667132795 -3.8332749697464034e-08 -0.21430905389021065 0.086427356134795449 9.4715553676726539e-07 -0.28801715310764497 0.07822001580790483 4.1838215960837502e-07 -1.5871342038432145e-05 0.12061094978397684 -2.0650790975513773e-07 -0.23944831995837376 0.053879122667132795 -3.8332749697464034e-08 -0.21430905389021065 0.074892327764016262 1.0999222524925756e-06 -1.4131964295927475e-05 0.07822001580790483 4.1838215960837502e-07 -1.5871342038432145e-05 0.11006277889632235 5.4051405360131981e-07 -1.0760323386726471e-05 0.086427356134795449 9.471555367672655e-07 -0.28801715310764503 0.07822001580790483 4.1838215960837502e-07 -1.5871342038432145e-05 0.053879122667132809 -3.8332749697463908e-08 -0.21430905389021065 0.086427356134795449 9.4715553676726529e-07 -0.28801715310764503 0.046438479593551345 1.1266580470157604e-06 -0.18470400043413296 0.07822001580790483 4.1838215960837502e-07 -1.5871342038432145e-05 0.11006277889632235 5.4051405360131981e-07 -1.0760323386730865e-05 0.086427356134795449 9.4715553676726539e-07 -0.28801715310764497 0.12061094978397684 -2.0650790975513773e-07 -0.23944831995837376 0.074892327764016262 1.0999222524925756e-06 -1.4131964295927475e-05 0.07822001580790483 4.1838215960837502e-07 -1.5871342038432145e-05 0.086427356134795449 9.4715553676726529e-07 -0.28801715310764497 0.046438479593551345 1.1266580470157604e-06 -0.18470400043413296 0.11006277889632235 5.4051405360131981e-07 -1.0760323386726471e-05 0.074892327764016262 1.0999222524925756e-06 -1.4131964295927943e-05 0.086427356134795449 9.4715553676726539e-07 -0.28801715310764497 0.12748193423483373 1.7471337192333205e-06 -0.19979149458143902 0.086427356134795449 9.4715553676726539e-07 -0.28801715310764497 0.12061094978397684 -2.0650790975513773e-07 -0.23944831995837376 0.11006277889632235 5.4051405360131981e-07 -1.0760323386726471e-05 0.12748193423483373 1.7471337192333207e-06 -0.19979149458143902 0.04153387159389426 -1.0897028636446482e-07 -1.4300778357744518e-05 0.079373404395970973 -1.5006335017556649e-06 -1.5133210523918143e-05 0.07822001580790483 4.1838215960837502e-07 -1.5871342038432145e-05 0.053879122667132795 -3.8332749697464034e-08 -0.21430905389021065 0.07822001580790483 4.1838215960837502e-07 -1.5871342038432145e-05 0.12523046663851925 3.0951330088184014e-08 -1.4051663673503716e-05 0.11006277889632235 5.4051405360131981e-07 -1.0760323386726471e-05 0.12061094978397684 -2.0650790975513773e-07 -0.23944831995837376 0.17517492046319927 1.5724970562481748e-06 -9.0118555387994377e-06 0.16494497879690667 9.4501698105199896e-07 -0.2983224052903658 0.14444236155607437 8.5184466394896612e-07 -1.0728226553334691e-05 0.18718932284287726 -1.3999610188165743e-07 -0.20891595984982655 0.1649449787969067 9.4501698105200023e-07 -0.2983224052903658 0.12061094978397682 -2.0650790975513792e-07 -0.23944831995837379 0.14444236155607437 8.5184466394896601e-07 -1.0728226553327005e-05 0.18718932284287723 -1.3999610188165865e-07 -0.20891595984982653 0.14444236155607437 8.5184466394896612e-07 -1.0728226553334691e-05 0.11006277889632235 5.4051405360131981e-07 -1.0760323386733935e-05 0.12061094978397682 -2.0650790975513765e-07 -0.23944831995837379 0.12748193423483373 1.7471337192333211e-06 -0.19979149458143908 0.12523046663851925 3.0951330088184014e-08 -1.4051663673503716e-05 0.16218891470865374 -6.0286497185613174e-07 -1.1065364543759484e-05 0.14444236155607437 8.5184466394896612e-07 -1.0728226553334691e-05 0.12061094978397684 -2.0650790975513773e-07 -0.23944831995837376 0.14444236155607437 8.5184466394896612e-07 -1.0728226553334691e-05 0.12061094978397682 -2.0650790975513773e-07 -0.23944831995837376 0.1649449787969067 9.4501698105200002e-07 -0.2983224052903658 0.12748193423483367 1.7471337192333209e-06 -0.19979149458143905 0.14444236155607437 8.5184466394896612e-07 -1.0728226553334691e-05 0.12061094978397682 -2.0650790975513787e-07 -0.23944831995837376 0.16218891470865374 -6.0286497185613174e-07 -1.1065364543759484e-05 0.1871893228428772 -1.3999610188165889e-07 -0.2089159598498265 0.14444236155607437 8.5184466394896612e-07 -1.0728226553334691e-05 0.12748193423483373 1.7471337192333228e-06 -0.19979149458143899 0.1649449787969067 9.4501698105199992e-07 -0.2983224052903658 0.19648214232342776 3.43235088916163e-06 -0.17734075296891311 0.14444236155607437 8.5184466394896612e-07 -1.0728226553334691e-05 0.11006277889632235 5.4051405360131981e-07 -1.0760323386733137e-05 0.12523046663851925 3.0951330088184014e-08 -1.4051663673503716e-05 0.12061094978397684 -2.0650790975513773e-07 -0.23944831995837376 0.14444236155607437 8.5184466394896612e-07 -1.0728226553334691e-05 0.1649449787969067 9.4501698105200023e-07 -0.2983224052903658 0.17517492046319927 1.5724970562481748e-06 -9.0118555387994377e-06 0.19648214232342776 3.4323508891616291e-06 -0.17734075296891311 0.11006277889632235 5.4051405360131981e-07 -1.0760323386726471e-05 0.14444236155607437 8.5184466394896623e-07 -1.0728226553333222e-05 0.12243952115840359 2.2545668092703659e-06 -1.3711305906011554e-05 0.1274819342348337 1.7471337192333207e-06 -0.19979149458143899 0.14444236155607437 8.5184466394896612e-07 -1.0728226553334691e-05 0.17517492046319927 1.572497056248175e-06 -9.0118555387945689e-06 0.16993516828435407 3.8055149387302572e-06 -1.3758782350088484e-05 0.19648214232342776 3.4323508891616291e-06 -0.17734075296891311 0.17517492046319927 1.5724970562481748e-06 -9.0118555387994377e-06 0.14444236155607437 8.5184466394896612e-07 -1.0728226553334435e-05 0.16218891470865374 -6.0286497185613174e-07 -1.1065364543751841e-05 0.18718932284287723 -1.3999610188165868e-07 -0.20891595984982653 0.1649449787969067 9.4501698105200023e-07 -0.2983224052903658 0.12061094978397684 -2.065079097551376e-07 -0.23944831995837368 0.086427356134795449 9.4715553676726539e-07 -0.28801715310764497 0.1274819342348337 1.7471337192333203e-06 -0.19979149458143902 0.1649449787969067 9.4501698105200023e-07 -0.2983224052903658 0.086427356134795436 9.4715553676726529e-07 -0.28801715310764492 0.12054062213368207 2.0907643544325915e-07 -0.47959305399077723 0.12050599184941357 1.0142916990298579e-06 -0.50805203513604769 0.12054062213368207 2.0907643544325915e-07 -0.47959305399077723 0.086427356134795449 9.4715553676726539e-07 -0.28801715310764503 0.1649449787969067 9.4501698105200023e-07 -0.2983224052903658 0.12061094978397686 -2.0650790975513808e-07 -0.23944831995837379 0.12054062213368207 2.0907643544325915e-07 -0.47959305399077723 0.1649449787969067 9.4501698105200023e-07 -0.2983224052903658 0.18081661351640196 -2.1717864790204729e-07 -0.47813885488114038 0.12061094978397686 -2.0650790975513824e-07 -0.23944831995837379 0.1649449787969067 9.4501698105200023e-07 -0.2983224052903658 0.12050599184941357 1.0142916990298579e-06 -0.50805203513604769 0.18081661351640196 -2.1717864790204729e-07 -0.47813885488114038 0.18640465035507275 2.6372143621586858e-06 -0.47807162518274471 0.18081661351640196 -2.1717864790204729e-07 -0.47813885488114038 0.12061094978397684 -2.0650790975513805e-07 -0.23944831995837387 0.1649449787969067 9.4501698105200023e-07 -0.29832240529036574 0.18718932284287723 -1.3999610188165865e-07 -0.20891595984982653 0.086427356134795449 9.4715553676726539e-07 -0.28801715310764497 0.12050599184941357 1.0142916990298579e-06 -0.50805203513604769 0.1649449787969067 9.4501698105200023e-07 -0.2983224052903658 0.12748193423483373 1.7471337192333207e-06 -0.19979149458143902 0.12054062213368207 2.0907643544325915e-07 -0.47959305399077723 0.18081661351640194 -2.1717864790204742e-07 -0.47813885488114044 0.1649449787969067 9.4501698105200023e-07 -0.2983224052903658 0.12050599184941357 1.0142916990298579e-06 -0.50805203513604769 0.1649449787969067 9.4501698105200023e-07 -0.2983224052903658 0.12748193423483373 1.7471337192333205e-06 -0.19979149458143902 0.14716447320013606 2.910649241330322e-06 -0.31779335739988834 0.19648214232342776 3.4323508891616291e-06 -0.17734075296891311 0.14716447320013606 2.910649241330322e-06 -0.31779335739988834 0.12050599184941357 1.0142916990298582e-06 -0.50805203513604758 0.1649449787969067 9.4501698105200023e-07 -0.2983224052903658 0.18640465035507275 2.6372143621586858e-06 -0.47807162518274471 0.14716447320013606 2.910649241330322e-06 -0.31779335739988834 0.16445087184182225 3.2205248848131486e-06 -0.5018353471694027 0.1205059918494136 1.0142916990298586e-06 -0.50805203513604769 0.18640465035507275 2.6372143621586858e-06 -0.47807162518274471 0.19930471045443224 3.2040658755561012e-06 -0.30134792092626339 0.16494497879690667 9.450169810519997e-07 -0.2983224052903658 0.14716447320013606 2.9106492413303212e-06 -0.31779335739988834 0.19648214232342776 3.4323508891616274e-06 -0.17734075296891325 0.11044765041056338 2.1022682464158483e-06 -0.29763589079823927 0.14716447320013606 2.910649241330322e-06 -0.31779335739988834 0.12050599184941357 1.0142916990298579e-06 -0.50805203513604769 0.12748193423483373 1.7471337192333207e-06 -0.19979149458143902 0.14716447320013606 2.910649241330322e-06 -0.31779335739988834 0.16494497879690673 9.4501698105200055e-07 -0.29832240529036586 0.19930471045443224 3.2040658755561012e-06 -0.30134792092626339 0.18640465035507275 2.6372143621586858e-06 -0.47807162518274471 0.1649449787969067 9.4501698105200023e-07 -0.2983224052903658 0.12050599184941359 1.0142916990298582e-06 -0.50805203513604769 0.14716447320013606 2.910649241330322e-06 -0.31779335739988834 0.12748193423483373 1.7471337192333207e-06 -0.19979149458143905 0.14716447320013606 2.910649241330322e-06 -0.31779335739988834 0.16445087184182225 3.2205248848131486e-06 -0.50183534716940281 0.12525877043522263 2.7439642098960071e-06 -0.47960149868838475 0.12050599184941357 1.0142916990298579e-06 -0.50805203513604769 0.12525877043522263 2.7439642098960071e-06 -0.47960149868838475 0.11044765041056338 2.1022682464158483e-06 -0.29763589079823927 0.14716447320013606 2.910649241330322e-06 -0.31779335739988834 0.12050599184941357 1.0142916990298577e-06 -0.50805203513604769 0.16445087184182225 3.2205248848131486e-06 -0.50183534716940281 0.14716447320013604 2.9106492413303216e-06 -0.31779335739988834 0.19930471045443224 3.2040658755561012e-06 -0.30134792092626339 0.18640465035507275 2.6372143621586858e-06 -0.47807162518274471 0.12323197483857966 2.5948913304650355e-06 -0.15703718082261156 0.14716447320013606 2.910649241330322e-06 -0.31779335739988834 0.11044765041056338 2.1022682464158483e-06 -0.29763589079823927 0.12748193423483373 1.7471337192333209e-06 -0.19979149458143902 0.12323197483857966 2.5948913304650355e-06 -0.15703718082261156 0.16861126715570354 2.6282148580064878e-06 -0.16250398449881898 0.14716447320013606 2.910649241330322e-06 -0.31779335739988834 0.12748193423483373 1.7471337192333209e-06 -0.19979149458143902 0.16861126715570354 2.6282148580064878e-06 -0.16250398449881898 0.14716447320013606 2.910649241330322e-06 -0.31779335739988834 0.12748193423483373 1.7471337192333211e-06 -0.19979149458143905 0.19648214232342776 3.4323508891616283e-06 -0.17734075296891308 0.16861126715570354 2.6282148580064878e-06 -0.16250398449881898 0.12748193423483375 1.7471337192333209e-06 -0.19979149458143902 0.16993516828435407 3.8055149387302576e-06 -1.3758782350090002e-05 0.19648214232342773 3.4323508891616296e-06 -0.17734075296891302 0.16861126715570354 2.6282148580064878e-06 -0.16250398449881898 0.12323197483857966 2.5948913304650355e-06 -0.15703718082261156 0.12243952115840362 2.2545668092703663e-06 -1.3711305905924735e-05 0.12748193423483373 1.7471337192333209e-06 -0.19979149458143897 0.14444236155607437 8.5184466394896612e-07 -1.0728226553334691e-05 0.16993516828435407 3.8055149387302572e-06 -1.3758782350088484e-05 0.12748193423483373 1.7471337192333209e-06 -0.19979149458143908 0.19648214232342776 3.4323508891616287e-06 -0.17734075296891313 0.14457611161350492 3.1219948049599167e-06 -1.7430437542455566e-05 0.16861126715570354 2.6282148580064878e-06 -0.16250398449881898 0.12323197483857966 2.5948913304650355e-06 -0.15703718082261156 0.12243952115840359 2.2545668092703659e-06 -1.3711305905995577e-05 0.12323197483857966 2.5948913304650355e-06 -0.15703718082261156 0.096418248856642325 3.5251254849099824e-06 -1.6746636585349692e-05 0.14457611161350492 3.1219948049599167e-06 -1.7430437542455566e-05 0.12243952115840359 2.2545668092703659e-06 -1.3711305905995577e-05 0.12243952115840359 2.2545668092703659e-06 -1.3711305905995577e-05 0.14444236155607437 8.5184466394896633e-07 -1.072822655333495e-05 0.16993516828435407 3.8055149387302572e-06 -1.3758782350088484e-05 0.12748193423483373 1.7471337192333207e-06 -0.19979149458143902 0.16861126715570354 2.6282148580064878e-06 -0.16250398449881898 0.12243952115840359 2.2545668092703659e-06 -1.3711305905927528e-05 0.16993516828435407 3.8055149387302572e-06 -1.3758782350062703e-05 0.12748193423483373 1.7471337192333203e-06 -0.19979149458143897 0.14457611161350492 3.1219948049599167e-06 -1.7430437542455566e-05 0.1926737402111614 2.6792258894537593e-06 -1.4304929220761855e-05 0.16861126715570354 2.6282148580064878e-06 -0.16250398449881898 0.16993516828435407 3.8055149387302572e-06 -1.3758782350088484e-05 0.12243952115840359 2.2545668092703659e-06 -1.3711305905995577e-05 0.14457611161350492 3.1219948049599167e-06 -1.7430437542455566e-05 0.16861126715570354 2.628214858006487e-06 -0.16250398449881909 0.16993516828435407 3.8055149387302572e-06 -1.3758782350088484e-05 0.16861126715570354 2.6282148580064878e-06 -0.16250398449881898 0.19930471045443224 3.2040658755561012e-06 -0.30134792092626339 0.14716447320013606 2.910649241330322e-06 -0.31779335739988834 0.19648214232342778 3.4323508891616291e-06 -0.17734075296891313 0.19930471045443224 3.2040658755561012e-06 -0.30134792092626339 0.16861126715570354 2.6282148580064878e-06 -0.16250398449881898 0.20555088874822766 1.9705190023265529e-06 -0.14048380472565894 0.19648214232342776 3.4323508891616283e-06 -0.17734075296891308 0.16861126715570354 2.6282148580064878e-06 -0.16250398449881898 0.20554766136719027 3.1268054356699393e-06 -9.7288068304109409e-06 0.20555088874822766 1.9705190023265529e-06 -0.14048380472565894 0.19648214232342776 3.4323508891616291e-06 -0.17734075296891302 0.20555088874822766 1.9705190023265529e-06 -0.14048380472565894 0.24070168518786469 1.6721344853826235e-06 -0.14049996692856273 0.19930471045443224 3.2040658755561012e-06 -0.30134792092626339 0.19648214232342776 3.4323508891616296e-06 -0.17734075296891308 0.20554766136719027 3.1268054356699393e-06 -9.7288068303718266e-06 0.20555088874822766 1.9705190023265529e-06 -0.14048380472565894 0.1926737402111614 2.6792258894537593e-06 -1.4304929220761855e-05 0.16861126715570354 2.6282148580064878e-06 -0.16250398449881898 0.16861126715570354 2.6282148580064878e-06 -0.16250398449881898 0.1926737402111614 2.6792258894537588e-06 -1.4304929220760935e-05 0.20554766136719027 3.1268054356699393e-06 -9.7288068303718266e-06 0.16993516828435407 3.8055149387302572e-06 -1.3758782350088484e-05 0.20554766136719027 3.1268054356699393e-06 -9.7288068303718266e-06 0.16993516828435407 3.8055149387302572e-06 -1.3758782350090411e-05 0.20509883462645256 3.428810650400417e-06 -1.0967050551107307e-05 0.19648214232342776 3.4323508891616291e-06 -0.17734075296891308 0.16861126715570354 2.6282148580064878e-06 -0.16250398449881898 0.16993516828435409 3.8055149387302572e-06 -1.3758782350146172e-05 0.20554766136719027 3.1268054356699393e-06 -9.7288068303930939e-06 0.19648214232342776 3.4323508891616291e-06 -0.17734075296891302 0.24070168518786469 1.6721344853826235e-06 -0.1404999669285627 0.24070226008199533 1.0674284639027046e-07 -0.1525490258046647 0.24072337132414826 -1.6296111958314849e-06 -0.298120390431029 0.19648214232342776 3.4323508891616291e-06 -0.17734075296891311 0.19930471045443224 3.2040658755561012e-06 -0.30134792092626339 0.24070168518786469 1.6721344853826231e-06 -0.1404999669285627 0.24072337132414826 -1.6296111958314849e-06 -0.298120390431029 0.19648214232342778 3.4323508891616283e-06 -0.17734075296891313 0.24070168518786469 1.6721344853826235e-06 -0.1404999669285627 0.20554766136719027 3.1268054356699393e-06 -9.7288068303718266e-06 0.24069362321996965 5.7692009685380634e-07 -1.2733120744992016e-05 0.19648214232342776 3.4323508891616291e-06 -0.17734075296891311 0.24069362321996965 5.7692009685380634e-07 -1.2733120744992016e-05 0.19648214232342778 3.4323508891616283e-06 -0.17734075296891308 0.24070226008199533 1.0674284639027051e-07 -0.1525490258046647 0.24070168518786469 1.6721344853826235e-06 -0.1404999669285627 0.20554766136719027 3.1268054356699393e-06 -9.7288068303718266e-06 0.24070168518786469 1.6721344853826235e-06 -0.14049996692856273 0.20555088874822766 1.9705190023265529e-06 -0.14048380472565894 0.19648214232342776 3.4323508891616287e-06 -0.17734075296891308 0.20554766136719027 3.1268054356699393e-06 -9.7288068303718266e-06 0.20509883462645259 3.4288106504004174e-06 -1.0967050551098303e-05 0.24069362321996965 5.7692009685380634e-07 -1.2733120744987513e-05 0.19648214232342776 3.4323508891616291e-06 -0.17734075296891308 0.24070168518786469 1.6721344853826235e-06 -0.1404999669285627 0.20555088874822766 1.9705190023265525e-06 -0.14048380472565894 0.24069263768517021 2.9312234533578467e-06 -1.4719351916922892e-05 0.20554766136719027 3.1268054356699393e-06 -9.7288068303718266e-06 0.24069484133578339 2.7408586624981075e-06 -0.19191693589153358 0.20555088874822766 1.9705190023265529e-06 -0.14048380472565894 0.24069263768517021 2.9312234533578467e-06 -1.4719351916922892e-05 0.24070168518786469 1.6721344853826235e-06 -0.1404999669285627 0.24069263768517021 2.9312234533578467e-06 -1.4719351916922892e-05 0.24070168518786469 1.6721344853826235e-06 -0.1404999669285627 0.20554766136719027 3.1268054356699393e-06 -9.7288068303718266e-06 0.24069362321996965 5.7692009685380634e-07 -1.2733120744992016e-05 0.1926737402111614 2.6792258894537593e-06 -1.4304929220761855e-05 0.24069263768517021 2.9312234533578467e-06 -1.4719351916922892e-05 0.20555088874822766 1.9705190023265529e-06 -0.14048380472565894 0.20554766136719027 3.1268054356699393e-06 -9.7288068303718266e-06 0.19930471045443224 3.2040658755561012e-06 -0.30134792092626339 0.20555088874822766 1.9705190023265529e-06 -0.14048380472565894 0.24069484133578339 2.7408586624981075e-06 -0.19191693589153358 0.24070168518786469 1.6721344853826235e-06 -0.1404999669285627 0.24069484133578339 2.7408586624981075e-06 -0.19191693589153358 0.24072337132414826 -1.6296111958314849e-06 -0.298120390431029 0.19930471045443221 3.2040658755561012e-06 -0.30134792092626334 0.24070168518786469 1.6721344853826235e-06 -0.1404999669285627 0.24072419030264661 2.5785917652492939e-06 -0.38383242445512905 0.24072337132414826 -1.6296111958314849e-06 -0.298120390431029 0.19930471045443224 3.2040658755561012e-06 -0.30134792092626334 0.24069484133578339 2.7408586624981075e-06 -0.19191693589153358 0.19930471045443224 3.2040658755561012e-06 -0.30134792092626339 0.18640465035507273 2.6372143621586858e-06 -0.47807162518274471 0.1649449787969067 9.4501698105200023e-07 -0.2983224052903658 0.1964821423234277 3.4323508891616262e-06 -0.17734075296891311 0.24072337132414826 -1.6296111958314849e-06 -0.298120390431029 0.18640465035507273 2.6372143621586854e-06 -0.47807162518274471 0.19930471045443224 3.2040658755561012e-06 -0.30134792092626339 0.19648214232342776 3.43235088916163e-06 -0.17734075296891302 0.24072337132414826 -1.6296111958314849e-06 -0.298120390431029 0.1649449787969067 9.4501698105199155e-07 -0.29832240529036574 0.18640465035507275 2.6372143621586829e-06 -0.47807162518274476 0.19648214232342776 3.4323508891616274e-06 -0.17734075296891308 0.24072337132414826 -1.6296111958314849e-06 -0.298120390431029 0.208971651462524 2.5992444323274001e-06 -0.48558912185298753 0.19930471045443224 3.2040658755561012e-06 -0.30134792092626339 0.18640465035507275 2.6372143621586858e-06 -0.47807162518274471 0.16445087184182225 3.2205248848131486e-06 -0.50183534716940281 0.19930471045443224 3.2040658755561012e-06 -0.30134792092626339 0.20897165146252397 2.5992444323274018e-06 -0.48558912185298747 0.18640465035507275 2.6372143621586858e-06 -0.47807162518274471 0.20897165146252397 2.5992444323274018e-06 -0.48558912185298747 0.24072419030264661 2.5785917652492939e-06 -0.38383242445512905 0.24072337132414826 -1.6296111958314849e-06 -0.298120390431029 0.19930471045443224 3.2040658755561012e-06 -0.30134792092626339 0.24072419030264661 2.5785917652492939e-06 -0.38383242445512905 0.24075253987030157 -8.4534320282983648e-07 -0.48751352882991533 0.20897165146252397 2.5992444323274018e-06 -0.48558912185298747 0.24072337132414826 -1.6296111958314849e-06 -0.298120390431029 0.24072337132414826 -1.6296111958314849e-06 -0.298120390431029 0.24075253987030157 -8.4534320282983648e-07 -0.48751352882991533 0.20897165146252397 2.5992444323274018e-06 -0.48558912185298747 0.18640465035507275 2.6372143621586858e-06 -0.47807162518274471 0.24072337132414826 -1.6296111958314849e-06 -0.298120390431029 0.24074643426062883 2.7739740264633207e-06 -0.43961617830829436 0.24075253987030157 -8.4534320282983648e-07 -0.48751352882991533 0.18640465035507275 2.6372143621586858e-06 -0.47807162518274471 0.24072196623679437 2.273486448359521e-07 -0.31595021239704801 0.18081661351640196 -2.1717864790204729e-07 -0.47813885488114033 0.24072146490539986 5.6585144130352355e-07 -0.31135400281020614 0.18718932284287723 -1.3999610188165868e-07 -0.20891595984982653 0.24074643426062881 2.7739740264633203e-06 -0.4396161783082943 0.1649449787969067 9.4501698105200023e-07 -0.2983224052903658 0.24072146490539989 5.6585144130352355e-07 -0.31135400281020614 0.18081661351640196 -2.1717864790204729e-07 -0.47813885488114038 0.24072337132414826 -1.6296111958314849e-06 -0.298120390431029 0.16494497879690673 9.4501698105200055e-07 -0.29832240529036574 0.24074643426062881 2.7739740264633199e-06 -0.4396161783082943 0.18640465035507275 2.6372143621586858e-06 -0.47807162518274471 0.24074643426062881 2.7739740264633203e-06 -0.4396161783082943 0.1649449787969067 9.4501698105200023e-07 -0.2983224052903658 0.18081661351640199 -2.1717864790204682e-07 -0.47813885488114044 0.1864046503550727 2.6372143621586854e-06 -0.47807162518274471 0.24074643426062881 2.7739740264633203e-06 -0.4396161783082943 0.24072337132414826 -1.6296111958314849e-06 -0.298120390431029 0.24072146490539989 5.6585144130352355e-07 -0.31135400281020614 0.1649449787969067 9.4501698105200023e-07 -0.2983224052903658 0.1649449787969067 9.4501698105200023e-07 -0.2983224052903658 0.24072146490539986 5.6585144130352334e-07 -0.31135400281020614 0.18081661351640196 -2.1717864790204729e-07 -0.47813885488114038 0.18718932284287723 -1.3999610188165873e-07 -0.2089159598498265 0.24072337132414826 -1.6296111958314849e-06 -0.298120390431029 0.24072146490539989 5.6585144130352376e-07 -0.31135400281020614 0.16494497879690667 9.4501698105199843e-07 -0.29832240529036586 0.19648214232342776 3.4323508891616291e-06 -0.17734075296891311 0.24072146490539989 5.6585144130352355e-07 -0.31135400281020614 0.18718932284287723 -1.3999610188165868e-07 -0.20891595984982653 0.16494497879690673 9.4501698105199918e-07 -0.29832240529036591 0.19648214232342776 3.4323508891616279e-06 -0.17734075296891316 0.24074832117609074 1.2657762616438321e-06 -0.49862444877883066 0.24074643426062881 2.7739740264633203e-06 -0.4396161783082943 0.24072146490539989 5.6585144130352355e-07 -0.31135400281020614 0.18081661351640196 -2.1717864790204729e-07 -0.47813885488114038 0.24072196623679437 2.273486448359521e-07 -0.31595021239704801 0.24074832117609074 1.2657762616438321e-06 -0.49862444877883066 0.24072146490539989 5.6585144130352355e-07 -0.31135400281020614 0.18081661351640202 -2.1717864790204703e-07 -0.47813885488114038 0.20274266755977394 2.5164865133497141e-06 -1.2550322329072967e-05 0.24069700945979242 -1.1310074930803857e-07 -0.16530197819191098 0.24070226008199533 1.0674284639027058e-07 -0.1525490258046647 0.18718932284287723 -1.3999610188165868e-07 -0.20891595984982653 0.24070226008199533 1.0674284639027058e-07 -0.1525490258046647 0.20509883462645262 3.428810650400417e-06 -1.0967050551154859e-05 0.1871893228428772 -1.3999610188165897e-07 -0.20891595984982655 0.19648214232342776 3.4323508891616291e-06 -0.17734075296891311 0.24070226008199533 1.0674284639027058e-07 -0.1525490258046647 0.1871893228428772 -1.3999610188165936e-07 -0.20891595984982653 0.24072146490539989 5.6585144130352355e-07 -0.31135400281020614 0.19648214232342776 3.4323508891616291e-06 -0.17734075296891311 0.24070226008199533 1.0674284639027058e-07 -0.1525490258046647 0.24069700945979242 -1.1310074930803873e-07 -0.16530197819191092 0.24072146490539989 5.6585144130352355e-07 -0.31135400281020614 0.1871893228428772 -1.3999610188165852e-07 -0.20891595984982655 0.17517492046319927 1.5724970562481748e-06 -9.0118555387994377e-06 0.18718932284287723 -1.3999610188165865e-07 -0.20891595984982653 0.20509883462645256 3.428810650400417e-06 -1.096705055110732e-05 0.19648214232342776 3.4323508891616291e-06 -0.17734075296891311 0.17517492046319927 1.5724970562481748e-06 -9.0118555387994377e-06 0.1649449787969067 9.4501698105200002e-07 -0.2983224052903658 0.1871893228428772 -1.3999610188165928e-07 -0.20891595984982653 0.19648214232342776 3.4323508891616291e-06 -0.17734075296891311 0.24072337132414826 -1.6296111958314849e-06 -0.298120390431029 0.24070226008199533 1.0674284639027058e-07 -0.1525490258046647 0.24072146490539989 5.6585144130352355e-07 -0.31135400281020614 0.19648214232342776 3.4323508891616291e-06 -0.17734075296891311 0.17517492046319927 1.5724970562481748e-06 -9.0118555387994377e-06 0.16218891470865374 -6.0286497185613174e-07 -1.1065364543754148e-05 0.20274266755977394 2.5164865133497141e-06 -1.255032232908061e-05 0.18718932284287723 -1.3999610188165868e-07 -0.20891595984982653 0.20274266755977394 2.5164865133497141e-06 -1.2550322329072967e-05 0.24070226008199536 1.0674284639027015e-07 -0.15254902580466467 0.20509883462645259 3.4288106504004174e-06 -1.0967050551098303e-05 0.18718932284287723 -1.3999610188165868e-07 -0.20891595984982653 0.17517492046319927 1.5724970562481748e-06 -9.0118555387994377e-06 0.20274266755977394 2.5164865133497141e-06 -1.2550322329074261e-05 0.20509883462645259 3.4288106504004174e-06 -1.0967050551094481e-05 0.18718932284287723 -1.3999610188165868e-07 -0.20891595984982653 0.16993516828435407 3.8055149387302572e-06 -1.3758782350088484e-05 0.17517492046319927 1.5724970562481748e-06 -9.0118555387994377e-06 0.20509883462645259 3.4288106504004174e-06 -1.0967050551107308e-05 0.19648214232342776 3.4323508891616287e-06 -0.17734075296891313 0.24070226008199533 1.0674284639027058e-07 -0.1525490258046647 0.20509883462645262 3.4288106504004162e-06 -1.0967050551080998e-05 0.24069362321996965 5.7692009685380634e-07 -1.2733120744993585e-05 0.2406872384010762 4.6440209700387675e-07 -1.419498193084301e-05 0.24070226008199533 1.0674284639027058e-07 -0.1525490258046647 0.19648214232342773 3.4323508891616291e-06 -0.17734075296891311 0.24069362321996965 5.7692009685380634e-07 -1.2733120744992016e-05 0.20509883462645262 3.4288106504004166e-06 -1.0967050551124303e-05 0.20274266755977394 2.5164865133497141e-06 -1.2550322329072967e-05 0.20509883462645259 3.4288106504004174e-06 -1.0967050551098303e-05 0.24070226008199533 1.0674284639027058e-07 -0.1525490258046647 0.2406872384010762 4.6440209700387675e-07 -1.419498193084301e-05 0.2406872384010762 4.6440209700387675e-07 -1.419498193084301e-05 0.24070226008199533 1.0674284639027058e-07 -0.1525490258046647 0.20274266755977394 2.5164865133497141e-06 -1.2550322329072967e-05 0.24069700945979242 -1.1310074930803861e-07 -0.16530197819191098 0.24068535073768954 1.3403135059713277e-06 -1.7241093267135903e-05 0.2406872384010762 4.6440209700387659e-07 -1.419498193084301e-05 0.20274266755977394 2.5164865133497141e-06 -1.2550322329072967e-05 0.24069700945979242 -1.1310074930803861e-07 -0.16530197819191098 0.19469198622886619 -1.5424719127561413e-06 -1.5120371370318594e-05 0.20554785222480815 -1.9074550266703949e-06 -1.0683044279114159e-05 0.24070484460735447 -5.0243648474349084e-07 -0.16246174411546155 0.16571459241075834 -1.1613888304425666e-06 -0.30092411587203349 0.19469198622886619 -1.5424719127561413e-06 -1.5120371370318594e-05 0.24068535073768951 1.3403135059713262e-06 -1.7241093267181436e-05 0.20274266755977394 2.5164865133497137e-06 -1.2550322329081703e-05 0.24069700945979242 -1.1310074930803861e-07 -0.16530197819191098 0.24068535073768954 1.3403135059713277e-06 -1.7241093267135903e-05 0.19469198622886619 -1.5424719127561413e-06 -1.5120371370318594e-05 0.2407048446073545 -5.0243648474349052e-07 -0.16246174411546155 0.24069700945979242 -1.1310074930803861e-07 -0.16530197819191098 0.19469198622886619 -1.5424719127561413e-06 -1.5120371370318594e-05 0.16571459241075837 -1.161388830442567e-06 -0.30092411587203355 0.24070484460735447 -5.0243648474349074e-07 -0.16246174411546152 0.18718932284287723 -1.3999610188165841e-07 -0.2089159598498265 0.20274266755977394 2.5164865133497141e-06 -1.2550322329072967e-05 0.16218891470865374 -6.0286497185613153e-07 -1.1065364543759288e-05 0.19469198622886619 -1.5424719127561413e-06 -1.5120371370318594e-05 0.18718932284287723 -1.3999610188165868e-07 -0.20891595984982653 0.20274266755977394 2.5164865133497141e-06 -1.2550322329072967e-05 0.19469198622886619 -1.5424719127561413e-06 -1.5120371370318594e-05 0.24069700945979242 -1.1310074930803898e-07 -0.16530197819191098 0.18718932284287723 -1.3999610188165868e-07 -0.20891595984982653 0.19469198622886619 -1.5424719127561413e-06 -1.5120371370318594e-05 0.2407048446073545 -5.0243648474349084e-07 -0.16246174411546149 0.24069700945979242 -1.1310074930803861e-07 -0.16530197819191098 0.18718932284287723 -1.3999610188165868e-07 -0.20891595984982653 0.2407048446073545 -5.0243648474349052e-07 -0.16246174411546155 0.24072196623679437 2.273486448359521e-07 -0.31595021239704801 0.24069700945979244 -1.1310074930803856e-07 -0.16530197819191098 0.1871893228428772 -1.3999610188165886e-07 -0.20891595984982655 0.2407048446073545 -5.0243648474349052e-07 -0.16246174411546155 0.19469198622886622 -1.5424719127561402e-06 -1.5120371370320703e-05 0.24068535073768954 1.3403135059713277e-06 -1.7241093267135903e-05 0.24069170792017505 1.2494318364493043e-06 -1.4721312541509639e-05 0.2407048446073545 -5.0243648474349052e-07 -0.16246174411546155 0.19469198622886616 -1.5424719127561421e-06 -1.5120371370362777e-05 0.24069170792017505 1.2494318364493043e-06 -1.4721312541509639e-05 0.20554785222480815 -1.9074550266703949e-06 -1.0683044279114159e-05 0.24069170792017505 1.2494318364493043e-06 -1.4721312541509639e-05 0.24071027037232284 1.3932301280107455e-06 -0.14050445398822381 0.2407048446073545 -5.0243648474349042e-07 -0.16246174411546155 0.20554785222480815 -1.9074550266703949e-06 -1.0683044279114159e-05 0.20003927218759898 -2.6242508027784856e-06 -0.28801851375458248 0.20555721535139684 -1.978554013009305e-06 -0.14048445939742948 0.16525192126995619 -3.1729606421142229e-06 -0.1654816811461424 0.16571459241075837 -1.161388830442567e-06 -0.30092411587203355 0.19469198622886619 -1.5424719127561413e-06 -1.5120371370318594e-05 0.16714464050159239 -2.6350690114152938e-06 -1.2944622528966239e-05 0.20554785222480815 -1.9074550266703949e-06 -1.0683044279114159e-05 0.16571459241075837 -1.1613888304425668e-06 -0.30092411587203349 0.24071961229731997 1.7952638562160046e-06 -0.30333648515538414 0.2407048446073545 -5.0243648474349052e-07 -0.16246174411546155 0.24071027037232284 1.3932301280107455e-06 -0.14050445398822381 0.16571459241075837 -1.1613888304425668e-06 -0.30092411587203355 0.24071027037232284 1.3932301280107455e-06 -0.14050445398822381 0.2407048446073545 -5.0243648474349052e-07 -0.16246174411546155 0.20554785222480818 -1.9074550266703945e-06 -1.0683044279133529e-05 0.16571459241075839 -1.1613888304425683e-06 -0.30092411587203344 0.24071027037232284 1.3932301280107455e-06 -0.14050445398822381 0.20555721535139684 -1.9785540130093054e-06 -0.14048445939742957 0.20003927218759895 -2.6242508027784869e-06 -0.28801851375458243 0.16571459241075839 -1.1613888304425666e-06 -0.30092411587203366 0.24071027037232284 1.3932301280107455e-06 -0.14050445398822381 0.20554785222480815 -1.9074550266703949e-06 -1.068304427911814e-05 0.20555721535139684 -1.978554013009305e-06 -0.14048445939742948 0.16571459241075839 -1.1613888304425668e-06 -0.30092411587203349 0.16714464050159239 -2.6350690114152938e-06 -1.2944622528971545e-05 0.20555721535139684 -1.978554013009305e-06 -0.14048445939742948 0.20554785222480815 -1.9074550266703949e-06 -1.0683044279114159e-05 0.16571459241075837 -1.1613888304425668e-06 -0.30092411587203355 0.20555721535139684 -1.978554013009305e-06 -0.14048445939742948 0.20003927218759898 -2.6242508027784856e-06 -0.28801851375458248 0.24069909135303816 -2.6696040674121394e-06 -0.19191695812748877 0.24071027037232284 1.3932301280107455e-06 -0.14050445398822381 0.20003927218759898 -2.6242508027784856e-06 -0.28801851375458248 0.24071961229731997 1.7952638562160046e-06 -0.30333648515538414 0.24069909135303816 -2.6696040674121394e-06 -0.19191695812748877 0.24071027037232284 1.3932301280107455e-06 -0.14050445398822381 0.20554785222480815 -1.9074550266703949e-06 -1.0683044279114159e-05 0.24069626040013817 -2.9260708641797112e-06 -1.4050588827209965e-05 0.20555721535139684 -1.978554013009305e-06 -0.14048445939742948 0.19267546133779251 -2.7545515917582776e-06 -1.3086007638672956e-05 0.20555721535139684 -1.978554013009305e-06 -0.14048445939742948 0.24069909135303816 -2.6696040674121394e-06 -0.19191695812748877 0.24069626040013817 -2.9260708641797108e-06 -1.405058882719627e-05 0.24071027037232284 1.3932301280107455e-06 -0.14050445398822381 0.24069626040013817 -2.9260708641797112e-06 -1.4050588827209965e-05 0.24071027037232284 1.3932301280107455e-06 -0.14050445398822381 0.24069170792017505 1.2494318364493043e-06 -1.4721312541498268e-05 0.20554785222480815 -1.9074550266703949e-06 -1.0683044279114159e-05 0.24071027037232284 1.3932301280107455e-06 -0.14050445398822381 0.2406962604001382 -2.9260708641797116e-06 -1.4050588827198595e-05 0.20555721535139684 -1.978554013009305e-06 -0.14048445939742948 0.20554785222480815 -1.9074550266703949e-06 -1.0683044279114159e-05 0.16525192126995619 -3.1729606421142229e-06 -0.1654816811461424 0.16714464050159239 -2.6350690114152938e-06 -1.2944622528971545e-05 0.20555721535139684 -1.9785540130093054e-06 -0.14048445939742948 0.19267546133779251 -2.7545515917582776e-06 -1.3086007638672956e-05 0.20554785222480815 -1.9074550266703949e-06 -1.0683044279114159e-05 0.20555721535139684 -1.978554013009305e-06 -0.14048445939742948 0.16714464050159239 -2.6350690114152942e-06 -1.2944622528977229e-05 0.19267546133779251 -2.7545515917582776e-06 -1.3086007638672956e-05 0.16525192126995619 -3.1729606421142229e-06 -0.1654816811461424 0.16571459241075842 -1.1613888304425666e-06 -0.3009241158720336 0.16714464050159236 -2.6350690114152934e-06 -1.294462252894896e-05 0.12061123952193559 -2.0315526522824282e-06 -0.21663289817526163 0.16525192126995619 -3.1729606421142229e-06 -0.1654816811461424 0.20555721535139684 -1.978554013009305e-06 -0.14048445939742948 0.16714464050159239 -2.6350690114152938e-06 -1.2944622528967064e-05 0.16571459241075834 -1.161388830442566e-06 -0.3009241158720336 0.16714464050159239 -2.6350690114152938e-06 -1.2944622528971545e-05 0.16525192126995619 -3.1729606421142229e-06 -0.16548168114614237 0.14457638935639608 -2.5957704957262829e-06 -1.4775432041635036e-05 0.19267546133779251 -2.7545515917582776e-06 -1.3086007638672956e-05 0.11903945741120076 -2.6153980368073516e-06 -0.12698364536418563 0.096417955635292596 -2.8253077788135234e-06 -1.7605410752644417e-05 0.12283288225313503 -8.9516370415116136e-07 -1.2742114571906417e-05 0.14457638935639608 -2.5957704957262829e-06 -1.4775432041635036e-05 0.12283288225313503 -8.9516370415116136e-07 -1.2742114571906417e-05 0.16714464050159239 -2.6350690114152938e-06 -1.2944622528971545e-05 0.16525192126995619 -3.1729606421142229e-06 -0.1654816811461424 0.14457638935639608 -2.5957704957262829e-06 -1.4775432041635036e-05 0.16525192126995619 -3.1729606421142229e-06 -0.1654816811461424 0.11903945741120076 -2.6153980368073516e-06 -0.12698364536418563 0.12283288225313503 -8.9516370415116136e-07 -1.2742114571906417e-05 0.14457638935639608 -2.5957704957262829e-06 -1.4775432041635036e-05 0.11494535284214874 -3.2021476982081624e-06 -0.30445756757517567 0.16525192126995619 -3.1729606421142229e-06 -0.16548168114614242 0.11903945741120076 -2.6153980368073516e-06 -0.12698364536418563 0.1206112395219356 -2.0315526522824278e-06 -0.21663289817526166 0.11903945741120076 -2.6153980368073516e-06 -0.12698364536418563 0.16525192126995619 -3.1729606421142229e-06 -0.1654816811461424 0.12283288225313503 -8.9516370415116136e-07 -1.2742114571906417e-05 0.1206112395219356 -2.0315526522824278e-06 -0.21663289817526166 0.12283288225313503 -8.9516370415116136e-07 -1.2742114571906417e-05 0.16525192126995622 -3.1729606421142229e-06 -0.16548168114614237 0.16714464050159239 -2.6350690114152938e-06 -1.2944622528971545e-05 0.1206112395219356 -2.0315526522824278e-06 -0.21663289817526168 0.14709707493274482 -1.82060786658559e-06 -1.2083664874469999e-05 0.12283288225313503 -8.9516370415116136e-07 -1.2742114571906417e-05 0.16714464050159239 -2.6350690114152938e-06 -1.2944622528971545e-05 0.1206112395219356 -2.0315526522824278e-06 -0.21663289817526166 0.14709707493274482 -1.82060786658559e-06 -1.2083664874469999e-05 0.16571459241075834 -1.1613888304425668e-06 -0.30092411587203349 0.19469198622886619 -1.5424719127561413e-06 -1.5120371370318594e-05 0.18718932284287723 -1.3999610188165868e-07 -0.20891595984982653 0.14709707493274482 -1.82060786658559e-06 -1.2083664874469999e-05 0.16714464050159239 -2.6350690114152938e-06 -1.2944622528971545e-05 0.16571459241075837 -1.161388830442567e-06 -0.30092411587203355 0.1206112395219356 -2.0315526522824278e-06 -0.21663289817526166 0.19469198622886619 -1.5424719127561413e-06 -1.5120371370318594e-05 0.14709707493274482 -1.82060786658559e-06 -1.208366487448061e-05 0.16714464050159239 -2.6350690114152938e-06 -1.2944622528971545e-05 0.16571459241075834 -1.1613888304425668e-06 -0.30092411587203349 0.14709707493274482 -1.82060786658559e-06 -1.2083664874469999e-05 0.11041982175438786 -3.6492711398288457e-07 -1.0993988557159337e-05 0.12283288225313503 -8.9516370415116136e-07 -1.2742114571899049e-05 0.1206112395219356 -2.0315526522824278e-06 -0.21663289817526166 0.11041982175438786 -3.6492711398288457e-07 -1.0993988557159337e-05 0.14709707493274482 -1.82060786658559e-06 -1.2083664874469999e-05 0.12061094978397684 -2.0650790975513773e-07 -0.23944831995837376 0.1206112395219356 -2.0315526522824278e-06 -0.21663289817526166 0.18718932284287723 -1.3999610188165868e-07 -0.20891595984982653 0.14709707493274482 -1.82060786658559e-06 -1.2083664874478518e-05 0.12061094978397682 -2.0650790975513765e-07 -0.23944831995837373 0.16218891470865374 -6.0286497185613174e-07 -1.1065364543759484e-05 0.16571459241075837 -1.1613888304425668e-06 -0.30092411587203355 0.12061094978397684 -2.0650790975513773e-07 -0.23944831995837376 0.14709707493274479 -1.82060786658559e-06 -1.2083664874487751e-05 0.12061123952193561 -2.0315526522824274e-06 -0.21663289817526166 0.18718932284287723 -1.3999610188165868e-07 -0.20891595984982653 0.12061094978397684 -2.0650790975513773e-07 -0.23944831995837376 0.14709707493274482 -1.8206078665855898e-06 -1.20836648744613e-05 0.16571459241075837 -1.1613888304425668e-06 -0.30092411587203355 0.12523046663851925 3.0951330088184014e-08 -1.4051663673503716e-05 0.14709707493274482 -1.82060786658559e-06 -1.2083664874468332e-05 0.16218891470865374 -6.0286497185613174e-07 -1.1065364543761151e-05 0.12061094978397684 -2.0650790975513773e-07 -0.23944831995837376 0.11041982175438786 -3.6492711398288457e-07 -1.0993988557159337e-05 0.14709707493274482 -1.82060786658559e-06 -1.2083664874469999e-05 0.12523046663851925 3.0951330088184014e-08 -1.4051663673503716e-05 0.12061094978397684 -2.0650790975513773e-07 -0.23944831995837376 0.14709707493274482 -1.82060786658559e-06 -1.2083664874469999e-05 0.19469198622886619 -1.5424719127561413e-06 -1.5120371370318594e-05 0.16218891470865376 -6.0286497185613185e-07 -1.1065364543778041e-05 0.18718932284287723 -1.3999610188165868e-07 -0.20891595984982653 0.16571459241075837 -1.1613888304425668e-06 -0.30092411587203355 0.18081661351640196 -2.1717864790204737e-07 -0.47813885488114038 0.12054062213368208 2.0907643544325891e-07 -0.47959305399077728 0.12072349859429034 -1.6182024021828861e-06 -0.5072793067240704 0.18081661351640196 -2.1717864790204729e-07 -0.47813885488114038 0.12072349859429032 -1.6182024021828865e-06 -0.5072793067240704 0.16571459241075837 -1.1613888304425664e-06 -0.30092411587203349 0.18784698127479085 4.3683487387773127e-08 -0.47985548906186115 0.12054062213368207 2.0907643544325915e-07 -0.47959305399077723 0.18081661351640196 -2.1717864790204729e-07 -0.47813885488114038 0.16571459241075837 -1.1613888304425662e-06 -0.30092411587203349 0.12061094978397682 -2.0650790975513763e-07 -0.23944831995837365 0.16571459241075837 -1.1613888304425668e-06 -0.30092411587203355 0.12061094978397684 -2.0650790975513781e-07 -0.23944831995837376 0.18081661351640196 -2.1717864790204729e-07 -0.47813885488114038 0.18718932284287723 -1.3999610188165868e-07 -0.20891595984982653 0.12072349859429032 -1.6182024021828865e-06 -0.5072793067240704 0.12061094978397681 -2.0650790975513792e-07 -0.23944831995837376 0.16571459241075834 -1.1613888304425672e-06 -0.30092411587203355 0.12061123952193561 -2.0315526522824282e-06 -0.21663289817526166 0.12054062213368207 2.0907643544325915e-07 -0.47959305399077723 0.16571459241075834 -1.1613888304425668e-06 -0.30092411587203355 0.12072349859429032 -1.6182024021828865e-06 -0.5072793067240704 0.12061094978397682 -2.0650790975513792e-07 -0.23944831995837368 0.20003927218759898 -2.6242508027784856e-06 -0.28801851375458248 0.16571459241075837 -1.1613888304425668e-06 -0.30092411587203355 0.16108648197397327 -2.8892151131864208e-06 -0.3696555600342385 0.18784698127479085 4.3683487387773438e-08 -0.47985548906186121 0.16525192126995619 -3.1729606421142229e-06 -0.1654816811461424 0.16108648197397327 -2.8892151131864208e-06 -0.3696555600342385 0.20003927218759898 -2.6242508027784856e-06 -0.28801851375458248 0.16571459241075837 -1.1613888304425668e-06 -0.30092411587203355 0.16108648197397327 -2.8892151131864208e-06 -0.3696555600342385 0.11494535284214874 -3.2021476982081624e-06 -0.30445756757517567 0.12072349859429032 -1.6182024021828868e-06 -0.50727930672407029 0.1206112395219356 -2.0315526522824282e-06 -0.21663289817526174 0.16621187469189047 -2.2233480190796086e-06 -0.51977501945214377 0.16108648197397327 -2.8892151131864208e-06 -0.3696555600342385 0.12072349859429034 -1.6182024021828868e-06 -0.5072793067240704 0.18784698127479085 4.3683487387773504e-08 -0.47985548906186115 0.16525192126995619 -3.1729606421142229e-06 -0.1654816811461424 0.16108648197397327 -2.8892151131864208e-06 -0.3696555600342385 0.16571459241075837 -1.1613888304425666e-06 -0.30092411587203349 0.12061123952193557 -2.0315526522824282e-06 -0.21663289817526163 0.16108648197397327 -2.8892151131864208e-06 -0.3696555600342385 0.12072349859429032 -1.6182024021828865e-06 -0.5072793067240704 0.16571459241075842 -1.1613888304425666e-06 -0.30092411587203355 0.12061123952193561 -2.0315526522824274e-06 -0.21663289817526171 0.16571459241075837 -1.1613888304425668e-06 -0.30092411587203355 0.12072349859429032 -1.6182024021828865e-06 -0.50727930672407029 0.16108648197397327 -2.8892151131864208e-06 -0.3696555600342385 0.18784698127479085 4.3683487387773438e-08 -0.47985548906186121 0.16525192126995619 -3.1729606421142229e-06 -0.1654816811461424 0.11494535284214874 -3.2021476982081624e-06 -0.30445756757517567 0.16108648197397327 -2.8892151131864208e-06 -0.3696555600342385 0.12061123952193563 -2.0315526522824278e-06 -0.21663289817526168 0.12053060417443807 -2.7674442173667959e-06 -0.46077822354018794 0.16108648197397327 -2.8892151131864208e-06 -0.3696555600342385 0.11494535284214874 -3.2021476982081624e-06 -0.30445756757517567 0.12072349859429032 -1.6182024021828865e-06 -0.5072793067240704 0.12053060417443807 -2.7674442173667959e-06 -0.46077822354018794 0.16621187469189047 -2.2233480190796086e-06 -0.51977501945214377 0.16108648197397327 -2.8892151131864208e-06 -0.3696555600342385 0.12072349859429032 -1.6182024021828865e-06 -0.5072793067240704 0.16108648197397327 -2.8892151131864208e-06 -0.3696555600342385 0.16621187469189047 -2.2233480190796086e-06 -0.51977501945214377 0.20121625473821025 -2.6201206901106721e-06 -0.47043473317325168 0.18784698127479085 4.3683487387773438e-08 -0.47985548906186121 0.24071961229731997 1.7952638562160046e-06 -0.30333648515538414 0.16571459241075837 -1.1613888304425668e-06 -0.30092411587203355 0.20003927218759898 -2.6242508027784856e-06 -0.28801851375458248 0.18784698127479085 4.3683487387773577e-08 -0.47985548906186121 0.24071961229731997 1.7952638562160046e-06 -0.30333648515538414 0.24071027037232284 1.3932301280107455e-06 -0.14050445398822381 0.20003927218759898 -2.6242508027784856e-06 -0.28801851375458248 0.16571459241075837 -1.1613888304425668e-06 -0.30092411587203355 0.20121625473821025 -2.6201206901106721e-06 -0.47043473317325168 0.20003927218759898 -2.6242508027784856e-06 -0.28801851375458248 0.16108648197397327 -2.8892151131864208e-06 -0.3696555600342385 0.18784698127479083 4.3683487387773359e-08 -0.47985548906186115 0.20121625473821025 -2.6201206901106721e-06 -0.47043473317325168 0.24071961229731997 1.7952638562160052e-06 -0.30333648515538414 0.20003927218759898 -2.6242508027784856e-06 -0.28801851375458248 0.18784698127479088 4.3683487387773564e-08 -0.47985548906186121 0.20003927218759898 -2.6242508027784856e-06 -0.28801851375458248 0.20121625473821025 -2.6201206901106712e-06 -0.47043473317325174 0.24072190228790075 -3.139352315377763e-06 -0.38383262490191633 0.24071961229731997 1.7952638562160046e-06 -0.30333648515538414 0.20121625473821025 -2.6201206901106721e-06 -0.47043473317325168 0.2407535411228319 -7.5937911538254214e-07 -0.48908273151325421 0.24077622276438973 -3.4862953281958043e-06 -0.57576734685025155 0.24072190228790077 -3.1393523153777626e-06 -0.38383262490191633 0.24072190228790077 -3.1393523153777626e-06 -0.38383262490191633 0.20121625473821025 -2.6201206901106721e-06 -0.47043473317325168 0.2407535411228319 -7.5937911538254214e-07 -0.48908273151325421 0.24071961229731997 1.7952638562160046e-06 -0.30333648515538414 0.24071961229731997 1.7952638562160046e-06 -0.30333648515538414 0.24072190228790077 -3.1393523153777622e-06 -0.38383262490191633 0.20003927218759898 -2.6242508027784856e-06 -0.28801851375458248 0.24069909135303816 -2.6696040674121394e-06 -0.19191695812748877 0.24074857043665124 -1.9201692143791207e-06 -0.43961756957349668 0.24071961229731997 1.7952638562160046e-06 -0.30333648515538414 0.2407535411228319 -7.5937911538254266e-07 -0.48908273151325421 0.18784698127479085 4.3683487387773438e-08 -0.47985548906186121 0.20121625473821025 -2.6201206901106721e-06 -0.47043473317325168 0.24075354112283193 -7.5937911538254319e-07 -0.48908273151325432 0.24071961229731997 1.795263856216005e-06 -0.30333648515538414 0.18784698127479083 4.3683487387773875e-08 -0.4798554890618611 0.24072196623679437 2.273486448359521e-07 -0.31595021239704801 0.16571459241075834 -1.161388830442567e-06 -0.3009241158720336 0.18081661351640196 -2.1717864790204732e-07 -0.47813885488114033 0.18718932284287723 -1.3999610188165868e-07 -0.20891595984982653 0.24072196623679437 2.273486448359521e-07 -0.31595021239704801 0.24071961229731997 1.7952638562160046e-06 -0.30333648515538414 0.24074857043665124 -1.9201692143791207e-06 -0.43961756957349668 0.16571459241075837 -1.1613888304425668e-06 -0.30092411587203355 0.24074857043665124 -1.9201692143791207e-06 -0.43961756957349668 0.18081661351640196 -2.1717864790204618e-07 -0.4781388548811405 0.16571459241075834 -1.161388830442567e-06 -0.30092411587203349 0.18784698127479085 4.3683487387774173e-08 -0.47985548906186121 0.2407048446073545 -5.0243648474349052e-07 -0.16246174411546155 0.24071961229731995 1.7952638562160046e-06 -0.30333648515538414 0.24072196623679437 2.273486448359521e-07 -0.31595021239704801 0.16571459241075837 -1.1613888304425668e-06 -0.30092411587203355 0.24074857043665124 -1.9201692143791207e-06 -0.43961756957349668 0.16571459241075837 -1.1613888304425672e-06 -0.30092411587203355 0.24071961229731997 1.7952638562160046e-06 -0.30333648515538414 0.18784698127479091 4.3683487387773815e-08 -0.47985548906186126 0.2407048446073545 -5.0243648474349052e-07 -0.16246174411546155 0.16571459241075837 -1.1613888304425668e-06 -0.30092411587203349 0.24072196623679437 2.273486448359521e-07 -0.31595021239704801 0.18718932284287723 -1.3999610188165841e-07 -0.20891595984982647 0.24072196623679437 2.273486448359521e-07 -0.31595021239704801 0.16571459241075837 -1.1613888304425668e-06 -0.30092411587203355 0.24074857043665124 -1.9201692143791207e-06 -0.43961756957349668 0.18081661351640199 -2.1717864790204774e-07 -0.47813885488114033 0.24072146490539989 5.6585144130352355e-07 -0.31135400281020614 0.24069700945979242 -1.1310074930803861e-07 -0.16530197819191098 0.24072196623679437 2.273486448359521e-07 -0.31595021239704801 0.18718932284287723 -1.3999610188165868e-07 -0.20891595984982653 0.24072196623679437 2.273486448359521e-07 -0.31595021239704801 0.24074857043665124 -1.9201692143791207e-06 -0.43961756957349668 0.24074832117609074 1.2657762616438321e-06 -0.49862444877883066 0.18081661351640202 -2.1717864790204647e-07 -0.47813885488114044 0.24079288378017707 -8.3193581913880948e-07 -0.5753176568996542 0.18081661351640196 -2.1717864790204729e-07 -0.47813885488114038 0.16571361122849634 -6.5243278476324266e-07 -0.65948794613705342 0.18807472567277697 -7.2887399758647167e-07 -0.74856089972033946 0.24079288378017707 -8.3193581913880948e-07 -0.5753176568996542 0.24085345406761038 -2.7727378328803622e-06 -0.69788915535853813 0.16571361122849634 -6.5243278476324203e-07 -0.65948794613705342 0.19670121172684765 -1.9235113634540708e-06 -0.78294115750143278 0.24079288378017707 -8.3193581913880948e-07 -0.5753176568996542 0.24081046713255175 1.1228197066861361e-06 -0.64602190797124981 0.24074832117609074 1.2657762616438321e-06 -0.49862444877883066 0.18081661351640196 -2.1717864790204729e-07 -0.47813885488114038 0.24079288378017707 -8.3193581913880948e-07 -0.5753176568996542 0.18081661351640196 -2.1717864790204713e-07 -0.47813885488114038 0.24074857043665124 -1.9201692143791207e-06 -0.43961756957349668 0.18784698127479083 4.3683487387773517e-08 -0.47985548906186115 0.16571361122849634 -6.5243278476324266e-07 -0.65948794613705342 0.18784698127479083 4.3683487387773471e-08 -0.47985548906186121 0.24079288378017707 -8.3193581913880937e-07 -0.5753176568996542 0.19670121172684765 -1.923511363454072e-06 -0.78294115750143289 0.24079288378017707 -8.3193581913880948e-07 -0.5753176568996542 0.16571361122849634 -6.5243278476324266e-07 -0.65948794613705342 0.18081661351640196 -2.1717864790204721e-07 -0.47813885488114044 0.18784698127479083 4.3683487387773551e-08 -0.47985548906186115 0.24081046713255175 1.1228197066861361e-06 -0.64602190797124981 0.18081661351640194 -2.1717864790204764e-07 -0.47813885488114038 0.24079288378017707 -8.3193581913880948e-07 -0.5753176568996542 0.18807472567277694 -7.2887399758647178e-07 -0.74856089972033946 0.24085345406761038 -2.7727378328803622e-06 -0.69788915535853813 0.24079288378017707 -8.3193581913880948e-07 -0.5753176568996542 0.16571361122849632 -6.5243278476324499e-07 -0.65948794613705342 0.18807472567277697 -7.2887399758646892e-07 -0.74856089972033935 0.24079288378017707 -8.3193581913880948e-07 -0.5753176568996542 0.24074832117609074 1.2657762616438321e-06 -0.49862444877883066 0.24074857043665124 -1.9201692143791207e-06 -0.43961756957349668 0.18081661351640196 -2.1717864790204729e-07 -0.47813885488114038 0.24085345406761038 -2.7727378328803622e-06 -0.69788915535853813 0.24081046713255178 1.1228197066861358e-06 -0.64602190797124981 0.24079288378017707 -8.3193581913880948e-07 -0.5753176568996542 0.18807472567277697 -7.2887399758647167e-07 -0.74856089972033946 0.24079288378017707 -8.3193581913880948e-07 -0.5753176568996542 0.24083560944288543 5.7878137905173918e-07 -0.67717092557728031 0.24085345406761038 -2.7727378328803622e-06 -0.69788915535853813 0.19670121172684765 -1.923511363454072e-06 -0.78294115750143289 0.24079288378017707 -8.3193581913880948e-07 -0.5753176568996542 0.24074857043665124 -1.9201692143791207e-06 -0.43961756957349668 0.2407535411228319 -7.5937911538254266e-07 -0.48908273151325421 0.18784698127479085 4.3683487387773438e-08 -0.47985548906186121 0.2407535411228319 -7.5937911538254266e-07 -0.48908273151325421 0.1963264550101588 -2.8306602869845055e-06 -0.66122882575825925 0.24083560944288543 5.7878137905173918e-07 -0.67717092557728031 0.18784698127479085 4.3683487387774305e-08 -0.47985548906186121 0.1963264550101588 -2.8306602869845051e-06 -0.66122882575825925 0.1878469812747908 4.3683487387773259e-08 -0.47985548906186115 0.16571361122849637 -6.5243278476324192e-07 -0.6594879461370533 0.19670121172684765 -1.923511363454072e-06 -0.78294115750143289 0.1963264550101588 -2.8306602869845051e-06 -0.66122882575825925 0.24083560944288543 5.7878137905173897e-07 -0.67717092557728042 0.18784698127479085 4.3683487387772783e-08 -0.47985548906186121 0.19670121172684765 -1.923511363454072e-06 -0.78294115750143289 0.24083560944288543 5.7878137905173918e-07 -0.67717092557728031 0.24079288378017707 -8.3193581913880948e-07 -0.5753176568996542 0.18784698127479085 4.3683487387773438e-08 -0.47985548906186121 0.19670121172684765 -1.923511363454072e-06 -0.78294115750143289 0.2407535411228319 -7.5937911538254266e-07 -0.48908273151325421 0.24083560944288543 5.7878137905173918e-07 -0.67717092557728031 0.24079288378017707 -8.3193581913880948e-07 -0.5753176568996542 0.18784698127479085 4.3683487387773438e-08 -0.47985548906186121 0.24083560944288543 5.7878137905173918e-07 -0.67717092557728031 0.1963264550101588 -2.8306602869845051e-06 -0.66122882575825925 0.24077622276438973 -3.4862953281958043e-06 -0.57576734685025155 0.24087485764417935 -2.8472795521660258e-06 -0.76772105724218032 0.1963264550101588 -2.8306602869845051e-06 -0.66122882575825925 0.24077622276438973 -3.4862953281958043e-06 -0.57576734685025155 0.2407535411228319 -7.5937911538254266e-07 -0.48908273151325421 0.24083560944288543 5.7878137905173918e-07 -0.67717092557728031 0.2407535411228319 -7.5937911538254266e-07 -0.48908273151325421 0.24077622276438976 -3.4862953281958043e-06 -0.57576734685025155 0.1963264550101588 -2.8306602869845051e-06 -0.66122882575825925 0.20121625473821023 -2.6201206901106716e-06 -0.47043473317325157 0.1963264550101588 -2.8306602869845051e-06 -0.66122882575825925 0.20121625473821025 -2.6201206901106721e-06 -0.47043473317325168 0.16621187469189047 -2.2233480190796086e-06 -0.51977501945214377 0.18784698127479085 4.3683487387773438e-08 -0.47985548906186121 0.1963264550101588 -2.8306602869845051e-06 -0.66122882575825925 0.2407535411228319 -7.5937911538254266e-07 -0.48908273151325421 0.20121625473821025 -2.6201206901106721e-06 -0.47043473317325168 0.18784698127479085 4.3683487387773438e-08 -0.47985548906186121 0.16621187469189047 -2.2233480190796086e-06 -0.51977501945214377 0.14471712488353089 -3.2069734449725778e-06 -0.64800295901720417 0.16571361122849634 -6.5243278476324245e-07 -0.65948794613705342 0.12072349859429034 -1.6182024021828863e-06 -0.5072793067240704 0.14471712488353089 -3.2069734449725778e-06 -0.64800295901720417 0.1963264550101588 -2.8306602869845051e-06 -0.66122882575825925 0.16621187469189047 -2.2233480190796086e-06 -0.51977501945214377 0.16571361122849634 -6.5243278476324266e-07 -0.65948794613705342 0.1963264550101588 -2.8306602869845051e-06 -0.66122882575825925 0.16621187469189047 -2.2233480190796086e-06 -0.51977501945214377 0.16571361122849637 -6.5243278476324171e-07 -0.65948794613705342 0.18784698127479085 4.3683487387773326e-08 -0.47985548906186121 0.16748561953627056 -2.6120906840617504e-06 -0.80683310013163245 0.16571361122849634 -6.5243278476324192e-07 -0.6594879461370533 0.14471712488353089 -3.2069734449725778e-06 -0.64800295901720428 0.1208327599820283 -3.4186594505077828e-06 -0.74896874936327051 0.16571361122849634 -6.5243278476324266e-07 -0.65948794613705342 0.16621187469189047 -2.223348019079609e-06 -0.51977501945214388 0.1207234985942903 -1.6182024021828868e-06 -0.50727930672407029 0.18784698127479085 4.3683487387773438e-08 -0.47985548906186121 0.16571361122849634 -6.5243278476324266e-07 -0.65948794613705342 0.12072349859429031 -1.6182024021828865e-06 -0.5072793067240704 0.14471712488353089 -3.2069734449725782e-06 -0.64800295901720417 0.1208327599820283 -3.4186594505077828e-06 -0.74896874936327051 0.14471712488353089 -3.2069734449725778e-06 -0.64800295901720417 0.1963264550101588 -2.8306602869845051e-06 -0.66122882575825925 0.16571361122849634 -6.5243278476324266e-07 -0.65948794613705342 0.19670121172684765 -1.923511363454072e-06 -0.78294115750143289 0.16621187469189047 -2.2233480190796086e-06 -0.51977501945214377 0.12053060417443807 -2.7674442173667959e-06 -0.46077822354018794 0.14471712488353089 -3.2069734449725778e-06 -0.64800295901720417 0.12072349859429032 -1.6182024021828872e-06 -0.5072793067240704 0.12054062213368207 2.0907643544325915e-07 -0.47959305399077723 0.16571361122849634 -6.5243278476324277e-07 -0.6594879461370533 0.12016736904261649 4.0314601046874124e-07 -0.71982209376009554 0.12072349859429032 -1.6182024021828865e-06 -0.5072793067240704 0.16571361122849634 -6.5243278476324266e-07 -0.65948794613705342 0.12054062213368205 2.090764354432587e-07 -0.47959305399077723 0.18081661351640194 -2.1717864790204772e-07 -0.47813885488114033 0.1207234985942903 -1.6182024021828878e-06 -0.50727930672407018 0.16571361122849634 -6.5243278476324266e-07 -0.65948794613705342 0.18081661351640194 -2.1717864790204716e-07 -0.47813885488114038 0.12054062213368207 2.0907643544325915e-07 -0.47959305399077723 0.12016736904261653 4.0314601046874119e-07 -0.71982209376009554 0.18081661351640196 -2.1717864790204729e-07 -0.47813885488114038 0.12016736904261652 4.0314601046874092e-07 -0.71982209376009543 0.16571361122849634 -6.5243278476324266e-07 -0.65948794613705342 0.18807472567277697 -7.2887399758647167e-07 -0.74856089972033946 0.1201673690426165 4.0314601046874124e-07 -0.71982209376009543 0.12072349859429032 -1.6182024021828865e-06 -0.5072793067240704 0.16571361122849634 -6.5243278476324266e-07 -0.65948794613705342 0.1208327599820283 -3.4186594505077828e-06 -0.74896874936327051 0.16571361122849634 -6.5243278476324266e-07 -0.65948794613705342 0.12072349859429031 -1.6182024021828868e-06 -0.5072793067240704 0.18081661351640199 -2.1717864790204724e-07 -0.47813885488114038 0.18784698127479085 4.3683487387773431e-08 -0.47985548906186121 0.11065539376337837 1.4213866705716155e-06 -0.95913362529195156 0.1201673690426165 4.0314601046874124e-07 -0.71982209376009543 0.1447443874759857 -9.1426364772710444e-07 -0.95928292949252958 0.1208327599820283 -3.4186594505077828e-06 -0.74896874936327051 0.1447443874759857 -9.1426364772710444e-07 -0.95928292949252958 0.16571361122849634 -6.5243278476324192e-07 -0.65948794613705342 0.17548527888368598 -5.2621902127390685e-07 -0.95941283009035894 0.19670121172684765 -1.923511363454072e-06 -0.78294115750143289 0.1447443874759857 -9.1426364772710444e-07 -0.95928292949252958 0.16571361122849634 -6.5243278476324266e-07 -0.65948794613705342 0.12016736904261652 4.0314601046874082e-07 -0.71982209376009532 0.18807472567277697 -7.2887399758647167e-07 -0.74856089972033946 0.1447443874759857 -9.1426364772710444e-07 -0.95928292949252958 0.1208327599820283 -3.4186594505077828e-06 -0.74896874936327051 0.16571361122849634 -6.5243278476324372e-07 -0.65948794613705342 0.19670121172684765 -1.923511363454072e-06 -0.78294115750143289 0.1447443874759857 -9.1426364772710444e-07 -0.95928292949252958 0.12016736904261653 4.0314601046874209e-07 -0.71982209376009543 0.16571361122849634 -6.5243278476324181e-07 -0.65948794613705342 0.12083275998202829 -3.4186594505077828e-06 -0.74896874936327051 0.1447443874759857 -9.1426364772710444e-07 -0.95928292949252958 0.17548527888368598 -5.2621902127390653e-07 -0.95941283009035894 0.16571361122849634 -6.5243278476324266e-07 -0.65948794613705342 0.18807472567277697 -7.2887399758647167e-07 -0.74856089972033946 0.1447443874759857 -9.1426364772710444e-07 -0.95928292949252958 0.12016736904261653 4.0314601046874098e-07 -0.71982209376009543 0.16249075253654227 3.0611923282286065e-07 -0.95935072515111242 0.18807472567277697 -7.2887399758647167e-07 -0.74856089972033946 0.17029854405217379 -5.4610839070519581e-06 -0.95938623584301286 0.1447443874759857 -9.1426364772710444e-07 -0.95928292949252958 0.17548527888368598 -5.2621902127390685e-07 -0.95941283009035894 0.19670121172684768 -1.9235113634540712e-06 -0.78294115750143289 0.1447443874759857 -9.1426364772710444e-07 -0.95928292949252958 0.1624907525365423 3.0611923282286054e-07 -0.95935072515111253 0.17548527888368598 -5.2621902127390685e-07 -0.95941283009035894 0.18807472567277697 -7.2887399758647167e-07 -0.74856089972033946 0.11065539376337837 1.4213866705716155e-06 -0.95913362529195156 0.12549841863893446 8.4285573214990868e-07 -0.95919901702207067 0.1447443874759857 -9.1426364772710444e-07 -0.95928292949252958 0.1201673690426165 4.0314601046874124e-07 -0.71982209376009543 0.1624907525365423 3.0611923282286054e-07 -0.95935072515111253 0.14474438747598567 -9.1426364772710412e-07 -0.95928292949252958 0.12549841863893449 8.4285573214990836e-07 -0.95919901702207067 0.1201673690426165 4.0314601046874124e-07 -0.71982209376009543 0.1447443874759857 -9.1426364772710444e-07 -0.95928292949252958 0.12309314613534121 -3.7761825797916309e-07 -0.95918926053357589 0.11065539376337837 1.4213866705716155e-06 -0.95913362529195156 0.1208327599820283 -3.4186594505077828e-06 -0.74896874936327051 0.12309314613534121 -3.7761825797916336e-07 -0.95918926053357589 0.17029854405217379 -5.4610839070519581e-06 -0.95938623584301286 0.16748561953627056 -2.6120906840617509e-06 -0.80683310013163245 0.12083275998202829 -3.4186594505077823e-06 -0.7489687493632704 0.16571361122849634 -6.5243278476324266e-07 -0.65948794613705342 0.1208327599820283 -3.4186594505077828e-06 -0.74896874936327051 0.16748561953627056 -2.6120906840617504e-06 -0.80683310013163245 0.19670121172684765 -1.923511363454072e-06 -0.78294115750143289 0.17029854405217379 -5.4610839070519581e-06 -0.95938623584301286 0.16748561953627056 -2.6120906840617513e-06 -0.80683310013163245 0.12083275998202832 -3.4186594505077828e-06 -0.74896874936327051 0.19670121172684765 -1.9235113634540712e-06 -0.78294115750143289 0.17029854405217379 -5.4610839070519581e-06 -0.95938623584301286 0.12083275998202832 -3.4186594505077823e-06 -0.74896874936327051 0.1447443874759857 -9.1426364772710444e-07 -0.95928292949252958 0.19670121172684765 -1.9235113634540703e-06 -0.78294115750143289 0.17029854405217379 -5.4610839070519581e-06 -0.95938623584301286 0.12309314613534121 -3.7761825797916336e-07 -0.95918926053357589 0.1447443874759857 -9.1426364772710444e-07 -0.95928292949252958 0.12083275998202832 -3.4186594505077819e-06 -0.74896874936327074 0.14471712488353089 -3.2069734449725778e-06 -0.64800295901720417 0.16571361122849632 -6.5243278476323864e-07 -0.65948794613705364 0.16748561953627056 -2.6120906840617504e-06 -0.80683310013163245 0.19670121172684765 -1.923511363454072e-06 -0.78294115750143289 0.16748561953627056 -2.6120906840617504e-06 -0.80683310013163245 0.14471712488353089 -3.2069734449725782e-06 -0.64800295901720417 0.12024589664815978 -2.866165124513899e-06 -0.79394476255803204 0.1208327599820283 -3.4186594505077828e-06 -0.74896874936327051 0.16748561953627056 -2.6120906840617504e-06 -0.80683310013163245 0.12024589664815978 -2.866165124513899e-06 -0.79394476255803204 0.1230931461353412 -3.7761825797916325e-07 -0.95918926053357589 0.1208327599820283 -3.4186594505077828e-06 -0.74896874936327051 0.144868194894644 -3.1304360009407218e-06 -0.9592753169885021 0.12024589664815978 -2.866165124513899e-06 -0.79394476255803204 0.12309314613534121 -3.7761825797916336e-07 -0.95918926053357589 0.16748561953627056 -2.6120906840617504e-06 -0.80683310013163245 0.12309314613534121 -3.7761825797916336e-07 -0.95918926053357589 0.09664012335261353 -3.3531922810729848e-06 -0.95907938877823551 0.12024589664815978 -2.8661651245138994e-06 -0.79394476255803204 0.144868194894644 -3.1304360009407218e-06 -0.9592753169885021 0.12309314613534121 -3.7761825797916336e-07 -0.95918926053357589 0.17029854405217379 -5.4610839070519581e-06 -0.95938623584301286 0.144868194894644 -3.130436000940721e-06 -0.95927531698850199 0.16748561953627056 -2.6120906840617504e-06 -0.80683310013163245 0.17029854405217379 -5.4610839070519581e-06 -0.95938623584301286 0.144868194894644 -3.1304360009407218e-06 -0.9592753169885021 0.16748561953627056 -2.6120906840617504e-06 -0.80683310013163245 0.19300629311057796 -2.5399715984674744e-06 -0.95950748207940639 0.14471712488353089 -3.2069734449725778e-06 -0.64800295901720417 0.16748561953627059 -2.6120906840617504e-06 -0.80683310013163245 0.1963264550101588 -2.8306602869845051e-06 -0.66122882575825925 0.19670121172684765 -1.923511363454072e-06 -0.78294115750143289 0.17029854405217379 -5.4610839070519581e-06 -0.95938623584301286 0.20587805480671686 -3.1461637926578532e-06 -0.95955555232335354 0.16748561953627056 -2.6120906840617496e-06 -0.80683310013163234 0.19670121172684768 -1.923511363454072e-06 -0.78294115750143289 0.20587805480671686 -3.1461637926578532e-06 -0.95955555232335354 0.17029854405217379 -5.4610839070519581e-06 -0.95938623584301286 0.20542476737732865 -3.0136629459620407e-06 -0.95954960998950989 0.19670121172684765 -1.923511363454072e-06 -0.78294115750143289 0.24083560944288543 5.7878137905173918e-07 -0.67717092557728031 0.19632645501015883 -2.8306602869845055e-06 -0.66122882575825936 0.20575675233585797 -2.1011817144889386e-06 -0.81905517101198988 0.19670121172684762 -1.9235113634540725e-06 -0.78294115750143289 0.16748561953627056 -2.6120906840617504e-06 -0.80683310013163245 0.205756752335858 -2.1011817144889386e-06 -0.81905517101198988 0.1963264550101588 -2.8306602869845051e-06 -0.66122882575825925 0.19670121172684765 -1.923511363454072e-06 -0.78294115750143289 0.205756752335858 -2.1011817144889386e-06 -0.81905517101198988 0.16748561953627056 -2.6120906840617504e-06 -0.80683310013163245 0.20587805480671686 -3.1461637926578532e-06 -0.95955555232335354 0.19670121172684765 -1.923511363454072e-06 -0.78294115750143289 0.19300629311057796 -2.5399715984674744e-06 -0.95950748207940639 0.16748561953627053 -2.6120906840617504e-06 -0.80683310013163234 0.17029854405217379 -5.4610839070519581e-06 -0.95938623584301286 0.20587805480671686 -3.1461637926578532e-06 -0.95955555232335354 0.19300629311057796 -2.5399715984674744e-06 -0.95950748207940639 0.20575675233585802 -2.1011817144889386e-06 -0.81905517101198999 0.16748561953627056 -2.6120906840617504e-06 -0.80683310013163245 0.20587805480671686 -3.1461637926578532e-06 -0.95955555232335354 0.24103812344341938 -2.8760033167433475e-06 -0.95970412031765473 0.24092067694626135 1.4708708956331027e-07 -0.81915978985167026 0.20575675233585797 -2.1011817144889386e-06 -0.81905517101198988 0.20587805480671686 -3.1461637926578532e-06 -0.95955555232335354 0.19300629311057796 -2.5399715984674744e-06 -0.95950748207940639 0.24103812344341938 -2.8760033167433475e-06 -0.95970412031765473 0.205756752335858 -2.1011817144889386e-06 -0.81905517101198988 0.20587805480671686 -3.1461637926578532e-06 -0.95955555232335354 0.20587805480671686 -3.1461637926578532e-06 -0.95955555232335354 0.24103812344341938 -2.8760033167433475e-06 -0.95970412031765473 0.24092067694626135 1.4708708956331037e-07 -0.81915978985167026 0.2410352669977337 -9.6528356604495351e-07 -0.95968626274624858 0.205756752335858 -2.1011817144889386e-06 -0.81905517101198988 0.24092067694626135 1.4708708956331029e-07 -0.81915978985167026 0.24103812344341938 -2.8760033167433475e-06 -0.95970412031765473 0.24087485764417935 -2.8472795521660258e-06 -0.76772105724218032 0.205756752335858 -2.1011817144889386e-06 -0.81905517101198988 0.1963264550101588 -2.8306602869845051e-06 -0.66122882575825925 0.24083560944288543 5.7878137905173833e-07 -0.67717092557728042 0.24087485764417935 -2.8472795521660258e-06 -0.76772105724218032 0.24083560944288543 5.7878137905173918e-07 -0.67717092557728031 0.24092067694626135 1.4708708956331061e-07 -0.81915978985167026 0.205756752335858 -2.1011817144889386e-06 -0.81905517101198988 0.24087485764417935 -2.8472795521660258e-06 -0.76772105724218032 0.24092067694626135 1.4708708956331037e-07 -0.81915978985167026 0.24092129383471111 -1.735672730911446e-07 -0.81737441383440979 0.24083560944288543 5.7878137905173918e-07 -0.67717092557728031 0.19670121172684765 -1.923511363454072e-06 -0.78294115750143289 0.24083560944288543 5.7878137905173918e-07 -0.67717092557728031 0.205756752335858 -2.1011817144889386e-06 -0.81905517101198988 0.24092067694626135 1.4708708956331037e-07 -0.81915978985167026 0.19670121172684765 -1.923511363454072e-06 -0.78294115750143289 0.20587805480671686 -3.1461637926578532e-06 -0.95955555232335354 0.20542476737732865 -3.0136629459620407e-06 -0.95954960998950978 0.2410352669977337 -9.6528356604495351e-07 -0.95968626274624858 0.19670121172684765 -1.923511363454072e-06 -0.78294115750143289 0.24092067694626135 1.4708708956331037e-07 -0.81915978985167026 0.20587805480671684 -3.1461637926578536e-06 -0.95955555232335354 0.2410352669977337 -9.6528356604495351e-07 -0.95968626274624858 0.19670121172684765 -1.923511363454072e-06 -0.78294115750143289 0.24092067694626135 1.4708708956331037e-07 -0.81915978985167026 0.2410352669977337 -9.6528356604495351e-07 -0.95968626274624858 0.24092129383471111 -1.735672730911446e-07 -0.81737441383440979 0.19670121172684765 -1.923511363454072e-06 -0.78294115750143289 0.205756752335858 -2.1011817144889386e-06 -0.81905517101198988 0.20587805480671686 -3.1461637926578532e-06 -0.95955555232335354 0.24092067694626135 1.4708708956331037e-07 -0.81915978985167026 0.19670121172684768 -1.923511363454072e-06 -0.782941157501433 0.2410352669977337 -9.6528356604495351e-07 -0.95968626274624858 0.24092129383471114 -1.7356727309114484e-07 -0.8173744138344099 0.20542476737732865 -3.0136629459620407e-06 -0.95954960998950989 0.24102931049254944 8.6690547567098273e-07 -0.95968990317114511 0.2410352669977337 -9.6528356604495351e-07 -0.95968626274624858 0.20542476737732865 -3.0136629459620412e-06 -0.95954960998950989 0.24092129383471111 -1.735672730911446e-07 -0.81737441383440979 0.19670121172684762 -1.923511363454072e-06 -0.78294115750143278 0.24092129383471111 -1.735672730911446e-07 -0.81737441383440979 0.20542476737732865 -3.0136629459620412e-06 -0.95954960998950989 0.18807472567277697 -7.2887399758647188e-07 -0.74856089972033946 0.19670121172684771 -1.9235113634540716e-06 -0.782941157501433 0.16571361122849634 -6.5243278476324266e-07 -0.65948794613705342 0.18807472567277697 -7.2887399758647157e-07 -0.74856089972033946 0.17548527888368598 -5.2621902127390685e-07 -0.95941283009035905 0.19670121172684765 -1.923511363454072e-06 -0.78294115750143289 0.24085345406761038 -2.7727378328803622e-06 -0.69788915535853813 0.24092129383471111 -1.735672730911446e-07 -0.81737441383440979 0.18807472567277697 -7.2887399758647061e-07 -0.74856089972033946 0.19670121172684762 -1.9235113634540729e-06 -0.78294115750143278 0.20542476737732865 -3.0136629459620407e-06 -0.95954960998950989 0.17548527888368598 -5.2621902127390685e-07 -0.95941283009035894 0.18807472567277697 -7.2887399758647167e-07 -0.74856089972033946 0.19670121172684762 -1.9235113634540725e-06 -0.78294115750143278 0.24085345406761038 -2.7727378328803622e-06 -0.69788915535853813 0.188074725672777 -7.288739975864722e-07 -0.74856089972033946 0.16571361122849637 -6.5243278476324298e-07 -0.65948794613705342 0.19670121172684762 -1.923511363454072e-06 -0.78294115750143289 0.20542476737732865 -3.0136629459620407e-06 -0.95954960998950989 0.24092129383471111 -1.73567273091145e-07 -0.8173744138344099 0.24090822643355869 -5.7744185613036906e-08 -0.80795884886628377 0.24102931049254944 8.6690547567098273e-07 -0.95968990317114511 0.17548527888368598 -5.2621902127390685e-07 -0.95941283009035894 0.20542476737732862 -3.0136629459620407e-06 -0.95954960998951 0.17029854405217379 -5.4610839070519581e-06 -0.95938623584301286 0.19670121172684765 -1.923511363454072e-06 -0.78294115750143289 0.24083560944288543 5.7878137905173918e-07 -0.67717092557728031 0.24092129383471111 -1.735672730911446e-07 -0.81737441383440979 0.24085345406761038 -2.7727378328803622e-06 -0.69788915535853813 0.19670121172684765 -1.923511363454072e-06 -0.78294115750143289 0.20542476737732865 -3.0136629459620407e-06 -0.95954960998950989 0.24090822643355866 -5.774418561303776e-08 -0.80795884886628389 0.24092129383471111 -1.735672730911446e-07 -0.81737441383440979 0.18807472567277697 -7.2887399758647167e-07 -0.74856089972033946 0.24092129383471111 -1.735672730911446e-07 -0.81737441383440979 0.24090822643355869 -5.7744185613037588e-08 -0.80795884886628377 0.24085345406761038 -2.7727378328803622e-06 -0.69788915535853813 0.18807472567277697 -7.2887399758647167e-07 -0.74856089972033946 0.24085345406761038 -2.7727378328803622e-06 -0.69788915535853813 0.24090822643355869 -5.7744185613037072e-08 -0.80795884886628377 0.24081046713255175 1.1228197066861361e-06 -0.64602190797124981 0.18807472567277697 -7.2887399758647167e-07 -0.74856089972033946 0.17548527888368598 -5.2621902127390685e-07 -0.95941283009035894 0.1624907525365423 3.0611923282286054e-07 -0.95935072515111253 0.20307010129166933 -1.4084855948138221e-08 -0.95954616649696578 0.18807472567277697 -7.2887399758647167e-07 -0.74856089972033946 0.20307010129166933 -1.4084855948138201e-08 -0.95954616649696589 0.20542476737732865 -3.0136629459620407e-06 -0.95954960998950989 0.17548527888368598 -5.2621902127390685e-07 -0.95941283009035894 0.18807472567277697 -7.2887399758647167e-07 -0.74856089972033946 0.20307010129166933 -1.4084855948138201e-08 -0.95954616649696589 0.24090822643355869 -5.7744185613036906e-08 -0.80795884886628377 0.20542476737732865 -3.0136629459620407e-06 -0.95954960998950989 0.18807472567277697 -7.2887399758647167e-07 -0.74856089972033946 0.24102931049254944 8.6690547567098273e-07 -0.95968990317114511 0.24090822643355869 -5.7744185613036906e-08 -0.80795884886628377 0.20307010129166933 -1.4084855948138201e-08 -0.95954616649696589 0.24103266976273469 5.1752531179159648e-07 -0.9596883296887363 0.24090822643355869 -5.7744185613036906e-08 -0.80795884886628377 0.20307010129166936 -1.4084855948137626e-08 -0.95954616649696589 0.20542476737732868 -3.0136629459620416e-06 -0.95954960998950989 0.24102931049254944 8.6690547567098273e-07 -0.95968990317114511 0.19500189338806362 2.0481825219780005e-06 -0.95949552619963763 0.18807472567277703 -7.2887399758646733e-07 -0.74856089972033946 0.16549095533941321 -7.2537922455841303e-07 -0.65858551510213503 0.18728192629889084 2.8756290835711837e-06 -0.78353595583802627 0.19500189338806362 2.0481825219780005e-06 -0.95949552619963763 0.24089063424672763 1.8582373733210941e-06 -0.77578062518257351 0.18807472567277697 -7.2887399758647167e-07 -0.74856089972033946 0.18728192629889084 2.8756290835711837e-06 -0.78353595583802627 0.24103266976273469 5.1752531179159648e-07 -0.9596883296887363 0.24090822643355869 -5.7744185613036906e-08 -0.80795884886628377 0.20307010129166933 -1.4084855948138201e-08 -0.95954616649696589 0.24089063424672763 1.8582373733210941e-06 -0.77578062518257351 0.16549095533941321 -7.253792245584089e-07 -0.65858551510213492 0.18807472567277697 -7.2887399758647146e-07 -0.74856089972033957 0.24089063424672763 1.8582373733210947e-06 -0.77578062518257362 0.18728192629889084 2.8756290835711846e-06 -0.78353595583802627 0.20307010129166933 -1.4084855948138201e-08 -0.95954616649696589 0.24103266976273469 5.1752531179159627e-07 -0.95968832968873641 0.24089063424672763 1.8582373733210941e-06 -0.77578062518257351 0.19500189338806362 2.0481825219780005e-06 -0.95949552619963763 0.24103266976273469 5.1752531179159648e-07 -0.9596883296887363 0.24089063424672763 1.8582373733210941e-06 -0.77578062518257351 0.19500189338806362 2.0481825219780005e-06 -0.95949552619963763 0.24103402910258911 1.0882374607965087e-06 -0.95968983811085085 0.20307010129166933 -1.4084855948138201e-08 -0.95954616649696589 0.1624907525365423 3.0611923282286054e-07 -0.95935072515111253 0.19500189338806362 2.0481825219780005e-06 -0.95949552619963763 0.18807472567277697 -7.2887399758647167e-07 -0.74856089972033946 0.20307010129166933 -1.4084855948138201e-08 -0.95954616649696589 0.19500189338806362 2.0481825219780005e-06 -0.95949552619963763 0.24089063424672763 1.8582373733210941e-06 -0.77578062518257351 0.18807472567277697 -7.2887399758647167e-07 -0.74856089972033946 0.24089063424672763 1.8582373733210941e-06 -0.77578062518257351 0.24081046713255172 1.1228197066861361e-06 -0.6460219079712497 0.24090822643355869 -5.7744185613036906e-08 -0.80795884886628377 0.18807472567277697 -7.2887399758647167e-07 -0.74856089972033946 0.24089063424672763 1.8582373733210941e-06 -0.77578062518257351 0.24090822643355869 -5.7744185613036906e-08 -0.80795884886628377 0.20307010129166933 -1.4084855948138084e-08 -0.95954616649696589 0.18807472567277697 -7.2887399758647167e-07 -0.74856089972033946 0.24079036506778462 2.5049840761505914e-06 -0.58553136450411436 0.18807472567277697 -7.288739975864722e-07 -0.74856089972033935 0.18081661351640196 -2.1717864790204721e-07 -0.47813885488114038 0.24081046713255175 1.1228197066861361e-06 -0.64602190797124981 0.24079036506778462 2.5049840761505914e-06 -0.58553136450411436 0.18081661351640196 -2.1717864790204711e-07 -0.47813885488114033 0.16549095533941319 -7.2537922455840847e-07 -0.65858551510213481 0.1864046503550727 2.6372143621586858e-06 -0.47807162518274465 0.24079036506778462 2.5049840761505914e-06 -0.58553136450411436 0.16549095533941324 -7.2537922455840794e-07 -0.65858551510213492 0.24083511136936905 -2.3196411381098451e-06 -0.66561401283964094 0.18640465035507273 2.6372143621586858e-06 -0.47807162518274465 0.24089063424672763 1.8582373733210941e-06 -0.77578062518257351 0.24079036506778462 2.5049840761505919e-06 -0.58553136450411425 0.16549095533941321 -7.2537922455840636e-07 -0.65858551510213492 0.18728192629889084 2.8756290835711837e-06 -0.78353595583802627 0.24079036506778462 2.5049840761505914e-06 -0.58553136450411436 0.24074643426062881 2.7739740264633203e-06 -0.4396161783082943 0.18081661351640196 -2.1717864790204729e-07 -0.47813885488114038 0.1864046503550727 2.6372143621586854e-06 -0.4780716251827446 0.18081661351640196 -2.1717864790204729e-07 -0.47813885488114038 0.18807472567277694 -7.2887399758647188e-07 -0.74856089972033946 0.24079036506778465 2.5049840761505914e-06 -0.58553136450411436 0.16549095533941321 -7.253792245584089e-07 -0.65858551510213492 0.24089063424672763 1.8582373733210941e-06 -0.77578062518257351 0.16549095533941321 -7.253792245584089e-07 -0.65858551510213492 0.24079036506778465 2.5049840761505914e-06 -0.58553136450411447 0.18807472567277697 -7.2887399758647167e-07 -0.74856089972033946 0.24081046713255175 1.1228197066861361e-06 -0.64602190797124981 0.24089063424672763 1.8582373733210941e-06 -0.77578062518257351 0.24079036506778462 2.5049840761505914e-06 -0.58553136450411436 0.18807472567277697 -7.2887399758647199e-07 -0.74856089972033935 0.24079036506778462 2.5049840761505914e-06 -0.58553136450411436 0.24074832117609074 1.2657762616438321e-06 -0.49862444877883066 0.24081046713255175 1.1228197066861361e-06 -0.64602190797124981 0.18081661351640196 -2.1717864790204729e-07 -0.47813885488114038 0.24079036506778462 2.5049840761505914e-06 -0.58553136450411436 0.24074643426062881 2.7739740264633203e-06 -0.4396161783082943 0.24074832117609074 1.2657762616438318e-06 -0.49862444877883061 0.18081661351640196 -2.1717864790204729e-07 -0.47813885488114038 0.24079036506778462 2.5049840761505914e-06 -0.58553136450411436 0.24075253987030157 -8.4534320282983658e-07 -0.48751352882991533 0.24074643426062881 2.7739740264633203e-06 -0.4396161783082943 0.18640465035507273 2.6372143621586863e-06 -0.47807162518274471 0.24083511136936905 -2.3196411381098451e-06 -0.66561401283964094 0.18640465035507275 2.6372143621586858e-06 -0.47807162518274471 0.16549095533941324 -7.2537922455841811e-07 -0.65858551510213492 0.18728192629889084 2.8756290835711837e-06 -0.78353595583802627 0.16549095533941321 -7.253792245584089e-07 -0.65858551510213492 0.18640465035507278 2.6372143621586854e-06 -0.47807162518274471 0.19602920336988658 2.7735017151834574e-06 -0.65648620248893574 0.1872819262988909 2.8756290835711897e-06 -0.78353595583802638 0.24083511136936905 -2.3196411381098451e-06 -0.66561401283964094 0.16549095533941321 -7.2537922455843336e-07 -0.6585855151021347 0.24079036506778462 2.5049840761505914e-06 -0.58553136450411436 0.18728192629889084 2.8756290835711837e-06 -0.78353595583802627 0.24089063424672763 1.8582373733210941e-06 -0.77578062518257351 0.24083511136936905 -2.3196411381098451e-06 -0.66561401283964094 0.24079036506778462 2.5049840761505914e-06 -0.58553136450411436 0.18728192629889084 2.8756290835711837e-06 -0.78353595583802627 0.24083511136936905 -2.3196411381098451e-06 -0.66561401283964094 0.19602920336988658 2.7735017151834527e-06 -0.65648620248893563 0.18640465035507275 2.6372143621586858e-06 -0.47807162518274471 0.18728192629889084 2.8756290835711837e-06 -0.78353595583802627 0.24075253987030157 -8.4534320282983648e-07 -0.48751352882991533 0.24079036506778462 2.5049840761505914e-06 -0.58553136450411436 0.24083511136936905 -2.3196411381098451e-06 -0.66561401283964094 0.18640465035507275 2.6372143621586858e-06 -0.47807162518274471 0.24083511136936905 -2.3196411381098451e-06 -0.66561401283964094 0.20897165146252394 2.5992444323274026e-06 -0.48558912185298747 0.24075253987030157 -8.4534320282983648e-07 -0.48751352882991533 0.18640465035507275 2.6372143621586858e-06 -0.47807162518274471 0.24078221977792255 2.815811351499375e-06 -0.57577352171907625 0.24075253987030157 -8.4534320282983648e-07 -0.48751352882991533 0.24083511136936905 -2.3196411381098451e-06 -0.66561401283964094 0.20897165146252397 2.5992444323274018e-06 -0.48558912185298747 0.20897165146252397 2.5992444323274018e-06 -0.48558912185298747 0.24078221977792255 2.815811351499375e-06 -0.57577352171907625 0.24075253987030157 -8.4534320282983648e-07 -0.48751352882991533 0.24072419030264661 2.5785917652492939e-06 -0.38383242445512905 0.24083511136936905 -2.3196411381098451e-06 -0.66561401283964094 0.19602920336988658 2.7735017151834519e-06 -0.65648620248893563 0.24078221977792255 2.815811351499375e-06 -0.57577352171907625 0.20897165146252394 2.5992444323274001e-06 -0.4855891218529873 0.20897165146252397 2.5992444323274018e-06 -0.48558912185298747 0.19602920336988658 2.7735017151834519e-06 -0.65648620248893563 0.16445087184182225 3.2205248848131486e-06 -0.50183534716940281 0.18640465035507275 2.6372143621586858e-06 -0.47807162518274471 0.19602920336988658 2.7735017151834523e-06 -0.65648620248893563 0.20897165146252397 2.5992444323274018e-06 -0.48558912185298747 0.24083511136936905 -2.3196411381098442e-06 -0.66561401283964094 0.18640465035507275 2.6372143621586858e-06 -0.47807162518274471 0.24083511136936905 -2.3196411381098451e-06 -0.66561401283964094 0.19602920336988658 2.7735017151834527e-06 -0.65648620248893574 0.24087861289335014 3.0660653494045223e-06 -0.76771872237768246 0.24078221977792255 2.815811351499375e-06 -0.57577352171907625 0.24087861289335014 3.0660653494045223e-06 -0.76771872237768246 0.20575984455894938 2.0547856805119771e-06 -0.81905228456748391 0.19602920336988658 2.7735017151834523e-06 -0.65648620248893563 0.24083511136936905 -2.3196411381098451e-06 -0.66561401283964094 0.20575984455894941 2.0547856805119771e-06 -0.81905228456748391 0.24083511136936905 -2.3196411381098446e-06 -0.66561401283964094 0.24092100556540508 -1.2514175230976368e-06 -0.81915681019728492 0.18728192629889082 2.8756290835711846e-06 -0.78353595583802638 0.20575984455894941 2.0547856805119771e-06 -0.81905228456748391 0.24087861289335014 3.0660653494045223e-06 -0.76771872237768246 0.24092100556540508 -1.2514175230976368e-06 -0.81915681019728481 0.24083511136936908 -2.3196411381098434e-06 -0.66561401283964117 0.20587419498082013 2.5395607539726713e-06 -0.95955764286241441 0.24103500941326436 2.8115833342254647e-06 -0.95969921870077657 0.24103402910258911 1.0882374607965087e-06 -0.95968983811085085 0.24092100556540508 -1.2514175230976368e-06 -0.81915681019728492 0.20587419498082013 2.5395607539726713e-06 -0.95955764286241441 0.19299740602423437 2.6705183887151218e-06 -0.9594992307447251 0.24103500941326436 2.8115833342254651e-06 -0.95969921870077657 0.20575984455894941 2.0547856805119771e-06 -0.81905228456748391 0.24087861289335014 3.0660653494045223e-06 -0.76771872237768246 0.24092100556540508 -1.2514175230976368e-06 -0.81915681019728492 0.24103500941326436 2.8115833342254651e-06 -0.95969921870077657 0.20575984455894941 2.0547856805119771e-06 -0.81905228456748391 0.24092100556540508 -1.2514175230976368e-06 -0.81915681019728492 0.20587419498082013 2.5395607539726717e-06 -0.95955764286241441 0.24103500941326436 2.8115833342254651e-06 -0.95969921870077657 0.20575984455894941 2.0547856805119771e-06 -0.81905228456748391 0.20587419498082013 2.5395607539726713e-06 -0.95955764286241441 0.24103402910258911 1.0882374607965087e-06 -0.95968983811085085 0.24089063424672763 1.8582373733210935e-06 -0.77578062518257351 0.24092100556540508 -1.2514175230976368e-06 -0.81915681019728492 0.24103402910258911 1.0882374607965087e-06 -0.95968983811085085 0.24089063424672763 1.8582373733210941e-06 -0.77578062518257351 0.19500189338806359 2.0481825219780009e-06 -0.95949552619963763 0.20587419498082013 2.5395607539726713e-06 -0.95955764286241441 0.20587419498082013 2.5395607539726713e-06 -0.95955764286241441 0.24092100556540508 -1.2514175230976366e-06 -0.81915681019728492 0.24089063424672763 1.8582373733210941e-06 -0.77578062518257351 0.18728192629889084 2.8756290835711842e-06 -0.78353595583802627 0.24089063424672763 1.8582373733210941e-06 -0.77578062518257351 0.24092100556540508 -1.2514175230976368e-06 -0.81915681019728492 0.24083511136936905 -2.3196411381098451e-06 -0.66561401283964094 0.18728192629889084 2.8756290835711837e-06 -0.78353595583802627 0.16740347621331711 4.7909511225359142e-06 -0.95937103247304956 0.20587419498082013 2.5395607539726713e-06 -0.95955764286241441 0.19500189338806362 2.0481825219780005e-06 -0.95949552619963763 0.18728192629889084 2.8756290835711837e-06 -0.78353595583802627 0.19500189338806362 2.0481825219780005e-06 -0.95949552619963763 0.20587419498082013 2.5395607539726713e-06 -0.95955764286241441 0.24089063424672763 1.8582373733210941e-06 -0.77578062518257351 0.18728192629889084 2.8756290835711837e-06 -0.78353595583802627 0.20587419498082013 2.5395607539726713e-06 -0.95955764286241441 0.19299740602423437 2.6705183887151218e-06 -0.9594992307447251 0.20575984455894941 2.0547856805119771e-06 -0.81905228456748391 0.18728192629889084 2.8756290835711837e-06 -0.78353595583802627 0.16876719928645645 2.6208128168625001e-06 -0.79684104452528826 0.20575984455894941 2.0547856805119771e-06 -0.81905228456748391 0.19299740602423437 2.6705183887151218e-06 -0.9594992307447251 0.18728192629889084 2.8756290835711837e-06 -0.78353595583802627 0.20587419498082013 2.5395607539726713e-06 -0.95955764286241441 0.16740347621331711 4.7909511225359142e-06 -0.95937103247304956 0.19299740602423437 2.6705183887151218e-06 -0.9594992307447251 0.18728192629889084 2.8756290835711837e-06 -0.78353595583802627 0.24092100556540508 -1.2514175230976368e-06 -0.81915681019728492 0.20587419498082013 2.5395607539726717e-06 -0.95955764286241441 0.20575984455894938 2.0547856805119776e-06 -0.8190522845674838 0.18728192629889082 2.8756290835711842e-06 -0.78353595583802627 0.20575984455894941 2.0547856805119771e-06 -0.81905228456748391 0.16876719928645645 2.6208128168625001e-06 -0.79684104452528826 0.19602920336988658 2.7735017151834523e-06 -0.65648620248893563 0.18728192629889084 2.8756290835711842e-06 -0.78353595583802638 0.19602920336988658 2.7735017151834523e-06 -0.65648620248893563 0.24083511136936905 -2.3196411381098442e-06 -0.66561401283964094 0.20575984455894941 2.0547856805119771e-06 -0.81905228456748391 0.18728192629889084 2.8756290835711837e-06 -0.78353595583802627 0.16740347621331711 4.7909511225359142e-06 -0.95937103247304956 0.1204149631133925 2.221500828248006e-06 -0.74714933944409656 0.16876719928645645 2.6208128168625001e-06 -0.79684104452528837 0.18728192629889084 2.8756290835711837e-06 -0.78353595583802627 0.16740347621331711 4.7909511225359142e-06 -0.95937103247304956 0.14730690696730933 1.3606437312755181e-06 -0.95929358894673344 0.1204149631133925 2.2215008282480064e-06 -0.74714933944409667 0.18728192629889084 2.8756290835711837e-06 -0.78353595583802627 0.19602920336988658 2.7735017151834523e-06 -0.65648620248893563 0.16876719928645645 2.6208128168625001e-06 -0.79684104452528826 0.14763740681034485 2.3878861033709663e-06 -0.65075457252558611 0.18728192629889084 2.8756290835711837e-06 -0.78353595583802627 0.14763740681034485 2.3878861033709663e-06 -0.65075457252558611 0.16876719928645645 2.6208128168625001e-06 -0.79684104452528826 0.1204149631133925 2.2215008282480064e-06 -0.74714933944409667 0.18728192629889084 2.8756290835711837e-06 -0.78353595583802627 0.16740347621331711 4.7909511225359142e-06 -0.95937103247304956 0.16876719928645645 2.6208128168624996e-06 -0.79684104452528814 0.19299740602423437 2.6705183887151218e-06 -0.9594992307447251 0.18728192629889084 2.8756290835711837e-06 -0.78353595583802627 0.12298470182086804 2.6155115536128437e-06 -0.80125623839919913 0.14487075185132195 3.1556152562907112e-06 -0.95928437192764704 0.16740347621331714 4.7909511225359151e-06 -0.95937103247304956 0.16876719928645645 2.6208128168625001e-06 -0.79684104452528826 0.16876719928645645 2.6208128168625001e-06 -0.79684104452528826 0.14487075185132198 3.1556152562907112e-06 -0.95928437192764693 0.16740347621331711 4.7909511225359142e-06 -0.95937103247304956 0.19299740602423437 2.6705183887151218e-06 -0.9594992307447251 0.19500189338806362 2.0481825219780005e-06 -0.95949552619963763 0.14730690696730933 1.3606437312755181e-06 -0.95929358894673344 0.16740347621331711 4.7909511225359142e-06 -0.95937103247304956 0.18728192629889084 2.8756290835711837e-06 -0.78353595583802627 0.12269561059585124 4.4024032814847207e-07 -0.95918073372433499 0.16740347621331711 4.7909511225359142e-06 -0.95937103247304956 0.14730690696730933 1.3606437312755181e-06 -0.95929358894673344 0.1204149631133925 2.2215008282480064e-06 -0.74714933944409667 0.12269561059585124 4.4024032814847207e-07 -0.95918073372433499 0.12298470182086804 2.6155115536128437e-06 -0.80125623839919913 0.16740347621331711 4.7909511225359142e-06 -0.95937103247304956 0.1204149631133925 2.2215008282480064e-06 -0.74714933944409667 0.14487075185132195 3.1556152562907112e-06 -0.95928437192764704 0.12269561059585124 4.4024032814847207e-07 -0.95918073372433499 0.096645545033669331 3.5057977458046899e-06 -0.95909174874673175 0.12298470182086804 2.6155115536128437e-06 -0.80125623839919913 0.16740347621331711 4.7909511225359142e-06 -0.95937103247304956 0.12269561059585124 4.4024032814847207e-07 -0.95918073372433499 0.14487075185132195 3.1556152562907112e-06 -0.95928437192764704 0.12298470182086803 2.6155115536128441e-06 -0.80125623839919891 0.16740347621331711 4.7909511225359142e-06 -0.95937103247304956 0.12298470182086804 2.6155115536128441e-06 -0.80125623839919913 0.16876719928645645 2.6208128168625001e-06 -0.79684104452528826 0.12041496311339249 2.2215008282480064e-06 -0.74714933944409667 0.12298470182086804 2.6155115536128437e-06 -0.80125623839919913 0.14763740681034485 2.3878861033709663e-06 -0.65075457252558611 0.16876719928645645 2.6208128168625001e-06 -0.79684104452528826 0.1204149631133925 2.2215008282480064e-06 -0.74714933944409667 0.14763740681034485 2.3878861033709663e-06 -0.65075457252558611 0.12050599184941356 1.0142916990298584e-06 -0.50805203513604769 0.16549095533941321 -7.2537922455840964e-07 -0.65858551510213492 0.12041496311339249 2.2215008282480073e-06 -0.74714933944409667 0.14763740681034485 2.3878861033709663e-06 -0.65075457252558611 0.12050599184941356 1.0142916990298573e-06 -0.50805203513604769 0.16445087184182225 3.2205248848131486e-06 -0.50183534716940281 0.18640465035507275 2.6372143621586858e-06 -0.47807162518274471 0.14763740681034485 2.3878861033709663e-06 -0.65075457252558611 0.11051556518165766 2.3130367289378408e-06 -0.66151831748825241 0.12050599184941359 1.0142916990298577e-06 -0.50805203513604769 0.1204149631133925 2.2215008282480064e-06 -0.74714933944409667 0.11051556518165766 2.3130367289378408e-06 -0.66151831748825241 0.14763740681034485 2.3878861033709663e-06 -0.65075457252558611 0.12298470182086804 2.6155115536128437e-06 -0.80125623839919913 0.1204149631133925 2.2215008282480064e-06 -0.74714933944409667 0.14763740681034485 2.3878861033709663e-06 -0.65075457252558611 0.16549095533941319 -7.253792245584089e-07 -0.65858551510213481 0.12050599184941357 1.0142916990298582e-06 -0.5080520351360478 0.18640465035507275 2.6372143621586858e-06 -0.47807162518274471 0.19602920336988658 2.7735017151834523e-06 -0.65648620248893563 0.14763740681034485 2.3878861033709658e-06 -0.65075457252558611 0.16549095533941319 -7.2537922455840996e-07 -0.65858551510213481 0.18728192629889084 2.8756290835711837e-06 -0.78353595583802627 0.14763740681034485 2.3878861033709663e-06 -0.65075457252558611 0.1204149631133925 2.2215008282480064e-06 -0.74714933944409667 0.16549095533941321 -7.2537922455840974e-07 -0.65858551510213481 0.18728192629889084 2.8756290835711837e-06 -0.78353595583802627 0.19602920336988658 2.7735017151834523e-06 -0.65648620248893563 0.16549095533941321 -7.2537922455840879e-07 -0.65858551510213492 0.14763740681034485 2.3878861033709663e-06 -0.65075457252558611 0.18640465035507275 2.6372143621586846e-06 -0.47807162518274476 0.19602920336988658 2.7735017151834523e-06 -0.65648620248893563 0.14763740681034485 2.3878861033709663e-06 -0.65075457252558611 0.16445087184182225 3.2205248848131482e-06 -0.5018353471694027 0.18640465035507275 2.6372143621586858e-06 -0.47807162518274471 0.14763740681034485 2.3878861033709663e-06 -0.65075457252558611 0.11051556518165766 2.3130367289378408e-06 -0.66151831748825241 0.12525877043522263 2.7439642098960071e-06 -0.47960149868838475 0.12050599184941357 1.0142916990298575e-06 -0.50805203513604769 0.14763740681034485 2.3878861033709663e-06 -0.65075457252558611 0.12525877043522263 2.7439642098960071e-06 -0.47960149868838475 0.16445087184182225 3.2205248848131486e-06 -0.50183534716940281 0.1205059918494136 1.0142916990298575e-06 -0.5080520351360478 0.16549095533941321 -7.253792245584089e-07 -0.65858551510213492 0.12050599184941356 1.0142916990298579e-06 -0.50805203513604758 0.1201673690426165 4.031460104687413e-07 -0.71982209376009543 0.1204149631133925 2.2215008282480064e-06 -0.74714933944409667 0.16549095533941321 -7.253792245584089e-07 -0.65858551510213492 0.12054062213368208 2.0907643544325938e-07 -0.47959305399077723 0.18081661351640194 -2.1717864790204742e-07 -0.47813885488114027 0.1201673690426165 4.0314601046874124e-07 -0.71982209376009543 0.16549095533941321 -7.253792245584089e-07 -0.65858551510213492 0.1201673690426165 4.0314601046874124e-07 -0.71982209376009543 0.18081661351640196 -2.1717864790204729e-07 -0.47813885488114038 0.18807472567277697 -7.2887399758647167e-07 -0.74856089972033946 0.12054062213368207 2.0907643544325915e-07 -0.47959305399077723 0.16549095533941321 -7.2537922455840858e-07 -0.65858551510213492 0.18081661351640196 -2.1717864790204729e-07 -0.47813885488114038 0.12050599184941357 1.0142916990298579e-06 -0.50805203513604769 0.18081661351640196 -2.1717864790204729e-07 -0.47813885488114038 0.12050599184941357 1.0142916990298573e-06 -0.50805203513604769 0.16549095533941321 -7.253792245584089e-07 -0.65858551510213492 0.18640465035507281 2.6372143621586871e-06 -0.47807162518274476 0.16549095533941321 -7.253792245584089e-07 -0.65858551510213492 0.12054062213368207 2.0907643544325946e-07 -0.47959305399077723 0.12016736904261649 4.0314601046874135e-07 -0.71982209376009543 0.12050599184941355 1.0142916990298588e-06 -0.50805203513604758 0.18807472567277697 -7.2887399758647167e-07 -0.74856089972033946 0.14730690696730933 1.3606437312755177e-06 -0.95929358894673356 0.12016736904261649 4.0314601046874135e-07 -0.71982209376009532 0.16249075253654233 3.0611923282286081e-07 -0.95935072515111253 0.18807472567277697 -7.2887399758647167e-07 -0.74856089972033946 0.12016736904261653 4.0314601046874071e-07 -0.71982209376009543 0.14730690696730933 1.3606437312755181e-06 -0.95929358894673344 0.16549095533941321 -7.2537922455840869e-07 -0.65858551510213492 0.14730690696730933 1.3606437312755181e-06 -0.95929358894673344 0.16549095533941321 -7.2537922455840911e-07 -0.65858551510213492 0.19500189338806362 2.0481825219780005e-06 -0.95949552619963763 0.18807472567277697 -7.2887399758647167e-07 -0.74856089972033957 0.16549095533941321 -7.253792245584089e-07 -0.65858551510213492 0.1204149631133925 2.2215008282480064e-06 -0.74714933944409667 0.14730690696730933 1.3606437312755179e-06 -0.95929358894673333 0.18728192629889084 2.8756290835711854e-06 -0.78353595583802615 0.16549095533941321 -7.253792245584089e-07 -0.65858551510213492 0.1201673690426165 4.0314601046874124e-07 -0.71982209376009554 0.1473069069673093 1.3606437312755185e-06 -0.95929358894673333 0.12041496311339249 2.2215008282480064e-06 -0.74714933944409667 0.19500189338806362 2.0481825219780005e-06 -0.95949552619963763 0.16549095533941321 -7.2537922455841049e-07 -0.65858551510213492 0.14730690696730933 1.3606437312755181e-06 -0.95929358894673344 0.18728192629889084 2.8756290835711837e-06 -0.78353595583802627 0.1624907525365423 3.0611923282286054e-07 -0.95935072515111253 0.14730690696730933 1.3606437312755181e-06 -0.95929358894673344 0.19500189338806362 2.0481825219780005e-06 -0.95949552619963763 0.18807472567277697 -7.2887399758647167e-07 -0.74856089972033946 0.11065287498000495 -8.7333129250861742e-07 -0.95913274925055125 0.14730690696730933 1.3606437312755181e-06 -0.95929358894673344 0.1201673690426165 4.0314601046874124e-07 -0.71982209376009543 0.1204149631133925 2.2215008282480064e-06 -0.74714933944409667 0.12269561059585124 4.4024032814847207e-07 -0.95918073372433499 0.14730690696730933 1.3606437312755185e-06 -0.95929358894673344 0.11065287498000495 -8.7333129250861742e-07 -0.95913274925055125 0.1204149631133925 2.2215008282480064e-06 -0.74714933944409667 0.12549841863893449 8.4285573214990836e-07 -0.95919901702207067 0.11065287498000495 -8.7333129250861742e-07 -0.95913274925055125 0.14730690696730933 1.3606437312755181e-06 -0.95929358894673344 0.1201673690426165 4.0314601046874124e-07 -0.71982209376009543 0.1624907525365423 3.0611923282286054e-07 -0.95935072515111253 0.12549841863893449 8.4285573214990836e-07 -0.95919901702207067 0.14730690696730933 1.3606437312755181e-06 -0.95929358894673344 0.1201673690426165 4.0314601046874124e-07 -0.71982209376009543 0.075167476974236952 2.4191738278144553e-06 -0.65714263155847596 0.052720768790100014 -6.0825626894115539e-07 -0.74449860272427359 0.078399939867832127 1.1976442531927338e-06 -0.95902574146731923 0.044546609207525123 -7.0293110884942481e-07 -0.78263205834116412 0.079558400524090259 -1.6069534008810235e-06 -0.9590314475694437 0.078399939867832127 1.1976442531927338e-06 -0.95902574146731923 0.12549841863893449 8.4285573214990836e-07 -0.95919901702207067 0.1201673690426165 4.0314601046874108e-07 -0.71982209376009532 0.11065287498000495 -8.7333129250861742e-07 -0.95913274925055125 0.075167476974236952 2.4191738278144553e-06 -0.65714263155847596 0.075067142394939709 1.6153082164293061e-06 -0.95902233702940798 0.1204149631133925 2.2215008282480064e-06 -0.74714933944409667 0.079558400524090259 -1.6069534008810235e-06 -0.9590314475694437 0.078399939867832127 1.1976442531927338e-06 -0.95902574146731923 0.1201673690426165 4.0314601046874145e-07 -0.71982209376009532 0.052720768790100035 -6.0825626894115454e-07 -0.74449860272427371 0.11065287498000495 -8.7333129250861742e-07 -0.95913274925055125 0.1201673690426165 4.0314601046874082e-07 -0.71982209376009543 0.075167476974236952 2.4191738278144553e-06 -0.65714263155847596 0.1204149631133925 2.2215008282480064e-06 -0.74714933944409667 0.078399939867832127 1.1976442531927338e-06 -0.95902574146731923 0.075167476974236952 2.4191738278144549e-06 -0.65714263155847596 0.12016736904261649 4.0314601046874209e-07 -0.71982209376009532 0.052720768790100021 -6.0825626894115476e-07 -0.74449860272427359 0.11065287498000495 -8.7333129250861742e-07 -0.95913274925055125 0.12549841863893449 8.4285573214990836e-07 -0.95919901702207067 0.078399939867832127 1.1976442531927338e-06 -0.95902574146731923 0.1201673690426165 4.0314601046874124e-07 -0.71982209376009543 0.075067142394939709 1.6153082164293061e-06 -0.95902233702940798 0.11065287498000495 -8.7333129250861742e-07 -0.95913274925055125 0.078399939867832127 1.1976442531927338e-06 -0.95902574146731923 0.075167476974236952 2.4191738278144553e-06 -0.65714263155847596 0.11065287498000495 -8.7333129250861742e-07 -0.95913274925055125 0.078399939867832127 1.1976442531927338e-06 -0.95902574146731923 0.075167476974236952 2.4191738278144553e-06 -0.65714263155847596 0.1201673690426165 4.0314601046874124e-07 -0.71982209376009543 0.078399939867832127 1.1976442531927338e-06 -0.95902574146731923 0.075067142394939695 1.6153082164293059e-06 -0.95902233702940798 0.075167476974236966 2.4191738278144566e-06 -0.65714263155847596 0.04454660920752513 -7.0293110884942439e-07 -0.78263205834116423 0.075167476974236952 2.4191738278144553e-06 -0.65714263155847596 0.12054062213368207 2.0907643544325872e-07 -0.47959305399077717 0.05973304214976459 4.4059680971283411e-07 -0.43250406457022267 0.12050599184941357 1.0142916990298575e-06 -0.50805203513604758 0.075167476974236952 2.4191738278144553e-06 -0.65714263155847596 0.1201673690426165 4.0314601046874124e-07 -0.71982209376009543 0.12054062213368208 2.0907643544325885e-07 -0.47959305399077723 0.12050599184941357 1.0142916990298575e-06 -0.50805203513604769 0.075167476974236952 2.4191738278144553e-06 -0.65714263155847596 0.12050599184941359 1.0142916990298575e-06 -0.50805203513604769 0.059733042149764583 4.4059680971283448e-07 -0.43250406457022267 0.054299928027270232 2.2616486841708686e-06 -0.46212046912569327 0.12054062213368207 2.0907643544325915e-07 -0.47959305399077723 0.075167476974236952 2.4191738278144553e-06 -0.65714263155847596 0.059733042149764583 4.4059680971283411e-07 -0.43250406457022267 0.052720768790100021 -6.0825626894115476e-07 -0.74449860272427359 0.075167476974236952 2.4191738278144553e-06 -0.65714263155847596 0.12054062213368207 2.090764354432587e-07 -0.47959305399077723 0.1201673690426165 4.0314601046874124e-07 -0.71982209376009543 0.052720768790100014 -6.082562689411555e-07 -0.74449860272427348 0.1201673690426165 4.0314601046874124e-07 -0.71982209376009543 0.12050599184941359 1.0142916990298579e-06 -0.50805203513604769 0.075167476974236952 2.4191738278144553e-06 -0.65714263155847596 0.1204149631133925 2.2215008282480064e-06 -0.74714933944409667 0.07826195787729015 3.1974186994246386e-06 -0.57562504116706048 0.11051556518165766 2.3130367289378408e-06 -0.66151831748825241 0.075167476974236952 2.4191738278144553e-06 -0.65714263155847596 0.12050599184941356 1.0142916990298584e-06 -0.50805203513604769 0.11051556518165766 2.3130367289378408e-06 -0.66151831748825241 0.075023331342177688 2.8300913439941014e-06 -0.78131683400777174 0.07826195787729015 3.1974186994246386e-06 -0.57562504116706048 0.075167476974236952 2.4191738278144553e-06 -0.65714263155847596 0.11051556518165766 2.3130367289378408e-06 -0.66151831748825241 0.075167476974236952 2.4191738278144553e-06 -0.65714263155847596 0.12050599184941357 1.0142916990298579e-06 -0.50805203513604769 0.1204149631133925 2.2215008282480064e-06 -0.74714933944409667 0.07826195787729015 3.1974186994246386e-06 -0.57562504116706048 0.075167476974236952 2.4191738278144553e-06 -0.65714263155847596 0.075023331342177701 2.8300913439941027e-06 -0.78131683400777185 0.04454660920752513 -7.0293110884942439e-07 -0.78263205834116423 0.07826195787729015 3.1974186994246386e-06 -0.57562504116706048 0.12050599184941355 1.0142916990298584e-06 -0.50805203513604769 0.075167476974236966 2.4191738278144553e-06 -0.65714263155847596 0.054299928027270246 2.2616486841708695e-06 -0.46212046912569332 0.11051556518165766 2.3130367289378408e-06 -0.66151831748825241 0.075023331342177701 2.8300913439941014e-06 -0.78131683400777185 0.075167476974236938 2.4191738278144553e-06 -0.65714263155847585 0.1204149631133925 2.2215008282480064e-06 -0.74714933944409667 0.07938938371403291 3.0667828743114171e-06 -0.37994580330188538 0.12050599184941359 1.0142916990298577e-06 -0.50805203513604769 0.07826195787729015 3.1974186994246386e-06 -0.57562504116706048 0.054299928027270232 2.2616486841708691e-06 -0.46212046912569332 0.07826195787729015 3.1974186994246386e-06 -0.57562504116706048 0.075167476974236966 2.4191738278144553e-06 -0.65714263155847608 0.038365195532855327 2.6240624387468649e-06 -0.6659674878437023 0.054299928027270232 2.2616486841708691e-06 -0.46212046912569327 0.07938938371403291 3.0667828743114171e-06 -0.37994580330188538 0.12525877043522263 2.7439642098960071e-06 -0.47960149868838475 0.07826195787729015 3.1974186994246386e-06 -0.57562504116706048 0.12050599184941357 1.0142916990298579e-06 -0.50805203513604769 0.07826195787729015 3.1974186994246386e-06 -0.57562504116706048 0.12525877043522263 2.7439642098960071e-06 -0.47960149868838475 0.11051556518165766 2.3130367289378408e-06 -0.66151831748825241 0.12050599184941357 1.0142916990298586e-06 -0.50805203513604769 0.11051556518165766 2.3130367289378408e-06 -0.66151831748825241 0.12298470182086804 2.6155115536128437e-06 -0.80125623839919913 0.075023331342177688 2.8300913439941014e-06 -0.78131683400777174 0.1204149631133925 2.2215008282480064e-06 -0.74714933944409667 0.075023331342177688 2.8300913439941014e-06 -0.78131683400777174 0.1204149631133925 2.221500828248006e-06 -0.74714933944409656 0.075067142394939709 1.6153082164293061e-06 -0.95902233702940798 0.04454660920752513 -7.0293110884942439e-07 -0.78263205834116423 0.075023331342177688 2.8300913439941014e-06 -0.78131683400777174 0.075167476974236952 2.4191738278144574e-06 -0.65714263155847585 0.12041496311339249 2.2215008282479992e-06 -0.74714933944409678 0.04454660920752513 -7.0293110884942439e-07 -0.78263205834116423 0.12269561059585124 4.4024032814847207e-07 -0.95918073372433499 0.075023331342177674 2.8300913439941019e-06 -0.78131683400777185 0.12298470182086804 2.6155115536128437e-06 -0.80125623839919913 0.1204149631133925 2.2215008282480064e-06 -0.74714933944409667 0.075067142394939709 1.6153082164293061e-06 -0.95902233702940798 0.12041496311339249 2.221500828247998e-06 -0.74714933944409667 0.075167476974236938 2.4191738278144646e-06 -0.65714263155847619 0.04454660920752513 -7.0293110884942439e-07 -0.78263205834116423 0.075023331342177688 2.8300913439941014e-06 -0.78131683400777174 0.096645545033669331 3.5057977458046899e-06 -0.95909174874673175 0.12269561059585124 4.4024032814847207e-07 -0.95918073372433499 0.12298470182086804 2.6155115536128437e-06 -0.80125623839919913 0.075023331342177688 2.8300913439941014e-06 -0.78131683400777174 0.096645545033669331 3.5057977458046899e-06 -0.95909174874673175 0.075067142394939709 1.6153082164293061e-06 -0.95902233702940798 0.12269561059585124 4.4024032814847207e-07 -0.95918073372433499 0.075023331342177688 2.8300913439941014e-06 -0.78131683400777174 0.12269561059585124 4.4024032814847207e-07 -0.95918073372433499 0.075067142394939709 1.6153082164293061e-06 -0.95902233702940798 0.1204149631133925 2.2215008282480069e-06 -0.74714933944409656 0.11065287498000495 -8.7333129250861742e-07 -0.95913274925055125 0.075067142394939709 1.6153082164293061e-06 -0.95902233702940798 0.12269561059585124 4.4024032814847196e-07 -0.95918073372433499 0.1204149631133925 2.2215008282480064e-06 -0.74714933944409667 0.096645545033669331 3.5057977458046899e-06 -0.95909174874673175 0.048347726911384933 2.8624338324082172e-06 -0.95895219880004878 0.075023331342177688 2.8300913439941014e-06 -0.78131683400777174 0.075067142394939709 1.6153082164293061e-06 -0.95902233702940798 0.038365195532855327 2.6240624387468649e-06 -0.6659674878437023 0.075023331342177688 2.8300913439941014e-06 -0.78131683400777174 0.035347242322481431 2.110755551514398e-06 -0.81853244341178744 0.04454660920752513 -7.0293110884942439e-07 -0.78263205834116423 0.075023331342177688 2.8300913439941014e-06 -0.78131683400777174 0.075067142394939709 1.6153082164293061e-06 -0.95902233702940798 0.035347242322481431 2.110755551514398e-06 -0.81853244341178744 0.04454660920752513 -7.0293110884942439e-07 -0.78263205834116423 0.075023331342177688 2.8300913439941014e-06 -0.78131683400777174 0.048347726911384926 2.8624338324082163e-06 -0.95895219880004878 0.035347242322481431 2.110755551514398e-06 -0.81853244341178744 0.075067142394939709 1.6153082164293061e-06 -0.95902233702940798 0.035387338839228726 7.1651783949311353e-07 -0.95892961434165669 0.035347242322481431 2.110755551514398e-06 -0.81853244341178744 0.048347726911384933 2.8624338324082172e-06 -0.95895219880004878 0.075067142394939709 1.6153082164293061e-06 -0.95902233702940798 0.075067142394939709 1.6153082164293061e-06 -0.95902233702940798 0.038423521145231447 9.6738053304635435e-07 -0.95893528581892129 0.035387338839228726 7.1651783949311353e-07 -0.95892961434165669 0.04454660920752513 -7.0293110884942439e-07 -0.78263205834116423 0.035387338839228726 7.1651783949311353e-07 -0.95892961434165669 0.035347242322481424 2.110755551514398e-06 -0.81853244341178744 0.075067142394939709 1.6153082164293061e-06 -0.95902233702940787 0.044546609207525123 -7.0293110884942492e-07 -0.78263205834116423 -6.0799107267565496e-10 1.1501737528215681e-06 -0.81851010603593655 9.9481189278611526e-10 -1.9779814803760188e-06 -0.81673730951881962 4.3669528876801806e-09 1.9129617958849582e-06 -0.67644015801262625 0.04454660920752513 -7.0293110884942439e-07 -0.78263205834116423 0.038365195532855327 2.6240624387468649e-06 -0.6659674878437023 -6.0799107100802638e-10 1.1501737528215676e-06 -0.81851010603593655 4.3669528889871301e-09 1.9129617958849573e-06 -0.67644015801262614 0.044546609207525123 -7.0293110884942428e-07 -0.78263205834116412 0.04454660920752513 -7.0293110884942439e-07 -0.78263205834116423 1.2013850897811895e-08 5.9424050060730909e-07 -0.95889749118660728 0.038423521145231426 9.6738053304635372e-07 -0.95893528581892129 0.035387338839228726 7.1651783949311384e-07 -0.95892961434165658 0.035347242322481431 2.110755551514398e-06 -0.81853244341178744 0.035387338839228726 7.1651783949311342e-07 -0.95892961434165669 -6.0799107267565496e-10 1.1501737528215681e-06 -0.81851010603593655 0.04454660920752513 -7.0293110884942439e-07 -0.78263205834116423 -6.0799107267565496e-10 1.1501737528215681e-06 -0.81851010603593655 1.2013850890050425e-08 5.9424050060730856e-07 -0.95889749118660728 9.9481189278611526e-10 -1.9779814803760188e-06 -0.81673730951881962 0.04454660920752513 -7.0293110884942439e-07 -0.78263205834116423 -6.0799107267565496e-10 1.1501737528215681e-06 -0.81851010603593655 0.035387338839228726 7.1651783949311353e-07 -0.95892961434165669 1.2013850891583728e-08 5.9424050060730877e-07 -0.95889749118660728 0.04454660920752513 -7.0293110884942439e-07 -0.78263205834116423 9.2738334694683276e-09 2.8877979081144457e-06 -0.95889227110596986 -6.0799107421033825e-10 1.1501737528215681e-06 -0.81851010603593666 0.035387338839228726 7.1651783949311353e-07 -0.95892961434165669 1.201385088976678e-08 5.9424050060730856e-07 -0.95889749118660728 -6.0799107267565496e-10 1.1501737528215681e-06 -0.81851010603593655 0.035347242322481431 2.1107555515143976e-06 -0.81853244341178744 9.2738334694683276e-09 2.8877979081144457e-06 -0.95889227110596986 0.035387338839228726 7.1651783949311353e-07 -0.95892961434165669 0.048347726911384933 2.8624338324082172e-06 -0.95895219880004878 9.2738334705171595e-09 2.8877979081144462e-06 -0.95889227110596986 0.035347242322481431 2.110755551514398e-06 -0.81853244341178744 0.035387338839228726 7.1651783949311353e-07 -0.95892961434165669 0.035347242322481431 2.110755551514398e-06 -0.81853244341178744 9.2738334694683276e-09 2.8877979081144457e-06 -0.95889227110596986 -6.2842592748056237e-10 2.5473065320597016e-06 -0.76713149843825501 -6.0799107267565496e-10 1.1501737528215681e-06 -0.81851010603593655 0.035347242322481431 2.110755551514398e-06 -0.81853244341178744 -6.0799107266604923e-10 1.1501737528215681e-06 -0.81851010603593655 0.038365195532855327 2.6240624387468649e-06 -0.6659674878437023 0.04454660920752513 -7.0293110884942439e-07 -0.78263205834116423 0.038365195532855327 2.6240624387468649e-06 -0.6659674878437023 -6.2842593670798316e-10 2.5473065320597028e-06 -0.76713149843825501 4.3669528876801806e-09 1.9129617958849582e-06 -0.67644015801262625 -6.0799107267565496e-10 1.1501737528215681e-06 -0.81851010603593655 -6.284259246200528e-10 2.547306532059702e-06 -0.76713149843825501 0.038365195532855327 2.6240624387468649e-06 -0.6659674878437023 0.035347242322481431 2.110755551514398e-06 -0.81853244341178744 -6.0799107267565496e-10 1.1501737528215681e-06 -0.81851010603593655 4.3669528876801806e-09 1.9129617958849582e-06 -0.67644015801262625 -4.1371032347127548e-10 3.1364123002519337e-06 -0.57536369500813833 -6.284259246200528e-10 2.547306532059702e-06 -0.76713149843825501 0.038365195532855327 2.6240624387468649e-06 -0.6659674878437023 0.075167476974236952 2.4191738278144553e-06 -0.65714263155847596 0.054299928027270246 2.2616486841708665e-06 -0.46212046912569338 4.3669528786120146e-09 1.9129617958849632e-06 -0.67644015801262625 0.044546609207525137 -7.0293110884942428e-07 -0.78263205834116423 4.3669528876801806e-09 1.9129617958849582e-06 -0.67644015801262625 -2.6015743832320195e-09 3.3201776183781607e-06 -0.48717599734163458 -4.1371032347127548e-10 3.1364123002519337e-06 -0.57536369500813833 0.038365195532855327 2.6240624387468649e-06 -0.6659674878437023 0.038365195532855327 2.6240624387468649e-06 -0.6659674878437023 0.075167476974236966 2.419173827814454e-06 -0.65714263155847608 0.07826195787729015 3.1974186994246386e-06 -0.57562504116706048 0.04454660920752513 -7.0293110884942439e-07 -0.78263205834116423 0.038365195532855327 2.6240624387468649e-06 -0.6659674878437023 0.054299928027270267 2.2616486841708737e-06 -0.46212046912569338 0.075167476974236924 2.4191738278144506e-06 -0.65714263155847596 0.04454660920752513 -7.0293110884942439e-07 -0.78263205834116423 0.038365195532855327 2.6240624387468649e-06 -0.6659674878437023 4.3669528985419827e-09 1.9129617958849569e-06 -0.67644015801262625 0.054299928027270239 2.2616486841708691e-06 -0.46212046912569332 0.044546609207525123 -7.029311088494245e-07 -0.78263205834116423 0.038365195532855327 2.6240624387468649e-06 -0.6659674878437023 0.07826195787729015 3.1974186994246386e-06 -0.57562504116706048 0.075023331342177688 2.8300913439941014e-06 -0.78131683400777174 0.04454660920752513 -7.0293110884942439e-07 -0.78263205834116423 0.07826195787729015 3.1974186994246386e-06 -0.57562504116706048 0.038365195532855327 2.6240624387468649e-06 -0.6659674878437023 0.04154508022431657 2.8688243338658676e-06 -0.47792274936618984 0.054299928027270239 2.2616486841708691e-06 -0.46212046912569332 -2.6015743888922373e-09 3.3201776183781603e-06 -0.48717599734163458 0.041545080224316577 2.8688243338658676e-06 -0.47792274936618984 0.038365195532855327 2.6240624387468649e-06 -0.6659674878437023 0.054299928027270239 2.2616486841708691e-06 -0.46212046912569332 -4.1371032347127548e-10 3.1364123002519337e-06 -0.57536369500813833 -1.4817462052742837e-09 3.3618082070455106e-06 -0.38358843427314648 0.04154508022431657 2.8688243338658676e-06 -0.47792274936618984 -2.6015743888922373e-09 3.3201776183781603e-06 -0.48717599734163458 -2.6015743888922373e-09 3.3201776183781603e-06 -0.48717599734163458 0.041545080224316584 2.8688243338658676e-06 -0.47792274936618984 -4.1371032347127548e-10 3.1364123002519337e-06 -0.57536369500813833 0.038365195532855327 2.6240624387468649e-06 -0.6659674878437023 -2.6015743888922373e-09 3.3201776183781603e-06 -0.48717599734163458 0.038365195532855327 2.6240624387468649e-06 -0.6659674878437023 4.3669528876801806e-09 1.9129617958849582e-06 -0.67644015801262625 0.054299928027270239 2.2616486841708691e-06 -0.46212046912569332 -3.9556928910975519e-09 1.1555127316221945e-06 -0.57482223280880951 -2.6015743888922373e-09 3.3201776183781603e-06 -0.48717599734163458 4.3669528876801806e-09 1.9129617958849582e-06 -0.67644015801262625 0.054299928027270239 2.2616486841708691e-06 -0.46212046912569332 -3.9556928910975519e-09 1.1555127316221945e-06 -0.57482223280880951 4.3669528887523316e-09 1.9129617958849582e-06 -0.67644015801262625 0.075167476974236952 2.4191738278144549e-06 -0.65714263155847585 0.054299928027270239 2.2616486841708691e-06 -0.46212046912569332 -3.9556928910975519e-09 1.1555127316221945e-06 -0.57482223280880951 0.075167476974236924 2.4191738278144384e-06 -0.65714263155847619 4.3669528894962226e-09 1.9129617958849603e-06 -0.67644015801262625 0.044546609207525137 -7.0293110884942905e-07 -0.78263205834116423 -3.9556928910975519e-09 1.1555127316221945e-06 -0.57482223280880951 4.3669528876801806e-09 1.9129617958849582e-06 -0.67644015801262625 3.1231904874199084e-09 -1.2370634404818028e-06 -0.69735021583861811 0.044546609207525151 -7.029311088494246e-07 -0.78263205834116423 -3.9556928910975519e-09 1.1555127316221945e-06 -0.57482223280880951 0.05973304214976459 4.4059680971283358e-07 -0.43250406457022261 0.075167476974236952 2.4191738278144553e-06 -0.65714263155847596 0.052720768790100021 -6.0825626894115539e-07 -0.74449860272427359 -3.9556928910975519e-09 1.1555127316221945e-06 -0.57482223280880951 3.1231904874199084e-09 -1.2370634404818028e-06 -0.69735021583861811 0.075167476974236938 2.4191738278144549e-06 -0.65714263155847608 0.044546609207525137 -7.0293110884942471e-07 -0.78263205834116434 -3.9556928910975519e-09 1.1555127316221945e-06 -0.57482223280880951 2.4736537585274773e-09 -9.2635456095407563e-07 -0.64555955143974031 -2.9641752381863659e-09 1.0112551424143777e-06 -0.49827542508678557 0.052720768790100035 -6.0825626894115454e-07 -0.74449860272427348 3.1231904874199084e-09 -1.2370634404818028e-06 -0.69735021583861811 -3.9556928910975519e-09 1.1555127316221945e-06 -0.57482223280880951 0.075167476974236952 2.4191738278144553e-06 -0.65714263155847596 0.052720768790100021 -6.0825626894115476e-07 -0.74449860272427359 -3.9556928910975519e-09 1.1555127316221945e-06 -0.57482223280880951 0.075167476974236952 2.4191738278144553e-06 -0.65714263155847596 0.059733042149764576 4.4059680971283358e-07 -0.43250406457022261 0.054299928027270239 2.2616486841708691e-06 -0.46212046912569332 -3.9556928910975519e-09 1.1555127316221945e-06 -0.57482223280880951 -2.964175235264503e-09 1.0112551424143779e-06 -0.49827542508678557 0.059733042149764583 4.4059680971283411e-07 -0.43250406457022267 0.052720768790100028 -6.082562689411556e-07 -0.74449860272427359 4.5782575532127895e-11 1.1030676923647978e-06 -0.43790037565232209 -2.6015743889026449e-09 3.3201776183781603e-06 -0.48717599734163458 -3.9556928910975519e-09 1.1555127316221945e-06 -0.57482223280880951 0.054299928027270239 2.2616486841708691e-06 -0.46212046912569332 -3.9556928910975519e-09 1.1555127316221945e-06 -0.57482223280880951 -2.964175235264503e-09 1.0112551424143779e-06 -0.49827542508678557 4.5782575532127895e-11 1.1030676923647978e-06 -0.43790037565232209 0.059733042149764583 4.4059680971283411e-07 -0.43250406457022267 3.1231904874199084e-09 -1.2370634404818028e-06 -0.69735021583861811 2.4736537585274773e-09 -9.2635456095407563e-07 -0.64555955143974031 -3.9556928891808685e-09 1.1555127316221945e-06 -0.57482223280880951 0.052720768790100021 -6.0825626894115476e-07 -0.74449860272427359 -5.5731498862062371e-10 -2.4730419271098068e-06 -0.80732449684635321 9.9481189278611526e-10 -1.9779814803760188e-06 -0.81673730951881962 0.038423521145231447 9.6738053304635435e-07 -0.95893528581892129 0.052720768790100028 -6.0825626894115454e-07 -0.74449860272427348 3.1231904874199084e-09 -1.2370634404818028e-06 -0.69735021583861811 0.052720768790100021 -6.0825626894115433e-07 -0.74449860272427359 0.075167476974236952 2.4191738278144553e-06 -0.65714263155847596 0.04454660920752513 -7.0293110884942439e-07 -0.78263205834116434 0.038423521145231447 9.6738053304635435e-07 -0.95893528581892129 0.052720768790100014 -6.0825626894115507e-07 -0.74449860272427359 9.9481188238573995e-10 -1.9779814803760192e-06 -0.81673730951881962 0.04454660920752513 -7.0293110884942407e-07 -0.78263205834116423 -5.5731498862062371e-10 -2.4730419271098068e-06 -0.80732449684635321 2.4736537585274773e-09 -9.2635456095407563e-07 -0.64555955143974031 3.1231904874199084e-09 -1.2370634404818028e-06 -0.69735021583861811 0.052720768790100035 -6.0825626894115423e-07 -0.74449860272427348 -5.5731498862062371e-10 -2.4730419271098068e-06 -0.80732449684635321 3.1231904874199084e-09 -1.2370634404818028e-06 -0.69735021583861811 9.9481189278611526e-10 -1.9779814803760188e-06 -0.81673730951881962 0.052720768790100035 -6.0825626894115486e-07 -0.74449860272427371 0.038423521145231447 9.6738053304635435e-07 -0.95893528581892129 0.078399939867832127 1.1976442531927338e-06 -0.95902574146731923 0.052720768790100021 -6.0825626894115497e-07 -0.74449860272427359 0.04454660920752513 -7.0293110884942428e-07 -0.78263205834116423 3.1231904874199084e-09 -1.2370634404818028e-06 -0.69735021583861811 9.9481189256777391e-10 -1.9779814803760188e-06 -0.81673730951881962 0.052720768790100014 -6.0825626894115507e-07 -0.74449860272427371 0.044546609207525137 -7.0293110884942386e-07 -0.78263205834116423 4.3669528876801806e-09 1.9129617958849582e-06 -0.67644015801262625 9.9481189278611526e-10 -1.9779814803760188e-06 -0.81673730951881962 3.1231904862853264e-09 -1.2370634404818028e-06 -0.69735021583861811 0.04454660920752513 -7.0293110884942439e-07 -0.78263205834116423 0.038423521145231447 9.6738053304635435e-07 -0.95893528581892129 0.078399939867832127 1.1976442531927338e-06 -0.95902574146731911 0.041634787496200906 -3.7404812539608888e-07 -0.95893618447564355 0.052720768790100021 -6.0825626894115476e-07 -0.74449860272427359 0.038423521145231447 9.6738053304635435e-07 -0.95893528581892129 0.041634787496200906 -3.7404812539608867e-07 -0.95893618447564366 -5.5731498862062371e-10 -2.4730419271098068e-06 -0.80732449684635321 0.052720768790100021 -6.0825626894115476e-07 -0.74449860272427359 0.078399939867832127 1.1976442531927338e-06 -0.95902574146731923 0.038423521145231447 9.6738053304635435e-07 -0.95893528581892129 0.075067142394939723 1.6153082164293061e-06 -0.95902233702940798 0.04454660920752513 -7.0293110884942439e-07 -0.78263205834116423 0.04454660920752513 -7.0293110884942439e-07 -0.78263205834116423 0.03842352114523144 9.6738053304635456e-07 -0.95893528581892129 1.2013850897765118e-08 5.9424050060730888e-07 -0.95889749118660728 9.9481189278611526e-10 -1.9779814803760188e-06 -0.81673730951881962 9.9481189278611526e-10 -1.9779814803760188e-06 -0.81673730951881962 -5.5731498870304854e-10 -2.4730419271098068e-06 -0.80732449684635321 0.038423521145231447 9.6738053304635435e-07 -0.95893528581892129 1.0034844263801529e-08 -8.9179095889666739e-07 -0.95891035615566789 0.038423521145231447 9.6738053304635435e-07 -0.95893528581892129 1.201385088976678e-08 5.9424050060730856e-07 -0.95889749118660728 9.9481188962651631e-10 -1.9779814803760188e-06 -0.81673730951881962 1.0034844263801529e-08 -8.9179095889666739e-07 -0.95891035615566789 1.0034844263801529e-08 -8.9179095889666739e-07 -0.95891035615566789 -5.5731498862062371e-10 -2.4730419271098068e-06 -0.80732449684635321 0.038423521145231447 9.6738053304635435e-07 -0.95893528581892129 0.041634787496200906 -3.7404812539608867e-07 -0.95893618447564366 -5.5731498862062371e-10 -2.4730419271098068e-06 -0.80732449684635321 1.0034844263801529e-08 -8.9179095889666739e-07 -0.95891035615566789 1.2693993695328725e-08 -1.9730831407559393e-06 -0.95891003469228819 0.041634787496200906 -3.7404812539608867e-07 -0.95893618447564366 0.041634787496200906 -3.7404812539608867e-07 -0.95893618447564366 1.2693993697762671e-08 -1.9730831407559393e-06 -0.95891003469228819 -5.5731498147498759e-10 -2.4730419271098056e-06 -0.80732449684635332 6.3944409351498783e-10 -4.0449688424908717e-07 -0.77518056335371865 1.2693993697762671e-08 -1.9730831407559393e-06 -0.95891003469228819 0.041634787496200906 -3.7404812539608867e-07 -0.95893618447564366 0.040924231564972997 -2.3990404147792301e-07 -0.95893822968556486 6.3944410738215547e-10 -4.0449688424908621e-07 -0.77518056335371877 3.423686978130408e-09 -2.5930836860251625e-06 -0.81850707523352872 6.3944410738215547e-10 -4.0449688424908621e-07 -0.77518056335371877 0.040924231564972997 -2.3990404147792317e-07 -0.95893822968556486 0.075816495872515377 -1.8958926327885064e-06 -0.6594380797517162 0.040924231564972997 -2.3990404147792301e-07 -0.95893822968556486 0.075816495872515349 -1.8958926327885045e-06 -0.65943807975171609 6.3944410934208042e-10 -4.0449688424908611e-07 -0.77518056335371888 0.052720768790100014 -6.0825626894115476e-07 -0.74449860272427359 -5.5731498862062371e-10 -2.4730419271098068e-06 -0.80732449684635321 6.3944410813657076e-10 -4.0449688424908632e-07 -0.77518056335371877 2.4736537585274773e-09 -9.2635456095407563e-07 -0.64555955143974031 0.052720768790100035 -6.0825626894115423e-07 -0.74449860272427348 -5.5731498862062371e-10 -2.4730419271098068e-06 -0.80732449684635321 0.041634787496200899 -3.7404812539608893e-07 -0.95893618447564366 6.3944410827034779e-10 -4.0449688424908616e-07 -0.77518056335371877 0.052720768790100028 -6.0825626894115476e-07 -0.74449860272427359 6.3944410738215547e-10 -4.0449688424908621e-07 -0.77518056335371877 0.040924231564972997 -2.3990404147792301e-07 -0.95893822968556486 1.2693993697762671e-08 -1.9730831407559393e-06 -0.95891003469228819 1.1316459043889478e-08 -5.8319851043945189e-07 -0.95890796713419657 0.041634787496200906 -3.7404812539608867e-07 -0.95893618447564366 0.079558400524090259 -1.6069534008810235e-06 -0.9590314475694437 0.040924231564972997 -2.3990404147792301e-07 -0.95893822968556486 0.052720768790100021 -6.0825626894115476e-07 -0.74449860272427359 0.041634787496200906 -3.7404812539608867e-07 -0.95893618447564366 0.040924231564972997 -2.3990404147792301e-07 -0.95893822968556486 6.3944411695483742e-10 -4.0449688424908616e-07 -0.77518056335371865 0.052720768790100014 -6.0825626894115476e-07 -0.74449860272427348 0.07638590314337533 2.9313706190942544e-08 -0.95902135841986669 0.040924231564972997 -2.3990404147792306e-07 -0.95893822968556486 0.079558400524090259 -1.6069534008810235e-06 -0.9590314475694437 0.075816495872515349 -1.8958926327885048e-06 -0.65943807975171609 0.078399939867832127 1.1976442531927338e-06 -0.95902574146731923 0.079558400524090259 -1.6069534008810235e-06 -0.9590314475694437 0.041634787496200906 -3.7404812539608867e-07 -0.95893618447564366 0.052720768790100021 -6.0825626894115476e-07 -0.74449860272427359 0.11065539376337837 1.4213866705716155e-06 -0.95913362529195156 0.075816495872515335 -1.8958926327885028e-06 -0.65943807975171609 0.1201673690426165 4.0314601046874124e-07 -0.71982209376009543 0.12083275998202833 -3.4186594505077823e-06 -0.74896874936327074 0.079558400524090259 -1.6069534008810235e-06 -0.9590314475694437 0.12016736904261652 4.0314601046874151e-07 -0.71982209376009543 0.075816495872515349 -1.8958926327885048e-06 -0.65943807975171609 0.052720768790100035 -6.0825626894115497e-07 -0.74449860272427359 0.07638590314337533 2.9313706190942544e-08 -0.95902135841986669 0.079558400524090259 -1.6069534008810235e-06 -0.9590314475694437 0.11065539376337837 1.4213866705716155e-06 -0.95913362529195156 0.075816495872515335 -1.8958926327885048e-06 -0.65943807975171609 0.11065539376337837 1.4213866705716155e-06 -0.95913362529195156 0.076385903143375344 2.9313706190942408e-08 -0.9590213584198668 0.075816495872515349 -1.8958926327885048e-06 -0.65943807975171609 0.1208327599820283 -3.4186594505077836e-06 -0.7489687493632704 0.079558400524090259 -1.6069534008810235e-06 -0.9590314475694437 0.11065539376337837 1.4213866705716155e-06 -0.95913362529195156 0.075816495872515349 -1.8958926327885048e-06 -0.65943807975171609 0.12016736904261652 4.0314601046874167e-07 -0.71982209376009543 0.079558400524090259 -1.6069534008810235e-06 -0.9590314475694437 0.075816495872515349 -1.8958926327885048e-06 -0.65943807975171609 0.040924231564972997 -2.3990404147792301e-07 -0.95893822968556486 0.052720768790100042 -6.0825626894115528e-07 -0.74449860272427371 0.079558400524090259 -1.6069534008810235e-06 -0.9590314475694437 0.12549841863893449 8.4285573214990804e-07 -0.95919901702207067 0.11065539376337837 1.4213866705716155e-06 -0.95913362529195156 0.1201673690426165 4.0314601046874124e-07 -0.71982209376009543 0.075816495872515349 -1.8958926327885048e-06 -0.65943807975171609 0.1201673690426165 4.031460104687414e-07 -0.71982209376009543 0.12054062213368205 2.0907643544325928e-07 -0.47959305399077723 0.052720768790100014 -6.0825626894115454e-07 -0.74449860272427348 0.059733042149764583 4.4059680971283411e-07 -0.43250406457022267 0.12072349859429031 -1.6182024021828865e-06 -0.50727930672407029 0.075816495872515322 -1.895892632788505e-06 -0.65943807975171598 0.053272439667793929 -2.1808334648154096e-06 -0.47954833646673867 0.075816495872515349 -1.8958926327885048e-06 -0.65943807975171609 0.12072349859429032 -1.6182024021828865e-06 -0.5072793067240704 0.1201673690426165 4.0314601046874077e-07 -0.71982209376009543 0.1208327599820283 -3.4186594505077828e-06 -0.74896874936327051 0.12054062213368207 2.0907643544325915e-07 -0.47959305399077723 0.075816495872515349 -1.8958926327885048e-06 -0.65943807975171609 0.059733042149764583 4.4059680971283411e-07 -0.43250406457022267 0.12072349859429032 -1.6182024021828865e-06 -0.5072793067240704 0.12054062213368207 2.0907643544325915e-07 -0.47959305399077723 0.12016736904261653 4.0314601046874161e-07 -0.71982209376009554 0.075816495872515363 -1.8958926327885048e-06 -0.65943807975171609 0.12072349859429032 -1.6182024021828865e-06 -0.5072793067240704 0.12054062213368207 2.0907643544325915e-07 -0.47959305399077723 0.059733042149764583 4.4059680971283411e-07 -0.43250406457022267 0.075816495872515349 -1.895892632788505e-06 -0.65943807975171598 0.052720768790100021 -6.0825626894115476e-07 -0.74449860272427359 0.052720768790100021 -6.0825626894115476e-07 -0.74449860272427359 0.075816495872515349 -1.8958926327885048e-06 -0.65943807975171609 -2.9641752340036328e-09 1.0112551424143779e-06 -0.49827542508678557 0.059733042149764562 4.4059680971283411e-07 -0.43250406457022267 -7.9642010022360397e-12 -9.890109439859838e-07 -0.4393185475271057 0.059733042149764576 4.4059680971283427e-07 -0.43250406457022267 -2.6569855493349204e-10 -1.1244353535101622e-06 -0.58540136330681647 0.053272439667793915 -2.18083346481541e-06 -0.47954833646673867 -2.6569855558328418e-10 -1.1244353535101622e-06 -0.58540136330681647 -2.964175235264503e-09 1.0112551424143779e-06 -0.49827542508678557 0.075816495872515349 -1.8958926327885033e-06 -0.65943807975171609 0.059733042149764583 4.4059680971283411e-07 -0.43250406457022267 0.052720768790100021 -6.0825626894115476e-07 -0.74449860272427359 -2.6569853619191759e-10 -1.1244353535101614e-06 -0.58540136330681647 -2.964175235264503e-09 1.0112551424143779e-06 -0.49827542508678557 0.075816495872515349 -1.8958926327885048e-06 -0.65943807975171609 -2.6569855558328418e-10 -1.1244353535101622e-06 -0.58540136330681647 0.05973304214976459 4.4059680971283395e-07 -0.43250406457022267 0.075816495872515349 -1.8958926327885048e-06 -0.65943807975171609 0.053272439667793922 -2.1808334648154104e-06 -0.47954833646673861 0.052720768790100021 -6.0825626894115476e-07 -0.74449860272427359 -2.964175235264503e-09 1.0112551424143779e-06 -0.49827542508678557 -2.656985574373525e-10 -1.1244353535101618e-06 -0.58540136330681647 2.4736537585274773e-09 -9.2635456095407563e-07 -0.64555955143974031 -9.1922608643650933e-10 -3.7442098224027433e-06 -0.66530795385738783 -2.6569855558328418e-10 -1.1244353535101622e-06 -0.58540136330681647 0.075816495872515349 -1.8958926327885045e-06 -0.65943807975171598 0.053272439667793915 -2.18083346481541e-06 -0.47954833646673867 -2.6569855558328418e-10 -1.1244353535101622e-06 -0.58540136330681647 6.3944410738215547e-10 -4.0449688424908621e-07 -0.77518056335371877 0.075816495872515349 -1.8958926327885048e-06 -0.65943807975171609 0.052720768790100021 -6.0825626894115497e-07 -0.74449860272427359 -9.1922608643650933e-10 -3.7442098224027433e-06 -0.66530795385738783 -2.6569855558328418e-10 -1.1244353535101622e-06 -0.58540136330681647 6.3944410871382051e-10 -4.0449688424908621e-07 -0.77518056335371877 0.075816495872515349 -1.8958926327885048e-06 -0.65943807975171609 -7.9642010022360397e-12 -9.890109439859838e-07 -0.4393185475271057 -2.964175235264503e-09 1.0112551424143779e-06 -0.49827542508678557 -2.6569855558328418e-10 -1.1244353535101622e-06 -0.58540136330681647 0.059733042149764583 4.4059680971283411e-07 -0.43250406457022267 -2.6569855558328418e-10 -1.1244353535101622e-06 -0.58540136330681647 2.4736537593976912e-09 -9.2635456095407563e-07 -0.64555955143974031 6.3944410970459387e-10 -4.0449688424908632e-07 -0.77518056335371877 0.052720768790099994 -6.0825626894115465e-07 -0.74449860272427348 -2.6569855558328418e-10 -1.1244353535101622e-06 -0.58540136330681647 -1.9964439141181704e-09 -2.9634872766635212e-06 -0.48874464532700457 -7.9642019492601159e-12 -9.890109439859838e-07 -0.4393185475271057 0.053272439667793929 -2.18083346481541e-06 -0.47954833646673867 -9.1922608643650933e-10 -3.7442098224027433e-06 -0.66530795385738783 0.035348512765060645 -2.1091997042780913e-06 -0.81853822911946106 0.045404836724907909 -2.7414118701723206e-06 -0.65558766421932413 0.075816495872515349 -1.8958926327885048e-06 -0.65943807975171609 -9.1922608643650933e-10 -3.7442098224027433e-06 -0.66530795385738783 0.075816495872515349 -1.8958926327885048e-06 -0.65943807975171609 0.045404836724907909 -2.7414118701723206e-06 -0.65558766421932391 0.053272439667793915 -2.18083346481541e-06 -0.47954833646673867 -9.1922608643650933e-10 -3.7442098224027433e-06 -0.66530795385738783 0.045404836724907902 -2.741411870172321e-06 -0.65558766421932402 -1.9964439141181704e-09 -2.9634872766635212e-06 -0.48874464532700457 0.053272439667793915 -2.18083346481541e-06 -0.47954833646673867 -9.1922608643650933e-10 -3.7442098224027433e-06 -0.66530795385738783 -1.9964439141181704e-09 -2.9634872766635212e-06 -0.48874464532700457 -2.6569855726011763e-10 -1.1244353535101622e-06 -0.58540136330681647 0.053272439667793915 -2.18083346481541e-06 -0.47954833646673867 1.7896980517976307e-09 -2.992925954452026e-06 -0.76713271030665853 3.6669000209814099e-10 -3.5315171774803239e-06 -0.57536563674947916 -9.1922608643650933e-10 -3.7442098224027433e-06 -0.66530795385738783 0.045404836724907909 -2.741411870172321e-06 -0.65558766421932402 3.6669000209814099e-10 -3.5315171774803239e-06 -0.57536563674947916 -9.1922608643650933e-10 -3.7442098224027433e-06 -0.66530795385738783 0.045404836724907909 -2.741411870172321e-06 -0.65558766421932402 -1.9964439141181704e-09 -2.9634872766635212e-06 -0.48874464532700457 0.045404836724907909 -2.741411870172321e-06 -0.65558766421932402 0.039483029452033608 -2.6032980807011488e-06 -0.46862127762100481 3.6669000209814099e-10 -3.5315171774803239e-06 -0.57536563674947916 -1.9964439141181704e-09 -2.9634872766635212e-06 -0.48874464532700457 0.045404836724907909 -2.741411870172321e-06 -0.65558766421932402 0.074834785943312387 -2.2337892533068267e-06 -0.51961008881750526 0.039483029452033608 -2.6032980807011488e-06 -0.46862127762100481 0.053272439667793915 -2.18083346481541e-06 -0.47954833646673867 -1.9964439141181704e-09 -2.9634872766635212e-06 -0.48874464532700457 0.045404836724907902 -2.741411870172321e-06 -0.65558766421932402 0.039483029452033608 -2.6032980807011488e-06 -0.46862127762100481 0.053272439667793922 -2.1808334648154096e-06 -0.47954833646673861 0.072592246512906078 -2.6368060010272151e-06 -0.79665676679302599 0.095556604688840779 -3.0387592363016369e-06 -0.64329710598089607 0.045404836724907909 -2.741411870172321e-06 -0.65558766421932402 0.075816495872515349 -1.8958926327885048e-06 -0.65943807975171609 0.074834785943312387 -2.2337892533068267e-06 -0.51961008881750526 0.075816495872515363 -1.8958926327885048e-06 -0.6594380797517162 0.12072349859429031 -1.618202402182887e-06 -0.50727930672407051 0.053272439667793915 -2.18083346481541e-06 -0.47954833646673861 0.095556604688840779 -3.0387592363016369e-06 -0.64329710598089607 0.074834785943312387 -2.2337892533068267e-06 -0.51961008881750526 0.075816495872515335 -1.8958926327885043e-06 -0.65943807975171598 0.12072349859429032 -1.6182024021828861e-06 -0.50727930672407029 0.095556604688840779 -3.0387592363016369e-06 -0.64329710598089607 0.075816495872515349 -1.8958926327885048e-06 -0.65943807975171609 0.072592246512906078 -2.6368060010272151e-06 -0.79665676679302599 0.1208327599820283 -3.4186594505077828e-06 -0.74896874936327051 0.045404836724907909 -2.741411870172321e-06 -0.65558766421932402 0.075816495872515349 -1.8958926327885045e-06 -0.65943807975171609 0.074834785943312387 -2.2337892533068267e-06 -0.51961008881750526 0.053272439667793915 -2.18083346481541e-06 -0.47954833646673867 0.14471712488353089 -3.2069734449725778e-06 -0.64800295901720417 0.12072349859429032 -1.6182024021828863e-06 -0.50727930672407029 0.095556604688840779 -3.0387592363016369e-06 -0.64329710598089607 0.1208327599820283 -3.4186594505077828e-06 -0.74896874936327051 0.074834785943312387 -2.2337892533068267e-06 -0.51961008881750526 0.045404836724907915 -2.741411870172321e-06 -0.65558766421932402 0.095556604688840779 -3.0387592363016369e-06 -0.64329710598089607 0.075816495872515349 -1.8958926327885048e-06 -0.65943807975171609 0.095556604688840779 -3.0387592363016369e-06 -0.64329710598089607 0.12072349859429032 -1.6182024021828861e-06 -0.5072793067240704 0.075816495872515349 -1.8958926327885043e-06 -0.65943807975171598 0.1208327599820283 -3.4186594505077828e-06 -0.74896874936327051 0.095556604688840779 -3.0387592363016369e-06 -0.64329710598089607 0.14471712488353089 -3.2069734449725778e-06 -0.64800295901720417 0.12053060417443807 -2.7674442173667959e-06 -0.46077822354018794 0.12072349859429032 -1.6182024021828865e-06 -0.5072793067240704 0.095556604688840779 -3.0387592363016369e-06 -0.64329710598089607 0.12053060417443807 -2.7674442173667959e-06 -0.46077822354018794 0.074834785943312387 -2.2337892533068267e-06 -0.51961008881750526 0.12072349859429034 -1.6182024021828865e-06 -0.50727930672407051 0.12024589664815978 -2.866165124513899e-06 -0.79394476255803204 0.14471712488353089 -3.2069734449725778e-06 -0.64800295901720417 0.095556604688840779 -3.0387592363016369e-06 -0.64329710598089607 0.1208327599820283 -3.4186594505077828e-06 -0.74896874936327051 0.072592246512906078 -2.6368060010272151e-06 -0.79665676679302599 0.035399152077557047 -7.9623700680925007e-07 -0.95892982417890293 0.07638590314337533 2.9313706190942544e-08 -0.95902135841986669 0.075816495872515349 -1.8958926327885048e-06 -0.65943807975171609 0.072592246512906078 -2.6368060010272151e-06 -0.79665676679302599 0.075816495872515349 -1.8958926327885048e-06 -0.65943807975171609 0.076385903143375317 2.9313706190942765e-08 -0.95902135841986669 0.12083275998202828 -3.4186594505077828e-06 -0.74896874936327051 0.072592246512906078 -2.6368060010272151e-06 -0.79665676679302599 0.07638590314337533 2.9313706190943248e-08 -0.95902135841986669 0.12024589664815978 -2.866165124513899e-06 -0.79394476255803204 0.1208327599820283 -3.4186594505077819e-06 -0.74896874936327051 0.095556604688840779 -3.0387592363016369e-06 -0.64329710598089607 0.072592246512906078 -2.6368060010272151e-06 -0.79665676679302599 0.12024589664815978 -2.866165124513899e-06 -0.79394476255803204 0.1208327599820283 -3.4186594505077828e-06 -0.74896874936327051 0.07638590314337533 2.9313706190942544e-08 -0.95902135841986669 0.09664012335261353 -3.3531922810729848e-06 -0.95907938877823551 0.12024589664815978 -2.866165124513899e-06 -0.79394476255803204 0.12309314613534121 -3.7761825797916336e-07 -0.95918926053357589 0.09664012335261353 -3.3531922810729848e-06 -0.95907938877823551 0.12024589664815978 -2.866165124513899e-06 -0.79394476255803204 0.072592246512906078 -2.6368060010272151e-06 -0.79665676679302599 0.07638590314337533 2.9313706190942544e-08 -0.95902135841986669 0.07638590314337533 2.9313706190942544e-08 -0.95902135841986669 0.12309314613534121 -3.7761825797916336e-07 -0.95918926053357589 0.12024589664815978 -2.866165124513899e-06 -0.79394476255803204 0.1208327599820283 -3.4186594505077823e-06 -0.74896874936327051 0.11065539376337837 1.4213866705716155e-06 -0.95913362529195156 0.12309314613534121 -3.7761825797916336e-07 -0.95918926053357589 0.07638590314337533 2.9313706190942587e-08 -0.95902135841986669 0.1208327599820283 -3.4186594505077828e-06 -0.74896874936327051 0.09664012335261353 -3.3531922810729848e-06 -0.95907938877823551 0.072592246512906078 -2.6368060010272151e-06 -0.79665676679302599 0.048343253728883151 -2.6281629014027617e-06 -0.95894898791833538 0.07638590314337533 2.9313706190942544e-08 -0.95902135841986669 3.423686978130408e-09 -2.5930836860251625e-06 -0.81850707523352872 -9.192260843459587e-10 -3.7442098224027429e-06 -0.66530795385738772 6.3944410738215547e-10 -4.0449688424908621e-07 -0.77518056335371877 0.075816495872515363 -1.8958926327885045e-06 -0.65943807975171598 0.040924231564972997 -2.3990404147792301e-07 -0.95893822968556486 0.07638590314337533 2.9313706190942471e-08 -0.95902135841986658 0.035399152077557047 -7.9623700680925007e-07 -0.95892982417890293 0.075816495872515349 -1.8958926327885048e-06 -0.65943807975171609 0.035399152077557047 -7.9623700680925007e-07 -0.95892982417890293 0.048343253728883144 -2.6281629014027617e-06 -0.95894898791833538 0.035348512765060638 -2.1091997042780909e-06 -0.81853822911946106 0.072592246512906078 -2.6368060010272151e-06 -0.79665676679302599 0.035399152077557047 -7.9623700680925007e-07 -0.95892982417890293 0.072592246512906092 -2.6368060010272155e-06 -0.79665676679302588 0.035348512765060638 -2.1091997042780909e-06 -0.81853822911946106 0.075816495872515377 -1.895892632788505e-06 -0.6594380797517162 0.035399152077557047 -7.9623700680925007e-07 -0.95892982417890293 0.048343253728883151 -2.6281629014027617e-06 -0.95894898791833538 0.072592246512906078 -2.6368060010272151e-06 -0.79665676679302599 0.07638590314337533 2.9313706190942544e-08 -0.95902135841986669 0.045404836724907909 -2.741411870172321e-06 -0.65558766421932402 0.035348512765060638 -2.1091997042780909e-06 -0.81853822911946106 0.072592246512906078 -2.6368060010272151e-06 -0.79665676679302599 0.075816495872515349 -1.8958926327885043e-06 -0.65943807975171609 3.423686978130408e-09 -2.5930836860251625e-06 -0.81850707523352872 0.040924231564972983 -2.3990404147792332e-07 -0.95893822968556486 0.035399152077557047 -7.9623700680925018e-07 -0.95892982417890293 0.075816495872515363 -1.8958926327885045e-06 -0.65943807975171598 0.035399152077557047 -7.9623700680925007e-07 -0.95892982417890293 0.035348512765060638 -2.1091997042780909e-06 -0.81853822911946106 3.423686978130408e-09 -2.5930836860251625e-06 -0.81850707523352872 0.075816495872515349 -1.8958926327885048e-06 -0.65943807975171609 -9.1922608643650933e-10 -3.7442098224027433e-06 -0.66530795385738783 3.423686978130408e-09 -2.5930836860251625e-06 -0.81850707523352872 0.035348512765060638 -2.1091997042780909e-06 -0.81853822911946106 0.075816495872515335 -1.8958926327885048e-06 -0.65943807975171598 1.1316459043889478e-08 -5.8319851043945189e-07 -0.95890796713419657 6.3944410738215547e-10 -4.0449688424908621e-07 -0.77518056335371877 0.040924231564972997 -2.3990404147792301e-07 -0.95893822968556486 3.423686978130408e-09 -2.5930836860251625e-06 -0.81850707523352872 0.035399152077557047 -7.9623700680925007e-07 -0.95892982417890293 1.1316459042384669e-08 -5.831985104394521e-07 -0.95890796713419646 0.040924231564972997 -2.3990404147792301e-07 -0.95893822968556486 3.423686978130408e-09 -2.5930836860251625e-06 -0.81850707523352872 -9.1922608643650933e-10 -3.7442098224027433e-06 -0.66530795385738783 0.035348512765060645 -2.1091997042780909e-06 -0.81853822911946106 1.7896980517976307e-09 -2.992925954452026e-06 -0.76713271030665853 0.045404836724907909 -2.741411870172321e-06 -0.65558766421932413 3.423686978130408e-09 -2.5930836860251625e-06 -0.81850707523352872 0.035348512765060645 -2.1091997042780909e-06 -0.81853822911946117 1.7896980517976309e-09 -2.992925954452026e-06 -0.76713271030665853 -9.1922608643650933e-10 -3.7442098224027433e-06 -0.66530795385738783 7.7551725514154204e-09 -2.8353061035771517e-06 -0.95889352455108856 1.1316459043889481e-08 -5.8319851043945136e-07 -0.95890796713419657 0.035399152077557047 -7.9623700680925007e-07 -0.95892982417890293 3.423686978130408e-09 -2.5930836860251625e-06 -0.81850707523352872 0.035348512765060638 -2.1091997042780909e-06 -0.81853822911946106 1.7896980515338773e-09 -2.992925954452026e-06 -0.76713271030665853 7.7551725514154204e-09 -2.8353061035771517e-06 -0.95889352455108856 3.423686978130408e-09 -2.5930836860251625e-06 -0.81850707523352872 7.7551725514154204e-09 -2.8353061035771517e-06 -0.95889352455108856 0.035399152077557047 -7.9623700680924965e-07 -0.95892982417890305 0.048343253728883151 -2.6281629014027617e-06 -0.95894898791833538 0.035348512765060638 -2.1091997042780909e-06 -0.81853822911946106 0.035348512765060638 -2.1091997042780909e-06 -0.81853822911946106 7.7551725514154204e-09 -2.8353061035771517e-06 -0.95889352455108856 0.035399152077557047 -7.9623700680925007e-07 -0.95892982417890293 3.423686978130408e-09 -2.5930836860251625e-06 -0.81850707523352872 
</DataArray>
</PointData>
<CellData Scalars="" Vectors="" Tensors="stress,">
<DataArray type="Float64" Name="stress" NumberOfComponents="9" format="ascii">
0.0014376895029333259 3.9712844405348038e-06 5.6382125565196139e-06 3.9712844405348038e-06 -0.19943159092308671 -7.4496213424535856e-06 5.6382125565196139e-06 -7.4496213424535856e-06 -0.99861882778122735 0.0015320701285486127 2.1973184555738697e-06 8.1941206017890736e-06 2.1973184555738697e-06 -0.19938964794084341 3.7524022100574526e-06 8.1941206017890736e-06 3.7524022100574526e-06 -0.99848778187744358 0.0015123056548992375 3.4488486995924314e-06 4.8219873730427087e-06 3.4488486995924314e-06 -0.1993959541053561 1.4609910323210732e-05 4.8219873730427087e-06 1.4609910323210732e-05 -0.99853241397230352 0.0015323689489285136 1.8824915351895597e-06 -7.5873154129491027e-06 1.8824915351895597e-06 -0.19939149543667373 1.2830752947045735e-05 -7.5873154129491027e-06 1.2830752947045735e-05 -0.99851302002363418 0.0015283603601373708 -8.5191151197079525e-07 -3.664715564727361e-05 -8.5191151197079525e-07 -0.19938653875363621 -9.3533943615886628e-06 -3.664715564727361e-05 -9.3533943615886628e-06 -0.99851074455857391 0.0014527905822425691 3.7279394054055687e-06 -2.1814735644720695e-05 3.7279394054055687e-06 -0.19941610472382271 -8.1416890868046821e-06 -2.1814735644720695e-05 -8.1416890868046821e-06 -0.99855888859058717 0.0015270632987510191 1.9483872124057216e-07 -3.6991937215069548e-06 1.9483872124057216e-07 -0.19939541099095709 1.6023826691358156e-05 -3.6991937215069548e-06 1.6023826691358156e-05 -0.99852133651567232 0.0014479493241998931 4.8762242185937849e-06 -2.3377823883383164e-05 4.8762242185937849e-06 -0.19942440813609452 -2.0578645683611008e-06 -2.3377823883383164e-05 -2.0578645683611008e-06 -0.99858614143158952 0.0015120585121053964 -8.2184157513218484e-07 -2.5578975543893989e-05 -8.2184157513218484e-07 -0.19940274536816455 -5.8367828410857414e-06 -2.5578975543893989e-05 -5.8367828410857414e-06 -0.99857563826309792 0.0015114140786403607 -1.2413824256727951e-06 -2.4697622037828104e-05 -1.2413824256727951e-06 -0.19941185429195626 -5.3716420693183942e-06 -2.4697622037828104e-05 -5.3716420693183942e-06 -0.9985769042310102 0.0015112660669021581 -3.8926193843608333e-06 -1.966250257656732e-05 -3.8926193843608333e-06 -0.19940464534126084 -1.097899780827527e-05 -1.966250257656732e-05 -1.097899780827527e-05 -0.99854687493134331 0.0015311365260592402 4.3321765591061298e-06 -4.0006775398060412e-06 4.3321765591061298e-06 -0.19940046009821749 5.8549563622944945e-06 -4.0006775398060412e-06 5.8549563622944945e-06 -0.99854811230260332 0.0015515937773319388 6.0766478518112081e-07 -1.8501804149750889e-05 6.0766478518112081e-07 -0.1993895003756927 1.0450486630286804e-05 -1.8501804149750889e-05 1.0450486630286804e-05 -0.99851798052138219 0.0015313342739374514 3.2668345187582278e-06 4.1653105432859494e-06 3.2668345187582278e-06 -0.19938452826274156 -6.1812550293249835e-06 4.1653105432859494e-06 -6.1812550293249835e-06 -0.99849657261395675 0.0015289117822077456 1.7936929173829433e-06 5.0262765288431883e-06 1.7936929173829433e-06 -0.19939003667042549 -4.0387443786360563e-06 5.0262765288431883e-06 -4.0387443786360563e-06 -0.99849965817258102 0.001443297063876447 -2.4649605337840505e-06 -8.9538281418800199e-06 -2.4649605337840505e-06 -0.19942517418841041 9.1229593736936722e-06 -8.9538281418800199e-06 9.1229593736936722e-06 -0.9986148045420471 0.0014567823292987031 -4.7656539410620744e-06 -3.3410378599718626e-05 -4.7656539410620744e-06 -0.19941721024392572 2.3681718459012124e-06 -3.3410378599718626e-05 2.3681718459012124e-06 -0.99857564471196625 0.0013755292152233384 1.2711470351514058e-05 1.0607603272876311e-05 1.2711470351514058e-05 -0.19944321730493042 6.6224430046520206e-06 1.0607603272876311e-05 6.6224430046520206e-06 -0.99863818939705473 0.0014328278817284379 7.3503265515929129e-06 1.7206622647814029e-06 7.3503265515929129e-06 -0.19943423573368718 2.6894474011163183e-06 1.7206622647814029e-06 2.6894474011163183e-06 -0.99863035226682728 0.0012914547612521564 5.4185936867912925e-06 -5.7206380412455626e-05 5.4185936867912925e-06 -0.19946985579870874 2.2800705594154189e-06 -5.7206380412455626e-05 2.2800705594154189e-06 -0.99866695161510199 0.0012269826303841214 1.381645664775287e-05 1.9512212626866809e-05 1.381645664775287e-05 -0.19951387120497338 -1.9335380304075223e-06 1.9512212626866809e-05 -1.9335380304075223e-06 -0.99882330849174772 0.0012251162360516488 1.137719738253343e-05 2.0698928265103897e-05 1.137719738253343e-05 -0.1995160192447249 3.4205329299297169e-06 2.0698928265103897e-05 3.4205329299297169e-06 -0.99882676054889052 0.0012293061837482314 -5.9353637090436827e-06 -4.128350769904769e-06 -5.9353637090436827e-06 -0.19950249778685397 1.0106434774268296e-05 -4.128350769904769e-06 1.0106434774268296e-05 -0.99879170436627507 0.0012402549705402555 -8.212280806961441e-06 -4.5399924898659183e-05 -8.212280806961441e-06 -0.19948496858698339 -8.9640915994202427e-06 -4.5399924898659183e-05 -8.9640915994202427e-06 -0.99871139480577176 0.0012369089863441818 1.0980055609008433e-05 -2.9543354277045131e-05 1.0980055609008433e-05 -0.19950870217585506 -2.587583637247981e-06 -2.9543354277045131e-05 -2.587583637247981e-06 -0.99880125236619788 0.0012531049842192388 1.2951036838778583e-05 -2.5103523465797029e-05 1.2951036838778583e-05 -0.19948939929467252 -1.6355817994417876e-05 -2.5103523465797029e-05 -1.6355817994417876e-05 -0.99872280373907152 0.0014092153947318567 -1.2826850645356595e-05 -9.6850182806584861e-05 -1.2826850645356595e-05 -0.19943984691904712 -1.2186861781504632e-05 -9.6850182806584861e-05 -1.2186861781504632e-05 -0.99861442259082966 0.0014633875920968542 3.5417756252444055e-06 -4.6913853315344589e-05 3.5417756252444055e-06 -0.19941661977080449 9.0878007947547967e-06 -4.6913853315344589e-05 9.0878007947547967e-06 -0.99855918901955176 0.0013988585916481777 1.0932240610544044e-06 -0.00012179413599955335 1.0932240610544044e-06 -0.1994517428172311 -1.8354213103255468e-06 -0.00012179413599955335 -1.8354213103255468e-06 -0.99867020343938429 0.0012537914519280546 1.64840614901466e-05 -7.3848957407474103e-05 1.64840614901466e-05 -0.19950368508066879 4.7689317276833343e-06 -7.3848957407474103e-05 4.7689317276833343e-06 -0.99880387152299255 0.0012975604201477531 5.6147770190033837e-06 -5.4695137473970146e-05 5.6147770190033837e-06 -0.19949540166534288 -8.7160097699684469e-06 -5.4695137473970146e-05 -8.7160097699684469e-06 -0.99878949417488638 0.0014506877176013767 2.1655765892672429e-06 -3.4879601423010165e-05 2.1655765892672429e-06 -0.1994321836042619 4.5394462290793136e-06 -3.4879601423010165e-05 4.5394462290793136e-06 -0.99862762803351579 0.0012993735541890379 8.4044535134284115e-07 -4.4334249185484786e-05 8.4044535134284115e-07 -0.19946986133350816 4.3042663168089967e-06 -4.4334249185484786e-05 4.3042663168089967e-06 -0.99866467613548726 0.0012674228338903429 9.9670547605636098e-06 -6.8088564445734079e-05 9.9670547605636098e-06 -0.19947370158037184 2.5284379639001209e-05 -6.8088564445734079e-05 2.5284379639001209e-05 -0.99867019897006803 0.0012972449404017317 1.7648816944652925e-05 -0.00010207203710105306 1.7648816944652925e-05 -0.19946453543968268 -1.0663170724178883e-05 -0.00010207203710105306 -1.0663170724178883e-05 -0.9986421300404964 0.0012571869447074446 1.671123763847838e-05 -7.1066736830160959e-05 1.671123763847838e-05 -0.1995024804795561 8.9682095516518956e-07 -7.1066736830160959e-05 8.9682095516518956e-07 -0.99878966188254958 0.001512816158817154 3.2142518430275156e-06 -5.256378145368501e-05 3.2142518430275156e-06 -0.19941232160837263 5.1845762536473217e-06 -5.256378145368501e-05 5.1845762536473217e-06 -0.99858099422720992 0.0014839050554514843 8.9251014509187363e-06 -6.2465628420493857e-05 8.9251014509187363e-06 -0.19940536397670289 -1.3759936894341962e-06 -6.2465628420493857e-05 -1.3759936894341962e-06 -0.99851862657931911 0.0015338264457497794 -6.7372423930300413e-06 -3.5654361932535572e-05 -6.7372423930300413e-06 -0.19939249798082492 -6.8520562658269668e-06 -3.5654361932535572e-05 -6.8520562658269668e-06 -0.99851190551157631 0.0015630092676194897 6.1787765436382446e-07 -2.4711070658489653e-05 6.1787765436382446e-07 -0.19938459496055161 -1.0988583386772888e-05 -2.4711070658489653e-05 -1.0988583386772888e-05 -0.9984959882881097 0.00153425791417372 -8.3098327865206548e-06 -7.0921329444334491e-06 -8.3098327865206548e-06 -0.19939398941082742 -6.6625615685114714e-06 -7.0921329444334491e-06 -6.6625615685114714e-06 -0.99851978477793479 0.0016231756107226714 1.7980764310780722e-06 -3.3289262204139192e-05 1.7980764310780722e-06 -0.19935953709895671 6.4756607884852713e-06 -3.3289262204139192e-05 6.4756607884852713e-06 -0.99843281882624968 0.001585691789900423 9.3030986091001695e-06 -5.3094783039053794e-06 9.3030986091001695e-06 -0.19937533167818033 6.2649593148278448e-06 -5.3094783039053794e-06 6.2649593148278448e-06 -0.99848821498813134 0.0016191892477996905 2.1710387419317501e-06 -2.9800621898501412e-05 2.1710387419317501e-06 -0.19936260772986147 1.0138361662803685e-05 -2.9800621898501412e-05 1.0138361662803685e-05 -0.99844970892752816 0.0015571262161311883 7.4176780886275424e-07 -2.3323974213118603e-05 7.4176780886275424e-07 -0.1993836821575492 5.1813683405455002e-06 -2.3323974213118603e-05 5.1813683405455002e-06 -0.99849612048810266 0.0016105831303513951 -1.0340429523647842e-06 -5.1267716118408302e-05 -1.0340429523647842e-06 -0.19936838355350261 -1.0917830829071384e-05 -5.1267716118408302e-05 -1.0917830829071384e-05 -0.9984591509893137 0.0016128342769816673 5.8225911423838561e-08 -5.3114517147179185e-05 5.8225911423838561e-08 -0.19935560642061911 -2.0013819923558884e-06 -5.3114517147179185e-05 -2.0013819923558884e-06 -0.99845354065219905 0.0015320990701531145 -4.6982670403560972e-07 -4.0037661267200431e-05 -4.6982670403560972e-07 -0.19938472384469491 -1.5315881540800547e-06 -4.0037661267200431e-05 -1.5315881540800547e-06 -0.99849386166874088 0.0015769526910243137 1.4104822680314753e-06 -5.8939858843531923e-06 1.4104822680314753e-06 -0.19937962280643862 -3.230766963624454e-06 -5.8939858843531923e-06 -3.230766963624454e-06 -0.99851949385276839 0.0015364417539763808 -3.606221267812746e-07 -3.9784564936529154e-05 -3.606221267812746e-07 -0.19938075712508618 1.0176232130010288e-06 -3.9784564936529154e-05 1.0176232130010288e-06 -0.99847611764723165 0.0015285510359346888 1.3779973832978897e-05 -2.1189260041409863e-05 1.3779973832978897e-05 -0.19939702172302831 6.7156854167138569e-06 -2.1189260041409863e-05 6.7156854167138569e-06 -0.99855521264868763 0.0015464091882534392 1.821860578517885e-05 -3.065035234625646e-05 1.821860578517885e-05 -0.19938136886280489 -9.6740396136052453e-06 -3.065035234625646e-05 -9.6740396136052453e-06 -0.99849156589012811 0.0015274544927618983 2.0241364743732686e-06 -3.837829478882393e-05 2.0241364743732686e-06 -0.19939246213537998 1.3307130335760142e-05 -3.837829478882393e-05 1.3307130335760142e-05 -0.998516787795936 0.0015609651743836439 -2.9097576043395333e-05 -2.0731455719402714e-05 -2.9097576043395333e-05 -0.19937802145834471 1.3211754438913204e-05 -2.0731455719402714e-05 1.3211754438913204e-05 -0.99849739396358306 0.0015996483299221542 -9.0137767745021017e-07 -6.4476587503414784e-05 -9.0137767745021017e-07 -0.19935773710016169 1.6447298244237629e-05 -6.4476587503414784e-05 1.6447298244237629e-05 -0.9984351602966568 0.001275628523419059 -3.5371017000434484e-06 -4.2577869679039093e-05 -3.5371017000434484e-06 -0.19949911825832889 -2.0083077986315923e-06 -4.2577869679039093e-05 -2.0083077986315923e-06 -0.99880801980289946 0.0013375198876349748 -1.4932354033915799e-05 -3.3098786333785046e-05 -1.4932354033915799e-05 -0.19944290393670766 -2.0633316619167452e-06 -3.3098786333785046e-05 -2.0633316619167452e-06 -0.99859556113290804 0.0012816989966940306 -5.7352563636177006e-06 -4.7305542564907155e-05 -5.7352563636177006e-06 -0.1994959243393086 3.0363197419114307e-06 -4.7305542564907155e-05 3.0363197419114307e-06 -0.99879630193530999 0.0013635599799332043 -6.716440992294395e-06 -0.00010671199098150064 -6.716440992294395e-06 -0.19945746007810344 3.0954794074666836e-06 -0.00010671199098150064 3.0954794074666836e-06 -0.99868868117784904 0.0013189437051220332 -2.3881368867756971e-05 -7.2159824082776436e-05 -2.3881368867756971e-05 -0.19948867887162114 3.4605705122148223e-05 -7.2159824082776436e-05 3.4605705122148223e-05 -0.99880776830529339 0.0013993885599501432 3.1555951446033531e-06 -0.00012059661531238497 3.1555951446033531e-06 -0.19944524524154214 -1.7721571762274735e-06 -0.00012059661531238497 -1.7721571762274735e-06 -0.99866989857980426 0.0012676050976241637 4.6396565515792776e-07 -1.5744934385220066e-05 4.6396565515792776e-07 -0.19948882980336813 -5.9717976253204075e-05 -1.5744934385220066e-05 -5.9717976253204075e-05 -0.99870609713544167 0.0013304400756029289 1.4002845929730029e-07 -6.3351292757529709e-05 1.4002845929730029e-07 -0.19945954910017152 -2.0083105537593154e-06 -6.3351292757529709e-05 -2.0083105537593154e-06 -0.99867525487149644 0.0012516018278593416 -3.4930814757392843e-06 -7.6595342458130045e-05 -3.4930814757392843e-06 -0.19949857055827958 3.1897145924553172e-07 -7.6595342458130045e-05 3.1897145924553172e-07 -0.99878153105435818 0.0012856089394867598 4.2585003849672063e-06 2.2781637464974471e-05 4.2585003849672063e-06 -0.1994769341305892 -3.8230967204135255e-06 2.2781637464974471e-05 -3.8230967204135255e-06 -0.99866026261982999 0.0014313557674565866 -6.1151828251806308e-06 9.094424567035464e-07 -6.1151828251806308e-06 -0.19943123106835825 1.2684673590057649e-05 9.094424567035464e-07 1.2684673590057649e-05 -0.9986149609910222 0.0012711951270454602 3.9863729194423903e-07 -3.3726768489061865e-05 3.9863729194423903e-07 -0.19948454691017414 6.05035349034444e-05 -3.3726768489061865e-05 6.05035349034444e-05 -0.99873025855611752 0.0013222271298808236 -2.513265432936135e-05 -5.4874434831375662e-05 -2.513265432936135e-05 -0.19945956841316625 -1.3567800804137331e-05 -5.4874434831375662e-05 -1.3567800804137331e-05 -0.99866538105338809 0.0014248607228445342 -2.9702865108813993e-06 1.0231088440960438e-05 -2.9702865108813993e-06 -0.19944176813360137 -3.0532922789498418e-06 1.0231088440960438e-05 -3.0532922789498418e-06 -0.99862666012789969 0.0012312931246996062 5.4775622430962293e-07 1.6800970890421914e-05 5.4775622430962293e-07 -0.1995056803263055 -1.2711001268203987e-06 1.6800970890421914e-05 -1.2711001268203987e-06 -0.99880705369003853 0.001236267650162215 -2.7715182129889466e-06 2.0549150849892533e-05 -2.7715182129889466e-06 -0.19951525392392627 -9.2465519137740848e-06 2.0549150849892533e-05 -9.2465519137740848e-06 -0.99880937275139603 0.0015097548543445694 -2.1323358150712159e-06 -2.4741568433794825e-05 -2.1323358150712159e-06 -0.19940833824823764 -3.5056308598860331e-06 -2.4741568433794825e-05 -3.5056308598860331e-06 -0.99857895556851162 0.0015093718516171551 1.9122257892971785e-06 -2.5240220376173197e-05 1.9122257892971785e-06 -0.19940788896754214 8.8652636669461771e-06 -2.5240220376173197e-05 8.8652636669461771e-06 -0.99857984388126342 0.001521230309110555 1.1715925794056229e-06 -1.2756049640960665e-05 1.1715925794056229e-06 -0.19940258360610963 -2.1609310019215719e-06 -1.2756049640960665e-05 -2.1609310019215719e-06 -0.99855812943695355 0.0014300638486280381 -4.7874940208381182e-07 5.4331415426052464e-06 -4.7874940208381182e-07 -0.19942649563943188 -1.8261463804817693e-06 5.4331415426052464e-06 -1.8261463804817693e-06 -0.99858691091025864 0.0015283846205008224 1.8406895621784178e-06 4.3985575459240826e-06 1.8406895621784178e-06 -0.19938707507150338 -4.5395289506503922e-06 4.3985575459240826e-06 -4.5395289506503922e-06 -0.99849953336836161 0.0015278773796390255 8.3340679968601636e-07 5.3558466428219091e-06 8.3340679968601636e-07 -0.19939101906102466 -3.9141230949724104e-06 5.3558466428219091e-06 -3.9141230949724104e-06 -0.9984981262549697 0.001522180685604585 -3.9536780755075116e-07 -1.1991101839525786e-05 -3.9536780755075116e-07 -0.19940253629924706 -4.7948525718349844e-06 -1.1991101839525786e-05 -4.7948525718349844e-06 -0.99855022902549395 0.0015406880257260447 4.9636662709330127e-08 -2.0646093666532028e-05 4.9636662709330127e-08 -0.19938531446174335 -6.925432555378308e-06 -2.0646093666532028e-05 -6.925432555378308e-06 -0.99848294302449148 0.0015312045754186381 -1.0293671771970785e-07 4.4904420309863102e-06 -1.0293671771970785e-07 -0.19938481205215117 2.5378899107928151e-06 4.4904420309863102e-06 2.5378899107928151e-06 -0.99850747845126653 0.0015293222323504981 2.6768168388230643e-06 6.4806027570610423e-06 2.6768168388230643e-06 -0.1993898179647309 -1.0150232704197941e-06 6.4806027570610423e-06 -1.0150232704197941e-06 -0.99850212858230991 0.0015491592873594917 4.1932177431176093e-06 -2.2536925428640053e-05 4.1932177431176093e-06 -0.19938167589622657 2.6872804932409622e-06 -2.2536925428640053e-05 2.6872804932409622e-06 -0.99847679703885328 0.0015282040179751821 4.0285375254561875e-06 -1.2709434330959724e-05 4.0285375254561875e-06 -0.19940060187821479 2.4971948547336531e-06 -1.2709434330959724e-05 2.4971948547336531e-06 -0.99855300940450742 0.0015303932038970485 -3.7775117211191618e-06 5.9860752042896137e-06 -3.7775117211191618e-06 -0.19938962334983257 1.9012525429459578e-06 5.9860752042896137e-06 1.9012525429459578e-06 -0.9984936227976321 0.0014447082030395464 2.3690421071201415e-06 7.2887125546761133e-06 2.3690421071201415e-06 -0.199422668076422 3.4739186462462435e-06 7.2887125546761133e-06 3.4739186462462435e-06 -0.99858101229963947 0.0015316424393555517 -1.6670879767136042e-06 7.7982364302953133e-06 -1.6670879767136042e-06 -0.19938968213052444 6.5776279293827677e-06 7.7982364302953133e-06 6.5776279293827677e-06 -0.99850042797119198 0.0015257818895216024 -1.5172905720469893e-06 3.0582506971236543e-06 -1.5172905720469893e-06 -0.19939341661610285 5.3874305731485545e-06 3.0582506971236543e-06 5.3874305731485545e-06 -0.99849969158991347 0.0014342255889129296 -4.6369575708469938e-06 1.0744839517678388e-05 -4.6369575708469938e-06 -0.1994266550277235 3.6305620256053975e-06 1.0744839517678388e-05 3.6305620256053975e-06 -0.99858372822700847 0.001435768764911638 -3.3067524028462594e-06 3.1077479517223631e-06 -3.3067524028462594e-06 -0.19942643929116444 2.2253011886140677e-06 3.1077479517223631e-06 2.2253011886140677e-06 -0.99858504531340886 0.0015169384516670603 -2.4070852852632575e-06 -1.711761709161097e-05 -2.4070852852632575e-06 -0.19940478968607753 1.5777385081669482e-06 -1.711761709161097e-05 1.5777385081669482e-06 -0.99855706229041252 0.0015532744955876199 -1.6580714381349063e-06 -1.9444035062987641e-05 -1.6580714381349063e-06 -0.19937482408140969 -5.4907223008271444e-06 -1.9444035062987641e-05 -5.4907223008271444e-06 -0.9984885019832116 0.0015435137909950436 2.3199625807140095e-07 -2.2047542463821124e-05 2.3199625807140095e-07 -0.19938176704269023 6.8086578762296956e-06 -2.2047542463821124e-05 6.8086578762296956e-06 -0.99847235793181222 0.0015210278486028905 -1.0247256415246004e-07 -1.2968082536202186e-05 -1.0247256415246004e-07 -0.19940326292993346 6.520302592655236e-06 -1.2968082536202186e-05 6.520302592655236e-06 -0.99855890273704329 0.0014763681300940246 3.5481002087590132e-05 -4.0910934834104129e-05 3.5481002087590132e-05 -0.19940547411752732 1.914767184563182e-05 -4.0910934834104129e-05 1.914767184563182e-05 -0.99855246644364182 0.0015450232501091898 1.4797914624887613e-06 -1.9683366188183449e-05 1.4797914624887613e-06 -0.19939928915043259 4.2370203480399105e-06 -1.9683366188183449e-05 4.2370203480399105e-06 -0.99855226415870479 0.0015526878281433842 -1.1535097013387357e-07 -2.4485846893990137e-05 -1.1535097013387357e-07 -0.19938498091113949 -5.1496712017880253e-06 -2.4485846893990137e-05 -5.1496712017880253e-06 -0.99853998183037951 0.0014805291045497659 4.5642395800947562e-09 -7.3852823439621296e-05 4.5642395800947562e-09 -0.19942082785471632 -3.9522698313254612e-06 -7.3852823439621296e-05 -3.9522698313254612e-06 -0.99860639061462941 0.0015448664874320173 1.352731448796139e-07 -2.2548720353343654e-05 1.352731448796139e-07 -0.19938204125550885 3.1043259854923733e-06 -2.2548720353343654e-05 3.1043259854923733e-06 -0.99846531928471105 0.0015204583009950645 -8.7829372462684968e-06 -7.8831014759805917e-06 -8.7829372462684968e-06 -0.19939252352177139 3.7706438243967355e-06 -7.8831014759805917e-06 3.7706438243967355e-06 -0.99851688898453372 0.0015193739312451826 -2.5749179410692168e-05 -2.2702366645074856e-05 -2.5749179410692168e-05 -0.19940434916916722 -1.2076855449960622e-05 -2.2702366645074856e-05 -1.2076855449960622e-05 -0.99855408161640868 0.0016014295096418163 -1.8115251333197049e-07 -6.1988864084150386e-05 -1.8115251333197049e-07 -0.19936184377118638 7.7421047670715726e-06 -6.1988864084150386e-05 7.7421047670715726e-06 -0.99842212375413064 0.0015952067762127209 -1.5695957696242323e-07 -6.2962357289753079e-05 -1.5695957696242323e-07 -0.19936736195640048 -1.0943321626100122e-05 -6.2962357289753079e-05 -1.0943321626100122e-05 -0.99844772292744333 0.0016016366367669066 -1.6166433223082185e-06 -5.6094223193969839e-05 -1.6166433223082185e-06 -0.19935397052255457 -3.153203679384653e-06 -5.6094223193969839e-05 -3.153203679384653e-06 -0.99840821973564309 0.0015865045806582323 1.7613771053213627e-07 -5.2806184788201094e-05 1.7613771053213627e-07 -0.19936298328223501 -4.4480159118454043e-06 -5.2806184788201094e-05 -4.4480159118454043e-06 -0.99846299157602436 0.0015852309906614348 -2.0267174407645109e-06 -5.2212978158716616e-05 -2.0267174407645109e-06 -0.1993704938909393 1.5589323208997641e-06 -5.2212978158716616e-05 1.5589323208997641e-06 -0.99847191073277219 0.0014803503443210908 -5.3984778049746016e-06 -5.849687913486723e-05 -5.3984778049746016e-06 -0.19940892021781553 -4.2347669632347706e-06 -5.849687913486723e-05 -4.2347669632347706e-06 -0.99854918947231464 0.0015494903339073329 -2.5672631671590328e-06 -2.3094942041584909e-05 -2.5672631671590328e-06 -0.19939428655185548 1.9591577209709943e-06 -2.3094942041584909e-05 1.9591577209709943e-06 -0.99854246869631735 0.0015917599681849331 6.1993321333090456e-06 -5.327170467861464e-05 6.1993321333090456e-06 -0.19937112070854657 1.3029107226336656e-05 -5.327170467861464e-05 1.3029107226336656e-05 -0.99845464766961323 0.0015901977763692621 -1.2821871684205792e-07 -5.5421819598944211e-05 -1.2821871684205792e-07 -0.19935801226497146 1.7347750105312087e-06 -5.5421819598944211e-05 1.7347750105312087e-06 -0.99844953288766414 0.0016137043723450928 -2.2214622134425047e-06 -3.0130005110984293e-05 -2.2214622134425047e-06 -0.19936263707408752 -1.0358885408789931e-05 -3.0130005110984293e-05 -1.0358885408789931e-05 -0.99844246750587584 0.0015824520263670872 -8.8458358647489835e-06 -7.6487855360518608e-06 -8.8458358647489835e-06 -0.19937523343567365 -5.5350608712534388e-06 -7.6487855360518608e-06 -5.5350608712534388e-06 -0.99848162104398042 0.0015502581632504918 3.0986648931341794e-06 -2.9048586112412345e-05 3.0986648931341794e-06 -0.19938550533285082 1.4192550541913818e-05 -2.9048586112412345e-05 1.4192550541913818e-05 -0.99848933737006629 0.001483616441031085 -1.4472436746987489e-06 -6.400444325460608e-05 -1.4472436746987489e-06 -0.19940115220670676 5.9865345537479797e-06 -6.400444325460608e-05 5.9865345537479797e-06 -0.99850452307313986 0.001558695309119118 -9.0692954039078432e-07 -2.2543265442598326e-05 -9.0692954039078432e-07 -0.19938206904052952 -4.8327182369245492e-06 -2.2543265442598326e-05 -4.8327182369245492e-06 -0.9984862845457545 0.0015548192998995902 -1.6537414393434007e-06 -1.8636840638075469e-05 -1.6537414393434007e-06 -0.19938445480382899 -7.5086145407410321e-06 -1.8636840638075469e-05 -7.5086145407410321e-06 -0.99850330757218564 0.0015373313964995861 -3.456385066275549e-06 -5.6388807372909078e-06 -3.456385066275549e-06 -0.199392824382286 -4.9852737227240596e-06 -5.6388807372909078e-06 -4.9852737227240596e-06 -0.9985330308621021 0.0015003371163122559 -3.8556312096709839e-08 1.0682598052936631e-05 -3.8556312096709839e-08 -0.19939884587469353 -1.3482852081459563e-05 1.0682598052936631e-05 -1.3482852081459563e-05 -0.99855375895552978 0.0015347424728763825 -1.6528385515507674e-06 -1.0531155924087265e-05 -1.6528385515507674e-06 -0.19938890763141859 -8.9799151587466319e-06 -1.0531155924087265e-05 -8.9799151587466319e-06 -0.99851955392852554 0.0015164975573642714 3.6944836243685113e-06 1.175992098007006e-06 3.6944836243685113e-06 -0.19939722138514185 -1.5721482286318311e-05 1.175992098007006e-06 -1.5721482286318311e-05 -0.99854058733394102 0.0015105546885716414 -1.3508908379358843e-06 7.6163597453897135e-06 -1.3508908379358843e-06 -0.19939263641011074 -4.0171927269155142e-06 7.6163597453897135e-06 -4.0171927269155142e-06 -0.99851303087469057 0.0015329535347743395 3.0677559266389463e-07 -9.6103223386490022e-06 3.0677559266389463e-07 -0.19939878760587681 -2.1894057038486514e-06 -9.6103223386490022e-06 -2.1894057038486514e-06 -0.99854755444916055 0.0015119383143737952 -5.9169282217048083e-06 5.6242755927706188e-06 -5.9169282217048083e-06 -0.19939818392478995 7.1496415471236619e-06 5.6242755927706188e-06 7.1496415471236619e-06 -0.99852316451029077 0.0015241205033724725 -1.1244788354996094e-06 -4.3364078354812818e-06 -1.1244788354996094e-06 -0.19940421622718651 -2.9001883262991246e-06 -4.3364078354812818e-06 -2.9001883262991246e-06 -0.99856824490077301 0.0015231522154518229 -7.7668632291768635e-07 -2.0028363461044307e-06 -7.7668632291768635e-07 -0.19939382066858979 -1.5004822738196033e-06 -2.0028363461044307e-06 -1.5004822738196033e-06 -0.99851244720321697 0.0015229194354226816 -4.7746355224035916e-06 -2.5033577410460417e-06 -4.7746355224035916e-06 -0.19940349792596077 6.3579895952167731e-06 -2.5033577410460417e-06 6.3579895952167731e-06 -0.99856118553192708 0.0015494621037124012 1.0160924987561757e-06 -2.2056264837033712e-05 1.0160924987561757e-06 -0.19938718111083178 -4.1008483573357069e-06 -2.2056264837033712e-05 -4.1008483573357069e-06 -0.99850289618928356 0.0015488763061711902 -7.2410571627036991e-07 -2.0690514615118172e-05 -7.2410571627036991e-07 -0.19938562490466299 1.3264521798173057e-06 -2.0690514615118172e-05 1.3264521798173057e-06 -0.99849968386747534 0.0014364004921535722 -6.340120405438547e-06 6.9159007545366302e-06 -6.340120405438547e-06 -0.19942646195872674 -1.9987846268665344e-06 6.9159007545366302e-06 -1.9987846268665344e-06 -0.99859256338594071 0.0014379271635612811 -6.8711391723402298e-06 8.8129952338485052e-06 -6.8711391723402298e-06 -0.19942515912735254 6.6471927327494708e-06 8.8129952338485052e-06 6.6471927327494708e-06 -0.99858487858055756 0.0014492988658924566 7.1018703625442148e-06 -6.9409876823755457e-06 7.1018703625442148e-06 -0.1994140960394577 -9.2643822900221293e-06 -6.9409876823755457e-06 -9.2643822900221293e-06 -0.99857668332535021 0.0014442593399726089 8.3645276743047247e-06 -3.0680380595726753e-05 8.3645276743047247e-06 -0.19941791684567384 -2.3035312476327174e-05 -3.0680380595726753e-05 -2.3035312476327174e-05 -0.99859934392044125 0.0014265733890025112 -5.2460952820180156e-06 -1.5251580790021091e-05 -5.2460952820180156e-06 -0.19943551213897104 -8.9746344570929004e-06 -1.5251580790021091e-05 -8.9746344570929004e-06 -0.99863257109260495 0.0014517047657151561 -6.0095176265484454e-06 -2.8324335700102843e-05 -6.0095176265484454e-06 -0.19941287216410686 -3.933860716842652e-06 -2.8324335700102843e-05 -3.933860716842652e-06 -0.99854434702633355 0.0015350702778551516 -1.986473509664537e-06 -1.081796104435151e-05 -1.986473509664537e-06 -0.19939441247238032 2.4370859114108967e-07 -1.081796104435151e-05 2.4370859114108967e-07 -0.99853190981023998 0.0013176077908729766 1.9993866928966324e-05 3.4912773909823169e-05 1.9993866928966324e-05 -0.19945561612902701 9.6119048503817694e-07 3.4912773909823169e-05 9.6119048503817694e-07 -0.99862807920403873 0.0013288199649487964 -0.0001117246706607039 -7.3117876285055949e-05 -0.0001117246706607039 -0.19946367818154273 -3.0289811128847433e-05 -7.3117876285055949e-05 -3.0289811128847433e-05 -0.99869228307824642 0.0013146591072530078 1.5768061845423424e-05 -5.3661779265329335e-05 1.5768061845423424e-05 -0.19946721218906402 6.5760862866248715e-07 -5.3661779265329335e-05 6.5760862866248715e-07 -0.99868351456274507 0.0013790544061879073 -4.3232179822776173e-06 1.1286058743468823e-05 -4.3232179822776173e-06 -0.19944477937897817 -4.679703384853743e-06 1.1286058743468823e-05 -4.679703384853743e-06 -0.99866194523874041 0.0012503083857009767 4.6583828607431785e-06 5.6146836956150192e-06 4.6583828607431785e-06 -0.19950204001030203 4.2557946730414908e-05 5.6146836956150192e-06 4.2557946730414908e-05 -0.99880878835644904 0.0012461170106052855 -7.6764927559304201e-06 8.4661030048475069e-06 -7.6764927559304201e-06 -0.19950870796926848 -9.2607765357030725e-06 8.4661030048475069e-06 -9.2607765357030725e-06 -0.99883918575990027 0.0012192124996581054 5.8441077599597298e-07 -5.0567934679576255e-05 5.8441077599597298e-07 -0.19949821499020648 -3.758097085579306e-05 -5.0567934679576255e-05 -3.758097085579306e-05 -0.9987443723030075 0.0012801142963009082 1.470401303653142e-05 1.1081439928990695e-06 1.470401303653142e-05 -0.19946904464652312 -7.49326033855158e-06 1.1081439928990695e-06 -7.49326033855158e-06 -0.99867955278189591 0.0012245474281643021 -7.4844121757304165e-06 -2.9621621868147763e-06 -7.4844121757304165e-06 -0.19950839119498398 1.466594297894197e-06 -2.9621621868147763e-06 1.466594297894197e-06 -0.99878215807151283 0.0012006857228903656 -1.4957077809309913e-05 -3.9213101111344739e-05 -1.4957077809309913e-05 -0.19952331931826198 -1.8366427815275088e-06 -3.9213101111344739e-05 -1.8366427815275088e-06 -0.99883550880357419 0.0014020596811755159 1.112985805681401e-06 -0.00011699768465955884 1.112985805681401e-06 -0.19945345611537285 2.9813975110370983e-06 -0.00011699768465955884 2.9813975110370983e-06 -0.99869990899679806 0.0014342764306551348 2.5788621103079795e-06 -5.2225867896882328e-05 2.5788621103079795e-06 -0.19941989648571068 -6.2227231885023104e-06 -5.2225867896882328e-05 -6.2227231885023104e-06 -0.99856183019514788 0.0012990687667568945 -7.5472836208270277e-06 -6.3947088310145617e-05 -7.5472836208270277e-06 -0.19946162567862225 -4.1568381914935948e-06 -6.3947088310145617e-05 -4.1568381914935948e-06 -0.99863651508507578 0.0012524337681275033 -2.2058289441007475e-06 -2.6467578320477081e-05 -2.2058289441007475e-06 -0.19949034759060058 -1.4759078191428632e-05 -2.6467578320477081e-05 -1.4759078191428632e-05 -0.99872469431644095 0.0014033067026406817 1.6416255090382137e-07 -2.8131589586921635e-05 1.6416255090382137e-07 -0.19943585433784414 1.4170108931371717e-07 -2.8131589586921635e-05 1.4170108931371717e-07 -0.99861621390448019 0.00125020656909966 -4.0810038186659259e-06 -3.7696202272397006e-05 -4.0810038186659259e-06 -0.19950817451863581 -4.8724318520987353e-06 -3.7696202272397006e-05 -4.8724318520987353e-06 -0.99880719522669337 0.0012965338270596871 -1.1262919916462194e-05 -7.8320458725411601e-05 -1.1262919916462194e-05 -0.19948478779549877 7.5274950003256791e-06 -7.8320458725411601e-05 7.5274950003256791e-06 -0.99874886654402983 0.001453304157483952 -9.8973710513771918e-06 -3.7920285209325222e-05 -9.8973710513771918e-06 -0.19942354256433392 4.9261939034650482e-06 -3.7920285209325222e-05 4.9261939034650482e-06 -0.99860246654511142 0.0015210812531670156 1.3707615436909608e-06 -5.3635144259045475e-05 1.3707615436909608e-06 -0.19941284060955539 2.4930173709858394e-06 -5.3635144259045475e-05 2.4930173709858394e-06 -0.99860023706645529 0.0012753913277426254 -1.7540915559448874e-05 -9.4658203874997682e-05 -1.7540915559448874e-05 -0.19949487097896029 -5.5152530239466202e-06 -9.4658203874997682e-05 -5.5152530239466202e-06 -0.99878893586826201 0.001398277821110655 -1.1290553587532979e-05 -0.00011343083205173077 -1.1290553587532979e-05 -0.19945358350262396 1.9688334979006683e-06 -0.00011343083205173077 1.9688334979006683e-06 -0.99870002841435734 0.0013359120016610271 2.1659950212653201e-05 -8.4187832856401357e-05 2.1659950212653201e-05 -0.19948592337927309 -2.4645492914032729e-05 -8.4187832856401357e-05 -2.4645492914032729e-05 -0.99878703177666439 0.001360245532309734 3.5916179591738968e-06 -0.00010708822995743328 3.5916179591738968e-06 -0.1994669399018133 6.2167415282310401e-07 -0.00010708822995743328 6.2167415282310401e-07 -0.99871103784269977 0.0013479207915351177 1.6647280382508703e-05 -3.5663810844466237e-05 1.6647280382508703e-05 -0.19944472985859663 -7.2711622689514144e-07 -3.5663810844466237e-05 -7.2711622689514144e-07 -0.99859409017812428 0.0013373444929476591 2.2798878083330013e-05 -5.205894918619558e-05 2.2798878083330013e-05 -0.19946020853975607 6.6693171887899361e-06 -5.205894918619558e-05 6.6693171887899361e-06 -0.99866351652707896 0.0012837240010800111 -8.7124169293848957e-06 3.1459269964321133e-05 -8.7124169293848957e-06 -0.19947924719927349 4.5893790322758174e-06 3.1459269964321133e-05 4.5893790322758174e-06 -0.99869547421815075 0.001416957583657702 1.0328417514757124e-06 -3.4414327237330955e-05 1.0328417514757124e-06 -0.1994400090008541 -3.5105106805100039e-06 -3.4414327237330955e-05 -3.5105106805100039e-06 -0.99863909225002512 0.0012554590920268172 3.7175754467350165e-06 4.6625639682773556e-06 3.7175754467350165e-06 -0.1994900841251962 3.9945489361703501e-05 4.6625639682773556e-06 3.9945489361703501e-05 -0.9987251951193532 0.0014033553251496592 -5.5029163900469881e-06 -2.8672938363949463e-05 -5.5029163900469881e-06 -0.19944560895245403 1.0366043405179992e-06 -2.8672938363949463e-05 1.0366043405179992e-06 -0.99864725657371523 0.0012463936615723509 -1.9585825984207873e-05 -2.5566031752188856e-05 -1.9585825984207873e-05 -0.19949236465986969 -5.7278678464056654e-05 -2.5566031752188856e-05 -5.7278678464056654e-05 -0.99874194225584478 0.0012049180099676926 -2.194662937948364e-06 -6.9902164469282102e-05 -2.194662937948364e-06 -0.19951108714353305 1.7145520044559159e-06 -6.9902164469282102e-05 1.7145520044559159e-06 -0.99879094087198006 0.0014291079405130969 -4.7242771197141789e-07 6.2064509503383142e-06 -4.7242771197141789e-07 -0.19942216142667468 -1.3228212878734012e-06 6.2064509503383142e-06 -1.3228212878734012e-06 -0.998586609863925 0.0012367575598731251 3.5538090692722901e-06 2.357741848301605e-05 3.5538090692722901e-06 -0.19951067637489978 1.0082620907692225e-05 2.357741848301605e-05 1.0082620907692225e-05 -0.99880248980928643 0.00078078362849440253 3.613076261171318e-05 6.5057594216433312e-05 3.613076261171318e-05 -0.19965594217882326 5.5704025606617691e-05 6.5057594216433312e-05 5.5704025606617691e-05 -0.99912760939361489 0.00085774247342310789 4.5010107521894591e-05 -5.0979291208674837e-05 4.5010107521894591e-05 -0.19962728743496033 -1.4800593808317331e-05 -5.0979291208674837e-05 -1.4800593808317331e-05 -0.99902246589460519 0.0010720115448636658 3.6658260477010962e-06 2.1862281449007426e-05 3.6658260477010962e-06 -0.19955568497855464 -8.3231544412143421e-06 2.1862281449007426e-05 -8.3231544412143421e-06 -0.9988805609342305 0.00094263301379621245 5.8320867720838185e-06 1.5146194963358912e-05 5.8320867720838185e-06 -0.19958050575747782 3.9271193025507772e-06 1.5146194963358912e-05 3.9271193025507772e-06 -0.99887711685982594 0.001001177937316286 2.6704968146832403e-06 -7.4589002601377352e-05 2.6704968146832403e-06 -0.19958954745841079 -5.1954901002515541e-06 -7.4589002601377352e-05 -5.1954901002515541e-06 -0.99897993194172208 0.00085319030766137227 -1.4969208631629868e-07 -8.5375704111267936e-05 -1.4969208631629868e-07 -0.19963220503750492 -2.8626137457340994e-05 -8.5375704111267936e-05 -2.8626137457340994e-05 -0.9990508274513421 0.00078116170738584678 -8.5734971225078323e-05 -1.6118875414694589e-05 -8.5734971225078323e-05 -0.1996410036102311 2.7614515832052877e-05 -1.6118875414694589e-05 2.7614515832052877e-05 -0.99905961660894949 0.001072262530321777 -1.5609421978700066e-05 8.5762170271356669e-06 -1.5609421978700066e-05 -0.19955103294481824 7.631942792231832e-06 8.5762170271356669e-06 7.631942792231832e-06 -0.998845648635452 0.00070537395117056118 -4.0926379001478097e-05 3.4052741524098762e-05 -4.0926379001478097e-05 -0.19966914555385637 -4.9487093435884866e-05 3.4052741524098762e-05 -4.9487093435884866e-05 -0.99909768719737257 0.0010772036093809612 1.396415989039011e-05 1.6512415769262897e-05 1.396415989039011e-05 -0.19955034675269059 -8.1278975199489849e-06 1.6512415769262897e-05 -8.1278975199489849e-06 -0.99887999982405518 0.00073879795692305406 1.2896799603091725e-05 -8.6199799955585479e-06 1.2896799603091725e-05 -0.19967896008899833 -1.2443533353248935e-05 -8.6199799955585479e-06 -1.2443533353248935e-05 -0.99919559467866692 0.00071156230293278888 -1.1547925426715798e-05 2.2895802512711073e-05 -1.1547925426715798e-05 -0.19968608004530813 1.5015213340034411e-06 2.2895802512711073e-05 1.5015213340034411e-06 -0.99919938113635109 0.0011030489497665941 -7.9597386984155821e-06 -0.00014665185933232516 -7.9597386984155821e-06 -0.19955646115942088 -3.3966981818067676e-06 -0.00014665185933232516 -3.3966981818067676e-06 -0.99891411250096751 0.0011170173940303618 -2.6354308211149048e-06 -2.3208619126626959e-05 -2.6354308211149048e-06 -0.19953688223876609 2.6147937663978382e-06 -2.3208619126626959e-05 2.6147937663978382e-06 -0.99881781570083117 0.0011089463270979039 -3.1667901673698129e-05 -5.2216306273014657e-05 -3.1667901673698129e-05 -0.19954299380705237 -8.3246244778067968e-06 -5.2216306273014657e-05 -8.3246244778067968e-06 -0.99884836117905684 0.00097163689689908073 1.0707754957696757e-05 -0.00015314239452358241 1.0707754957696757e-05 -0.19957984310481278 7.6209456164044731e-05 -0.00015314239452358241 7.6209456164044731e-05 -0.99890749758627406 0.0008607910875737812 -2.6350281073501273e-05 -0.00017221602692552018 -2.6350281073501273e-05 -0.1996327277763669 9.2102084425782493e-06 -0.00017221602692552018 9.2102084425782493e-06 -0.99907767251345192 0.00083570448039690937 2.8424810755096215e-05 -2.1206066586565431e-05 2.8424810755096215e-05 -0.19966157088623579 9.4298407062876066e-06 -2.1206066586565431e-05 9.4298407062876066e-06 -0.99917391140857459 0.0011266550748014886 9.1839057062650462e-05 -4.5572172638078112e-05 9.1839057062650462e-05 -0.1995340405736194 2.7677928578273558e-05 -4.5572172638078112e-05 2.7677928578273558e-05 -0.9988306199631396 0.00093639785855992308 1.3960819740268121e-06 -0.00015398480017020377 1.3960819740268121e-06 -0.1996204675158883 1.0887484688359983e-05 -0.00015398480017020377 1.0887484688359983e-05 -0.9990563067613274 0.00079144392441188316 -1.7183582270256507e-05 3.9793842604579632e-05 -1.7183582270256507e-05 -0.19965277810758017 7.5267257185901437e-06 3.9793842604579632e-05 7.5267257185901437e-06 -0.99909587245020492 0.00085817730086834576 -6.2473262466622612e-06 -0.00017592914946296112 -6.2473262466622612e-06 -0.1996305074921213 -1.79688171512149e-05 -0.00017592914946296112 -1.79688171512149e-05 -0.99904731002759317 0.00086506585562723393 3.9500959782250039e-05 -0.00011819880232077917 3.9500959782250039e-05 -0.19962597186706926 -1.0935464517580762e-05 -0.00011819880232077917 -1.0935464517580762e-05 -0.9990201144492401 0.00068762002563255153 -2.3512821686820443e-05 -3.6153649357203999e-05 -2.3512821686820443e-05 -0.19970658349222659 -2.5655356190694423e-06 -3.6153649357203999e-05 -2.5655356190694423e-06 -0.99925672894962991 0.0010991005734910242 -1.8193970418704483e-05 -6.9304755554840114e-05 -1.8193970418704483e-05 -0.19954651042045315 -1.1507642041885813e-05 -6.9304755554840114e-05 -1.1507642041885813e-05 -0.9988525046113087 0.00069240859677821565 -2.1428205207431911e-05 -6.6371657956254548e-05 -2.1428205207431911e-05 -0.19969750972804967 4.5527129782507725e-06 -6.6371657956254548e-05 4.5527129782507725e-06 -0.99921176785172583 0.00098232735884931643 -2.2397580724324278e-06 -8.174316454467867e-05 -2.2397580724324278e-06 -0.19957360069344909 -7.1300072073954279e-06 -8.174316454467867e-05 -7.1300072073954279e-06 -0.9988822556271002 0.0010286824750752599 -6.5977898709754724e-06 -0.00014414235057258473 -6.5977898709754724e-06 -0.19958266926212442 -8.2123616446105885e-06 -0.00014414235057258473 -8.2123616446105885e-06 -0.99897587467199056 0.0010954896394353708 -5.8875294446716569e-06 -5.4937147163425237e-05 -5.8875294446716569e-06 -0.19954397275393473 -8.9440164390275356e-06 -5.4937147163425237e-05 -8.9440164390275356e-06 -0.99884903274359915 0.00072039914354390944 1.5793165012711621e-05 -2.0175533857247352e-05 1.5793165012711621e-05 -0.19967906832542484 2.8025849856394558e-05 -2.0175533857247352e-05 2.8025849856394558e-05 -0.99913201370286153 0.0010990087543380489 -1.1357526836320951e-05 -8.1069644194631252e-05 -1.1357526836320951e-05 -0.19955005814768975 -7.7109919565110374e-06 -8.1069644194631252e-05 -7.7109919565110374e-06 -0.99887046562148674 0.00094980725753213147 -1.1589858660292004e-05 4.6431833830330727e-06 -1.1589858660292004e-05 -0.19960419363690685 -8.8179628948692468e-06 4.6431833830330727e-06 -8.8179628948692468e-06 -0.99899307548516347 0.00079074678427129563 3.2131473057156321e-05 -3.9766152026887713e-05 3.2131473057156321e-05 -0.1996520887591475 1.7488991783942698e-06 -3.9766152026887713e-05 1.7488991783942698e-06 -0.99905135021012204 0.0007739407530745479 2.8030432468445767e-05 -7.3323345729903178e-05 2.8030432468445767e-05 -0.19966423561010338 -4.2180896697163739e-06 -7.3323345729903178e-05 -4.2180896697163739e-06 -0.99908917556836441 0.00097837843677084368 -1.9939815387491809e-05 -3.6279099221646696e-05 -1.9939815387491809e-05 -0.19957862610227892 -2.1628219200597876e-06 -3.6279099221646696e-05 -2.1628219200597876e-06 -0.99889015137284132 0.00077878045763243864 8.5797592218110863e-06 -7.3642280555008544e-05 8.5797592218110863e-06 -0.19964280715428701 3.4879991562486445e-05 -7.3642280555008544e-05 3.4879991562486445e-05 -0.99907147990887313 0.00096742140075439798 6.7095583116454842e-06 -6.2316491518610295e-05 6.7095583116454842e-06 -0.1995900046554186 1.746938094586973e-05 -6.2316491518610295e-05 1.746938094586973e-05 -0.99894318293247297 0.0011134594502928328 -2.1221926748789369e-05 1.2493548840952392e-05 -2.1221926748789369e-05 -0.19953894259845822 -1.0462515493467529e-05 1.2493548840952392e-05 -1.0462515493467529e-05 -0.99884032907331344 0.00090872299402972034 -1.7324397359179657e-05 1.5625365949822075e-05 -1.7324397359179657e-05 -0.19958923704145975 -8.0836785893399765e-06 1.5625365949822075e-05 -8.0836785893399765e-06 -0.99892147338996351 0.00090774697346637789 2.7959188706278448e-06 1.5256206549310591e-05 2.7959188706278448e-06 -0.19960939246990742 -4.2335881004884612e-05 1.5256206549310591e-05 -4.2335881004884612e-05 -0.99894164237235683 0.00073578210905067554 -1.3886486316181114e-05 4.0101867426895294e-05 -1.3886486316181114e-05 -0.19967499595757615 -5.0772641947060485e-06 4.0101867426895294e-05 -5.0772641947060485e-06 -0.99908680844692221 0.00089161123289479703 2.1587093751987326e-05 -1.1680701240158229e-06 2.1587093751987326e-05 -0.19962788381913618 -1.1896091899535952e-05 -1.1680701240158229e-06 -1.1896091899535952e-05 -0.99903513051698911 0.00070320091706349563 1.5376894386713697e-05 -9.8106750643478513e-05 1.5376894386713697e-05 -0.19968877194126519 -2.3693231427923678e-05 -9.8106750643478513e-05 -2.3693231427923678e-05 -0.99913401176286032 0.00054045669359356618 -9.2767210873292218e-06 -3.0491526635811894e-06 -9.2767210873292218e-06 -0.19975443810427448 1.6283979263898019e-06 -3.0491526635811894e-06 1.6283979263898019e-06 -0.99928857438802898 0.00052637413397088606 -1.4240269861990519e-05 -3.358981911893294e-05 -1.4240269861990519e-05 -0.19976056533171915 -2.3575715079049431e-06 -3.358981911893294e-05 -2.3575715079049431e-06 -0.99929877360944497 0.0002653458931014506 4.1353244945291035e-06 -1.2562287868000954e-05 4.1353244945291035e-06 -0.19982223750529643 4.8828809212642099e-07 -1.2562287868000954e-05 4.8828809212642099e-07 -0.99935470143100513 0.00053583840148579975 1.2942854111300927e-05 -5.6376180798345388e-05 1.2942854111300927e-05 -0.19974187464959647 -3.2852869317034905e-05 -5.6376180798345388e-05 -3.2852869317034905e-05 -0.99922124626438191 0.00057684439218370269 1.5674481991449641e-05 1.1455150478631842e-05 1.5674481991449641e-05 -0.19971203633571288 -8.9224187283572705e-06 1.1455150478631842e-05 -8.9224187283572705e-06 -0.99911572479509858 0.00054855750222720934 7.785468407775953e-06 4.1786960287213079e-05 7.785468407775953e-06 -0.19974298091566517 3.2481630730683207e-06 4.1786960287213079e-05 3.2481630730683207e-06 -0.99925387661015874 0.00056752747823068939 -8.5793477559048919e-06 2.7742065890457024e-05 -8.5793477559048919e-06 -0.1997369638040927 2.9414906770108828e-05 2.7742065890457024e-05 2.9414906770108828e-05 -0.99922619264420598 0.00024755490960914894 -4.1314423998786333e-06 -3.6146280105731066e-06 -4.1314423998786333e-06 -0.1998410389874597 -1.064822541208682e-05 -3.6146280105731066e-06 -1.064822541208682e-05 -0.99949479718140966 0.00025981651019661017 -1.157234546316641e-05 -1.6377463475103493e-05 -1.157234546316641e-05 -0.1998326313769048 1.9528210127128798e-05 -1.6377463475103493e-05 1.9528210127128798e-05 -0.99947365828919954 0.00022390887342611798 1.854738083114677e-05 -1.5455837902078606e-05 1.854738083114677e-05 -0.19982745667407842 -5.5967872802542562e-05 -1.5455837902078606e-05 -5.5967872802542562e-05 -0.99941592391032996 0.00024160463346989403 -5.1236955941865968e-06 -3.4112751913562001e-05 -5.1236955941865968e-06 -0.19983401026276434 -4.6911437001639911e-07 -3.4112751913562001e-05 -4.6911437001639911e-07 -0.99946234052783267 0.00025187511539548346 -6.5254626584624574e-07 -4.1906132133756602e-05 -6.5254626584624574e-07 -0.19982824678753625 -3.493350368505288e-06 -4.1906132133756602e-05 -3.493350368505288e-06 -0.99936493432633333 0.00022739838395224865 3.3701695702533093e-06 3.1329706024673727e-07 3.3701695702533093e-06 -0.19982485216925336 2.2934311156911838e-06 3.1329706024673727e-07 2.2934311156911838e-06 -0.9993429212449354 0.00021236983892703999 -8.984588353407942e-06 -1.2632695804959384e-05 -8.984588353407942e-06 -0.19984111127560725 1.2459691761580342e-05 -1.2632695804959384e-05 1.2459691761580342e-05 -0.99941968160288686 0.00017529829280181508 -1.8819762528204035e-05 -3.2653795435528067e-05 -1.8819762528204035e-05 -0.19984635107931592 8.3544633395216117e-06 -3.2653795435528067e-05 8.3544633395216117e-06 -0.99944529325750708 0.00018557642747614789 -7.5146002340448231e-06 1.363042401465163e-05 -7.5146002340448231e-06 -0.19984593064482278 -2.8164069402273225e-06 1.363042401465163e-05 -2.8164069402273225e-06 -0.99947408723550268 0.00026432949749977119 -2.0239605283256188e-05 2.9085978942686751e-05 -2.0239605283256188e-05 -0.19981657317553775 -1.5548203734496251e-05 2.9085978942686751e-05 -1.5548203734496251e-05 -0.99933421618718188 0.000168676757147386 -2.9376065728132665e-05 -1.7798221582876472e-05 -2.9376065728132665e-05 -0.1998371593753101 1.6087501000239257e-06 -1.7798221582876472e-05 1.6087501000239257e-06 -0.99937681510160403 0.00016665387061637338 -4.2240702773878705e-05 -3.4727255192990025e-05 -4.2240702773878705e-05 -0.19985360562732113 9.8873357480822044e-06 -3.4727255192990025e-05 9.8873357480822044e-06 -0.99950213627775675 0.0001918030801014714 -2.8992360178074895e-05 -2.3482516608719362e-05 -2.8992360178074895e-05 -0.19983993921717241 1.3435765616576223e-05 -2.3482516608719362e-05 1.3435765616576223e-05 -0.99950707004818873 0.00060238629339422201 9.8616069460373873e-07 -4.1401706750487932e-05 9.8616069460373873e-07 -0.19973108044318125 -5.2917741398261775e-06 -4.1401706750487932e-05 -5.2917741398261775e-06 -0.99924617868197763 0.00032439990253274598 -3.9136152635900805e-06 -6.7415508200163732e-05 -3.9136152635900805e-06 -0.19979513089027398 -6.3861765451089791e-06 -6.7415508200163732e-05 -6.3861765451089791e-06 -0.99931841752900519 0.00027886385663222768 0.00013100310581317298 -7.838596500192585e-05 0.00013100310581317298 -0.19974445031684829 7.3498074401046054e-06 -7.838596500192585e-05 7.3498074401046054e-06 -0.99931960955497634 0.00037424359626199444 2.2299169204748263e-05 -5.7103342509412514e-05 2.2299169204748263e-05 -0.19979459105094899 -2.6322893436958594e-05 -5.7103342509412514e-05 -2.6322893436958594e-05 -0.99938859528015223 0.00056622381261794974 -1.5941449590086557e-06 -0.00013113941454356848 -1.5941449590086557e-06 -0.19974744680507389 -1.7108964837087015e-06 -0.00013113941454356848 -1.7108964837087015e-06 -0.99931094091484463 0.00017503304037985723 -4.0577730483286904e-05 -1.0581849168467272e-05 -4.0577730483286904e-05 -0.19983123517562923 1.1210543473527679e-06 -1.0581849168467272e-05 1.1210543473527679e-06 -0.99945126341507851 9.932927129618907e-05 -2.8942088302986947e-05 -6.7671328344232062e-05 -2.8942088302986947e-05 -0.19987470307151489 2.4507175030774597e-05 -6.7671328344232062e-05 2.4507175030774597e-05 -0.99958264414491804 0.00031230853763120764 2.8560618441315023e-05 -0.00011193628434214009 2.8560618441315023e-05 -0.19983511338183674 -4.850519378929441e-06 -0.00011193628434214009 -4.850519378929441e-06 -0.9995242813128471 0.00032454289260075431 -7.9134475596588135e-06 -0.00010734467499307065 -7.9134475596588135e-06 -0.19986774157469905 -4.7351396068595619e-06 -0.00010734467499307065 -4.7351396068595619e-06 -0.99952798285395095 0.00031654899846830786 1.2471730477858855e-06 -4.5793627976464801e-05 1.2471730477858855e-06 -0.19979629327341192 7.8098211744670812e-06 -4.5793627976464801e-05 7.8098211744670812e-06 -0.99930628473880212 0.00036592953711916953 -1.4437565291237483e-05 -2.5129337240886729e-05 -1.4437565291237483e-05 -0.19979468022808239 -6.0461670152833769e-05 -2.5129337240886729e-05 -6.0461670152833769e-05 -0.9994184126030432 0.00039142239722611549 9.4931078176066616e-06 -5.2689103173908514e-05 9.4931078176066616e-06 -0.19980681007423606 7.2313146834757092e-05 -5.2689103173908514e-05 7.2313146834757092e-05 -0.99935490232321778 0.00040640814434933503 -1.1067943844052537e-05 -5.5012411645405379e-05 -1.1067943844052537e-05 -0.19975634620730487 4.8534535013189384e-06 -5.5012411645405379e-05 4.8534535013189384e-06 -0.99924102387636626 0.00035390024857073765 6.4484371135941388e-06 -2.473172491157527e-05 6.4484371135941388e-06 -0.19984163991841686 1.1006617535169738e-06 -2.473172491157527e-05 1.1006617535169738e-06 -0.99951814880450529 0.00037295508306331437 -5.3749121712358789e-05 -3.7230572919239036e-05 -5.3749121712358789e-05 -0.19977686265165176 5.445384970770295e-06 -3.7230572919239036e-05 5.445384970770295e-06 -0.99929040550965043 0.00040989605707858479 1.3944427863327052e-06 -0.00011419280437022054 1.3944427863327052e-06 -0.1997929817681488 -1.6580529692063195e-05 -0.00011419280437022054 -1.6580529692063195e-05 -0.99931341682802954 0.00041854881159480994 -3.4970695736499555e-06 -0.0001187361889885552 -3.4970695736499555e-06 -0.1997611654520384 3.0512402324767152e-06 -0.0001187361889885552 3.0512402324767152e-06 -0.99928203723691944 0.00027216072341640363 2.0028079163910265e-05 -9.2073057846198125e-05 2.0028079163910265e-05 -0.19984335825298571 1.0435783058815318e-06 -9.2073057846198125e-05 1.0435783058815318e-06 -0.99954359889466904 0.00026901551524449729 2.7318575347425806e-06 -0.00010012089688737902 2.7318575347425806e-06 -0.1998514704202794 7.7337009535272117e-06 -0.00010012089688737902 7.7337009535272117e-06 -0.99953518880877334 0.00025924913534366989 1.0311996447191119e-05 -4.4554117396011783e-05 1.0311996447191119e-05 -0.19981465437890544 -7.387286648310315e-06 -4.4554117396011783e-05 -7.387286648310315e-06 -0.99933374170363676 0.00027574983261849373 1.4144550742529097e-06 -3.7527606103371358e-05 1.4144550742529097e-06 -0.19979985982619949 -4.3699918562123408e-06 -3.7527606103371358e-05 -4.3699918562123408e-06 -0.99934396205340692 0.00026079633332450058 6.8305175579681706e-06 -5.6058338363529359e-06 6.8305175579681706e-06 -0.19982844381023357 -1.0852408910411171e-06 -5.6058338363529359e-06 -1.0852408910411171e-06 -0.99948125930489362 0.00024860912353430464 1.5368747704081622e-05 -3.0823001969104702e-06 1.5368747704081622e-05 -0.19984641419325183 -4.6206800160542016e-06 -3.0823001969104702e-06 -4.6206800160542016e-06 -0.99948748764005746 0.00054239722327101281 -1.2914836069224946e-06 3.4274880318319045e-05 -1.2914836069224946e-06 -0.19972964331749343 -7.8051084004826521e-06 3.4274880318319045e-05 -7.8051084004826521e-06 -0.99924865156018239 0.00057907182090554364 -2.3452741613838796e-06 -3.9856972954277481e-05 -2.3452741613838796e-06 -0.19970926104000103 4.8096613423920243e-06 -3.9856972954277481e-05 4.8096613423920243e-06 -0.99918259473622717 0.00024802975045568054 -2.5780243498882282e-06 -8.1829994215132373e-06 -2.5780243498882282e-06 -0.1998590613248899 -8.1744702210562181e-06 -8.1829994215132373e-06 -8.1744702210562181e-06 -0.99949116340315902 0.00057997253274366667 1.0295953874066115e-05 3.1404261689701118e-05 1.0295953874066115e-05 -0.19971851404893881 5.478584769733005e-06 3.1404261689701118e-05 5.478584769733005e-06 -0.99921918553268441 0.00029457120779169399 -5.8070807524189538e-06 -4.9187105812642518e-05 -5.8070807524189538e-06 -0.19980157637029955 5.4568457033901674e-07 -4.9187105812642518e-05 5.4568457033901674e-07 -0.99932857542878872 0.00055216691212428559 -2.7727803758028005e-06 2.4268794013428566e-05 -2.7727803758028005e-06 -0.19973143694789636 4.7740335296398719e-07 2.4268794013428566e-05 4.7740335296398719e-07 -0.99923052128023537 0.00053603766331550284 2.6103773669198616e-06 3.4622677631731883e-05 2.6103773669198616e-06 -0.19972996654014419 -1.1390163483825376e-05 3.4622677631731883e-05 -1.1390163483825376e-05 -0.99924528703481408 0.00019250275545846656 5.1287512492240491e-06 2.4447066453592363e-05 5.1287512492240491e-06 -0.19985457138219503 1.9687529716200682e-06 2.4447066453592363e-05 1.9687529716200682e-06 -0.99946817261642984 0.00024684027303102706 -1.5351753851396443e-05 -1.5608072616231787e-05 -1.5351753851396443e-05 -0.19982932826298186 4.0513028138180137e-05 -1.5608072616231787e-05 4.0513028138180137e-05 -0.99939033610036432 0.00016800770222636169 -7.6763560449887044e-06 3.3454970307816403e-05 -7.6763560449887044e-06 -0.19985558717022439 1.4982690085457721e-06 3.3454970307816403e-05 1.4982690085457721e-06 -0.99947441695963146 0.00014897841321528937 7.6628449395465372e-06 2.9855815135593211e-05 7.6628449395465372e-06 -0.1998627155161567 -6.0403174358403255e-06 2.9855815135593211e-05 -6.0403174358403255e-06 -0.99946721056269427 0.00016582542038762194 -4.5878596845922874e-07 1.8081321508520404e-05 -4.5878596845922874e-07 -0.19986072607330824 3.8725528036856257e-06 1.8081321508520404e-05 3.8725528036856257e-06 -0.99944755800170459 0.00036007668232942991 -4.3497139181948946e-06 -6.9537192268431802e-05 -4.3497139181948946e-06 -0.19977762420580242 -2.5450724704070837e-05 -6.9537192268431802e-05 -2.5450724704070837e-05 -0.99926334511152493 0.00018322875079385126 1.2432420705965406e-05 1.513413374722034e-05 1.2432420705965406e-05 -0.19983131730909104 -1.3995809657338316e-06 1.513413374722034e-05 -1.3995809657338316e-06 -0.999438857277552 0.0002082364412647475 -1.1197112903753036e-05 2.9739209424506363e-05 -1.1197112903753036e-05 -0.19984395553748205 4.4190446939484929e-06 2.9739209424506363e-05 4.4190446939484929e-06 -0.99943858824863874 0.00036607114807111346 2.7033248564233327e-05 -6.741667025602846e-05 2.7033248564233327e-05 -0.19977362020771133 -8.0969307738598673e-06 -6.741667025602846e-05 -8.0969307738598673e-06 -0.99925990919225305 0.00059492178098868864 -9.1473174080200816e-06 3.228814628934724e-05 -9.1473174080200816e-06 -0.19970514737144401 3.4798244842763585e-06 3.228814628934724e-05 3.4798244842763585e-06 -0.9992134219667963 0.00026541578398384114 5.1237876939475386e-06 -4.454100909190295e-05 5.1237876939475386e-06 -0.19979071109087504 8.8301734698995049e-06 -4.454100909190295e-05 8.8301734698995049e-06 -0.999325495203508 0.00027357470772540471 -1.6371576949682799e-05 -2.3884459654788248e-05 -1.6371576949682799e-05 -0.19980634573149783 9.8849119500258459e-06 -2.3884459654788248e-05 9.8849119500258459e-06 -0.99931477750685282 0.00024263230201668207 -1.6996088100615644e-05 -6.2194996245379386e-06 -1.6996088100615644e-05 -0.1998505452488494 1.0311423879028059e-05 -6.2194996245379386e-06 1.0311423879028059e-05 -0.99950495295579833 0.00019804148481639535 -7.0560203858071288e-06 3.7845624509377142e-05 -7.0560203858071288e-06 -0.19985224601859902 -9.6738394573287639e-06 3.7845624509377142e-05 -9.6738394573287639e-06 -0.99946154361954964 0.00019432021247043897 -1.0506078807652902e-05 3.6397361977505543e-05 -1.0506078807652902e-05 -0.1998440546659612 -1.8659137704752534e-05 3.6397361977505543e-05 -1.8659137704752534e-05 -0.99945017580496165 0.00018270928204100478 -1.0542225239442686e-05 2.9638344606891637e-05 -1.0542225239442686e-05 -0.19987355670271251 9.2407725605925251e-06 2.9638344606891637e-05 9.2407725605925251e-06 -0.99949155100797682 0.00060365411205816344 8.0042189369432242e-06 -1.6138331645321191e-05 8.0042189369432242e-06 -0.19972409972965821 1.4430227693817965e-05 -1.6138331645321191e-05 1.4430227693817965e-05 -0.99926314080278655 0.00058319201891332551 1.6617836263758257e-05 2.5253628679769061e-05 1.6617836263758257e-05 -0.19970888649341023 -8.154521505478992e-06 2.5253628679769061e-05 -8.154521505478992e-06 -0.9991446861432447 0.00035234636411152209 -1.7015471190845448e-05 -6.3717853882150344e-05 -1.7015471190845448e-05 -0.19983210083289638 1.2831003001867458e-05 -6.3717853882150344e-05 1.2831003001867458e-05 -0.99944729605908145 0.00034788245841721466 -1.0649416018434407e-05 -7.1858676319147552e-05 -1.0649416018434407e-05 -0.19980881480825202 8.8648569805740984e-06 -7.1858676319147552e-05 8.8648569805740984e-06 -0.99931986217434443 0.00036229665886083548 -2.9959077907754733e-05 -4.1773459449556682e-05 -2.9959077907754733e-05 -0.19978257307038516 9.3766325459654354e-06 -4.1773459449556682e-05 9.3766325459654354e-06 -0.99932745881676688 0.00034096656150314764 -1.9848650446177016e-05 -6.5448014702956803e-05 -1.9848650446177016e-05 -0.19978897370147353 1.1615814676180225e-05 -6.5448014702956803e-05 1.1615814676180225e-05 -0.99932225770889005 0.00056534513574366119 2.5085323346317642e-06 3.637854201111318e-05 2.5085323346317642e-06 -0.19972386845795798 3.5858854948056518e-05 3.637854201111318e-05 3.5858854948056518e-05 -0.99920244454447027 0.00017567196736265056 3.5915744596776222e-05 -3.2241271725297338e-05 3.5915744596776222e-05 -0.1998114679942706 -1.1957991229549769e-05 -3.2241271725297338e-05 -1.1957991229549769e-05 -0.99936324911250518 0.00014824241797595228 3.578141373897721e-05 -5.632187239767994e-05 3.578141373897721e-05 -0.19983782792351634 -2.6155444130093741e-05 -5.632187239767994e-05 -2.6155444130093741e-05 -0.99946867559987917 0.00027403429205986234 1.4602235480534747e-05 3.959641590070912e-05 1.4602235480534747e-05 -0.19980754540119405 9.9132979777458932e-06 3.959641590070912e-05 9.9132979777458932e-06 -0.99934225969398771 0.00016301789749010025 3.1810749412568326e-05 -2.9020151962769526e-05 3.1810749412568326e-05 -0.19982871271173178 -2.1450052217597548e-05 -2.9020151962769526e-05 -2.1450052217597548e-05 -0.99944767665827727 0.00017729188233330627 -3.6842341109458619e-06 3.8374130746369415e-05 -3.6842341109458619e-06 -0.1998430851478851 2.1959343062255278e-06 3.8374130746369415e-05 2.1959343062255278e-06 -0.99949710518927404 0.00023342284667454458 9.9606219527938384e-06 1.5601379047053878e-08 9.9606219527938384e-06 -0.19982405059357861 -1.7614390043596428e-05 1.5601379047053878e-08 -1.7614390043596428e-05 -0.99942864328836012 0.00059949060370521824 -7.6226171379307371e-06 -5.3459343942735354e-05 -7.6226171379307371e-06 -0.19971747256677488 -3.2701664081614559e-05 -5.3459343942735354e-05 -3.2701664081614559e-05 -0.99921519264407743 0.00053962491654160752 -1.9796970116113043e-05 1.1128285867968668e-05 -1.9796970116113043e-05 -0.19974488631520751 5.9736350027590156e-06 1.1128285867968668e-05 5.9736350027590156e-06 -0.99928394245665841 0.00093229595080542363 1.1363170450664789e-05 -5.657797230801398e-05 1.1363170450664789e-05 -0.19962146500188288 -3.7844756333154511e-06 -5.657797230801398e-05 -3.7844756333154511e-06 -0.99906698120678139 0.00062677768284249979 1.6330645922676221e-05 -2.6593838783658952e-05 1.6330645922676221e-05 -0.19969750638702871 -4.3220512697117464e-06 -2.6593838783658952e-05 -4.3220512697117464e-06 -0.9991410377762131 0.0007439641797028449 1.878119388740103e-05 3.2243416438339036e-05 1.878119388740103e-05 -0.19966865475337828 1.4417482464845122e-06 3.2243416438339036e-05 1.4417482464845122e-06 -0.99908832387985291 0.0011217129981045911 2.0328642195948965e-05 2.6903322954141189e-05 2.0328642195948965e-05 -0.1995291892958268 8.7991672385574632e-06 2.6903322954141189e-05 8.7991672385574632e-06 -0.99882308874140646 0.00090631148797516074 -1.9489420217212538e-05 -1.5346860704956347e-06 -1.9489420217212538e-05 -0.1996218743073184 5.5251120796964747e-06 -1.5346860704956347e-06 5.5251120796964747e-06 -0.99904176806372302 0.00098237353376224266 -4.1905474154599597e-06 -5.9115284897741926e-05 -4.1905474154599597e-06 -0.19958726149914752 -2.170378135728989e-05 -5.9115284897741926e-05 -2.170378135728989e-05 -0.99896409597169211 0.00099330315917089962 1.6590549097817141e-05 -4.1860842842522672e-05 1.6590549097817141e-05 -0.19956962241524276 -2.3914914489830963e-06 -4.1860842842522672e-05 -2.3914914489830963e-06 -0.9988630223971996 0.0009869563537534265 1.7061634224876147e-05 -4.0170377442486083e-05 1.7061634224876147e-05 -0.19957511305181322 9.4961681978977808e-07 -4.0170377442486083e-05 9.4961681978977808e-07 -0.99889050942739932 0.00093405027203838364 -1.8320959017071627e-06 1.5261398875476839e-05 -1.8320959017071627e-06 -0.19959998311254612 4.9862375461895425e-05 1.5261398875476839e-05 4.9862375461895425e-05 -0.99892587007206157 0.00094190271907013123 1.5196317494989973e-05 1.1386677086098664e-05 1.5196317494989973e-05 -0.19959078432102917 -2.4608276265845885e-07 1.1386677086098664e-05 -2.4608276265845885e-07 -0.99889667837477858 0.00070383961926101003 -8.3723430302972881e-06 3.1080539082318885e-05 -8.3723430302972881e-06 -0.19967862496995431 -2.3226926172237317e-05 3.1080539082318885e-05 -2.3226926172237317e-05 -0.99912566188659979 0.00093158408885356259 2.3991394377402871e-05 -5.3019055177405683e-05 2.3991394377402871e-05 -0.19961409089373139 -3.4390396669664591e-05 -5.3019055177405683e-05 -3.4390396669664591e-05 -0.99902948835923211 0.00070380949469095455 -1.8598519813759711e-05 3.1188431019566636e-05 -1.8598519813759711e-05 -0.19967826494098878 -3.3415924571820896e-07 3.1188431019566636e-05 -3.3415924571820896e-07 -0.99912471300623995 0.0010646662383893557 -1.4360006360106946e-05 1.6846191079218418e-05 -1.4360006360106946e-05 -0.19956025980152858 1.5252685009390149e-06 1.6846191079218418e-05 1.5252685009390149e-06 -0.99886721490260078 0.0010654288109143151 -8.6010075280141866e-06 1.9554888123864134e-05 -8.6010075280141866e-06 -0.19955286270705178 2.4328842911369719e-06 1.9554888123864134e-05 2.4328842911369719e-06 -0.99886602296984472 0.00085105232221397396 -4.8758895137668788e-06 -9.3050796171886637e-05 -4.8758895137668788e-06 -0.19963455522106718 3.9907534105239314e-05 -9.3050796171886637e-05 3.9907534105239314e-05 -0.99906577115836803 0.00098293222696661797 -3.6456949316601995e-06 -8.4795479114441186e-05 -3.6456949316601995e-06 -0.19959612031707336 8.4259187729807117e-06 -8.4795479114441186e-05 8.4259187729807117e-06 -0.99899770221749074 0.00087850384886595245 -4.6162763092094772e-05 -6.1762775773160916e-05 -4.6162763092094772e-05 -0.19962390072823624 2.4379059367030109e-05 -6.1762775773160916e-05 2.4379059367030109e-05 -0.99903192820149356 0.00093360401773767698 -1.1685073763693894e-05 1.1862982039874539e-05 -1.1685073763693894e-05 -0.19958020739547427 -5.4025366318473099e-07 1.1862982039874539e-05 -5.4025366318473099e-07 -0.99888034223619193 0.0010653827621950329 1.0539484657218067e-05 8.138369481321729e-06 1.0539484657218067e-05 -0.19955198923366291 -6.3290377060461405e-06 8.138369481321729e-06 -6.3290377060461405e-06 -0.99885181673632828 0.0006887421372763769 1.7996441818633974e-05 9.4089045799644686e-06 1.7996441818633974e-05 -0.1996928510067062 5.6512622047021277e-06 9.4089045799644686e-06 5.6512622047021277e-06 -0.99919068515436216 0.00094447658445084848 -5.4731898694922845e-06 -0.00014114250913388471 -5.4731898694922845e-06 -0.19961124493362215 -1.0196963074693421e-05 -0.00014114250913388471 -1.0196963074693421e-05 -0.99903572145610542 0.00085390462860884808 2.4828952182884467e-05 -0.00016571422333011565 2.4828952182884467e-05 -0.19964280572919074 -4.2616853807020405e-06 -0.00016571422333011565 -4.2616853807020405e-06 -0.99906677920257492 0.00098726504798779535 -5.281237497277512e-06 -0.00013366488151155681 -5.281237497277512e-06 -0.19957096170597516 -6.6919103530294066e-05 -0.00013366488151155681 -6.6919103530294066e-05 -0.99886201643603312 0.00085255164621805823 -2.1434181057408021e-05 -1.3900415694101387e-05 -2.1434181057408021e-05 -0.19965754892603749 -1.772776996394887e-06 -1.3900415694101387e-05 -1.772776996394887e-06 -0.99916652644457771 0.00098284454614888661 -6.1302680181918244e-06 -7.5571109959399196e-05 -6.1302680181918244e-06 -0.19957062214730925 3.0343616854167088e-06 -7.5571109959399196e-05 3.0343616854167088e-06 -0.99887093613533851 0.00098308300598176634 -4.0892196003362294e-06 -7.6973505897526273e-05 -4.0892196003362294e-06 -0.19957227777440445 -2.1137160788817222e-06 -7.6973505897526273e-05 -2.1137160788817222e-06 -0.99888126393058529 0.00065170962930893861 1.3448359006238021e-05 -6.7828050617502189e-05 1.3448359006238021e-05 -0.19970567134421857 -1.1619254988992633e-05 -6.7828050617502189e-05 -1.1619254988992633e-05 -0.99921408639154796 0.00064972380424135195 8.5100268220824425e-06 -6.7183433865136699e-05 8.5100268220824425e-06 -0.19968873247545513 -6.7054775905739383e-06 -6.7183433865136699e-05 -6.7054775905739383e-06 -0.99912185712663637 0.0010547710034561619 2.6978877661673662e-05 -8.711137458877749e-05 2.6978877661673662e-05 -0.19955419996765214 6.1129334607556984e-06 -8.711137458877749e-05 6.1129334607556984e-06 -0.99885413170998116 0.00084973285276973565 -3.4860894371979493e-05 -0.00010853238628094619 -3.4860894371979493e-05 -0.19964000340696725 6.6857543637999228e-06 -0.00010853238628094619 6.6857543637999228e-06 -0.99908972881490432 0.00092696396506425013 3.421612438611764e-06 -4.043287172073029e-05 3.421612438611764e-06 -0.19961860311830742 -7.5394919688831497e-06 -4.043287172073029e-05 -7.5394919688831497e-06 -0.99904879631202637 0.00096938475446181616 3.7120879599412853e-06 -7.9807811472876189e-05 3.7120879599412853e-06 -0.19957585018723289 9.336860851763551e-06 -7.9807811472876189e-05 9.336860851763551e-06 -0.99887649699500369 0.00084815063158283355 1.7793140330632791e-06 -0.00017515273246371255 1.7793140330632791e-06 -0.19963627496097491 1.6239674320711606e-06 -0.00017515273246371255 1.6239674320711606e-06 -0.99906177555436582 0.0010057025199922132 2.9194514468055961e-05 -5.8524426865602663e-05 2.9194514468055961e-05 -0.19959947987073029 -2.5131166830449914e-05 -5.8524426865602663e-05 -2.5131166830449914e-05 -0.99903325309929825 0.0010481046260085725 1.657842231336813e-05 -7.7631719992421466e-05 1.657842231336813e-05 -0.19955337775751003 1.9919683402758182e-07 -7.7631719992421466e-05 1.9919683402758182e-07 -0.9988356059507395 0.0010239876071354015 1.2745330517182194e-05 -0.0001037636988009405 1.2745330517182194e-05 -0.19960170690816148 1.7344017799958422e-05 -0.0001037636988009405 1.7344017799958422e-05 -0.9990516786073389 0.00064012500180705978 -4.2117472715639409e-06 -8.9755393591683941e-05 -4.2117472715639409e-06 -0.19968923307071013 3.6308747233260164e-06 -8.9755393591683941e-05 3.6308747233260164e-06 -0.99914413579092076 0.00037589516656322264 -3.0686816251438474e-05 -1.8112582166912583e-05 -3.0686816251438474e-05 -0.19977358982236348 -1.7563250001087494e-06 -1.8112582166912583e-05 -1.7563250001087494e-06 -0.99929725549096227 0.00034468126903351021 -2.7876781014551953e-05 -6.466870039911754e-05 -2.7876781014551953e-05 -0.1998075222617485 -9.8309135332375064e-07 -6.466870039911754e-05 -9.8309135332375064e-07 -0.99943722976691951 0.00064398256153036862 2.7910314408091127e-06 -7.6362387909645335e-05 2.7910314408091127e-06 -0.19972083775475707 1.5386811935802491e-05 -7.6362387909645335e-05 1.5386811935802491e-05 -0.99931051498121648 0.00033180633532668875 -2.3373105596622563e-05 -5.3933386773064029e-05 -2.3373105596622563e-05 -0.19979693741651272 2.0227718441234721e-05 -5.3933386773064029e-05 2.0227718441234721e-05 -0.99938934430557591 0.0001770902877100515 2.4332633282537911e-05 -3.2964732344709091e-05 2.4332633282537911e-05 -0.19982365692625734 2.8504433282616759e-06 -3.2964732344709091e-05 2.8504433282616759e-06 -0.99942680537504403 0.00019012723645717156 3.0328641785196645e-06 -2.8851683508634984e-05 3.0328641785196645e-06 -0.19986802030784812 -1.2785581068319729e-05 -2.8851683508634984e-05 -1.2785581068319729e-05 -0.99960918835608892 0.00014927034112627302 2.5527952408309778e-05 -5.6416902638134481e-05 2.5527952408309778e-05 -0.19986419405207351 -2.7134746743595617e-05 -5.6416902638134481e-05 -2.7134746743595617e-05 -0.9995783076776934 0.00018777331861546953 1.5437047766107091e-05 -3.4406282031412827e-05 1.5437047766107091e-05 -0.1998389659733828 -1.3197199563108608e-05 -3.4406282031412827e-05 -1.3197199563108608e-05 -0.99950857240588853 0.00031982982743861132 9.3419957768165648e-06 -9.4484438609154786e-05 9.3419957768165648e-06 -0.19985592420514459 -1.9517396345758442e-06 -9.4484438609154786e-05 -1.9517396345758442e-06 -0.99953405286287533 0.00030058010805593394 -2.7062863043582905e-05 -9.7832642462436503e-05 -2.7062863043582905e-05 -0.19983351857031095 6.2977437166322758e-06 -9.7832642462436503e-05 6.2977437166322758e-06 -0.99953127358066052 0.00038386231363382595 5.1836764679099287e-05 -5.0871948310410309e-05 5.1836764679099287e-05 -0.19977727730105926 3.6170254982814676e-06 -5.0871948310410309e-05 3.6170254982814676e-06 -0.99928842116587213 0.00035324017433624455 2.2728118944515954e-06 -9.1817957066919753e-06 2.2728118944515954e-06 -0.19983916720609984 -7.3368360497261254e-06 -9.1817957066919753e-06 -7.3368360497261254e-06 -0.99951797755045702 0.00041392984295041124 4.7560686315070495e-06 -4.8583315515549064e-05 4.7560686315070495e-06 -0.19976425356574928 2.3466553743523022e-06 -4.8583315515549064e-05 2.3466553743523022e-06 -0.99922811252560262 0.00037038419976048731 4.5136138739981124e-06 -5.2010417020631472e-05 4.5136138739981124e-06 -0.19982642752655272 3.9359204820899052e-06 -5.2010417020631472e-05 3.9359204820899052e-06 -0.99946187863122771 0.0003863782296537055 -4.7912160592845606e-06 -3.6218411642585657e-05 -4.7912160592845606e-06 -0.19981756700183884 -7.5012795406226296e-05 -3.6218411642585657e-05 -7.5012795406226296e-05 -0.99935408000743342 0.00036459907070868214 3.6164170240710134e-05 -6.5253460889064252e-05 3.6164170240710134e-05 -0.19980612782221729 -2.6826735073925967e-05 -6.5253460889064252e-05 -2.6826735073925967e-05 -0.99941956303552359 0.00037228826380858449 1.1124671995557973e-05 -1.6955944533963985e-05 1.1124671995557973e-05 -0.19979883899770651 4.8886709867357325e-05 -1.6955944533963985e-05 4.8886709867357325e-05 -0.99942403561455762 0.00024816551151657373 8.756194207860225e-07 5.0373750234977699e-06 8.756194207860225e-07 -0.1998502382425458 7.5401197356939065e-06 5.0373750234977699e-06 7.5401197356939065e-06 -0.99950803793385301 0.00026357426201084611 -1.9808156266332371e-05 -8.7491008439966045e-05 -1.9808156266332371e-05 -0.19983517674321982 2.2166893264286003e-06 -8.7491008439966045e-05 2.2166893264286003e-06 -0.99953070085235796 0.0004764798458550823 6.9884773173464011e-05 -5.6092576079358469e-05 6.9884773173464011e-05 -0.19977380403989542 -3.6588767006739964e-05 -5.6092576079358469e-05 -3.6588767006739964e-05 -0.99935012812387436 0.0004935050517894668 -6.9179765695420869e-05 -2.2294285274615522e-05 -6.9179765695420869e-05 -0.19981550393697667 -3.4508519895393164e-05 -2.2294285274615522e-05 -3.4508519895393164e-05 -0.99953265856534079 0.00021606011646124745 -2.5141128804206398e-05 2.0295744887377509e-05 -2.5141128804206398e-05 -0.19986965693668157 1.433903710135187e-05 2.0295744887377509e-05 1.433903710135187e-05 -0.99962053226800407 0.00033833021464342583 5.4148765340673368e-06 -4.1165530150988339e-05 5.4148765340673368e-06 -0.19985157782796409 -1.2299609647437038e-06 -4.1165530150988339e-05 -1.2299609647437038e-06 -0.99958901275787304 0.00051874233262882985 -0.00013785659678349686 -5.4462464163573809e-05 -0.00013785659678349686 -0.1997689452946223 6.7520615965932507e-05 -5.4462464163573809e-05 6.7520615965932507e-05 -0.99937428503619286 0.00045383111570040935 8.7445090142718245e-06 -0.00012440603877678091 8.7445090142718245e-06 -0.19976449175112199 -1.0287202748315849e-05 -0.00012440603877678091 -1.0287202748315849e-05 -0.99927119104313933 0.00028132184661600057 -2.3698228389649307e-05 -4.3465424426569754e-05 -2.3698228389649307e-05 -0.19981229303840498 -1.6519393049752029e-05 -4.3465424426569754e-05 -1.6519393049752029e-05 -0.99939551091803125 0.00040835646415660065 7.1220170756430818e-05 -9.5060708806660177e-05 7.1220170756430818e-05 -0.19982716064579531 2.0846063611301702e-05 -9.5060708806660177e-05 2.0846063611301702e-05 -0.99961318545998878 0.00021822184959041646 -4.2454935208982261e-05 -1.5053405223452998e-05 -4.2454935208982261e-05 -0.19986602088677674 1.6729854677488554e-05 -1.5053405223452998e-05 1.6729854677488554e-05 -0.99962425140156697 0.00028828099414801578 -4.6709180522742841e-05 -4.7571597955098355e-05 -4.6709180522742841e-05 -0.19984991288275866 1.0678101940442275e-05 -4.7571597955098355e-05 1.0678101940442275e-05 -0.99963218467730375 0.000232322196786372 1.9108775431612463e-05 -8.4299794984588061e-05 1.9108775431612463e-05 -0.199894291809534 -1.0138264015413512e-05 -8.4299794984588061e-05 -1.0138264015413512e-05 -0.99962430588707951 0.00031217376433120836 2.7505810534699103e-05 -4.5098714752001001e-05 2.7505810534699103e-05 -0.19986170310072895 -8.4325488569625406e-07 -4.5098714752001001e-05 -8.4325488569625406e-07 -0.99959632478085469 0.00029164663443299876 -5.2819316170918006e-06 -5.5043852186242859e-06 -5.2819316170918006e-06 -0.19984118319078364 -4.1281349154598246e-05 -5.5043852186242859e-06 -4.1281349154598246e-05 -0.9995818307266997 0.00085949609740770816 2.1766403358929914e-05 -0.00012774937494119953 2.1766403358929914e-05 -0.19967437627757584 -5.5850554925296336e-06 -0.00012774937494119953 -5.5850554925296336e-06 -0.99927020533581701 0.00028759885065021695 1.2599826625366872e-05 -3.7513121380117198e-05 1.2599826625366872e-05 -0.19982060825705572 -2.0640192716081529e-06 -3.7513121380117198e-05 -2.0640192716081529e-06 -0.99943200309850422 0.00028513872631896753 2.2178414877310715e-05 -3.1109438615728457e-05 2.2178414877310715e-05 -0.19984582003149476 4.0652022922693654e-05 -3.1109438615728457e-05 4.0652022922693654e-05 -0.99943998870174999 0.00028925893745640474 2.346234102017046e-06 3.4336264628231916e-06 2.346234102017046e-06 -0.19986659997169992 -1.5439369958070159e-06 3.4336264628231916e-06 -1.5439369958070159e-06 -0.99960081489094743 0.00019946968068662585 1.5024568436743912e-05 -2.2273220438795427e-05 1.5024568436743912e-05 -0.19988161300151341 7.215744313282535e-06 -2.2273220438795427e-05 7.215744313282535e-06 -0.99970498062128232 0.00017687362593821199 3.5214170115603467e-05 -4.1170156932501811e-05 3.5214170115603467e-05 -0.19986974549476433 -1.2327630715902593e-05 -4.1170156932501811e-05 -1.2327630715902593e-05 -0.99962064979344589 0.00018028886370646813 1.8161331563877937e-05 -4.0215464789272737e-05 1.8161331563877937e-05 -0.19984127365060611 1.9581870725149386e-05 -4.0215464789272737e-05 1.9581870725149386e-05 -0.99946626464596289 0.0006441340227496678 -2.1526284550367027e-06 -5.4801455654729381e-05 -2.1526284550367027e-06 -0.1997318173306547 -2.6380227979849735e-06 -5.4801455654729381e-05 -2.6380227979849735e-06 -0.99935977615508154 0.00031436672015659056 -3.1851000329472496e-05 -2.3839967588257238e-05 -3.1851000329472496e-05 -0.19981126099299354 8.3384194665692135e-06 -2.3839967588257238e-05 8.3384194665692135e-06 -0.99943066964261729 0.00097259679610184335 -8.334224484607487e-07 -8.0126181728035206e-05 -8.334224484607487e-07 -0.19960065853312986 -2.0462651581426572e-05 -8.0126181728035206e-05 -2.0462651581426572e-05 -0.99900929733225152 0.00082517818326843795 1.119631347027562e-05 -0.00017484985607660319 1.119631347027562e-05 -0.1996580657176239 -1.7167800149264778e-06 -0.00017484985607660319 -1.7167800149264778e-06 -0.99915453390500364 0.00068981842427662254 -5.5073465735292703e-06 -9.7792111620420563e-05 -5.5073465735292703e-06 -0.19970927712303499 1.4792522066375824e-05 -9.7792111620420563e-05 1.4792522066375824e-05 -0.99927620738585921 0.0010336590231330156 -8.7175498625687426e-06 -0.00014984588830757595 -8.7175498625687426e-06 -0.19960398646455224 9.5496023416186127e-06 -0.00014984588830757595 9.5496023416186127e-06 -0.99907964989722098 0.00086561255654560298 -2.0560911909918935e-05 -7.3640278853703833e-06 -2.0560911909918935e-05 -0.19964929943436971 1.8907396615031047e-07 -7.3640278853703833e-06 1.8907396615031047e-07 -0.99914691098531261 0.0010279854776411579 -1.4427777739709078e-06 -0.00013751250376148327 -1.4427777739709078e-06 -0.19956088824743989 -1.0024365550087566e-05 -0.00013751250376148327 -1.0024365550087566e-05 -0.99886246109516685 0.00077327942378890846 9.6451065813899691e-06 -9.4117068670296344e-05 9.6451065813899691e-06 -0.19970016315782346 -8.1114007498966911e-07 -9.4117068670296344e-05 -8.1114007498966911e-07 -0.99931319113166506 0.00099161327506980257 -6.7648973247055033e-08 -4.6057484084371936e-05 -6.7648973247055033e-08 -0.19958614360156002 5.2795498641788896e-06 -4.6057484084371936e-05 5.2795498641788896e-06 -0.99894975142628706 0.0010655438667319522 4.7917648487956841e-06 -0.00015629316268084281 4.7917648487956841e-06 -0.19955254566042924 -3.0988855949098948e-06 -0.00015629316268084281 -3.0988855949098948e-06 -0.9988645829435856 0.00091657185494109505 6.597077425226431e-06 -3.5438660040146286e-05 6.597077425226431e-06 -0.19963679392224942 -1.1271695492864886e-05 -3.5438660040146286e-05 -1.1271695492864886e-05 -0.99914026022031877 0.00098271490688850438 -2.2932010407762295e-05 -7.7636230238958825e-05 -2.2932010407762295e-05 -0.19958164422471958 6.5024436905036787e-05 -7.7636230238958825e-05 6.5024436905036787e-05 -0.99890562436568286 0.00097559182955064827 -8.5238804487961094e-06 -0.00016609110413012829 -8.5238804487961094e-06 -0.1996416785711147 -1.8935065897451864e-06 -0.00016609110413012829 -1.8935065897451864e-06 -0.99919402124607348 0.0010383205271644602 -1.0041162636689417e-05 -0.00013850394596148785 -1.0041162636689417e-05 -0.19955217689365068 -9.2872914101427284e-06 -0.00013850394596148785 -9.2872914101427284e-06 -0.99885853134557356 0.0008725405875899539 2.6830722927041905e-05 -2.983016325386334e-05 2.6830722927041905e-05 -0.19965327433091723 -6.3751420966706718e-06 -2.983016325386334e-05 -6.3751420966706718e-06 -0.99913745005661636 0.0014320741883401267 -9.5203999588366394e-06 -0.00020485347493368056 -9.5203999588366394e-06 -0.19945868182897764 -4.1584843333275501e-06 -0.00020485347493368056 -4.1584843333275501e-06 -0.99879302859533281 0.00084565841997685798 8.5953141933722772e-05 -0.00016108523392965868 8.5953141933722772e-05 -0.19964856059454403 -6.6269062138912815e-05 -0.00016108523392965868 -6.6269062138912815e-05 -0.99913734409382526 0.00096591493142489382 -5.5870613128036276e-05 -6.1484163784264467e-05 -5.5870613128036276e-05 -0.19961688389238924 -2.4811741834995793e-05 -6.1484163784264467e-05 -2.4811741834995793e-05 -0.9990620515310551 0.00093344574714882 0.00013740490896173323 -9.6076011740775513e-05 0.00013740490896173323 -0.19961149637385928 3.4267562445178257e-05 -9.6076011740775513e-05 3.4267562445178257e-05 -0.99908953823175373 0.0011557790042404925 5.2246495842606517e-06 -3.3770126147247836e-05 5.2246495842606517e-06 -0.19955741565044902 -1.3726361372867757e-05 -3.3770126147247836e-05 -1.3726361372867757e-05 -0.9990056294126769 0.0010074991354231955 -7.050899547023475e-05 -0.00018570365397674315 -7.050899547023475e-05 -0.19963382789681461 6.4046930996042306e-05 -0.00018570365397674315 6.4046930996042306e-05 -0.99916270716533662 0.00097290639421498959 2.141309526375496e-05 -2.0882619931050783e-06 2.141309526375496e-05 -0.19960999183546402 -2.3878554300305055e-05 -2.0882619931050783e-06 -2.3878554300305055e-05 -0.99906063651748633 0.00092965217449303417 -2.2225004026810133e-05 -6.6865587835529539e-05 -2.2225004026810133e-05 -0.19964206998602019 -1.8340942297800922e-05 -6.6865587835529539e-05 -1.8340942297800922e-05 -0.99926799490795748 0.00088058359035370071 3.0245712043002921e-05 -0.00012597807115621862 3.0245712043002921e-05 -0.19966521026475526 1.9957919419777426e-05 -0.00012597807115621862 1.9957919419777426e-05 -0.99923721332400239 0.0014123542232499231 3.5908025668809318e-05 -0.00016827941060215679 3.5908025668809318e-05 -0.19947150903237909 3.8869387231077468e-07 -0.00016827941060215679 3.8869387231077468e-07 -0.99878213595896792 0.0011783158251643666 -2.077613416174212e-06 -0.00014006520388765153 -2.077613416174212e-06 -0.19952435576524508 1.2870720246249689e-05 -0.00014006520388765153 1.2870720246249689e-05 -0.99884113472539049 0.0014399339095523267 -3.7293792006653644e-05 -0.00019480365496971075 -3.7293792006653644e-05 -0.19946728025663729 9.9757397014066385e-06 -0.00019480365496971075 9.9757397014066385e-06 -0.99880655067353974 0.0011433704529305588 2.880120823390536e-05 -0.00014305085055121847 2.880120823390536e-05 -0.1995774300020362 -4.565884531404496e-05 -0.00014305085055121847 -4.565884531404496e-05 -0.99892507300835076 0.00095440720992545636 -5.4605205317367068e-05 -0.00024464428982839959 -5.4605205317367068e-05 -0.19964358506944624 -8.5574273227528863e-06 -0.00024464428982839959 -8.5574273227528863e-06 -0.9991587381799576 0.00088672673778322775 -1.1451436310649671e-05 4.2055664275508775e-06 -1.1451436310649671e-05 -0.19965497749544436 -5.6164427778560011e-06 4.2055664275508775e-06 -5.6164427778560011e-06 -0.99915052920563419 0.00090397103187733752 -3.5689947609881754e-05 -6.0871236207127311e-07 -3.5689947609881754e-05 -0.19960705386541444 4.8398232751378778e-05 -6.0871236207127311e-07 4.8398232751378778e-05 -0.99911773179182184 0.0011657614512526893 1.1683552157572973e-05 -0.00015318094989907882 1.1683552157572973e-05 -0.19953252860246951 -1.2395006794285734e-06 -0.00015318094989907882 -1.2395006794285734e-06 -0.99888447774022415 0.00069381697085280081 1.5564307590117797e-05 -0.00010860043195037861 1.5564307590117797e-05 -0.19967270807340021 2.4106366053988637e-05 -0.00010860043195037861 2.4106366053988637e-05 -0.9991141587635255 0.0011395816043409113 1.3246303684701074e-05 -0.00019910036127424036 1.3246303684701074e-05 -0.19957675899115079 -8.5410782804107299e-06 -0.00019910036127424036 -8.5410782804107299e-06 -0.99901402611296408 0.001152057365058301 3.6770175991125483e-05 -8.9723998379961922e-05 3.6770175991125483e-05 -0.19954710793337671 6.2500859225878003e-06 -8.9723998379961922e-05 6.2500859225878003e-06 -0.99888990230074715 0.001127531795810377 -5.2553017623963456e-05 -3.1004206832996317e-06 -5.2553017623963456e-05 -0.19954572537876181 2.1482753562507284e-05 -3.1004206832996317e-06 2.1482753562507284e-05 -0.99894477253614067 0.0014975269091627164 2.0086655444571245e-05 -0.00013221356030501674 2.0086655444571245e-05 -0.19943816115960522 -7.1508542867082525e-06 -0.00013221356030501674 -7.1508542867082525e-06 -0.99877599284701724 0.0011508000039068822 -5.3372130334403809e-05 -5.22985334706072e-05 -5.3372130334403809e-05 -0.1995739738052269 -1.906895554970589e-05 -5.22985334706072e-05 -1.906895554970589e-05 -0.99903231901012912 0.00091821356914756347 5.993306594030698e-07 -0.00016379428527391049 5.993306594030698e-07 -0.19966870960286043 2.4927942431585137e-05 -0.00016379428527391049 2.4927942431585137e-05 -0.99919267795809708 0.00079719347529816353 -8.8323118145328828e-06 -6.5010683610422504e-05 -8.8323118145328828e-06 -0.19967658494444762 -2.3234188103016251e-05 -6.5010683610422504e-05 -2.3234188103016251e-05 -0.99919276426779202 0.00070056716549482534 1.7616392006638625e-05 -0.00014825563559645039 1.7616392006638625e-05 -0.19973750940242063 5.6882930224766426e-05 -0.00014825563559645039 5.6882930224766426e-05 -0.99935902666858434 0.00066398031810233071 -1.4148614502501241e-05 -0.00017537756002117266 -1.4148614502501241e-05 -0.19974858227248204 6.4546419538125122e-06 -0.00017537756002117266 6.4546419538125122e-06 -0.999412165660857 0.00030040311895410121 -4.5540011304436034e-06 -2.707780646549196e-05 -4.5540011304436034e-06 -0.19984498440067874 2.7258361734450176e-05 -2.707780646549196e-05 2.7258361734450176e-05 -0.99954256069816816 0.00066418763782172263 7.237373676193155e-06 -0.00017190125950902746 7.237373676193155e-06 -0.1997421330064244 1.3723703657708697e-05 -0.00017190125950902746 1.3723703657708697e-05 -0.99938445981099377 0.00061465049757436496 2.6773476259366592e-05 -4.5790790750926957e-05 2.6773476259366592e-05 -0.19977358001343082 3.7390675087234371e-06 -4.5790790750926957e-05 3.7390675087234371e-06 -0.99948354683982021 0.00067726906448939417 -3.8657172937185791e-05 -8.82848381520418e-05 -3.8657172937185791e-05 -0.19972947495374815 3.0588894995853266e-05 -8.82848381520418e-05 3.0588894995853266e-05 -0.99928023171685432 0.000605600645700477 -3.8763068596406998e-05 1.8816095313844983e-05 -3.8763068596406998e-05 -0.19977692583454076 -3.3712103664207405e-06 1.8816095313844983e-05 -3.3712103664207405e-06 -0.99946339511102078 0.00024023009987017563 9.0704126604204589e-06 -2.0544261288835131e-05 9.0704126604204589e-06 -0.19988822641011594 5.674851294545924e-05 -2.0544261288835131e-05 5.674851294545924e-05 -0.99971513897829611 0.00026835656327905966 4.0569677136929936e-06 -6.9206995803261506e-05 4.0569677136929936e-06 -0.19986720764769106 1.1639628922477385e-05 -6.9206995803261506e-05 1.1639628922477385e-05 -0.99958676785694767 0.00019361744479717835 -1.2014163787315514e-06 -5.7315895793719207e-05 -1.2014163787315514e-06 -0.19990963168513676 3.2580568466444859e-05 -5.7315895793719207e-05 3.2580568466444859e-05 -0.99978954386424856 0.00020690482641305685 3.7524964762960494e-06 3.3939808222305246e-05 3.7524964762960494e-06 -0.19990927233748734 8.4041164767345578e-06 3.3939808222305246e-05 8.4041164767345578e-06 -0.99985578887705895 0.00018669020660128099 3.0546010840196039e-05 -2.4572552329349406e-05 3.0546010840196039e-05 -0.19985471681622385 3.6721685625851208e-05 -2.4572552329349406e-05 3.6721685625851208e-05 -0.99956264505515846 0.00014523564842078285 3.6759128725421142e-05 -4.099761650122602e-05 3.6759128725421142e-05 -0.19990681821095274 -4.2525217585076547e-06 -4.099761650122602e-05 -4.2525217585076547e-06 -0.99977617918648343 0.00027973258468660944 9.2022102600924461e-06 -5.7914738325948178e-05 9.2022102600924461e-06 -0.19989190208321128 1.735990147285274e-05 -5.7914738325948178e-05 1.735990147285274e-05 -0.99972859479323795 0.00026658595109169125 -2.6497945597052077e-06 -6.6332120093770541e-05 -2.6497945597052077e-06 -0.19989225088796331 4.8950480613374481e-06 -6.6332120093770541e-05 4.8950480613374481e-06 -0.99974079747487132 0.00026424599398677806 -1.6502569270784018e-05 -4.8951805023733641e-05 -1.6502569270784018e-05 -0.19985825209311647 7.7511017278902861e-06 -4.8951805023733641e-05 7.7511017278902861e-06 -0.99956069288652927 0.00022762178244606357 -8.4313407172030112e-06 -1.2476238015368679e-05 -8.4313407172030112e-06 -0.1998876401782127 -8.0524591168362747e-05 -1.2476238015368679e-05 -8.0524591168362747e-05 -0.99967803347509809 0.00022891470697705696 1.0473025320455879e-05 2.71530120479202e-05 1.0473025320455879e-05 -0.19990963625958724 1.5889588400153087e-05 2.71530120479202e-05 1.5889588400153087e-05 -0.99976625246075335 0.00026767032756391806 1.2383546235655042e-05 2.6286909776684908e-05 1.2383546235655042e-05 -0.19986269705767357 1.0872779505177732e-05 2.6286909776684908e-05 1.0872779505177732e-05 -0.99958932101657183 0.00022063605992794777 -4.0762524336286221e-06 -7.7232683796335522e-05 -4.0762524336286221e-06 -0.19990878345119634 -7.2326631508357053e-06 -7.7232683796335522e-05 -7.2326631508357053e-06 -0.99981035804195262 0.00027085418002548156 5.5681978668685785e-07 -1.3095475638547072e-05 5.5681978668685785e-07 -0.1998791659256266 7.6499293335974272e-05 -1.3095475638547072e-05 7.6499293335974272e-05 -0.99965335577479131 0.00028928170036368606 3.8001986037308011e-06 1.6139263088299494e-05 3.8001986037308011e-06 -0.19985192516894956 -1.1921512485857377e-05 1.6139263088299494e-05 -1.1921512485857377e-05 -0.99957045870061156 0.00059096895440911932 1.6791566041078989e-06 -5.7446324920107372e-05 1.6791566041078989e-06 -0.19973182417332469 1.0503283287555121e-06 -5.7446324920107372e-05 1.0503283287555121e-06 -0.99926677353262106 0.00031553634800995933 -9.2211417948278022e-06 -6.7278424201400178e-05 -9.2211417948278022e-06 -0.19986784462133544 -2.0111200400574347e-06 -6.7278424201400178e-05 -2.0111200400574347e-06 -0.99969420421700139 0.00069188519696861128 5.8641736183699894e-06 -0.00019367800512926081 5.8641736183699894e-06 -0.19973338573031341 -2.6578348924388706e-05 -0.00019367800512926081 -2.6578348924388706e-05 -0.99936630784612657 0.00044300412809983314 1.9038365504337534e-06 4.5076727664455397e-05 1.9038365504337534e-06 -0.19980017287504781 8.2564838244092442e-07 4.5076727664455397e-05 8.2564838244092442e-07 -0.99946055221492713 0.00022342021701948767 -2.0200543438460847e-06 -7.013991753179738e-05 -2.0200543438460847e-06 -0.19991317947670773 -1.5200933805720185e-05 -7.013991753179738e-05 -1.5200933805720185e-05 -0.99979406191300324 0.00064844113689810357 -8.9226120212532588e-06 -0.00016695686619172534 -8.9226120212532588e-06 -0.19972539654267174 -1.2257883552857507e-05 -0.00016695686619172534 -1.2257883552857507e-05 -0.99940008309720874 0.00028112753290765458 1.8180643717916372e-05 -5.7182135948075086e-05 1.8180643717916372e-05 -0.19989949157963438 4.5910226509349172e-08 -5.7182135948075086e-05 4.5910226509349172e-08 -0.99969025840937853 0.00026213494492188794 -1.0178956257458836e-05 3.4154104215922132e-06 -1.0178956257458836e-05 -0.19986524191632982 -1.8995329894348767e-05 3.4154104215922132e-06 -1.8995329894348767e-05 -0.99958814187685796 0.0002976877972784564 -1.9057841304993807e-05 -7.5416706062814143e-05 -1.9057841304993807e-05 -0.199879881218052 -7.172806556904332e-06 -7.5416706062814143e-05 -7.172806556904332e-06 -0.99970596013174262 0.00027789841548164773 -3.6685267312898432e-05 -5.2154528540571121e-05 -3.6685267312898432e-05 -0.19986579975113539 2.8400360017055704e-06 -5.2154528540571121e-05 2.8400360017055704e-06 -0.99974633237697175 0.00071603705980882726 8.1852021440898212e-06 -0.00020168556470734345 8.1852021440898212e-06 -0.19971781654893317 -9.2611251778507153e-08 -0.00020168556470734345 -9.2611251778507153e-08 -0.99933404914360713 0.00070143706488101643 1.1078842289413649e-05 -0.00018686411311952256 1.1078842289413649e-05 -0.19971357670740542 -1.4200170047024008e-05 -0.00018686411311952256 -1.4200170047024008e-05 -0.9993468022934433 0.00025858653878596538 7.8712802832817978e-06 2.1369794919179341e-05 7.8712802832817978e-06 -0.19984662746017856 -6.9272707293177582e-06 2.1369794919179341e-05 -6.9272707293177582e-06 -0.99957225376795078 0.00019701839629282514 8.9147498431132161e-06 -5.3977644190128515e-05 8.9147498431132161e-06 -0.19991669562677772 5.3094351482041446e-06 -5.3977644190128515e-05 5.3094351482041446e-06 -0.99977176202608398 0.00019545694625078269 1.265271542696624e-05 -6.3091032490358856e-05 1.265271542696624e-05 -0.19990224361507059 -6.1899589097469399e-06 -6.3091032490358856e-05 -6.1899589097469399e-06 -0.99979031473509217 0.00038007219476310361 -6.1996735813451938e-06 2.0239946829647693e-05 -6.1996735813451938e-06 -0.19979988720112374 5.8601263726032471e-06 2.0239946829647693e-05 5.8601263726032471e-06 -0.99943843089783524 0.00037406681052720714 -1.5211906614895147e-05 4.4468356850124735e-06 -1.5211906614895147e-05 -0.19980079145395646 6.7559126999405805e-06 4.4468356850124735e-06 6.7559126999405805e-06 -0.99943390076101624 0.00017901209011850217 1.5488261876806113e-05 -6.4706250558543843e-05 1.5488261876806113e-05 -0.19991149605385361 7.3419848267697319e-06 -6.4706250558543843e-05 7.3419848267697319e-06 -0.99978334175255412 0.00038058188803424819 -1.56134957452421e-05 5.9587569615215941e-06 -1.56134957452421e-05 -0.19979553544948359 1.1396439495880983e-05 5.9587569615215941e-06 1.1396439495880983e-05 -0.99940588196938318 0.00028612891623025494 -3.673717615207807e-05 -0.00010866168098622175 -3.673717615207807e-05 -0.19987750318613484 3.8128112166191386e-05 -0.00010866168098622175 3.8128112166191386e-05 -0.99972364428282212 0.00031540757204961967 1.1664667137855117e-08 -0.00011053558759432924 1.1664667137855117e-08 -0.19988669281991633 -5.5497743900456697e-06 -0.00011053558759432924 -5.5497743900456697e-06 -0.99976313947535678 0.00070276414974013157 -1.2715685314572195e-05 -0.00019424052247218881 -1.2715685314572195e-05 -0.19971618043750705 2.8041702977876781e-05 -0.00019424052247218881 2.8041702977876781e-05 -0.99933757462344142 0.000382657909316797 -3.1175510961672996e-05 -1.7886238253383979e-05 -3.1175510961672996e-05 -0.19981584610875858 5.3212091546989138e-05 -1.7886238253383979e-05 5.3212091546989138e-05 -0.99951701840902141 0.00027176087064906262 6.1392110129938341e-06 -4.1566148708094275e-05 6.1392110129938341e-06 -0.19988610498503401 7.4909960190439051e-06 -4.1566148708094275e-05 7.4909960190439051e-06 -0.99974763779494324 0.00025915794739150844 1.9839558947277369e-05 2.311010924826995e-05 1.9839558947277369e-05 -0.19985179492817751 2.3197179821937697e-05 2.311010924826995e-05 2.3197179821937697e-05 -0.99957018796757113 0.00027350106648135752 2.0165057049640518e-05 -4.0745186609347783e-05 2.0165057049640518e-05 -0.19981450030380335 1.3076935278411028e-05 -4.0745186609347783e-05 1.3076935278411028e-05 -0.99938911117283269 0.00043812823300481973 -1.1057095756521606e-05 -0.00013059462089046181 -1.1057095756521606e-05 -0.19975372698976429 8.7078312271948732e-06 -0.00013059462089046181 8.7078312271948732e-06 -0.99925821457431652 0.00043714760436208699 4.7063651067085315e-05 -0.00010180504245671518 4.7063651067085315e-05 -0.19979833442453743 -4.9192978721745995e-05 -0.00010180504245671518 -4.9192978721745995e-05 -0.9993435621242357 0.00042621455209798653 5.5936824638417164e-05 -5.2192290896910243e-05 5.5936824638417164e-05 -0.19981010191543583 6.5221886619948322e-05 -5.2192290896910243e-05 6.5221886619948322e-05 -0.99960164352972991 0.00032741298273241543 -1.1628420277950114e-05 -4.9810414497031275e-05 -1.1628420277950114e-05 -0.19984517293879944 6.2188707423693756e-06 -4.9810414497031275e-05 6.2188707423693756e-06 -0.99960629433552528 0.00044994119758029472 -7.4723336209022966e-05 -7.9830860761465061e-05 -7.4723336209022966e-05 -0.19977261099267002 4.4708608995414068e-05 -7.9830860761465061e-05 4.4708608995414068e-05 -0.99933156171704174 0.00041629364720686957 -4.031322188223234e-05 -5.2553287371970292e-05 -4.031322188223234e-05 -0.19983474282098779 -2.28538038722359e-05 -5.2553287371970292e-05 -2.28538038722359e-05 -0.99960585460796603 0.00024759824138353981 3.5161114581258264e-05 -4.7493905246387413e-05 3.5161114581258264e-05 -0.19987198734719713 -3.0183979076836565e-05 -4.7493905246387413e-05 -3.0183979076836565e-05 -0.99964681883688344 0.0002356251201538484 1.6935572071650156e-05 6.9400401605523854e-06 1.6935572071650156e-05 -0.19986438557114239 -2.1179955590477917e-05 6.9400401605523854e-06 -2.1179955590477917e-05 -0.9995985438495012 0.00024306817227340294 3.8563779176921575e-05 -3.4034821272066473e-05 3.8563779176921575e-05 -0.19987012275417013 -1.3658094341062466e-05 -3.4034821272066473e-05 -1.3658094341062466e-05 -0.99963138956139452 0.00030659561900425736 -2.7390352320612118e-05 -5.1519476423234067e-05 -2.7390352320612118e-05 -0.19988603249046122 2.8654005016504058e-06 -5.1519476423234067e-05 2.8654005016504058e-06 -0.99961901956050436 0.00032588809357014803 0.00012910777385628913 -6.1164906057342705e-05 0.00012910777385628913 -0.19975580965725281 -6.0249667527934037e-05 -6.1164906057342705e-05 -6.0249667527934037e-05 -0.99937283116478559 0.00089818158055732233 -5.4684013146677249e-06 -0.00013858648948783525 -5.4684013146677249e-06 -0.19968122101543317 8.590033710342837e-06 -0.00013858648948783525 8.590033710342837e-06 -0.99925364596561517 0.00048970075738896668 -1.733801503379798e-05 3.2623759549488263e-05 -1.733801503379798e-05 -0.19985685708758449 9.6346247779877103e-06 3.2623759549488263e-05 9.6346247779877103e-06 -0.99941643654229573 0.00034123923998263805 -2.2970043722512532e-06 -8.0936808094733692e-05 -2.2970043722512532e-06 -0.19988716664516004 1.5468501365800691e-05 -8.0936808094733692e-05 1.5468501365800691e-05 -0.99963251882927917 0.00036317455768286599 1.7112559651637068e-06 -5.939797548482062e-05 1.7112559651637068e-06 -0.1997995499789802 -6.9750837397020149e-06 -5.939797548482062e-05 -6.9750837397020149e-06 -0.99938336952835538 0.00027840810922941106 1.6152682929661478e-05 1.3656515187920881e-05 1.6152682929661478e-05 -0.19989263660148904 5.4643651500319024e-06 1.3656515187920881e-05 5.4643651500319024e-06 -0.99960972598847508 0.00028056843262049512 2.624970358478665e-05 1.6553629758386812e-05 2.624970358478665e-05 -0.19985674968168596 -8.9680851095286229e-06 1.6553629758386812e-05 -8.9680851095286229e-06 -0.99960181728673081 8.1720834893328487e-05 -2.564833471774527e-05 2.1602092744155144e-05 -2.564833471774527e-05 -0.19988620647970756 -5.3930061858498135e-06 2.1602092744155144e-05 -5.3930061858498135e-06 -0.99964755440890496 0.00019752253209026627 7.9568531592328121e-06 -3.7576191682542337e-05 7.9568531592328121e-06 -0.19986665941158721 2.9167615993586082e-06 -3.7576191682542337e-05 2.9167615993586082e-06 -0.99963931369576997 0.00020587245338732352 -5.4627382538450329e-05 -6.294285034114111e-05 -5.4627382538450329e-05 -0.19982190618056972 3.041603376952029e-05 -6.294285034114111e-05 3.041603376952029e-05 -0.99947733048654896 0.00057812581832780707 -1.1411152901320016e-05 -6.2263278324259375e-06 -1.1411152901320016e-05 -0.19975914181959434 1.5215648001554172e-06 -6.2263278324259375e-06 1.5215648001554172e-06 -0.99938040145262808 0.0003763359233641822 1.5713580663430231e-05 -5.6097271596611264e-05 1.5713580663430231e-05 -0.19980606892580521 1.1885161277036538e-05 -5.6097271596611264e-05 1.1885161277036538e-05 -0.99945003722151604 0.00023102023927112914 -1.9650491037263778e-05 -3.4727504386045105e-05 -1.9650491037263778e-05 -0.19985140496223064 -1.0932625503778937e-05 -3.4727504386045105e-05 -1.0932625503778937e-05 -0.99965008023509627 0.00019913444846930695 -4.2665597758678587e-05 -2.4306870449075646e-05 -4.2665597758678587e-05 -0.19983285668045048 -4.2542495587660767e-05 -2.4306870449075646e-05 -4.2542495587660767e-05 -0.99954731553311982 0.00033454482156629328 3.0607489322786304e-05 -8.4974203843790619e-05 3.0607489322786304e-05 -0.19987055597998721 -4.7307661488193986e-06 -8.4974203843790619e-05 -4.7307661488193986e-06 -0.99970011123733138 0.00013775618108957666 -3.3980717214159492e-05 -6.2261196887236636e-05 -3.3980717214159492e-05 -0.1998910509020968 9.3470944597662253e-06 -6.2261196887236636e-05 9.3470944597662253e-06 -0.99974714912328455 0.00020131291410496743 -7.7384467322442504e-07 -6.096616710249414e-05 -7.7384467322442504e-07 -0.19991477906841393 -1.1570361275747842e-05 -6.096616710249414e-05 -1.1570361275747842e-05 -0.99981829190301141 0.00031020423152838816 -1.4367899176556793e-05 -0.00010587506552472981 -1.4367899176556793e-05 -0.19984551603552991 1.5592717003465317e-05 -0.00010587506552472981 1.5592717003465317e-05 -0.99954354752941565 0.00020389930023378966 1.2998317217467256e-06 2.0016359850494325e-05 1.2998317217467256e-06 -0.19989847632137825 -8.8718412128985236e-06 2.0016359850494325e-05 -8.8718412128985236e-06 -0.99984139701717201 0.0002311933327503457 -4.8106215167093205e-06 -2.525325388447186e-05 -4.8106215167093205e-06 -0.19988696697189545 -4.6249113430762989e-05 -2.525325388447186e-05 -4.6249113430762989e-05 -0.99972712753374227 0.00018679108360808439 -1.7230047332027115e-05 -5.7457995678689144e-05 -1.7230047332027115e-05 -0.19994463574957266 5.6320761903094763e-06 -5.7457995678689144e-05 5.6320761903094763e-06 -0.99980817389882137 0.00026664996178027423 4.0502944666409807e-05 -0.00010868618613102399 4.0502944666409807e-05 -0.19988308503404295 -5.01396512611052e-05 -0.00010868618613102399 -5.01396512611052e-05 -0.99970702976776149 0.00032371141531473135 -2.5999896964884914e-05 4.3070539331280244e-05 -2.5999896964884914e-05 -0.19987792624895107 -1.1179870611000009e-05 4.3070539331280244e-05 -1.1179870611000009e-05 -0.99961015387518826 0.00033854726835325089 8.4653688662205655e-06 -8.307669212559432e-05 8.4653688662205655e-06 -0.19989359290834186 -1.2267659690867738e-06 -8.307669212559432e-05 -1.2267659690867738e-06 -0.99970452166745893 0.0006655266128940962 5.6304430788266077e-06 -0.00018231583142117036 5.6304430788266077e-06 -0.19972664863953704 -2.2240756383240523e-05 -0.00018231583142117036 -2.2240756383240523e-05 -0.99933247454122753 0.00042283622681427158 3.1093377212717837e-05 -7.3434095611002448e-06 3.1093377212717837e-05 -0.19981714388406713 -6.279060490554933e-05 -7.3434095611002448e-06 -6.279060490554933e-05 -0.99952621712809675 0.00045755672004987868 2.2066385542682114e-06 -7.2070257792766768e-05 2.2066385542682114e-06 -0.19980914226147883 1.9487629306813581e-05 -7.2070257792766768e-05 1.9487629306813581e-05 -0.999494560322296 0.00060464870823428996 -2.0773345154138861e-05 6.7259960917498418e-07 -2.0773345154138861e-05 -0.19976399377501219 -6.2293149434289319e-06 6.7259960917498418e-07 -6.2293149434289319e-06 -0.99940839860990938 0.00065657879187508428 2.3156037682484547e-05 -0.00018660782716534152 2.3156037682484547e-05 -0.19974129148099862 -9.2634283421766384e-06 -0.00018660782716534152 -9.2634283421766384e-06 -0.99934248909293455 0.00031301814417539209 1.289914767135633e-05 3.6359661403251309e-05 1.289914767135633e-05 -0.19985655168741923 -1.0340961617671951e-05 3.6359661403251309e-05 -1.0340961617671951e-05 -0.99960890595706697 0.00066681861112294349 2.6249547828713626e-07 -0.00015149222129040574 2.6249547828713626e-07 -0.199746575628023 -9.085763629457233e-06 -0.00015149222129040574 -9.085763629457233e-06 -0.99938769609684908 0.00038497688038860445 2.8733490943085411e-05 -4.0642344549146614e-05 2.8733490943085411e-05 -0.19981976159431838 -3.8661326920319539e-05 -4.0642344549146614e-05 -3.8661326920319539e-05 -0.99950808318418949 0.00090567052932533088 1.9714438387523577e-05 -1.0704082173962348e-06 1.9714438387523577e-05 -0.19964280225719899 -3.9399512552495963e-06 -1.0704082173962348e-06 -3.9399512552495963e-06 -0.99911089328430513 0.00091004937162786348 3.6573846505953296e-05 -2.4048800484344213e-06 3.6573846505953296e-05 -0.19961485645659871 -2.5198495301470558e-05 -2.4048800484344213e-06 -2.5198495301470558e-05 -0.999095959113391 0.00080781563242937615 1.5877720904390149e-05 -4.7171127454559425e-05 1.5877720904390149e-05 -0.19968047471283668 1.8954714436247855e-05 -4.7171127454559425e-05 1.8954714436247855e-05 -0.99920713929139904 0.00095362347056815455 3.6842721361450381e-05 -0.00013559668038753969 3.6842721361450381e-05 -0.19962593786347449 -9.3819139221906767e-06 -0.00013559668038753969 -9.3819139221906767e-06 -0.99908134616764821 0.00077438973795040944 6.0898515189520587e-09 -0.00011392386626019047 6.0898515189520587e-09 -0.19969973763873294 -4.2954608344691891e-05 -0.00011392386626019047 -4.2954608344691891e-05 -0.99924220215857185 0.0011176766841146657 3.386187649442605e-05 -7.0643276339765748e-06 3.386187649442605e-05 -0.19958705485591721 1.7363460200758851e-05 -7.0643276339765748e-06 1.7363460200758851e-05 -0.99900281712631722 0.00085719208335433006 -1.5898539069648602e-05 -0.000146393411922352 -1.5898539069648602e-05 -0.19968010903953493 -3.5038117258912038e-05 -0.000146393411922352 -3.5038117258912038e-05 -0.99920028486333701 0.00081767134066534908 5.0243212146564699e-05 -0.00010546008300717918 5.0243212146564699e-05 -0.19966443562949165 2.3840881802961178e-05 -0.00010546008300717918 2.3840881802961178e-05 -0.99923958334325658 0.001235606967337155 -8.9834118068028289e-06 -0.00017479852962882722 -8.9834118068028289e-06 -0.19951225723873922 1.6696266976978791e-05 -0.00017479852962882722 1.6696266976978791e-05 -0.99884359560672964 0.001238657889853334 -1.9680919285853361e-05 -0.00017178296663364519 -1.9680919285853361e-05 -0.1995145394587734 -8.6823965668170189e-06 -0.00017178296663364519 -8.6823965668170189e-06 -0.99882717970064938 0.0014638310860712878 -1.8085301956326922e-06 -0.00011674560792251931 -1.8085301956326922e-06 -0.19945988791348501 -3.6574869955785516e-05 -0.00011674560792251931 -3.6574869955785516e-05 -0.99885112709764368 0.0012240901995057563 6.0340659745328242e-05 -9.2061827163772425e-05 6.0340659745328242e-05 -0.19952748855326918 -2.7858567488436847e-05 -9.2061827163772425e-05 -2.7858567488436847e-05 -0.9988787015208711 0.0011108816390626997 -3.5247676958223842e-05 -7.3505751522952995e-05 -3.5247676958223842e-05 -0.19958317390924896 1.3348821812142475e-05 -7.3505751522952995e-05 1.3348821812142475e-05 -0.99902071215105126 0.0011065543743620232 -5.8741312012421348e-06 -0.00018853157071352378 -5.8741312012421348e-06 -0.19957955013918438 8.0900140182471603e-06 -0.00018853157071352378 8.0900140182471603e-06 -0.99901129019896828 0.0010466327337069758 -2.5864774241731119e-06 -0.0001311675492672304 -2.5864774241731119e-06 -0.19955358463706319 -3.7592214201243035e-06 -0.0001311675492672304 -3.7592214201243035e-06 -0.99885284134063435 0.00087868949662389673 3.5852076487792813e-05 -6.4305327559077696e-05 3.5852076487792813e-05 -0.1996257113301852 -1.1699606218718017e-05 -6.4305327559077696e-05 -1.1699606218718017e-05 -0.99903335015276551 0.0012041600685555043 -2.6949028591490916e-05 -0.00011870026401557265 -2.6949028591490916e-05 -0.19951940736686946 -7.8711592818025977e-06 -0.00011870026401557265 -7.8711592818025977e-06 -0.99881324428977436 0.0012067356353213654 -1.0379625637062139e-05 -7.9305332773699222e-05 -1.0379625637062139e-05 -0.19952364331807804 -1.2088370786367264e-05 -7.9305332773699222e-05 -1.2088370786367264e-05 -0.99883134036738319 0.00089227483436027377 -4.6973739659020185e-06 -1.2997907414158405e-05 -4.6973739659020185e-06 -0.19963216814114232 6.2485930831246428e-06 -1.2997907414158405e-05 6.2485930831246428e-06 -0.99910514554889907 0.00078712420748239253 -1.0313762462106321e-05 -8.2472382824841373e-05 -1.0313762462106321e-05 -0.19969387634336178 -2.9538960901881461e-06 -8.2472382824841373e-05 -2.9538960901881461e-06 -0.9993098906048985 0.00097499371972276094 6.8188305565077439e-07 -0.00019276437080795183 6.8188305565077439e-07 -0.19962111862616583 -1.4353090025953641e-05 -0.00019276437080795183 -1.4353090025953641e-05 -0.99913090127673243 0.00080447267642158593 -1.0395308104201219e-05 -0.00010498413204376722 -1.0395308104201219e-05 -0.19967823071429502 -1.3984550403894208e-05 -0.00010498413204376722 -1.3984550403894208e-05 -0.99924639298025131 0.00083253911683756066 3.1890517160770894e-05 -0.0001545889741229739 3.1890517160770894e-05 -0.19965796811075054 -4.5190163747932388e-05 -0.0001545889741229739 -4.5190163747932388e-05 -0.99914320214000707 0.0011867596411944126 -4.3848520298046166e-06 -0.00015617579196706977 -4.3848520298046166e-06 -0.19952795676304591 1.5345625414830977e-07 -0.00015617579196706977 1.5345625414830977e-07 -0.99885977432699447 0.00098669226112252373 6.1208591883180269e-06 -4.7183624632074483e-05 6.1208591883180269e-06 -0.19959795074290509 -1.11157249365057e-05 -4.7183624632074483e-05 -1.11157249365057e-05 -0.99900746287132769 0.0010618004873484965 1.1396906643493355e-05 -0.00012590518513211357 1.1396906643493355e-05 -0.19955144820612414 1.1864884151169264e-05 -0.00012590518513211357 1.1864884151169264e-05 -0.99885358465945817 0.00097154809902488815 4.475990009781249e-05 -6.6349315923558416e-05 4.475990009781249e-05 -0.19958327987023594 -9.4310607845482508e-05 -6.6349315923558416e-05 -9.4310607845482508e-05 -0.99886081701992824 0.00098113861786619516 1.417116725907322e-05 -0.00016255616119209559 1.417116725907322e-05 -0.19964479787975981 1.0704203203371065e-05 -0.00016255616119209559 1.0704203203371065e-05 -0.9991905015241116 0.00093046093653648132 -1.3363736780448836e-05 -3.0146657182691938e-05 -1.3363736780448836e-05 -0.19963119328080403 1.1430033439729925e-05 -3.0146657182691938e-05 1.1430033439729925e-05 -0.99910651833358122 0.00089692316385014959 -2.842521692155595e-05 -2.4888006069478941e-05 -2.842521692155595e-05 -0.19963108017885067 4.5547138978196955e-06 -2.4888006069478941e-05 4.5547138978196955e-06 -0.99910615385884771 0.001086869818024791 -1.0810505778306916e-05 -0.0001458855528909675 -1.0810505778306916e-05 -0.19955190366202952 4.6106815743129914e-06 -0.0001458855528909675 4.6106815743129914e-06 -0.99886224844138782 0.00095285804998979096 -3.1242806455277209e-05 8.4562003940247266e-06 -3.1242806455277209e-05 -0.19961925670573888 2.8744893492138601e-05 8.4562003940247266e-06 2.8744893492138601e-05 -0.99907685420435932 0.00099634869838716167 6.5626973488310577e-05 -5.6541791252140428e-05 6.5626973488310577e-05 -0.19961519997615929 3.4870515421170367e-05 -5.6541791252140428e-05 3.4870515421170367e-05 -0.99907500176226005 0.0008279711913169556 3.3272265903986251e-05 -0.00018397406102518485 3.3272265903986251e-05 -0.19966656862183108 -3.5680458820630534e-05 -0.00018397406102518485 -3.5680458820630534e-05 -0.9991885618964178 0.00098491542475592775 -0.00011211468893575781 -8.2172109649003566e-05 -0.00011211468893575781 -0.19959857828101285 -3.4176013827380558e-05 -8.2172109649003566e-05 -3.4176013827380558e-05 -0.99908955295180557 0.001158585892321623 -3.5380144336121672e-06 -3.1723464136268475e-05 -3.5380144336121672e-06 -0.19956674261314558 2.118427925279498e-05 -3.1723464136268475e-05 2.118427925279498e-05 -0.99902667343274409 0.00083579603519369841 -6.2878040227747853e-05 -0.00018685032876065988 -6.2878040227747853e-05 -0.19965076675149665 5.4282131567440217e-05 -0.00018685032876065988 5.4282131567440217e-05 -0.99917995462334941 0.00082087531900487676 -4.4326060812888371e-05 -0.00012003848755126612 -4.4326060812888371e-05 -0.19967318405708168 -1.7556764588588791e-05 -0.00012003848755126612 -1.7556764588588791e-05 -0.9992293074798666 0.0014284116598658469 1.1378939524789558e-05 -0.00021275272233227394 1.1378939524789558e-05 -0.19946421122941638 8.8926282078016783e-06 -0.00021275272233227394 8.8926282078016783e-06 -0.99879036256521969 0.0014319297818535803 3.5380293175127618e-05 -0.00020265633155069906 3.5380293175127618e-05 -0.19946757182662356 9.3463344701394391e-06 -0.00020265633155069906 9.3463344701394391e-06 -0.99878913632294575 0.0014193274869848116 -4.1473733512125193e-05 -0.00018051388427275938 -4.1473733512125193e-05 -0.19947660685372781 2.7279308651984024e-06 -0.00018051388427275938 2.7279308651984024e-06 -0.99878046387319186 0.0011759788419697381 -3.3814749125139472e-06 -0.00013537072148284146 -3.3814749125139472e-06 -0.19952984315650324 -1.208303467814531e-05 -0.00013537072148284146 -1.208303467814531e-05 -0.99885103208545578 0.0018334049946867326 3.3247719833299096e-08 -2.5842999239245046e-05 3.3247719833299096e-08 -0.19932994500831161 2.5049531229281996e-06 -2.5842999239245046e-05 2.5049531229281996e-06 -0.99849811677340583 0.0017166807857774691 -4.4622436976836545e-06 -0.00011287537498372302 -4.4622436976836545e-06 -0.19938634550513401 4.2647105754287096e-06 -0.00011287537498372302 4.2647105754287096e-06 -0.99871775093558446 0.0015509833473563162 -8.9676282334446417e-05 -6.959064408706972e-05 -8.9676282334446417e-05 -0.19940157070430869 5.1285123348510098e-05 -6.959064408706972e-05 5.1285123348510098e-05 -0.99863438906315705 0.0015921008270574077 -7.4208740222726196e-06 -2.2453419571633049e-05 -7.4208740222726196e-06 -0.1993695857168909 6.6327682745857819e-06 -2.2453419571633049e-05 6.6327682745857819e-06 -0.9985090060477253 0.0013830539868981417 5.6779818934873861e-06 -1.2864999696660107e-05 5.6779818934873861e-06 -0.19945720246085852 2.8681959980403349e-06 -1.2864999696660107e-05 2.8681959980403349e-06 -0.99871178505414049 0.0015623356388543286 5.4306664104932374e-05 -4.9517888803363164e-05 5.4306664104932374e-05 -0.19938019540372545 3.1407562610663575e-05 -4.9517888803363164e-05 3.1407562610663575e-05 -0.99853984762750925 0.0017032260462960247 -1.5635883751442644e-05 -9.9089888096592915e-05 -1.5635883751442644e-05 -0.19941509949097269 3.1156062275883301e-05 -9.9089888096592915e-05 3.1156062275883301e-05 -0.99872093967101971 0.0017479103160912279 -1.4058414713112191e-05 -0.00016059836593407262 -1.4058414713112191e-05 -0.19935324878790683 -1.5458622578679027e-05 -0.00016059836593407262 -1.5458622578679027e-05 -0.99851870931894116 0.0015888727725067997 7.1047175523303478e-05 -0.00010833359896111894 7.1047175523303478e-05 -0.19940436464377659 -5.6014117098213134e-05 -0.00010833359896111894 -5.6014117098213134e-05 -0.99858995555645902 0.0018428644038435901 4.5476012237682845e-06 -3.4477537603105901e-05 4.5476012237682845e-06 -0.19932835672120955 -7.6732325255124412e-06 -3.4477537603105901e-05 -7.6732325255124412e-06 -0.99850176676932245 0.0013790317844721289 -2.236815353291204e-06 -7.6485220919103591e-05 -2.236815353291204e-06 -0.19943094524100219 -3.9350405630633745e-06 -7.6485220919103591e-05 -3.9350405630633745e-06 -0.99854545610322831 0.0014309467023166239 -1.0738263422220975e-05 -0.00011022506318014713 -1.0738263422220975e-05 -0.19946575662914195 4.6033170142401048e-06 -0.00011022506318014713 4.6033170142401048e-06 -0.99877558987378867 0.0014128156349369481 -1.9722951492335698e-05 -6.7775686779292244e-05 -1.9722951492335698e-05 -0.19941829019529428 -5.4764120185346599e-06 -6.7775686779292244e-05 -5.4764120185346599e-06 -0.99853528488603804 0.0013961233379029547 2.1592864604469423e-05 -9.355999821597516e-05 2.1592864604469423e-05 -0.19941433131527203 -6.507323263127418e-06 -9.355999821597516e-05 -6.507323263127418e-06 -0.99854129426353033 0.0015018060115080528 2.1952415442421193e-05 -0.00012228759999943772 2.1952415442421193e-05 -0.19943545528548556 -5.8894026202516159e-06 -0.00012228759999943772 -5.8894026202516159e-06 -0.99875258798358457 0.0014649858387871806 1.238274641859674e-05 -8.5166677614267883e-05 1.238274641859674e-05 -0.19945060062766051 1.1700583425255928e-05 -8.5166677614267883e-05 1.1700583425255928e-05 -0.99875244984175504 0.0014088889841925578 7.5753412720306591e-06 -8.5511756478195977e-05 7.5753412720306591e-06 -0.19945198259668317 -1.6666887926009011e-05 -8.5511756478195977e-05 -1.6666887926009011e-05 -0.99868452430907739 0.0014560503670179026 5.1085635531365374e-06 -0.00012417754501226064 5.1085635531365374e-06 -0.19942079299098081 -5.7979261089968759e-06 -0.00012417754501226064 -5.7979261089968759e-06 -0.99857076937215306 0.0014909026919240898 -9.8308753856568903e-06 -7.7319176674306433e-05 -9.8308753856568903e-06 -0.19944901247062907 -1.4188061669972996e-07 -7.7319176674306433e-05 -1.4188061669972996e-07 -0.99874361225421771 0.0016897928610449114 1.5814322194848582e-05 -8.6263748710013743e-05 1.5814322194848582e-05 -0.19936209577662928 -5.7608126973612839e-06 -8.6263748710013743e-05 -5.7608126973612839e-06 -0.99850734442969524 0.0014137989755975688 4.2018660398600176e-06 -5.8023279469243683e-05 4.2018660398600176e-06 -0.19941933036720871 -5.3801683691512281e-07 -5.8023279469243683e-05 -5.3801683691512281e-07 -0.99853009578232355 0.0015299993760110597 -1.1272110401285874e-05 -0.00011000515174441894 -1.1272110401285874e-05 -0.19942075447695362 9.6467574678404944e-06 -0.00011000515174441894 9.6467574678404944e-06 -0.99863703723864417 0.0014055946858724921 1.8223520152910356e-05 -8.1991851537788207e-05 1.8223520152910356e-05 -0.19943928620597967 1.4600134243591967e-05 -8.1991851537788207e-05 1.4600134243591967e-05 -0.99863016200479771 0.0015959959747871011 -4.1406882843344284e-06 -9.8424806230124062e-05 -4.1406882843344284e-06 -0.199373683260338 -1.1289083124144117e-06 -9.8424806230124062e-05 -1.1289083124144117e-06 -0.99847643676084807 0.0012807260105124341 -1.3475784104829685e-05 -0.00010283550394973862 -1.3475784104829685e-05 -0.19946913826299295 8.811888684290281e-07 -0.00010283550394973862 8.811888684290281e-07 -0.99866221730193239 0.0013554824141395194 -8.5492901376249821e-06 -4.9263875175564742e-05 -8.5492901376249821e-06 -0.19947121674608292 -4.0712482552995866e-06 -4.9263875175564742e-05 -4.0712482552995866e-06 -0.99874571622819097 0.0015222792387840633 -6.2537865795411175e-06 -0.00013570368499360441 -6.2537865795411175e-06 -0.19944218735502744 -1.2433806847678142e-05 -0.00013570368499360441 -1.2433806847678142e-05 -0.99873918868729405 0.001664820941826517 1.597595353743558e-05 -1.808954820203823e-05 1.597595353743558e-05 -0.19935827376697035 2.0064588568291519e-05 -1.808954820203823e-05 2.0064588568291519e-05 -0.99850802177868925 0.0015711565136493633 2.3540982208073892e-05 -0.00017566612327923892 2.3540982208073892e-05 -0.19941502540204281 1.1833928379889613e-05 -0.00017566612327923892 1.1833928379889613e-05 -0.99870721310489152 0.0014849580536997475 -3.3249847186642453e-05 -2.446054618147897e-05 -3.3249847186642453e-05 -0.19945422006910696 -1.4429133758930845e-05 -2.446054618147897e-05 -1.4429133758930845e-05 -0.99877662019442592 0.0016844307495973432 -0.00022564092176124046 3.0785136731825702e-05 -0.00022564092176124046 -0.1993933546060962 -9.0490105746354743e-05 3.0785136731825702e-05 -9.0490105746354743e-05 -0.99845950014315488 0.001513734882943929 -2.454089341585294e-06 1.4671615606864918e-06 -2.454089341585294e-06 -0.19940763536305817 4.1990096771860053e-05 1.4671615606864918e-06 4.1990096771860053e-05 -0.99864048240216885 0.0017390214401895587 4.6921725402362602e-05 -8.8977720182015219e-05 4.6921725402362602e-05 -0.19934272032270672 8.4306775738340889e-06 -8.8977720182015219e-05 8.4306775738340889e-06 -0.99852164874831839 0.0016979045734974996 3.3184105477121591e-05 -9.6643268254190118e-05 3.3184105477121591e-05 -0.19939931472201011 -5.9559941127051985e-05 -9.6643268254190118e-05 -5.9559941127051985e-05 -0.99868947394262753 0.0017076194448604198 -8.3470536930330349e-06 -8.974656020388494e-05 -8.3470536930330349e-06 -0.19938817886918125 -2.7885117235726398e-05 -8.974656020388494e-05 -2.7885117235726398e-05 -0.99870558558513833 0.0019202777316980058 1.5757137206420072e-05 -8.0234338222906487e-05 1.5757137206420072e-05 -0.19931341747311593 -1.5059795729577274e-05 -8.0234338222906487e-05 -1.5059795729577274e-05 -0.99853064692902382 0.0017703198934937436 -4.3189306440190354e-06 -0.00013804779332438066 -4.3189306440190354e-06 -0.1993094359874783 -2.2924366869236934e-06 -0.00013804779332438066 -2.2924366869236934e-06 -0.99838606177766831 0.001812797074910999 -1.89328064848622e-05 -2.8358696321395538e-05 -1.89328064848622e-05 -0.19932549426792612 7.9260319170160187e-06 -2.8358696321395538e-05 7.9260319170160187e-06 -0.99850313405324265 0.0018421597797988465 -9.6160161708850968e-06 -1.0228367553821727e-05 -9.6160161708850968e-06 -0.19930297032973487 4.2913890227147533e-05 -1.0228367553821727e-05 4.2913890227147533e-05 -0.99840604976870662 0.0020781991441710668 4.2481934252397831e-05 -7.729389180033408e-05 4.2481934252397831e-05 -0.19923546647147516 2.0966696613333724e-05 -7.729389180033408e-05 2.0966696613333724e-05 -0.9983137685284813 0.0020291602890718519 -4.843671243912605e-06 -0.00011679910903650281 -4.843671243912605e-06 -0.19927342908637846 8.7040696872264789e-08 -0.00011679910903650281 8.7040696872264789e-08 -0.9983904724618915 0.0020389677988841282 5.4921032129931848e-06 -0.00012023834371432951 5.4921032129931848e-06 -0.19925567450273018 -2.7784456659851742e-06 -0.00012023834371432951 -2.7784456659851742e-06 -0.99838441159670888 0.00186982148455761 -1.5853879448543424e-06 -8.2859762026821215e-05 -1.5853879448543424e-06 -0.19927413055988286 5.7834150977292831e-06 -8.2859762026821215e-05 5.7834150977292831e-06 -0.99834294268088186 0.0018401038959751093 -3.049276927268847e-05 -7.3168855559746504e-05 -3.049276927268847e-05 -0.19929348519833667 1.1104412982465561e-05 -7.3168855559746504e-05 1.1104412982465561e-05 -0.99835563203888311 0.0022012453461747183 -1.8289308256976929e-06 3.5335488909771229e-05 -1.8289308256976929e-06 -0.19921835016305522 1.1014619912153023e-05 3.5335488909771229e-05 1.1014619912153023e-05 -0.9982856538664735 0.0019125468628210518 -7.8633122739087856e-06 2.6531173058730317e-05 -7.8633122739087856e-06 -0.19927804833754348 1.8976789601277133e-05 2.6531173058730317e-05 1.8976789601277133e-05 -0.9983599825241245 0.0018719118317003236 -3.4812870194103426e-07 -8.2184628610315613e-05 -3.4812870194103426e-07 -0.19927220958239289 1.1998511448396698e-05 -8.2184628610315613e-05 1.1998511448396698e-05 -0.99833452331718142 0.0020616815434810754 0.00014724736287978862 -3.5129749436757507e-05 0.00014724736287978862 -0.19923456281153107 -4.2273336284814889e-06 -3.5129749436757507e-05 -4.2273336284814889e-06 -0.99830239167428969 0.0022103103145283409 -1.4066798799749912e-06 -9.5365602353458812e-05 -1.4066798799749912e-06 -0.19919675160691264 1.1042004100625391e-05 -9.5365602353458812e-05 1.1042004100625391e-05 -0.99825140728427897 0.0020510167988686545 -5.8763756479549256e-05 -2.7852992114718589e-05 -5.8763756479549256e-05 -0.19924261810246924 2.1841104288489177e-05 -2.7852992114718589e-05 2.1841104288489177e-05 -0.99831758484711353 0.002220546131644463 1.6043989608055799e-05 5.3575947065453988e-06 1.6043989608055799e-05 -0.19921602461002874 -1.6416229058346943e-05 5.3575947065453988e-06 -1.6416229058346943e-05 -0.99837418567320668 0.001919685113430436 -1.4945242894200883e-06 -5.3484299006756331e-05 -1.4945242894200883e-06 -0.19926029427414083 -9.3553457021222641e-06 -5.3484299006756331e-05 -9.3553457021222641e-06 -0.99827198516819227 0.0019013248750785333 -8.0845749782326229e-07 -2.3289985981111982e-05 -8.0845749782326229e-07 -0.19927382613570743 1.4873184888575253e-05 -2.3289985981111982e-05 1.4873184888575253e-05 -0.99833165296728055 0.001756374936180416 -1.8057944909745955e-06 -4.4149429792916806e-05 -1.8057944909745955e-06 -0.19931263483374195 -1.901362002088014e-05 -4.4149429792916806e-05 -1.901362002088014e-05 -0.9983540106121076 0.0018522739023123513 1.9478404394953029e-05 8.8569483112088676e-06 1.9478404394953029e-05 -0.19928885070243907 -1.8619972632194504e-05 8.8569483112088676e-06 -1.8619972632194504e-05 -0.99833808287491888 0.0017568461311117112 -6.2403723097282076e-07 -4.3102671927641723e-05 -6.2403723097282076e-07 -0.19931394844691697 -1.7994298314949475e-05 -4.3102671927641723e-05 -1.7994298314949475e-05 -0.99835043761122 0.0017900681834461807 9.6071728964855e-05 8.1717654469848355e-06 9.6071728964855e-05 -0.19936590705678581 0.00012274848408733163 8.1717654469848355e-06 0.00012274848408733163 -0.99840648407627741 0.0017564657218650526 3.2706352680884176e-07 -4.3289115381650589e-05 3.2706352680884176e-07 -0.19931605950142794 -1.9394687049922865e-05 -4.3289115381650589e-05 -1.9394687049922865e-05 -0.99835012302886472 0.0016365509604296946 -7.0987486668306137e-06 -6.8362455178494486e-05 -7.0987486668306137e-06 -0.19936628530369127 -1.2876239398051936e-05 -6.8362455178494486e-05 -1.2876239398051936e-05 -0.99843516281283939 0.001557761108509359 -1.3582181221983102e-06 -0.00010430189853272154 -1.3582181221983102e-06 -0.19936881321301186 -8.235560691405297e-06 -0.00010430189853272154 -8.235560691405297e-06 -0.99847803168466509 0.0017568061624236853 -3.4499920605040024e-06 -1.2411234981635211e-05 -3.4499920605040024e-06 -0.19932087764846862 4.8587861654070252e-06 -1.2411234981635211e-05 4.8587861654070252e-06 -0.99840498304752345 0.0016542655439908405 1.4765767880414441e-05 -6.490122503477469e-05 1.4765767880414441e-05 -0.19935680263493016 -1.8973409044331646e-05 -6.490122503477469e-05 -1.8973409044331646e-05 -0.99850998765619403 0.0015843253599890916 5.3432559646786056e-06 -0.00010480096983622733 5.3432559646786056e-06 -0.19936990990528014 -1.0312369954634804e-05 -0.00010480096983622733 -1.0312369954634804e-05 -0.99845078925491748 0.0016081187357711128 4.0333403795972015e-06 -1.2956930097840491e-05 4.0333403795972015e-06 -0.19936257471087487 1.0102788040700084e-05 -1.2956930097840491e-05 1.0102788040700084e-05 -0.99842974141693586 0.0016172480574538906 -9.1997471364177034e-07 -3.4023858551224251e-05 -9.1997471364177034e-07 -0.19936209441759456 -8.1315095556977468e-06 -3.4023858551224251e-05 -8.1315095556977468e-06 -0.99842527294712191 0.001681041494999036 -2.3721653540913429e-05 6.5164357574420961e-06 -2.3721653540913429e-05 -0.19934591529212886 -8.322783196401673e-06 6.5164357574420961e-06 -8.322783196401673e-06 -0.9984089639274889 0.0016365040331410771 3.6779147374016075e-05 -4.9272294513791337e-05 3.6779147374016075e-05 -0.19934157137416009 -9.6728595024853092e-06 -4.9272294513791337e-05 -9.6728595024853092e-06 -0.99837601604191661 0.0016066686906399674 -1.072424492553777e-06 -5.2248860954562382e-05 -1.072424492553777e-06 -0.19934518794810074 -1.7280095152560904e-06 -5.2248860954562382e-05 -1.7280095152560904e-06 -0.99838009339890377 0.0016517882877762347 -2.3087886241155465e-05 -5.911386755869108e-05 -2.3087886241155465e-05 -0.19936238188157041 3.5175427990807862e-05 -5.911386755869108e-05 3.5175427990807862e-05 -0.99848578339447736 0.001649201378489451 -8.8295252355881859e-05 1.9186500201495704e-05 -8.8295252355881859e-05 -0.19930285449849094 -2.8810871743445432e-05 1.9186500201495704e-05 -2.8810871743445432e-05 -0.99831211100018002 0.0018679982579239418 -1.7272888103490648e-06 -8.2863273088928935e-05 -1.7272888103490648e-06 -0.19928096457252598 4.6384134591015425e-06 -8.2863273088928935e-05 4.6384134591015425e-06 -0.99834497038049275 0.0016419476105632436 -2.0149018405669485e-05 -3.462690883657138e-05 -2.0149018405669485e-05 -0.19935268920694382 -3.1584933076977961e-05 -3.462690883657138e-05 -3.1584933076977961e-05 -0.99847237382500764 0.0016628914045659915 7.3376311103295208e-05 -7.3584115071911871e-05 7.3376311103295208e-05 -0.19934021222795256 2.1179664247972241e-05 -7.3584115071911871e-05 2.1179664247972241e-05 -0.99837864893347184 0.0017980679450063652 2.4583209333431697e-06 -5.7204356028295322e-05 2.4583209333431697e-06 -0.19932324062065743 2.1044157862970536e-06 -5.7204356028295322e-05 2.1044157862970536e-06 -0.99844625390185859 0.0017255648802287915 -7.5283001481271151e-05 -0.00012789138037577752 -7.5283001481271151e-05 -0.19933455137373901 -2.8241470953371817e-05 -0.00012789138037577752 -2.8241470953371817e-05 -0.99841609153478927 0.0016304648198665062 -4.5891195725638343e-06 -4.2419048072409038e-05 -4.5891195725638343e-06 -0.19937335832624736 1.1657313562229987e-06 -4.2419048072409038e-05 1.1657313562229987e-06 -0.99853363335354617 0.0016338001378466416 -2.7684641327670065e-05 -1.3614319961718913e-05 -2.7684641327670065e-05 -0.1993639457949129 1.1460587663325583e-06 -1.3614319961718913e-05 1.1460587663325583e-06 -0.99846609733793246 0.0016007218406486334 -1.2664775631905423e-07 -5.5198287127966594e-05 -1.2664775631905423e-07 -0.19934735572090967 -3.9039064956281067e-06 -5.5198287127966594e-05 -3.9039064956281067e-06 -0.99840756680116272 0.0016037331123359699 -9.2656734133514188e-07 -5.9559087690397305e-05 -9.2656734133514188e-07 -0.19936090776839044 -9.4103763866870693e-06 -5.9559087690397305e-05 -9.4103763866870693e-06 -0.99841150972317472 0.0018226048150296048 3.670432383349096e-06 -7.6990183828229419e-05 3.670432383349096e-06 -0.19930044155525217 1.4088267645817609e-05 -7.6990183828229419e-05 1.4088267645817609e-05 -0.99834632132043222 0.0019131584538382151 -1.6309237410241936e-06 3.1275308450817718e-05 -1.6309237410241936e-06 -0.19928286070939005 5.7503504929390381e-06 3.1275308450817718e-05 5.7503504929390381e-06 -0.99833851820837216 0.0017637991174614953 -4.8980368631062475e-06 1.9833689717349556e-05 -4.8980368631062475e-06 -0.19930079552587188 -5.0344993212103617e-06 1.9833689717349556e-05 -5.0344993212103617e-06 -0.9982840908263988 0.0019197902164935776 3.4962456392775932e-06 3.2032169470452843e-05 3.4962456392775932e-06 -0.19928667395431621 1.3743543575195361e-05 3.2032169470452843e-05 1.3743543575195361e-05 -0.99834981008437129 0.0018301634777039277 2.4028586797691737e-06 -8.2235061984237134e-05 2.4028586797691737e-06 -0.19929527302823857 1.2322927493091385e-05 -8.2235061984237134e-05 1.2322927493091385e-05 -0.99831384373676135 0.0018225536861509184 2.6069437872914048e-06 -8.6631405472159528e-05 2.6069437872914048e-06 -0.1993015515984351 -1.3407691530353816e-06 -8.6631405472159528e-05 -1.3407691530353816e-06 -0.99834560897004287 0.002025305800629762 4.3839481864211657e-06 -0.00010628373381904588 4.3839481864211657e-06 -0.19927451946578889 -1.0551149649540292e-06 -0.00010628373381904588 -1.0551149649540292e-06 -0.99839041306880594 0.0018437002016334914 1.6203562018384584e-05 -9.2395555798985285e-05 1.6203562018384584e-05 -0.19930060316290421 5.9864620907124078e-06 -9.2395555798985285e-05 5.9864620907124078e-06 -0.99835304851442652 0.0018676701931289452 -8.4714163914224919e-07 -8.2662238948483235e-05 -8.4714163914224919e-07 -0.1992816645739055 3.0727977498035131e-06 -8.2662238948483235e-05 3.0727977498035131e-06 -0.99834614593909565 0.0020251516032143702 1.7718287943192689e-06 -0.00010832300792817939 1.7718287943192689e-06 -0.19926208284955271 -1.3137606182489492e-05 -0.00010832300792817939 -1.3137606182489492e-05 -0.99837162743242613 0.0019171076212270988 3.2980407726350069e-07 3.0425961776714416e-05 3.2980407726350069e-07 -0.19927339132451116 -2.678287033139326e-06 3.0425961776714416e-05 -2.678287033139326e-06 -0.99832161249832962 0.0020168183250188765 -1.428831935294685e-07 -0.00011124505668180795 -1.428831935294685e-07 -0.19927386298878047 -4.0062578219313139e-06 -0.00011124505668180795 -4.0062578219313139e-06 -0.99839669891303995 0.0020211025174589059 -0.00010493548415035388 -1.3934862399089809e-05 -0.00010493548415035388 -0.19925201683112292 2.404779111664368e-05 -1.3934862399089809e-05 2.404779111664368e-05 -0.99831389177748653 0.0021964446284250538 4.3367314331779077e-06 -6.7432563182201477e-05 4.3367314331779077e-06 -0.19922331071513799 7.2241617722068607e-06 -6.7432563182201477e-05 7.2241617722068607e-06 -0.99832386581889132 0.0022083435667257234 3.0368665375352123e-06 -8.1246035193327515e-05 3.0368665375352123e-06 -0.19920702877287555 3.1941041511496238e-05 -8.1246035193327515e-05 3.1941041511496238e-05 -0.99828063821759017 0.0021942718812292261 6.7364808962256402e-06 -6.5926896751999919e-05 6.7364808962256402e-06 -0.19921680766813898 4.1373278580891792e-08 -6.5926896751999919e-05 4.1373278580891792e-08 -0.9983149933058284 0.0021872848732323869 2.5758729658268882e-06 -6.2837806463100776e-05 2.5758729658268882e-06 -0.19922105351269981 2.2421242735770619e-06 -6.2837806463100776e-05 2.2421242735770619e-06 -0.99831958474127847 0.0021826783703733366 6.2388450711174818e-06 -6.2438942557974109e-05 6.2388450711174818e-06 -0.1992384994154941 -3.0008933959990713e-06 -6.2438942557974109e-05 -3.0008933959990713e-06 -0.99832518598671705 0.0022023875653360836 -8.4635322544086314e-06 -6.089888260785159e-05 -8.4635322544086314e-06 -0.19922544460271463 2.0423084743370623e-06 -6.089888260785159e-05 2.0423084743370623e-06 -0.99832548500844265 0.0018484836536477589 3.4239746843798904e-05 3.5001859601035967e-05 3.4239746843798904e-05 -0.19928469156252593 -1.0821367316588004e-05 3.5001859601035967e-05 -1.0821367316588004e-05 -0.99834168221694286 0.0018440654446777241 1.2270051020383027e-05 3.457012671501114e-05 1.2270051020383027e-05 -0.19929623022483003 9.4423302088308958e-06 3.457012671501114e-05 9.4423302088308958e-06 -0.99834210500790121 0.0018313802228391296 2.4929865765819228e-06 -8.1693184479370018e-05 2.4929865765819228e-06 -0.19930319324726176 -1.202105508468776e-05 -8.1693184479370018e-05 -1.202105508468776e-05 -0.99829984149297779 0.0019092586069889839 -1.6608741749405805e-05 2.9979914327737944e-05 -1.6608741749405805e-05 -0.19929481479175348 -4.7972886658698144e-06 2.9979914327737944e-05 -4.7972886658698144e-06 -0.99832756088150543 0.0022230162588218194 2.5709300757340203e-06 -7.189256611206396e-05 2.5709300757340203e-06 -0.19922461168621697 -6.4805176787086083e-06 -7.189256611206396e-05 -6.4805176787086083e-06 -0.99831132757414887 0.002016477542012951 -1.4918208307722263e-05 -0.00012065011382667024 -1.4918208307722263e-05 -0.19927348408143375 7.7542195677793302e-06 -0.00012065011382667024 7.7542195677793302e-06 -0.99838112004046264 0.0018888813034184659 -1.0754658520026307e-05 1.8294234666038633e-05 -1.0754658520026307e-05 -0.19928998785003194 6.1850660411401359e-06 1.8294234666038633e-05 6.1850660411401359e-06 -0.99833544331615309 0.0019820972847701679 -6.8125390906292994e-06 -7.5087265809958836e-05 -6.8125390906292994e-06 -0.19930616470324547 -3.7401442414264352e-06 -7.5087265809958836e-05 -3.7401442414264352e-06 -0.99847487331594653 0.002032368368532933 -4.0504487927764558e-06 -0.00012110268983711592 -4.0504487927764558e-06 -0.19925474603317761 6.3843477118435965e-06 -0.00012110268983711592 6.3843477118435965e-06 -0.99837494958755491 0.0013615268409609138 -6.2839825427188098e-06 -1.4938088025662211e-05 -6.2839825427188098e-06 -0.19945794549719831 1.8903790595103942e-06 -1.4938088025662211e-05 1.8903790595103942e-06 -0.99872015038573458 0.0015865087080010887 -5.1773310092529583e-05 -4.2250710006186409e-05 -5.1773310092529583e-05 -0.19938493133438556 -3.0023372903809076e-05 -4.2250710006186409e-05 -3.0023372903809076e-05 -0.99855563241450285 0.0017246484307031906 8.2911038563742748e-06 -0.00016219421615115692 8.2911038563742748e-06 -0.19937054215773442 1.6738303436347746e-06 -0.00016219421615115692 1.6738303436347746e-06 -0.99853251249357733 0.0015206341005812862 8.3483530883011176e-05 -7.4944225337159054e-05 8.3483530883011176e-05 -0.19940546617439975 -5.5193713135892608e-05 -7.4944225337159054e-05 -5.5193713135892608e-05 -0.9986399233122174 0.0016034169690840316 -5.5193537025947141e-05 -0.00011691108146472118 -5.5193537025947141e-05 -0.19940386085367826 4.0442696590758942e-05 -0.00011691108146472118 4.0442696590758942e-05 -0.99859149628980381 0.0019359388387779064 2.3887339647019836e-05 -6.8896842077670328e-05 2.3887339647019836e-05 -0.19930533368839376 -2.8220417502389239e-05 -6.8896842077670328e-05 -2.8220417502389239e-05 -0.99847044739536539 0.0016843935309998059 1.5980575597105098e-05 -9.2244497283289206e-05 1.5980575597105098e-05 -0.1994208080110853 -3.0390159309057196e-05 -9.2244497283289206e-05 -3.0390159309057196e-05 -0.99874458457288551 0.0015150519766796294 -2.5471623511173296e-05 -0.00011698602372334221 -2.5471623511173296e-05 -0.19943906124797167 -6.4041019687266498e-07 -0.00011698602372334221 -6.4041019687266498e-07 -0.99875211920438045 0.0014170270595696421 1.4367878543895175e-05 -6.4179053083202042e-05 1.4367878543895175e-05 -0.19941310486978436 6.1927631292979513e-06 -6.4179053083202042e-05 6.1927631292979513e-06 -0.99852277176106008 0.0014563840759193036 -1.1008070203794733e-05 -9.5967182603184931e-05 -1.1008070203794733e-05 -0.19944770226046271 -8.9167214846197496e-06 -9.5967182603184931e-05 -8.9167214846197496e-06 -0.99875397605320781 0.0013821549041365122 -9.7348174975808077e-07 -7.2274048116577339e-05 -9.7348174975808077e-07 -0.19942260977618831 7.4278059630783488e-06 -7.2274048116577339e-05 7.4278059630783488e-06 -0.9985292594639481 0.0014214962386844554 5.7681352436158268e-06 -0.00011829981105793141 5.7681352436158268e-06 -0.19946342549706222 -2.9578399277641054e-06 -0.00011829981105793141 -2.9578399277641054e-06 -0.99877495592931675 0.0013848477477730325 -2.8558601499430901e-05 -9.6749423143596691e-05 -2.8558601499430901e-05 -0.19942354193937312 1.0943790518247454e-06 -9.6749423143596691e-05 1.0943790518247454e-06 -0.99854397862357946 0.0016287725606278225 1.0375805148317641e-05 -1.3620083795906623e-05 1.0375805148317641e-05 -0.19936011155623695 3.3718023941475828e-05 -1.3620083795906623e-05 3.3718023941475828e-05 -0.99846149040429855 0.0016116031730906005 -6.0605133543873005e-06 -5.3158946935472073e-05 -6.0605133543873005e-06 -0.19935563080686747 1.5220262392645623e-06 -5.3158946935472073e-05 1.5220262392645623e-06 -0.99843279674204455 0.0016162544699600545 3.9728917390645048e-05 4.3564199731505049e-06 3.9728917390645048e-05 -0.19937529911163798 -9.1243142363861551e-06 4.3564199731505049e-06 -9.1243142363861551e-06 -0.998558856084105 0.0016732450117253883 2.2837158372138329e-05 -4.333196912242876e-05 2.2837158372138329e-05 -0.19933805769806501 1.5100537090639854e-05 -4.333196912242876e-05 1.5100537090639854e-05 -0.99840889655853804 0.0016425374191506581 -1.4420931211957506e-06 -3.6425462165201594e-05 -1.4420931211957506e-06 -0.19937012236096385 -3.654470310587854e-06 -3.6425462165201594e-05 -3.654470310587854e-06 -0.9985360169530062 0.0017975201270161723 2.4948848304581634e-06 -5.637994538032487e-05 2.4948848304581634e-06 -0.19932400997734501 -1.4439718836189996e-06 -5.637994538032487e-05 -1.4439718836189996e-06 -0.99844819515775818 0.0016627141719341987 1.6268796279732107e-05 -5.1103669009566755e-05 1.6268796279732107e-05 -0.1993511465763228 -3.4042932139544124e-05 -5.1103669009566755e-05 -3.4042932139544124e-05 -0.99848835433389338 0.0017169700932541943 4.9296259708391379e-05 -9.4000401873087225e-05 4.9296259708391379e-05 -0.19932258018970631 6.3383754043133678e-06 -9.4000401873087225e-05 6.3383754043133678e-06 -0.99834715489018511 0.0017181614631611719 -1.2244475971184114e-06 -9.4810441042092464e-05 -1.2244475971184114e-06 -0.19930660535659162 -3.1625811371949197e-06 -9.4810441042092464e-05 -3.1625811371949197e-06 -0.9983439949677746 0.0015994090035282849 -1.5719150609650447e-06 -6.4805789054767082e-05 -1.5719150609650447e-06 -0.19935655470540437 1.4601620951459893e-05 -6.4805789054767082e-05 1.4601620951459893e-05 -0.99843752973666033 0.0018280661526530739 -8.9893395345081276e-08 -7.641763594445905e-05 -8.9893395345081276e-08 -0.19929874634840883 -1.55557535878037e-05 -7.641763594445905e-05 -1.55557535878037e-05 -0.99832079330771251 0.0016187365558012479 4.3428885331647218e-08 -5.3543322110272129e-05 4.3428885331647218e-08 -0.19934950202366675 1.3465742626506128e-06 -5.3543322110272129e-05 1.3465742626506128e-06 -0.99843013479301801 0.0017137721456683824 -6.2972841957507221e-06 -2.876525650241657e-05 -6.2972841957507221e-06 -0.19933687782859355 -2.128516243260492e-05 -2.876525650241657e-05 -2.128516243260492e-05 -0.99839956296028998 0.001689546914788842 -5.8822153606493329e-06 -4.9536060117635894e-05 -5.8822153606493329e-06 -0.19935970093911415 -2.3194534772990466e-05 -4.9536060117635894e-05 -2.3194534772990466e-05 -0.99849030626784341 0.0016512539670884134 -3.4351494238636193e-05 -5.5495804005989413e-05 -3.4351494238636193e-05 -0.19934789188177218 9.8975795007616441e-06 -5.5495804005989413e-05 9.8975795007616441e-06 -0.99838297496172423 0.0016303173310365966 -1.7440322364803517e-07 -4.9987891987401945e-05 -1.7440322364803517e-07 -0.19933662521594628 -1.0356782161213829e-05 -4.9987891987401945e-05 -1.0356782161213829e-05 -0.99838511666257268 0.0017356398197526657 1.2456244624691643e-06 -5.2271751927346344e-05 1.2456244624691643e-06 -0.19932645091575263 1.6139673396642351e-05 -5.2271751927346344e-05 1.6139673396642351e-05 -0.99835353001174676 0.0017344703456827482 2.5289072535263535e-06 -5.0749131360217081e-05 2.5289072535263535e-06 -0.1993242771221837 1.5237948713942018e-05 -5.0749131360217081e-05 1.5237948713942018e-05 -0.99836155409421279 0.0016780039780293632 2.0493739667098033e-05 -5.8061917747043168e-06 2.0493739667098033e-05 -0.19934974996797666 1.9733890692652523e-06 -5.8061917747043168e-06 1.9733890692652523e-06 -0.99844057280049436 0.0015501952067384916 3.3675234015362854e-06 -7.5216486497220458e-05 3.3675234015362854e-06 -0.19937856388469388 6.2645770451119631e-06 -7.5216486497220458e-05 6.2645770451119631e-06 -0.99844908183461456 0.0016178605497819479 -3.4209517690164678e-06 -1.4639460588550257e-05 -3.4209517690164678e-06 -0.19936574126383003 -9.8915606475680207e-06 -1.4639460588550257e-05 -9.8915606475680207e-06 -0.99845227670681702 0.0015930024620017802 5.8020515861290703e-06 -5.4035310264266556e-05 5.8020515861290703e-06 -0.1993764765451157 1.2656379588360522e-05 -5.4035310264266556e-05 1.2656379588360522e-05 -0.99849146191046367 0.0014222359088954528 -6.0013127344985546e-06 -5.3955758600787718e-05 -6.0013127344985546e-06 -0.19941580246667401 -6.7552531981540653e-06 -5.3955758600787718e-05 -6.7552531981540653e-06 -0.99850636182664276 0.0014024649515199661 -9.6291248752105957e-06 -7.9072454044704088e-05 -9.6291248752105957e-06 -0.19943970388023013 1.1534018234865551e-05 -7.9072454044704088e-05 1.1534018234865551e-05 -0.99861845058736121 0.0015327069186578113 1.2300144495186716e-06 -0.00014059739251504055 1.2300144495186716e-06 -0.19941673325565346 -7.0723494343116755e-06 -0.00014059739251504055 -7.0723494343116755e-06 -0.99862650495233707 0.0015767667023068865 1.145576262086291e-05 -8.20768732453514e-05 1.145576262086291e-05 -0.19937986975033006 -4.3461107229747498e-06 -8.20768732453514e-05 -4.3461107229747498e-06 -0.99848313883113038 0.0012647275784553047 3.2513888866756924e-05 -9.8579732250320823e-05 3.2513888866756924e-05 -0.19950507281750796 4.7413253401185074e-06 -9.8579732250320823e-05 4.7413253401185074e-06 -0.99880027454741382 0.0015620528520289279 8.0680295873384265e-06 -0.00012066740938432297 8.0680295873384265e-06 -0.19939917626515558 1.0969894435719496e-05 -0.00012066740938432297 1.0969894435719496e-05 -0.99857529423890545 0.0014663389355797918 -2.3938978096941732e-06 -9.0982712587228676e-05 -2.3938978096941732e-06 -0.19945373926010679 -1.92504713059094e-07 -9.0982712587228676e-05 -1.92504713059094e-07 -0.99875093590203123 0.0012624836864899569 7.1050596739212005e-06 -0.00014203798682374882 7.1050596739212005e-06 -0.19950690431715101 1.8112582352847184e-06 -0.00014203798682374882 1.8112582352847184e-06 -0.99882194815128722 0.0013432790105465386 3.8296377474427005e-06 -4.073272618310142e-05 3.8296377474427005e-06 -0.19946135288807332 -8.9374332947755875e-06 -4.073272618310142e-05 -8.9374332947755875e-06 -0.99867673452631767 0.0012646952326748062 1.6010942324546597e-05 -6.4777578096641975e-05 1.6010942324546597e-05 -0.19950698211916584 5.9668865826090212e-06 -6.4777578096641975e-05 5.9668865826090212e-06 -0.99878898360328572 0.0019594212779541209 2.8216637401735124e-05 -4.7421829593996545e-05 2.8216637401735124e-05 -0.19929635422309344 4.4434303705376266e-06 -4.7421829593996545e-05 4.4434303705376266e-06 -0.99847199415767607 0.0014966700114591724 3.2707363740663624e-05 -7.6419686883655302e-05 3.2707363740663624e-05 -0.19941082054387568 6.4987512738146069e-06 -7.6419686883655302e-05 6.4987512738146069e-06 -0.99858513291730933 0.0015450568276942356 2.0089488171397217e-05 -7.743838332789979e-05 2.0089488171397217e-05 -0.19941131017431513 2.1508236542455705e-05 -7.743838332789979e-05 2.1508236542455705e-05 -0.99860510973333394 0.0015269525173773335 2.2067889862850396e-06 -0.00016224006012088843 2.2067889862850396e-06 -0.19942920054156055 1.1591766810425952e-05 -0.00016224006012088843 1.1591766810425952e-05 -0.99866253313767395 0.001688659849939822 -2.4462459838448803e-05 -5.2542299796787262e-05 -2.4462459838448803e-05 -0.19937772690796984 -3.5801187348694086e-05 -5.2542299796787262e-05 -3.5801187348694086e-05 -0.99866782026299283 0.0015600352920984717 -5.2318076602316324e-05 2.9096416813700898e-06 -5.2318076602316324e-05 -0.19938478233936741 4.1412452018718682e-06 2.9096416813700898e-06 4.1412452018718682e-06 -0.99857117903930259 0.0016812930381026048 3.1641531793346051e-05 -0.00010234779733245269 3.1641531793346051e-05 -0.19941466660195928 6.3689076545969669e-06 -0.00010234779733245269 6.3689076545969669e-06 -0.99875717985266688 0.0016791001003652051 5.4779721553686285e-07 -0.0001066522303285744 5.4779721553686285e-07 -0.19939898745277296 3.948702094713763e-05 -0.0001066522303285744 3.948702094713763e-05 -0.99873409134581292 0.0019283154726645879 8.600183502459849e-06 -7.4484792724316407e-05 8.600183502459849e-06 -0.19929499923757843 6.5052296744916305e-06 -7.4484792724316407e-05 6.5052296744916305e-06 -0.99848516398733311 0.0017204409216475536 -4.8593428641216448e-07 -9.2988258363790877e-05 -4.8593428641216448e-07 -0.19930727482204838 -4.7381775731825115e-06 -9.2988258363790877e-05 -4.7381775731825115e-06 -0.99833196840675076 0.0019838906496836284 -6.0512056748565212e-06 -6.3772760988900501e-05 -6.0512056748565212e-06 -0.1992914990517598 1.4092673779053655e-05 -6.3772760988900501e-05 1.4092673779053655e-05 -0.99845634634452285 0.0018423326921875316 -2.7045926067156539e-05 -3.5889999789873173e-06 -2.7045926067156539e-05 -0.19929263809752457 -9.7604235790305083e-06 -3.5889999789873173e-06 -9.7604235790305083e-06 -0.99836123795796694 0.0018114215771550812 8.6420055183994306e-06 -4.2231425787631061e-05 8.6420055183994306e-06 -0.1993186030258095 1.5680100954540421e-05 -4.2231425787631061e-05 1.5680100954540421e-05 -0.99842705016079458 0.0019990237773052089 -9.0095262767920727e-07 -1.004893894540615e-05 -9.0095262767920727e-07 -0.19926489502733757 -2.5011655637396935e-05 -1.004893894540615e-05 -2.5011655637396935e-05 -0.9983890747103441 0.0017831413180218192 -2.2650558865043444e-05 -0.00011155543055085815 -2.2650558865043444e-05 -0.19932692012541153 1.4565639636643368e-05 -0.00011155543055085815 1.4565639636643368e-05 -0.99843706981024116 0.001910947886658132 3.4955157182411455e-07 4.158223048822407e-05 3.4955157182411455e-07 -0.19928130227358287 -4.2525824241190779e-06 4.158223048822407e-05 -4.2525824241190779e-06 -0.99833200817800893 0.0019086827482299729 1.3329893633335828e-06 4.365533542893818e-05 1.3329893633335828e-06 -0.19928394628459678 -9.5838845663998029e-06 4.365533542893818e-05 -9.5838845663998029e-06 -0.99833728435990809 0.0017839472361916853 -5.0449871520300071e-05 -9.9406105664834321e-05 -5.0449871520300071e-05 -0.19930500674863227 -2.5590051208057574e-06 -9.9406105664834321e-05 -2.5590051208057574e-06 -0.99831817914675414 0.0022219298195153003 -2.856518637057518e-06 -6.1511883953757618e-05 -2.856518637057518e-06 -0.19920747414171602 -1.8311111559921045e-05 -6.1511883953757618e-05 -1.8311111559921045e-05 -0.99833392331176896 0.00225128510898287 -2.1911555572104229e-05 -5.8855572885208041e-05 -2.1911555572104229e-05 -0.1992135504706849 -7.6076269936997676e-06 -5.8855572885208041e-05 -7.6076269936997676e-06 -0.99833715608876084 0.0018435149639379755 4.706844337434061e-05 1.0871843276638593e-05 4.706844337434061e-05 -0.19930285691271776 1.0717939561200041e-05 1.0871843276638593e-05 1.0717939561200041e-05 -0.99835025792978183 0.0019255496049228604 1.4153705857346308e-06 -6.5978166649549586e-05 1.4153705857346308e-06 -0.19927004970245599 2.5676408728081412e-05 -6.5978166649549586e-05 2.5676408728081412e-05 -0.99827625176957646 0.0022789733768786569 1.1184872491885002e-06 -7.3196150892407275e-05 1.1184872491885002e-06 -0.19919550473790815 -2.6086161438509947e-05 -7.3196150892407275e-05 -2.6086161438509947e-05 -0.99831279975624732 0.0019271131044196199 2.3948920694397961e-06 -6.6477426515332283e-05 2.3948920694397961e-06 -0.19926652561482938 2.2498935669190701e-05 -6.6477426515332283e-05 2.2498935669190701e-05 -0.99827195372423194 0.0022099995688158458 2.7274137752502751e-05 1.7224526898118597e-06 2.7274137752502751e-05 -0.19920944916670646 1.0609201914979494e-05 1.7224526898118597e-06 1.0609201914979494e-05 -0.99832170232694928 0.0021003830763769438 7.5640717224045035e-05 -2.3919488373991271e-05 7.5640717224045035e-05 -0.19923496638184157 -5.7984956736145676e-06 -2.3919488373991271e-05 -5.7984956736145676e-06 -0.99830177026526856 
</DataArray>
</CellData>
</Piece>
</UnstructuredGrid>
</VTKFile>
