<?xml version="1.0"?>
<VTKFile type="UnstructuredGrid" version="0.1" byte_order="LittleEndian">
<UnstructuredGrid>
<Piece NumberOfPoints="2876" NumberOfCells="719">
<Points>
<DataArray type="Float64" NumberOfComponents="3" format="ascii">
0.31610726166346748 0.18804489794572149 0 0.16929708765618309 0.30074819035915368 0 0.14641016151452901 0.14641016151487049 0 0.312576188949791 0.31458070521983672 0.3125761889497819 0 0.20000000000083221 0 0 0 0 0.14641016151452901 0.14641016151487049 0 0 0.14641016151432179 0.14641016151432179 0 0 0 0.19999999999955789 0 0 0.14641016151452901 0.14641016151487049 0 0.1464101615145241 0 0.14641016151486561 0 0.14641016151432179 0.14641016151432179 0 0 0.20000000000083221 0 0 0 0.1464101615145241 0 0.14641016151486561 0 0.14641016151432179 0.14641016151432179 0 0.30074819035869899 0.1692970876565193 0 0.18804489794560331 0.31610726166461361 0.312576188949791 0.31458070521983672 0.3125761889497819 0.31578456131778371 0 0.1865278143482666 0.1464101615145241 0 0.14641016151486561 0.16938214347656569 0 0.30011357660650623 0.312576188949791 0.31458070521983672 0.3125761889497819 0 0.14641016151432179 0.14641016151432179 0 0 0 0.14641016151452901 0.14641016151487049 0 0.1464101615145241 0 0.14641016151486561 0.14641016151452901 0.14641016151487049 0 0.1464101615145241 0 0.14641016151486561 0.31578456131778371 0 0.1865278143482666 0.312576188949791 0.31458070521983672 0.3125761889497819 0.14641016151452901 0.14641016151487049 0 0 0.30074819035869899 0.1692970876565193 0 0.14641016151432179 0.14641016151432179 0.312576188949791 0.31458070521983672 0.3125761889497819 0.14641016151452901 0.14641016151487049 0 0 0.14641016151432179 0.14641016151432179 0.1464101615145241 0 0.14641016151486561 0.312576188949791 0.31458070521983672 0.3125761889497819 0 0.14641016151432179 0.14641016151432179 0.16938214347656569 0 0.30011357660650623 0.1464101615145241 0 0.14641016151486561 0.312576188949791 0.31458070521983672 0.3125761889497819 0.1464101615145241 0 0.14641016151486561 0 0.14641016151432179 0.14641016151432179 0 0 0.20000000000083221 0.16938214347656569 0 0.30011357660650623 0 0.18804489794560331 0.31610726166461361 0 0 0.20000000000083221 0 0.14641016151432179 0.14641016151432179 0.16938214347656569 0 0.30011357660650623 0 0.14641016151432179 0.14641016151432179 0.14641016151452901 0.14641016151487049 0 0 0.20000000000083221 0 0 0.30074819035869899 0.1692970876565193 0 0.30074819035869899 0.1692970876565193 0.14641016151452901 0.14641016151487049 0 0 0.20000000000083221 0 0.16929708765618309 0.30074819035915368 0 0.19999999999955789 0 0 0.14641016151452901 0.14641016151487049 0 0.31578456131778371 0 0.1865278143482666 0.31610726166346748 0.18804489794572149 0 0.19999999999955789 0 0 0.14641016151452901 0.14641016151487049 0 0.1464101615145241 0 0.14641016151486561 0.31578456131778371 0 0.1865278143482666 0.31578456131778371 0 0.1865278143482666 0.3999999999989749 0 0 0.19999999999955789 0 0 0.31610726166346748 0.18804489794572149 0 0.31578456131778371 0 0.1865278143482666 0.31610726166346748 0.18804489794572149 0 0.14641016151452901 0.14641016151487049 0 0.312576188949791 0.31458070521983672 0.3125761889497819 0.31610726166346748 0.18804489794572149 0 0.312576188949791 0.31458070521983672 0.3125761889497819 0.31578456131778371 0 0.1865278143482666 0.5003997205654479 0.21136633249797621 0.2258422409314382 0.31610726166346748 0.18804489794572149 0 0.49391845158624981 0 0.1323760430705655 0.50966790549376417 0.16275515618023731 0 0.5003997205654479 0.21136633249797621 0.2258422409314382 0.31610726166346748 0.18804489794572149 0 0.50966790549376417 0.16275515618023731 0 0.45812322962036273 0.31024977578535839 0 0.5003997205654479 0.21136633249797621 0.2258422409314382 0.49391845158624981 0 0.1323760430705655 0.3999999999989749 0 0 0.31610726166346748 0.18804489794572149 0 0.50966790549376417 0.16275515618023731 0 0.49391845158624981 0 0.1323760430705655 0.3999999999989749 0 0 0.31578456131778371 0 0.1865278143482666 0.31610726166346748 0.18804489794572149 0 0.31578456131778371 0 0.1865278143482666 0.47688326899416439 0 0.31741132792405607 0.49391845158624981 0 0.1323760430705655 0.5003997205654479 0.21136633249797621 0.2258422409314382 0.31610726166346748 0.18804489794572149 0 0.31578456131778371 0 0.1865278143482666 0.49391845158624981 0 0.1323760430705655 0.5003997205654479 0.21136633249797621 0.2258422409314382 0.31030302876556398 0 0.54179813558513157 0.50073570207385831 0.24848280280289631 0.52886631355986169 0.32146143392436449 0 0.38738071487621961 0.22088738526309029 0.22111069116742441 0.50004796911802929 0.32146143392436449 0 0.38738071487621961 0.312576188949791 0.31458070521983672 0.3125761889497819 0.16938214347656569 0 0.30011357660650623 0.22088738526309029 0.22111069116742441 0.50004796911802929 0.32146143392436449 0 0.38738071487621961 0.50073570207385831 0.24848280280289631 0.52886631355986169 0.312576188949791 0.31458070521983672 0.3125761889497819 0.22088738526309029 0.22111069116742441 0.50004796911802929 0.32146143392436449 0 0.38738071487621961 0.50073570207385831 0.24848280280289631 0.52886631355986169 0.47688326899416439 0 0.31741132792405607 0.5003997205654479 0.21136633249797621 0.2258422409314382 0.32146143392436449 0 0.38738071487621961 0.312576188949791 0.31458070521983672 0.3125761889497819 0.50073570207385831 0.24848280280289631 0.52886631355986169 0.5003997205654479 0.21136633249797621 0.2258422409314382 0.32146143392436449 0 0.38738071487621961 0.31578456131778371 0 0.1865278143482666 0.16938214347656569 0 0.30011357660650623 0.312576188949791 0.31458070521983672 0.3125761889497819 0.31578456131778371 0 0.1865278143482666 0.312576188949791 0.31458070521983672 0.3125761889497819 0.32146143392436449 0 0.38738071487621961 0.5003997205654479 0.21136633249797621 0.2258422409314382 0.31578456131778371 0 0.1865278143482666 0.32146143392436449 0 0.38738071487621961 0.47688326899416439 0 0.31741132792405607 0.5003997205654479 0.21136633249797621 0.2258422409314382 0.31030302876556398 0 0.54179813558513157 0.50000000000250922 0 0.48038475773043671 0.32146143392436449 0 0.38738071487621961 0.50073570207385831 0.24848280280289631 0.52886631355986169 0.32146143392436449 0 0.38738071487621961 0.50000000000250922 0 0.48038475773043671 0.47688326899416439 0 0.31741132792405607 0.50073570207385831 0.24848280280289631 0.52886631355986169 0.16370661204827031 0 0.4886650857430957 0.31030302876556398 0 0.54179813558513157 0.32146143392436449 0 0.38738071487621961 0.22088738526309029 0.22111069116742441 0.50004796911802929 0.16370661204827031 0 0.4886650857430957 0.32146143392436449 0 0.38738071487621961 0.16938214347656569 0 0.30011357660650623 0.22088738526309029 0.22111069116742441 0.50004796911802929 0.16938214347656569 0 0.30011357660650623 0 0.14641016151432179 0.14641016151432179 0 0.18804489794560331 0.31610726166461361 0.312576188949791 0.31458070521983672 0.3125761889497819 0 0.18804489794560331 0.31610726166461361 0.16370661204827031 0 0.4886650857430957 0.16938214347656569 0 0.30011357660650623 0.22088738526309029 0.22111069116742441 0.50004796911802929 0 0.18804489794560331 0.31610726166461361 0.16938214347656569 0 0.30011357660650623 0.312576188949791 0.31458070521983672 0.3125761889497819 0.22088738526309029 0.22111069116742441 0.50004796911802929 0 0 0.40000000000166441 0 0 0.60000000000138687 0.16370661204827031 0 0.4886650857430957 0 0.16275515618034081 0.50966790549591257 0 0 0.40000000000166441 0 0.18804489794560331 0.31610726166461361 0.16370661204827031 0 0.4886650857430957 0.16938214347656569 0 0.30011357660650623 0.16370661204827031 0 0.4886650857430957 0 0.18804489794560331 0.31610726166461361 0 0 0.40000000000166441 0 0.16275515618034081 0.50966790549591257 0 0.18804489794560331 0.31610726166461361 0 0 0.40000000000166441 0 0 0.20000000000083221 0.16938214347656569 0 0.30011357660650623 0 0.18804489794560331 0.31610726166461361 0 0.16275515618034081 0.50966790549591257 0.16370661204827031 0 0.4886650857430957 0.22088738526309029 0.22111069116742441 0.50004796911802929 0 0.18804489794560331 0.31610726166461361 0 0.31024977578556651 0.45812322962166352 0 0.16275515618034081 0.50966790549591257 0.22088738526309029 0.22111069116742441 0.50004796911802929 0 0.30074819035869899 0.1692970876565193 0 0.39615100178029522 0.32925244736138171 0 0.18804489794560331 0.31610726166461361 0.312576188949791 0.31458070521983672 0.3125761889497819 0 0.31024977578556651 0.45812322962166352 0.312576188949791 0.31458070521983672 0.3125761889497819 0.24769234054476261 0.52242103280823293 0.45098450226372488 0.22088738526309029 0.22111069116742441 0.50004796911802929 0 0.18804489794560331 0.31610726166461361 0 0.39615100178029522 0.32925244736138171 0 0.31024977578556651 0.45812322962166352 0.312576188949791 0.31458070521983672 0.3125761889497819 0 0.39615100178029522 0.32925244736138171 0.24769234054476261 0.52242103280823293 0.45098450226372488 0.312576188949791 0.31458070521983672 0.3125761889497819 0.22345881830598399 0.5062398304147856 0.22345881830602041 0 0.31024977578556651 0.45812322962166352 0.312576188949791 0.31458070521983672 0.3125761889497819 0 0.39615100178029522 0.32925244736138171 0.24769234054476261 0.52242103280823293 0.45098450226372488 0 0.30074819035869899 0.1692970876565193 0 0.39615100178029522 0.32925244736138171 0.312576188949791 0.31458070521983672 0.3125761889497819 0.22345881830598399 0.5062398304147856 0.22345881830602041 0 0.18804489794560331 0.31610726166461361 0.312576188949791 0.31458070521983672 0.3125761889497819 0 0.31024977578556651 0.45812322962166352 0.22088738526309029 0.22111069116742441 0.50004796911802929 0 0.31024977578556651 0.45812322962166352 0 0.39615100178029522 0.32925244736138171 0 0.50000000000237477 0.51961524226909872 0.24769234054476261 0.52242103280823293 0.45098450226372488 0.50000000000001332 0.49999999999999561 0.49999999999999561 0.50073570207385831 0.24848280280289631 0.52886631355986169 0.312576188949791 0.31458070521983672 0.3125761889497819 0.5004045312576143 0.47050700646456922 0.24963111222780321 0.24769234054476261 0.52242103280823293 0.45098450226372488 0.5004045312576143 0.47050700646456922 0.24963111222780321 0.312576188949791 0.31458070521983672 0.3125761889497819 0.22345881830598399 0.5062398304147856 0.22345881830602041 0.312576188949791 0.31458070521983672 0.3125761889497819 0.5004045312576143 0.47050700646456922 0.24963111222780321 0.50073570207385831 0.24848280280289631 0.52886631355986169 0.5003997205654479 0.21136633249797621 0.2258422409314382 0.50000000000001332 0.49999999999999561 0.49999999999999561 0.24769234054476261 0.52242103280823293 0.45098450226372488 0.312576188949791 0.31458070521983672 0.3125761889497819 0.50073570207385831 0.24848280280289631 0.52886631355986169 0.312576188949791 0.31458070521983672 0.3125761889497819 0.24769234054476261 0.52242103280823293 0.45098450226372488 0.50000000000001332 0.49999999999999561 0.49999999999999561 0.5004045312576143 0.47050700646456922 0.24963111222780321 0.312576188949791 0.31458070521983672 0.3125761889497819 0.50073570207385831 0.24848280280289631 0.52886631355986169 0.24769234054476261 0.52242103280823293 0.45098450226372488 0.22088738526309029 0.22111069116742441 0.50004796911802929 0.32925244736090059 0.39615100178043078 0 0.312576188949791 0.31458070521983672 0.3125761889497819 0.45812322962036273 0.31024977578535839 0 0.5004045312576143 0.47050700646456922 0.24963111222780321 0.32925244736090059 0.39615100178043078 0 0.5004045312576143 0.47050700646456922 0.24963111222780321 0.32446581821364329 0.60020898676454815 0 0.22345881830598399 0.5062398304147856 0.22345881830602041 0.45812322962036273 0.31024977578535839 0 0.5004045312576143 0.47050700646456922 0.24963111222780321 0.312576188949791 0.31458070521983672 0.3125761889497819 0.5003997205654479 0.21136633249797621 0.2258422409314382 0.45812322962036273 0.31024977578535839 0 0.32925244736090059 0.39615100178043078 0 0.31610726166346748 0.18804489794572149 0 0.312576188949791 0.31458070521983672 0.3125761889497819 0.16929708765618309 0.30074819035915368 0 0.312576188949791 0.31458070521983672 0.3125761889497819 0.32925244736090059 0.39615100178043078 0 0.22345881830598399 0.5062398304147856 0.22345881830602041 0.31610726166346748 0.18804489794572149 0 0.45812322962036273 0.31024977578535839 0 0.312576188949791 0.31458070521983672 0.3125761889497819 0.5003997205654479 0.21136633249797621 0.2258422409314382 0.32925244736090059 0.39615100178043078 0 0.312576188949791 0.31458070521983672 0.3125761889497819 0.5004045312576143 0.47050700646456922 0.24963111222780321 0.22345881830598399 0.5062398304147856 0.22345881830602041 0.32925244736090059 0.39615100178043078 0 0.16929708765618309 0.30074819035915368 0 0.31610726166346748 0.18804489794572149 0 0.312576188949791 0.31458070521983672 0.3125761889497819 0.32446581821364329 0.60020898676454815 0 0.32925244736090059 0.39615100178043078 0 0.51961524226956368 0.5000000000025091 0 0.5004045312576143 0.47050700646456922 0.24963111222780321 0.51961524226956368 0.5000000000025091 0 0.32925244736090059 0.39615100178043078 0 0.45812322962036273 0.31024977578535839 0 0.5004045312576143 0.47050700646456922 0.24963111222780321 0 0.30074819035869899 0.1692970876565193 0.14641016151452901 0.14641016151487049 0 0.16929708765618309 0.30074819035915368 0 0.312576188949791 0.31458070521983672 0.3125761889497819 0 0.30074819035869899 0.1692970876565193 0.312576188949791 0.31458070521983672 0.3125761889497819 0.16929708765618309 0.30074819035915368 0 0.22345881830598399 0.5062398304147856 0.22345881830602041 0.17226134197279269 0.49836539647922029 0 0 0.49836539647891548 0.17226134197271731 0.16929708765618309 0.30074819035915368 0 0.22345881830598399 0.5062398304147856 0.22345881830602041 0.17226134197279269 0.49836539647922029 0 0.16929708765618309 0.30074819035915368 0 0.32925244736090059 0.39615100178043078 0 0.22345881830598399 0.5062398304147856 0.22345881830602041 0 0.30074819035869899 0.1692970876565193 0 0.20000000000083221 0 0 0.40000000000166441 0 0.16929708765618309 0.30074819035915368 0 0 0.30074819035869899 0.1692970876565193 0 0.40000000000166441 0 0 0.49836539647891548 0.17226134197271731 0.16929708765618309 0.30074819035915368 0 0 0.30074819035869899 0.1692970876565193 0.16929708765618309 0.30074819035915368 0 0 0.49836539647891548 0.17226134197271731 0.22345881830598399 0.5062398304147856 0.22345881830602041 0 0.30074819035869899 0.1692970876565193 0 0.49836539647891548 0.17226134197271731 0 0.39615100178029522 0.32925244736138171 0.22345881830598399 0.5062398304147856 0.22345881830602041 0 0.49836539647891548 0.17226134197271731 0 0.40000000000166441 0 0 0.60000000000138687 0 0.17226134197279269 0.49836539647922029 0 0.16929708765618309 0.30074819035915368 0 0 0.40000000000166441 0 0 0.49836539647891548 0.17226134197271731 0.17226134197279269 0.49836539647922029 0 0 0.69449451837103049 0.15896804272139439 0 0.60020898676435996 0.32446581821286191 0.22345881830598399 0.5062398304147856 0.22345881830602041 0.19259015428765269 0.77719169076434647 0.19259015428773721 0.1589680427220837 0.69449451837091269 0 0 0.69449451837103049 0.15896804272139439 0.22345881830598399 0.5062398304147856 0.22345881830602041 0.19259015428765269 0.77719169076434647 0.19259015428773721 0 0.69449451837103049 0.15896804272139439 0.17226134197279269 0.49836539647922029 0 0 0.60000000000138687 0 0.1589680427220837 0.69449451837091269 0 0.32446581821364329 0.60020898676454815 0 0.1589680427220837 0.69449451837091269 0 0.22345881830598399 0.5062398304147856 0.22345881830602041 0.19259015428765269 0.77719169076434647 0.19259015428773721 0 0.60000000000138687 0 0 0.49836539647891548 0.17226134197271731 0.17226134197279269 0.49836539647922029 0 0 0.69449451837103049 0.15896804272139439 0 0.69449451837103049 0.15896804272139439 0 0.60000000000138687 0 0 0.79999999999999982 0 0.1589680427220837 0.69449451837091269 0 0.31067093463127438 0.81480288849489035 0 0.1589680427220837 0.69449451837091269 0 0.32446581821364329 0.60020898676454815 0 0.19259015428765269 0.77719169076434647 0.19259015428773721 0.32446581821364329 0.60020898676454815 0 0.1589680427220837 0.69449451837091269 0 0.17226134197279269 0.49836539647922029 0 0.22345881830598399 0.5062398304147856 0.22345881830602041 0.1589680427220837 0.69449451837091269 0 0 0.69449451837103049 0.15896804272139439 0.17226134197279269 0.49836539647922029 0 0.22345881830598399 0.5062398304147856 0.22345881830602041 0 0.69449451837103049 0.15896804272139439 0 0.81480288849496429 0.31067093462946233 0 0.60020898676435996 0.32446581821286191 0.19259015428765269 0.77719169076434647 0.19259015428773721 0 0.49836539647891548 0.17226134197271731 0 0.69449451837103049 0.15896804272139439 0 0.60020898676435996 0.32446581821286191 0.22345881830598399 0.5062398304147856 0.22345881830602041 0 0.49836539647891548 0.17226134197271731 0.17226134197279269 0.49836539647922029 0 0 0.69449451837103049 0.15896804272139439 0.22345881830598399 0.5062398304147856 0.22345881830602041 0 0.60020898676435996 0.32446581821286191 0.22516916914780419 0.77057994845201627 0.48187244075707292 0.35848654557803328 0.70013656506632282 0.30029870175293161 0.19259015428765269 0.77719169076434647 0.19259015428773721 0 0.60020898676435996 0.32446581821286191 0.24769234054476261 0.52242103280823293 0.45098450226372488 0 0.39615100178029522 0.32925244736138171 0.22345881830598399 0.5062398304147856 0.22345881830602041 0 0.60020898676435996 0.32446581821286191 0 0.81480288849496429 0.31067093462946233 0.22516916914780419 0.77057994845201627 0.48187244075707292 0.19259015428765269 0.77719169076434647 0.19259015428773721 0.35848654557803328 0.70013656506632282 0.30029870175293161 0.22345881830598399 0.5062398304147856 0.22345881830602041 0 0.60020898676435996 0.32446581821286191 0.19259015428765269 0.77719169076434647 0.19259015428773721 0 0.49836539647891548 0.17226134197271731 0 0.60020898676435996 0.32446581821286191 0 0.39615100178029522 0.32925244736138171 0.22345881830598399 0.5062398304147856 0.22345881830602041 0 0.60020898676435996 0.32446581821286191 0.24769234054476261 0.52242103280823293 0.45098450226372488 0.35848654557803328 0.70013656506632282 0.30029870175293161 0.22516916914780419 0.77057994845201627 0.48187244075707292 0.35848654557803328 0.70013656506632282 0.30029870175293161 0.24769234054476261 0.52242103280823293 0.45098450226372488 0 0.60020898676435996 0.32446581821286191 0.22345881830598399 0.5062398304147856 0.22345881830602041 0 0.39615100178029522 0.32925244736138171 0 0.60020898676435996 0.32446581821286191 0 0.50000000000237477 0.51961524226909872 0.24769234054476261 0.52242103280823293 0.45098450226372488 0 0.68801781652248195 0.45664527743358641 0 0.50000000000237477 0.51961524226909872 0 0.60020898676435996 0.32446581821286191 0.24769234054476261 0.52242103280823293 0.45098450226372488 0 0.66416205381430016 0.59944234540882957 0.24769234054476261 0.52242103280823293 0.45098450226372488 0 0.68801781652248195 0.45664527743358641 0.22516916914780419 0.77057994845201627 0.48187244075707292 0 0.60020898676435996 0.32446581821286191 0 0.81480288849496429 0.31067093462946233 0 0.68801781652248195 0.45664527743358641 0.22516916914780419 0.77057994845201627 0.48187244075707292 0 0.68801781652248195 0.45664527743358641 0.24769234054476261 0.52242103280823293 0.45098450226372488 0 0.60020898676435996 0.32446581821286191 0.22516916914780419 0.77057994845201627 0.48187244075707292 0.16929708765615539 1 0.30074819035677097 0.32926555316115258 1 0.39615987727515128 0.22516916914780419 0.77057994845201627 0.48187244075707292 0.19259015428765269 0.77719169076434647 0.19259015428773721 0 0.81480288849496429 0.31067093462946233 0.16929708765615539 1 0.30074819035677097 0.22516916914780419 0.77057994845201627 0.48187244075707292 0.19259015428765269 0.77719169076434647 0.19259015428773721 0.17226134197293 1 0.49836539647645101 0 0.83630110503664845 0.50803330197135654 0 0.81480288849496429 0.31067093462946233 0.22516916914780419 0.77057994845201627 0.48187244075707292 0 0.68801781652248195 0.45664527743358641 0 0.81480288849496429 0.31067093462946233 0 0.83630110503664845 0.50803330197135654 0.22516916914780419 0.77057994845201627 0.48187244075707292 0.17226134197293 1 0.49836539647645101 0 1 0.3999999999989749 0 0.81480288849496429 0.31067093462946233 0 0.83630110503664845 0.50803330197135654 0 0.81480288849496429 0.31067093462946233 0.16929708765615539 1 0.30074819035677097 0 1 0.3999999999989749 0.17226134197293 1 0.49836539647645101 0.17226134197293 1 0.49836539647645101 0 0.81480288849496429 0.31067093462946233 0.16929708765615539 1 0.30074819035677097 0.22516916914780419 0.77057994845201627 0.48187244075707292 0.17226134197293 1 0.49836539647645101 0.16929708765615539 1 0.30074819035677097 0.32926555316115258 1 0.39615987727515128 0.22516916914780419 0.77057994845201627 0.48187244075707292 0 1 0.3999999999989749 0 1 0.19999999999955789 0.16929708765615539 1 0.30074819035677097 0 0.81480288849496429 0.31067093462946233 0.16929708765615539 1 0.30074819035677097 0 1 0.19999999999955789 0 0.85358983848655678 0.14641016151332509 0 0.81480288849496429 0.31067093462946233 0.14641016151352521 1 0.1464101615131837 0 1 0.19999999999955789 0 0.85358983848655678 0.14641016151332509 0.16929708765615539 1 0.30074819035677097 0.20000000000083221 1 0 0 1 0 0.14641016151479211 0.85358983848543113 0 0.14641016151352521 1 0.1464101615131837 0 0.85358983848655678 0.14641016151332509 0 1 0 0 1 0.19999999999955789 0.14641016151352521 1 0.1464101615131837 0 0.85358983848655678 0.14641016151332509 0.14641016151479211 0.85358983848543113 0 0 1 0 0.14641016151352521 1 0.1464101615131837 0.14641016151479211 0.85358983848543113 0 0 1 0 0 0.79999999999999982 0 0 0.85358983848655678 0.14641016151332509 0 0.85358983848655678 0.14641016151332509 0 0.69449451837103049 0.15896804272139439 0.1589680427220837 0.69449451837091269 0 0.19259015428765269 0.77719169076434647 0.19259015428773721 0 0.79999999999999982 0 0.1589680427220837 0.69449451837091269 0 0.14641016151479211 0.85358983848543113 0 0 0.85358983848655678 0.14641016151332509 0.14641016151352521 1 0.1464101615131837 0 0.85358983848655678 0.14641016151332509 0.14641016151479211 0.85358983848543113 0 0.19259015428765269 0.77719169076434647 0.19259015428773721 0.1589680427220837 0.69449451837091269 0 0 0.79999999999999982 0 0 0.69449451837103049 0.15896804272139439 0 0.85358983848655678 0.14641016151332509 0.1589680427220837 0.69449451837091269 0 0.14641016151479211 0.85358983848543113 0 0 0.85358983848655678 0.14641016151332509 0.19259015428765269 0.77719169076434647 0.19259015428773721 0.16929708765615539 1 0.30074819035677097 0 0.81480288849496429 0.31067093462946233 0 0.85358983848655678 0.14641016151332509 0.19259015428765269 0.77719169076434647 0.19259015428773721 0 0.85358983848655678 0.14641016151332509 0 0.81480288849496429 0.31067093462946233 0 0.69449451837103049 0.15896804272139439 0.19259015428765269 0.77719169076434647 0.19259015428773721 0.14641016151352521 1 0.1464101615131837 0.14641016151479211 0.85358983848543113 0 0.31067093463127438 0.81480288849489035 0 0.19259015428765269 0.77719169076434647 0.19259015428773721 0.1589680427220837 0.69449451837091269 0 0.31067093463127438 0.81480288849489035 0 0.14641016151479211 0.85358983848543113 0 0.19259015428765269 0.77719169076434647 0.19259015428773721 0.14641016151479211 0.85358983848543113 0 0.31067093463127438 0.81480288849489035 0 0.20000000000083221 1 0 0.14641016151352521 1 0.1464101615131837 0.31635851157303152 1 0.18818969570840721 0.20000000000083221 1 0 0.31067093463127438 0.81480288849489035 0 0.14641016151352521 1 0.1464101615131837 0.31067093463127438 0.81480288849489035 0 0.31635851157303152 1 0.18818969570840721 0.14641016151352521 1 0.1464101615131837 0.19259015428765269 0.77719169076434647 0.19259015428773721 0.31635851157303152 1 0.18818969570840721 0.16929708765615539 1 0.30074819035677097 0.14641016151352521 1 0.1464101615131837 0.19259015428765269 0.77719169076434647 0.19259015428773721 0.14641016151352521 1 0.1464101615131837 0.16929708765615539 1 0.30074819035677097 0 0.85358983848655678 0.14641016151332509 0.19259015428765269 0.77719169076434647 0.19259015428773721 0.35848654557803328 0.70013656506632282 0.30029870175293161 0.19259015428765269 0.77719169076434647 0.19259015428773721 0.31635851157303152 1 0.18818969570840721 0.52894546611500048 0.79133000140429866 0.2082794184507949 0.31067093463127438 0.81480288849489035 0 0.19259015428765269 0.77719169076434647 0.19259015428773721 0.35848654557803328 0.70013656506632282 0.30029870175293161 0.52894546611500048 0.79133000140429866 0.2082794184507949 0.31067093463127438 0.81480288849489035 0 0.31635851157303152 1 0.18818969570840721 0.19259015428765269 0.77719169076434647 0.19259015428773721 0.52894546611500048 0.79133000140429866 0.2082794184507949 0.31067093463127438 0.81480288849489035 0 0.40000000000166441 1 0 0.20000000000083221 1 0 0.31635851157303152 1 0.18818969570840721 0.31067093463127438 0.81480288849489035 0 0.50803330197353713 0.83630110503668265 0 0.31635851157303152 1 0.18818969570840721 0.52894546611500048 0.79133000140429866 0.2082794184507949 0.45664527743509797 0.68801781652245086 0 0.50803330197353713 0.83630110503668265 0 0.31067093463127438 0.81480288849489035 0 0.52894546611500048 0.79133000140429866 0.2082794184507949 0.51133491425992716 1 0.16370661204795281 0.31635851157303152 1 0.18818969570840721 0.40000000000166441 1 0 0.50803330197353713 0.83630110503668265 0 0.31635851157303152 1 0.18818969570840721 0.31067093463127438 0.81480288849489035 0 0.40000000000166441 1 0 0.50803330197353713 0.83630110503668265 0 0.51133491425992716 1 0.16370661204795281 0.45820186441796368 1 0.31030302876579191 0.31635851157303152 1 0.18818969570840721 0.52894546611500048 0.79133000140429866 0.2082794184507949 0.51133491425992716 1 0.16370661204795281 0.31635851157303152 1 0.18818969570840721 0.50803330197353713 0.83630110503668265 0 0.52894546611500048 0.79133000140429866 0.2082794184507949 0.32926555316115258 1 0.39615987727515128 0.35848654557803328 0.70013656506632282 0.30029870175293161 0.49983993748706529 0.75039103705932653 0.52967335724801234 0.22516916914780419 0.77057994845201627 0.48187244075707292 0.35848654557803328 0.70013656506632282 0.30029870175293161 0.22516916914780419 0.77057994845201627 0.48187244075707292 0.32926555316115258 1 0.39615987727515128 0.19259015428765269 0.77719169076434647 0.19259015428773721 0.31635851157303152 1 0.18818969570840721 0.45820186441796368 1 0.31030302876579191 0.32926555316115258 1 0.39615987727515128 0.35848654557803328 0.70013656506632282 0.30029870175293161 0.45820186441796368 1 0.31030302876579191 0.35848654557803328 0.70013656506632282 0.30029870175293161 0.31635851157303152 1 0.18818969570840721 0.52894546611500048 0.79133000140429866 0.2082794184507949 0.31635851157303152 1 0.18818969570840721 0.35848654557803328 0.70013656506632282 0.30029870175293161 0.32926555316115258 1 0.39615987727515128 0.19259015428765269 0.77719169076434647 0.19259015428773721 0.45820186441796368 1 0.31030302876579191 0.49983993748706529 0.75039103705932653 0.52967335724801234 0.35848654557803328 0.70013656506632282 0.30029870175293161 0.52894546611500048 0.79133000140429866 0.2082794184507949 0.45820186441796368 1 0.31030302876579191 0.32926555316115258 1 0.39615987727515128 0.35848654557803328 0.70013656506632282 0.30029870175293161 0.49983993748706529 0.75039103705932653 0.52967335724801234 0.31635851157303152 1 0.18818969570840721 0.32926555316115258 1 0.39615987727515128 0.16929708765615539 1 0.30074819035677097 0.19259015428765269 0.77719169076434647 0.19259015428773721 0.32926555316115258 1 0.39615987727515128 0.32448110831226962 1 0.6002015905153204 0.17226134197293 1 0.49836539647645101 0.22516916914780419 0.77057994845201627 0.48187244075707292 0.45820186441796368 1 0.31030302876579191 0.51961524227008238 1 0.49999999999872219 0.32926555316115258 1 0.39615987727515128 0.49983993748706529 0.75039103705932653 0.52967335724801234 0.24769234054476261 0.52242103280823293 0.45098450226372488 0.49983993748706529 0.75039103705932653 0.52967335724801234 0.35848654557803328 0.70013656506632282 0.30029870175293161 0.22516916914780419 0.77057994845201627 0.48187244075707292 0.35848654557803328 0.70013656506632282 0.30029870175293161 0.50000000000001332 0.49999999999999561 0.49999999999999561 0.24769234054476261 0.52242103280823293 0.45098450226372488 0.5004045312576143 0.47050700646456922 0.24963111222780321 0.35848654557803328 0.70013656506632282 0.30029870175293161 0.24769234054476261 0.52242103280823293 0.45098450226372488 0.50000000000001332 0.49999999999999561 0.49999999999999561 0.49983993748706529 0.75039103705932653 0.52967335724801234 0.35848654557803328 0.70013656506632282 0.30029870175293161 0.5004045312576143 0.47050700646456922 0.24963111222780321 0.24769234054476261 0.52242103280823293 0.45098450226372488 0.22345881830598399 0.5062398304147856 0.22345881830602041 0.35848654557803328 0.70013656506632282 0.30029870175293161 0.32446581821364329 0.60020898676454815 0 0.5004045312576143 0.47050700646456922 0.24963111222780321 0.22345881830598399 0.5062398304147856 0.22345881830602041 0.31067093463127438 0.81480288849489035 0 0.32446581821364329 0.60020898676454815 0 0.45664527743509797 0.68801781652245086 0 0.35848654557803328 0.70013656506632282 0.30029870175293161 0.32446581821364329 0.60020898676454815 0 0.22345881830598399 0.5062398304147856 0.22345881830602041 0.35848654557803328 0.70013656506632282 0.30029870175293161 0.19259015428765269 0.77719169076434647 0.19259015428773721 0.32446581821364329 0.60020898676454815 0 0.45664527743509797 0.68801781652245086 0 0.35848654557803328 0.70013656506632282 0.30029870175293161 0.5004045312576143 0.47050700646456922 0.24963111222780321 0.31067093463127438 0.81480288849489035 0 0.32446581821364329 0.60020898676454815 0 0.35848654557803328 0.70013656506632282 0.30029870175293161 0.19259015428765269 0.77719169076434647 0.19259015428773721 0.45664527743509797 0.68801781652245086 0 0.31067093463127438 0.81480288849489035 0 0.35848654557803328 0.70013656506632282 0.30029870175293161 0.52894546611500048 0.79133000140429866 0.2082794184507949 0.35848654557803328 0.70013656506632282 0.30029870175293161 0.5004045312576143 0.47050700646456922 0.24963111222780321 0.45664527743509797 0.68801781652245086 0 0.52894546611500048 0.79133000140429866 0.2082794184507949 0.17226134197279269 0.49836539647922029 0 0.32925244736090059 0.39615100178043078 0 0.32446581821364329 0.60020898676454815 0 0.22345881830598399 0.5062398304147856 0.22345881830602041 0.32446581821364329 0.60020898676454815 0 0.51961524226956368 0.5000000000025091 0 0.45664527743509797 0.68801781652245086 0 0.5004045312576143 0.47050700646456922 0.24963111222780321 0.72722573386132172 0.60922248848163563 0 0.68456408135056701 0.68607101396845627 0.31096060989957619 0.59944234541082553 0.66416205381394655 0 0.77713227489941183 0.50036915849493024 0.21774643624003751 0.68456408135056701 0.68607101396845627 0.31096060989957619 0.5004045312576143 0.47050700646456922 0.24963111222780321 0.59944234541082553 0.66416205381394655 0 0.77713227489941183 0.50036915849493024 0.21774643624003751 0.59944234541082553 0.66416205381394655 0 0.45664527743509797 0.68801781652245086 0 0.5004045312576143 0.47050700646456922 0.24963111222780321 0.52894546611500048 0.79133000140429866 0.2082794184507949 0.51961524226956368 0.5000000000025091 0 0.67320508075660079 0.46954769941202479 0 0.59944234541082553 0.66416205381394655 0 0.5004045312576143 0.47050700646456922 0.24963111222780321 0.59944234541082553 0.66416205381394655 0 0.5004045312576143 0.47050700646456922 0.24963111222780321 0.68456408135056701 0.68607101396845627 0.31096060989957619 0.52894546611500048 0.79133000140429866 0.2082794184507949 0.59944234541082553 0.66416205381394655 0 0.5004045312576143 0.47050700646456922 0.24963111222780321 0.67320508075660079 0.46954769941202479 0 0.77713227489941183 0.50036915849493024 0.21774643624003751 0.59944234541082553 0.66416205381394655 0 0.52894546611500048 0.79133000140429866 0.2082794184507949 0.68456408135056701 0.68607101396845627 0.31096060989957619 0.81582077266975173 0.77657922508894406 0.18483084990574741 0.59944234541082553 0.66416205381394655 0 0.45664527743509797 0.68801781652245086 0 0.51961524226956368 0.5000000000025091 0 0.5004045312576143 0.47050700646456922 0.24963111222780321 0.59944234541082553 0.66416205381394655 0 0.68456408135056701 0.68607101396845627 0.31096060989957619 0.72722573386132172 0.60922248848163563 0 0.81582077266975173 0.77657922508894406 0.18483084990574741 0.45664527743509797 0.68801781652245086 0 0.59944234541082553 0.66416205381394655 0 0.50803330197353713 0.83630110503668265 0 0.52894546611500048 0.79133000140429866 0.2082794184507949 0.59944234541082553 0.66416205381394655 0 0.72722573386132172 0.60922248848163563 0 0.7054234997318658 0.80860557108880304 0 0.81582077266975173 0.77657922508894406 0.18483084990574741 0.72722573386132172 0.60922248848163563 0 0.59944234541082553 0.66416205381394655 0 0.67320508075660079 0.46954769941202479 0 0.77713227489941183 0.50036915849493024 0.21774643624003751 0.68456408135056701 0.68607101396845627 0.31096060989957619 0.5004045312576143 0.47050700646456922 0.24963111222780321 0.35848654557803328 0.70013656506632282 0.30029870175293161 0.52894546611500048 0.79133000140429866 0.2082794184507949 0.68456408135056701 0.68607101396845627 0.31096060989957619 0.35848654557803328 0.70013656506632282 0.30029870175293161 0.50000000000001332 0.49999999999999561 0.49999999999999561 0.49983993748706529 0.75039103705932653 0.52967335724801234 0.50000000000001332 0.49999999999999561 0.49999999999999561 0.35848654557803328 0.70013656506632282 0.30029870175293161 0.68456408135056701 0.68607101396845627 0.31096060989957619 0.5004045312576143 0.47050700646456922 0.24963111222780321 0.50000000000001332 0.49999999999999561 0.49999999999999561 0.68456408135056701 0.68607101396845627 0.31096060989957619 0.7504488434426726 0.53051757989633308 0.49836643074154852 0.5004045312576143 0.47050700646456922 0.24963111222780321 0.68456408135056701 0.68607101396845627 0.31096060989957619 0.49983993748706529 0.75039103705932653 0.52967335724801234 0.7504488434426726 0.53051757989633308 0.49836643074154852 0.77374673111774417 0.78860835645735528 0.49829081152968557 0.7504488434426726 0.53051757989633308 0.49836643074154852 0.5004045312576143 0.47050700646456922 0.24963111222780321 0.68456408135056701 0.68607101396845627 0.31096060989957619 0.77713227489941183 0.50036915849493024 0.21774643624003751 0.35848654557803328 0.70013656506632282 0.30029870175293161 0.49983993748706529 0.75039103705932653 0.52967335724801234 0.68456408135056701 0.68607101396845627 0.31096060989957619 0.52894546611500048 0.79133000140429866 0.2082794184507949 0.50000000000001332 0.49999999999999561 0.49999999999999561 0.7504488434426726 0.53051757989633308 0.49836643074154852 0.68456408135056701 0.68607101396845627 0.31096060989957619 0.49983993748706529 0.75039103705932653 0.52967335724801234 0.68456408135056701 0.68607101396845627 0.31096060989957619 0.52894546611500048 0.79133000140429866 0.2082794184507949 0.61068558124908323 1 0.33127740899601937 0.81582077266975173 0.77657922508894406 0.18483084990574741 0.61068558124908323 1 0.33127740899601937 0.49983993748706529 0.75039103705932653 0.52967335724801234 0.68456408135056701 0.68607101396845627 0.31096060989957619 0.77374673111774417 0.78860835645735528 0.49829081152968557 0.61068558124908323 1 0.33127740899601937 0.68240285647621723 1 0.52310058211166854 0.49983993748706529 0.75039103705932653 0.52967335724801234 0.77374673111774417 0.78860835645735528 0.49829081152968557 0.82751535738810444 1 0.31407731390515509 0.68456408135056701 0.68607101396845627 0.31096060989957619 0.61068558124908323 1 0.33127740899601937 0.81582077266975173 0.77657922508894406 0.18483084990574741 0.45820186441796368 1 0.31030302876579191 0.61068558124908323 1 0.33127740899601937 0.49983993748706529 0.75039103705932653 0.52967335724801234 0.52894546611500048 0.79133000140429866 0.2082794184507949 0.61068558124908323 1 0.33127740899601937 0.68456408135056701 0.68607101396845627 0.31096060989957619 0.82751535738810444 1 0.31407731390515509 0.77374673111774417 0.78860835645735528 0.49829081152968557 0.68456408135056701 0.68607101396845627 0.31096060989957619 0.49983993748706529 0.75039103705932653 0.52967335724801234 0.61068558124908323 1 0.33127740899601937 0.52894546611500048 0.79133000140429866 0.2082794184507949 0.61068558124908323 1 0.33127740899601937 0.68240285647621723 1 0.52310058211166854 0.51961524227008238 1 0.49999999999872219 0.49983993748706529 0.75039103705932653 0.52967335724801234 0.51961524227008238 1 0.49999999999872219 0.45820186441796368 1 0.31030302876579191 0.61068558124908323 1 0.33127740899601937 0.49983993748706529 0.75039103705932653 0.52967335724801234 0.68240285647621723 1 0.52310058211166854 0.61068558124908323 1 0.33127740899601937 0.82751535738810444 1 0.31407731390515509 0.77374673111774417 0.78860835645735528 0.49829081152968557 0.51133491425992716 1 0.16370661204795281 0.61068558124908323 1 0.33127740899601937 0.45820186441796368 1 0.31030302876579191 0.52894546611500048 0.79133000140429866 0.2082794184507949 0.51133491425992716 1 0.16370661204795281 0.69988642339594154 1 0.16938214347578889 0.61068558124908323 1 0.33127740899601937 0.52894546611500048 0.79133000140429866 0.2082794184507949 0.69988642339594154 1 0.16938214347578889 0.61068558124908323 1 0.33127740899601937 0.52894546611500048 0.79133000140429866 0.2082794184507949 0.81582077266975173 0.77657922508894406 0.18483084990574741 0.69988642339594154 1 0.16938214347578889 0.52894546611500048 0.79133000140429866 0.2082794184507949 0.7054234997318658 0.80860557108880304 0 0.81582077266975173 0.77657922508894406 0.18483084990574741 0.69988642339594154 1 0.16938214347578889 0.51133491425992716 1 0.16370661204795281 0.50803330197353713 0.83630110503668265 0 0.52894546611500048 0.79133000140429866 0.2082794184507949 0.59944234541082553 0.66416205381394655 0 0.7054234997318658 0.80860557108880304 0 0.52894546611500048 0.79133000140429866 0.2082794184507949 0.81582077266975173 0.77657922508894406 0.18483084990574741 0.60000000000138687 1 0 0.69988642339594154 1 0.16938214347578889 0.51133491425992716 1 0.16370661204795281 0.50803330197353713 0.83630110503668265 0 0.51133491425992716 1 0.16370661204795281 0.40000000000166441 1 0 0.60000000000138687 1 0 0.50803330197353713 0.83630110503668265 0 0.50803330197353713 0.83630110503668265 0 0.59944234541082553 0.66416205381394655 0 0.7054234997318658 0.80860557108880304 0 0.52894546611500048 0.79133000140429866 0.2082794184507949 0.69988642339594154 1 0.16938214347578889 0.50803330197353713 0.83630110503668265 0 0.7054234997318658 0.80860557108880304 0 0.52894546611500048 0.79133000140429866 0.2082794184507949 0.60000000000138687 1 0 0.79999999999999982 1 0 0.69988642339594154 1 0.16938214347578889 0.7054234997318658 0.80860557108880304 0 0.50803330197353713 0.83630110503668265 0 0.60000000000138687 1 0 0.69988642339594154 1 0.16938214347578889 0.7054234997318658 0.80860557108880304 0 0.69988642339594154 1 0.16938214347578889 0.82751535738810444 1 0.31407731390515509 0.61068558124908323 1 0.33127740899601937 0.81582077266975173 0.77657922508894406 0.18483084990574741 0.82751535738810444 1 0.31407731390515509 0.69988642339594154 1 0.16938214347578889 0.85358983848665693 1 0.14641016151322461 0.81582077266975173 0.77657922508894406 0.18483084990574741 0.69988642339594154 1 0.16938214347578889 0.85358983848666903 0.85358983848666903 0 0.85358983848665693 1 0.14641016151322461 0.81582077266975173 0.77657922508894406 0.18483084990574741 0.85358983848665693 1 0.14641016151322461 1 0.85358983848655678 0.14641016151332509 0.82751535738810444 1 0.31407731390515509 0.81582077266975173 0.77657922508894406 0.18483084990574741 0.85358983848666903 0.85358983848666903 0 0.85358983848665693 1 0.14641016151322461 0.79999999999999982 1 0 0.69988642339594154 1 0.16938214347578889 0.69988642339594154 1 0.16938214347578889 0.79999999999999982 1 0 0.85358983848666903 0.85358983848666903 0 0.7054234997318658 0.80860557108880304 0 0.85358983848666903 0.85358983848666903 0 0.7054234997318658 0.80860557108880304 0 0.85173693729186062 0.69992182039541118 0 0.81582077266975173 0.77657922508894406 0.18483084990574741 0.69988642339594154 1 0.16938214347578889 0.7054234997318658 0.80860557108880304 0 0.85358983848666903 0.85358983848666903 0 0.81582077266975173 0.77657922508894406 0.18483084990574741 1 0.85358983848655678 0.14641016151332509 1 0.69449451837101916 0.15896804272136739 1 0.8148028884949543 0.31067093462944562 0.81582077266975173 0.77657922508894406 0.18483084990574741 0.82751535738810444 1 0.31407731390515509 1 0.85358983848655678 0.14641016151332509 1 0.8148028884949543 0.31067093462944562 0.81582077266975173 0.77657922508894406 0.18483084990574741 1 0.85358983848655678 0.14641016151332509 0.85358983848666903 0.85358983848666903 0 1 0.79999999999999982 0 0.81582077266975173 0.77657922508894406 0.18483084990574741 1 0.79999999999999982 0 0.81582077266975173 0.77657922508894406 0.18483084990574741 1 0.69449451837101916 0.15896804272136739 1 0.85358983848655678 0.14641016151332509 0.85358983848666903 0.85358983848666903 0 1 0.85358983848655678 0.14641016151332509 0.85358983848665693 1 0.14641016151322461 0.81582077266975173 0.77657922508894406 0.18483084990574741 0.85358983848666903 0.85358983848666903 0 0.85173693729186062 0.69992182039541118 0 1 0.79999999999999982 0 0.81582077266975173 0.77657922508894406 0.18483084990574741 1 0.85358983848655678 0.14641016151332509 0.85358983848665693 1 0.14641016151322461 1 1 0 0.85358983848666903 0.85358983848666903 0 1 1 0.19999999999955789 0.85358983848665693 1 0.14641016151322461 1 1 0 1 0.85358983848655678 0.14641016151332509 1 1 0 1 0.85358983848655678 0.14641016151332509 0.85358983848666903 0.85358983848666903 0 1 0.79999999999999982 0 0.79999999999999982 1 0 1 1 0 0.85358983848665693 1 0.14641016151322461 0.85358983848666903 0.85358983848666903 0 0.82751535738810444 1 0.31407731390515509 0.85358983848665693 1 0.14641016151322461 1 1 0.19999999999955789 1 0.85358983848655678 0.14641016151332509 1 1 0.19999999999955789 1 0.8148028884949543 0.31067093462944562 0.82751535738810444 1 0.31407731390515509 1 0.85358983848655678 0.14641016151332509 1 1 0.3999999999989749 1 0.8148028884949543 0.31067093462944562 0.82751535738810444 1 0.31407731390515509 1 1 0.19999999999955789 0.82751535738810444 1 0.31407731390515509 0.77374673111774417 0.78860835645735528 0.49829081152968557 0.68456408135056701 0.68607101396845627 0.31096060989957619 0.81582077266975173 0.77657922508894406 0.18483084990574741 1 0.8148028884949543 0.31067093462944562 0.77374673111774417 0.78860835645735528 0.49829081152968557 0.82751535738810444 1 0.31407731390515509 0.81582077266975173 0.77657922508894406 0.18483084990574741 1 0.8148028884949543 0.31067093462944562 0.68456408135056701 0.68607101396845627 0.31096060989957619 0.77374673111774417 0.78860835645735528 0.49829081152968557 0.81582077266975173 0.77657922508894406 0.18483084990574741 1 0.8148028884949543 0.31067093462944562 0.86762395692956074 1 0.5060815484123421 0.82751535738810444 1 0.31407731390515509 0.77374673111774417 0.78860835645735528 0.49829081152968557 0.68240285647621723 1 0.52310058211166854 0.82751535738810444 1 0.31407731390515509 0.86762395692956074 1 0.5060815484123421 0.77374673111774417 0.78860835645735528 0.49829081152968557 0.86762395692956074 1 0.5060815484123421 1 1 0.3999999999989749 1 0.8148028884949543 0.31067093462944562 0.82751535738810444 1 0.31407731390515509 1 1 0.3999999999989749 1 0.83630110503662825 0.50803330197135588 0.86762395692956074 1 0.5060815484123421 1 0.8148028884949543 0.31067093462944562 1 0.8148028884949543 0.31067093462944562 1 0.83630110503662825 0.50803330197135588 0.86762395692956074 1 0.5060815484123421 0.77374673111774417 0.78860835645735528 0.49829081152968557 1 0.8148028884949543 0.31067093462944562 1 0.68975022421527898 0.45812322962078778 1 0.83630110503662825 0.50803330197135588 0.77374673111774417 0.78860835645735528 0.49829081152968557 1 0.39615100178016449 0.32925244736082498 0.7504488434426726 0.53051757989633308 0.49836643074154852 1 0.60020898676431722 0.32446581821274012 0.77713227489941183 0.50036915849493024 0.21774643624003751 1 0.68975022421527898 0.45812322962078778 0.68456408135056701 0.68607101396845627 0.31096060989957619 1 0.60020898676431722 0.32446581821274012 0.7504488434426726 0.53051757989633308 0.49836643074154852 1 0.8148028884949543 0.31067093462944562 0.68456408135056701 0.68607101396845627 0.31096060989957619 1 0.68975022421527898 0.45812322962078778 0.77374673111774417 0.78860835645735528 0.49829081152968557 1 0.68975022421527898 0.45812322962078778 0.68456408135056701 0.68607101396845627 0.31096060989957619 0.7504488434426726 0.53051757989633308 0.49836643074154852 0.77374673111774417 0.78860835645735528 0.49829081152968557 1 0.68975022421527898 0.45812322962078778 1 0.8148028884949543 0.31067093462944562 1 0.60020898676431722 0.32446581821274012 0.68456408135056701 0.68607101396845627 0.31096060989957619 0.68456408135056701 0.68607101396845627 0.31096060989957619 1 0.60020898676431722 0.32446581821274012 0.7504488434426726 0.53051757989633308 0.49836643074154852 0.77713227489941183 0.50036915849493024 0.21774643624003751 1 0.8148028884949543 0.31067093462944562 1 0.60020898676431722 0.32446581821274012 0.68456408135056701 0.68607101396845627 0.31096060989957619 0.81582077266975173 0.77657922508894406 0.18483084990574741 1 0.60020898676431722 0.32446581821274012 0.77713227489941183 0.50036915849493024 0.21774643624003751 0.68456408135056701 0.68607101396845627 0.31096060989957619 0.81582077266975173 0.77657922508894406 0.18483084990574741 1 0.50000000000229983 0.51961524226898759 1 0.68975022421527898 0.45812322962078778 1 0.60020898676431722 0.32446581821274012 0.7504488434426726 0.53051757989633308 0.49836643074154852 1 0.39615100178016449 0.32925244736082498 1 0.50000000000229983 0.51961524226898759 1 0.60020898676431722 0.32446581821274012 0.7504488434426726 0.53051757989633308 0.49836643074154852 0.84191918937744659 0.51186163305076127 0 1 0.49836539647890021 0.17226134197269399 1 0.69449451837101916 0.15896804272136739 0.77713227489941183 0.50036915849493024 0.21774643624003751 1 0.69449451837101916 0.15896804272136739 0.85173693729186062 0.69992182039541118 0 0.77713227489941183 0.50036915849493024 0.21774643624003751 0.81582077266975173 0.77657922508894406 0.18483084990574741 1 0.69449451837101916 0.15896804272136739 0.77713227489941183 0.50036915849493024 0.21774643624003751 1 0.60020898676431722 0.32446581821274012 0.81582077266975173 0.77657922508894406 0.18483084990574741 1 0.69449451837101916 0.15896804272136739 1 0.49836539647890021 0.17226134197269399 1 0.60020898676431722 0.32446581821274012 0.77713227489941183 0.50036915849493024 0.21774643624003751 0.72722573386132172 0.60922248848163563 0 0.77713227489941183 0.50036915849493024 0.21774643624003751 0.85173693729186062 0.69992182039541118 0 0.81582077266975173 0.77657922508894406 0.18483084990574741 0.72722573386132172 0.60922248848163563 0 0.68456408135056701 0.68607101396845627 0.31096060989957619 0.77713227489941183 0.50036915849493024 0.21774643624003751 0.81582077266975173 0.77657922508894406 0.18483084990574741 1 0.8148028884949543 0.31067093462944562 1 0.69449451837101916 0.15896804272136739 1 0.60020898676431722 0.32446581821274012 0.81582077266975173 0.77657922508894406 0.18483084990574741 0.72722573386132172 0.60922248848163563 0 0.67320508075660079 0.46954769941202479 0 0.84191918937744659 0.51186163305076127 0 0.77713227489941183 0.50036915849493024 0.21774643624003751 0.84191918937744659 0.51186163305076127 0 1 0.69449451837101916 0.15896804272136739 0.85173693729186062 0.69992182039541118 0 0.77713227489941183 0.50036915849493024 0.21774643624003751 0.72722573386132172 0.60922248848163563 0 0.84191918937744659 0.51186163305076127 0 0.85173693729186062 0.69992182039541118 0 0.77713227489941183 0.50036915849493024 0.21774643624003751 0.7054234997318658 0.80860557108880304 0 0.72722573386132172 0.60922248848163563 0 0.85173693729186062 0.69992182039541118 0 0.81582077266975173 0.77657922508894406 0.18483084990574741 1 0.69449451837101916 0.15896804272136739 0.85173693729186062 0.69992182039541118 0 1 0.79999999999999982 0 1 0.60000000000138687 0 1 0.69449451837101916 0.15896804272136739 0.81582077266975173 0.77657922508894406 0.18483084990574741 1 0.79999999999999982 0 0.85173693729186062 0.69992182039541118 0 0.84191918937744659 0.51186163305076127 0 0.85173693729186062 0.69992182039541118 0 1 0.69449451837101916 0.15896804272136739 1 0.60000000000138687 0 1 0.60000000000138687 0 1 0.69449451837101916 0.15896804272136739 0.84191918937744659 0.51186163305076127 0 1 0.49836539647890021 0.17226134197269399 1 0.40000000000166441 0 1 0.60000000000138687 0 0.84191918937744659 0.51186163305076127 0 1 0.49836539647890021 0.17226134197269399 0.80839867011859301 0.31807971531731721 0 0.85358983848570813 0.1464101615143738 0 1 0.30074819035868428 0.16929708765640439 0.68777432594363841 0.31447353261427252 0.31366778418247038 0.80839867011859301 0.31807971531731721 0 1 0.40000000000166441 0 0.84191918937744659 0.51186163305076127 0 1 0.49836539647890021 0.17226134197269399 1 0.40000000000166441 0 0.80839867011859301 0.31807971531731721 0 1 0.30074819035868428 0.16929708765640439 1 0.49836539647890021 0.17226134197269399 0.80839867011859301 0.31807971531731721 0 0.68777432594363841 0.31447353261427252 0.31366778418247038 1 0.30074819035868428 0.16929708765640439 0.77713227489941183 0.50036915849493024 0.21774643624003751 0.84191918937744659 0.51186163305076127 0 0.67320508075660079 0.46954769941202479 0 0.80839867011859301 0.31807971531731721 0 0.77713227489941183 0.50036915849493024 0.21774643624003751 0.84191918937744659 0.51186163305076127 0 0.80839867011859301 0.31807971531731721 0 1 0.49836539647890021 0.17226134197269399 0.77713227489941183 0.50036915849493024 0.21774643624003751 0.80839867011859301 0.31807971531731721 0 1 0.30074819035868428 0.16929708765640439 1 0.49836539647890021 0.17226134197269399 0.77713227489941183 0.50036915849493024 0.21774643624003751 1 0.30074819035868428 0.16929708765640439 1 0.39615100178016449 0.32925244736082498 1 0.49836539647890021 0.17226134197269399 0.77713227489941183 0.50036915849493024 0.21774643624003751 1 0.30074819035868428 0.16929708765640439 0.80839867011859301 0.31807971531731721 0 1 0.40000000000166441 0 1 0.20000000000083221 0 1 0.30074819035868428 0.16929708765640439 0.80839867011859301 0.31807971531731721 0 1 0.20000000000083221 0 0.85358983848570813 0.1464101615143738 0 1 0.20000000000083221 0 1 0.14641016151453831 0.14641016151419689 1 0.30074819035868428 0.16929708765640439 0.85358983848570813 0.1464101615143738 0 0.83057691269884504 0 0.30018449338884379 0.85358983848650494 0 0.1464101615132356 0.68592116352011878 0 0.1724872797865501 0.68777432594363841 0.31447353261427252 0.31366778418247038 0.80839867011859301 0.31807971531731721 0 0.69380980079964416 0.1619694349440581 0 0.85358983848570813 0.1464101615143738 0 0.68777432594363841 0.31447353261427252 0.31366778418247038 1 0.18804489794556911 0.3161072616634244 1 0.30074819035868428 0.16929708765640439 1 0.14641016151453831 0.14641016151419689 0.68777432594363841 0.31447353261427252 0.31366778418247038 1 0.14641016151453831 0.14641016151419689 1 0.30074819035868428 0.16929708765640439 0.85358983848570813 0.1464101615143738 0 0.68777432594363841 0.31447353261427252 0.31366778418247038 1 0.14641016151453831 0.14641016151419689 0.85358983848650494 0 0.1464101615132356 0.83057691269884504 0 0.30018449338884379 0.68777432594363841 0.31447353261427252 0.31366778418247038 1 0.14641016151453831 0.14641016151419689 0.85358983848570813 0.1464101615143738 0 0.85358983848650494 0 0.1464101615132356 0.68777432594363841 0.31447353261427252 0.31366778418247038 0.69380980079964416 0.1619694349440581 0 0.85358983848650494 0 0.1464101615132356 0.85358983848570813 0.1464101615143738 0 0.68777432594363841 0.31447353261427252 0.31366778418247038 0.85358983848650494 0 0.1464101615132356 0.83057691269884504 0 0.30018449338884379 1 0 0.19999999999955789 1 0.14641016151453831 0.14641016151419689 0.83057691269884504 0 0.30018449338884379 1 0.18804489794556911 0.3161072616634244 1 0 0.19999999999955789 1 0.14641016151453831 0.14641016151419689 0.85358983848570813 0.1464101615143738 0 1 0 0 0.85358983848650494 0 0.1464101615132356 0.79999999999947335 0 0 0.85358983848650494 0 0.1464101615132356 1 0 0.19999999999955789 1 0 0 1 0.14641016151453831 0.14641016151419689 1 0 0 1 0.14641016151453831 0.14641016151419689 1 0.20000000000083221 0 0.85358983848570813 0.1464101615143738 0 1 0.14641016151453831 0.14641016151419689 1 0 0 0.85358983848650494 0 0.1464101615132356 0.85358983848570813 0.1464101615143738 0 0.68592116352011878 0 0.1724872797865501 0.69380980079964416 0.1619694349440581 0 0.85358983848650494 0 0.1464101615132356 0.79999999999947335 0 0 0.85358983848570813 0.1464101615143738 0 0.85358983848650494 0 0.1464101615132356 0.69380980079964416 0.1619694349440581 0 0.79999999999947335 0 0 0.68592116352011878 0 0.1724872797865501 0.68777432594363841 0.31447353261427252 0.31366778418247038 0.69380980079964416 0.1619694349440581 0 0.5003997205654479 0.21136633249797621 0.2258422409314382 0.68592116352011878 0 0.1724872797865501 0.85358983848650494 0 0.1464101615132356 0.69380980079964416 0.1619694349440581 0 0.68777432594363841 0.31447353261427252 0.31366778418247038 0.69380980079964416 0.1619694349440581 0 0.68592116352011878 0 0.1724872797865501 0.59999999999894682 0 0 0.79999999999947335 0 0 0.49391845158624981 0 0.1323760430705655 0.3999999999989749 0 0 0.50966790549376417 0.16275515618023731 0 0.59999999999894682 0 0 0.50966790549376417 0.16275515618023731 0 0.69380980079964416 0.1619694349440581 0 0.68592116352011878 0 0.1724872797865501 0.59999999999894682 0 0 0.68592116352011878 0 0.1724872797865501 0.49391845158624981 0 0.1323760430705655 0.50966790549376417 0.16275515618023731 0 0.59999999999894682 0 0 0.47688326899416439 0 0.31741132792405607 0.68592116352011878 0 0.1724872797865501 0.49391845158624981 0 0.1323760430705655 0.5003997205654479 0.21136633249797621 0.2258422409314382 0.49391845158624981 0 0.1323760430705655 0.68592116352011878 0 0.1724872797865501 0.50966790549376417 0.16275515618023731 0 0.5003997205654479 0.21136633249797621 0.2258422409314382 0.50966790549376417 0.16275515618023731 0 0.68592116352011878 0 0.1724872797865501 0.69380980079964416 0.1619694349440581 0 0.5003997205654479 0.21136633249797621 0.2258422409314382 0.6104699881764214 0.32043363027358418 0 0.50966790549376417 0.16275515618023731 0 0.69380980079964416 0.1619694349440581 0 0.5003997205654479 0.21136633249797621 0.2258422409314382 0.6104699881764214 0.32043363027358418 0 0.68777432594363841 0.31447353261427252 0.31366778418247038 0.80839867011859301 0.31807971531731721 0 0.77713227489941183 0.50036915849493024 0.21774643624003751 0.6104699881764214 0.32043363027358418 0 0.69380980079964416 0.1619694349440581 0 0.68777432594363841 0.31447353261427252 0.31366778418247038 0.5003997205654479 0.21136633249797621 0.2258422409314382 0.80839867011859301 0.31807971531731721 0 0.6104699881764214 0.32043363027358418 0 0.69380980079964416 0.1619694349440581 0 0.68777432594363841 0.31447353261427252 0.31366778418247038 0.6104699881764214 0.32043363027358418 0 0.45812322962036273 0.31024977578535839 0 0.50966790549376417 0.16275515618023731 0 0.5003997205654479 0.21136633249797621 0.2258422409314382 0.45812322962036273 0.31024977578535839 0 0.6104699881764214 0.32043363027358418 0 0.5004045312576143 0.47050700646456922 0.24963111222780321 0.5003997205654479 0.21136633249797621 0.2258422409314382 0.77713227489941183 0.50036915849493024 0.21774643624003751 0.6104699881764214 0.32043363027358418 0 0.5004045312576143 0.47050700646456922 0.24963111222780321 0.67320508075660079 0.46954769941202479 0 0.68777432594363841 0.31447353261427252 0.31366778418247038 0.5004045312576143 0.47050700646456922 0.24963111222780321 0.6104699881764214 0.32043363027358418 0 0.5003997205654479 0.21136633249797621 0.2258422409314382 0.77713227489941183 0.50036915849493024 0.21774643624003751 0.5004045312576143 0.47050700646456922 0.24963111222780321 0.6104699881764214 0.32043363027358418 0 0.68777432594363841 0.31447353261427252 0.31366778418247038 0.51961524226956368 0.5000000000025091 0 0.6104699881764214 0.32043363027358418 0 0.67320508075660079 0.46954769941202479 0 0.5004045312576143 0.47050700646456922 0.24963111222780321 0.45812322962036273 0.31024977578535839 0 0.6104699881764214 0.32043363027358418 0 0.51961524226956368 0.5000000000025091 0 0.5004045312576143 0.47050700646456922 0.24963111222780321 0.6104699881764214 0.32043363027358418 0 0.80839867011859301 0.31807971531731721 0 0.67320508075660079 0.46954769941202479 0 0.77713227489941183 0.50036915849493024 0.21774643624003751 0.68777432594363841 0.31447353261427252 0.31366778418247038 0.7504488434426726 0.53051757989633308 0.49836643074154852 0.50000000000001332 0.49999999999999561 0.49999999999999561 0.50073570207385831 0.24848280280289631 0.52886631355986169 0.7504488434426726 0.53051757989633308 0.49836643074154852 0.50073570207385831 0.24848280280289631 0.52886631355986169 0.68777432594363841 0.31447353261427252 0.31366778418247038 0.77973766487723961 0.22090161127815711 0.50014622462635805 0.50000000000001332 0.49999999999999561 0.49999999999999561 0.7504488434426726 0.53051757989633308 0.49836643074154852 0.68777432594363841 0.31447353261427252 0.31366778418247038 0.5004045312576143 0.47050700646456922 0.24963111222780321 0.68777432594363841 0.31447353261427252 0.31366778418247038 0.5004045312576143 0.47050700646456922 0.24963111222780321 0.7504488434426726 0.53051757989633308 0.49836643074154852 0.77713227489941183 0.50036915849493024 0.21774643624003751 0.50073570207385831 0.24848280280289631 0.52886631355986169 0.5004045312576143 0.47050700646456922 0.24963111222780321 0.68777432594363841 0.31447353261427252 0.31366778418247038 0.5003997205654479 0.21136633249797621 0.2258422409314382 0.50000000000001332 0.49999999999999561 0.49999999999999561 0.68777432594363841 0.31447353261427252 0.31366778418247038 0.50073570207385831 0.24848280280289631 0.52886631355986169 0.5004045312576143 0.47050700646456922 0.24963111222780321 0.83057691269884504 0 0.30018449338884379 0.68777432594363841 0.31447353261427252 0.31366778418247038 0.66852282575985944 0 0.3853248791658106 0.77973766487723961 0.22090161127815711 0.50014622462635805 0.68592116352011878 0 0.1724872797865501 0.66852282575985944 0 0.3853248791658106 0.83057691269884504 0 0.30018449338884379 0.68777432594363841 0.31447353261427252 0.31366778418247038 0.66852282575985944 0 0.3853248791658106 0.47688326899416439 0 0.31741132792405607 0.50073570207385831 0.24848280280289631 0.52886631355986169 0.5003997205654479 0.21136633249797621 0.2258422409314382 0.68969697123394857 0 0.54179813558228873 0.66852282575985944 0 0.3853248791658106 0.50073570207385831 0.24848280280289631 0.52886631355986169 0.77973766487723961 0.22090161127815711 0.50014622462635805 0.68592116352011878 0 0.1724872797865501 0.66852282575985944 0 0.3853248791658106 0.68777432594363841 0.31447353261427252 0.31366778418247038 0.5003997205654479 0.21136633249797621 0.2258422409314382 0.66852282575985944 0 0.3853248791658106 0.50073570207385831 0.24848280280289631 0.52886631355986169 0.68777432594363841 0.31447353261427252 0.31366778418247038 0.5003997205654479 0.21136633249797621 0.2258422409314382 0.68777432594363841 0.31447353261427252 0.31366778418247038 0.50073570207385831 0.24848280280289631 0.52886631355986169 0.66852282575985944 0 0.3853248791658106 0.77973766487723961 0.22090161127815711 0.50014622462635805 0.68592116352011878 0 0.1724872797865501 0.47688326899416439 0 0.31741132792405607 0.66852282575985944 0 0.3853248791658106 0.5003997205654479 0.21136633249797621 0.2258422409314382 0.50000000000250922 0 0.48038475773043671 0.66852282575985944 0 0.3853248791658106 0.47688326899416439 0 0.31741132792405607 0.50073570207385831 0.24848280280289631 0.52886631355986169 0.50000000000250922 0 0.48038475773043671 0.68969697123394857 0 0.54179813558228873 0.66852282575985944 0 0.3853248791658106 0.50073570207385831 0.24848280280289631 0.52886631355986169 0.66852282575985944 0 0.3853248791658106 0.68969697123394857 0 0.54179813558228873 0.83534964916824084 0 0.4902996892628636 0.77973766487723961 0.22090161127815711 0.50014622462635805 1 0.18804489794556911 0.3161072616634244 0.68777432594363841 0.31447353261427252 0.31366778418247038 0.83057691269884504 0 0.30018449338884379 0.77973766487723961 0.22090161127815711 0.50014622462635805 1 0.18804489794556911 0.3161072616634244 1 0.14641016151453831 0.14641016151419689 0.83057691269884504 0 0.30018449338884379 0.68777432594363841 0.31447353261427252 0.31366778418247038 0.83534964916824084 0 0.4902996892628636 0.83057691269884504 0 0.30018449338884379 0.66852282575985944 0 0.3853248791658106 0.77973766487723961 0.22090161127815711 0.50014622462635805 0.83534964916824084 0 0.4902996892628636 1 0.18804489794556911 0.3161072616634244 0.83057691269884504 0 0.30018449338884379 0.77973766487723961 0.22090161127815711 0.50014622462635805 0.83057691269884504 0 0.30018449338884379 0.83534964916824084 0 0.4902996892628636 1 0 0.3999999999989749 1 0.18804489794556911 0.3161072616634244 0.83534964916824084 0 0.4902996892628636 1 0.162755156180173 0.50966790549372887 1 0 0.59999999999894682 1 0 0.3999999999989749 1 0 0.3999999999989749 0.83534964916824084 0 0.4902996892628636 1 0.162755156180173 0.50966790549372887 1 0.18804489794556911 0.3161072616634244 1 0.18804489794556911 0.3161072616634244 1 0 0.3999999999989749 0.83057691269884504 0 0.30018449338884379 1 0 0.19999999999955789 1 0.31024977578542368 0.45812322962028301 1 0.18804489794556911 0.3161072616634244 1 0.162755156180173 0.50966790549372887 0.77973766487723961 0.22090161127815711 0.50014622462635805 0.83534964916824084 0 0.4902996892628636 1 0.162755156180173 0.50966790549372887 1 0.18804489794556911 0.3161072616634244 0.77973766487723961 0.22090161127815711 0.50014622462635805 1 0.39615100178016449 0.32925244736082498 0.68777432594363841 0.31447353261427252 0.31366778418247038 0.7504488434426726 0.53051757989633308 0.49836643074154852 0.77713227489941183 0.50036915849493024 0.21774643624003751 1 0.39615100178016449 0.32925244736082498 1 0.18804489794556911 0.3161072616634244 1 0.31024977578542368 0.45812322962028301 0.68777432594363841 0.31447353261427252 0.31366778418247038 1 0.31024977578542368 0.45812322962028301 0.7504488434426726 0.53051757989633308 0.49836643074154852 0.68777432594363841 0.31447353261427252 0.31366778418247038 0.77973766487723961 0.22090161127815711 0.50014622462635805 1 0.30074819035868428 0.16929708765640439 1 0.18804489794556911 0.3161072616634244 1 0.39615100178016449 0.32925244736082498 0.68777432594363841 0.31447353261427252 0.31366778418247038 1 0.31024977578542368 0.45812322962028301 0.68777432594363841 0.31447353261427252 0.31366778418247038 1 0.18804489794556911 0.3161072616634244 0.77973766487723961 0.22090161127815711 0.50014622462635805 1 0.30074819035868428 0.16929708765640439 0.68777432594363841 0.31447353261427252 0.31366778418247038 1 0.39615100178016449 0.32925244736082498 0.77713227489941183 0.50036915849493024 0.21774643624003751 1 0.39615100178016449 0.32925244736082498 0.68777432594363841 0.31447353261427252 0.31366778418247038 1 0.31024977578542368 0.45812322962028301 0.7504488434426726 0.53051757989633308 0.49836643074154852 1 0.60020898676431722 0.32446581821274012 1 0.49836539647890021 0.17226134197269399 1 0.39615100178016449 0.32925244736082498 0.77713227489941183 0.50036915849493024 0.21774643624003751 1 0.39615100178016449 0.32925244736082498 1 0.31024977578542368 0.45812322962028301 1 0.50000000000229983 0.51961524226898759 0.7504488434426726 0.53051757989633308 0.49836643074154852 1 0.33579115324550912 0.59952339316293046 0.7504488434426726 0.53051757989633308 0.49836643074154852 0.68742751001967084 0.31250796680084852 0.687427510020161 0.78019141325921404 0.49972466465542442 0.78019141325930785 1 0.33579115324550912 0.59952339316293046 1 0.39076805646076263 0.7272421105028648 0.68742751001967084 0.31250796680084852 0.687427510020161 0.81599560342209843 0.22280203704001911 0.81599560342233202 1 0.33579115324550912 0.59952339316293046 1 0.53045230059030524 0.6732050807565132 1 0.50000000000229983 0.51961524226898759 0.7504488434426726 0.53051757989633308 0.49836643074154852 1 0.33579115324550912 0.59952339316293046 0.7504488434426726 0.53051757989633308 0.49836643074154852 1 0.31024977578542368 0.45812322962028301 0.77973766487723961 0.22090161127815711 0.50014622462635805 0.68742751001967084 0.31250796680084852 0.687427510020161 0.77973766487723961 0.22090161127815711 0.50014622462635805 1 0.33579115324550912 0.59952339316293046 0.81599560342209843 0.22280203704001911 0.81599560342233202 1 0.33579115324550912 0.59952339316293046 0.68742751001967084 0.31250796680084852 0.687427510020161 0.7504488434426726 0.53051757989633308 0.49836643074154852 0.77973766487723961 0.22090161127815711 0.50014622462635805 1 0.53045230059030524 0.6732050807565132 0.7504488434426726 0.53051757989633308 0.49836643074154852 1 0.33579115324550912 0.59952339316293046 0.78019141325921404 0.49972466465542442 0.78019141325930785 1 0.39076805646076263 0.7272421105028648 1 0.33579115324550912 0.59952339316293046 0.68742751001967084 0.31250796680084852 0.687427510020161 0.78019141325921404 0.49972466465542442 0.78019141325930785 1 0.33579115324550912 0.59952339316293046 1 0.50000000000229983 0.51961524226898759 1 0.31024977578542368 0.45812322962028301 0.7504488434426726 0.53051757989633308 0.49836643074154852 1 0.39076805646076263 0.7272421105028648 1 0.53045230059030524 0.6732050807565132 1 0.33579115324550912 0.59952339316293046 0.78019141325921404 0.49972466465542442 0.78019141325930785 1 0.33579115324550912 0.59952339316293046 1 0.1912596090855686 0.70565701451953711 1 0.39076805646076263 0.7272421105028648 0.81599560342209843 0.22280203704001911 0.81599560342233202 1 0.33579115324550912 0.59952339316293046 1 0.31024977578542368 0.45812322962028301 1 0.162755156180173 0.50966790549372887 0.77973766487723961 0.22090161127815711 0.50014622462635805 1 0.162755156180173 0.50966790549372887 0.81469961246449951 0 0.68914937826112133 1 0.1912596090855686 0.70565701451953711 0.77973766487723961 0.22090161127815711 0.50014622462635805 0.81469961246449951 0 0.68914937826112133 0.77973766487723961 0.22090161127815711 0.50014622462635805 0.68742751001967084 0.31250796680084852 0.687427510020161 0.81599560342209843 0.22280203704001911 0.81599560342233202 0.81469961246449951 0 0.68914937826112133 1 0.1912596090855686 0.70565701451953711 0.77973766487723961 0.22090161127815711 0.50014622462635805 0.81599560342209843 0.22280203704001911 0.81599560342233202 1 0.1912596090855686 0.70565701451953711 1 0.33579115324550912 0.59952339316293046 0.77973766487723961 0.22090161127815711 0.50014622462635805 0.81599560342209843 0.22280203704001911 0.81599560342233202 1 0.162755156180173 0.50966790549372887 1 0.1912596090855686 0.70565701451953711 1 0.33579115324550912 0.59952339316293046 0.77973766487723961 0.22090161127815711 0.50014622462635805 1 0.1912596090855686 0.70565701451953711 0.81469961246449951 0 0.68914937826112133 1 0 0.59999999999894682 1 0 0.79999999999947335 0.81469961246449951 0 0.68914937826112133 1 0 0.59999999999894682 1 0.162755156180173 0.50966790549372887 1 0.1912596090855686 0.70565701451953711 1 0.162755156180173 0.50966790549372887 1 0 0.59999999999894682 0.81469961246449951 0 0.68914937826112133 0.83534964916824084 0 0.4902996892628636 0.81469961246449951 0 0.68914937826112133 0.83534964916824084 0 0.4902996892628636 0.68969697123394857 0 0.54179813558228873 0.77973766487723961 0.22090161127815711 0.50014622462635805 0.81469961246449951 0 0.68914937826112133 1 0.162755156180173 0.50966790549372887 0.83534964916824084 0 0.4902996892628636 0.77973766487723961 0.22090161127815711 0.50014622462635805 0.68969697123394857 0 0.54179813558228873 0.6002015905170176 0 0.67551889168744117 0.68742751001967084 0.31250796680084852 0.687427510020161 0.50073570207385831 0.24848280280289631 0.52886631355986169 0.6002015905170176 0 0.67551889168744117 0.81469961246449951 0 0.68914937826112133 0.68969697123394857 0 0.54179813558228873 0.68742751001967084 0.31250796680084852 0.687427510020161 0.81469961246449951 0 0.68914937826112133 0.68969697123394857 0 0.54179813558228873 0.68742751001967084 0.31250796680084852 0.687427510020161 0.77973766487723961 0.22090161127815711 0.50014622462635805 0.69447607299129699 0 0.84099946107689361 0.68742751001967084 0.31250796680084852 0.687427510020161 0.6002015905170176 0 0.67551889168744117 0.50084626324420545 0.22238844715913 0.78084811589659187 0.68742751001967084 0.31250796680084852 0.687427510020161 0.68969697123394857 0 0.54179813558228873 0.50073570207385831 0.24848280280289631 0.52886631355986169 0.77973766487723961 0.22090161127815711 0.50014622462635805 0.68742751001967084 0.31250796680084852 0.687427510020161 0.50073570207385831 0.24848280280289631 0.52886631355986169 0.6002015905170176 0 0.67551889168744117 0.50084626324420545 0.22238844715913 0.78084811589659187 0.6002015905170176 0 0.67551889168744117 0.81469961246449951 0 0.68914937826112133 0.68742751001967084 0.31250796680084852 0.687427510020161 0.81599560342209843 0.22280203704001911 0.81599560342233202 0.68969697123394857 0 0.54179813558228873 0.50000000000250922 0 0.48038475773043671 0.6002015905170176 0 0.67551889168744117 0.50073570207385831 0.24848280280289631 0.52886631355986169 0.50000000000001332 0.49999999999999561 0.49999999999999561 0.68742751001967084 0.31250796680084852 0.687427510020161 0.49816183246753282 0.5307146639261795 0.75045686993209071 0.50073570207385831 0.24848280280289631 0.52886631355986169 0.68742751001967084 0.31250796680084852 0.687427510020161 0.50000000000001332 0.49999999999999561 0.49999999999999561 0.7504488434426726 0.53051757989633308 0.49836643074154852 0.50073570207385831 0.24848280280289631 0.52886631355986169 0.68742751001967084 0.31250796680084852 0.687427510020161 0.7504488434426726 0.53051757989633308 0.49836643074154852 0.50000000000001332 0.49999999999999561 0.49999999999999561 0.49816183246753282 0.5307146639261795 0.75045686993209071 0.7504488434426726 0.53051757989633308 0.49836643074154852 0.49816183246753282 0.5307146639261795 0.75045686993209071 0.68742751001967084 0.31250796680084852 0.687427510020161 0.78019141325921404 0.49972466465542442 0.78019141325930785 0.49816183246753282 0.5307146639261795 0.75045686993209071 0.50073570207385831 0.24848280280289631 0.52886631355986169 0.68742751001967084 0.31250796680084852 0.687427510020161 0.50084626324420545 0.22238844715913 0.78084811589659187 0.68742751001967084 0.31250796680084852 0.687427510020161 0.50073570207385831 0.24848280280289631 0.52886631355986169 0.7504488434426726 0.53051757989633308 0.49836643074154852 0.77973766487723961 0.22090161127815711 0.50014622462635805 0.45812322962173568 0.31024977578554058 1 0.49816183246753282 0.5307146639261795 0.75045686993209071 0.59952339316492498 0.33579115324593939 1 0.50084626324420545 0.22238844715913 0.78084811589659187 0.59952339316492498 0.33579115324593939 1 0.68742751001967084 0.31250796680084852 0.687427510020161 0.72724211050425436 0.39076805646176382 1 0.81599560342209843 0.22280203704001911 0.81599560342233202 0.59952339316492498 0.33579115324593939 1 0.68742751001967084 0.31250796680084852 0.687427510020161 0.49816183246753282 0.5307146639261795 0.75045686993209071 0.78019141325921404 0.49972466465542442 0.78019141325930785 0.59952339316492498 0.33579115324593939 1 0.50084626324420545 0.22238844715913 0.78084811589659187 0.68742751001967084 0.31250796680084852 0.687427510020161 0.81599560342209843 0.22280203704001911 0.81599560342233202 0.59952339316492498 0.33579115324593939 1 0.49816183246753282 0.5307146639261795 0.75045686993209071 0.68742751001967084 0.31250796680084852 0.687427510020161 0.50084626324420545 0.22238844715913 0.78084811589659187 0.59952339316492498 0.33579115324593939 1 0.72724211050425436 0.39076805646176382 1 0.68742751001967084 0.31250796680084852 0.687427510020161 0.78019141325921404 0.49972466465542442 0.78019141325930785 0.59952339316492498 0.33579115324593939 1 0.49816183246753282 0.5307146639261795 0.75045686993209071 0.67320508075671459 0.53045230059073867 1 0.78019141325921404 0.49972466465542442 0.78019141325930785 0.70565701452089868 0.1912596090858541 1 0.59952339316492498 0.33579115324593939 1 0.72724211050425436 0.39076805646176382 1 0.81599560342209843 0.22280203704001911 0.81599560342233202 0.59952339316492498 0.33579115324593939 1 0.67320508075671459 0.53045230059073867 1 0.72724211050425436 0.39076805646176382 1 0.78019141325921404 0.49972466465542442 0.78019141325930785 0.45812322962173568 0.31024977578554058 1 0.51961524226934941 0.50000000000250611 1 0.59952339316492498 0.33579115324593939 1 0.49816183246753282 0.5307146639261795 0.75045686993209071 0.67320508075671459 0.53045230059073867 1 0.59952339316492498 0.33579115324593939 1 0.51961524226934941 0.50000000000250611 1 0.49816183246753282 0.5307146639261795 0.75045686993209071 0.59952339316492498 0.33579115324593939 1 0.50966790549576724 0.1627551561802443 1 0.45812322962173568 0.31024977578554058 1 0.50084626324420545 0.22238844715913 0.78084811589659187 0.50966790549576724 0.1627551561802443 1 0.70565701452089868 0.1912596090858541 1 0.69447607299129699 0 0.84099946107689361 0.50084626324420545 0.22238844715913 0.78084811589659187 0.68742751001967084 0.31250796680084852 0.687427510020161 0.50084626324420545 0.22238844715913 0.78084811589659187 0.69447607299129699 0 0.84099946107689361 0.81599560342209843 0.22280203704001911 0.81599560342233202 0.70565701452089868 0.1912596090858541 1 0.69447607299129699 0 0.84099946107689361 0.50084626324420545 0.22238844715913 0.78084811589659187 0.81599560342209843 0.22280203704001911 0.81599560342233202 0.70565701452089868 0.1912596090858541 1 0.50084626324420545 0.22238844715913 0.78084811589659187 0.59952339316492498 0.33579115324593939 1 0.81599560342209843 0.22280203704001911 0.81599560342233202 0.70565701452089868 0.1912596090858541 1 0.50966790549576724 0.1627551561802443 1 0.59952339316492498 0.33579115324593939 1 0.50084626324420545 0.22238844715913 0.78084811589659187 0.6002015905170176 0 0.67551889168744117 0.68742751001967084 0.31250796680084852 0.687427510020161 0.69447607299129699 0 0.84099946107689361 0.81599560342209843 0.22280203704001911 0.81599560342233202 0.69447607299129699 0 0.84099946107689361 0.6002015905170176 0 0.67551889168744117 0.49836539647917322 0 0.82773865802723501 0.50084626324420545 0.22238844715913 0.78084811589659187 0.69447607299129699 0 0.84099946107689361 0.49836539647917322 0 0.82773865802723501 0.50966790549576724 0.1627551561802443 1 0.50084626324420545 0.22238844715913 0.78084811589659187 0.60000000000138687 0 1 0.49836539647917322 0 0.82773865802723501 0.50966790549576724 0.1627551561802443 1 0.69447607299129699 0 0.84099946107689361 0.50966790549576724 0.1627551561802443 1 0.40000000000166441 0 1 0.49836539647917322 0 0.82773865802723501 0.60000000000138687 0 1 0.50966790549576724 0.1627551561802443 1 0.70565701452089868 0.1912596090858541 1 0.60000000000138687 0 1 0.69447607299129699 0 0.84099946107689361 0.70565701452089868 0.1912596090858541 1 0.60000000000138687 0 1 0.69447607299129699 0 0.84099946107689361 0.79999999999999982 0 1 0.6002015905170176 0 0.67551889168744117 0.69447607299129699 0 0.84099946107689361 0.81469961246449951 0 0.68914937826112133 0.81599560342209843 0.22280203704001911 0.81599560342233202 0.70565701452089868 0.1912596090858541 1 0.85358983848646974 0.14641016151341191 1 0.69447607299129699 0 0.84099946107689361 0.81599560342209843 0.22280203704001911 0.81599560342233202 0.85358983848646974 0.14641016151341191 1 0.70565701452089868 0.1912596090858541 1 0.85173693729199718 0.30007817960516198 1 0.81599560342209843 0.22280203704001911 0.81599560342233202 1 0.1912596090855686 0.70565701451953711 0.81469961246449951 0 0.68914937826112133 0.85358983848570524 0 0.85358983848556425 0.81599560342209843 0.22280203704001911 0.81599560342233202 0.69447607299129699 0 0.84099946107689361 0.85358983848570524 0 0.85358983848556425 0.81469961246449951 0 0.68914937826112133 0.81599560342209843 0.22280203704001911 0.81599560342233202 0.85358983848570524 0 0.85358983848556425 0.69447607299129699 0 0.84099946107689361 0.85358983848646974 0.14641016151341191 1 0.81599560342209843 0.22280203704001911 0.81599560342233202 0.79999999999999982 0 1 0.69447607299129699 0 0.84099946107689361 0.70565701452089868 0.1912596090858541 1 0.85358983848646974 0.14641016151341191 1 0.79999999999999982 0 1 0.85358983848570524 0 0.85358983848556425 0.69447607299129699 0 0.84099946107689361 0.85358983848646974 0.14641016151341191 1 1 0 1 1 0.14641016151333891 0.85358983848640169 0.85358983848570524 0 0.85358983848556425 0.85358983848646974 0.14641016151341191 1 0.79999999999999982 0 1 1 0 1 0.85358983848570524 0 0.85358983848556425 0.85358983848646974 0.14641016151341191 1 0.85358983848646974 0.14641016151341191 1 1 0 1 1 0.14641016151333891 0.85358983848640169 1 0.19999999999955789 1 0.85358983848570524 0 0.85358983848556425 1 0.14641016151333891 0.85358983848640169 1 0 1 1 0 0.79999999999947335 0.85358983848570524 0 0.85358983848556425 0.81469961246449951 0 0.68914937826112133 1 0.1912596090855686 0.70565701451953711 1 0 0.79999999999947335 1 0.1912596090855686 0.70565701451953711 1 0.14641016151333891 0.85358983848640169 0.85358983848570524 0 0.85358983848556425 1 0 0.79999999999947335 1 0.14641016151333891 0.85358983848640169 1 0.30007817960499339 0.85173693729139244 1 0.1912596090855686 0.70565701451953711 0.81599560342209843 0.22280203704001911 0.81599560342233202 1 0.1912596090855686 0.70565701451953711 0.85358983848570524 0 0.85358983848556425 1 0.14641016151333891 0.85358983848640169 0.81599560342209843 0.22280203704001911 0.81599560342233202 0.85358983848646974 0.14641016151341191 1 0.85173693729199718 0.30007817960516198 1 1 0.19999999999955789 1 0.81599560342209843 0.22280203704001911 0.81599560342233202 1 0.14641016151333891 0.85358983848640169 0.85358983848646974 0.14641016151341191 1 1 0.19999999999955789 1 0.81599560342209843 0.22280203704001911 0.81599560342233202 1 0.14641016151333891 0.85358983848640169 1 0.19999999999955789 1 1 0.30007817960499339 0.85173693729139244 0.81599560342209843 0.22280203704001911 0.81599560342233202 0.85358983848570524 0 0.85358983848556425 0.85358983848646974 0.14641016151341191 1 1 0.14641016151333891 0.85358983848640169 0.81599560342209843 0.22280203704001911 0.81599560342233202 1 0.19999999999955789 1 1 0.30007817960499339 0.85173693729139244 0.85173693729199718 0.30007817960516198 1 1 0.3999999999989749 1 1 0.19999999999955789 1 0.85173693729199718 0.30007817960516198 1 1 0.30007817960499339 0.85173693729139244 0.81599560342209843 0.22280203704001911 0.81599560342233202 1 0.30007817960499339 0.85173693729139244 0.85173693729199718 0.30007817960516198 1 0.78019141325921404 0.49972466465542442 0.78019141325930785 0.81599560342209843 0.22280203704001911 0.81599560342233202 0.68742751001967084 0.31250796680084852 0.687427510020161 0.78019141325921404 0.49972466465542442 0.78019141325930785 0.72724211050425436 0.39076805646176382 1 0.81599560342209843 0.22280203704001911 0.81599560342233202 1 0.39076805646076263 0.7272421105028648 1 0.30007817960499339 0.85173693729139244 0.78019141325921404 0.49972466465542442 0.78019141325930785 0.81599560342209843 0.22280203704001911 0.81599560342233202 0.85173693729199718 0.30007817960516198 1 0.72724211050425436 0.39076805646176382 1 0.78019141325921404 0.49972466465542442 0.78019141325930785 0.81599560342209843 0.22280203704001911 0.81599560342233202 1 0.39076805646076263 0.7272421105028648 0.78019141325921404 0.49972466465542442 0.78019141325930785 0.68742751001967084 0.31250796680084852 0.687427510020161 0.81599560342209843 0.22280203704001911 0.81599560342233202 0.85173693729199718 0.30007817960516198 1 1 0.30007817960499339 0.85173693729139244 1 0.48813836695007229 0.84191918937727617 1 0.3999999999989749 1 0.72724211050425436 0.39076805646176382 1 0.85173693729199718 0.30007817960516198 1 0.70565701452089868 0.1912596090858541 1 0.81599560342209843 0.22280203704001911 0.81599560342233202 1 0.1912596090855686 0.70565701451953711 1 0.30007817960499339 0.85173693729139244 1 0.39076805646076263 0.7272421105028648 0.81599560342209843 0.22280203704001911 0.81599560342233202 0.85173693729199718 0.30007817960516198 1 1 0.48813836695007229 0.84191918937727617 1 0.30007817960499339 0.85173693729139244 0.78019141325921404 0.49972466465542442 0.78019141325930785 1 0.30007817960499339 0.85173693729139244 1 0.48813836695007229 0.84191918937727617 1 0.39076805646076263 0.7272421105028648 0.78019141325921404 0.49972466465542442 0.78019141325930785 1 0.39076805646076263 0.7272421105028648 1 0.48813836695007229 0.84191918937727617 1 0.53045230059030524 0.6732050807565132 0.78019141325921404 0.49972466465542442 0.78019141325930785 0.72724211050425436 0.39076805646176382 1 0.67320508075671459 0.53045230059073867 1 0.84191918937756771 0.48813836695034618 1 0.78019141325921404 0.49972466465542442 0.78019141325930785 0.84191918937756771 0.48813836695034618 1 0.85173693729199718 0.30007817960516198 1 0.72724211050425436 0.39076805646176382 1 0.78019141325921404 0.49972466465542442 0.78019141325930785 0.84191918937756771 0.48813836695034618 1 1 0.48813836695007229 0.84191918937727617 0.85173693729199718 0.30007817960516198 1 0.78019141325921404 0.49972466465542442 0.78019141325930785 1 0.3999999999989749 1 1 0.48813836695007229 0.84191918937727617 0.84191918937756771 0.48813836695034618 1 1 0.59999999999894682 1 1 0.48813836695007229 0.84191918937727617 0.84191918937756771 0.48813836695034618 1 0.85173693729199718 0.30007817960516198 1 1 0.3999999999989749 1 0.80839867011861499 0.68192028468377774 1 0.78019141325921404 0.49972466465542442 0.78019141325930785 0.68649174659499257 0.68600703198516766 0.6864917465949647 0.77683220420328725 0.81278569633583353 0.81664766512111064 0.80839867011861499 0.68192028468377774 1 1 0.68192028468364885 0.80839867011854549 0.78019141325921404 0.49972466465542442 0.78019141325930785 0.77683220420328725 0.81278569633583353 0.81664766512111064 1 0.59999999999894682 1 1 0.48813836695007229 0.84191918937727617 0.84191918937756771 0.48813836695034618 1 1 0.68192028468364885 0.80839867011854549 0.68649174659499257 0.68600703198516766 0.6864917465949647 0.78019141325921404 0.49972466465542442 0.78019141325930785 1 0.68192028468364885 0.80839867011854549 0.77683220420328725 0.81278569633583353 0.81664766512111064 0.84191918937756771 0.48813836695034618 1 1 0.59999999999894682 1 1 0.68192028468364885 0.80839867011854549 0.80839867011861499 0.68192028468377774 1 1 0.59999999999894682 1 1 0.68192028468364885 0.80839867011854549 0.80839867011861499 0.68192028468377774 1 1 0.79999999999947335 1 0.84191918937756771 0.48813836695034618 1 0.67320508075671459 0.53045230059073867 1 0.80839867011861499 0.68192028468377774 1 0.78019141325921404 0.49972466465542442 0.78019141325930785 0.84191918937756771 0.48813836695034618 1 0.80839867011861499 0.68192028468377774 1 1 0.68192028468364885 0.80839867011854549 0.78019141325921404 0.49972466465542442 0.78019141325930785 1 0.68192028468364885 0.80839867011854549 1 0.53045230059030524 0.6732050807565132 1 0.48813836695007229 0.84191918937727617 0.78019141325921404 0.49972466465542442 0.78019141325930785 1 0.68192028468364885 0.80839867011854549 1 0.48813836695007229 0.84191918937727617 0.84191918937756771 0.48813836695034618 1 0.78019141325921404 0.49972466465542442 0.78019141325930785 1 0.67939035495490308 0.61016512164639347 0.78019141325921404 0.49972466465542442 0.78019141325930785 0.7504488434426726 0.53051757989633308 0.49836643074154852 1 0.53045230059030524 0.6732050807565132 1 0.67939035495490308 0.61016512164639347 0.7504488434426726 0.53051757989633308 0.49836643074154852 0.68649174659499257 0.68600703198516766 0.6864917465949647 0.77374673111774417 0.78860835645735528 0.49829081152968557 1 0.67939035495490308 0.61016512164639347 0.68649174659499257 0.68600703198516766 0.6864917465949647 1 0.83791821520125753 0.69361520514217179 0.77374673111774417 0.78860835645735528 0.49829081152968557 1 0.68192028468364885 0.80839867011854549 1 0.67939035495490308 0.61016512164639347 0.68649174659499257 0.68600703198516766 0.6864917465949647 0.77683220420328725 0.81278569633583353 0.81664766512111064 1 0.67939035495490308 0.61016512164639347 1 0.68975022421527898 0.45812322962078778 0.7504488434426726 0.53051757989633308 0.49836643074154852 0.77374673111774417 0.78860835645735528 0.49829081152968557 0.7504488434426726 0.53051757989633308 0.49836643074154852 0.78019141325921404 0.49972466465542442 0.78019141325930785 1 0.67939035495490308 0.61016512164639347 0.68649174659499257 0.68600703198516766 0.6864917465949647 1 0.68192028468364885 0.80839867011854549 0.68649174659499257 0.68600703198516766 0.6864917465949647 1 0.67939035495490308 0.61016512164639347 0.78019141325921404 0.49972466465542442 0.78019141325930785 1 0.53045230059030524 0.6732050807565132 1 0.68192028468364885 0.80839867011854549 1 0.67939035495490308 0.61016512164639347 0.78019141325921404 0.49972466465542442 0.78019141325930785 1 0.67939035495490308 0.61016512164639347 1 0.50000000000229983 0.51961524226898759 1 0.53045230059030524 0.6732050807565132 0.7504488434426726 0.53051757989633308 0.49836643074154852 1 0.67939035495490308 0.61016512164639347 1 0.68975022421527898 0.45812322962078778 1 0.50000000000229983 0.51961524226898759 0.7504488434426726 0.53051757989633308 0.49836643074154852 1 0.67939035495490308 0.61016512164639347 1 0.83630110503662825 0.50803330197135588 1 0.68975022421527898 0.45812322962078778 0.77374673111774417 0.78860835645735528 0.49829081152968557 1 0.83791821520125753 0.69361520514217179 0.77374673111774417 0.78860835645735528 0.49829081152968557 0.68649174659499257 0.68600703198516766 0.6864917465949647 0.77683220420328725 0.81278569633583353 0.81664766512111064 0.68649174659499257 0.68600703198516766 0.6864917465949647 0.77374673111774417 0.78860835645735528 0.49829081152968557 0.81346205468287114 1 0.68420958956387889 0.77683220420328725 0.81278569633583353 0.81664766512111064 1 0.83791821520125753 0.69361520514217179 0.68649174659499257 0.68600703198516766 0.6864917465949647 1 0.67939035495490308 0.61016512164639347 0.77683220420328725 0.81278569633583353 0.81664766512111064 1 0.68192028468364885 0.80839867011854549 1 0.83791821520125753 0.69361520514217179 1 0.67939035495490308 0.61016512164639347 0.77683220420328725 0.81278569633583353 0.81664766512111064 1 0.83791821520125753 0.69361520514217179 0.81346205468287114 1 0.68420958956387889 0.77374673111774417 0.78860835645735528 0.49829081152968557 0.77683220420328725 0.81278569633583353 0.81664766512111064 1 0.83630110503662825 0.50803330197135588 1 0.67939035495490308 0.61016512164639347 1 0.83791821520125753 0.69361520514217179 0.77374673111774417 0.78860835645735528 0.49829081152968557 1 0.83791821520125753 0.69361520514217179 0.86762395692956074 1 0.5060815484123421 1 0.83630110503662825 0.50803330197135588 0.77374673111774417 0.78860835645735528 0.49829081152968557 1 1 0.59999999999894682 1 0.83630110503662825 0.50803330197135588 1 0.83791821520125753 0.69361520514217179 0.86762395692956074 1 0.5060815484123421 0.86762395692956074 1 0.5060815484123421 1 1 0.59999999999894682 1 0.83630110503662825 0.50803330197135588 1 1 0.3999999999989749 1 0.83791821520125753 0.69361520514217179 0.81346205468287114 1 0.68420958956387889 1 1 0.59999999999894682 0.86762395692956074 1 0.5060815484123421 0.86762395692956074 1 0.5060815484123421 0.81346205468287114 1 0.68420958956387889 0.68240285647621723 1 0.52310058211166854 0.77374673111774417 0.78860835645735528 0.49829081152968557 0.81346205468287114 1 0.68420958956387889 0.86762395692956074 1 0.5060815484123421 1 0.83791821520125753 0.69361520514217179 0.77374673111774417 0.78860835645735528 0.49829081152968557 1 0.83791821520125753 0.69361520514217179 0.81346205468287114 1 0.68420958956387889 1 1 0.79999999999947335 1 1 0.59999999999894682 1 1 0.79999999999947335 0.85358983848569092 1 0.85358983848569092 0.81346205468287114 1 0.68420958956387889 1 0.83791821520125753 0.69361520514217179 0.85358983848569092 1 0.85358983848569092 1 0.83791821520125753 0.69361520514217179 1 0.85358983848587056 0.85358983848587056 0.77683220420328725 0.81278569633583353 0.81664766512111064 0.85358983848569092 1 0.85358983848569092 1 1 0.79999999999947335 1 0.85358983848587056 0.85358983848587056 1 0.83791821520125753 0.69361520514217179 0.85358983848587056 0.85358983848587056 1 1 1 1 1 0.79999999999947335 1 1 0.85358983848587056 0.85358983848587056 0.85358983848587056 0.85358983848587056 1 0.79999999999947335 1 1 1 1 1 0.85358983848569092 1 0.85358983848569092 1 1 0.79999999999947335 1 0.85358983848587056 0.85358983848587056 1 1 1 0.85358983848569092 1 0.85358983848569092 1 0.85358983848587056 0.85358983848587056 0.85358983848587056 0.85358983848587056 1 1 1 1 0.85358983848569092 1 0.85358983848569092 0.85358983848587056 0.85358983848587056 1 1 0.79999999999947335 1 1 0.68192028468364885 0.80839867011854549 1 0.85358983848587056 0.85358983848587056 1 0.79999999999947335 1 1 0.68192028468364885 0.80839867011854549 0.80839867011861499 0.68192028468377774 1 0.85358983848587056 0.85358983848587056 1 0.85358983848587056 0.85358983848587056 1 1 0.85358983848587056 0.85358983848587056 1 0.68192028468364885 0.80839867011854549 0.77683220420328725 0.81278569633583353 0.81664766512111064 1 0.68192028468364885 0.80839867011854549 1 0.85358983848587056 0.85358983848587056 1 0.83791821520125753 0.69361520514217179 0.77683220420328725 0.81278569633583353 0.81664766512111064 0.69361520514218133 0.83791821520130205 1 0.85358983848587056 0.85358983848587056 1 0.80839867011861499 0.68192028468377774 1 0.77683220420328725 0.81278569633583353 0.81664766512111064 0.80839867011861499 0.68192028468377774 1 0.85358983848587056 0.85358983848587056 1 1 0.68192028468364885 0.80839867011854549 0.77683220420328725 0.81278569633583353 0.81664766512111064 0.85358983848587056 0.85358983848587056 1 0.79999999999947335 1 1 0.85358983848569092 1 0.85358983848569092 0.77683220420328725 0.81278569633583353 0.81664766512111064 0.69981550660938663 1 0.83057691269844081 0.85358983848569092 1 0.85358983848569092 0.79999999999947335 1 1 0.77683220420328725 0.81278569633583353 0.81664766512111064 0.85358983848587056 0.85358983848587056 1 0.69361520514218133 0.83791821520130205 1 0.79999999999947335 1 1 0.77683220420328725 0.81278569633583353 0.81664766512111064 1 0.85358983848587056 0.85358983848587056 0.85358983848587056 0.85358983848587056 1 0.85358983848569092 1 0.85358983848569092 0.77683220420328725 0.81278569633583353 0.81664766512111064 0.85358983848569092 1 0.85358983848569092 0.69981550660938663 1 0.83057691269844081 0.81346205468287114 1 0.68420958956387889 0.77683220420328725 0.81278569633583353 0.81664766512111064 0.81346205468287114 1 0.68420958956387889 1 0.83791821520125753 0.69361520514217179 0.85358983848569092 1 0.85358983848569092 0.77683220420328725 0.81278569633583353 0.81664766512111064 0.69361520514218133 0.83791821520130205 1 0.49911199724958061 0.77872228561593948 0.77895350115271889 0.69981550660938663 1 0.83057691269844081 0.77683220420328725 0.81278569633583353 0.81664766512111064 0.69361520514218133 0.83791821520130205 1 0.61016512164652226 0.67939035495506384 1 0.49911199724958061 0.77872228561593948 0.77895350115271889 0.77683220420328725 0.81278569633583353 0.81664766512111064 0.81346205468287114 1 0.68420958956387889 0.69981550660938663 1 0.83057691269844081 0.6123333432449789 1 0.67837347745467769 0.77683220420328725 0.81278569633583353 0.81664766512111064 0.6123333432449789 1 0.67837347745467769 0.69981550660938663 1 0.83057691269844081 0.49911199724958061 0.77872228561593948 0.77895350115271889 0.77683220420328725 0.81278569633583353 0.81664766512111064 0.69361520514218133 0.83791821520130205 1 0.69981550660938663 1 0.83057691269844081 0.79999999999947335 1 1 0.77683220420328725 0.81278569633583353 0.81664766512111064 0.50970031073508926 1 0.83534964916803001 0.59999999999894682 1 1 0.69361520514218133 0.83791821520130205 1 0.69981550660938663 1 0.83057691269844081 0.69981550660938663 1 0.83057691269844081 0.59999999999894682 1 1 0.69361520514218133 0.83791821520130205 1 0.79999999999947335 1 1 0.80839867011861499 0.68192028468377774 1 0.61016512164652226 0.67939035495506384 1 0.69361520514218133 0.83791821520130205 1 0.77683220420328725 0.81278569633583353 0.81664766512111064 0.50803330197137353 0.83630110503667787 1 0.69361520514218133 0.83791821520130205 1 0.61016512164652226 0.67939035495506384 1 0.49911199724958061 0.77872228561593948 0.77895350115271889 0.50803330197137353 0.83630110503667787 1 0.50970031073508926 1 0.83534964916803001 0.69361520514218133 0.83791821520130205 1 0.49911199724958061 0.77872228561593948 0.77895350115271889 0.59999999999894682 1 1 0.50803330197137353 0.83630110503667787 1 0.3999999999989749 1 1 0.50970031073508926 1 0.83534964916803001 0.69361520514218133 0.83791821520130205 1 0.50803330197137353 0.83630110503667787 1 0.59999999999894682 1 1 0.50970031073508926 1 0.83534964916803001 0.69361520514218133 0.83791821520130205 1 0.50970031073508926 1 0.83534964916803001 0.69981550660938663 1 0.83057691269844081 0.49911199724958061 0.77872228561593948 0.77895350115271889 0.50970031073508926 1 0.83534964916803001 0.6123333432449789 1 0.67837347745467769 0.69981550660938663 1 0.83057691269844081 0.49911199724958061 0.77872228561593948 0.77895350115271889 0.6123333432449789 1 0.67837347745467769 0.49983993748706529 0.75039103705932653 0.52967335724801234 0.68649174659499257 0.68600703198516766 0.6864917465949647 0.49911199724958061 0.77872228561593948 0.77895350115271889 0.6123333432449789 1 0.67837347745467769 0.49983993748706529 0.75039103705932653 0.52967335724801234 0.68240285647621723 1 0.52310058211166854 0.77374673111774417 0.78860835645735528 0.49829081152968557 0.6123333432449789 1 0.67837347745467769 0.45820186441573879 1 0.68969697123405882 0.49983993748706529 0.75039103705932653 0.52967335724801234 0.49911199724958061 0.77872228561593948 0.77895350115271889 0.45820186441573879 1 0.68969697123405882 0.6123333432449789 1 0.67837347745467769 0.50970031073508926 1 0.83534964916803001 0.49911199724958061 0.77872228561593948 0.77895350115271889 0.6123333432449789 1 0.67837347745467769 0.68649174659499257 0.68600703198516766 0.6864917465949647 0.49983993748706529 0.75039103705932653 0.52967335724801234 0.77374673111774417 0.78860835645735528 0.49829081152968557 0.81346205468287114 1 0.68420958956387889 0.6123333432449789 1 0.67837347745467769 0.68649174659499257 0.68600703198516766 0.6864917465949647 0.77683220420328725 0.81278569633583353 0.81664766512111064 0.6123333432449789 1 0.67837347745467769 0.49911199724958061 0.77872228561593948 0.77895350115271889 0.68649174659499257 0.68600703198516766 0.6864917465949647 0.77683220420328725 0.81278569633583353 0.81664766512111064 0.81346205468287114 1 0.68420958956387889 0.68649174659499257 0.68600703198516766 0.6864917465949647 0.6123333432449789 1 0.67837347745467769 0.77374673111774417 0.78860835645735528 0.49829081152968557 0.81346205468287114 1 0.68420958956387889 0.6123333432449789 1 0.67837347745467769 0.68240285647621723 1 0.52310058211166854 0.77374673111774417 0.78860835645735528 0.49829081152968557 0.6123333432449789 1 0.67837347745467769 0.45820186441573879 1 0.68969697123405882 0.51961524227008238 1 0.49999999999872219 0.49983993748706529 0.75039103705932653 0.52967335724801234 0.6123333432449789 1 0.67837347745467769 0.51961524227008238 1 0.49999999999872219 0.68240285647621723 1 0.52310058211166854 0.49983993748706529 0.75039103705932653 0.52967335724801234 0.68649174659499257 0.68600703198516766 0.6864917465949647 0.49983993748706529 0.75039103705932653 0.52967335724801234 0.49816183246753282 0.5307146639261795 0.75045686993209071 0.49911199724958061 0.77872228561593948 0.77895350115271889 0.68649174659499257 0.68600703198516766 0.6864917465949647 0.50000000000001332 0.49999999999999561 0.49999999999999561 0.7504488434426726 0.53051757989633308 0.49836643074154852 0.49816183246753282 0.5307146639261795 0.75045686993209071 0.68649174659499257 0.68600703198516766 0.6864917465949647 0.49816183246753282 0.5307146639261795 0.75045686993209071 0.7504488434426726 0.53051757989633308 0.49836643074154852 0.78019141325921404 0.49972466465542442 0.78019141325930785 0.50000000000001332 0.49999999999999561 0.49999999999999561 0.68649174659499257 0.68600703198516766 0.6864917465949647 0.7504488434426726 0.53051757989633308 0.49836643074154852 0.49983993748706529 0.75039103705932653 0.52967335724801234 0.7504488434426726 0.53051757989633308 0.49836643074154852 0.49983993748706529 0.75039103705932653 0.52967335724801234 0.68649174659499257 0.68600703198516766 0.6864917465949647 0.77374673111774417 0.78860835645735528 0.49829081152968557 0.68649174659499257 0.68600703198516766 0.6864917465949647 0.50000000000001332 0.49999999999999561 0.49999999999999561 0.49816183246753282 0.5307146639261795 0.75045686993209071 0.49983993748706529 0.75039103705932653 0.52967335724801234 0.78019141325921404 0.49972466465542442 0.78019141325930785 0.61016512164652226 0.67939035495506384 1 0.49816183246753282 0.5307146639261795 0.75045686993209071 0.67320508075671459 0.53045230059073867 1 0.78019141325921404 0.49972466465542442 0.78019141325930785 0.49816183246753282 0.5307146639261795 0.75045686993209071 0.61016512164652226 0.67939035495506384 1 0.68649174659499257 0.68600703198516766 0.6864917465949647 0.61016512164652226 0.67939035495506384 1 0.68649174659499257 0.68600703198516766 0.6864917465949647 0.80839867011861499 0.68192028468377774 1 0.78019141325921404 0.49972466465542442 0.78019141325930785 0.68649174659499257 0.68600703198516766 0.6864917465949647 0.49911199724958061 0.77872228561593948 0.77895350115271889 0.61016512164652226 0.67939035495506384 1 0.77683220420328725 0.81278569633583353 0.81664766512111064 0.68649174659499257 0.68600703198516766 0.6864917465949647 0.49816183246753282 0.5307146639261795 0.75045686993209071 0.61016512164652226 0.67939035495506384 1 0.49911199724958061 0.77872228561593948 0.77895350115271889 0.80839867011861499 0.68192028468377774 1 0.68649174659499257 0.68600703198516766 0.6864917465949647 0.61016512164652226 0.67939035495506384 1 0.77683220420328725 0.81278569633583353 0.81664766512111064 0.67320508075671459 0.53045230059073867 1 0.61016512164652226 0.67939035495506384 1 0.80839867011861499 0.68192028468377774 1 0.78019141325921404 0.49972466465542442 0.78019141325930785 0.45812322962090041 0.68975022421538157 1 0.61016512164652226 0.67939035495506384 1 0.49816183246753282 0.5307146639261795 0.75045686993209071 0.49911199724958061 0.77872228561593948 0.77895350115271889 0.50803330197137353 0.83630110503667787 1 0.61016512164652226 0.67939035495506384 1 0.45812322962090041 0.68975022421538157 1 0.49911199724958061 0.77872228561593948 0.77895350115271889 0.51961524226934941 0.50000000000250611 1 0.45812322962090041 0.68975022421538157 1 0.61016512164652226 0.67939035495506384 1 0.49816183246753282 0.5307146639261795 0.75045686993209071 0.67320508075671459 0.53045230059073867 1 0.51961524226934941 0.50000000000250611 1 0.61016512164652226 0.67939035495506384 1 0.49816183246753282 0.5307146639261795 0.75045686993209071 0.3115891413135391 0.68758981780459771 0.68521708032990558 0.2184393375098648 0.50004596894495223 0.77634962490704662 0.32446581821293602 0.60020898676440626 1 0.18453958615733529 0.77655623474864555 0.81613222483915937 0.32925244736146098 0.39615100178034629 1 0.32446581821293602 0.60020898676440626 1 0.51961524226934941 0.50000000000250611 1 0.49816183246753282 0.5307146639261795 0.75045686993209071 0.45812322962090041 0.68975022421538157 1 0.3115891413135391 0.68758981780459771 0.68521708032990558 0.31067093462947892 0.81480288849497895 1 0.49911199724958061 0.77872228561593948 0.77895350115271889 0.32925244736146098 0.39615100178034629 1 0.32446581821293602 0.60020898676440626 1 0.49816183246753282 0.5307146639261795 0.75045686993209071 0.2184393375098648 0.50004596894495223 0.77634962490704662 0.45812322962090041 0.68975022421538157 1 0.49816183246753282 0.5307146639261795 0.75045686993209071 0.3115891413135391 0.68758981780459771 0.68521708032990558 0.49911199724958061 0.77872228561593948 0.77895350115271889 0.32446581821293602 0.60020898676440626 1 0.3115891413135391 0.68758981780459771 0.68521708032990558 0.49816183246753282 0.5307146639261795 0.75045686993209071 0.2184393375098648 0.50004596894495223 0.77634962490704662 0.45812322962090041 0.68975022421538157 1 0.51961524226934941 0.50000000000250611 1 0.32446581821293602 0.60020898676440626 1 0.49816183246753282 0.5307146639261795 0.75045686993209071 0.31067093462947892 0.81480288849497895 1 0.45812322962090041 0.68975022421538157 1 0.32446581821293602 0.60020898676440626 1 0.3115891413135391 0.68758981780459771 0.68521708032990558 0.45812322962090041 0.68975022421538157 1 0.32446581821293602 0.60020898676440626 1 0.3115891413135391 0.68758981780459771 0.68521708032990558 0.49816183246753282 0.5307146639261795 0.75045686993209071 0.32446581821293602 0.60020898676440626 1 0.31067093462947892 0.81480288849497895 1 0.3115891413135391 0.68758981780459771 0.68521708032990558 0.18453958615733529 0.77655623474864555 0.81613222483915937 0.3115891413135391 0.68758981780459771 0.68521708032990558 0.50000000000001332 0.49999999999999561 0.49999999999999561 0.24769234054476261 0.52242103280823293 0.45098450226372488 0.49983993748706529 0.75039103705932653 0.52967335724801234 0.3115891413135391 0.68758981780459771 0.68521708032990558 0.49816183246753282 0.5307146639261795 0.75045686993209071 0.50000000000001332 0.49999999999999561 0.49999999999999561 0.49983993748706529 0.75039103705932653 0.52967335724801234 0.3115891413135391 0.68758981780459771 0.68521708032990558 0.49983993748706529 0.75039103705932653 0.52967335724801234 0.24769234054476261 0.52242103280823293 0.45098450226372488 0.22516916914780419 0.77057994845201627 0.48187244075707292 0.50000000000001332 0.49999999999999561 0.49999999999999561 0.3115891413135391 0.68758981780459771 0.68521708032990558 0.24769234054476261 0.52242103280823293 0.45098450226372488 0.2184393375098648 0.50004596894495223 0.77634962490704662 0.3115891413135391 0.68758981780459771 0.68521708032990558 0.50000000000001332 0.49999999999999561 0.49999999999999561 0.49816183246753282 0.5307146639261795 0.75045686993209071 0.2184393375098648 0.50004596894495223 0.77634962490704662 0.49816183246753282 0.5307146639261795 0.75045686993209071 0.49983993748706529 0.75039103705932653 0.52967335724801234 0.3115891413135391 0.68758981780459771 0.68521708032990558 0.49911199724958061 0.77872228561593948 0.77895350115271889 0.32448110831226962 1 0.6002015905153204 0.45820186441573879 1 0.68969697123405882 0.3115891413135391 0.68758981780459771 0.68521708032990558 0.49983993748706529 0.75039103705932653 0.52967335724801234 0.45820186441573879 1 0.68969697123405882 0.31085062173747541 1 0.81469961246428202 0.32448110831226962 1 0.6002015905153204 0.3115891413135391 0.68758981780459771 0.68521708032990558 0.45820186441573879 1 0.68969697123405882 0.3115891413135391 0.68758981780459771 0.68521708032990558 0.49983993748706529 0.75039103705932653 0.52967335724801234 0.49911199724958061 0.77872228561593948 0.77895350115271889 0.32448110831226962 1 0.6002015905153204 0.3115891413135391 0.68758981780459771 0.68521708032990558 0.31085062173747541 1 0.81469961246428202 0.18453958615733529 0.77655623474864555 0.81613222483915937 0.32448110831226962 1 0.6002015905153204 0.49983993748706529 0.75039103705932653 0.52967335724801234 0.3115891413135391 0.68758981780459771 0.68521708032990558 0.22516916914780419 0.77057994845201627 0.48187244075707292 0.45820186441573879 1 0.68969697123405882 0.31085062173747541 1 0.81469961246428202 0.3115891413135391 0.68758981780459771 0.68521708032990558 0.49911199724958061 0.77872228561593948 0.77895350115271889 0.32926555316115258 1 0.39615987727515128 0.49983993748706529 0.75039103705932653 0.52967335724801234 0.32448110831226962 1 0.6002015905153204 0.22516916914780419 0.77057994845201627 0.48187244075707292 0.32448110831226962 1 0.6002015905153204 0.3115891413135391 0.68758981780459771 0.68521708032990558 0.15900053892265181 1 0.69447607299016312 0.22516916914780419 0.77057994845201627 0.48187244075707292 0.32926555316115258 1 0.39615987727515128 0.51961524227008238 1 0.49999999999872219 0.32448110831226962 1 0.6002015905153204 0.49983993748706529 0.75039103705932653 0.52967335724801234 0.32448110831226962 1 0.6002015905153204 0.51961524227008238 1 0.49999999999872219 0.45820186441573879 1 0.68969697123405882 0.49983993748706529 0.75039103705932653 0.52967335724801234 0.45820186441573879 1 0.68969697123405882 0.50970031073508926 1 0.83534964916803001 0.31085062173747541 1 0.81469961246428202 0.49911199724958061 0.77872228561593948 0.77895350115271889 0.31085062173747541 1 0.81469961246428202 0.49911199724958061 0.77872228561593948 0.77895350115271889 0.31067093462947892 0.81480288849497895 1 0.18453958615733529 0.77655623474864555 0.81613222483915937 0.31085062173747541 1 0.81469961246428202 0.3115891413135391 0.68758981780459771 0.68521708032990558 0.49911199724958061 0.77872228561593948 0.77895350115271889 0.18453958615733529 0.77655623474864555 0.81613222483915937 0.50803330197137353 0.83630110503667787 1 0.31085062173747541 1 0.81469961246428202 0.50970031073508926 1 0.83534964916803001 0.49911199724958061 0.77872228561593948 0.77895350115271889 0.31067093462947892 0.81480288849497895 1 0.49911199724958061 0.77872228561593948 0.77895350115271889 0.3115891413135391 0.68758981780459771 0.68521708032990558 0.18453958615733529 0.77655623474864555 0.81613222483915937 0.31085062173747541 1 0.81469961246428202 0.3999999999989749 1 1 0.50803330197137353 0.83630110503667787 1 0.50970031073508926 1 0.83534964916803001 0.31085062173747541 1 0.81469961246428202 0.3999999999989749 1 1 0.31067093462947892 0.81480288849497895 1 0.50803330197137353 0.83630110503667787 1 0.31085062173747541 1 0.81469961246428202 0.50803330197137353 0.83630110503667787 1 0.31067093462947892 0.81480288849497895 1 0.49911199724958061 0.77872228561593948 0.77895350115271889 0.45812322962090041 0.68975022421538157 1 0.31067093462947892 0.81480288849497895 1 0.50803330197137353 0.83630110503667787 1 0.49911199724958061 0.77872228561593948 0.77895350115271889 0.3999999999989749 1 1 0.19999999999955789 1 1 0.31085062173747541 1 0.81469961246428202 0.31067093462947892 0.81480288849497895 1 0.15900053892265181 1 0.69447607299016312 0.31085062173747541 1 0.81469961246428202 0.1464101615132356 1 0.85358983848650494 0.18453958615733529 0.77655623474864555 0.81613222483915937 0.31085062173747541 1 0.81469961246428202 0.31067093462947892 0.81480288849497895 1 0.1464101615132356 1 0.85358983848650494 0.18453958615733529 0.77655623474864555 0.81613222483915937 0.31085062173747541 1 0.81469961246428202 0.19999999999955789 1 1 0.1464101615132356 1 0.85358983848650494 0.31067093462947892 0.81480288849497895 1 0.14641016151332509 0.85358983848655678 1 0.1464101615132356 1 0.85358983848650494 0.19999999999955789 1 1 0.31067093462947892 0.81480288849497895 1 0.31067093462947892 0.81480288849497895 1 0.15896804272141651 0.69449451837104537 1 0.14641016151332509 0.85358983848655678 1 0.18453958615733529 0.77655623474864555 0.81613222483915937 0.14641016151332509 0.85358983848655678 1 0.1464101615132356 1 0.85358983848650494 0.31067093462947892 0.81480288849497895 1 0.18453958615733529 0.77655623474864555 0.81613222483915937 0 0.85358983848682146 0.85358983848668035 0 0.69992182039579531 0.85173693729137989 0 0.80860557108920617 0.70542349973054763 0.18453958615733529 0.77655623474864555 0.81613222483915937 0.15900053892265181 1 0.69447607299016312 0 0.85358983848682146 0.85358983848668035 0 0.80860557108920617 0.70542349973054763 0.18453958615733529 0.77655623474864555 0.81613222483915937 0.18453958615733529 0.77655623474864555 0.81613222483915937 0 0.79999999999999982 1 0.15896804272141651 0.69449451837104537 1 0.14641016151332509 0.85358983848655678 1 0.1464101615132356 1 0.85358983848650494 0.14641016151332509 0.85358983848655678 1 0 0.85358983848682146 0.85358983848668035 0.18453958615733529 0.77655623474864555 0.81613222483915937 0 0.85358983848682146 0.85358983848668035 0 0.79999999999999982 1 0 0.69992182039579531 0.85173693729137989 0.18453958615733529 0.77655623474864555 0.81613222483915937 0 0.85358983848682146 0.85358983848668035 0.14641016151332509 0.85358983848655678 1 0 0.79999999999999982 1 0.18453958615733529 0.77655623474864555 0.81613222483915937 0 1 1 0 0.85358983848682146 0.85358983848668035 0.14641016151332509 0.85358983848655678 1 0 0.79999999999999982 1 0 0.85358983848682146 0.85358983848668035 0.1464101615132356 1 0.85358983848650494 0 1 1 0.14641016151332509 0.85358983848655678 1 0.19999999999955789 1 1 0 1 1 0.1464101615132356 1 0.85358983848650494 0.14641016151332509 0.85358983848655678 1 0.1464101615132356 1 0.85358983848650494 0 1 1 0 1 0.79999999999947335 0 0.85358983848682146 0.85358983848668035 0.1464101615132356 1 0.85358983848650494 0 0.85358983848682146 0.85358983848668035 0.15900053892265181 1 0.69447607299016312 0.18453958615733529 0.77655623474864555 0.81613222483915937 0.15900053892265181 1 0.69447607299016312 0 1 0.79999999999947335 0 0.80860557108920617 0.70542349973054763 0 0.85358983848682146 0.85358983848668035 0 1 0.79999999999947335 0.15900053892265181 1 0.69447607299016312 0.1464101615132356 1 0.85358983848650494 0 0.85358983848682146 0.85358983848668035 0 0.80860557108920617 0.70542349973054763 0 1 0.59999999999894682 0 1 0.79999999999947335 0.15900053892265181 1 0.69447607299016312 0.3115891413135391 0.68758981780459771 0.68521708032990558 0.22516916914780419 0.77057994845201627 0.48187244075707292 0 0.80860557108920617 0.70542349973054763 0.18453958615733529 0.77655623474864555 0.81613222483915937 0 0.80860557108920617 0.70542349973054763 0 0.83630110503664845 0.50803330197135654 0 1 0.59999999999894682 0.15900053892265181 1 0.69447607299016312 0.15900053892265181 1 0.69447607299016312 0.3115891413135391 0.68758981780459771 0.68521708032990558 0.32448110831226962 1 0.6002015905153204 0.18453958615733529 0.77655623474864555 0.81613222483915937 0.15900053892265181 1 0.69447607299016312 0.22516916914780419 0.77057994845201627 0.48187244075707292 0.3115891413135391 0.68758981780459771 0.68521708032990558 0.18453958615733529 0.77655623474864555 0.81613222483915937 0.15900053892265181 1 0.69447607299016312 0 0.80860557108920617 0.70542349973054763 0.22516916914780419 0.77057994845201627 0.48187244075707292 0.18453958615733529 0.77655623474864555 0.81613222483915937 0.15900053892265181 1 0.69447607299016312 0.32448110831226962 1 0.6002015905153204 0.31085062173747541 1 0.81469961246428202 0.18453958615733529 0.77655623474864555 0.81613222483915937 0.32448110831226962 1 0.6002015905153204 0.15900053892265181 1 0.69447607299016312 0.17226134197293 1 0.49836539647645101 0.22516916914780419 0.77057994845201627 0.48187244075707292 0 0.83630110503664845 0.50803330197135654 0.17226134197293 1 0.49836539647645101 0.15900053892265181 1 0.69447607299016312 0.22516916914780419 0.77057994845201627 0.48187244075707292 0 1 0.59999999999894682 0 1 0.3999999999989749 0.17226134197293 1 0.49836539647645101 0 0.83630110503664845 0.50803330197135654 0 0.83630110503664845 0.50803330197135654 0.17226134197293 1 0.49836539647645101 0 1 0.59999999999894682 0.15900053892265181 1 0.69447607299016312 0 0.83630110503664845 0.50803330197135654 0.15900053892265181 1 0.69447607299016312 0 0.80860557108920617 0.70542349973054763 0.22516916914780419 0.77057994845201627 0.48187244075707292 0 0.66416205381430016 0.59944234540882957 0 0.83630110503664845 0.50803330197135654 0 0.80860557108920617 0.70542349973054763 0.22516916914780419 0.77057994845201627 0.48187244075707292 0 0.66416205381430016 0.59944234540882957 0 0.80860557108920617 0.70542349973054763 0.3115891413135391 0.68758981780459771 0.68521708032990558 0.22516916914780419 0.77057994845201627 0.48187244075707292 0 0.66416205381430016 0.59944234540882957 0.3115891413135391 0.68758981780459771 0.68521708032990558 0 0.80860557108920617 0.70542349973054763 0.18453958615733529 0.77655623474864555 0.81613222483915937 0 0.66416205381430016 0.59944234540882957 0 0.80860557108920617 0.70542349973054763 0 0.60922248848335758 0.72722573386012812 0.18453958615733529 0.77655623474864555 0.81613222483915937 0 0.66416205381430016 0.59944234540882957 0.24769234054476261 0.52242103280823293 0.45098450226372488 0.3115891413135391 0.68758981780459771 0.68521708032990558 0.2184393375098648 0.50004596894495223 0.77634962490704662 0 0.66416205381430016 0.59944234540882957 0 0.60922248848335758 0.72722573386012812 0.3115891413135391 0.68758981780459771 0.68521708032990558 0.18453958615733529 0.77655623474864555 0.81613222483915937 0 0.66416205381430016 0.59944234540882957 0 0.46954769941369501 0.67320508075638175 0 0.50000000000237477 0.51961524226909872 0.2184393375098648 0.50004596894495223 0.77634962490704662 0 0.60922248848335758 0.72722573386012812 0 0.66416205381430016 0.59944234540882957 0.3115891413135391 0.68758981780459771 0.68521708032990558 0.2184393375098648 0.50004596894495223 0.77634962490704662 0 0.66416205381430016 0.59944234540882957 0.3115891413135391 0.68758981780459771 0.68521708032990558 0.24769234054476261 0.52242103280823293 0.45098450226372488 0.22516916914780419 0.77057994845201627 0.48187244075707292 0 0.66416205381430016 0.59944234540882957 0 0.50000000000237477 0.51961524226909872 0.24769234054476261 0.52242103280823293 0.45098450226372488 0.2184393375098648 0.50004596894495223 0.77634962490704662 0 0.68801781652248195 0.45664527743358641 0 0.83630110503664845 0.50803330197135654 0 0.66416205381430016 0.59944234540882957 0.22516916914780419 0.77057994845201627 0.48187244075707292 0 0.66416205381430016 0.59944234540882957 0 0.50000000000237477 0.51961524226909872 0 0.68801781652248195 0.45664527743358641 0.24769234054476261 0.52242103280823293 0.45098450226372488 0 0.60922248848335758 0.72722573386012812 0 0.46954769941369501 0.67320508075638175 0 0.66416205381430016 0.59944234540882957 0.2184393375098648 0.50004596894495223 0.77634962490704662 0 0.5118616330515301 0.84191918937737908 0 0.69992182039579531 0.85173693729137989 0.15896804272141651 0.69449451837104537 1 0.2184393375098648 0.50004596894495223 0.77634962490704662 0 0.60922248848335758 0.72722573386012812 0.2184393375098648 0.50004596894495223 0.77634962490704662 0.3115891413135391 0.68758981780459771 0.68521708032990558 0.18453958615733529 0.77655623474864555 0.81613222483915937 0.15896804272141651 0.69449451837104537 1 0.2184393375098648 0.50004596894495223 0.77634962490704662 0 0.69992182039579531 0.85173693729137989 0.18453958615733529 0.77655623474864555 0.81613222483915937 0 0.5118616330515301 0.84191918937737908 0 0.46954769941369501 0.67320508075638175 0 0.60922248848335758 0.72722573386012812 0.2184393375098648 0.50004596894495223 0.77634962490704662 0 0.5118616330515301 0.84191918937737908 0 0.60922248848335758 0.72722573386012812 0 0.69992182039579531 0.85173693729137989 0.2184393375098648 0.50004596894495223 0.77634962490704662 0.15896804272141651 0.69449451837104537 1 0.32446581821293602 0.60020898676440626 1 0.2184393375098648 0.50004596894495223 0.77634962490704662 0.18453958615733529 0.77655623474864555 0.81613222483915937 0 0.60922248848335758 0.72722573386012812 0 0.69992182039579531 0.85173693729137989 0.2184393375098648 0.50004596894495223 0.77634962490704662 0.18453958615733529 0.77655623474864555 0.81613222483915937 0 0.80860557108920617 0.70542349973054763 0 0.69992182039579531 0.85173693729137989 0 0.60922248848335758 0.72722573386012812 0.18453958615733529 0.77655623474864555 0.81613222483915937 0.15896804272141651 0.69449451837104537 1 0.32446581821293602 0.60020898676440626 1 0.17226134197275911 0.49836539647894412 1 0.2184393375098648 0.50004596894495223 0.77634962490704662 0.15896804272141651 0.69449451837104537 1 0.17226134197275911 0.49836539647894412 1 0 0.5118616330515301 0.84191918937737908 0.2184393375098648 0.50004596894495223 0.77634962490704662 0.32446581821293602 0.60020898676440626 1 0.15896804272141651 0.69449451837104537 1 0.31067093462947892 0.81480288849497895 1 0.18453958615733529 0.77655623474864555 0.81613222483915937 0.18453958615733529 0.77655623474864555 0.81613222483915937 0.15896804272141651 0.69449451837104537 1 0 0.79999999999999982 1 0 0.69992182039579531 0.85173693729137989 0 0.69992182039579531 0.85173693729137989 0 0.5118616330515301 0.84191918937737908 0.15896804272141651 0.69449451837104537 1 0 0.60000000000138687 1 0.15896804272141651 0.69449451837104537 1 0 0.79999999999999982 1 0 0.69992182039579531 0.85173693729137989 0 0.60000000000138687 1 0 0.60000000000138687 1 0 0.5118616330515301 0.84191918937737908 0.15896804272141651 0.69449451837104537 1 0.17226134197275911 0.49836539647894412 1 0 0.5118616330515301 0.84191918937737908 0 0.60000000000138687 1 0 0.40000000000166441 1 0.17226134197275911 0.49836539647894412 1 0.17226134197275911 0.49836539647894412 1 0 0.40000000000166441 1 0 0.5118616330515301 0.84191918937737908 0 0.31807971531776508 0.80839867011913336 0 0.40000000000166441 1 0.17226134197275911 0.49836539647894412 1 0.16929708765653109 0.30074819035870082 1 0 0.31807971531776508 0.80839867011913336 0 0.14641016151490169 0.85358983848532144 0 0.31807971531776508 0.80839867011913336 0.16929708765653109 0.30074819035870082 1 0.31426750628021272 0.31270343261798911 0.68761148188185484 0.16929708765653109 0.30074819035870082 1 0.31426750628021272 0.31270343261798911 0.68761148188185484 0 0.31807971531776508 0.80839867011913336 0.2184393375098648 0.50004596894495223 0.77634962490704662 0 0.5118616330515301 0.84191918937737908 0 0.31807971531776508 0.80839867011913336 0 0.46954769941369501 0.67320508075638175 0.2184393375098648 0.50004596894495223 0.77634962490704662 0 0.5118616330515301 0.84191918937737908 0.17226134197275911 0.49836539647894412 1 0 0.31807971531776508 0.80839867011913336 0.2184393375098648 0.50004596894495223 0.77634962490704662 0 0.31807971531776508 0.80839867011913336 0.16929708765653109 0.30074819035870082 1 0 0.40000000000166441 1 0 0.20000000000083221 1 0.17226134197275911 0.49836539647894412 1 0.32925244736146098 0.39615100178034629 1 0.16929708765653109 0.30074819035870082 1 0.2184393375098648 0.50004596894495223 0.77634962490704662 0.17226134197275911 0.49836539647894412 1 0.16929708765653109 0.30074819035870082 1 0 0.31807971531776508 0.80839867011913336 0.2184393375098648 0.50004596894495223 0.77634962490704662 0.31610726166461628 0.1880448979455934 1 0.16929708765653109 0.30074819035870082 1 0.32925244736146098 0.39615100178034629 1 0.31426750628021272 0.31270343261798911 0.68761148188185484 0.32446581821293602 0.60020898676440626 1 0.32925244736146098 0.39615100178034629 1 0.17226134197275911 0.49836539647894412 1 0.2184393375098648 0.50004596894495223 0.77634962490704662 0.45812322962173568 0.31024977578554058 1 0.31426750628021272 0.31270343261798911 0.68761148188185484 0.49816183246753282 0.5307146639261795 0.75045686993209071 0.50084626324420545 0.22238844715913 0.78084811589659187 0.32925244736146098 0.39615100178034629 1 0.49816183246753282 0.5307146639261795 0.75045686993209071 0.31426750628021272 0.31270343261798911 0.68761148188185484 0.2184393375098648 0.50004596894495223 0.77634962490704662 0.31610726166461628 0.1880448979455934 1 0.32925244736146098 0.39615100178034629 1 0.45812322962173568 0.31024977578554058 1 0.31426750628021272 0.31270343261798911 0.68761148188185484 0.45812322962173568 0.31024977578554058 1 0.31610726166461628 0.1880448979455934 1 0.31426750628021272 0.31270343261798911 0.68761148188185484 0.50084626324420545 0.22238844715913 0.78084811589659187 0.32925244736146098 0.39615100178034629 1 0.45812322962173568 0.31024977578554058 1 0.31426750628021272 0.31270343261798911 0.68761148188185484 0.49816183246753282 0.5307146639261795 0.75045686993209071 0.32925244736146098 0.39615100178034629 1 0.31426750628021272 0.31270343261798911 0.68761148188185484 0.16929708765653109 0.30074819035870082 1 0.2184393375098648 0.50004596894495223 0.77634962490704662 0.32925244736146098 0.39615100178034629 1 0.51961524226934941 0.50000000000250611 1 0.45812322962173568 0.31024977578554058 1 0.49816183246753282 0.5307146639261795 0.75045686993209071 0.31426750628021272 0.31270343261798911 0.68761148188185484 0.49816183246753282 0.5307146639261795 0.75045686993209071 0.50000000000001332 0.49999999999999561 0.49999999999999561 0.2184393375098648 0.50004596894495223 0.77634962490704662 0.24769234054476261 0.52242103280823293 0.45098450226372488 0.50073570207385831 0.24848280280289631 0.52886631355986169 0.31426750628021272 0.31270343261798911 0.68761148188185484 0.22088738526309029 0.22111069116742441 0.50004796911802929 0.31426750628021272 0.31270343261798911 0.68761148188185484 0.50073570207385831 0.24848280280289631 0.52886631355986169 0.49816183246753282 0.5307146639261795 0.75045686993209071 0.50084626324420545 0.22238844715913 0.78084811589659187 0.50000000000001332 0.49999999999999561 0.49999999999999561 0.31426750628021272 0.31270343261798911 0.68761148188185484 0.24769234054476261 0.52242103280823293 0.45098450226372488 0.50073570207385831 0.24848280280289631 0.52886631355986169 0.50000000000001332 0.49999999999999561 0.49999999999999561 0.49816183246753282 0.5307146639261795 0.75045686993209071 0.31426750628021272 0.31270343261798911 0.68761148188185484 0.50073570207385831 0.24848280280289631 0.52886631355986169 0.50000000000001332 0.49999999999999561 0.49999999999999561 0.24769234054476261 0.52242103280823293 0.45098450226372488 0.31426750628021272 0.31270343261798911 0.68761148188185484 0.2184393375098648 0.50004596894495223 0.77634962490704662 0.2184393375098648 0.50004596894495223 0.77634962490704662 0.31426750628021272 0.31270343261798911 0.68761148188185484 0 0.50000000000237477 0.51961524226909872 0.24769234054476261 0.52242103280823293 0.45098450226372488 0 0.31024977578556651 0.45812322962166352 0.24769234054476261 0.52242103280823293 0.45098450226372488 0 0.32043363027398297 0.61046998817722586 0.22088738526309029 0.22111069116742441 0.50004796911802929 0 0.32043363027398297 0.61046998817722586 0 0.50000000000237477 0.51961524226909872 0.31426750628021272 0.31270343261798911 0.68761148188185484 0.24769234054476261 0.52242103280823293 0.45098450226372488 0.2184393375098648 0.50004596894495223 0.77634962490704662 0 0.32043363027398297 0.61046998817722586 0 0.50000000000237477 0.51961524226909872 0.31426750628021272 0.31270343261798911 0.68761148188185484 0 0.32043363027398297 0.61046998817722586 0.24769234054476261 0.52242103280823293 0.45098450226372488 0.31426750628021272 0.31270343261798911 0.68761148188185484 0.22088738526309029 0.22111069116742441 0.50004796911802929 0.2184393375098648 0.50004596894495223 0.77634962490704662 0 0.50000000000237477 0.51961524226909872 0 0.32043363027398297 0.61046998817722586 0 0.46954769941369501 0.67320508075638175 0 0.16196943494415611 0.69380980080116506 0 0.32043363027398297 0.61046998817722586 0.31426750628021272 0.31270343261798911 0.68761148188185484 0.22088738526309029 0.22111069116742441 0.50004796911802929 0 0.32043363027398297 0.61046998817722586 0 0.31807971531776508 0.80839867011913336 0.31426750628021272 0.31270343261798911 0.68761148188185484 0.2184393375098648 0.50004596894495223 0.77634962490704662 0 0.16196943494415611 0.69380980080116506 0 0.32043363027398297 0.61046998817722586 0 0.31807971531776508 0.80839867011913336 0.31426750628021272 0.31270343261798911 0.68761148188185484 0 0.31024977578556651 0.45812322962166352 0 0.50000000000237477 0.51961524226909872 0 0.32043363027398297 0.61046998817722586 0.24769234054476261 0.52242103280823293 0.45098450226372488 0 0.32043363027398297 0.61046998817722586 0 0.46954769941369501 0.67320508075638175 0 0.31807971531776508 0.80839867011913336 0.2184393375098648 0.50004596894495223 0.77634962490704662 0 0.32043363027398297 0.61046998817722586 0 0.16275515618034081 0.50966790549591257 0 0.31024977578556651 0.45812322962166352 0.22088738526309029 0.22111069116742441 0.50004796911802929 0 0.16196943494415611 0.69380980080116506 0.14641016151479661 0 0.85358983848542624 0.18818969570926641 0 0.68364148842842287 0.31426750628021272 0.31270343261798911 0.68761148188185484 0 0.16196943494415611 0.69380980080116506 0.31426750628021272 0.31270343261798911 0.68761148188185484 0.18818969570926641 0 0.68364148842842287 0.22088738526309029 0.22111069116742441 0.50004796911802929 0 0.16196943494415611 0.69380980080116506 0.18818969570926641 0 0.68364148842842287 0 0.16275515618034081 0.50966790549591257 0.22088738526309029 0.22111069116742441 0.50004796911802929 0 0.16196943494415611 0.69380980080116506 0 0.16275515618034081 0.50966790549591257 0 0.32043363027398297 0.61046998817722586 0.22088738526309029 0.22111069116742441 0.50004796911802929 0 0 0.79999999999999982 0 0 0.60000000000138687 0 0.16196943494415611 0.69380980080116506 0.18818969570926641 0 0.68364148842842287 0 0 0.60000000000138687 0 0.16196943494415611 0.69380980080116506 0.18818969570926641 0 0.68364148842842287 0 0.16275515618034081 0.50966790549591257 0.18818969570926641 0 0.68364148842842287 0.16370661204827031 0 0.4886650857430957 0 0 0.60000000000138687 0 0.16275515618034081 0.50966790549591257 0.18818969570926641 0 0.68364148842842287 0.31030302876556398 0 0.54179813558513157 0.16370661204827031 0 0.4886650857430957 0.22088738526309029 0.22111069116742441 0.50004796911802929 0 0.16275515618034081 0.50966790549591257 0.18818969570926641 0 0.68364148842842287 0.16370661204827031 0 0.4886650857430957 0.22088738526309029 0.22111069116742441 0.50004796911802929 0.30074819035913852 0 0.83070291234383831 0.39615987727709562 0 0.67073444684008199 0.18818969570926641 0 0.68364148842842287 0.31426750628021272 0.31270343261798911 0.68761148188185484 0.31030302876556398 0 0.54179813558513157 0.31426750628021272 0.31270343261798911 0.68761148188185484 0.50073570207385831 0.24848280280289631 0.52886631355986169 0.22088738526309029 0.22111069116742441 0.50004796911802929 0.39615987727709562 0 0.67073444684008199 0.31030302876556398 0 0.54179813558513157 0.31426750628021272 0.31270343261798911 0.68761148188185484 0.50073570207385831 0.24848280280289631 0.52886631355986169 0.39615987727709562 0 0.67073444684008199 0.31426750628021272 0.31270343261798911 0.68761148188185484 0.30074819035913852 0 0.83070291234383831 0.50084626324420545 0.22238844715913 0.78084811589659187 0.18818969570926641 0 0.68364148842842287 0.31426750628021272 0.31270343261798911 0.68761148188185484 0.31030302876556398 0 0.54179813558513157 0.22088738526309029 0.22111069116742441 0.50004796911802929 0.6002015905170176 0 0.67551889168744117 0.50073570207385831 0.24848280280289631 0.52886631355986169 0.39615987727709562 0 0.67073444684008199 0.50084626324420545 0.22238844715913 0.78084811589659187 0.31030302876556398 0 0.54179813558513157 0.18818969570926641 0 0.68364148842842287 0.39615987727709562 0 0.67073444684008199 0.31426750628021272 0.31270343261798911 0.68761148188185484 0.39615987727709562 0 0.67073444684008199 0.50073570207385831 0.24848280280289631 0.52886631355986169 0.31426750628021272 0.31270343261798911 0.68761148188185484 0.50084626324420545 0.22238844715913 0.78084811589659187 0.39615987727709562 0 0.67073444684008199 0.6002015905170176 0 0.67551889168744117 0.50000000000250922 0 0.48038475773043671 0.50073570207385831 0.24848280280289631 0.52886631355986169 0.39615987727709562 0 0.67073444684008199 0.50000000000250922 0 0.48038475773043671 0.31030302876556398 0 0.54179813558513157 0.50073570207385831 0.24848280280289631 0.52886631355986169 0.49836539647917322 0 0.82773865802723501 0.6002015905170176 0 0.67551889168744117 0.39615987727709562 0 0.67073444684008199 0.50084626324420545 0.22238844715913 0.78084811589659187 0.30074819035913852 0 0.83070291234383831 0.14641016151432179 0.14641016151432179 1 0.31610726166461628 0.1880448979455934 1 0.31426750628021272 0.31270343261798911 0.68761148188185484 0.30074819035913852 0 0.83070291234383831 0.31426750628021272 0.31270343261798911 0.68761148188185484 0.31610726166461628 0.1880448979455934 1 0.50084626324420545 0.22238844715913 0.78084811589659187 0.30074819035913852 0 0.83070291234383831 0.31610726166461628 0.1880448979455934 1 0.49836539647917322 0 0.82773865802723501 0.50084626324420545 0.22238844715913 0.78084811589659187 0.39615987727709562 0 0.67073444684008199 0.30074819035913852 0 0.83070291234383831 0.49836539647917322 0 0.82773865802723501 0.50084626324420545 0.22238844715913 0.78084811589659187 0.31610726166461628 0.1880448979455934 1 0.40000000000166441 0 1 0.49836539647917322 0 0.82773865802723501 0.50966790549576724 0.1627551561802443 1 0.40000000000166441 0 1 0.49836539647917322 0 0.82773865802723501 0.30074819035913852 0 0.83070291234383831 0.31610726166461628 0.1880448979455934 1 0.31610726166461628 0.1880448979455934 1 0.50966790549576724 0.1627551561802443 1 0.49836539647917322 0 0.82773865802723501 0.50084626324420545 0.22238844715913 0.78084811589659187 0.45812322962173568 0.31024977578554058 1 0.50966790549576724 0.1627551561802443 1 0.31610726166461628 0.1880448979455934 1 0.50084626324420545 0.22238844715913 0.78084811589659187 0.40000000000166441 0 1 0.30074819035913852 0 0.83070291234383831 0.20000000000083221 0 1 0.31610726166461628 0.1880448979455934 1 0 0.14641016151490169 0.85358983848532144 0 0.16196943494415611 0.69380980080116506 0 0.31807971531776508 0.80839867011913336 0.31426750628021272 0.31270343261798911 0.68761148188185484 0.16929708765653109 0.30074819035870082 1 0.31610726166461628 0.1880448979455934 1 0.14641016151432179 0.14641016151432179 1 0.31426750628021272 0.31270343261798911 0.68761148188185484 0.14641016151432179 0.14641016151432179 1 0.20000000000083221 0 1 0.14641016151479661 0 0.85358983848542624 0.30074819035913852 0 0.83070291234383831 0.14641016151432179 0.14641016151432179 1 0.30074819035913852 0 0.83070291234383831 0.14641016151479661 0 0.85358983848542624 0.31426750628021272 0.31270343261798911 0.68761148188185484 0.14641016151432179 0.14641016151432179 1 0.20000000000083221 0 1 0.30074819035913852 0 0.83070291234383831 0.31610726166461628 0.1880448979455934 1 0.18818969570926641 0 0.68364148842842287 0.14641016151479661 0 0.85358983848542624 0.30074819035913852 0 0.83070291234383831 0.31426750628021272 0.31270343261798911 0.68761148188185484 0 0.14641016151490169 0.85358983848532144 0.16929708765653109 0.30074819035870082 1 0.14641016151432179 0.14641016151432179 1 0.31426750628021272 0.31270343261798911 0.68761148188185484 0.14641016151432179 0.14641016151432179 1 0.14641016151479661 0 0.85358983848542624 0 0.14641016151490169 0.85358983848532144 0.31426750628021272 0.31270343261798911 0.68761148188185484 0 0.16196943494415611 0.69380980080116506 0 0.14641016151490169 0.85358983848532144 0.14641016151479661 0 0.85358983848542624 0.31426750628021272 0.31270343261798911 0.68761148188185484 0 0.20000000000083221 1 0 0.31807971531776508 0.80839867011913336 0.16929708765653109 0.30074819035870082 1 0 0.14641016151490169 0.85358983848532144 0.14641016151432179 0.14641016151432179 1 0 0.20000000000083221 1 0.16929708765653109 0.30074819035870082 1 0 0.14641016151490169 0.85358983848532144 0 0.16196943494415611 0.69380980080116506 0.14641016151479661 0 0.85358983848542624 0 0 0.79999999999999982 0.18818969570926641 0 0.68364148842842287 0 0.14641016151490169 0.85358983848532144 0.14641016151479661 0 0.85358983848542624 0 0 0.79999999999999982 0 0.16196943494415611 0.69380980080116506 0 0 1 0 0.20000000000083221 1 0.14641016151432179 0.14641016151432179 1 0 0.14641016151490169 0.85358983848532144 0.14641016151479661 0 0.85358983848542624 0 0 0.79999999999999982 0 0 1 0 0.14641016151490169 0.85358983848532144 0 0 1 0.14641016151432179 0.14641016151432179 1 0.20000000000083221 0 1 0.14641016151479661 0 0.85358983848542624 0.14641016151479661 0 0.85358983848542624 0 0 1 0.14641016151432179 0.14641016151432179 1 0 0.14641016151490169 0.85358983848532144 
</DataArray>
</Points>
<Cells>
<DataArray type="UInt32" Name="connectivity" format="ascii">
0 1 2 3 4 5 6 7 8 9 10 11 12 13 14 15 16 17 18 19 20 21 22 23 24 25 26 27 28 29 30 31 32 33 34 35 36 37 38 39 40 41 42 43 44 45 46 47 48 49 50 51 52 53 54 55 56 57 58 59 60 61 62 63 64 65 66 67 68 69 70 71 72 73 74 75 76 77 78 79 80 81 82 83 84 85 86 87 88 89 90 91 92 93 94 95 96 97 98 99 100 101 102 103 104 105 106 107 108 109 110 111 112 113 114 115 116 117 118 119 120 121 122 123 124 125 126 127 128 129 130 131 132 133 134 135 136 137 138 139 140 141 142 143 144 145 146 147 148 149 150 151 152 153 154 155 156 157 158 159 160 161 162 163 164 165 166 167 168 169 170 171 172 173 174 175 176 177 178 179 180 181 182 183 184 185 186 187 188 189 190 191 192 193 194 195 196 197 198 199 200 201 202 203 204 205 206 207 208 209 210 211 212 213 214 215 216 217 218 219 220 221 222 223 224 225 226 227 228 229 230 231 232 233 234 235 236 237 238 239 240 241 242 243 244 245 246 247 248 249 250 251 252 253 254 255 256 257 258 259 260 261 262 263 264 265 266 267 268 269 270 271 272 273 274 275 276 277 278 279 280 281 282 283 284 285 286 287 288 289 290 291 292 293 294 295 296 297 298 299 300 301 302 303 304 305 306 307 308 309 310 311 312 313 314 315 316 317 318 319 320 321 322 323 324 325 326 327 328 329 330 331 332 333 334 335 336 337 338 339 340 341 342 343 344 345 346 347 348 349 350 351 352 353 354 355 356 357 358 359 360 361 362 363 364 365 366 367 368 369 370 371 372 373 374 375 376 377 378 379 380 381 382 383 384 385 386 387 388 389 390 391 392 393 394 395 396 397 398 399 400 401 402 403 404 405 406 407 408 409 410 411 412 413 414 415 416 417 418 419 420 421 422 423 424 425 426 427 428 429 430 431 432 433 434 435 436 437 438 439 440 441 442 443 444 445 446 447 448 449 450 451 452 453 454 455 456 457 458 459 460 461 462 463 464 465 466 467 468 469 470 471 472 473 474 475 476 477 478 479 480 481 482 483 484 485 486 487 488 489 490 491 492 493 494 495 496 497 498 499 500 501 502 503 504 505 506 507 508 509 510 511 512 513 514 515 516 517 518 519 520 521 522 523 524 525 526 527 528 529 530 531 532 533 534 535 536 537 538 539 540 541 542 543 544 545 546 547 548 549 550 551 552 553 554 555 556 557 558 559 560 561 562 563 564 565 566 567 568 569 570 571 572 573 574 575 576 577 578 579 580 581 582 583 584 585 586 587 588 589 590 591 592 593 594 595 596 597 598 599 600 601 602 603 604 605 606 607 608 609 610 611 612 613 614 615 616 617 618 619 620 621 622 623 624 625 626 627 628 629 630 631 632 633 634 635 636 637 638 639 640 641 642 643 644 645 646 647 648 649 650 651 652 653 654 655 656 657 658 659 660 661 662 663 664 665 666 667 668 669 670 671 672 673 674 675 676 677 678 679 680 681 682 683 684 685 686 687 688 689 690 691 692 693 694 695 696 697 698 699 700 701 702 703 704 705 706 707 708 709 710 711 712 713 714 715 716 717 718 719 720 721 722 723 724 725 726 727 728 729 730 731 732 733 734 735 736 737 738 739 740 741 742 743 744 745 746 747 748 749 750 751 752 753 754 755 756 757 758 759 760 761 762 763 764 765 766 767 768 769 770 771 772 773 774 775 776 777 778 779 780 781 782 783 784 785 786 787 788 789 790 791 792 793 794 795 796 797 798 799 800 801 802 803 804 805 806 807 808 809 810 811 812 813 814 815 816 817 818 819 820 821 822 823 824 825 826 827 828 829 830 831 832 833 834 835 836 837 838 839 840 841 842 843 844 845 846 847 848 849 850 851 852 853 854 855 856 857 858 859 860 861 862 863 864 865 866 867 868 869 870 871 872 873 874 875 876 877 878 879 880 881 882 883 884 885 886 887 888 889 890 891 892 893 894 895 896 897 898 899 900 901 902 903 904 905 906 907 908 909 910 911 912 913 914 915 916 917 918 919 920 921 922 923 924 925 926 927 928 929 930 931 932 933 934 935 936 937 938 939 940 941 942 943 944 945 946 947 948 949 950 951 952 953 954 955 956 957 958 959 960 961 962 963 964 965 966 967 968 969 970 971 972 973 974 975 976 977 978 979 980 981 982 983 984 985 986 987 988 989 990 991 992 993 994 995 996 997 998 999 1000 1001 1002 1003 1004 1005 1006 1007 1008 1009 1010 1011 1012 1013 1014 1015 1016 1017 1018 1019 1020 1021 1022 1023 1024 1025 1026 1027 1028 1029 1030 1031 1032 1033 1034 1035 1036 1037 1038 1039 1040 1041 1042 1043 1044 1045 1046 1047 1048 1049 1050 1051 1052 1053 1054 1055 1056 1057 1058 1059 1060 1061 1062 1063 1064 1065 1066 1067 1068 1069 1070 1071 1072 1073 1074 1075 1076 1077 1078 1079 1080 1081 1082 1083 1084 1085 1086 1087 1088 1089 1090 1091 1092 1093 1094 1095 1096 1097 1098 1099 1100 1101 1102 1103 1104 1105 1106 1107 1108 1109 1110 1111 1112 1113 1114 1115 1116 1117 1118 1119 1120 1121 1122 1123 1124 1125 1126 1127 1128 1129 1130 1131 1132 1133 1134 1135 1136 1137 1138 1139 1140 1141 1142 1143 1144 1145 1146 1147 1148 1149 1150 1151 1152 1153 1154 1155 1156 1157 1158 1159 1160 1161 1162 1163 1164 1165 1166 1167 1168 1169 1170 1171 1172 1173 1174 1175 1176 1177 1178 1179 1180 1181 1182 1183 1184 1185 1186 1187 1188 1189 1190 1191 1192 1193 1194 1195 1196 1197 1198 1199 1200 1201 1202 1203 1204 1205 1206 1207 1208 1209 1210 1211 1212 1213 1214 1215 1216 1217 1218 1219 1220 1221 1222 1223 1224 1225 1226 1227 1228 1229 1230 1231 1232 1233 1234 1235 1236 1237 1238 1239 1240 1241 1242 1243 1244 1245 1246 1247 1248 1249 1250 1251 1252 1253 1254 1255 1256 1257 1258 1259 1260 1261 1262 1263 1264 1265 1266 1267 1268 1269 1270 1271 1272 1273 1274 1275 1276 1277 1278 1279 1280 1281 1282 1283 1284 1285 1286 1287 1288 1289 1290 1291 1292 1293 1294 1295 1296 1297 1298 1299 1300 1301 1302 1303 1304 1305 1306 1307 1308 1309 1310 1311 1312 1313 1314 1315 1316 1317 1318 1319 1320 1321 1322 1323 1324 1325 1326 1327 1328 1329 1330 1331 1332 1333 1334 1335 1336 1337 1338 1339 1340 1341 1342 1343 1344 1345 1346 1347 1348 1349 1350 1351 1352 1353 1354 1355 1356 1357 1358 1359 1360 1361 1362 1363 1364 1365 1366 1367 1368 1369 1370 1371 1372 1373 1374 1375 1376 1377 1378 1379 1380 1381 1382 1383 1384 1385 1386 1387 1388 1389 1390 1391 1392 1393 1394 1395 1396 1397 1398 1399 1400 1401 1402 1403 1404 1405 1406 1407 1408 1409 1410 1411 1412 1413 1414 1415 1416 1417 1418 1419 1420 1421 1422 1423 1424 1425 1426 1427 1428 1429 1430 1431 1432 1433 1434 1435 1436 1437 1438 1439 1440 1441 1442 1443 1444 1445 1446 1447 1448 1449 1450 1451 1452 1453 1454 1455 1456 1457 1458 1459 1460 1461 1462 1463 1464 1465 1466 1467 1468 1469 1470 1471 1472 1473 1474 1475 1476 1477 1478 1479 1480 1481 1482 1483 1484 1485 1486 1487 1488 1489 1490 1491 1492 1493 1494 1495 1496 1497 1498 1499 1500 1501 1502 1503 1504 1505 1506 1507 1508 1509 1510 1511 1512 1513 1514 1515 1516 1517 1518 1519 1520 1521 1522 1523 1524 1525 1526 1527 1528 1529 1530 1531 1532 1533 1534 1535 1536 1537 1538 1539 1540 1541 1542 1543 1544 1545 1546 1547 1548 1549 1550 1551 1552 1553 1554 1555 1556 1557 1558 1559 1560 1561 1562 1563 1564 1565 1566 1567 1568 1569 1570 1571 1572 1573 1574 1575 1576 1577 1578 1579 1580 1581 1582 1583 1584 1585 1586 1587 1588 1589 1590 1591 1592 1593 1594 1595 1596 1597 1598 1599 1600 1601 1602 1603 1604 1605 1606 1607 1608 1609 1610 1611 1612 1613 1614 1615 1616 1617 1618 1619 1620 1621 1622 1623 1624 1625 1626 1627 1628 1629 1630 1631 1632 1633 1634 1635 1636 1637 1638 1639 1640 1641 1642 1643 1644 1645 1646 1647 1648 1649 1650 1651 1652 1653 1654 1655 1656 1657 1658 1659 1660 1661 1662 1663 1664 1665 1666 1667 1668 1669 1670 1671 1672 1673 1674 1675 1676 1677 1678 1679 1680 1681 1682 1683 1684 1685 1686 1687 1688 1689 1690 1691 1692 1693 1694 1695 1696 1697 1698 1699 1700 1701 1702 1703 1704 1705 1706 1707 1708 1709 1710 1711 1712 1713 1714 1715 1716 1717 1718 1719 1720 1721 1722 1723 1724 1725 1726 1727 1728 1729 1730 1731 1732 1733 1734 1735 1736 1737 1738 1739 1740 1741 1742 1743 1744 1745 1746 1747 1748 1749 1750 1751 1752 1753 1754 1755 1756 1757 1758 1759 1760 1761 1762 1763 1764 1765 1766 1767 1768 1769 1770 1771 1772 1773 1774 1775 1776 1777 1778 1779 1780 1781 1782 1783 1784 1785 1786 1787 1788 1789 1790 1791 1792 1793 1794 1795 1796 1797 1798 1799 1800 1801 1802 1803 1804 1805 1806 1807 1808 1809 1810 1811 1812 1813 1814 1815 1816 1817 1818 1819 1820 1821 1822 1823 1824 1825 1826 1827 1828 1829 1830 1831 1832 1833 1834 1835 1836 1837 1838 1839 1840 1841 1842 1843 1844 1845 1846 1847 1848 1849 1850 1851 1852 1853 1854 1855 1856 1857 1858 1859 1860 1861 1862 1863 1864 1865 1866 1867 1868 1869 1870 1871 1872 1873 1874 1875 1876 1877 1878 1879 1880 1881 1882 1883 1884 1885 1886 1887 1888 1889 1890 1891 1892 1893 1894 1895 1896 1897 1898 1899 1900 1901 1902 1903 1904 1905 1906 1907 1908 1909 1910 1911 1912 1913 1914 1915 1916 1917 1918 1919 1920 1921 1922 1923 1924 1925 1926 1927 1928 1929 1930 1931 1932 1933 1934 1935 1936 1937 1938 1939 1940 1941 1942 1943 1944 1945 1946 1947 1948 1949 1950 1951 1952 1953 1954 1955 1956 1957 1958 1959 1960 1961 1962 1963 1964 1965 1966 1967 1968 1969 1970 1971 1972 1973 1974 1975 1976 1977 1978 1979 1980 1981 1982 1983 1984 1985 1986 1987 1988 1989 1990 1991 1992 1993 1994 1995 1996 1997 1998 1999 2000 2001 2002 2003 2004 2005 2006 2007 2008 2009 2010 2011 2012 2013 2014 2015 2016 2017 2018 2019 2020 2021 2022 2023 2024 2025 2026 2027 2028 2029 2030 2031 2032 2033 2034 2035 2036 2037 2038 2039 2040 2041 2042 2043 2044 2045 2046 2047 2048 2049 2050 2051 2052 2053 2054 2055 2056 2057 2058 2059 2060 2061 2062 2063 2064 2065 2066 2067 2068 2069 2070 2071 2072 2073 2074 2075 2076 2077 2078 2079 2080 2081 2082 2083 2084 2085 2086 2087 2088 2089 2090 2091 2092 2093 2094 2095 2096 2097 2098 2099 2100 2101 2102 2103 2104 2105 2106 2107 2108 2109 2110 2111 2112 2113 2114 2115 2116 2117 2118 2119 2120 2121 2122 2123 2124 2125 2126 2127 2128 2129 2130 2131 2132 2133 2134 2135 2136 2137 2138 2139 2140 2141 2142 2143 2144 2145 2146 2147 2148 2149 2150 2151 2152 2153 2154 2155 2156 2157 2158 2159 2160 2161 2162 2163 2164 2165 2166 2167 2168 2169 2170 2171 2172 2173 2174 2175 2176 2177 2178 2179 2180 2181 2182 2183 2184 2185 2186 2187 2188 2189 2190 2191 2192 2193 2194 2195 2196 2197 2198 2199 2200 2201 2202 2203 2204 2205 2206 2207 2208 2209 2210 2211 2212 2213 2214 2215 2216 2217 2218 2219 2220 2221 2222 2223 2224 2225 2226 2227 2228 2229 2230 2231 2232 2233 2234 2235 2236 2237 2238 2239 2240 2241 2242 2243 2244 2245 2246 2247 2248 2249 2250 2251 2252 2253 2254 2255 2256 2257 2258 2259 2260 2261 2262 2263 2264 2265 2266 2267 2268 2269 2270 2271 2272 2273 2274 2275 2276 2277 2278 2279 2280 2281 2282 2283 2284 2285 2286 2287 2288 2289 2290 2291 2292 2293 2294 2295 2296 2297 2298 2299 2300 2301 2302 2303 2304 2305 2306 2307 2308 2309 2310 2311 2312 2313 2314 2315 2316 2317 2318 2319 2320 2321 2322 2323 2324 2325 2326 2327 2328 2329 2330 2331 2332 2333 2334 2335 2336 2337 2338 2339 2340 2341 2342 2343 2344 2345 2346 2347 2348 2349 2350 2351 2352 2353 2354 2355 2356 2357 2358 2359 2360 2361 2362 2363 2364 2365 2366 2367 2368 2369 2370 2371 2372 2373 2374 2375 2376 2377 2378 2379 2380 2381 2382 2383 2384 2385 2386 2387 2388 2389 2390 2391 2392 2393 2394 2395 2396 2397 2398 2399 2400 2401 2402 2403 2404 2405 2406 2407 2408 2409 2410 2411 2412 2413 2414 2415 2416 2417 2418 2419 2420 2421 2422 2423 2424 2425 2426 2427 2428 2429 2430 2431 2432 2433 2434 2435 2436 2437 2438 2439 2440 2441 2442 2443 2444 2445 2446 2447 2448 2449 2450 2451 2452 2453 2454 2455 2456 2457 2458 2459 2460 2461 2462 2463 2464 2465 2466 2467 2468 2469 2470 2471 2472 2473 2474 2475 2476 2477 2478 2479 2480 2481 2482 2483 2484 2485 2486 2487 2488 2489 2490 2491 2492 2493 2494 2495 2496 2497 2498 2499 2500 2501 2502 2503 2504 2505 2506 2507 2508 2509 2510 2511 2512 2513 2514 2515 2516 2517 2518 2519 2520 2521 2522 2523 2524 2525 2526 2527 2528 2529 2530 2531 2532 2533 2534 2535 2536 2537 2538 2539 2540 2541 2542 2543 2544 2545 2546 2547 2548 2549 2550 2551 2552 2553 2554 2555 2556 2557 2558 2559 2560 2561 2562 2563 2564 2565 2566 2567 2568 2569 2570 2571 2572 2573 2574 2575 2576 2577 2578 2579 2580 2581 2582 2583 2584 2585 2586 2587 2588 2589 2590 2591 2592 2593 2594 2595 2596 2597 2598 2599 2600 2601 2602 2603 2604 2605 2606 2607 2608 2609 2610 2611 2612 2613 2614 2615 2616 2617 2618 2619 2620 2621 2622 2623 2624 2625 2626 2627 2628 2629 2630 2631 2632 2633 2634 2635 2636 2637 2638 2639 2640 2641 2642 2643 2644 2645 2646 2647 2648 2649 2650 2651 2652 2653 2654 2655 2656 2657 2658 2659 2660 2661 2662 2663 2664 2665 2666 2667 2668 2669 2670 2671 2672 2673 2674 2675 2676 2677 2678 2679 2680 2681 2682 2683 2684 2685 2686 2687 2688 2689 2690 2691 2692 2693 2694 2695 2696 2697 2698 2699 2700 2701 2702 2703 2704 2705 2706 2707 2708 2709 2710 2711 2712 2713 2714 2715 2716 2717 2718 2719 2720 2721 2722 2723 2724 2725 2726 2727 2728 2729 2730 2731 2732 2733 2734 2735 2736 2737 2738 2739 2740 2741 2742 2743 2744 2745 2746 2747 2748 2749 2750 2751 2752 2753 2754 2755 2756 2757 2758 2759 2760 2761 2762 2763 2764 2765 2766 2767 2768 2769 2770 2771 2772 2773 2774 2775 2776 2777 2778 2779 2780 2781 2782 2783 2784 2785 2786 2787 2788 2789 2790 2791 2792 2793 2794 2795 2796 2797 2798 2799 2800 2801 2802 2803 2804 2805 2806 2807 2808 2809 2810 2811 2812 2813 2814 2815 2816 2817 2818 2819 2820 2821 2822 2823 2824 2825 2826 2827 2828 2829 2830 2831 2832 2833 2834 2835 2836 2837 2838 2839 2840 2841 2842 2843 2844 2845 2846 2847 2848 2849 2850 2851 2852 2853 2854 2855 2856 2857 2858 2859 2860 2861 2862 2863 2864 2865 2866 2867 2868 2869 2870 2871 2872 2873 2874 2875 
</DataArray>
<DataArray type="UInt32" Name="offsets" format="ascii">
4 8 12 16 20 24 28 32 36 40 44 48 52 56 60 64 68 72 76 80 84 88 92 96 100 104 108 112 116 120 124 128 132 136 140 144 148 152 156 160 164 168 172 176 180 184 188 192 196 200 204 208 212 216 220 224 228 232 236 240 244 248 252 256 260 264 268 272 276 280 284 288 292 296 300 304 308 312 316 320 324 328 332 336 340 344 348 352 356 360 364 368 372 376 380 384 388 392 396 400 404 408 412 416 420 424 428 432 436 440 444 448 452 456 460 464 468 472 476 480 484 488 492 496 500 504 508 512 516 520 524 528 532 536 540 544 548 552 556 560 564 568 572 576 580 584 588 592 596 600 604 608 612 616 620 624 628 632 636 640 644 648 652 656 660 664 668 672 676 680 684 688 692 696 700 704 708 712 716 720 724 728 732 736 740 744 748 752 756 760 764 768 772 776 780 784 788 792 796 800 804 808 812 816 820 824 828 832 836 840 844 848 852 856 860 864 868 872 876 880 884 888 892 896 900 904 908 912 916 920 924 928 932 936 940 944 948 952 956 960 964 968 972 976 980 984 988 992 996 1000 1004 1008 1012 1016 1020 1024 1028 1032 1036 1040 1044 1048 1052 1056 1060 1064 1068 1072 1076 1080 1084 1088 1092 1096 1100 1104 1108 1112 1116 1120 1124 1128 1132 1136 1140 1144 1148 1152 1156 1160 1164 1168 1172 1176 1180 1184 1188 1192 1196 1200 1204 1208 1212 1216 1220 1224 1228 1232 1236 1240 1244 1248 1252 1256 1260 1264 1268 1272 1276 1280 1284 1288 1292 1296 1300 1304 1308 1312 1316 1320 1324 1328 1332 1336 1340 1344 1348 1352 1356 1360 1364 1368 1372 1376 1380 1384 1388 1392 1396 1400 1404 1408 1412 1416 1420 1424 1428 1432 1436 1440 1444 1448 1452 1456 1460 1464 1468 1472 1476 1480 1484 1488 1492 1496 1500 1504 1508 1512 1516 1520 1524 1528 1532 1536 1540 1544 1548 1552 1556 1560 1564 1568 1572 1576 1580 1584 1588 1592 1596 1600 1604 1608 1612 1616 1620 1624 1628 1632 1636 1640 1644 1648 1652 1656 1660 1664 1668 1672 1676 1680 1684 1688 1692 1696 1700 1704 1708 1712 1716 1720 1724 1728 1732 1736 1740 1744 1748 1752 1756 1760 1764 1768 1772 1776 1780 1784 1788 1792 1796 1800 1804 1808 1812 1816 1820 1824 1828 1832 1836 1840 1844 1848 1852 1856 1860 1864 1868 1872 1876 1880 1884 1888 1892 1896 1900 1904 1908 1912 1916 1920 1924 1928 1932 1936 1940 1944 1948 1952 1956 1960 1964 1968 1972 1976 1980 1984 1988 1992 1996 2000 2004 2008 2012 2016 2020 2024 2028 2032 2036 2040 2044 2048 2052 2056 2060 2064 2068 2072 2076 2080 2084 2088 2092 2096 2100 2104 2108 2112 2116 2120 2124 2128 2132 2136 2140 2144 2148 2152 2156 2160 2164 2168 2172 2176 2180 2184 2188 2192 2196 2200 2204 2208 2212 2216 2220 2224 2228 2232 2236 2240 2244 2248 2252 2256 2260 2264 2268 2272 2276 2280 2284 2288 2292 2296 2300 2304 2308 2312 2316 2320 2324 2328 2332 2336 2340 2344 2348 2352 2356 2360 2364 2368 2372 2376 2380 2384 2388 2392 2396 2400 2404 2408 2412 2416 2420 2424 2428 2432 2436 2440 2444 2448 2452 2456 2460 2464 2468 2472 2476 2480 2484 2488 2492 2496 2500 2504 2508 2512 2516 2520 2524 2528 2532 2536 2540 2544 2548 2552 2556 2560 2564 2568 2572 2576 2580 2584 2588 2592 2596 2600 2604 2608 2612 2616 2620 2624 2628 2632 2636 2640 2644 2648 2652 2656 2660 2664 2668 2672 2676 2680 2684 2688 2692 2696 2700 2704 2708 2712 2716 2720 2724 2728 2732 2736 2740 2744 2748 2752 2756 2760 2764 2768 2772 2776 2780 2784 2788 2792 2796 2800 2804 2808 2812 2816 2820 2824 2828 2832 2836 2840 2844 2848 2852 2856 2860 2864 2868 2872 2876 
</DataArray>
<DataArray type="UInt32" Name="types" format="ascii">
10 10 10 10 10 10 10 10 10 10 10 10 10 10 10 10 10 10 10 10 10 10 10 10 10 10 10 10 10 10 10 10 10 10 10 10 10 10 10 10 10 10 10 10 10 10 10 10 10 10 10 10 10 10 10 10 10 10 10 10 10 10 10 10 10 10 10 10 10 10 10 10 10 10 10 10 10 10 10 10 10 10 10 10 10 10 10 10 10 10 10 10 10 10 10 10 10 10 10 10 10 10 10 10 10 10 10 10 10 10 10 10 10 10 10 10 10 10 10 10 10 10 10 10 10 10 10 10 10 10 10 10 10 10 10 10 10 10 10 10 10 10 10 10 10 10 10 10 10 10 10 10 10 10 10 10 10 10 10 10 10 10 10 10 10 10 10 10 10 10 10 10 10 10 10 10 10 10 10 10 10 10 10 10 10 10 10 10 10 10 10 10 10 10 10 10 10 10 10 10 10 10 10 10 10 10 10 10 10 10 10 10 10 10 10 10 10 10 10 10 10 10 10 10 10 10 10 10 10 10 10 10 10 10 10 10 10 10 10 10 10 10 10 10 10 10 10 10 10 10 10 10 10 10 10 10 10 10 10 10 10 10 10 10 10 10 10 10 10 10 10 10 10 10 10 10 10 10 10 10 10 10 10 10 10 10 10 10 10 10 10 10 10 10 10 10 10 10 10 10 10 10 10 10 10 10 10 10 10 10 10 10 10 10 10 10 10 10 10 10 10 10 10 10 10 10 10 10 10 10 10 10 10 10 10 10 10 10 10 10 10 10 10 10 10 10 10 10 10 10 10 10 10 10 10 10 10 10 10 10 10 10 10 10 10 10 10 10 10 10 10 10 10 10 10 10 10 10 10 10 10 10 10 10 10 10 10 10 10 10 10 10 10 10 10 10 10 10 10 10 10 10 10 10 10 10 10 10 10 10 10 10 10 10 10 10 10 10 10 10 10 10 10 10 10 10 10 10 10 10 10 10 10 10 10 10 10 10 10 10 10 10 10 10 10 10 10 10 10 10 10 10 10 10 10 10 10 10 10 10 10 10 10 10 10 10 10 10 10 10 10 10 10 10 10 10 10 10 10 10 10 10 10 10 10 10 10 10 10 10 10 10 10 10 10 10 10 10 10 10 10 10 10 10 10 10 10 10 10 10 10 10 10 10 10 10 10 10 10 10 10 10 10 10 10 10 10 10 10 10 10 10 10 10 10 10 10 10 10 10 10 10 10 10 10 10 10 10 10 10 10 10 10 10 10 10 10 10 10 10 10 10 10 10 10 10 10 10 10 10 10 10 10 10 10 10 10 10 10 10 10 10 10 10 10 10 10 10 10 10 10 10 10 10 10 10 10 10 10 10 10 10 10 10 10 10 10 10 10 10 10 10 10 10 10 10 10 10 10 10 10 10 10 10 10 10 10 10 10 10 10 10 10 10 10 10 10 10 10 10 10 10 10 10 10 10 10 10 10 10 10 10 10 10 10 10 10 10 10 10 10 10 10 10 10 10 10 10 10 10 10 10 10 10 10 10 10 10 10 10 10 10 10 10 10 10 10 10 10 10 10 10 10 10 10 10 10 10 10 10 10 10 10 10 10 10 10 10 10 10 10 10 10 10 10 10 10 10 10 
</DataArray>
</Cells>
<PointData Scalars="" Vectors="displacement," Tensors="">
<DataArray type="Float64" Name="displacement" NumberOfComponents="3" format="ascii">
0.081592324251269999 8.6947390953345374e-06 -1.3648462001579912e-05 0.043777805896651777 3.532684858102607e-06 -1.3169895490625231e-05 0.03786186597283997 -8.0504575731551669e-07 -1.0511063063198037e-05 0.080839423695105106 -1.2734478954521211e-05 -0.2949560075403197 -3.844352163761982e-08 -8.3242799895730985e-06 -1.3127066947643929e-05 -4.2286751858068619e-08 -3.0639215273457244e-06 -1.4177726019531324e-05 0.03786186597283997 -8.0504575731551637e-07 -1.05110630631928e-05 -2.7827805084062263e-08 -6.2681575681863411e-06 -0.13790387619077635 -4.2286751858068619e-08 -3.0639215273457248e-06 -1.4177726019520165e-05 0.051703777395726118 -3.3403124426976854e-06 -1.492798636343846e-05 0.03786186597283997 -8.0504575731551637e-07 -1.05110630631928e-05 0.037876535376917465 -2.2424960105515792e-06 -0.1380192258530549 -2.7827805084062263e-08 -6.2681575681863411e-06 -0.13790387619077635 -4.349472306536648e-08 -2.9270879345780902e-06 -0.18846020490337653 -4.2286751858068619e-08 -3.0639215273457248e-06 -1.4177726019520165e-05 0.037876535376917465 -2.2424960105515792e-06 -0.1380192258530549 -2.7827805084062263e-08 -6.2681575681863411e-06 -0.13790387619077635 -3.8073002674986613e-08 1.9929266980613354e-06 -0.15949764800572538 -3.474565406155186e-08 -1.0531774920338301e-05 -0.29778593838870859 0.080839423695105148 -1.2734478954521209e-05 -0.29495600754031959 0.081530883975167487 -2.9877353770047583e-06 -0.1760474471741883 0.037876535376917458 -2.2424960105515797e-06 -0.13801922585305487 0.043874141889322572 -2.8242955613741879e-06 -0.28292301341108289 0.080839423695105106 -1.2734478954521211e-05 -0.2949560075403197 -2.7827805084062263e-08 -6.2681575681863411e-06 -0.13790387619077635 -4.2286751861134408e-08 -3.0639215273457248e-06 -1.4177726019514571e-05 0.03786186597283997 -8.0504575731551637e-07 -1.05110630631928e-05 0.037876535376917465 -2.2424960105515792e-06 -0.1380192258530549 0.03786186597283997 -8.0504575731551637e-07 -1.05110630631928e-05 0.037876535376917458 -2.2424960105515801e-06 -0.13801922585305493 0.081530883975167487 -2.9877353770047579e-06 -0.1760474471741883 0.080839423695105106 -1.2734478954521211e-05 -0.2949560075403197 0.03786186597283997 -8.0504575731551637e-07 -1.05110630631928e-05 -3.8073002673524541e-08 1.9929266980613405e-06 -0.15949764800572536 -2.7827805081134236e-08 -6.2681575681863453e-06 -0.13790387619077635 0.080839423695105106 -1.2734478954521211e-05 -0.2949560075403197 0.03786186597283997 -8.0504575731551637e-07 -1.05110630631928e-05 -2.7827805083717345e-08 -6.2681575681863411e-06 -0.13790387619077632 0.037876535376917465 -2.2424960105515797e-06 -0.1380192258530549 0.080839423695105106 -1.2734478954521211e-05 -0.2949560075403197 -2.7827805084062263e-08 -6.2681575681863411e-06 -0.13790387619077635 0.043874141889322586 -2.8242955613741892e-06 -0.28292301341108289 0.037876535376917465 -2.2424960105515797e-06 -0.1380192258530549 0.08083942369510512 -1.2734478954521214e-05 -0.29495600754031975 0.037876535376917465 -2.2424960105515792e-06 -0.1380192258530549 -2.7827805083554483e-08 -6.2681575681863411e-06 -0.13790387619077635 -4.3494723070675557e-08 -2.9270879345780906e-06 -0.18846020490337653 0.043874141889322572 -2.8242955613741879e-06 -0.28292301341108289 -3.474565406155186e-08 -1.0531774920338301e-05 -0.29778593838870859 -4.3494723070675557e-08 -2.9270879345780906e-06 -0.18846020490337653 -2.7827805084062263e-08 -6.2681575681863411e-06 -0.13790387619077635 0.043874141889322572 -2.8242955613741879e-06 -0.28292301341108289 -2.7827805084062263e-08 -6.2681575681863411e-06 -0.13790387619077635 0.03786186597283997 -8.0504575731551637e-07 -1.05110630631928e-05 -3.844352163761982e-08 -8.3242799895730985e-06 -1.3127066947643032e-05 -3.8073002674986613e-08 1.9929266980613354e-06 -0.15949764800572538 -3.8073002674986613e-08 1.9929266980613354e-06 -0.15949764800572538 0.037861865972839977 -8.0504575731551161e-07 -1.0511063063232514e-05 -3.844352163761982e-08 -8.3242799895730985e-06 -1.3127066947643929e-05 0.043777805896651777 3.532684858102607e-06 -1.3169895490625231e-05 0.051703777395726118 -3.3403124426976854e-06 -1.492798636343846e-05 0.037861865972839963 -8.0504575731551785e-07 -1.0511063063208179e-05 0.081530883975167487 -2.9877353770047583e-06 -0.1760474471741883 0.081592324251269999 8.6947390953345374e-06 -1.3648462001579912e-05 0.051703777395726118 -3.3403124426976854e-06 -1.492798636343846e-05 0.037861865972839977 -8.0504575731551637e-07 -1.0511063063192678e-05 0.037876535376917451 -2.2424960105515788e-06 -0.1380192258530549 0.081530883975167487 -2.9877353770047583e-06 -0.1760474471741883 0.081530883975167487 -2.9877353770047583e-06 -0.1760474471741883 0.10303328893506164 -3.0336326787059903e-06 -1.7658488857434703e-05 0.051703777395726118 -3.3403124426976858e-06 -1.4927986363447096e-05 0.081592324251269999 8.6947390953345374e-06 -1.3648462001579912e-05 0.081530883975167487 -2.9877353770047583e-06 -0.1760474471741883 0.081592324251269999 8.694739095334539e-06 -1.3648462001580585e-05 0.037861865972839956 -8.0504575731551987e-07 -1.051106306320155e-05 0.080839423695105092 -1.2734478954521211e-05 -0.2949560075403197 0.081592324251269999 8.6947390953345374e-06 -1.3648462001579912e-05 0.080839423695105078 -1.2734478954521213e-05 -0.29495600754031964 0.081530883975167487 -2.9877353770047604e-06 -0.17604744717418833 0.12876833569164742 -4.1353253346080814e-06 -0.21363762084724849 0.081592324251269999 8.6947390953345374e-06 -1.3648462001579912e-05 0.12694470470856839 -2.7719695623357493e-06 -0.12520071081604295 0.13095068475983596 1.003526154342241e-05 -1.2740075704209194e-05 0.12876833569164739 -4.1353253346080831e-06 -0.21363762084724852 0.081592324251269999 8.6947390953345374e-06 -1.3648462001579912e-05 0.13095068475983596 1.003526154342241e-05 -1.2740075704238256e-05 0.11786688181884866 1.0258226008378137e-05 -1.103078572162502e-05 0.12876833569164739 -4.1353253346080856e-06 -0.21363762084724855 0.12694470470856839 -2.7719695623357548e-06 -0.12520071081604303 0.10303328893506164 -3.0336326787059903e-06 -1.7658488857434703e-05 0.081592324251270026 8.694739095334534e-06 -1.3648462001518717e-05 0.13095068475983596 1.003526154342241e-05 -1.2740075704209194e-05 0.12694470470856839 -2.7719695623357548e-06 -0.12520071081604303 0.10303328893506164 -3.0336326787059903e-06 -1.7658488857434703e-05 0.081530883975167487 -2.9877353770047583e-06 -0.1760474471741883 0.081592324251269999 8.6947390953345323e-06 -1.3648462001562919e-05 0.081530883975167487 -2.9877353770047583e-06 -0.1760474471741883 0.12275460710414604 -3.3975810797731047e-06 -0.3001566808332668 0.12694470470856839 -2.7719695623357548e-06 -0.12520071081604303 0.12876833569164739 -4.1353253346080822e-06 -0.21363762084724849 0.081592324251269999 8.6947390953345374e-06 -1.3648462001579912e-05 0.081530883975167501 -2.9877353770047549e-06 -0.17604744717418827 0.12694470470856836 -2.7719695623357556e-06 -0.12520071081604309 0.12876833569164739 -4.1353253346080831e-06 -0.21363762084724858 0.080554728230826267 -2.3916110779852898e-06 -0.51121715461556816 0.12937193399123142 -5.0654071274080538e-06 -0.50020953381929401 0.083166781067181228 -2.6035075491809299e-06 -0.3656119604133885 0.057371072901663191 -1.482655182529423e-05 -0.47144925552935091 0.083166781067181228 -2.6035075491809299e-06 -0.3656119604133885 0.080839423695105106 -1.2734478954521211e-05 -0.2949560075403197 0.043874141889322572 -2.8242955613741879e-06 -0.28292301341108289 0.057371072901663184 -1.482655182529423e-05 -0.47144925552935091 0.083166781067181228 -2.6035075491809299e-06 -0.3656119604133885 0.12937193399123145 -5.0654071274080538e-06 -0.50020953381929401 0.08083942369510512 -1.2734478954521209e-05 -0.2949560075403197 0.057371072901663191 -1.482655182529423e-05 -0.47144925552935096 0.083166781067181228 -2.6035075491809299e-06 -0.3656119604133885 0.12937193399123142 -5.0654071274080513e-06 -0.50020953381929378 0.12275460710414605 -3.3975810797731051e-06 -0.30015668083326685 0.12876833569164739 -4.1353253346080822e-06 -0.21363762084724849 0.083166781067181228 -2.6035075491809299e-06 -0.3656119604133885 0.08083942369510512 -1.2734478954521209e-05 -0.29495600754031964 0.12937193399123145 -5.0654071274080521e-06 -0.50020953381929401 0.12876833569164736 -4.1353253346080865e-06 -0.21363762084724852 0.083166781067181228 -2.6035075491809299e-06 -0.3656119604133885 0.081530883975167473 -2.9877353770047583e-06 -0.1760474471741883 0.043874141889322572 -2.8242955613741879e-06 -0.28292301341108289 0.080839423695105106 -1.2734478954521211e-05 -0.2949560075403197 0.081530883975167487 -2.9877353770047583e-06 -0.1760474471741883 0.080839423695105106 -1.2734478954521211e-05 -0.2949560075403197 0.083166781067181228 -2.6035075491809299e-06 -0.3656119604133885 0.12876833569164739 -4.1353253346080822e-06 -0.21363762084724849 0.081530883975167487 -2.9877353770047583e-06 -0.1760474471741883 0.083166781067181228 -2.6035075491809299e-06 -0.3656119604133885 0.12275460710414605 -3.3975810797731051e-06 -0.3001566808332668 0.12876833569164739 -4.1353253346080822e-06 -0.21363762084724849 0.080554728230826267 -2.3916110779852898e-06 -0.51121715461556816 0.12892473719337169 -2.9362538558839875e-06 -0.45435917749770971 0.083166781067181228 -2.6035075491809299e-06 -0.3656119604133885 0.12937193399123145 -5.0654071274080521e-06 -0.50020953381929401 0.083166781067181228 -2.6035075491809299e-06 -0.3656119604133885 0.12892473719337169 -2.9362538558839875e-06 -0.45435917749770971 0.12275460710414604 -3.3975810797731047e-06 -0.3001566808332668 0.12937193399123145 -5.0654071274080521e-06 -0.50020953381929401 0.042537080386522395 -2.8208323850974802e-06 -0.46053199516637666 0.080554728230826267 -2.3916110779852898e-06 -0.51121715461556816 0.083166781067181228 -2.6035075491809299e-06 -0.3656119604133885 0.057371072901663191 -1.482655182529423e-05 -0.47144925552935091 0.042537080386522395 -2.8208323850974802e-06 -0.46053199516637666 0.083166781067181228 -2.6035075491809299e-06 -0.3656119604133885 0.043874141889322572 -2.8242955613741879e-06 -0.28292301341108289 0.057371072901663191 -1.482655182529423e-05 -0.47144925552935091 0.043874141889322572 -2.8242955613741879e-06 -0.28292301341108289 -2.7827805084062263e-08 -6.2681575681863411e-06 -0.13790387619077635 -3.4745654064186477e-08 -1.0531774920338299e-05 -0.29778593838870859 0.080839423695105106 -1.2734478954521209e-05 -0.29495600754031964 -3.474565406155186e-08 -1.0531774920338301e-05 -0.29778593838870859 0.042537080386522381 -2.8208323850974789e-06 -0.46053199516637672 0.043874141889322572 -2.8242955613741879e-06 -0.28292301341108289 0.057371072901663211 -1.4826551825294234e-05 -0.47144925552935091 -3.474565406155186e-08 -1.0531774920338301e-05 -0.29778593838870859 0.043874141889322565 -2.8242955613741879e-06 -0.28292301341108289 0.080839423695105106 -1.2734478954521211e-05 -0.2949560075403197 0.057371072901663191 -1.482655182529423e-05 -0.47144925552935096 -3.0974303094718107e-08 -3.4068854020281725e-06 -0.37685696033907973 5.0972203321454827e-09 -3.8261773635960664e-06 -0.56511059309441514 0.042537080386522395 -2.8208323850974802e-06 -0.46053199516637666 -3.2643779574419069e-08 -1.7514620174656823e-05 -0.48003588644914569 -3.0974303094718107e-08 -3.4068854020281725e-06 -0.37685696033907973 -3.474565406155186e-08 -1.0531774920338301e-05 -0.29778593838870859 0.042537080386522395 -2.8208323850974802e-06 -0.46053199516637666 0.043874141889322572 -2.8242955613741879e-06 -0.28292301341108289 0.042537080386522395 -2.8208323850974802e-06 -0.46053199516637666 -3.4745654058006763e-08 -1.0531774920338298e-05 -0.29778593838870854 -3.097430309461453e-08 -3.4068854020281725e-06 -0.37685696033907973 -3.2643779574419069e-08 -1.7514620174656823e-05 -0.48003588644914569 -3.474565406155186e-08 -1.0531774920338301e-05 -0.29778593838870859 -3.0974303086756705e-08 -3.4068854020281716e-06 -0.37685696033907973 -4.3494723070675557e-08 -2.9270879345780906e-06 -0.18846020490337653 0.043874141889322572 -2.8242955613741879e-06 -0.28292301341108289 -3.474565406155186e-08 -1.0531774920338301e-05 -0.29778593838870859 -3.2643779574419069e-08 -1.7514620174656823e-05 -0.48003588644914569 0.042537080386522395 -2.8208323850974802e-06 -0.46053199516637666 0.057371072901663211 -1.4826551825294232e-05 -0.47144925552935091 -3.474565406155186e-08 -1.0531774920338301e-05 -0.29778593838870859 3.6668785093359266e-11 -2.0514921129466054e-06 -0.4315040653374122 -3.2643779572379301e-08 -1.7514620174656823e-05 -0.48003588644914569 0.057371072901663205 -1.482655182529423e-05 -0.47144925552935091 -3.8073002674986613e-08 1.9929266980613354e-06 -0.15949764800572538 -3.818996105434984e-08 -4.8657032609118549e-06 -0.31015159322743602 -3.474565406155186e-08 -1.0531774920338301e-05 -0.29778593838870859 0.080839423695105106 -1.2734478954521211e-05 -0.2949560075403197 3.666878367644759e-11 -2.0514921129466025e-06 -0.43150406533741226 0.080839423695105092 -1.2734478954521213e-05 -0.29495600754031959 0.064266072945439151 4.4811044753305067e-06 -0.42529890259103298 0.057371072901663191 -1.482655182529423e-05 -0.47144925552935091 -3.474565406155186e-08 -1.0531774920338301e-05 -0.29778593838870859 -3.8189961051479245e-08 -4.8657032609118558e-06 -0.31015159322743602 3.666878349703543e-11 -2.0514921129466025e-06 -0.43150406533741226 0.080839423695105106 -1.2734478954521211e-05 -0.2949560075403197 -3.818996105434984e-08 -4.8657032609118549e-06 -0.31015159322743602 0.064266072945439165 4.4811044753305076e-06 -0.42529890259103303 0.080839423695105106 -1.2734478954521211e-05 -0.29495600754031964 0.057812424746956421 -2.1041434783131026e-06 -0.21073091957835344 3.666878367644759e-11 -2.0514921129466025e-06 -0.43150406533741226 0.080839423695105106 -1.2734478954521216e-05 -0.29495600754031964 -3.818996105434984e-08 -4.8657032609118549e-06 -0.31015159322743602 0.064266072945439151 4.4811044753305067e-06 -0.42529890259103298 -3.8073002674986613e-08 1.9929266980613354e-06 -0.15949764800572538 -3.818996105434984e-08 -4.8657032609118549e-06 -0.31015159322743602 0.080839423695105092 -1.2734478954521214e-05 -0.29495600754031975 0.057812424746956401 -2.104143478313103e-06 -0.21073091957835352 -3.474565406155186e-08 -1.0531774920338301e-05 -0.29778593838870859 0.080839423695105106 -1.2734478954521211e-05 -0.29495600754031975 3.6668782975210822e-11 -2.051492112946602e-06 -0.43150406533741226 0.057371072901663205 -1.4826551825294235e-05 -0.47144925552935096 3.666878367644759e-11 -2.0514921129466025e-06 -0.43150406533741226 -3.8189961056350671e-08 -4.8657032609118549e-06 -0.31015159322743602 -4.9116652577488419e-08 1.628034261260042e-05 -0.48926856487680997 0.064266072945439151 4.4811044753305067e-06 -0.42529890259103298 0.12909122955406513 3.7976778523510852e-06 -0.4729256651510314 0.12937193399123145 -5.065407127408053e-06 -0.50020953381929412 0.080839423695105078 -1.2734478954521214e-05 -0.29495600754031959 0.12874875209570555 -6.238645289563373e-07 -0.23610343572375156 0.064266072945439151 4.4811044753305067e-06 -0.42529890259103298 0.12874875209570555 -6.2386452895634238e-07 -0.23610343572375161 0.08083942369510512 -1.2734478954521208e-05 -0.29495600754031964 0.057812424746956421 -2.1041434783131001e-06 -0.21073091957835346 0.080839423695105106 -1.2734478954521211e-05 -0.2949560075403197 0.12874875209570555 -6.238645289563374e-07 -0.23610343572375159 0.12937193399123145 -5.0654071274080504e-06 -0.50020953381929389 0.12876833569164739 -4.1353253346080822e-06 -0.21363762084724852 0.12909122955406513 3.7976778523510852e-06 -0.4729256651510314 0.064266072945439151 4.4811044753305067e-06 -0.42529890259103298 0.08083942369510512 -1.2734478954521221e-05 -0.29495600754031959 0.12937193399123145 -5.0654071274080521e-06 -0.50020953381929401 0.080839423695105106 -1.2734478954521211e-05 -0.2949560075403197 0.064266072945439151 4.4811044753305067e-06 -0.42529890259103298 0.12909122955406513 3.7976778523510835e-06 -0.47292566515103152 0.12874875209570555 -6.2386452895633719e-07 -0.23610343572375161 0.080839423695105106 -1.2734478954521211e-05 -0.2949560075403197 0.12937193399123145 -5.0654071274080521e-06 -0.50020953381929401 0.064266072945439151 4.4811044753305076e-06 -0.42529890259103298 0.057371072901663191 -1.482655182529423e-05 -0.47144925552935091 0.084952952344201207 -1.4181895849736231e-05 -1.5163347626764606e-05 0.080839423695105092 -1.2734478954521213e-05 -0.2949560075403197 0.11786688181884866 1.0258226008378139e-05 -1.1030785721626796e-05 0.12874875209570555 -6.2386452895633719e-07 -0.23610343572375161 0.084952952344201207 -1.4181895849736231e-05 -1.5163347626764606e-05 0.12874875209570555 -6.2386452895633719e-07 -0.23610343572375161 0.08372434571351528 -2.5375650022471252e-06 -1.5902272297152479e-05 0.057812424746956421 -2.1041434783131001e-06 -0.21073091957835346 0.11786688181884866 1.0258226008378137e-05 -1.103078572162502e-05 0.12874875209570555 -6.2386452895633719e-07 -0.23610343572375161 0.080839423695105092 -1.2734478954521211e-05 -0.2949560075403197 0.12876833569164742 -4.1353253346080788e-06 -0.21363762084724849 0.11786688181884866 1.0258226008378137e-05 -1.103078572162502e-05 0.084952952344201207 -1.4181895849736231e-05 -1.5163347626764606e-05 0.081592324251269999 8.6947390953345374e-06 -1.3648462001579912e-05 0.080839423695105106 -1.2734478954521211e-05 -0.2949560075403197 0.043777805896651777 3.532684858102607e-06 -1.3169895490625231e-05 0.080839423695105092 -1.2734478954521209e-05 -0.2949560075403197 0.084952952344201207 -1.4181895849736231e-05 -1.5163347626764606e-05 0.057812424746956421 -2.1041434783131001e-06 -0.21073091957835346 0.081592324251269999 8.6947390953345374e-06 -1.3648462001579912e-05 0.11786688181884866 1.0258226008378137e-05 -1.103078572162502e-05 0.080839423695105092 -1.2734478954521213e-05 -0.2949560075403197 0.12876833569164739 -4.1353253346080839e-06 -0.21363762084724849 0.084952952344201207 -1.4181895849736231e-05 -1.5163347626764606e-05 0.08083942369510512 -1.2734478954521221e-05 -0.2949560075403197 0.12874875209570555 -6.2386452895633719e-07 -0.23610343572375161 0.057812424746956435 -2.104143478313095e-06 -0.21073091957835346 0.084952952344201207 -1.4181895849736231e-05 -1.5163347626764606e-05 0.043777805896651777 3.53268485810261e-06 -1.3169895490621485e-05 0.081592324251269999 8.6947390953345374e-06 -1.3648462001579912e-05 0.080839423695105092 -1.2734478954521211e-05 -0.29495600754031975 0.08372434571351528 -2.5375650022471252e-06 -1.5902272297152479e-05 0.084952952344201207 -1.4181895849736231e-05 -1.5163347626764606e-05 0.13350149685170226 -3.3429412563003587e-06 -1.4064453133893011e-05 0.12874875209570555 -6.2386452895633719e-07 -0.23610343572375161 0.13350149685170226 -3.3429412563003587e-06 -1.4064453133893011e-05 0.084952952344201207 -1.4181895849736231e-05 -1.5163347626764606e-05 0.11786688181884866 1.0258226008378137e-05 -1.103078572162502e-05 0.12874875209570555 -6.2386452895633719e-07 -0.23610343572375161 -3.8073002674986613e-08 1.9929266980613354e-06 -0.15949764800572538 0.03786186597283997 -8.0504575731551637e-07 -1.05110630631928e-05 0.043777805896651777 3.5326848581026074e-06 -1.3169895490622924e-05 0.080839423695105106 -1.2734478954521211e-05 -0.2949560075403197 -3.8073002674986613e-08 1.9929266980613354e-06 -0.15949764800572538 0.080839423695105106 -1.2734478954521214e-05 -0.2949560075403197 0.043777805896651777 3.5326848581026074e-06 -1.3169895490616589e-05 0.057812424746956415 -2.104143478313098e-06 -0.21073091957835346 0.044556306529300323 -3.4298019832111416e-07 -1.4357010347378522e-05 -4.5695849398704267e-08 1.2525884983018898e-06 -0.16231804545959985 0.043777805896651777 3.532684858102607e-06 -1.3169895490625231e-05 0.057812424746956421 -2.1041434783131001e-06 -0.21073091957835346 0.044556306529300323 -3.4298019832111416e-07 -1.4357010347378522e-05 0.043777805896651777 3.532684858102607e-06 -1.3169895490625231e-05 0.084952952344201207 -1.4181895849736231e-05 -1.5163347626764606e-05 0.057812424746956421 -2.1041434783131001e-06 -0.21073091957835346 -3.8073002674986613e-08 1.9929266980613354e-06 -0.15949764800572538 -3.844352163761982e-08 -8.3242799895730985e-06 -1.3127066947643929e-05 -4.7939658911787115e-08 -2.4020510318727944e-06 -1.6756384392796222e-05 0.043777805896651777 3.532684858102607e-06 -1.3169895490625231e-05 -3.8073002674986613e-08 1.9929266980613354e-06 -0.15949764800572538 -4.7939658911787115e-08 -2.4020510318727944e-06 -1.6756384392796222e-05 -4.5695849401353899e-08 1.2525884983018894e-06 -0.16231804545959985 0.043777805896651777 3.532684858102607e-06 -1.3169895490625231e-05 -3.8073002674986613e-08 1.9929266980613354e-06 -0.15949764800572538 0.043777805896651777 3.532684858102607e-06 -1.3169895490625231e-05 -4.5695849398704267e-08 1.2525884983018898e-06 -0.16231804545959985 0.057812424746956408 -2.1041434783130984e-06 -0.21073091957835341 -3.8073002674986613e-08 1.9929266980613354e-06 -0.15949764800572538 -4.5695849398704267e-08 1.2525884983018898e-06 -0.16231804545959985 -3.8189961055237855e-08 -4.8657032609118549e-06 -0.31015159322743602 0.057812424746956408 -2.1041434783131005e-06 -0.21073091957835349 -4.5695849398704267e-08 1.2525884983018898e-06 -0.16231804545959985 -4.7939658914349277e-08 -2.4020510318727939e-06 -1.67563843927823e-05 -4.2477361096136681e-08 3.680860913917142e-06 -1.5640321988746246e-05 0.044556306529300323 -3.4298019832111416e-07 -1.4357010347378522e-05 0.043777805896651777 3.532684858102607e-06 -1.3169895490625231e-05 -4.7939658911787115e-08 -2.4020510318727944e-06 -1.6756384392796222e-05 -4.5695849398704267e-08 1.2525884983018898e-06 -0.16231804545959985 0.044556306529300323 -3.4298019832111416e-07 -1.4357010347378522e-05 -3.3836575964646517e-08 1.3069113028541034e-06 -0.14975217155543175 -2.9111002964017272e-08 -1.046034832002639e-05 -0.30560848163765469 0.057812424746956435 -2.1041434783130963e-06 -0.21073091957835344 0.049861650423346733 -1.3292148652444312e-06 -0.18159614106328698 0.04110403093924736 -7.5737083041558359e-06 -1.3091276988812475e-05 -3.3836575965264871e-08 1.3069113028541034e-06 -0.14975217155543175 0.057812424746956421 -2.1041434783130992e-06 -0.21073091957835349 0.04986165042334674 -1.3292148652444323e-06 -0.181596141063287 -3.3836575964646517e-08 1.3069113028541034e-06 -0.14975217155543175 0.044556306529300323 -3.4298019832111416e-07 -1.4357010347378522e-05 -4.2477361095922798e-08 3.680860913917142e-06 -1.5640321988745467e-05 0.04110403093924736 -7.5737083041558359e-06 -1.3091276988812475e-05 0.08372434571351528 -2.5375650022471252e-06 -1.5902272297152479e-05 0.04110403093924736 -7.5737083041558359e-06 -1.3091276988812475e-05 0.057812424746956428 -2.1041434783130988e-06 -0.21073091957835349 0.04986165042334674 -1.3292148652444323e-06 -0.181596141063287 -4.2477361096136681e-08 3.680860913917142e-06 -1.5640321988746246e-05 -4.5695849398704267e-08 1.2525884983018898e-06 -0.16231804545959985 0.044556306529300323 -3.4298019832111442e-07 -1.4357010347383911e-05 -3.3836575964646517e-08 1.3069113028541034e-06 -0.14975217155543175 -3.3836575964646517e-08 1.3069113028541034e-06 -0.14975217155543175 -4.2477361096136681e-08 3.680860913917142e-06 -1.5640321988746246e-05 -4.3428226044664043e-08 -9.9074926662746063e-06 -1.2729004108464584e-05 0.04110403093924736 -7.5737083041558359e-06 -1.3091276988812475e-05 0.080129226771150072 -1.2463829371720851e-05 -1.4167053161539854e-05 0.041104030939247367 -7.5737083041558376e-06 -1.3091276988808255e-05 0.08372434571351528 -2.5375650022471248e-06 -1.5902272297156724e-05 0.04986165042334674 -1.3292148652444323e-06 -0.181596141063287 0.08372434571351528 -2.5375650022471252e-06 -1.5902272297152479e-05 0.04110403093924736 -7.5737083041558359e-06 -1.3091276988812475e-05 0.044556306529300323 -3.4298019832111416e-07 -1.4357010347378522e-05 0.057812424746956421 -2.1041434783131001e-06 -0.21073091957835346 0.04110403093924736 -7.5737083041558359e-06 -1.3091276988812475e-05 -3.3836575965861619e-08 1.3069113028541036e-06 -0.14975217155543172 0.044556306529300323 -3.4298019832111416e-07 -1.4357010347378522e-05 0.057812424746956421 -2.1041434783131001e-06 -0.21073091957835346 -3.3836575964646517e-08 1.3069113028541034e-06 -0.14975217155543175 -4.2289137651640786e-08 1.2869885999746287e-05 -0.2926724554803275 -2.9111002964017272e-08 -1.046034832002639e-05 -0.30560848163765469 0.049861650423346726 -1.3292148652444297e-06 -0.18159614106328703 -4.5695849398704267e-08 1.2525884983018898e-06 -0.16231804545959985 -3.3836575964646517e-08 1.3069113028541034e-06 -0.14975217155543175 -2.9111002964017272e-08 -1.046034832002639e-05 -0.30560848163765469 0.057812424746956421 -2.1041434783131001e-06 -0.21073091957835346 -4.5695849398704267e-08 1.2525884983018898e-06 -0.16231804545959985 0.04455630652930033 -3.4298019832111447e-07 -1.4357010347382959e-05 -3.3836575964646517e-08 1.3069113028541034e-06 -0.14975217155543175 0.057812424746956421 -2.1041434783131001e-06 -0.21073091957835346 -2.9111002964017272e-08 -1.046034832002639e-05 -0.30560848163765469 0.058397191150758941 1.2730882293083808e-05 -0.45434716105566175 0.092606774487714122 -9.6462985556816242e-07 -0.28352928363939373 0.04986165042334674 -1.3292148652444346e-06 -0.18159614106328695 -2.9111002964017272e-08 -1.046034832002639e-05 -0.30560848163765469 0.064266072945439165 4.4811044753305067e-06 -0.42529890259103292 -3.818996105434984e-08 -4.8657032609118549e-06 -0.31015159322743602 0.057812424746956442 -2.1041434783131009e-06 -0.21073091957835344 -2.9111002964017272e-08 -1.046034832002639e-05 -0.30560848163765469 -4.2289137649308785e-08 1.2869885999746287e-05 -0.2926724554803275 0.058397191150758941 1.2730882293083806e-05 -0.4543471610556617 0.049861650423346733 -1.3292148652444325e-06 -0.18159614106328698 0.092606774487714122 -9.6462985556816242e-07 -0.28352928363939373 0.057812424746956435 -2.1041434783130975e-06 -0.21073091957835341 -2.9111002962046279e-08 -1.0460348320026391e-05 -0.30560848163765475 0.049861650423346733 -1.3292148652444312e-06 -0.18159614106328695 -4.5695849398704267e-08 1.2525884983018898e-06 -0.16231804545959985 -2.911100296376161e-08 -1.046034832002639e-05 -0.30560848163765469 -3.818996105434984e-08 -4.8657032609118549e-06 -0.31015159322743602 0.057812424746956421 -2.1041434783131001e-06 -0.21073091957835346 -2.9111002964017272e-08 -1.046034832002639e-05 -0.30560848163765469 0.064266072945439151 4.4811044753305101e-06 -0.42529890259103303 0.092606774487714122 -9.6462985556816242e-07 -0.28352928363939373 0.058397191150758948 1.2730882293083802e-05 -0.4543471610556617 0.092606774487714122 -9.6462985556816242e-07 -0.28352928363939373 0.064266072945439151 4.4811044753305051e-06 -0.42529890259103298 -2.9111002971874595e-08 -1.0460348320026391e-05 -0.30560848163765475 0.057812424746956442 -2.1041434783130971e-06 -0.21073091957835349 -3.818996105434984e-08 -4.8657032609118549e-06 -0.31015159322743602 -2.9111002967651543e-08 -1.046034832002639e-05 -0.30560848163765469 -4.9116652577488419e-08 1.628034261260042e-05 -0.48926856487680997 0.064266072945439151 4.4811044753305067e-06 -0.42529890259103298 6.287763374905035e-10 2.2343884907774362e-06 -0.43009487473487595 -4.9116652577488419e-08 1.628034261260042e-05 -0.48926856487680997 -2.9111002964017272e-08 -1.046034832002639e-05 -0.30560848163765469 0.064266072945439151 4.4811044753305067e-06 -0.42529890259103298 -6.5958970932172635e-08 4.8376976730674092e-06 -0.56443772738652076 0.064266072945439151 4.4811044753305042e-06 -0.42529890259103303 6.287763374905035e-10 2.2343884907774362e-06 -0.43009487473487595 0.058397191150758948 1.2730882293083804e-05 -0.4543471610556617 -2.9111002964017272e-08 -1.046034832002639e-05 -0.30560848163765469 -4.2289137649308785e-08 1.2869885999746287e-05 -0.2926724554803275 6.2877633260910494e-10 2.2343884907774366e-06 -0.43009487473487595 0.058397191150758948 1.2730882293083804e-05 -0.4543471610556617 6.287763374905035e-10 2.2343884907774362e-06 -0.43009487473487595 0.064266072945439151 4.4811044753305076e-06 -0.42529890259103298 -2.9111002964017272e-08 -1.046034832002639e-05 -0.30560848163765469 0.058397191150758948 1.2730882293083804e-05 -0.4543471610556617 0.043849851961354158 2.8515875071979178e-06 -0.28352515856527455 0.08516852862591609 3.2923367879964842e-06 -0.37389725429856024 0.058397191150758948 1.2730882293083804e-05 -0.4543471610556617 0.04986165042334674 -1.3292148652444323e-06 -0.181596141063287 -4.2289137649308785e-08 1.2869885999746287e-05 -0.2926724554803275 0.043849851961354158 2.8515875071979173e-06 -0.28352515856527455 0.058397191150758948 1.2730882293083804e-05 -0.4543471610556617 0.04986165042334674 -1.3292148652444323e-06 -0.181596141063287 0.044741267980513547 3.1104110679563403e-06 -0.46966042105749017 -4.274702301882537e-08 2.3194568201096744e-05 -0.4784742437222661 -4.2289137648129616e-08 1.2869885999746287e-05 -0.29267245548032744 0.058397191150758948 1.2730882293083802e-05 -0.45434716105566164 6.287763374905035e-10 2.2343884907774362e-06 -0.43009487473487595 -4.2289137649308785e-08 1.2869885999746287e-05 -0.2926724554803275 -4.2747023005083696e-08 2.319456820109674e-05 -0.4784742437222661 0.058397191150758948 1.2730882293083804e-05 -0.4543471610556617 0.044741267980513547 3.1104110679563403e-06 -0.46966042105749017 -2.5865458398960787e-08 3.650917692188023e-06 -0.37685235300517222 -4.2289137645403891e-08 1.2869885999746283e-05 -0.29267245548032744 -4.2747023005083696e-08 2.319456820109674e-05 -0.47847424372226605 -4.2289137649308785e-08 1.2869885999746287e-05 -0.2926724554803275 0.043849851961354158 2.8515875071979178e-06 -0.28352515856527455 -2.5865458398960787e-08 3.650917692188023e-06 -0.37685235300517222 0.044741267980513554 3.1104110679563399e-06 -0.46966042105749023 0.044741267980513547 3.1104110679563403e-06 -0.46966042105749017 -4.2289137656798463e-08 1.286988599974629e-05 -0.29267245548032744 0.043849851961354158 2.8515875071979178e-06 -0.28352515856527455 0.058397191150758934 1.2730882293083804e-05 -0.4543471610556617 0.044741267980513547 3.1104110679563403e-06 -0.46966042105749017 0.043849851961354158 2.8515875071979178e-06 -0.28352515856527455 0.08516852862591609 3.2923367879964842e-06 -0.37389725429856024 0.058397191150758948 1.2730882293083804e-05 -0.4543471610556617 -2.5865458398960787e-08 3.650917692188023e-06 -0.37685235300517222 -3.9588077921319872e-08 2.8606098291940152e-06 -0.1884853289098925 0.043849851961354158 2.8515875071979178e-06 -0.28352515856527455 -4.2289137649308785e-08 1.2869885999746287e-05 -0.2926724554803275 0.043849851961354158 2.8515875071979178e-06 -0.28352515856527455 -3.9588077931304492e-08 2.8606098291940173e-06 -0.18848532890989253 -2.5164056361942821e-08 -3.4315501755997634e-06 -0.13794652028638135 -4.2289137654177101e-08 1.2869885999746287e-05 -0.2926724554803275 0.037883303186999111 2.2892277724106543e-06 -0.13805228138154069 -3.9588077921319872e-08 2.8606098291940152e-06 -0.1884853289098925 -2.5164056347477447e-08 -3.4315501755997689e-06 -0.13794652028638135 0.043849851961354158 2.8515875071979178e-06 -0.28352515856527455 0.051677860179899435 3.229682329482162e-06 -1.4400942063684302e-05 -4.6854004874330111e-08 3.0861861083457874e-06 -1.4420109831368834e-05 0.03782753104001102 -9.3574547275410105e-06 -1.0497919910407065e-05 0.037883303186999111 2.2892277724106543e-06 -0.13805228138154069 -2.5164056347725283e-08 -3.4315501755997689e-06 -0.13794652028638135 -4.6854004873213775e-08 3.0861861083457879e-06 -1.4420109831357663e-05 -3.9588077921319872e-08 2.8606098291940152e-06 -0.1884853289098925 0.037883303186999111 2.2892277724106543e-06 -0.13805228138154069 -2.5164056347725283e-08 -3.4315501755997689e-06 -0.13794652028638135 0.03782753104001102 -9.3574547275410105e-06 -1.0497919910407065e-05 -4.6854004873213775e-08 3.0861861083457879e-06 -1.4420109831357663e-05 0.037883303186999111 2.2892277724106543e-06 -0.13805228138154069 0.03782753104001102 -9.3574547275410105e-06 -1.0497919910407065e-05 -4.6854004877534827e-08 3.0861861083457887e-06 -1.4420109831371815e-05 -4.3428226047485649e-08 -9.9074926662746063e-06 -1.2729004108474863e-05 -2.5164056347725283e-08 -3.4315501755997689e-06 -0.13794652028638135 -2.5164056347725283e-08 -3.4315501755997689e-06 -0.13794652028638135 -3.3836575964646517e-08 1.3069113028541034e-06 -0.14975217155543175 0.041104030939247367 -7.5737083041558351e-06 -1.3091276988818084e-05 0.04986165042334674 -1.3292148652444323e-06 -0.181596141063287 -4.3428226047485649e-08 -9.9074926662746063e-06 -1.2729004108474863e-05 0.04110403093924736 -7.5737083041558359e-06 -1.3091276988812475e-05 0.03782753104001102 -9.3574547275410105e-06 -1.0497919910407065e-05 -2.5164056347725283e-08 -3.4315501755997689e-06 -0.13794652028638135 0.037883303186999111 2.2892277724106543e-06 -0.13805228138154069 -2.5164056348982776e-08 -3.4315501755997693e-06 -0.13794652028638132 0.03782753104001102 -9.3574547275410105e-06 -1.0497919910402747e-05 0.04986165042334674 -1.3292148652444333e-06 -0.18159614106328698 0.04110403093924736 -7.5737083041558359e-06 -1.3091276988812475e-05 -4.3428226047485649e-08 -9.9074926662746063e-06 -1.2729004108474863e-05 -3.3836575964646517e-08 1.3069113028541034e-06 -0.14975217155543175 -2.5164056347725283e-08 -3.4315501755997689e-06 -0.13794652028638135 0.04110403093924736 -7.5737083041558359e-06 -1.3091276988812475e-05 0.03782753104001102 -9.3574547275410105e-06 -1.0497919910395915e-05 -2.5164056347725283e-08 -3.4315501755997689e-06 -0.13794652028638135 0.04986165042334674 -1.3292148652444323e-06 -0.181596141063287 0.043849851961354158 2.8515875071979178e-06 -0.28352515856527455 -4.2289137659777438e-08 1.2869885999746282e-05 -0.2926724554803275 -2.5164056352593602e-08 -3.4315501755997642e-06 -0.13794652028638138 0.04986165042334674 -1.3292148652444323e-06 -0.181596141063287 -2.5164056347725283e-08 -3.4315501755997689e-06 -0.13794652028638135 -4.2289137649308785e-08 1.2869885999746287e-05 -0.2926724554803275 -3.3836575964646517e-08 1.3069113028541034e-06 -0.14975217155543175 0.04986165042334674 -1.3292148652444323e-06 -0.181596141063287 0.037883303186999111 2.2892277724106543e-06 -0.13805228138154069 0.037827531040011034 -9.3574547275410088e-06 -1.0497919910457916e-05 0.080129226771150072 -1.246382937172085e-05 -1.4167053161564504e-05 0.04986165042334674 -1.3292148652444333e-06 -0.18159614106328698 0.04110403093924736 -7.5737083041558359e-06 -1.3091276988812475e-05 0.080129226771150072 -1.2463829371720851e-05 -1.4167053161539854e-05 0.03782753104001102 -9.3574547275410105e-06 -1.0497919910407065e-05 0.04986165042334674 -1.3292148652444323e-06 -0.181596141063287 0.03782753104001102 -9.3574547275410105e-06 -1.0497919910407065e-05 0.080129226771150072 -1.2463829371720851e-05 -1.4167053161539854e-05 0.051677860179899435 3.229682329482162e-06 -1.4400942063684302e-05 0.037883303186999111 2.2892277724106543e-06 -0.13805228138154069 0.081672930123340426 2.9709934542785813e-06 -0.1776795952749059 0.051677860179899442 3.2296823294821667e-06 -1.440094206367282e-05 0.080129226771150072 -1.2463829371720851e-05 -1.4167053161539854e-05 0.037883303186999111 2.2892277724106543e-06 -0.13805228138154069 0.080129226771150072 -1.2463829371720851e-05 -1.4167053161539854e-05 0.081672930123340426 2.9709934542785817e-06 -0.1776795952749059 0.037883303186999097 2.2892277724106517e-06 -0.13805228138154063 0.049861650423346747 -1.3292148652444329e-06 -0.181596141063287 0.081672930123340426 2.9709934542785813e-06 -0.1776795952749059 0.043849851961354158 2.8515875071979178e-06 -0.28352515856527455 0.037883303186999111 2.2892277724106543e-06 -0.13805228138154069 0.04986165042334674 -1.3292148652444323e-06 -0.181596141063287 0.037883303186999111 2.2892277724106543e-06 -0.13805228138154069 0.043849851961354158 2.8515875071979178e-06 -0.28352515856527455 -2.5164056347725283e-08 -3.4315501755997689e-06 -0.13794652028638135 0.04986165042334674 -1.3292148652444323e-06 -0.181596141063287 0.092606774487714122 -9.6462985556816242e-07 -0.28352928363939373 0.04986165042334674 -1.3292148652444327e-06 -0.18159614106328695 0.081672930123340426 2.9709934542785813e-06 -0.1776795952749059 0.13595186950202529 -5.7695445088652825e-08 -0.19709487659250102 0.080129226771150072 -1.2463829371720851e-05 -1.4167053161539854e-05 0.04986165042334674 -1.3292148652444323e-06 -0.181596141063287 0.092606774487714136 -9.6462985556817343e-07 -0.28352928363939373 0.13595186950202529 -5.769544508865127e-08 -0.19709487659250105 0.080129226771150072 -1.2463829371720851e-05 -1.4167053161539854e-05 0.081672930123340426 2.9709934542785792e-06 -0.17767959527490584 0.04986165042334674 -1.3292148652444329e-06 -0.181596141063287 0.13595186950202529 -5.7695445088650198e-08 -0.19709487659250105 0.080129226771150072 -1.2463829371720851e-05 -1.4167053161539854e-05 0.1030364546161241 3.7664083790827713e-06 -1.6774587983842515e-05 0.051677860179899435 3.229682329482162e-06 -1.4400942063684302e-05 0.081672930123340426 2.9709934542785813e-06 -0.1776795952749059 0.080129226771150072 -1.2463829371720851e-05 -1.4167053161539854e-05 0.13053710766193052 5.1730558820647314e-06 -1.3728385401235121e-05 0.081672930123340426 2.9709934542785813e-06 -0.1776795952749059 0.13595186950202529 -5.7695445088658715e-08 -0.19709487659250108 0.11746803677876121 -7.3392195161095392e-06 -1.0793404670949041e-05 0.13053710766193052 5.1730558820647382e-06 -1.3728385401206582e-05 0.080129226771150072 -1.2463829371720851e-05 -1.4167053161535914e-05 0.13595186950202529 -5.7695445088651634e-08 -0.19709487659250099 0.13133224166528762 2.7476402112531926e-06 -0.1548817851186752 0.081672930123340426 2.9709934542785813e-06 -0.1776795952749059 0.1030364546161241 3.7664083790827709e-06 -1.6774587983812212e-05 0.13053710766193052 5.1730558820647382e-06 -1.3728385401206582e-05 0.081672930123340426 2.9709934542785813e-06 -0.1776795952749059 0.080129226771150072 -1.2463829371720851e-05 -1.4167053161580293e-05 0.1030364546161241 3.7664083790827713e-06 -1.6774587983842515e-05 0.13053710766193052 5.1730558820647382e-06 -1.3728385401206582e-05 0.13133224166528762 2.7476402112531926e-06 -0.1548817851186752 0.11803089033877846 2.2325813183767143e-06 -0.29336909099600467 0.081672930123340426 2.9709934542785813e-06 -0.1776795952749059 0.13595186950202529 -5.7695445088652428e-08 -0.19709487659250102 0.13133224166528762 2.7476402112531926e-06 -0.1548817851186752 0.081672930123340426 2.9709934542785813e-06 -0.1776795952749059 0.13053710766193055 5.1730558820647382e-06 -1.3728385401213094e-05 0.13595186950202529 -5.769544508865178e-08 -0.19709487659250099 0.08516852862591609 3.2923367879964842e-06 -0.37389725429856024 0.092606774487714122 -9.6462985556815966e-07 -0.28352928363939378 0.12911591773707243 -4.6282717396583939e-06 -0.50095030267349927 0.058397191150758948 1.2730882293083804e-05 -0.4543471610556617 0.092606774487714122 -9.6462985556816242e-07 -0.28352928363939373 0.058397191150758948 1.2730882293083804e-05 -0.4543471610556617 0.08516852862591609 3.2923367879964842e-06 -0.37389725429856024 0.049861650423346733 -1.3292148652444325e-06 -0.18159614106328695 0.081672930123340426 2.9709934542785813e-06 -0.1776795952749059 0.11803089033877845 2.2325813183767139e-06 -0.29336909099600467 0.08516852862591609 3.2923367879964842e-06 -0.37389725429856024 0.092606774487714108 -9.6462985556816369e-07 -0.28352928363939373 0.11803089033877845 2.2325813183767139e-06 -0.29336909099600467 0.092606774487714094 -9.6462985556816263e-07 -0.28352928363939378 0.081672930123340426 2.9709934542785813e-06 -0.1776795952749059 0.13595186950202529 -5.7695445088652772e-08 -0.19709487659250102 0.081672930123340426 2.9709934542785813e-06 -0.1776795952749059 0.09260677448771415 -9.6462985556816284e-07 -0.28352928363939373 0.085168528625916104 3.2923367879964842e-06 -0.37389725429856024 0.04986165042334674 -1.3292148652444323e-06 -0.181596141063287 0.11803089033877845 2.2325813183767139e-06 -0.29336909099600467 0.12911591773707237 -4.628271739658388e-06 -0.50095030267349927 0.092606774487714122 -9.6462985556816369e-07 -0.28352928363939378 0.13595186950202529 -5.7695445088652772e-08 -0.19709487659250102 0.11803089033877845 2.2325813183767139e-06 -0.29336909099600467 0.08516852862591609 3.2923367879964842e-06 -0.37389725429856024 0.092606774487714122 -9.6462985556816369e-07 -0.28352928363939373 0.1291159177370724 -4.6282717396583888e-06 -0.50095030267349905 0.081672930123340426 2.9709934542785813e-06 -0.1776795952749059 0.08516852862591609 3.2923367879964842e-06 -0.37389725429856024 0.043849851961354158 2.8515875071979178e-06 -0.28352515856527455 0.04986165042334674 -1.3292148652444323e-06 -0.181596141063287 0.08516852862591609 3.2923367879964842e-06 -0.37389725429856024 0.084366950085545706 3.4272861962302148e-06 -0.56640258922537812 0.044741267980513547 3.1104110679563403e-06 -0.46966042105749017 0.058397191150758948 1.2730882293083804e-05 -0.4543471610556617 0.11803089033877845 2.2325813183767139e-06 -0.29336909099600467 0.13397691805731657 2.9123918118377146e-06 -0.47306304001404931 0.08516852862591609 3.2923367879964842e-06 -0.37389725429856024 0.1291159177370724 -4.6282717396583888e-06 -0.50095030267349916 0.064266072945439151 4.4811044753305067e-06 -0.42529890259103298 0.12911591773707237 -4.6282717396583872e-06 -0.50095030267349905 0.092606774487714122 -9.6462985556816051e-07 -0.28352928363939373 0.058397191150758955 1.2730882293083801e-05 -0.45434716105566164 0.092606774487714122 -9.6462985556816242e-07 -0.28352928363939373 0.12909122955406513 3.797677852351086e-06 -0.47292566515103146 0.064266072945439151 4.4811044753305067e-06 -0.42529890259103298 0.12874875209570552 -6.2386452895633751e-07 -0.23610343572375153 0.092606774487714122 -9.6462985556816242e-07 -0.28352928363939373 0.064266072945439151 4.4811044753305067e-06 -0.42529890259103298 0.12909122955406513 3.7976778523510856e-06 -0.47292566515103135 0.1291159177370724 -4.6282717396583897e-06 -0.50095030267349916 0.092606774487714122 -9.6462985556816242e-07 -0.28352928363939373 0.12874875209570555 -6.2386452895633719e-07 -0.23610343572375161 0.064266072945439137 4.4811044753305067e-06 -0.42529890259103292 0.057812424746956421 -2.1041434783131001e-06 -0.21073091957835346 0.092606774487714122 -9.6462985556816242e-07 -0.28352928363939373 0.08372434571351528 -2.5375650022471252e-06 -1.5902272297152479e-05 0.12874875209570555 -6.2386452895633719e-07 -0.23610343572375161 0.057812424746956421 -2.1041434783131001e-06 -0.21073091957835346 0.080129226771150072 -1.2463829371720851e-05 -1.4167053161539854e-05 0.08372434571351528 -2.5375650022471252e-06 -1.5902272297152479e-05 0.11746803677876121 -7.3392195161095392e-06 -1.0793404670949041e-05 0.092606774487714122 -9.6462985556816199e-07 -0.28352928363939378 0.08372434571351528 -2.5375650022471252e-06 -1.5902272297152479e-05 0.057812424746956442 -2.1041434783130997e-06 -0.21073091957835346 0.092606774487714122 -9.6462985556816242e-07 -0.28352928363939378 0.04986165042334674 -1.3292148652444323e-06 -0.181596141063287 0.08372434571351528 -2.5375650022471252e-06 -1.5902272297152479e-05 0.11746803677876121 -7.3392195161095392e-06 -1.0793404670953359e-05 0.092606774487714122 -9.6462985556816284e-07 -0.28352928363939373 0.12874875209570555 -6.2386452895633719e-07 -0.23610343572375161 0.080129226771150072 -1.2463829371720851e-05 -1.4167053161539854e-05 0.08372434571351528 -2.5375650022471252e-06 -1.5902272297152479e-05 0.092606774487714122 -9.6462985556816348e-07 -0.28352928363939373 0.04986165042334674 -1.3292148652444323e-06 -0.181596141063287 0.11746803677876121 -7.3392195161095392e-06 -1.0793404670949041e-05 0.080129226771150072 -1.2463829371720851e-05 -1.4167053161540322e-05 0.092606774487714122 -9.6462985556816242e-07 -0.28352928363939373 0.13595186950202529 -5.7695445088653077e-08 -0.19709487659250102 0.092606774487714122 -9.6462985556816242e-07 -0.28352928363939373 0.12874875209570555 -6.2386452895633719e-07 -0.23610343572375161 0.11746803677876121 -7.3392195161095392e-06 -1.0793404670949041e-05 0.13595186950202529 -5.7695445088652772e-08 -0.19709487659250102 0.044556306529300323 -3.4298019832111416e-07 -1.4357010347378522e-05 0.084952952344201207 -1.4181895849736231e-05 -1.5163347626764606e-05 0.08372434571351528 -2.5375650022471252e-06 -1.5902272297152479e-05 0.057812424746956421 -2.1041434783131001e-06 -0.21073091957835346 0.08372434571351528 -2.5375650022471252e-06 -1.5902272297152479e-05 0.13350149685170226 -3.3429412563003587e-06 -1.4064453133893011e-05 0.11746803677876121 -7.3392195161095392e-06 -1.0793404670949041e-05 0.12874875209570555 -6.2386452895633719e-07 -0.23610343572375161 0.18533747868337155 1.4920613414638059e-05 -9.0182520644389124e-06 0.17523655194701226 -1.1198596741152631e-06 -0.2949441438963506 0.15357303880682471 -2.4798035858003276e-07 -1.0680156985639639e-05 0.1979290539292215 2.4743292785576453e-06 -0.20679780320885055 0.17523655194701226 -1.1198596741152514e-06 -0.2949441438963506 0.12874875209570555 -6.238645289563373e-07 -0.23610343572375164 0.15357303880682471 -2.4798035858003244e-07 -1.068015698563206e-05 0.19792905392922147 2.4743292785576351e-06 -0.20679780320885052 0.15357303880682471 -2.4798035858003276e-07 -1.0680156985639639e-05 0.11746803677876121 -7.3392195161095392e-06 -1.0793404670956404e-05 0.12874875209570555 -6.2386452895633656e-07 -0.23610343572375164 0.13595186950202529 -5.7695445088651568e-08 -0.19709487659250108 0.13350149685170226 -3.3429412563003587e-06 -1.4064453133893011e-05 0.17201601562692584 -1.0266971898262263e-05 -1.1086706073143953e-05 0.15357303880682471 -2.4798035858003276e-07 -1.0680156985639639e-05 0.12874875209570555 -6.2386452895633719e-07 -0.23610343572375161 0.15357303880682471 -2.4798035858003276e-07 -1.0680156985639639e-05 0.12874875209570552 -6.2386452895633687e-07 -0.23610343572375161 0.17523655194701226 -1.1198596741152516e-06 -0.2949441438963506 0.13595186950202523 -5.769544508865223e-08 -0.19709487659250105 0.15357303880682471 -2.4798035858003276e-07 -1.0680156985639639e-05 0.12874875209570555 -6.2386452895633889e-07 -0.23610343572375161 0.17201601562692584 -1.0266971898262263e-05 -1.1086706073143953e-05 0.19792905392922147 2.4743292785576322e-06 -0.20679780320885052 0.15357303880682471 -2.4798035858003276e-07 -1.0680156985639639e-05 0.13595186950202526 -5.7695445088632827e-08 -0.19709487659250099 0.17523655194701224 -1.1198596741152516e-06 -0.2949441438963506 0.20734755262559285 3.1113944524748662e-05 -0.17560225067385629 0.15357303880682471 -2.4798035858003276e-07 -1.0680156985639639e-05 0.11746803677876121 -7.3392195161095392e-06 -1.0793404670955614e-05 0.13350149685170226 -3.3429412563003587e-06 -1.4064453133893011e-05 0.12874875209570555 -6.2386452895633719e-07 -0.23610343572375161 0.15357303880682471 -2.4798035858003276e-07 -1.0680156985639639e-05 0.17523655194701226 -1.1198596741152514e-06 -0.2949441438963506 0.18533747868337155 1.4920613414638059e-05 -9.0182520644389124e-06 0.20734755262559285 3.1113944524748655e-05 -0.17560225067385629 0.11746803677876121 -7.3392195161095392e-06 -1.0793404670949041e-05 0.15357303880682471 -2.4798035858003255e-07 -1.0680156985638189e-05 0.13053710766193052 5.1730558820647391e-06 -1.3728385401222344e-05 0.13595186950202529 -5.7695445088651217e-08 -0.19709487659250099 0.15357303880682471 -2.4798035858003276e-07 -1.0680156985639639e-05 0.18533747868337155 1.492061341463806e-05 -9.0182520644340911e-06 0.17997751939003573 4.4636633256558381e-05 -1.3751061964483274e-05 0.20734755262559285 3.1113944524748655e-05 -0.17560225067385629 0.18533747868337155 1.4920613414638059e-05 -9.0182520644389124e-06 0.15357303880682471 -2.4798035858003287e-07 -1.0680156985639385e-05 0.17201601562692584 -1.0266971898262263e-05 -1.1086706073136387e-05 0.19792905392922147 2.4743292785576351e-06 -0.20679780320885052 0.17523655194701226 -1.1198596741152514e-06 -0.2949441438963506 0.12874875209570558 -6.2386452895633624e-07 -0.23610343572375156 0.092606774487714122 -9.6462985556816242e-07 -0.28352928363939373 0.13595186950202526 -5.7695445088653103e-08 -0.19709487659250102 0.17523655194701226 -1.1198596741152514e-06 -0.2949441438963506 0.092606774487714094 -9.6462985556816136e-07 -0.28352928363939367 0.12909122955406513 3.7976778523510852e-06 -0.4729256651510314 0.1291159177370724 -4.6282717396583888e-06 -0.50095030267349916 0.12909122955406513 3.7976778523510852e-06 -0.4729256651510314 0.092606774487714122 -9.6462985556816178e-07 -0.28352928363939378 0.17523655194701226 -1.1198596741152514e-06 -0.2949441438963506 0.12874875209570558 -6.2386452895633719e-07 -0.23610343572375164 0.12909122955406513 3.7976778523510852e-06 -0.4729256651510314 0.17523655194701226 -1.1198596741152514e-06 -0.2949441438963506 0.1920420214727378 -5.9450005435523e-06 -0.47327149783805872 0.12874875209570558 -6.2386452895633963e-07 -0.23610343572375164 0.17523655194701226 -1.1198596741152514e-06 -0.2949441438963506 0.1291159177370724 -4.6282717396583888e-06 -0.50095030267349916 0.1920420214727378 -5.9450005435523e-06 -0.47327149783805872 0.19757852726717023 1.6773952880283684e-05 -0.47328777972513886 0.1920420214727378 -5.9450005435523e-06 -0.47327149783805872 0.12874875209570555 -6.2386452895634005e-07 -0.23610343572375173 0.17523655194701226 -1.1198596741152506e-06 -0.29494414389635054 0.1979290539292215 2.4743292785576355e-06 -0.20679780320885052 0.092606774487714122 -9.6462985556816242e-07 -0.28352928363939373 0.1291159177370724 -4.6282717396583888e-06 -0.50095030267349916 0.17523655194701226 -1.1198596741152514e-06 -0.2949441438963506 0.13595186950202529 -5.7695445088652825e-08 -0.19709487659250102 0.12909122955406513 3.7976778523510852e-06 -0.4729256651510314 0.1920420214727378 -5.9450005435523025e-06 -0.47327149783805877 0.17523655194701226 -1.1198596741152514e-06 -0.2949441438963506 0.1291159177370724 -4.6282717396583888e-06 -0.50095030267349916 0.17523655194701226 -1.1198596741152514e-06 -0.2949441438963506 0.13595186950202529 -5.7695445088652891e-08 -0.19709487659250102 0.15666553578238893 3.0542871394270526e-06 -0.3138722698806794 0.20734755262559285 3.1113944524748655e-05 -0.17560225067385629 0.15666553578238893 3.0542871394270526e-06 -0.3138722698806794 0.1291159177370724 -4.628271739658388e-06 -0.50095030267349905 0.17523655194701226 -1.1198596741152514e-06 -0.2949441438963506 0.19757852726717023 1.6773952880283684e-05 -0.47328777972513886 0.15666553578238893 3.0542871394270526e-06 -0.3138722698806794 0.17512381236317109 3.3329596003925715e-06 -0.49620008725643094 0.12911591773707243 -4.6282717396583821e-06 -0.50095030267349905 0.19757852726717023 1.6773952880283684e-05 -0.47328777972513886 0.21041926202494135 3.2664297656826023e-06 -0.29848885311885537 0.17523655194701224 -1.1198596741152555e-06 -0.2949441438963506 0.15666553578238893 3.0542871394270445e-06 -0.3138722698806794 0.20734755262559287 3.1113944524748621e-05 -0.17560225067385643 0.11803089033877845 2.2325813183767139e-06 -0.29336909099600467 0.15666553578238893 3.0542871394270526e-06 -0.3138722698806794 0.1291159177370724 -4.6282717396583888e-06 -0.50095030267349916 0.13595186950202529 -5.7695445088652772e-08 -0.19709487659250102 0.15666553578238893 3.0542871394270526e-06 -0.3138722698806794 0.17523655194701229 -1.1198596741152453e-06 -0.29494414389635065 0.21041926202494135 3.2664297656826023e-06 -0.29848885311885537 0.19757852726717023 1.6773952880283684e-05 -0.47328777972513886 0.17523655194701226 -1.1198596741152514e-06 -0.2949441438963506 0.1291159177370724 -4.6282717396583888e-06 -0.50095030267349916 0.15666553578238893 3.0542871394270526e-06 -0.3138722698806794 0.13595186950202529 -5.7695445088652852e-08 -0.19709487659250105 0.15666553578238893 3.0542871394270526e-06 -0.3138722698806794 0.17512381236317109 3.3329596003925723e-06 -0.49620008725643094 0.13397691805731657 2.9123918118377138e-06 -0.47306304001404931 0.1291159177370724 -4.6282717396583888e-06 -0.50095030267349916 0.13397691805731657 2.9123918118377146e-06 -0.47306304001404931 0.11803089033877845 2.2325813183767139e-06 -0.29336909099600467 0.15666553578238893 3.0542871394270526e-06 -0.3138722698806794 0.1291159177370724 -4.6282717396583905e-06 -0.50095030267349916 0.17512381236317109 3.3329596003925723e-06 -0.49620008725643094 0.1566655357823889 3.0542871394270526e-06 -0.3138722698806794 0.21041926202494135 3.2664297656826023e-06 -0.29848885311885537 0.19757852726717023 1.6773952880283684e-05 -0.47328777972513886 0.13133224166528762 2.7476402112531926e-06 -0.1548817851186752 0.15666553578238893 3.0542871394270526e-06 -0.3138722698806794 0.11803089033877845 2.2325813183767139e-06 -0.29336909099600467 0.13595186950202529 -5.7695445088652316e-08 -0.19709487659250102 0.13133224166528762 2.7476402112531926e-06 -0.1548817851186752 0.17873616974991008 2.7274647812754824e-06 -0.16063273653254256 0.15666553578238893 3.0542871394270526e-06 -0.3138722698806794 0.13595186950202529 -5.7695445088652375e-08 -0.19709487659250102 0.17873616974991008 2.7274647812754824e-06 -0.16063273653254256 0.15666553578238893 3.0542871394270526e-06 -0.3138722698806794 0.13595186950202529 -5.7695445088647412e-08 -0.19709487659250105 0.20734755262559285 3.1113944524748641e-05 -0.17560225067385626 0.17873616974991008 2.7274647812754824e-06 -0.16063273653254256 0.13595186950202531 -5.7695445088651707e-08 -0.19709487659250102 0.17997751939003573 4.4636633256558388e-05 -1.3751061964484904e-05 0.20734755262559285 3.1113944524748655e-05 -0.17560225067385621 0.17873616974991008 2.7274647812754824e-06 -0.16063273653254256 0.13133224166528762 2.7476402112531926e-06 -0.1548817851186752 0.13053710766193052 5.1730558820647408e-06 -1.3728385401136814e-05 0.13595186950202529 -5.7695445088651025e-08 -0.19709487659250097 0.15357303880682471 -2.4798035858003276e-07 -1.0680156985639639e-05 0.17997751939003573 4.4636633256558381e-05 -1.3751061964483274e-05 0.13595186950202529 -5.7695445088652732e-08 -0.19709487659250108 0.20734755262559285 3.1113944524748648e-05 -0.17560225067385632 0.15370135860888509 3.2810596742279915e-06 -1.7431085775210204e-05 0.17873616974991008 2.7274647812754824e-06 -0.16063273653254256 0.13133224166528762 2.7476402112531926e-06 -0.1548817851186752 0.13053710766193052 5.1730558820647382e-06 -1.3728385401206582e-05 0.13133224166528762 2.7476402112531926e-06 -0.1548817851186752 0.1030364546161241 3.7664083790827717e-06 -1.6774587983857179e-05 0.15370135860888509 3.2810596742279915e-06 -1.7431085775210204e-05 0.13053710766193052 5.1730558820647382e-06 -1.3728385401206582e-05 0.13053710766193052 5.1730558820647382e-06 -1.3728385401206582e-05 0.15357303880682471 -2.4798035858002752e-07 -1.0680156985639895e-05 0.17997751939003573 4.4636633256558381e-05 -1.3751061964483274e-05 0.13595186950202529 -5.7695445088652772e-08 -0.19709487659250102 0.17873616974991008 2.7274647812754824e-06 -0.16063273653254256 0.13053710766193052 5.1730558820647255e-06 -1.3728385401139499e-05 0.17997751939003573 4.4636633256558381e-05 -1.3751061964457873e-05 0.13595186950202529 -5.7695445088664829e-08 -0.19709487659250097 0.15370135860888509 3.2810596742279915e-06 -1.7431085775210204e-05 0.20334762196970596 2.7381824713698581e-06 -1.4237944020387692e-05 0.17873616974991008 2.7274647812754824e-06 -0.16063273653254256 0.17997751939003573 4.4636633256558381e-05 -1.3751061964483274e-05 0.13053710766193052 5.1730558820647382e-06 -1.3728385401206582e-05 0.15370135860888509 3.2810596742279915e-06 -1.7431085775210204e-05 0.17873616974991008 2.727464781275468e-06 -0.16063273653254267 0.17997751939003573 4.4636633256558381e-05 -1.3751061964483274e-05 0.17873616974991008 2.7274647812754824e-06 -0.16063273653254256 0.21041926202494135 3.2664297656826023e-06 -0.29848885311885537 0.15666553578238893 3.0542871394270526e-06 -0.3138722698806794 0.20734755262559287 3.1113944524748641e-05 -0.17560225067385632 0.21041926202494135 3.2664297656826023e-06 -0.29848885311885537 0.17873616974991008 2.7274647812754824e-06 -0.16063273653254256 0.21648173976243829 1.9950488374751715e-06 -0.13916275133291778 0.20734755262559285 3.1113944524748641e-05 -0.17560225067385626 0.17873616974991008 2.7274647812754824e-06 -0.16063273653254256 0.2164350642227261 2.1979933284777227e-05 -9.6839128687103161e-06 0.21648173976243829 1.9950488374751702e-06 -0.13916275133291778 0.20734755262559285 3.1113944524748648e-05 -0.17560225067385621 0.21648173976243829 1.9950488374751702e-06 -0.13916275133291778 0.25182605801650138 -8.7523579762573293e-07 -0.13943457707962656 0.21041926202494135 3.2664297656826023e-06 -0.29848885311885537 0.20734755262559285 3.1113944524748662e-05 -0.17560225067385626 0.2164350642227261 2.1979933284777223e-05 -9.6839128686715864e-06 0.21648173976243829 1.9950488374751702e-06 -0.13916275133291778 0.20334762196970596 2.7381824713698581e-06 -1.4237944020387692e-05 0.17873616974991008 2.7274647812754824e-06 -0.16063273653254256 0.17873616974991008 2.7274647812754824e-06 -0.16063273653254256 0.20334762196970599 2.7381824713698539e-06 -1.4237944020386782e-05 0.2164350642227261 2.1979933284777223e-05 -9.6839128686715864e-06 0.17997751939003573 4.4636633256558381e-05 -1.3751061964483274e-05 0.2164350642227261 2.1979933284777223e-05 -9.6839128686715864e-06 0.17997751939003573 4.4636633256558381e-05 -1.3751061964485183e-05 0.21592458988691157 3.8924988823347952e-05 -1.0921651036718302e-05 0.20734755262559285 3.1113944524748655e-05 -0.17560225067385626 0.17873616974991008 2.7274647812754824e-06 -0.16063273653254256 0.17997751939003576 4.4636633256558381e-05 -1.3751061964540364e-05 0.2164350642227261 2.1979933284777227e-05 -9.6839128686926741e-06 0.20734755262559285 3.1113944524748655e-05 -0.17560225067385621 0.25182605801650138 -8.7523579762573611e-07 -0.13943457707962653 0.25184192073773493 -1.2733062487590052e-05 -0.15137912079153604 0.25219511454915411 -5.6812930257385464e-05 -0.29593677406857655 0.20734755262559285 3.1113944524748655e-05 -0.17560225067385629 0.21041926202494135 3.2664297656826023e-06 -0.29848885311885537 0.25182605801650138 -8.7523579762574426e-07 -0.13943457707962653 0.25219511454915411 -5.6812930257385464e-05 -0.29593677406857655 0.20734755262559287 3.1113944524748641e-05 -0.17560225067385632 0.25182605801650138 -8.7523579762573611e-07 -0.13943457707962653 0.2164350642227261 2.1979933284777223e-05 -9.6839128686715864e-06 0.25170619877192207 -1.4414896893882006e-05 -1.2654714214708704e-05 0.20734755262559285 3.1113944524748655e-05 -0.17560225067385629 0.25170619877192207 -1.4414896893882006e-05 -1.2654714214708704e-05 0.2073475526255929 3.1113944524748635e-05 -0.17560225067385626 0.25184192073773493 -1.2733062487590052e-05 -0.15137912079153604 0.25182605801650138 -8.7523579762573611e-07 -0.13943457707962653 0.2164350642227261 2.1979933284777223e-05 -9.6839128686715864e-06 0.25182605801650138 -8.7523579762573844e-07 -0.13943457707962656 0.21648173976243829 1.9950488374751672e-06 -0.13916275133291778 0.20734755262559285 3.1113944524748648e-05 -0.17560225067385626 0.2164350642227261 2.1979933284777223e-05 -9.6839128686715864e-06 0.2159245898869116 3.8924988823347952e-05 -1.0921651036709387e-05 0.25170619877192207 -1.4414896893882006e-05 -1.2654714214704245e-05 0.20734755262559285 3.1113944524748655e-05 -0.17560225067385626 0.25182605801650138 -8.7523579762573611e-07 -0.13943457707962653 0.21648173976243829 1.9950488374751677e-06 -0.13916275133291778 0.25169606572335196 2.9248970148349933e-06 -1.4615274012210916e-05 0.2164350642227261 2.1979933284777223e-05 -9.6839128686715864e-06 0.2517136385756224 2.7273642724591401e-06 -0.19037761990928279 0.21648173976243829 1.9950488374751702e-06 -0.13916275133291778 0.25169606572335196 2.9248970148349933e-06 -1.4615274012210916e-05 0.25182605801650138 -8.7523579762573611e-07 -0.13943457707962653 0.25169606572335196 2.9248970148349933e-06 -1.4615274012210916e-05 0.25182605801650138 -8.7523579762573611e-07 -0.13943457707962653 0.2164350642227261 2.1979933284777223e-05 -9.6839128686715864e-06 0.25170619877192207 -1.4414896893882006e-05 -1.2654714214708704e-05 0.20334762196970596 2.7381824713698581e-06 -1.4237944020387692e-05 0.25169606572335196 2.9248970148349933e-06 -1.4615274012210916e-05 0.21648173976243829 1.9950488374751702e-06 -0.13916275133291778 0.2164350642227261 2.1979933284777223e-05 -9.6839128686715864e-06 0.21041926202494135 3.2664297656826023e-06 -0.29848885311885537 0.21648173976243829 1.9950488374751702e-06 -0.13916275133291778 0.2517136385756224 2.7273642724591401e-06 -0.19037761990928279 0.25182605801650138 -8.7523579762573611e-07 -0.13943457707962653 0.2517136385756224 2.7273642724591401e-06 -0.19037761990928279 0.25219511454915411 -5.6812930257385464e-05 -0.29593677406857655 0.21041926202494132 3.2664297656826061e-06 -0.29848885311885531 0.25182605801650138 -8.7523579762573611e-07 -0.13943457707962653 0.25220431202607674 2.5579447899486543e-06 -0.38094616427076494 0.25219511454915411 -5.6812930257385464e-05 -0.29593677406857655 0.21041926202494135 3.2664297656826032e-06 -0.29848885311885531 0.2517136385756224 2.7273642724591401e-06 -0.19037761990928279 0.21041926202494135 3.2664297656826023e-06 -0.29848885311885537 0.19757852726717023 1.6773952880283698e-05 -0.47328777972513886 0.17523655194701226 -1.1198596741152514e-06 -0.2949441438963506 0.20734755262559282 3.1113944524748601e-05 -0.17560225067385629 0.25219511454915411 -5.6812930257385464e-05 -0.29593677406857655 0.19757852726717023 1.6773952880283677e-05 -0.47328777972513886 0.21041926202494135 3.2664297656826023e-06 -0.29848885311885537 0.20734755262559282 3.1113944524748675e-05 -0.17560225067385621 0.25219511454915411 -5.6812930257385464e-05 -0.29593677406857655 0.17523655194701229 -1.1198596741153838e-06 -0.29494414389635054 0.19757852726717026 1.677395288028363e-05 -0.47328777972513891 0.20734755262559285 3.1113944524748628e-05 -0.17560225067385626 0.25219511454915411 -5.6812930257385464e-05 -0.29593677406857655 0.22072584070655143 2.6430901984100859e-06 -0.48140832682577461 0.21041926202494135 3.2664297656826027e-06 -0.29848885311885537 0.19757852726717023 1.6773952880283684e-05 -0.47328777972513886 0.17512381236317109 3.3329596003925723e-06 -0.49620008725643094 0.21041926202494135 3.2664297656826023e-06 -0.29848885311885537 0.22072584070655141 2.6430901984101083e-06 -0.48140832682577456 0.19757852726717023 1.6773952880283684e-05 -0.47328777972513886 0.22072584070655141 2.6430901984101083e-06 -0.48140832682577456 0.25220431202607674 2.5579447899486607e-06 -0.38094616427076494 0.25219511454915411 -5.6812930257385464e-05 -0.29593677406857655 0.21041926202494135 3.2664297656826023e-06 -0.29848885311885537 0.25220431202607674 2.5579447899486543e-06 -0.38094616427076494 0.25267637923709441 -4.3530401788601811e-05 -0.48413236742277815 0.22072584070655141 2.6430901984101083e-06 -0.48140832682577456 0.25219511454915411 -5.6812930257385464e-05 -0.29593677406857655 0.25219511454915411 -5.6812930257385464e-05 -0.29593677406857655 0.25267637923709441 -4.3530401788601811e-05 -0.48413236742277815 0.22072584070655141 2.6430901984101083e-06 -0.48140832682577456 0.19757852726717023 1.6773952880283684e-05 -0.47328777972513886 0.25219511454915411 -5.6812930257385464e-05 -0.29593677406857655 0.25257710464980671 3.0366903509858317e-05 -0.43649508382266533 0.25267637923709441 -4.3530401788601811e-05 -0.48413236742277815 0.19757852726717023 1.6773952880283684e-05 -0.47328777972513886 0.25216834839257918 1.6059299972235653e-05 -0.3136198795187341 0.1920420214727378 -5.9450005435523008e-06 -0.47327149783805866 0.25216016559999815 3.1140474581794928e-06 -0.30901495743532531 0.19792905392922147 2.4743292785576351e-06 -0.20679780320885052 0.25257710464980671 3.03669035098583e-05 -0.43649508382266528 0.17523655194701226 -1.1198596741152514e-06 -0.2949441438963506 0.25216016559999815 3.1140474581794928e-06 -0.30901495743532531 0.1920420214727378 -5.9450005435523e-06 -0.47327149783805872 0.25219511454915411 -5.6812930257385464e-05 -0.29593677406857655 0.17523655194701226 -1.1198596741152383e-06 -0.29494414389635054 0.25257710464980671 3.0366903509858296e-05 -0.43649508382266528 0.19757852726717023 1.6773952880283684e-05 -0.47328777972513886 0.25257710464980671 3.03669035098583e-05 -0.43649508382266528 0.17523655194701226 -1.1198596741152514e-06 -0.2949441438963506 0.19204202147273783 -5.9450005435522966e-06 -0.47327149783805877 0.19757852726717018 1.6773952880283677e-05 -0.47328777972513886 0.25257710464980671 3.03669035098583e-05 -0.43649508382266528 0.25219511454915411 -5.6812930257385464e-05 -0.29593677406857655 0.25216016559999815 3.1140474581794932e-06 -0.30901495743532531 0.17523655194701226 -1.1198596741152514e-06 -0.2949441438963506 0.17523655194701226 -1.1198596741152514e-06 -0.2949441438963506 0.25216016559999815 3.1140474581794932e-06 -0.30901495743532531 0.1920420214727378 -5.9450005435523e-06 -0.47327149783805872 0.19792905392922147 2.4743292785576355e-06 -0.20679780320885049 0.25219511454915411 -5.6812930257385464e-05 -0.29593677406857655 0.25216016559999815 3.1140474581794962e-06 -0.30901495743532531 0.17523655194701224 -1.1198596741152794e-06 -0.29494414389635065 0.20734755262559285 3.1113944524748655e-05 -0.17560225067385629 0.25216016559999815 3.1140474581794932e-06 -0.30901495743532531 0.19792905392922147 2.4743292785576351e-06 -0.20679780320885052 0.17523655194701229 -1.1198596741152656e-06 -0.29494414389635071 0.20734755262559285 3.1113944524748641e-05 -0.17560225067385632 0.25260387809370283 2.2284773777010682e-05 -0.49511670020985776 0.25257710464980671 3.03669035098583e-05 -0.43649508382266528 0.25216016559999815 3.1140474581794932e-06 -0.30901495743532531 0.1920420214727378 -5.9450005435523e-06 -0.47327149783805872 0.25216834839257918 1.6059299972235653e-05 -0.3136198795187341 0.25260387809370283 2.2284773777010682e-05 -0.49511670020985776 0.25216016559999815 3.1140474581794932e-06 -0.30901495743532531 0.19204202147273783 -5.9450005435522932e-06 -0.47327149783805872 0.213576635465869 3.5721057242494821e-05 -1.2473695715284721e-05 0.25175572980526462 2.2295009920798153e-06 -0.16397628859407343 0.25184192073773493 -1.273306248759005e-05 -0.15137912079153604 0.19792905392922147 2.4743292785576351e-06 -0.20679780320885052 0.25184192073773493 -1.273306248759005e-05 -0.15137912079153604 0.2159245898869116 3.8924988823347946e-05 -1.0921651036765421e-05 0.19792905392922144 2.4743292785576355e-06 -0.20679780320885055 0.20734755262559285 3.1113944524748655e-05 -0.17560225067385629 0.25184192073773493 -1.273306248759005e-05 -0.15137912079153604 0.19792905392922147 2.4743292785576279e-06 -0.20679780320885052 0.25216016559999815 3.1140474581794932e-06 -0.30901495743532531 0.20734755262559285 3.1113944524748655e-05 -0.17560225067385629 0.25184192073773493 -1.273306248759005e-05 -0.15137912079153604 0.25175572980526462 2.2295009920798098e-06 -0.16397628859407337 0.25216016559999815 3.1140474581794932e-06 -0.30901495743532531 0.19792905392922144 2.4743292785576322e-06 -0.20679780320885055 0.18533747868337155 1.4920613414638059e-05 -9.0182520644389124e-06 0.19792905392922147 2.474329278557636e-06 -0.20679780320885052 0.21592458988691157 3.8924988823347946e-05 -1.0921651036718321e-05 0.20734755262559285 3.1113944524748655e-05 -0.17560225067385629 0.18533747868337155 1.4920613414638059e-05 -9.0182520644389124e-06 0.17523655194701226 -1.1198596741152512e-06 -0.2949441438963506 0.19792905392922147 2.4743292785576237e-06 -0.20679780320885055 0.20734755262559285 3.1113944524748655e-05 -0.17560225067385629 0.25219511454915411 -5.6812930257385464e-05 -0.29593677406857655 0.25184192073773493 -1.273306248759005e-05 -0.15137912079153604 0.25216016559999815 3.1140474581794932e-06 -0.30901495743532531 0.20734755262559285 3.1113944524748655e-05 -0.17560225067385629 0.18533747868337155 1.4920613414638059e-05 -9.0182520644389124e-06 0.17201601562692584 -1.0266971898262265e-05 -1.1086706073138671e-05 0.213576635465869 3.5721057242494821e-05 -1.2473695715292287e-05 0.19792905392922147 2.4743292785576351e-06 -0.20679780320885052 0.213576635465869 3.5721057242494821e-05 -1.2473695715284721e-05 0.25184192073773493 -1.2733062487590055e-05 -0.15137912079153601 0.2159245898869116 3.8924988823347952e-05 -1.0921651036709387e-05 0.19792905392922147 2.4743292785576351e-06 -0.20679780320885052 0.18533747868337155 1.4920613414638059e-05 -9.0182520644389124e-06 0.213576635465869 3.5721057242494821e-05 -1.2473695715286002e-05 0.2159245898869116 3.8924988823347952e-05 -1.0921651036705604e-05 0.19792905392922147 2.4743292785576351e-06 -0.20679780320885052 0.17997751939003573 4.4636633256558381e-05 -1.3751061964483274e-05 0.18533747868337155 1.4920613414638059e-05 -9.0182520644389124e-06 0.2159245898869116 3.8924988823347952e-05 -1.0921651036718304e-05 0.20734755262559285 3.1113944524748648e-05 -0.17560225067385632 0.25184192073773493 -1.273306248759005e-05 -0.15137912079153604 0.2159245898869116 3.8924988823347939e-05 -1.0921651036692215e-05 0.25170619877192207 -1.4414896893882006e-05 -1.2654714214710261e-05 0.25161273984148186 -7.0483332198369967e-06 -1.4112769766473832e-05 0.25184192073773493 -1.273306248759005e-05 -0.15137912079153604 0.20734755262559282 3.1113944524748655e-05 -0.17560225067385629 0.25170619877192207 -1.4414896893882006e-05 -1.2654714214708704e-05 0.2159245898869116 3.8924988823347939e-05 -1.0921651036735133e-05 0.213576635465869 3.5721057242494821e-05 -1.2473695715284721e-05 0.2159245898869116 3.8924988823347952e-05 -1.0921651036709387e-05 0.25184192073773493 -1.273306248759005e-05 -0.15137912079153604 0.25161273984148186 -7.0483332198369967e-06 -1.4112769766473832e-05 0.25161273984148186 -7.0483332198369967e-06 -1.4112769766473832e-05 0.25184192073773493 -1.273306248759005e-05 -0.15137912079153604 0.213576635465869 3.5721057242494821e-05 -1.2473695715284721e-05 0.25175572980526462 2.2295009920798085e-06 -0.16397628859407343 0.25158540854893802 2.5664322947993567e-05 -1.7133035576475099e-05 0.25161273984148186 -7.0483332198369984e-06 -1.4112769766473832e-05 0.213576635465869 3.5721057242494821e-05 -1.2473695715284721e-05 0.25175572980526462 2.2295009920798085e-06 -0.16397628859407343 0.20542931668082948 -8.3283246112269946e-06 -1.5065243446946251e-05 0.21644559555708442 -9.6044431649175588e-06 -1.0635671527237885e-05 0.25188929517448366 2.9180856833021315e-06 -0.16121128221735753 0.1759929822437101 -2.7823540086943284e-06 -0.29758457709229452 0.20542931668082948 -8.3283246112269946e-06 -1.5065243446946251e-05 0.25158540854893796 2.5664322947993546e-05 -1.7133035576520269e-05 0.213576635465869 3.5721057242494814e-05 -1.2473695715293388e-05 0.25175572980526462 2.2295009920798085e-06 -0.16397628859407343 0.25158540854893802 2.5664322947993567e-05 -1.7133035576475099e-05 0.20542931668082948 -8.3283246112269946e-06 -1.5065243446946251e-05 0.25188929517448366 2.918085683302134e-06 -0.16121128221735753 0.25175572980526462 2.2295009920798085e-06 -0.16397628859407343 0.20542931668082948 -8.3283246112269946e-06 -1.5065243446946251e-05 0.17599298224371013 -2.7823540086943305e-06 -0.29758457709229458 0.25188929517448366 2.9180856833021315e-06 -0.1612112822173575 0.1979290539292215 2.4743292785576364e-06 -0.20679780320885049 0.213576635465869 3.5721057242494821e-05 -1.2473695715284721e-05 0.17201601562692584 -1.0266971898262261e-05 -1.1086706073143758e-05 0.20542931668082948 -8.3283246112269946e-06 -1.5065243446946251e-05 0.19792905392922147 2.4743292785576351e-06 -0.20679780320885052 0.213576635465869 3.5721057242494821e-05 -1.2473695715284721e-05 0.20542931668082948 -8.3283246112269946e-06 -1.5065243446946251e-05 0.25175572980526467 2.2295009920798038e-06 -0.16397628859407343 0.19792905392922147 2.4743292785576351e-06 -0.20679780320885052 0.20542931668082948 -8.3283246112269946e-06 -1.5065243446946251e-05 0.25188929517448366 2.9180856833021298e-06 -0.16121128221735748 0.25175572980526462 2.2295009920798085e-06 -0.16397628859407343 0.19792905392922147 2.4743292785576351e-06 -0.20679780320885052 0.25188929517448366 2.918085683302134e-06 -0.16121128221735753 0.25216834839257918 1.6059299972235653e-05 -0.3136198795187341 0.25175572980526462 2.2295009920798102e-06 -0.16397628859407343 0.19792905392922147 2.4743292785576334e-06 -0.20679780320885055 0.25188929517448366 2.918085683302134e-06 -0.16121128221735753 0.2054293166808295 -8.3283246112269743e-06 -1.5065243446948343e-05 0.25158540854893802 2.5664322947993567e-05 -1.7133035576475099e-05 0.25169082311042495 5.4418644890743461e-05 -1.4640948945296747e-05 0.25188929517448366 2.918085683302134e-06 -0.16121128221735753 0.20542931668082945 -8.3283246112270133e-06 -1.5065243446990093e-05 0.25169082311042495 5.4418644890743461e-05 -1.4640948945296747e-05 0.21644559555708442 -9.6044431649175588e-06 -1.0635671527237885e-05 0.25169082311042495 5.4418644890743461e-05 -1.4640948945296747e-05 0.2519764508896129 4.9554952318267003e-05 -0.13950260000828132 0.25188929517448366 2.9180856833021366e-06 -0.16121128221735753 0.21644559555708442 -9.6044431649175588e-06 -1.0635671527237885e-05 0.21115207520088969 -2.6776012528138736e-06 -0.28528231741848881 0.2165969471353873 -1.9951803360221018e-06 -0.13917698424850317 0.17525269294848958 -3.3062023890232475e-06 -0.16357847350760407 0.17599298224371013 -2.7823540086943297e-06 -0.29758457709229458 0.20542931668082948 -8.3283246112269946e-06 -1.5065243446946251e-05 0.17714037758163476 -1.4553202642297574e-05 -1.2926798798818129e-05 0.21644559555708442 -9.6044431649175588e-06 -1.0635671527237885e-05 0.17599298224371013 -2.782354008694331e-06 -0.29758457709229452 0.2521302431981724 5.635597797753836e-05 -0.30109887490376924 0.25188929517448366 2.918085683302134e-06 -0.16121128221735753 0.2519764508896129 4.9554952318267003e-05 -0.13950260000828132 0.17599298224371013 -2.7823540086943297e-06 -0.29758457709229458 0.2519764508896129 4.9554952318267003e-05 -0.13950260000828132 0.25188929517448366 2.9180856833021344e-06 -0.16121128221735753 0.21644559555708445 -9.6044431649175503e-06 -1.0635671527257076e-05 0.17599298224371016 -2.7823540086943627e-06 -0.29758457709229447 0.2519764508896129 4.9554952318267003e-05 -0.13950260000828132 0.2165969471353873 -1.9951803360220968e-06 -0.13917698424850325 0.21115207520088966 -2.6776012528138952e-06 -0.28528231741848875 0.17599298224371016 -2.7823540086943073e-06 -0.29758457709229469 0.2519764508896129 4.9554952318267003e-05 -0.13950260000828132 0.21644559555708442 -9.6044431649175588e-06 -1.063567152724181e-05 0.2165969471353873 -1.9951803360221018e-06 -0.13917698424850317 0.17599298224371016 -2.7823540086943255e-06 -0.29758457709229452 0.17714037758163476 -1.4553202642297574e-05 -1.2926798798823375e-05 0.2165969471353873 -1.9951803360221014e-06 -0.13917698424850317 0.21644559555708442 -9.6044431649175588e-06 -1.0635671527237885e-05 0.17599298224371013 -2.7823540086943289e-06 -0.29758457709229458 0.2165969471353873 -1.9951803360221018e-06 -0.13917698424850317 0.21115207520088969 -2.6776012528138736e-06 -0.28528231741848881 0.2517917131543746 -2.6515755938344168e-06 -0.19037450156197058 0.2519764508896129 4.9554952318267003e-05 -0.13950260000828132 0.21115207520088969 -2.6776012528138736e-06 -0.28528231741848881 0.2521302431981724 5.635597797753836e-05 -0.30109887490376924 0.2517917131543746 -2.6515755938344168e-06 -0.19037450156197058 0.2519764508896129 4.9554952318267003e-05 -0.13950260000828132 0.21644559555708442 -9.6044431649175588e-06 -1.0635671527237885e-05 0.25176780159842937 -2.918620527304698e-06 -1.3948409935941611e-05 0.2165969471353873 -1.9951803360221018e-06 -0.13917698424850317 0.2033870913508285 -2.8264797417987335e-06 -1.3051550581791572e-05 0.2165969471353873 -1.9951803360221018e-06 -0.13917698424850317 0.2517917131543746 -2.6515755938344168e-06 -0.19037450156197058 0.25176780159842932 -2.9186205273046938e-06 -1.3948409935928052e-05 0.2519764508896129 4.9554952318267003e-05 -0.13950260000828132 0.25176780159842937 -2.918620527304698e-06 -1.3948409935941611e-05 0.2519764508896129 4.9554952318267003e-05 -0.13950260000828132 0.2516908231104249 5.4418644890743454e-05 -1.4640948945285458e-05 0.21644559555708442 -9.6044431649175588e-06 -1.0635671527237885e-05 0.2519764508896129 4.9554952318267003e-05 -0.13950260000828132 0.25176780159842932 -2.9186205273047069e-06 -1.3948409935930298e-05 0.2165969471353873 -1.9951803360221018e-06 -0.13917698424850317 0.21644559555708442 -9.6044431649175588e-06 -1.0635671527237885e-05 0.17525269294848958 -3.3062023890232475e-06 -0.16357847350760407 0.17714037758163476 -1.4553202642297574e-05 -1.2926798798823375e-05 0.2165969471353873 -1.9951803360221006e-06 -0.13917698424850317 0.2033870913508285 -2.8264797417987335e-06 -1.3051550581791572e-05 0.21644559555708442 -9.6044431649175588e-06 -1.0635671527237885e-05 0.2165969471353873 -1.9951803360221018e-06 -0.13917698424850317 0.17714037758163476 -1.4553202642297574e-05 -1.2926798798829006e-05 0.2033870913508285 -2.8264797417987335e-06 -1.3051550581791572e-05 0.17525269294848958 -3.3062023890232475e-06 -0.16357847350760407 0.17599298224371016 -2.7823540086943284e-06 -0.29758457709229463 0.17714037758163473 -1.4553202642297574e-05 -1.2926798798801002e-05 0.12876833569164736 -4.1353253346080831e-06 -0.21363762084724847 0.17525269294848958 -3.3062023890232475e-06 -0.16357847350760407 0.2165969471353873 -1.9951803360221014e-06 -0.13917698424850317 0.17714037758163476 -1.4553202642297574e-05 -1.2926798798818942e-05 0.1759929822437101 -2.7823540086943267e-06 -0.29758457709229463 0.17714037758163476 -1.4553202642297574e-05 -1.2926798798823375e-05 0.17525269294848958 -3.3062023890232458e-06 -0.16357847350760404 0.15370720486281075 -2.7206354241956824e-06 -1.4779912131073888e-05 0.2033870913508285 -2.8264797417987335e-06 -1.3051550581791572e-05 0.12694470470856839 -2.7719695623357548e-06 -0.12520071081604303 0.10303328893506165 -3.033632678705992e-06 -1.7658488857414313e-05 0.13095068475983596 1.003526154342241e-05 -1.2740075704209194e-05 0.15370720486281075 -2.7206354241956824e-06 -1.4779912131073888e-05 0.13095068475983596 1.003526154342241e-05 -1.2740075704209194e-05 0.17714037758163476 -1.4553202642297574e-05 -1.2926798798823375e-05 0.17525269294848958 -3.3062023890232475e-06 -0.16357847350760407 0.15370720486281075 -2.7206354241956824e-06 -1.4779912131073888e-05 0.17525269294848958 -3.3062023890232475e-06 -0.16357847350760407 0.12694470470856839 -2.7719695623357548e-06 -0.12520071081604303 0.13095068475983596 1.003526154342241e-05 -1.2740075704209194e-05 0.15370720486281075 -2.7206354241956824e-06 -1.4779912131073888e-05 0.12275460710414604 -3.3975810797731047e-06 -0.3001566808332668 0.17525269294848958 -3.3062023890232475e-06 -0.1635784735076041 0.12694470470856839 -2.7719695623357548e-06 -0.12520071081604303 0.12876833569164739 -4.1353253346080822e-06 -0.21363762084724849 0.12694470470856839 -2.7719695623357548e-06 -0.12520071081604303 0.17525269294848958 -3.3062023890232475e-06 -0.16357847350760407 0.13095068475983596 1.003526154342241e-05 -1.2740075704209194e-05 0.12876833569164739 -4.1353253346080822e-06 -0.21363762084724849 0.13095068475983596 1.003526154342241e-05 -1.2740075704209194e-05 0.17525269294848961 -3.3062023890232446e-06 -0.16357847350760404 0.17714037758163476 -1.4553202642297574e-05 -1.2926798798823375e-05 0.12876833569164739 -4.1353253346080873e-06 -0.21363762084724852 0.15635978413051796 -1.6428212387867411e-05 -1.205502156964585e-05 0.13095068475983596 1.003526154342241e-05 -1.2740075704209194e-05 0.17714037758163476 -1.4553202642297574e-05 -1.2926798798823375e-05 0.12876833569164739 -4.1353253346080822e-06 -0.21363762084724849 0.15635978413051796 -1.6428212387867411e-05 -1.205502156964585e-05 0.1759929822437101 -2.782354008694331e-06 -0.29758457709229452 0.20542931668082948 -8.3283246112269946e-06 -1.5065243446946251e-05 0.19792905392922147 2.4743292785576351e-06 -0.20679780320885052 0.15635978413051796 -1.6428212387867411e-05 -1.205502156964585e-05 0.17714037758163476 -1.4553202642297574e-05 -1.2926798798823375e-05 0.17599298224371013 -2.7823540086943305e-06 -0.29758457709229458 0.12876833569164739 -4.1353253346080822e-06 -0.21363762084724849 0.20542931668082948 -8.3283246112269946e-06 -1.5065243446946251e-05 0.15635978413051796 -1.6428212387867411e-05 -1.2055021569656343e-05 0.17714037758163476 -1.4553202642297574e-05 -1.2926798798823375e-05 0.17599298224371013 -2.7823540086943305e-06 -0.29758457709229452 0.15635978413051796 -1.6428212387867411e-05 -1.205502156964585e-05 0.11786688181884866 1.0258226008378137e-05 -1.103078572162502e-05 0.13095068475983596 1.003526154342241e-05 -1.2740075704201929e-05 0.12876833569164739 -4.1353253346080822e-06 -0.21363762084724849 0.11786688181884866 1.0258226008378137e-05 -1.103078572162502e-05 0.15635978413051796 -1.6428212387867411e-05 -1.205502156964585e-05 0.12874875209570555 -6.2386452895633719e-07 -0.23610343572375161 0.12876833569164739 -4.1353253346080822e-06 -0.21363762084724849 0.19792905392922147 2.4743292785576351e-06 -0.20679780320885052 0.15635978413051796 -1.6428212387867411e-05 -1.2055021569654395e-05 0.12874875209570552 -6.2386452895633709e-07 -0.23610343572375159 0.17201601562692584 -1.0266971898262263e-05 -1.1086706073143953e-05 0.17599298224371013 -2.7823540086943297e-06 -0.29758457709229458 0.12874875209570555 -6.2386452895633719e-07 -0.23610343572375161 0.15635978413051793 -1.6428212387867407e-05 -1.205502156966327e-05 0.12876833569164742 -4.1353253346080839e-06 -0.21363762084724849 0.19792905392922147 2.4743292785576351e-06 -0.20679780320885052 0.12874875209570555 -6.2386452895633719e-07 -0.23610343572375161 0.15635978413051796 -1.6428212387867411e-05 -1.2055021569637268e-05 0.17599298224371013 -2.7823540086943289e-06 -0.29758457709229458 0.13350149685170226 -3.3429412563003587e-06 -1.4064453133893011e-05 0.15635978413051796 -1.6428212387867411e-05 -1.2055021569644207e-05 0.17201601562692584 -1.0266971898262263e-05 -1.1086706073145596e-05 0.12874875209570555 -6.2386452895633719e-07 -0.23610343572375161 0.11786688181884866 1.0258226008378137e-05 -1.103078572162502e-05 0.15635978413051796 -1.6428212387867411e-05 -1.205502156964585e-05 0.13350149685170226 -3.3429412563003587e-06 -1.4064453133893011e-05 0.12874875209570555 -6.2386452895633719e-07 -0.23610343572375161 0.15635978413051796 -1.6428212387867411e-05 -1.205502156964585e-05 0.20542931668082948 -8.3283246112269946e-06 -1.5065243446946251e-05 0.17201601562692587 -1.0266971898262263e-05 -1.1086706073162322e-05 0.19792905392922147 2.4743292785576351e-06 -0.20679780320885052 0.17599298224371013 -2.7823540086943297e-06 -0.29758457709229458 0.1920420214727378 -5.9450005435523e-06 -0.47327149783805872 0.12909122955406513 3.7976778523510818e-06 -0.47292566515103146 0.12937193399123148 -5.0654071274080479e-06 -0.50020953381929401 0.1920420214727378 -5.9450005435523e-06 -0.47327149783805872 0.12937193399123145 -5.0654071274080521e-06 -0.50020953381929401 0.1759929822437101 -2.7823540086943217e-06 -0.29758457709229452 0.19908996143156488 2.4600620927977077e-05 -0.47511108561576954 0.12909122955406513 3.7976778523510852e-06 -0.4729256651510314 0.1920420214727378 -5.9450005435523e-06 -0.47327149783805872 0.1759929822437101 -2.7823540086943322e-06 -0.29758457709229452 0.12874875209570552 -6.2386452895633952e-07 -0.23610343572375153 0.17599298224371013 -2.7823540086943297e-06 -0.29758457709229458 0.12874875209570552 -6.2386452895633783e-07 -0.23610343572375161 0.1920420214727378 -5.9450005435523e-06 -0.47327149783805872 0.19792905392922147 2.4743292785576351e-06 -0.20679780320885052 0.12937193399123145 -5.0654071274080521e-06 -0.50020953381929401 0.12874875209570549 -6.2386452895633772e-07 -0.23610343572375164 0.1759929822437101 -2.7823540086943305e-06 -0.29758457709229458 0.12876833569164739 -4.1353253346080831e-06 -0.21363762084724849 0.12909122955406513 3.7976778523510852e-06 -0.4729256651510314 0.1759929822437101 -2.7823540086943301e-06 -0.29758457709229458 0.12937193399123145 -5.0654071274080521e-06 -0.50020953381929401 0.12874875209570552 -6.2386452895633952e-07 -0.23610343572375153 0.21115207520088969 -2.6776012528138736e-06 -0.28528231741848881 0.17599298224371013 -2.7823540086943297e-06 -0.29758457709229458 0.17123953976142317 -2.9993579781478774e-06 -0.36536892900769846 0.19908996143156488 2.4600620927977084e-05 -0.47511108561576959 0.17525269294848958 -3.3062023890232475e-06 -0.16357847350760407 0.17123953976142317 -2.9993579781478774e-06 -0.36536892900769846 0.21115207520088969 -2.6776012528138736e-06 -0.28528231741848881 0.17599298224371013 -2.7823540086943297e-06 -0.29758457709229458 0.17123953976142317 -2.9993579781478774e-06 -0.36536892900769846 0.12275460710414604 -3.3975810797731047e-06 -0.3001566808332668 0.12937193399123148 -5.065407127408053e-06 -0.50020953381929389 0.12876833569164739 -4.1353253346080822e-06 -0.21363762084724858 0.17704878172604285 -2.3183286104413433e-06 -0.51398248393548185 0.17123953976142317 -2.9993579781478778e-06 -0.36536892900769846 0.12937193399123145 -5.0654071274080513e-06 -0.50020953381929401 0.19908996143156488 2.4600620927977084e-05 -0.47511108561576954 0.17525269294848958 -3.3062023890232475e-06 -0.16357847350760407 0.17123953976142317 -2.9993579781478774e-06 -0.36536892900769846 0.17599298224371013 -2.7823540086943289e-06 -0.29758457709229458 0.12876833569164736 -4.1353253346080831e-06 -0.21363762084724849 0.17123953976142317 -2.9993579781478774e-06 -0.36536892900769846 0.12937193399123142 -5.065407127408053e-06 -0.50020953381929401 0.17599298224371018 -2.7823540086943284e-06 -0.29758457709229458 0.12876833569164739 -4.1353253346080814e-06 -0.21363762084724855 0.17599298224371013 -2.7823540086943297e-06 -0.29758457709229458 0.12937193399123145 -5.0654071274080513e-06 -0.50020953381929389 0.17123953976142317 -2.9993579781478774e-06 -0.36536892900769846 0.19908996143156488 2.4600620927977084e-05 -0.47511108561576959 0.17525269294848958 -3.3062023890232475e-06 -0.16357847350760407 0.12275460710414604 -3.3975810797731047e-06 -0.3001566808332668 0.17123953976142317 -2.9993579781478774e-06 -0.36536892900769846 0.12876833569164742 -4.1353253346080831e-06 -0.21363762084724852 0.12892473719337169 -2.9362538558839875e-06 -0.45435917749770971 0.17123953976142317 -2.9993579781478774e-06 -0.36536892900769846 0.12275460710414604 -3.3975810797731047e-06 -0.3001566808332668 0.12937193399123145 -5.0654071274080521e-06 -0.50020953381929401 0.12892473719337169 -2.9362538558839875e-06 -0.45435917749770971 0.17704878172604285 -2.3183286104413433e-06 -0.51398248393548185 0.17123953976142317 -2.9993579781478774e-06 -0.36536892900769846 0.12937193399123145 -5.0654071274080521e-06 -0.50020953381929401 0.17123953976142317 -2.9993579781478774e-06 -0.36536892900769846 0.17704878172604283 -2.318328610441345e-06 -0.51398248393548185 0.21281957757231462 -2.6642477776400408e-06 -0.46619358672951217 0.19908996143156488 2.4600620927977084e-05 -0.47511108561576959 0.2521302431981724 5.635597797753836e-05 -0.30109887490376924 0.17599298224371013 -2.7823540086943297e-06 -0.29758457709229458 0.21115207520088969 -2.6776012528138757e-06 -0.28528231741848881 0.19908996143156488 2.4600620927977084e-05 -0.47511108561576959 0.2521302431981724 5.635597797753836e-05 -0.30109887490376924 0.2519764508896129 4.9554952318267003e-05 -0.13950260000828132 0.21115207520088969 -2.6776012528138736e-06 -0.28528231741848881 0.17599298224371013 -2.7823540086943297e-06 -0.29758457709229458 0.21281957757231462 -2.6642477776400399e-06 -0.46619358672951217 0.21115207520088969 -2.6776012528138736e-06 -0.28528231741848881 0.17123953976142317 -2.9993579781478766e-06 -0.36536892900769846 0.19908996143156485 2.460062092797708e-05 -0.47511108561576954 0.21281957757231462 -2.6642477776400399e-06 -0.46619358672951217 0.2521302431981724 5.6355977977538367e-05 -0.30109887490376924 0.21115207520088969 -2.6776012528138736e-06 -0.28528231741848881 0.1990899614315649 2.460062092797709e-05 -0.47511108561576959 0.21115207520088969 -2.6776012528138736e-06 -0.28528231741848881 0.21281957757231462 -2.6642477776400336e-06 -0.46619358672951222 0.25217072735237606 -3.1235924200446595e-06 -0.38094287143040395 0.2521302431981724 5.635597797753836e-05 -0.30109887490376924 0.21281957757231462 -2.6642477776400399e-06 -0.46619358672951217 0.25269279892885521 2.0252642029686982e-05 -0.48569597235784223 0.2530738472195061 -3.4820108731167896e-06 -0.57183438942715437 0.25217072735237606 -3.1235924200446535e-06 -0.38094287143040395 0.25217072735237606 -3.1235924200446535e-06 -0.38094287143040395 0.21281957757231462 -2.6642477776400382e-06 -0.46619358672951217 0.25269279892885532 2.0252642029686985e-05 -0.48569597235784223 0.2521302431981724 5.635597797753836e-05 -0.30109887490376924 0.2521302431981724 5.635597797753836e-05 -0.30109887490376924 0.252170727352376 -3.1235924200446489e-06 -0.38094287143040395 0.21115207520088969 -2.6776012528138736e-06 -0.28528231741848881 0.2517917131543746 -2.6515755938344168e-06 -0.19037450156197058 0.25261196324970331 -1.5039045251645804e-05 -0.43651382079304635 0.2521302431981724 5.635597797753836e-05 -0.30109887490376924 0.25269279892885527 2.0252642029686978e-05 -0.48569597235784223 0.19908996143156488 2.4600620927977084e-05 -0.47511108561576959 0.21281957757231462 -2.6642477776400399e-06 -0.46619358672951217 0.25269279892885527 2.0252642029686971e-05 -0.48569597235784234 0.25213024319817234 5.635597797753836e-05 -0.30109887490376924 0.19908996143156485 2.4600620927977087e-05 -0.47511108561576948 0.25216834839257918 1.6059299972235653e-05 -0.3136198795187341 0.17599298224371013 -2.7823540086943293e-06 -0.29758457709229463 0.1920420214727378 -5.9450005435522949e-06 -0.47327149783805866 0.19792905392922147 2.4743292785576351e-06 -0.20679780320885052 0.25216834839257918 1.6059299972235653e-05 -0.3136198795187341 0.2521302431981724 5.635597797753836e-05 -0.30109887490376924 0.25261196324970331 -1.5039045251645804e-05 -0.43651382079304635 0.17599298224371013 -2.7823540086943297e-06 -0.29758457709229458 0.25261196324970331 -1.5039045251645804e-05 -0.43651382079304635 0.1920420214727378 -5.9450005435522822e-06 -0.47327149783805883 0.1759929822437101 -2.7823540086943377e-06 -0.29758457709229452 0.19908996143156485 2.4600620927977094e-05 -0.47511108561576959 0.25188929517448366 2.918085683302134e-06 -0.16121128221735753 0.2521302431981724 5.635597797753836e-05 -0.30109887490376924 0.25216834839257918 1.6059299972235653e-05 -0.3136198795187341 0.17599298224371013 -2.7823540086943297e-06 -0.29758457709229458 0.25261196324970331 -1.5039045251645804e-05 -0.43651382079304635 0.17599298224371013 -2.7823540086943416e-06 -0.29758457709229458 0.2521302431981724 5.635597797753836e-05 -0.30109887490376924 0.19908996143156493 2.4600620927977097e-05 -0.47511108561576965 0.25188929517448366 2.918085683302134e-06 -0.16121128221735753 0.17599298224371013 -2.7823540086943314e-06 -0.29758457709229452 0.25216834839257918 1.6059299972235653e-05 -0.3136198795187341 0.19792905392922144 2.4743292785576343e-06 -0.20679780320885047 0.25216834839257918 1.6059299972235653e-05 -0.3136198795187341 0.17599298224371013 -2.7823540086943289e-06 -0.29758457709229458 0.25261196324970331 -1.5039045251645804e-05 -0.43651382079304635 0.19204202147273783 -5.9450005435522983e-06 -0.47327149783805866 0.25216016559999815 3.1140474581794932e-06 -0.30901495743532531 0.25175572980526462 2.2295009920798085e-06 -0.16397628859407343 0.25216834839257918 1.6059299972235653e-05 -0.3136198795187341 0.19792905392922147 2.4743292785576351e-06 -0.20679780320885052 0.25216834839257918 1.6059299972235653e-05 -0.3136198795187341 0.25261196324970331 -1.5039045251645804e-05 -0.43651382079304635 0.25260387809370283 2.2284773777010682e-05 -0.49511670020985776 0.19204202147273783 -5.9450005435522864e-06 -0.47327149783805877 0.2533504876479224 1.3763339448777563e-06 -0.57150967158093935 0.1920420214727378 -5.9450005435523e-06 -0.47327149783805872 0.17727553381840286 6.1359591580208316e-06 -0.65224772339960246 0.20118238405136121 -1.1572990730535531e-05 -0.74162353590848828 0.2533504876479224 1.3763339448777563e-06 -0.57150967158093935 0.25436158331902936 -3.6847963105371186e-05 -0.69346745942446331 0.17727553381840286 6.1359591580208502e-06 -0.65224772339960246 0.21033792671895354 -9.6336394324270065e-06 -0.77612980154025257 0.2533504876479224 1.3763339448777563e-06 -0.57150967158093935 0.2536421783475814 1.618799595958834e-05 -0.64173458592881949 0.25260387809370283 2.2284773777010682e-05 -0.49511670020985776 0.1920420214727378 -5.9450005435523e-06 -0.47327149783805872 0.2533504876479224 1.3763339448777563e-06 -0.57150967158093935 0.1920420214727378 -5.9450005435522975e-06 -0.47327149783805872 0.25261196324970331 -1.5039045251645804e-05 -0.43651382079304635 0.19908996143156485 2.4600620927977084e-05 -0.47511108561576954 0.17727553381840286 6.1359591580208316e-06 -0.65224772339960246 0.19908996143156485 2.460062092797708e-05 -0.47511108561576959 0.2533504876479224 1.3763339448777584e-06 -0.57150967158093935 0.21033792671895354 -9.6336394324270286e-06 -0.77612980154025268 0.2533504876479224 1.3763339448777563e-06 -0.57150967158093935 0.17727553381840286 6.1359591580208316e-06 -0.65224772339960246 0.1920420214727378 -5.9450005435522958e-06 -0.47327149783805877 0.19908996143156485 2.4600620927977084e-05 -0.47511108561576954 0.2536421783475814 1.618799595958834e-05 -0.64173458592881949 0.19204202147273777 -5.9450005435523042e-06 -0.47327149783805872 0.2533504876479224 1.3763339448777563e-06 -0.57150967158093935 0.20118238405136118 -1.1572990730535532e-05 -0.74162353590848828 0.25436158331902936 -3.6847963105371186e-05 -0.69346745942446331 0.2533504876479224 1.3763339448777563e-06 -0.57150967158093935 0.17727553381840283 6.1359591580208002e-06 -0.65224772339960246 0.20118238405136121 -1.1572990730535495e-05 -0.74162353590848817 0.2533504876479224 1.3763339448777563e-06 -0.57150967158093935 0.25260387809370283 2.2284773777010682e-05 -0.49511670020985776 0.25261196324970331 -1.5039045251645804e-05 -0.43651382079304635 0.1920420214727378 -5.9450005435523e-06 -0.47327149783805872 0.25436158331902936 -3.6847963105371186e-05 -0.69346745942446331 0.2536421783475814 1.6187995959588336e-05 -0.64173458592881949 0.2533504876479224 1.3763339448777563e-06 -0.57150967158093935 0.20118238405136121 -1.1572990730535531e-05 -0.74162353590848828 0.2533504876479224 1.3763339448777563e-06 -0.57150967158093935 0.2540627948530646 3.8899336404603258e-05 -0.67280345822852439 0.25436158331902936 -3.6847963105371186e-05 -0.69346745942446331 0.21033792671895354 -9.6336394324270286e-06 -0.77612980154025268 0.2533504876479224 1.3763339448777563e-06 -0.57150967158093935 0.25261196324970331 -1.5039045251645804e-05 -0.43651382079304635 0.25269279892885527 2.0252642029686978e-05 -0.48569597235784223 0.19908996143156488 2.4600620927977084e-05 -0.47511108561576959 0.25269279892885527 2.0252642029686978e-05 -0.48569597235784223 0.20896368695043066 -2.880876438314625e-06 -0.65537187873023872 0.2540627948530646 3.8899336404603258e-05 -0.67280345822852439 0.19908996143156488 2.4600620927977094e-05 -0.47511108561576959 0.20896368695043063 -2.8808764383146207e-06 -0.65537187873023872 0.19908996143156485 2.4600620927977084e-05 -0.47511108561576954 0.17727553381840289 6.1359591580208384e-06 -0.65224772339960235 0.21033792671895354 -9.6336394324270286e-06 -0.77612980154025268 0.20896368695043063 -2.8808764383146207e-06 -0.65537187873023872 0.2540627948530646 3.8899336404603258e-05 -0.6728034582285245 0.19908996143156488 2.4600620927977077e-05 -0.47511108561576959 0.21033792671895354 -9.6336394324270286e-06 -0.77612980154025268 0.2540627948530646 3.8899336404603258e-05 -0.67280345822852439 0.2533504876479224 1.3763339448777573e-06 -0.57150967158093935 0.19908996143156488 2.4600620927977084e-05 -0.47511108561576959 0.21033792671895354 -9.6336394324270286e-06 -0.77612980154025268 0.25269279892885527 2.0252642029686978e-05 -0.48569597235784223 0.2540627948530646 3.8899336404603258e-05 -0.67280345822852439 0.2533504876479224 1.3763339448777563e-06 -0.57150967158093935 0.19908996143156488 2.4600620927977084e-05 -0.47511108561576959 0.2540627948530646 3.8899336404603258e-05 -0.67280345822852439 0.20896368695043063 -2.8808764383146207e-06 -0.65537187873023872 0.2530738472195061 -3.4820108731167896e-06 -0.57183438942715437 0.25472003997088155 -2.8450484055378634e-06 -0.76304916526311239 0.20896368695043063 -2.8808764383146207e-06 -0.65537187873023872 0.2530738472195061 -3.4820108731167896e-06 -0.57183438942715437 0.25269279892885527 2.0252642029686978e-05 -0.48569597235784223 0.2540627948530646 3.8899336404603258e-05 -0.67280345822852439 0.25269279892885527 2.0252642029686978e-05 -0.48569597235784223 0.25307384721950604 -3.4820108731167883e-06 -0.57183438942715437 0.20896368695043063 -2.8808764383146207e-06 -0.65537187873023872 0.21281957757231457 -2.6642477776400442e-06 -0.46619358672951206 0.20896368695043063 -2.8808764383146207e-06 -0.65537187873023872 0.21281957757231462 -2.6642477776400399e-06 -0.46619358672951217 0.17704878172604285 -2.3183286104413433e-06 -0.51398248393548185 0.19908996143156488 2.4600620927977084e-05 -0.47511108561576959 0.20896368695043063 -2.8808764383146207e-06 -0.65537187873023872 0.25269279892885527 2.0252642029686978e-05 -0.48569597235784223 0.21281957757231462 -2.6642477776400399e-06 -0.46619358672951217 0.19908996143156488 2.4600620927977084e-05 -0.47511108561576959 0.17704878172604285 -2.3183286104413433e-06 -0.51398248393548185 0.15529109985527001 -3.3716569361382251e-06 -0.63993115957659241 0.17727553381840286 6.135959158020835e-06 -0.65224772339960246 0.12937193399123145 -5.0654071274080487e-06 -0.50020953381929401 0.15529109985527001 -3.3716569361382251e-06 -0.63993115957659241 0.20896368695043063 -2.8808764383146207e-06 -0.65537187873023872 0.17704878172604285 -2.3183286104413433e-06 -0.51398248393548185 0.17727553381840286 6.1359591580208316e-06 -0.65224772339960246 0.20896368695043063 -2.8808764383146207e-06 -0.65537187873023872 0.17704878172604285 -2.3183286104413433e-06 -0.51398248393548185 0.17727553381840286 6.1359591580208502e-06 -0.65224772339960246 0.19908996143156488 2.460062092797708e-05 -0.47511108561576959 0.1803093016652654 -2.7050460833519823e-06 -0.79825776010117044 0.17727553381840286 6.1359591580208451e-06 -0.65224772339960246 0.15529109985527004 -3.3716569361382234e-06 -0.63993115957659252 0.13077772630430035 -3.1158897622435361e-05 -0.73852444114020033 0.17727553381840286 6.1359591580208316e-06 -0.65224772339960246 0.17704878172604285 -2.3183286104413551e-06 -0.51398248393548196 0.12937193399123142 -5.0654071274080538e-06 -0.50020953381929389 0.19908996143156488 2.4600620927977084e-05 -0.47511108561576959 0.17727553381840286 6.1359591580208316e-06 -0.65224772339960246 0.12937193399123142 -5.0654071274080538e-06 -0.50020953381929401 0.15529109985527001 -3.3716569361382306e-06 -0.63993115957659241 0.13077772630430035 -3.1158897622435361e-05 -0.73852444114020033 0.15529109985527001 -3.3716569361382251e-06 -0.63993115957659241 0.20896368695043063 -2.8808764383146207e-06 -0.65537187873023872 0.17727553381840286 6.1359591580208316e-06 -0.65224772339960246 0.21033792671895354 -9.6336394324270286e-06 -0.77612980154025268 0.17704878172604285 -2.3183286104413433e-06 -0.51398248393548185 0.12892473719337169 -2.9362538558839875e-06 -0.45435917749770971 0.15529109985527001 -3.3716569361382251e-06 -0.63993115957659241 0.12937193399123145 -5.0654071274080513e-06 -0.50020953381929401 0.12909122955406513 3.7976778523510852e-06 -0.4729256651510314 0.17727553381840286 6.1359591580208299e-06 -0.65224772339960235 0.12978064094798292 4.7716067295055105e-06 -0.7098364927944546 0.12937193399123145 -5.0654071274080521e-06 -0.50020953381929401 0.17727553381840286 6.1359591580208316e-06 -0.65224772339960246 0.12909122955406513 3.7976778523510797e-06 -0.4729256651510314 0.19204202147273783 -5.9450005435523068e-06 -0.47327149783805866 0.12937193399123142 -5.0654071274080682e-06 -0.50020953381929378 0.17727553381840286 6.1359591580208316e-06 -0.65224772339960246 0.1920420214727378 -5.9450005435523034e-06 -0.47327149783805872 0.12909122955406513 3.7976778523510852e-06 -0.4729256651510314 0.12978064094798297 4.7716067295055105e-06 -0.7098364927944546 0.1920420214727378 -5.9450005435523e-06 -0.47327149783805872 0.12978064094798294 4.7716067295055105e-06 -0.70983649279445449 0.17727553381840286 6.1359591580208316e-06 -0.65224772339960246 0.20118238405136121 -1.1572990730535531e-05 -0.74162353590848828 0.12978064094798294 4.7716067295055122e-06 -0.70983649279445449 0.12937193399123145 -5.0654071274080521e-06 -0.50020953381929401 0.17727553381840286 6.1359591580208316e-06 -0.65224772339960246 0.13077772630430035 -3.1158897622435361e-05 -0.73852444114020033 0.17727553381840286 6.1359591580208316e-06 -0.65224772339960246 0.12937193399123142 -5.0654071274080564e-06 -0.50020953381929401 0.1920420214727378 -5.9450005435522992e-06 -0.47327149783805872 0.19908996143156488 2.4600620927977084e-05 -0.47511108561576959 0.1217903273665502 4.1868964854303746e-05 -0.94520008714197579 0.12978064094798294 4.7716067295055122e-06 -0.70983649279445449 0.15830357881646606 -2.9355054905357668e-08 -0.94769563291152259 0.13077772630430035 -3.1158897622435361e-05 -0.73852444114020033 0.15830357881646606 -2.9355054905357668e-08 -0.94769563291152259 0.17727553381840286 6.1359591580208392e-06 -0.65224772339960246 0.19044941210375313 1.1542896523221866e-06 -0.94987196837312116 0.21033792671895354 -9.6336394324270286e-06 -0.77612980154025268 0.15830357881646606 -2.9355054905357668e-08 -0.94769563291152259 0.17727553381840286 6.1359591580208316e-06 -0.65224772339960246 0.12978064094798297 4.7716067295055122e-06 -0.70983649279445438 0.20118238405136121 -1.1572990730535531e-05 -0.74162353590848828 0.15830357881646606 -2.9355054905357668e-08 -0.94769563291152259 0.13077772630430035 -3.1158897622435361e-05 -0.73852444114020033 0.17727553381840286 6.1359591580208172e-06 -0.65224772339960246 0.21033792671895354 -9.6336394324270286e-06 -0.77612980154025268 0.15830357881646606 -2.9355054905357668e-08 -0.94769563291152259 0.12978064094798297 4.7716067295055291e-06 -0.70983649279445449 0.17727553381840286 6.1359591580208409e-06 -0.65224772339960246 0.13077772630430035 -3.1158897622435361e-05 -0.73852444114020033 0.15830357881646606 -2.9355054905357668e-08 -0.94769563291152259 0.19044941210375316 1.1542896523221919e-06 -0.94987196837312127 0.17727553381840286 6.1359591580208316e-06 -0.65224772339960246 0.20118238405136121 -1.1572990730535531e-05 -0.74162353590848828 0.15830357881646606 -2.9355054905357668e-08 -0.94769563291152259 0.12978064094798294 4.7716067295055088e-06 -0.70983649279445449 0.17704616367832074 3.0016211307509887e-06 -0.94883099341454313 0.20118238405136121 -1.1572990730535531e-05 -0.74162353590848828 0.18516160144694802 -6.5063058619380031e-05 -0.94942549744833338 0.15830357881646606 -2.9355054905357668e-08 -0.94769563291152259 0.19044941210375313 1.1542896523221858e-06 -0.94987196837312116 0.21033792671895354 -9.6336394324270167e-06 -0.77612980154025268 0.15830357881646606 -2.9355054905357668e-08 -0.94769563291152259 0.17704616367832077 3.0016211307509874e-06 -0.94883099341454324 0.19044941210375313 1.1542896523221858e-06 -0.94987196837312116 0.20118238405136121 -1.1572990730535531e-05 -0.74162353590848828 0.1217903273665502 4.1868964854303746e-05 -0.94520008714197579 0.13797695360473067 1.4799262204130909e-05 -0.94629284290100923 0.15830357881646606 -2.9355054905356782e-08 -0.94769563291152259 0.12978064094798294 4.7716067295055122e-06 -0.70983649279445449 0.17704616367832077 3.0016211307509874e-06 -0.94883099341454324 0.15830357881646603 -2.9355054905354135e-08 -0.94769563291152259 0.13797695360473067 1.4799262204130903e-05 -0.94629284290100923 0.12978064094798294 4.7716067295055122e-06 -0.70983649279445449 0.15830357881646606 -2.9355054905357668e-08 -0.94769563291152259 0.13528879490115717 2.6738808079412284e-05 -0.94612869751652806 0.1217903273665502 4.1868964854303746e-05 -0.94520008714197579 0.13077772630430035 -3.1158897622435361e-05 -0.73852444114020033 0.13528879490115717 2.673880807941228e-05 -0.94612869751652806 0.18516160144694802 -6.5063058619380031e-05 -0.94942549744833338 0.1803093016652654 -2.705046083351987e-06 -0.79825776010117044 0.13077772630430032 -3.1158897622435347e-05 -0.73852444114020022 0.17727553381840286 6.1359591580208316e-06 -0.65224772339960246 0.13077772630430035 -3.1158897622435361e-05 -0.73852444114020033 0.1803093016652654 -2.7050460833519823e-06 -0.79825776010117044 0.21033792671895354 -9.6336394324270286e-06 -0.77612980154025268 0.18516160144694802 -6.5063058619380031e-05 -0.94942549744833338 0.1803093016652654 -2.7050460833519878e-06 -0.79825776010117044 0.13077772630430035 -3.1158897622435361e-05 -0.73852444114020033 0.21033792671895354 -9.633639432427015e-06 -0.77612980154025268 0.18516160144694802 -6.5063058619380031e-05 -0.94942549744833338 0.13077772630430035 -3.1158897622435354e-05 -0.73852444114020033 0.15830357881646606 -2.9355054905357668e-08 -0.94769563291152259 0.21033792671895354 -9.6336394324270065e-06 -0.77612980154025268 0.18516160144694802 -6.5063058619380031e-05 -0.94942549744833338 0.13528879490115717 2.673880807941228e-05 -0.94612869751652806 0.15830357881646606 -2.9355054905357668e-08 -0.94769563291152259 0.13077772630430035 -3.115889762243534e-05 -0.73852444114020044 0.15529109985527001 -3.3716569361382251e-06 -0.63993115957659241 0.17727553381840283 6.1359591580208773e-06 -0.65224772339960246 0.1803093016652654 -2.7050460833519823e-06 -0.79825776010117044 0.21033792671895354 -9.6336394324270286e-06 -0.77612980154025268 0.1803093016652654 -2.7050460833519823e-06 -0.79825776010117044 0.15529109985527001 -3.3716569361382272e-06 -0.63993115957659241 0.13032483613488743 -3.0361011204922052e-06 -0.78288385895770674 0.13077772630430035 -3.1158897622435361e-05 -0.73852444114020033 0.1803093016652654 -2.7050460833519823e-06 -0.79825776010117044 0.13032483613488743 -3.0361011204922052e-06 -0.78288385895770674 0.13528879490115717 2.673880807941228e-05 -0.94612869751652806 0.13077772630430035 -3.1158897622435361e-05 -0.73852444114020033 0.1585738017601383 -3.2774068568357662e-06 -0.94756441668372127 0.13032483613488743 -3.0361011204922052e-06 -0.78288385895770674 0.13528879490115717 2.673880807941228e-05 -0.94612869751652806 0.1803093016652654 -2.7050460833519823e-06 -0.79825776010117044 0.13528879490115717 2.673880807941228e-05 -0.94612869751652806 0.10673541019522015 -3.5529174102539046e-06 -0.94429062706057232 0.13032483613488743 -3.0361011204922077e-06 -0.78288385895770674 0.1585738017601383 -3.2774068568357662e-06 -0.94756441668372127 0.13528879490115717 2.673880807941228e-05 -0.94612869751652806 0.18516160144694802 -6.5063058619380031e-05 -0.94942549744833338 0.1585738017601383 -3.2774068568357611e-06 -0.94756441668372116 0.1803093016652654 -2.7050460833519823e-06 -0.79825776010117044 0.18516160144694802 -6.5063058619380031e-05 -0.94942549744833338 0.1585738017601383 -3.2774068568357683e-06 -0.94756441668372127 0.1803093016652654 -2.7050460833519823e-06 -0.79825776010117044 0.20890861715274323 -2.6155280119571496e-06 -0.95145664710641542 0.15529109985527001 -3.3716569361382251e-06 -0.63993115957659241 0.1803093016652654 -2.7050460833519819e-06 -0.79825776010117044 0.20896368695043063 -2.8808764383146207e-06 -0.65537187873023872 0.21033792671895354 -9.6336394324270286e-06 -0.77612980154025268 0.18516160144694802 -6.5063058619380031e-05 -0.94942549744833338 0.22194489626253688 -2.499341418607518e-05 -0.9522653998134456 0.1803093016652654 -2.7050460833519743e-06 -0.79825776010117033 0.21033792671895357 -9.6336394324270269e-06 -0.77612980154025268 0.22194489626253688 -2.4993414186075177e-05 -0.9522653998134456 0.18516160144694802 -6.5063058619380031e-05 -0.94942549744833338 0.22135570957763917 -3.3926658395205868e-05 -0.95216493500668453 0.21033792671895354 -9.6336394324270286e-06 -0.77612980154025268 0.2540627948530646 3.8899336404603258e-05 -0.67280345822852439 0.20896368695043063 -2.8808764383146241e-06 -0.65537187873023883 0.21991343163115565 -2.1365293919489443e-06 -0.81261294257467909 0.21033792671895352 -9.6336394324270387e-06 -0.77612980154025268 0.1803093016652654 -2.7050460833519823e-06 -0.79825776010117044 0.21991343163115565 -2.136529391948941e-06 -0.81261294257467909 0.20896368695043063 -2.8808764383146207e-06 -0.65537187873023872 0.21033792671895354 -9.6336394324270286e-06 -0.77612980154025268 0.21991343163115568 -2.1365293919489418e-06 -0.81261294257467909 0.1803093016652654 -2.7050460833519823e-06 -0.79825776010117044 0.22194489626253688 -2.4993414186075177e-05 -0.9522653998134456 0.21033792671895354 -9.6336394324270286e-06 -0.77612980154025268 0.20890861715274323 -2.6155280119571496e-06 -0.95145664710641542 0.18030930166526538 -2.7050460833519836e-06 -0.79825776010117033 0.18516160144694802 -6.5063058619380031e-05 -0.94942549744833338 0.22194489626253688 -2.4993414186075177e-05 -0.9522653998134456 0.20890861715274323 -2.6155280119571496e-06 -0.95145664710641542 0.2199134316311557 -2.1365293919489405e-06 -0.8126129425746792 0.1803093016652654 -2.7050460833519832e-06 -0.79825776010117044 0.22194489626253688 -2.4993414186075177e-05 -0.9522653998134456 0.25745407018943256 -2.884836143621395e-06 -0.95475613051605845 0.25548322955279545 3.181261749917116e-05 -0.81436631156355244 0.21991343163115565 -2.1365293919489435e-06 -0.81261294257467909 0.22194489626253688 -2.4993414186075177e-05 -0.9522653998134456 0.20890861715274323 -2.6155280119571496e-06 -0.95145664710641542 0.25745407018943256 -2.884836143621395e-06 -0.95475613051605845 0.21991343163115568 -2.1365293919489418e-06 -0.81261294257467909 0.22194489626253688 -2.4993414186075177e-05 -0.9522653998134456 0.22194489626253688 -2.4993414186075177e-05 -0.9522653998134456 0.25745407018943256 -2.884836143621395e-06 -0.95475613051605845 0.25548322955279545 3.181261749917116e-05 -0.81436631156355244 0.25740314014606402 8.7484450510264003e-06 -0.95445700349422169 0.21991343163115568 -2.1365293919489418e-06 -0.81261294257467909 0.25548322955279551 3.181261749917116e-05 -0.81436631156355244 0.25745407018943256 -2.884836143621395e-06 -0.95475613051605845 0.25472003997088155 -2.8450484055378634e-06 -0.76304916526311239 0.21991343163115568 -2.1365293919489418e-06 -0.81261294257467909 0.20896368695043063 -2.8808764383146212e-06 -0.65537187873023872 0.2540627948530646 3.8899336404603252e-05 -0.6728034582285245 0.25472003997088155 -2.8450484055378634e-06 -0.76304916526311239 0.2540627948530646 3.8899336404603258e-05 -0.67280345822852439 0.25548322955279545 3.181261749917116e-05 -0.81436631156355244 0.21991343163115568 -2.1365293919489418e-06 -0.81261294257467909 0.25472003997088155 -2.8450484055378634e-06 -0.76304916526311239 0.25548322955279545 3.181261749917116e-05 -0.81436631156355244 0.25549507783097491 1.389716557021448e-05 -0.81247656600610929 0.2540627948530646 3.8899336404603258e-05 -0.67280345822852439 0.21033792671895354 -9.6336394324270286e-06 -0.77612980154025268 0.2540627948530646 3.8899336404603258e-05 -0.67280345822852439 0.21991343163115568 -2.1365293919489418e-06 -0.81261294257467909 0.25548322955279545 3.181261749917116e-05 -0.81436631156355244 0.21033792671895354 -9.6336394324270286e-06 -0.77612980154025268 0.22194489626253688 -2.4993414186075177e-05 -0.9522653998134456 0.22135570957763914 -3.3926658395205868e-05 -0.95216493500668442 0.25740314014606402 8.7484450510264003e-06 -0.95445700349422169 0.21033792671895354 -9.6336394324270286e-06 -0.77612980154025268 0.25548322955279545 3.181261749917116e-05 -0.81436631156355244 0.22194489626253688 -2.4993414186075183e-05 -0.9522653998134456 0.25740314014606402 8.7484450510264003e-06 -0.95445700349422169 0.21033792671895354 -9.6336394324270286e-06 -0.77612980154025268 0.25548322955279545 3.181261749917116e-05 -0.81436631156355244 0.25740314014606402 8.7484450510264003e-06 -0.95445700349422169 0.25549507783097491 1.389716557021448e-05 -0.81247656600610929 0.21033792671895354 -9.6336394324270286e-06 -0.77612980154025268 0.21991343163115568 -2.1365293919489418e-06 -0.81261294257467909 0.22194489626253688 -2.4993414186075177e-05 -0.9522653998134456 0.25548322955279545 3.181261749917116e-05 -0.81436631156355244 0.2103379267189536 -9.6336394324270235e-06 -0.7761298015402528 0.25740314014606402 8.7484450510264003e-06 -0.95445700349422169 0.25549507783097491 1.3897165570214475e-05 -0.8124765660061094 0.22135570957763917 -3.3926658395205868e-05 -0.95216493500668453 0.25730335645009933 2.3179549241276913e-05 -0.95451848997554867 0.25740314014606402 8.7484450510264003e-06 -0.95445700349422169 0.22135570957763917 -3.3926658395205875e-05 -0.95216493500668453 0.25549507783097491 1.389716557021448e-05 -0.81247656600610929 0.21033792671895352 -9.6336394324270252e-06 -0.77612980154025268 0.25549507783097491 1.389716557021448e-05 -0.81247656600610929 0.22135570957763917 -3.3926658395205875e-05 -0.95216493500668453 0.20118238405136121 -1.1572990730535534e-05 -0.74162353590848828 0.2103379267189536 -9.6336394324270218e-06 -0.7761298015402528 0.17727553381840286 6.1359591580208316e-06 -0.65224772339960246 0.20118238405136121 -1.1572990730535529e-05 -0.74162353590848828 0.19044941210375316 1.1542896523221919e-06 -0.94987196837312127 0.21033792671895354 -9.6336394324270286e-06 -0.77612980154025268 0.25436158331902936 -3.6847963105371186e-05 -0.69346745942446331 0.25549507783097491 1.389716557021448e-05 -0.81247656600610929 0.20118238405136121 -1.1572990730535514e-05 -0.74162353590848828 0.21033792671895349 -9.6336394324270387e-06 -0.77612980154025257 0.22135570957763917 -3.3926658395205868e-05 -0.95216493500668453 0.19044941210375313 1.1542896523221858e-06 -0.94987196837312116 0.20118238405136121 -1.1572990730535531e-05 -0.74162353590848828 0.21033792671895352 -9.6336394324270353e-06 -0.77612980154025257 0.25436158331902936 -3.6847963105371186e-05 -0.69346745942446331 0.20118238405136124 -1.1572990730535541e-05 -0.74162353590848828 0.17727553381840286 6.1359591580208307e-06 -0.65224772339960246 0.21033792671895352 -9.6336394324270252e-06 -0.7761298015402528 0.22135570957763917 -3.3926658395205868e-05 -0.95216493500668453 0.25549507783097491 1.389716557021447e-05 -0.8124765660061094 0.25527597578849703 8.3268082940859403e-08 -0.80321203894774695 0.25730335645009933 2.3179549241276913e-05 -0.95451848997554867 0.19044941210375313 1.1542896523221858e-06 -0.94987196837312116 0.22135570957763914 -3.3926658395205868e-05 -0.95216493500668464 0.18516160144694802 -6.5063058619380031e-05 -0.94942549744833338 0.21033792671895354 -9.6336394324270286e-06 -0.77612980154025268 0.2540627948530646 3.8899336404603258e-05 -0.67280345822852439 0.25549507783097491 1.389716557021448e-05 -0.81247656600610929 0.25436158331902936 -3.6847963105371186e-05 -0.69346745942446331 0.21033792671895354 -9.6336394324270286e-06 -0.77612980154025268 0.22135570957763917 -3.3926658395205868e-05 -0.95216493500668453 0.25527597578849703 8.3268082940843482e-08 -0.80321203894774706 0.25549507783097491 1.389716557021448e-05 -0.81247656600610929 0.20118238405136121 -1.1572990730535531e-05 -0.74162353590848828 0.25549507783097491 1.389716557021448e-05 -0.81247656600610929 0.25527597578849703 8.3268082940850152e-08 -0.80321203894774695 0.25436158331902936 -3.6847963105371186e-05 -0.69346745942446331 0.20118238405136121 -1.1572990730535531e-05 -0.74162353590848828 0.25436158331902936 -3.6847963105371186e-05 -0.69346745942446331 0.25527597578849703 8.3268082940857154e-08 -0.80321203894774695 0.2536421783475814 1.618799595958834e-05 -0.64173458592881949 0.20118238405136121 -1.1572990730535531e-05 -0.74162353590848828 0.19044941210375313 1.1542896523221858e-06 -0.94987196837312116 0.17704616367832077 3.0016211307509874e-06 -0.94883099341454324 0.21902631103138889 1.3342123362640123e-06 -0.95210804673771077 0.20118238405136121 -1.1572990730535531e-05 -0.74162353590848828 0.21902631103138889 1.3342123362640129e-06 -0.95210804673771088 0.22135570957763917 -3.3926658395205868e-05 -0.95216493500668453 0.19044941210375313 1.1542896523221856e-06 -0.94987196837312116 0.20118238405136121 -1.1572990730535531e-05 -0.74162353590848828 0.21902631103138889 1.3342123362640129e-06 -0.95210804673771088 0.25527597578849703 8.3268082940859403e-08 -0.80321203894774695 0.22135570957763917 -3.3926658395205868e-05 -0.95216493500668453 0.20118238405136121 -1.1572990730535531e-05 -0.74162353590848828 0.25730335645009933 2.3179549241276913e-05 -0.95451848997554867 0.25527597578849703 8.3268082940859403e-08 -0.80321203894774695 0.21902631103138889 1.3342123362640129e-06 -0.95210804673771088 0.25736068222801128 6.5414316596601979e-07 -0.9544929176951944 0.25527597578849703 8.3268082940859403e-08 -0.80321203894774695 0.21902631103138889 1.3342123362640195e-06 -0.95210804673771088 0.2213557095776392 -3.3926658395205875e-05 -0.95216493500668453 0.25730335645009933 2.3179549241276913e-05 -0.95451848997554867 0.21058869217112719 1.9463126652812614e-05 -0.95125856656796137 0.20118238405136127 -1.1572990730535458e-05 -0.74162353590848828 0.17708406689892414 -2.7094548645368213e-05 -0.65128148590798673 0.20060041342654672 2.3226886989730343e-05 -0.77623479589591027 0.21058869217112719 1.9463126652812614e-05 -0.95125856656796137 0.25498328268484938 1.5782946874042189e-05 -0.77105955756525524 0.20118238405136121 -1.1572990730535531e-05 -0.74162353590848828 0.20060041342654672 2.3226886989730343e-05 -0.77623479589591027 0.25736068222801128 6.5414316596601979e-07 -0.9544929176951944 0.25527597578849703 8.3268082940859403e-08 -0.80321203894774695 0.21902631103138889 1.3342123362640129e-06 -0.95210804673771088 0.25498328268484938 1.5782946874042185e-05 -0.77105955756525524 0.17708406689892417 -2.7094548645368132e-05 -0.65128148590798662 0.20118238405136121 -1.1572990730535527e-05 -0.7416235359084884 0.25498328268484938 1.5782946874042195e-05 -0.77105955756525535 0.20060041342654672 2.3226886989730356e-05 -0.77623479589591027 0.21902631103138889 1.3342123362640129e-06 -0.95210804673771088 0.25736068222801128 6.5414316596601619e-07 -0.95449291769519451 0.25498328268484938 1.5782946874042185e-05 -0.77105955756525524 0.21058869217112719 1.9463126652812614e-05 -0.95125856656796137 0.25736068222801128 6.5414316596601979e-07 -0.9544929176951944 0.25498328268484938 1.5782946874042185e-05 -0.77105955756525524 0.21058869217112719 1.9463126652812614e-05 -0.95125856656796137 0.25738397903493992 -7.0716993900621562e-06 -0.95451940646405675 0.21902631103138889 1.3342123362640129e-06 -0.95210804673771088 0.17704616367832077 3.0016211307509874e-06 -0.94883099341454324 0.21058869217112719 1.9463126652812614e-05 -0.95125856656796137 0.20118238405136121 -1.1572990730535531e-05 -0.74162353590848828 0.21902631103138889 1.3342123362640129e-06 -0.95210804673771088 0.21058869217112719 1.9463126652812614e-05 -0.95125856656796137 0.25498328268484938 1.5782946874042185e-05 -0.77105955756525524 0.20118238405136121 -1.1572990730535531e-05 -0.74162353590848828 0.25498328268484938 1.5782946874042185e-05 -0.77105955756525524 0.2536421783475814 1.6187995959588343e-05 -0.64173458592881938 0.25527597578849703 8.3268082940859403e-08 -0.80321203894774695 0.20118238405136121 -1.1572990730535531e-05 -0.74162353590848828 0.25498328268484938 1.5782946874042185e-05 -0.77105955756525524 0.25527597578849703 8.3268082940859403e-08 -0.80321203894774695 0.21902631103138889 1.334212336264014e-06 -0.95210804673771088 0.20118238405136121 -1.1572990730535531e-05 -0.74162353590848828 0.25330899220189829 2.555997258929707e-05 -0.58168810135683813 0.20118238405136121 -1.1572990730535532e-05 -0.74162353590848817 0.1920420214727378 -5.9450005435522992e-06 -0.47327149783805872 0.2536421783475814 1.618799595958834e-05 -0.64173458592881949 0.25330899220189829 2.555997258929707e-05 -0.58168810135683813 0.1920420214727378 -5.9450005435522941e-06 -0.47327149783805866 0.17708406689892414 -2.7094548645368129e-05 -0.65128148590798651 0.19757852726717021 1.6773952880283681e-05 -0.4732877797251388 0.25330899220189829 2.555997258929707e-05 -0.58168810135683813 0.1770840668989242 -2.7094548645368119e-05 -0.65128148590798662 0.254056999081885 -7.0090246042899204e-05 -0.6613018253941555 0.19757852726717021 1.6773952880283684e-05 -0.4732877797251388 0.25498328268484938 1.5782946874042185e-05 -0.77105955756525524 0.25330899220189834 2.555997258929708e-05 -0.58168810135683802 0.17708406689892414 -2.7094548645368098e-05 -0.65128148590798662 0.20060041342654672 2.3226886989730343e-05 -0.77623479589591027 0.25330899220189829 2.555997258929707e-05 -0.58168810135683813 0.25257710464980671 3.03669035098583e-05 -0.43649508382266528 0.1920420214727378 -5.9450005435523e-06 -0.47327149783805872 0.19757852726717021 1.6773952880283681e-05 -0.47328777972513875 0.1920420214727378 -5.9450005435523e-06 -0.47327149783805872 0.20118238405136118 -1.1572990730535532e-05 -0.74162353590848828 0.25330899220189829 2.5559972589297067e-05 -0.58168810135683813 0.17708406689892417 -2.7094548645368132e-05 -0.65128148590798662 0.25498328268484938 1.5782946874042185e-05 -0.77105955756525524 0.17708406689892417 -2.7094548645368132e-05 -0.65128148590798662 0.25330899220189829 2.555997258929707e-05 -0.58168810135683824 0.20118238405136121 -1.1572990730535531e-05 -0.74162353590848828 0.2536421783475814 1.618799595958834e-05 -0.64173458592881949 0.25498328268484943 1.5782946874042185e-05 -0.77105955756525524 0.25330899220189829 2.555997258929707e-05 -0.58168810135683813 0.20118238405136121 -1.1572990730535537e-05 -0.74162353590848817 0.25330899220189829 2.555997258929707e-05 -0.58168810135683813 0.25260387809370283 2.2284773777010682e-05 -0.49511670020985776 0.2536421783475814 1.618799595958834e-05 -0.64173458592881949 0.1920420214727378 -5.9450005435523e-06 -0.47327149783805872 0.25330899220189829 2.555997258929707e-05 -0.58168810135683813 0.25257710464980671 3.03669035098583e-05 -0.43649508382266528 0.25260387809370283 2.2284773777010682e-05 -0.49511670020985771 0.1920420214727378 -5.9450005435523e-06 -0.47327149783805872 0.25330899220189829 2.555997258929707e-05 -0.58168810135683813 0.25267637923709441 -4.3530401788601811e-05 -0.48413236742277815 0.25257710464980671 3.03669035098583e-05 -0.43649508382266528 0.19757852726717023 1.6773952880283694e-05 -0.47328777972513886 0.254056999081885 -7.0090246042899204e-05 -0.6613018253941555 0.19757852726717023 1.6773952880283684e-05 -0.47328777972513886 0.1770840668989242 -2.7094548645368271e-05 -0.65128148590798662 0.20060041342654672 2.3226886989730343e-05 -0.77623479589591027 0.17708406689892417 -2.7094548645368132e-05 -0.65128148590798662 0.19757852726717021 1.677395288028367e-05 -0.47328777972513886 0.20866440735494826 2.8214645609168316e-06 -0.65062478257887879 0.20060041342654678 2.3226886989730441e-05 -0.77623479589591027 0.254056999081885 -7.0090246042899204e-05 -0.6613018253941555 0.17708406689892417 -2.7094548645368559e-05 -0.6512814859079864 0.25330899220189829 2.555997258929707e-05 -0.58168810135683813 0.20060041342654672 2.3226886989730343e-05 -0.77623479589591027 0.25498328268484938 1.5782946874042185e-05 -0.77105955756525524 0.254056999081885 -7.0090246042899204e-05 -0.6613018253941555 0.25330899220189829 2.555997258929707e-05 -0.58168810135683813 0.20060041342654672 2.3226886989730343e-05 -0.77623479589591027 0.254056999081885 -7.0090246042899204e-05 -0.6613018253941555 0.20866440735494823 2.8214645609167444e-06 -0.65062478257887868 0.19757852726717023 1.6773952880283684e-05 -0.47328777972513886 0.20060041342654672 2.3226886989730343e-05 -0.77623479589591027 0.25267637923709441 -4.3530401788601811e-05 -0.48413236742277815 0.25330899220189829 2.555997258929707e-05 -0.58168810135683813 0.254056999081885 -7.0090246042899204e-05 -0.6613018253941555 0.19757852726717023 1.6773952880283684e-05 -0.47328777972513886 0.254056999081885 -7.0090246042899204e-05 -0.6613018253941555 0.22072584070655141 2.6430901984101143e-06 -0.48140832682577456 0.25267637923709441 -4.3530401788601811e-05 -0.48413236742277815 0.19757852726717023 1.6773952880283684e-05 -0.47328777972513886 0.25317295510752963 2.8010565999142594e-06 -0.5719413507586909 0.25267637923709441 -4.3530401788601811e-05 -0.48413236742277815 0.254056999081885 -7.0090246042899204e-05 -0.6613018253941555 0.22072584070655141 2.6430901984101083e-06 -0.48140832682577456 0.22072584070655141 2.6430901984101083e-06 -0.48140832682577456 0.25317295510752963 2.8010565999142602e-06 -0.5719413507586909 0.25267637923709441 -4.3530401788601811e-05 -0.48413236742277815 0.25220431202607674 2.5579447899486543e-06 -0.38094616427076494 0.254056999081885 -7.0090246042899204e-05 -0.6613018253941555 0.20866440735494821 2.8214645609167283e-06 -0.65062478257887868 0.25317295510752963 2.8010565999142594e-06 -0.5719413507586909 0.22072584070655138 2.6430901984100918e-06 -0.48140832682577439 0.22072584070655141 2.6430901984101083e-06 -0.48140832682577456 0.20866440735494823 2.8214645609167393e-06 -0.65062478257887868 0.17512381236317109 3.3329596003925723e-06 -0.49620008725643094 0.19757852726717023 1.6773952880283684e-05 -0.47328777972513886 0.20866440735494823 2.8214645609167393e-06 -0.65062478257887868 0.22072584070655141 2.6430901984101083e-06 -0.48140832682577456 0.254056999081885 -7.0090246042899191e-05 -0.6613018253941555 0.19757852726717023 1.6773952880283684e-05 -0.47328777972513886 0.254056999081885 -7.0090246042899204e-05 -0.6613018253941555 0.20866440735494823 2.8214645609167406e-06 -0.65062478257887879 0.25478591308020554 3.058386290856354e-06 -0.76301207762856171 0.25317295510752963 2.8010565999142594e-06 -0.5719413507586909 0.25478591308020554 3.058386290856354e-06 -0.76301207762856171 0.21996677598931277 2.0993168626833747e-06 -0.81256549808733258 0.20866440735494823 2.8214645609167393e-06 -0.65062478257887868 0.254056999081885 -7.0090246042899204e-05 -0.6613018253941555 0.2199667759893128 2.0993168626833692e-06 -0.81256549808733258 0.25405699908188495 -7.0090246042899204e-05 -0.6613018253941555 0.25548969178045616 -5.0299647742998887e-05 -0.8143184989340394 0.20060041342654672 2.3226886989730356e-05 -0.77623479589591038 0.2199667759893128 2.0993168626833692e-06 -0.81256549808733258 0.25478591308020554 3.058386290856354e-06 -0.76301207762856171 0.25548969178045611 -5.0299647742998887e-05 -0.81431849893403929 0.25405699908188506 -7.0090246042899177e-05 -0.66130182539415572 0.22188155748847849 1.3441854634192912e-05 -0.95230200199471626 0.25740323363888845 2.8141733719399022e-06 -0.95467556049362057 0.25738397903493992 -7.0716993900621562e-06 -0.95451940646405675 0.25548969178045616 -5.0299647742998887e-05 -0.8143184989340394 0.22188155748847849 1.3441854634192912e-05 -0.95230200199471626 0.20876127614262402 2.7389492640544572e-06 -0.95131902257532019 0.25740323363888845 2.814173371939909e-06 -0.95467556049362057 0.2199667759893128 2.0993168626833692e-06 -0.81256549808733258 0.25478591308020554 3.058386290856354e-06 -0.76301207762856171 0.25548969178045616 -5.0299647742998887e-05 -0.8143184989340394 0.25740323363888845 2.814173371939909e-06 -0.95467556049362057 0.2199667759893128 2.0993168626833692e-06 -0.81256549808733258 0.25548969178045616 -5.0299647742998887e-05 -0.8143184989340394 0.22188155748847849 1.3441854634192916e-05 -0.95230200199471626 0.25740323363888845 2.814173371939909e-06 -0.95467556049362057 0.2199667759893128 2.0993168626833692e-06 -0.81256549808733258 0.22188155748847849 1.3441854634192912e-05 -0.95230200199471626 0.25738397903493992 -7.0716993900621562e-06 -0.95451940646405675 0.25498328268484938 1.5782946874042175e-05 -0.77105955756525524 0.25548969178045616 -5.0299647742998887e-05 -0.8143184989340394 0.25738397903493992 -7.0716993900621562e-06 -0.95451940646405675 0.25498328268484938 1.5782946874042185e-05 -0.77105955756525524 0.21058869217112716 1.9463126652812617e-05 -0.95125856656796137 0.22188155748847849 1.3441854634192912e-05 -0.95230200199471626 0.22188155748847849 1.3441854634192912e-05 -0.95230200199471626 0.25548969178045616 -5.0299647742998887e-05 -0.8143184989340394 0.25498328268484932 1.5782946874042185e-05 -0.77105955756525524 0.20060041342654672 2.3226886989730353e-05 -0.77623479589591027 0.25498328268484938 1.5782946874042185e-05 -0.77105955756525524 0.25548969178045616 -5.0299647742998887e-05 -0.8143184989340394 0.254056999081885 -7.0090246042899204e-05 -0.6613018253941555 0.20060041342654672 2.3226886989730343e-05 -0.77623479589591027 0.18218702240207077 4.9983592142950916e-05 -0.94917121258458959 0.22188155748847849 1.3441854634192912e-05 -0.95230200199471626 0.21058869217112719 1.9463126652812614e-05 -0.95125856656796137 0.20060041342654672 2.3226886989730343e-05 -0.77623479589591027 0.21058869217112719 1.9463126652812614e-05 -0.95125856656796137 0.22188155748847849 1.3441854634192912e-05 -0.95230200199471626 0.25498328268484932 1.5782946874042185e-05 -0.77105955756525524 0.20060041342654672 2.3226886989730343e-05 -0.77623479589591027 0.22188155748847849 1.3441854634192912e-05 -0.95230200199471626 0.20876127614262405 2.7389492640544572e-06 -0.95131902257532019 0.2199667759893128 2.0993168626833692e-06 -0.81256549808733258 0.20060041342654672 2.3226886989730343e-05 -0.77623479589591027 0.18159494452795577 2.7169603401959574e-06 -0.78848061309468198 0.2199667759893128 2.0993168626833692e-06 -0.81256549808733258 0.20876127614262405 2.7389492640544572e-06 -0.95131902257532019 0.20060041342654672 2.3226886989730343e-05 -0.77623479589591027 0.22188155748847849 1.3441854634192912e-05 -0.95230200199471626 0.18218702240207077 4.9983592142950916e-05 -0.94917121258458959 0.20876127614262405 2.7389492640544567e-06 -0.95131902257532019 0.20060041342654672 2.3226886989730343e-05 -0.77623479589591027 0.25548969178045616 -5.0299647742998887e-05 -0.8143184989340394 0.22188155748847849 1.3441854634192919e-05 -0.95230200199471626 0.21996677598931277 2.0993168626833806e-06 -0.81256549808733247 0.20060041342654669 2.322688698973035e-05 -0.77623479589591027 0.2199667759893128 2.0993168626833692e-06 -0.81256549808733258 0.18159494452795574 2.7169603401959574e-06 -0.78848061309468198 0.20866440735494823 2.8214645609167393e-06 -0.65062478257887868 0.20060041342654675 2.322688698973035e-05 -0.77623479589591038 0.20866440735494823 2.8214645609167393e-06 -0.65062478257887868 0.25405699908188495 -7.0090246042899191e-05 -0.6613018253941555 0.2199667759893128 2.0993168626833692e-06 -0.81256549808733258 0.20060041342654672 2.3226886989730343e-05 -0.77623479589591027 0.18218702240207077 4.9983592142950916e-05 -0.94917121258458959 0.13033556335534766 1.3911143114568132e-05 -0.73669715462728314 0.18159494452795577 2.7169603401959561e-06 -0.78848061309468209 0.20060041342654672 2.3226886989730343e-05 -0.77623479589591027 0.18218702240207077 4.9983592142950916e-05 -0.94917121258458959 0.16100160608981059 7.0895252283689634e-06 -0.94787508263255615 0.13033556335534768 1.3911143114568129e-05 -0.73669715462728325 0.20060041342654672 2.3226886989730343e-05 -0.77623479589591027 0.20866440735494823 2.8214645609167393e-06 -0.65062478257887868 0.18159494452795577 2.7169603401959574e-06 -0.78848061309468198 0.15834948906537616 2.5169031061460925e-06 -0.64285843888650929 0.20060041342654672 2.3226886989730343e-05 -0.77623479589591027 0.15834948906537616 2.5169031061460925e-06 -0.64285843888650929 0.18159494452795577 2.7169603401959557e-06 -0.78848061309468198 0.13033556335534768 1.3911143114568129e-05 -0.73669715462728325 0.20060041342654672 2.3226886989730343e-05 -0.77623479589591027 0.18218702240207077 4.9983592142950916e-05 -0.94917121258458959 0.1815949445279558 2.7169603401959527e-06 -0.78848061309468187 0.20876127614262405 2.7389492640544567e-06 -0.95131902257532019 0.20060041342654672 2.3226886989730343e-05 -0.77623479589591027 0.13335479782020138 2.7637980409431697e-06 -0.79027090792124488 0.1586187993191602 3.3095731593234105e-06 -0.94771405955564714 0.1821870224020708 4.9983592142950937e-05 -0.94917121258458959 0.18159494452795577 2.7169603401959574e-06 -0.78848061309468198 0.18159494452795577 2.7169603401959574e-06 -0.78848061309468198 0.15861879931916023 3.3095731593234169e-06 -0.94771405955564703 0.18218702240207077 4.9983592142950916e-05 -0.94917121258458959 0.20876127614262405 2.7389492640544567e-06 -0.95131902257532019 0.21058869217112719 1.9463126652812614e-05 -0.95125856656796137 0.16100160608981059 7.0895252283689634e-06 -0.94787508263255615 0.18218702240207077 4.9983592142950916e-05 -0.94917121258458959 0.20060041342654672 2.3226886989730343e-05 -0.77623479589591027 0.13480976576187184 -2.5290145100781603e-05 -0.94598727257927662 0.18218702240207077 4.9983592142950916e-05 -0.94917121258458959 0.16100160608981059 7.0895252283689634e-06 -0.94787508263255615 0.13033556335534768 1.3911143114568129e-05 -0.73669715462728325 0.13480976576187184 -2.5290145100781603e-05 -0.94598727257927662 0.13335479782020138 2.7637980409431739e-06 -0.79027090792124488 0.18218702240207077 4.9983592142950916e-05 -0.94917121258458959 0.13033556335534768 1.3911143114568129e-05 -0.73669715462728325 0.1586187993191602 3.3095731593234105e-06 -0.94771405955564714 0.13480976576187184 -2.5290145100781603e-05 -0.94598727257927662 0.10682646509022274 3.7131060191964646e-06 -0.94449526413431428 0.13335479782020138 2.7637980409431697e-06 -0.79027090792124488 0.18218702240207077 4.9983592142950916e-05 -0.94917121258458959 0.13480976576187184 -2.5290145100781603e-05 -0.94598727257927662 0.1586187993191602 3.3095731593234105e-06 -0.94771405955564714 0.13335479782020135 2.7637980409431769e-06 -0.79027090792124466 0.18218702240207077 4.9983592142950916e-05 -0.94917121258458959 0.13335479782020138 2.7637980409431786e-06 -0.79027090792124499 0.18159494452795577 2.7169603401959591e-06 -0.78848061309468198 0.13033556335534766 1.3911143114568129e-05 -0.73669715462728325 0.13335479782020138 2.7637980409431697e-06 -0.79027090792124488 0.15834948906537616 2.5169031061460929e-06 -0.64285843888650929 0.18159494452795577 2.7169603401959578e-06 -0.78848061309468198 0.13033556335534768 1.3911143114568127e-05 -0.73669715462728325 0.15834948906537616 2.5169031061460925e-06 -0.64285843888650929 0.12911591773707237 -4.6282717396583829e-06 -0.50095030267349916 0.17708406689892417 -2.7094548645368142e-05 -0.65128148590798662 0.13033556335534768 1.3911143114568139e-05 -0.73669715462728325 0.15834948906537616 2.5169031061460925e-06 -0.64285843888650929 0.12911591773707237 -4.6282717396583973e-06 -0.50095030267349916 0.17512381236317109 3.3329596003925723e-06 -0.49620008725643094 0.19757852726717023 1.6773952880283684e-05 -0.47328777972513886 0.15834948906537616 2.5169031061460925e-06 -0.64285843888650929 0.11916041207123629 2.4409805978913444e-06 -0.65193964720334696 0.1291159177370724 -4.6282717396583897e-06 -0.50095030267349916 0.13033556335534768 1.3911143114568129e-05 -0.73669715462728325 0.11916041207123629 2.4409805978913444e-06 -0.65193964720334696 0.15834948906537616 2.5169031061460925e-06 -0.64285843888650929 0.13335479782020138 2.7637980409431693e-06 -0.79027090792124488 0.13033556335534768 1.3911143114568129e-05 -0.73669715462728325 0.15834948906537616 2.5169031061460925e-06 -0.64285843888650929 0.17708406689892414 -2.7094548645368129e-05 -0.65128148590798651 0.1291159177370724 -4.628271739658388e-06 -0.50095030267349927 0.19757852726717023 1.6773952880283684e-05 -0.47328777972513886 0.20866440735494823 2.8214645609167393e-06 -0.65062478257887868 0.15834948906537616 2.5169031061460865e-06 -0.64285843888650929 0.17708406689892414 -2.7094548645368149e-05 -0.65128148590798651 0.20060041342654672 2.3226886989730343e-05 -0.77623479589591027 0.15834948906537616 2.5169031061460925e-06 -0.64285843888650929 0.13033556335534768 1.3911143114568129e-05 -0.73669715462728325 0.17708406689892417 -2.7094548645368142e-05 -0.65128148590798651 0.20060041342654672 2.3226886989730343e-05 -0.77623479589591027 0.20866440735494823 2.8214645609167393e-06 -0.65062478257887868 0.17708406689892417 -2.7094548645368132e-05 -0.65128148590798662 0.15834948906537616 2.5169031061460925e-06 -0.64285843888650929 0.19757852726717023 1.6773952880283667e-05 -0.47328777972513891 0.20866440735494823 2.8214645609167393e-06 -0.65062478257887868 0.15834948906537616 2.5169031061460925e-06 -0.64285843888650929 0.17512381236317109 3.3329596003925732e-06 -0.49620008725643094 0.19757852726717023 1.6773952880283684e-05 -0.47328777972513886 0.15834948906537616 2.5169031061460925e-06 -0.64285843888650929 0.11916041207123629 2.4409805978913444e-06 -0.65193964720334696 0.13397691805731657 2.9123918118377146e-06 -0.47306304001404931 0.1291159177370724 -4.6282717396583905e-06 -0.50095030267349916 0.15834948906537616 2.5169031061460925e-06 -0.64285843888650929 0.13397691805731657 2.9123918118377146e-06 -0.47306304001404931 0.17512381236317109 3.3329596003925723e-06 -0.49620008725643094 0.12911591773707243 -4.6282717396583914e-06 -0.50095030267349927 0.17708406689892417 -2.7094548645368132e-05 -0.65128148590798662 0.1291159177370724 -4.6282717396583872e-06 -0.50095030267349905 0.12978064094798294 4.7716067295055122e-06 -0.70983649279445449 0.13033556335534768 1.3911143114568129e-05 -0.73669715462728325 0.17708406689892417 -2.7094548645368132e-05 -0.65128148590798662 0.12909122955406513 3.7976778523510937e-06 -0.4729256651510314 0.19204202147273777 -5.9450005435523051e-06 -0.47327149783805861 0.12978064094798294 4.7716067295055122e-06 -0.70983649279445449 0.17708406689892417 -2.7094548645368132e-05 -0.65128148590798662 0.12978064094798294 4.7716067295055122e-06 -0.70983649279445449 0.1920420214727378 -5.9450005435523e-06 -0.47327149783805872 0.20118238405136121 -1.1572990730535531e-05 -0.74162353590848828 0.12909122955406513 3.7976778523510852e-06 -0.4729256651510314 0.17708406689892417 -2.7094548645368129e-05 -0.65128148590798662 0.1920420214727378 -5.9450005435523e-06 -0.47327149783805872 0.1291159177370724 -4.6282717396583888e-06 -0.50095030267349916 0.1920420214727378 -5.9450005435523e-06 -0.47327149783805872 0.1291159177370724 -4.6282717396583948e-06 -0.50095030267349916 0.17708406689892417 -2.7094548645368132e-05 -0.65128148590798662 0.19757852726717029 1.6773952880283694e-05 -0.47328777972513891 0.17708406689892417 -2.7094548645368132e-05 -0.65128148590798662 0.1290912295540651 3.7976778523510886e-06 -0.4729256651510314 0.12978064094798294 4.7716067295055139e-06 -0.70983649279445449 0.12911591773707237 -4.6282717396583787e-06 -0.50095030267349905 0.20118238405136121 -1.1572990730535531e-05 -0.74162353590848828 0.16100160608981057 7.0895252283689676e-06 -0.94787508263255615 0.12978064094798294 4.771606729505513e-06 -0.70983649279445438 0.17704616367832079 3.0016211307509849e-06 -0.94883099341454324 0.20118238405136121 -1.1572990730535531e-05 -0.74162353590848828 0.12978064094798294 4.7716067295055028e-06 -0.70983649279445449 0.16100160608981059 7.0895252283689634e-06 -0.94787508263255615 0.17708406689892417 -2.7094548645368125e-05 -0.65128148590798662 0.16100160608981059 7.0895252283689634e-06 -0.94787508263255615 0.17708406689892417 -2.7094548645368125e-05 -0.65128148590798662 0.21058869217112719 1.9463126652812614e-05 -0.95125856656796137 0.20118238405136121 -1.1572990730535534e-05 -0.7416235359084884 0.17708406689892417 -2.7094548645368132e-05 -0.65128148590798662 0.13033556335534768 1.3911143114568129e-05 -0.73669715462728325 0.16100160608981059 7.08952522836896e-06 -0.94787508263255604 0.20060041342654669 2.3226886989730366e-05 -0.77623479589591016 0.17708406689892417 -2.7094548645368132e-05 -0.65128148590798662 0.12978064094798297 4.771606729505513e-06 -0.7098364927944546 0.16100160608981059 7.0895252283689719e-06 -0.94787508263255604 0.13033556335534768 1.3911143114568132e-05 -0.73669715462728325 0.21058869217112719 1.9463126652812614e-05 -0.95125856656796137 0.17708406689892417 -2.7094548645368156e-05 -0.65128148590798662 0.16100160608981059 7.0895252283689634e-06 -0.94787508263255615 0.20060041342654672 2.3226886989730343e-05 -0.77623479589591027 0.17704616367832077 3.0016211307509874e-06 -0.94883099341454324 0.16100160608981059 7.0895252283689634e-06 -0.94787508263255615 0.21058869217112719 1.9463126652812614e-05 -0.95125856656796137 0.20118238405136121 -1.1572990730535531e-05 -0.74162353590848828 0.12174870719536854 -3.1666683369782302e-05 -0.94518636237858489 0.16100160608981059 7.0895252283689626e-06 -0.94787508263255615 0.12978064094798294 4.7716067295055122e-06 -0.70983649279445449 0.13033556335534768 1.3911143114568129e-05 -0.73669715462728325 0.13480976576187184 -2.5290145100781603e-05 -0.94598727257927662 0.16100160608981059 7.0895252283689727e-06 -0.94787508263255615 0.12174870719536854 -3.1666683369782302e-05 -0.94518636237858489 0.13033556335534768 1.3911143114568129e-05 -0.73669715462728325 0.13797695360473067 1.4799262204130903e-05 -0.94629284290100923 0.12174870719536854 -3.1666683369782302e-05 -0.94518636237858489 0.16100160608981059 7.0895252283689634e-06 -0.94787508263255615 0.12978064094798294 4.7716067295055122e-06 -0.70983649279445449 0.17704616367832077 3.0016211307509874e-06 -0.94883099341454324 0.13797695360473067 1.4799262204130903e-05 -0.94629284290100923 0.16100160608981059 7.0895252283689643e-06 -0.94787508263255615 0.12978064094798294 4.7716067295055122e-06 -0.70983649279445449 0.081263664461002375 2.4220655439597164e-05 -0.64638670052400238 0.057380119571495421 -9.9779264980164206e-06 -0.73167261110330739 0.086726233895209531 1.1002475141443506e-05 -0.94340018173588358 0.048601984317677573 -3.3955022583047272e-05 -0.76889476900183451 0.088036956477742498 -1.7380285751568027e-05 -0.94349516769483988 0.086726233895209531 1.1002475141443506e-05 -0.94340018173588358 0.13797695360473067 1.4799262204130903e-05 -0.94629284290100923 0.12978064094798294 4.7716067295055096e-06 -0.70983649279445438 0.12174870719536854 -3.1666683369782302e-05 -0.94518636237858489 0.081263664461002375 2.4220655439597164e-05 -0.64638670052400238 0.083045960888728121 -1.8011658988947429e-06 -0.94334362708794739 0.13033556335534768 1.3911143114568129e-05 -0.73669715462728325 0.088036956477742498 -1.7380285751568027e-05 -0.94349516769483988 0.086726233895209531 1.1002475141443506e-05 -0.94340018173588358 0.12978064094798297 4.7716067295055147e-06 -0.70983649279445438 0.057380119571495442 -9.9779264980164087e-06 -0.7316726111033075 0.12174870719536854 -3.1666683369782302e-05 -0.94518636237858489 0.12978064094798294 4.7716067295055062e-06 -0.70983649279445449 0.081263664461002375 2.4220655439597164e-05 -0.64638670052400238 0.13033556335534768 1.3911143114568129e-05 -0.73669715462728325 0.086726233895209531 1.1002475141443506e-05 -0.94340018173588358 0.081263664461002388 2.4220655439597161e-05 -0.64638670052400238 0.12978064094798294 4.7716067295055206e-06 -0.70983649279445438 0.057380119571495428 -9.9779264980164121e-06 -0.73167261110330739 0.12174870719536854 -3.1666683369782302e-05 -0.94518636237858489 0.13797695360473067 1.4799262204130903e-05 -0.94629284290100923 0.086726233895209531 1.1002475141443506e-05 -0.94340018173588358 0.12978064094798294 4.7716067295055122e-06 -0.70983649279445449 0.083045960888728121 -1.8011658988947429e-06 -0.94334362708794739 0.12174870719536854 -3.1666683369782302e-05 -0.94518636237858489 0.086726233895209531 1.1002475141443506e-05 -0.94340018173588358 0.081263664461002375 2.4220655439597164e-05 -0.64638670052400238 0.12174870719536854 -3.1666683369782302e-05 -0.94518636237858489 0.086726233895209531 1.1002475141443503e-05 -0.94340018173588358 0.081263664461002375 2.4220655439597164e-05 -0.64638670052400238 0.12978064094798294 4.7716067295055122e-06 -0.70983649279445449 0.086726233895209531 1.1002475141443506e-05 -0.94340018173588358 0.083045960888728107 -1.8011658988947488e-06 -0.94334362708794739 0.081263664461002375 2.4220655439597188e-05 -0.64638670052400238 0.04860198431767758 -3.3955022583047265e-05 -0.76889476900183462 0.081263664461002375 2.4220655439597164e-05 -0.64638670052400238 0.12909122955406513 3.7976778523510767e-06 -0.47292566515103135 0.064266072945439151 4.4811044753305101e-06 -0.42529890259103298 0.1291159177370724 -4.6282717396583956e-06 -0.50095030267349905 0.081263664461002375 2.4220655439597164e-05 -0.64638670052400238 0.12978064094798294 4.7716067295055113e-06 -0.70983649279445449 0.12909122955406516 3.7976778523510759e-06 -0.4729256651510314 0.1291159177370724 -4.6282717396583948e-06 -0.50095030267349916 0.081263664461002375 2.4220655439597164e-05 -0.64638670052400238 0.12911591773707243 -4.6282717396583939e-06 -0.50095030267349916 0.064266072945439151 4.4811044753305093e-06 -0.42529890259103298 0.058397191150758941 1.2730882293083802e-05 -0.45434716105566164 0.12909122955406513 3.7976778523510852e-06 -0.4729256651510314 0.081263664461002375 2.4220655439597164e-05 -0.64638670052400238 0.064266072945439151 4.4811044753305067e-06 -0.42529890259103298 0.057380119571495428 -9.9779264980164121e-06 -0.73167261110330739 0.081263664461002375 2.4220655439597164e-05 -0.64638670052400238 0.12909122955406513 3.7976778523510801e-06 -0.4729256651510314 0.12978064094798294 4.7716067295055122e-06 -0.70983649279445449 0.057380119571495414 -9.9779264980164189e-06 -0.73167261110330728 0.12978064094798294 4.7716067295055122e-06 -0.70983649279445449 0.1291159177370724 -4.6282717396583872e-06 -0.50095030267349916 0.081263664461002375 2.4220655439597164e-05 -0.64638670052400238 0.13033556335534768 1.3911143114568129e-05 -0.73669715462728325 0.084366950085545706 3.4272861962302148e-06 -0.56640258922537812 0.11916041207123629 2.4409805978913444e-06 -0.65193964720334696 0.081263664461002375 2.4220655439597164e-05 -0.64638670052400238 0.12911591773707237 -4.6282717396583804e-06 -0.50095030267349916 0.11916041207123629 2.4409805978913444e-06 -0.65193964720334696 0.081638931874789628 3.0443494311602151e-06 -0.76852199339908356 0.084366950085545706 3.4272861962302143e-06 -0.56640258922537812 0.081263664461002375 2.4220655439597164e-05 -0.64638670052400238 0.11916041207123629 2.4409805978913444e-06 -0.65193964720334696 0.081263664461002375 2.4220655439597164e-05 -0.64638670052400238 0.1291159177370724 -4.6282717396583888e-06 -0.50095030267349916 0.13033556335534768 1.3911143114568129e-05 -0.73669715462728325 0.084366950085545706 3.4272861962302148e-06 -0.56640258922537812 0.081263664461002375 2.4220655439597164e-05 -0.64638670052400238 0.081638931874789641 3.0443494311602413e-06 -0.76852199339908367 0.04860198431767758 -3.3955022583047265e-05 -0.76889476900183462 0.084366950085545706 3.4272861962302148e-06 -0.56640258922537812 0.12911591773707237 -4.6282717396583812e-06 -0.50095030267349905 0.081263664461002375 2.4220655439597167e-05 -0.64638670052400249 0.058397191150758955 1.2730882293083799e-05 -0.4543471610556617 0.11916041207123629 2.4409805978913444e-06 -0.65193964720334696 0.081638931874789641 3.0443494311602155e-06 -0.76852199339908367 0.081263664461002347 2.4220655439597167e-05 -0.64638670052400227 0.13033556335534768 1.3911143114568129e-05 -0.73669715462728325 0.08516852862591609 3.2923367879964842e-06 -0.37389725429856024 0.12911591773707243 -4.6282717396583931e-06 -0.50095030267349916 0.084366950085545706 3.4272861962302148e-06 -0.56640258922537812 0.058397191150758941 1.2730882293083804e-05 -0.4543471610556617 0.084366950085545706 3.4272861962302148e-06 -0.56640258922537812 0.081263664461002375 2.4220655439597167e-05 -0.64638670052400249 0.041601326240609728 2.8306513010618276e-06 -0.6542079189609582 0.058397191150758941 1.2730882293083801e-05 -0.4543471610556617 0.08516852862591609 3.2923367879964842e-06 -0.37389725429856024 0.13397691805731657 2.9123918118377146e-06 -0.47306304001404931 0.084366950085545706 3.4272861962302148e-06 -0.56640258922537812 0.1291159177370724 -4.6282717396583888e-06 -0.50095030267349916 0.084366950085545706 3.4272861962302148e-06 -0.56640258922537812 0.13397691805731657 2.9123918118377146e-06 -0.47306304001404931 0.11916041207123629 2.4409805978913444e-06 -0.65193964720334696 0.1291159177370724 -4.6282717396583872e-06 -0.50095030267349916 0.11916041207123629 2.4409805978913444e-06 -0.65193964720334696 0.13335479782020138 2.7637980409431697e-06 -0.79027090792124488 0.081638931874789628 3.0443494311602159e-06 -0.76852199339908356 0.13033556335534768 1.3911143114568129e-05 -0.73669715462728325 0.081638931874789628 3.0443494311602159e-06 -0.76852199339908356 0.13033556335534771 1.3911143114568132e-05 -0.73669715462728314 0.083045960888728121 -1.8011658988947429e-06 -0.94334362708794739 0.04860198431767758 -3.3955022583047265e-05 -0.76889476900183462 0.081638931874789628 3.0443494311602159e-06 -0.76852199339908356 0.081263664461002361 2.4220655439597188e-05 -0.64638670052400227 0.13033556335534768 1.3911143114568024e-05 -0.73669715462728336 0.04860198431767758 -3.3955022583047265e-05 -0.76889476900183462 0.13480976576187184 -2.5290145100781603e-05 -0.94598727257927662 0.081638931874789614 3.0443494311602197e-06 -0.76852199339908356 0.13335479782020138 2.7637980409431697e-06 -0.79027090792124488 0.13033556335534768 1.3911143114568129e-05 -0.73669715462728325 0.083045960888728121 -1.8011658988947429e-06 -0.94334362708794739 0.13033556335534766 1.391114311456798e-05 -0.73669715462728314 0.081263664461002375 2.422065543959732e-05 -0.64638670052400249 0.04860198431767758 -3.3955022583047265e-05 -0.76889476900183462 0.081638931874789628 3.0443494311602159e-06 -0.76852199339908356 0.10682646509022274 3.7131060191964646e-06 -0.94449526413431428 0.13480976576187184 -2.5290145100781603e-05 -0.94598727257927662 0.13335479782020138 2.7637980409431697e-06 -0.79027090792124488 0.081638931874789628 3.0443494311602159e-06 -0.76852199339908356 0.10682646509022274 3.7131060191964646e-06 -0.94449526413431428 0.083045960888728121 -1.8011658988947429e-06 -0.94334362708794739 0.13480976576187184 -2.5290145100781603e-05 -0.94598727257927662 0.081638931874789628 3.0443494311602159e-06 -0.76852199339908356 0.13480976576187184 -2.5290145100781603e-05 -0.94598727257927662 0.083045960888728121 -1.8011658988947429e-06 -0.94334362708794739 0.13033556335534768 1.3911143114568144e-05 -0.73669715462728314 0.12174870719536854 -3.1666683369782302e-05 -0.94518636237858489 0.083045960888728121 -1.8011658988947429e-06 -0.94334362708794739 0.13480976576187184 -2.5290145100781603e-05 -0.94598727257927662 0.13033556335534768 1.3911143114568129e-05 -0.73669715462728325 0.10682646509022274 3.7131060191964646e-06 -0.94449526413431428 0.053827847997870895 3.0617554773329676e-06 -0.94217130479806133 0.081638931874789628 3.0443494311602159e-06 -0.76852199339908356 0.083045960888728121 -1.8011658988947429e-06 -0.94334362708794739 0.041601326240609728 2.8306513010618276e-06 -0.6542079189609582 0.081638931874789628 3.0443494311602159e-06 -0.76852199339908356 0.038640247230773632 2.2758508322105483e-06 -0.80386881120956244 0.04860198431767758 -3.3955022583047265e-05 -0.76889476900183462 0.081638931874789628 3.0443494311602159e-06 -0.76852199339908356 0.083045960888728121 -1.8011658988947435e-06 -0.94334362708794739 0.038640247230773632 2.2758508322105483e-06 -0.80386881120956244 0.04860198431767758 -3.3955022583047265e-05 -0.76889476900183462 0.081638931874789628 3.0443494311602159e-06 -0.76852199339908356 0.053827847997870888 3.0617554773329672e-06 -0.94217130479806133 0.038640247230773632 2.2758508322105483e-06 -0.80386881120956244 0.083045960888728121 -1.8011658988947429e-06 -0.94334362708794739 0.039309549622966421 -1.6838407338580682e-05 -0.94180065340583574 0.038640247230773632 2.2758508322105483e-06 -0.80386881120956244 0.053827847997870895 3.0617554773329676e-06 -0.94217130479806133 0.083045960888728121 -1.8011658988947429e-06 -0.94334362708794739 0.083045960888728121 -1.8011658988947429e-06 -0.94334362708794739 0.042696116565226906 1.7941482716757716e-07 -0.94189315191713929 0.039309549622966421 -1.6838407338580682e-05 -0.94180065340583574 0.04860198431767758 -3.3955022583047265e-05 -0.76889476900183462 0.039309549622966421 -1.6838407338580682e-05 -0.94180065340583574 0.038640247230773632 2.2758508322105508e-06 -0.80386881120956244 0.083045960888728121 -1.801165898894744e-06 -0.94334362708794728 0.04860198431767758 -3.3955022583047272e-05 -0.76889476900183462 -9.2266121430425393e-09 -8.2659141172459498e-06 -0.8034962840880201 1.6987181287140768e-08 -4.8986202505309283e-05 -0.80181705039547935 7.3232022835706374e-08 5.9243136090582893e-06 -0.6641005207785593 0.04860198431767758 -3.3955022583047265e-05 -0.76889476900183462 0.041601326240609728 2.8306513010618276e-06 -0.6542079189609582 -9.2266121411818098e-09 -8.2659141172459515e-06 -0.8034962840880201 7.3232022837186537e-08 5.9243136090582825e-06 -0.66410052077855919 0.048601984317677573 -3.3955022583047258e-05 -0.76889476900183462 0.04860198431767758 -3.3955022583047265e-05 -0.76889476900183462 2.0102212397217302e-07 -1.4317345338722578e-05 -0.94126465635716428 0.042696116565226885 1.7941482716756234e-07 -0.94189315191713929 0.039309549622966421 -1.6838407338580676e-05 -0.94180065340583563 0.038640247230773632 2.2758508322105483e-06 -0.80386881120956244 0.039309549622966421 -1.6838407338580682e-05 -0.94180065340583574 -9.2266121430425393e-09 -8.2659141172459498e-06 -0.8034962840880201 0.04860198431767758 -3.3955022583047265e-05 -0.76889476900183462 -9.2266121430425393e-09 -8.2659141172459498e-06 -0.8034962840880201 2.0102212396334508e-07 -1.4317345338722593e-05 -0.94126465635716416 1.6987181287140768e-08 -4.8986202505309283e-05 -0.80181705039547935 0.04860198431767758 -3.3955022583047265e-05 -0.76889476900183462 -9.2266121430425393e-09 -8.2659141172459498e-06 -0.8034962840880201 0.039309549622966421 -1.6838407338580682e-05 -0.94180065340583574 2.0102212396513137e-07 -1.4317345338722591e-05 -0.94126465635716416 0.04860198431767758 -3.3955022583047265e-05 -0.76889476900183462 1.5513136176025487e-07 3.0949681902913108e-06 -0.94117540358819485 -9.2266121447473536e-09 -8.2659141172459498e-06 -0.80349628408802021 0.039309549622966421 -1.6838407338580682e-05 -0.94180065340583574 2.0102212396303563e-07 -1.4317345338722593e-05 -0.94126465635716416 -9.2266121430425393e-09 -8.2659141172459498e-06 -0.8034962840880201 0.038640247230773632 2.2758508322105462e-06 -0.80386881120956244 1.5513136176025487e-07 3.0949681902913108e-06 -0.94117540358819485 0.039309549622966421 -1.6838407338580682e-05 -0.94180065340583574 0.053827847997870895 3.0617554773329676e-06 -0.94217130479806133 1.5513136176142979e-07 3.0949681902913124e-06 -0.94117540358819485 0.038640247230773632 2.2758508322105483e-06 -0.80386881120956244 0.039309549622966421 -1.6838407338580682e-05 -0.94180065340583574 0.038640247230773632 2.2758508322105483e-06 -0.80386881120956244 1.5513136176025487e-07 3.0949681902913108e-06 -0.94117540358819485 -1.0123940156769663e-08 2.7640315977833927e-06 -0.7531840147014256 -9.2266121430425393e-09 -8.2659141172459498e-06 -0.8034962840880201 0.038640247230773632 2.2758508322105483e-06 -0.80386881120956244 -9.2266121430349375e-09 -8.2659141172459498e-06 -0.8034962840880201 0.041601326240609728 2.8306513010618276e-06 -0.6542079189609582 0.04860198431767758 -3.3955022583047265e-05 -0.76889476900183462 0.041601326240609728 2.8306513010618276e-06 -0.6542079189609582 -1.0123940166750201e-08 2.7640315977834007e-06 -0.7531840147014256 7.3232022835706374e-08 5.9243136090582893e-06 -0.6641005207785593 -9.2266121430425393e-09 -8.2659141172459498e-06 -0.8034962840880201 -1.0123940153642657e-08 2.764031597783394e-06 -0.7531840147014256 0.041601326240609728 2.8306513010618276e-06 -0.6542079189609582 0.038640247230773632 2.2758508322105483e-06 -0.80386881120956244 -9.2266121430425393e-09 -8.2659141172459498e-06 -0.8034962840880201 7.3232022835706374e-08 5.9243136090582893e-06 -0.6641005207785593 -7.2526116727848024e-09 3.3952937176038785e-06 -0.56507807008355138 -1.0123940153642657e-08 2.764031597783394e-06 -0.7531840147014256 0.041601326240609728 2.8306513010618276e-06 -0.6542079189609582 0.081263664461002375 2.4220655439597164e-05 -0.64638670052400238 0.058397191150758955 1.2730882293083757e-05 -0.4543471610556617 7.3232022825375616e-08 5.9243136090583842e-06 -0.66410052077855941 0.048601984317677586 -3.3955022583047265e-05 -0.76889476900183462 7.3232022835706374e-08 5.9243136090582893e-06 -0.6641005207785593 -4.2747022998946049e-08 2.3194568201096747e-05 -0.4784742437222661 -7.2526116727848024e-09 3.3952937176038785e-06 -0.56507807008355138 0.041601326240609728 2.8306513010618276e-06 -0.6542079189609582 0.041601326240609728 2.8306513010618276e-06 -0.6542079189609582 0.081263664461002375 2.4220655439597134e-05 -0.64638670052400249 0.084366950085545706 3.4272861962302148e-06 -0.56640258922537812 0.04860198431767758 -3.3955022583047265e-05 -0.76889476900183462 0.041601326240609728 2.8306513010618276e-06 -0.6542079189609582 0.05839719115075899 1.2730882293083879e-05 -0.4543471610556617 0.081263664461002333 2.4220655439597089e-05 -0.64638670052400249 0.04860198431767758 -3.3955022583047265e-05 -0.76889476900183462 0.041601326240609728 2.8306513010618276e-06 -0.6542079189609582 7.3232022847582636e-08 5.9243136090582758e-06 -0.6641005207785593 0.058397191150758948 1.2730882293083804e-05 -0.4543471610556617 0.048601984317677573 -3.3955022583047265e-05 -0.76889476900183462 0.041601326240609728 2.8306513010618276e-06 -0.6542079189609582 0.084366950085545706 3.4272861962302139e-06 -0.56640258922537812 0.081638931874789628 3.0443494311602134e-06 -0.76852199339908356 0.04860198431767758 -3.3955022583047265e-05 -0.76889476900183462 0.084366950085545706 3.4272861962302148e-06 -0.56640258922537812 0.041601326240609728 2.8306513010618276e-06 -0.6542079189609582 0.044741267980513547 3.1104110679563403e-06 -0.46966042105749017 0.058397191150758948 1.2730882293083804e-05 -0.4543471610556617 -4.2747023005083696e-08 2.319456820109674e-05 -0.4784742437222661 0.044741267980513554 3.1104110679563361e-06 -0.46966042105749017 0.041601326240609728 2.8306513010618276e-06 -0.6542079189609582 0.058397191150758948 1.2730882293083804e-05 -0.4543471610556617 -7.2526116727848024e-09 3.3952937176038785e-06 -0.56507807008355138 -2.5865458393729691e-08 3.650917692188023e-06 -0.37685235300517222 0.044741267980513547 3.1104110679563403e-06 -0.46966042105749017 -4.2747023005083696e-08 2.319456820109674e-05 -0.4784742437222661 -4.2747023005083696e-08 2.319456820109674e-05 -0.4784742437222661 0.04474126798051356 3.1104110679563387e-06 -0.46966042105749017 -7.2526116727848024e-09 3.3952937176038785e-06 -0.56507807008355138 0.041601326240609728 2.8306513010618276e-06 -0.6542079189609582 -4.2747023005083696e-08 2.319456820109674e-05 -0.4784742437222661 0.041601326240609728 2.8306513010618276e-06 -0.6542079189609582 7.3232022835706374e-08 5.9243136090582893e-06 -0.6641005207785593 0.058397191150758948 1.2730882293083804e-05 -0.4543471610556617 -6.5958970932172635e-08 4.8376976730674092e-06 -0.56443772738652076 -4.2747023005083696e-08 2.319456820109674e-05 -0.4784742437222661 7.3232022835706374e-08 5.9243136090582893e-06 -0.6641005207785593 0.058397191150758948 1.2730882293083804e-05 -0.4543471610556617 -6.5958970932172635e-08 4.8376976730674092e-06 -0.56443772738652076 7.3232022836874088e-08 5.9243136090582902e-06 -0.6641005207785593 0.081263664461002375 2.4220655439597167e-05 -0.64638670052400227 0.058397191150758948 1.2730882293083804e-05 -0.4543471610556617 -6.5958970932172635e-08 4.8376976730674092e-06 -0.56443772738652076 0.081263664461002347 2.42206554395969e-05 -0.64638670052400271 7.3232022837391691e-08 5.9243136090583223e-06 -0.6641005207785593 0.04860198431767758 -3.3955022583047333e-05 -0.76889476900183462 -6.5958970932172635e-08 4.8376976730674092e-06 -0.56443772738652076 7.3232022835706374e-08 5.9243136090582893e-06 -0.6641005207785593 5.2390894118046133e-08 -2.9522450566566919e-05 -0.68469346241910534 0.0486019843176776 -3.3955022583047265e-05 -0.76889476900183462 -6.5958970932172635e-08 4.8376976730674092e-06 -0.56443772738652076 0.064266072945439151 4.4811044753305017e-06 -0.42529890259103292 0.081263664461002375 2.4220655439597164e-05 -0.64638670052400238 0.057380119571495428 -9.9779264980164189e-06 -0.73167261110330739 -6.5958970932172635e-08 4.8376976730674092e-06 -0.56443772738652076 5.2390894118046133e-08 -2.9522450566566919e-05 -0.68469346241910534 0.081263664461002361 2.4220655439597147e-05 -0.64638670052400249 0.048601984317677593 -3.3955022583047272e-05 -0.76889476900183473 -6.5958970932172635e-08 4.8376976730674092e-06 -0.56443772738652076 4.1597518416956499e-08 -1.2843361649909447e-05 -0.63399334810476238 -4.9116652580668505e-08 1.6280342612600413e-05 -0.48926856487680997 0.057380119571495442 -9.9779264980164104e-06 -0.73167261110330728 5.2390894118046133e-08 -2.9522450566566919e-05 -0.68469346241910534 -6.5958970932172635e-08 4.8376976730674092e-06 -0.56443772738652076 0.081263664461002375 2.4220655439597164e-05 -0.64638670052400238 0.057380119571495428 -9.9779264980164121e-06 -0.73167261110330739 -6.5958970932172635e-08 4.8376976730674092e-06 -0.56443772738652076 0.081263664461002375 2.4220655439597164e-05 -0.64638670052400238 0.064266072945439151 4.4811044753305034e-06 -0.42529890259103292 0.058397191150758948 1.2730882293083804e-05 -0.4543471610556617 -6.5958970932172635e-08 4.8376976730674092e-06 -0.56443772738652076 -4.9116652577488419e-08 1.628034261260042e-05 -0.48926856487680997 0.064266072945439151 4.4811044753305067e-06 -0.42529890259103298 0.057380119571495442 -9.9779264980164189e-06 -0.73167261110330739 6.287763374905035e-10 2.2343884907774362e-06 -0.43009487473487595 -4.2747023005094886e-08 2.319456820109674e-05 -0.4784742437222661 -6.5958970932172635e-08 4.8376976730674092e-06 -0.56443772738652076 0.058397191150758948 1.2730882293083804e-05 -0.4543471610556617 -6.5958970932172635e-08 4.8376976730674092e-06 -0.56443772738652076 -4.9116652577488419e-08 1.628034261260042e-05 -0.48926856487680997 6.287763374905035e-10 2.2343884907774362e-06 -0.43009487473487595 0.064266072945439151 4.4811044753305067e-06 -0.42529890259103298 5.2390894118046133e-08 -2.9522450566566919e-05 -0.68469346241910534 4.1597518416956499e-08 -1.2843361649909447e-05 -0.63399334810476238 -6.5958970930086565e-08 4.8376976730674109e-06 -0.56443772738652076 0.057380119571495428 -9.9779264980164121e-06 -0.73167261110330739 -8.6613033215542337e-09 -4.2042788352066565e-05 -0.79259744739167615 1.6987181287140768e-08 -4.8986202505309283e-05 -0.80181705039547935 0.042696116565226906 1.7941482716757716e-07 -0.94189315191713929 0.057380119571495435 -9.9779264980164121e-06 -0.73167261110330728 5.2390894118046133e-08 -2.9522450566566919e-05 -0.68469346241910534 0.057380119571495428 -9.9779264980164036e-06 -0.73167261110330739 0.081263664461002375 2.4220655439597164e-05 -0.64638670052400238 0.048601984317677586 -3.3955022583047272e-05 -0.76889476900183473 0.042696116565226906 1.7941482716757716e-07 -0.94189315191713929 0.057380119571495428 -9.9779264980164172e-06 -0.73167261110330739 1.698718127572819e-08 -4.8986202505309289e-05 -0.80181705039547935 0.04860198431767758 -3.3955022583047258e-05 -0.76889476900183462 -8.6613033215542337e-09 -4.2042788352066565e-05 -0.79259744739167615 4.1597518416956499e-08 -1.2843361649909447e-05 -0.63399334810476238 5.2390894118046133e-08 -2.9522450566566919e-05 -0.68469346241910534 0.057380119571495442 -9.9779264980164036e-06 -0.73167261110330728 -8.6613033215542337e-09 -4.2042788352066565e-05 -0.79259744739167615 5.2390894118046133e-08 -2.9522450566566919e-05 -0.68469346241910534 1.6987181287140768e-08 -4.8986202505309283e-05 -0.80181705039547935 0.057380119571495442 -9.9779264980164138e-06 -0.7316726111033075 0.042696116565226906 1.7941482716757716e-07 -0.94189315191713929 0.086726233895209531 1.1002475141443508e-05 -0.94340018173588358 0.057380119571495428 -9.9779264980164155e-06 -0.73167261110330739 0.048601984317677573 -3.3955022583047258e-05 -0.76889476900183462 5.2390894118046133e-08 -2.9522450566566919e-05 -0.68469346241910534 1.6987181286904125e-08 -4.8986202505309283e-05 -0.80181705039547935 0.057380119571495421 -9.9779264980164189e-06 -0.7316726111033075 0.048601984317677593 -3.3955022583047265e-05 -0.76889476900183462 7.3232022835706374e-08 5.9243136090582893e-06 -0.6641005207785593 1.6987181287140768e-08 -4.8986202505309283e-05 -0.80181705039547935 5.239089411680826e-08 -2.9522450566566919e-05 -0.68469346241910534 0.04860198431767758 -3.3955022583047265e-05 -0.76889476900183462 0.042696116565226906 1.7941482716757716e-07 -0.94189315191713929 0.086726233895209531 1.1002475141443506e-05 -0.94340018173588347 0.046236238936602551 -6.1805779458660722e-06 -0.94190879652762349 0.057380119571495428 -9.9779264980164121e-06 -0.73167261110330739 0.042696116565226906 1.7941482716757716e-07 -0.94189315191713929 0.046236238936602558 -6.1805779458660705e-06 -0.9419087965276236 -8.6613033215542337e-09 -4.2042788352066565e-05 -0.79259744739167615 0.057380119571495428 -9.9779264980164121e-06 -0.73167261110330739 0.086726233895209531 1.1002475141443506e-05 -0.94340018173588358 0.042696116565226906 1.7941482716757716e-07 -0.94189315191713929 0.083045960888728135 -1.8011658988947425e-06 -0.94334362708794739 0.04860198431767758 -3.3955022583047265e-05 -0.76889476900183462 0.04860198431767758 -3.3955022583047265e-05 -0.76889476900183462 0.042696116565226899 1.7941482716757396e-07 -0.94189315191713929 2.0102212397202302e-07 -1.4317345338722586e-05 -0.94126465635716416 1.6987181287140768e-08 -4.8986202505309283e-05 -0.80181705039547935 1.6987181287140768e-08 -4.8986202505309283e-05 -0.80181705039547935 -8.6613033216458241e-09 -4.2042788352066565e-05 -0.79259744739167615 0.042696116565226906 1.7941482716757716e-07 -0.94189315191713929 1.6802563471798755e-07 -2.315729464923837e-05 -0.94147902037150899 0.042696116565226906 1.7941482716757716e-07 -0.94189315191713929 2.0102212396303563e-07 -1.4317345338722593e-05 -0.94126465635716416 1.6987181283629843e-08 -4.8986202505309283e-05 -0.80181705039547935 1.6802563471798755e-07 -2.315729464923837e-05 -0.94147902037150899 1.6802563471798755e-07 -2.315729464923837e-05 -0.94147902037150899 -8.6613033215542337e-09 -4.2042788352066565e-05 -0.79259744739167615 0.042696116565226906 1.7941482716757716e-07 -0.94189315191713929 0.046236238936602558 -6.1805779458660705e-06 -0.9419087965276236 -8.6613033215542337e-09 -4.2042788352066565e-05 -0.79259744739167615 1.6802563471798755e-07 -2.315729464923837e-05 -0.94147902037150899 2.1258349493478965e-07 -2.470754706920194e-05 -0.94147393904013843 0.046236238936602558 -6.1805779458660705e-06 -0.9419087965276236 0.046236238936602558 -6.1805779458660705e-06 -0.9419087965276236 2.1258349493749258e-07 -2.4707547069201937e-05 -0.94147393904013832 -8.6613033136188866e-09 -4.2042788352066552e-05 -0.79259744739167626 1.1173549660294679e-08 8.4075684242069865e-06 -0.76101686049626582 2.1258349493749258e-07 -2.4707547069201937e-05 -0.94147393904013832 0.046236238936602558 -6.1805779458660705e-06 -0.9419087965276236 0.045539207662264228 1.2120552545384138e-05 -0.94194293199042911 1.1173549675694401e-08 8.4075684242070051e-06 -0.76101686049626593 5.8407818292008525e-08 -1.4815537951801167e-05 -0.80344587972597759 1.1173549675694401e-08 8.4075684242070051e-06 -0.76101686049626593 0.045539207662264228 1.2120552545384134e-05 -0.94194293199042911 0.082009779537393329 -1.5441112368317796e-05 -0.64863203187450857 0.045539207662264228 1.2120552545384138e-05 -0.94194293199042911 0.082009779537393288 -1.5441112368317776e-05 -0.64863203187450846 1.1173549677961771e-08 8.4075684242070068e-06 -0.76101686049626605 0.057380119571495421 -9.9779264980164121e-06 -0.73167261110330739 -8.6613033215542337e-09 -4.2042788352066565e-05 -0.79259744739167615 1.1173549676515487e-08 8.4075684242070051e-06 -0.76101686049626593 4.1597518416956499e-08 -1.2843361649909447e-05 -0.63399334810476238 0.057380119571495442 -9.9779264980164036e-06 -0.73167261110330728 -8.6613033215542337e-09 -4.2042788352066565e-05 -0.79259744739167615 0.046236238936602551 -6.1805779458660748e-06 -0.9419087965276236 1.11735496766538e-08 8.4075684242070068e-06 -0.76101686049626593 0.057380119571495435 -9.9779264980164138e-06 -0.73167261110330739 1.1173549675694401e-08 8.4075684242070051e-06 -0.76101686049626593 0.045539207662264228 1.2120552545384138e-05 -0.94194293199042911 2.1258349493749258e-07 -2.4707547069201937e-05 -0.94147393904013832 1.8936471627895053e-07 1.5001523025103053e-05 -0.94143947473329925 0.046236238936602558 -6.1805779458660705e-06 -0.9419087965276236 0.088036956477742498 -1.7380285751568027e-05 -0.94349516769483988 0.045539207662264228 1.2120552545384138e-05 -0.94194293199042911 0.057380119571495428 -9.9779264980164121e-06 -0.73167261110330739 0.046236238936602558 -6.1805779458660705e-06 -0.9419087965276236 0.045539207662264228 1.2120552545384138e-05 -0.94194293199042911 1.1173549686098917e-08 8.4075684242070051e-06 -0.76101686049626582 0.057380119571495421 -9.9779264980164121e-06 -0.73167261110330728 0.084585172752677101 2.9008675774314671e-05 -0.94332720119732405 0.045539207662264228 1.2120552545384138e-05 -0.94194293199042911 0.088036956477742498 -1.7380285751568027e-05 -0.94349516769483988 0.082009779537393274 -1.5441112368317776e-05 -0.64863203187450846 0.086726233895209531 1.1002475141443506e-05 -0.94340018173588358 0.088036956477742498 -1.7380285751568027e-05 -0.94349516769483988 0.046236238936602558 -6.1805779458660705e-06 -0.9419087965276236 0.057380119571495428 -9.9779264980164121e-06 -0.73167261110330739 0.1217903273665502 4.1868964854303746e-05 -0.94520008714197579 0.08200977953739326 -1.5441112368317749e-05 -0.64863203187450846 0.12978064094798294 4.7716067295055122e-06 -0.70983649279445449 0.13077772630430037 -3.1158897622435347e-05 -0.73852444114020055 0.088036956477742498 -1.7380285751568027e-05 -0.94349516769483988 0.12978064094798297 4.7716067295055155e-06 -0.70983649279445449 0.082009779537393274 -1.5441112368317776e-05 -0.64863203187450846 0.057380119571495435 -9.9779264980164121e-06 -0.73167261110330739 0.084585172752677101 2.9008675774314671e-05 -0.94332720119732405 0.088036956477742498 -1.7380285751568027e-05 -0.94349516769483988 0.1217903273665502 4.1868964854303746e-05 -0.94520008714197579 0.08200977953739326 -1.5441112368317776e-05 -0.64863203187450846 0.1217903273665502 4.1868964854303746e-05 -0.94520008714197579 0.084585172752677115 2.9008675774314668e-05 -0.94332720119732416 0.082009779537393274 -1.5441112368317776e-05 -0.64863203187450846 0.13077772630430035 -3.1158897622435374e-05 -0.73852444114020022 0.088036956477742498 -1.7380285751568027e-05 -0.94349516769483988 0.1217903273665502 4.1868964854303746e-05 -0.94520008714197579 0.082009779537393274 -1.5441112368317776e-05 -0.64863203187450846 0.12978064094798297 4.7716067295055122e-06 -0.70983649279445449 0.088036956477742498 -1.7380285751568027e-05 -0.94349516769483988 0.082009779537393274 -1.5441112368317776e-05 -0.64863203187450846 0.045539207662264228 1.2120552545384138e-05 -0.94194293199042911 0.057380119571495442 -9.9779264980164155e-06 -0.7316726111033075 0.088036956477742498 -1.7380285751568027e-05 -0.94349516769483988 0.13797695360473067 1.4799262204130898e-05 -0.94629284290100923 0.1217903273665502 4.1868964854303746e-05 -0.94520008714197579 0.12978064094798294 4.7716067295055122e-06 -0.70983649279445449 0.082009779537393274 -1.5441112368317776e-05 -0.64863203187450846 0.12978064094798292 4.7716067295055122e-06 -0.70983649279445449 0.12909122955406513 3.797677852351086e-06 -0.4729256651510314 0.057380119571495421 -9.9779264980164104e-06 -0.73167261110330728 0.064266072945439151 4.4811044753305067e-06 -0.42529890259103298 0.12937193399123142 -5.0654071274080513e-06 -0.50020953381929389 0.082009779537393246 -1.5441112368317779e-05 -0.64863203187450835 0.057371072901663211 -1.4826551825294227e-05 -0.47144925552935091 0.082009779537393274 -1.5441112368317776e-05 -0.64863203187450846 0.12937193399123145 -5.0654071274080521e-06 -0.50020953381929401 0.12978064094798292 4.7716067295055079e-06 -0.70983649279445449 0.13077772630430035 -3.1158897622435361e-05 -0.73852444114020033 0.12909122955406513 3.7976778523510852e-06 -0.4729256651510314 0.082009779537393274 -1.5441112368317776e-05 -0.64863203187450846 0.064266072945439151 4.4811044753305067e-06 -0.42529890259103298 0.12937193399123145 -5.0654071274080521e-06 -0.50020953381929401 0.12909122955406513 3.7976778523510852e-06 -0.4729256651510314 0.12978064094798297 4.7716067295055172e-06 -0.7098364927944546 0.082009779537393288 -1.5441112368317772e-05 -0.64863203187450846 0.12937193399123145 -5.0654071274080521e-06 -0.50020953381929401 0.12909122955406513 3.7976778523510852e-06 -0.4729256651510314 0.064266072945439151 4.4811044753305067e-06 -0.42529890259103298 0.082009779537393274 -1.5441112368317776e-05 -0.64863203187450835 0.057380119571495428 -9.9779264980164121e-06 -0.73167261110330739 0.057380119571495428 -9.9779264980164121e-06 -0.73167261110330739 0.082009779537393274 -1.5441112368317776e-05 -0.64863203187450846 -4.9116652576124551e-08 1.628034261260042e-05 -0.48926856487680997 0.064266072945439123 4.4811044753305101e-06 -0.42529890259103292 3.666878367644759e-11 -2.0514921129466025e-06 -0.43150406533741226 0.064266072945439137 4.4811044753305093e-06 -0.42529890259103298 -4.5915444718442355e-09 -3.2451510782536987e-06 -0.57490069395937193 0.057371072901663191 -1.482655182529423e-05 -0.47144925552935091 -4.5915444725444042e-09 -3.2451510782536983e-06 -0.57490069395937193 -4.9116652577488419e-08 1.628034261260042e-05 -0.48926856487680997 0.082009779537393274 -1.5441112368317759e-05 -0.64863203187450846 0.064266072945439151 4.4811044753305067e-06 -0.42529890259103298 0.057380119571495428 -9.9779264980164121e-06 -0.73167261110330739 -4.5915444516110321e-09 -3.2451510782536907e-06 -0.57490069395937182 -4.9116652577488419e-08 1.628034261260042e-05 -0.48926856487680997 0.082009779537393274 -1.5441112368317776e-05 -0.64863203187450846 -4.5915444725444042e-09 -3.2451510782536983e-06 -0.57490069395937193 0.064266072945439151 4.4811044753305051e-06 -0.42529890259103298 0.082009779537393274 -1.5441112368317776e-05 -0.64863203187450846 0.057371072901663198 -1.4826551825294234e-05 -0.47144925552935085 0.057380119571495428 -9.9779264980164121e-06 -0.73167261110330739 -4.9116652577488419e-08 1.628034261260042e-05 -0.48926856487680997 -4.5915444745623162e-09 -3.2451510782537004e-06 -0.57490069395937193 4.1597518416956499e-08 -1.2843361649909447e-05 -0.63399334810476238 -1.448494470708252e-08 -3.1030670231074551e-05 -0.65323613304938999 -4.5915444725444042e-09 -3.2451510782536983e-06 -0.57490069395937193 0.082009779537393274 -1.5441112368317772e-05 -0.64863203187450835 0.057371072901663191 -1.482655182529423e-05 -0.47144925552935091 -4.5915444725444042e-09 -3.2451510782536983e-06 -0.57490069395937193 1.1173549675694401e-08 8.4075684242070051e-06 -0.76101686049626593 0.082009779537393274 -1.5441112368317776e-05 -0.64863203187450846 0.057380119571495421 -9.9779264980164087e-06 -0.73167261110330739 -1.448494470708252e-08 -3.1030670231074551e-05 -0.65323613304938999 -4.5915444725444042e-09 -3.2451510782536983e-06 -0.57490069395937193 1.1173549677134847e-08 8.4075684242070051e-06 -0.76101686049626593 0.082009779537393274 -1.5441112368317776e-05 -0.64863203187450846 3.666878367644759e-11 -2.0514921129466025e-06 -0.43150406533741226 -4.9116652577488419e-08 1.628034261260042e-05 -0.48926856487680997 -4.5915444725444042e-09 -3.2451510782536983e-06 -0.57490069395937193 0.064266072945439151 4.4811044753305067e-06 -0.42529890259103298 -4.5915444725444042e-09 -3.2451510782536983e-06 -0.57490069395937193 4.1597518417903621e-08 -1.2843361649909447e-05 -0.63399334810476238 1.1173549678222085e-08 8.4075684242070068e-06 -0.76101686049626593 0.057380119571495393 -9.9779264980164155e-06 -0.73167261110330728 -4.5915444725444042e-09 -3.2451510782536983e-06 -0.57490069395937193 -3.2643779574419069e-08 -1.7514620174656823e-05 -0.48003588644914569 3.6668782656562038e-11 -2.051492112946602e-06 -0.43150406533741226 0.057371072901663205 -1.482655182529423e-05 -0.47144925552935091 -1.448494470708252e-08 -3.1030670231074551e-05 -0.65323613304938999 0.038661603821488491 -2.277773337486721e-06 -0.80396429994916274 0.049181997635135644 -2.9635860713894423e-06 -0.6441657891121324 0.082009779537393274 -1.5441112368317776e-05 -0.64863203187450846 -1.448494470708252e-08 -3.1030670231074551e-05 -0.65323613304938999 0.082009779537393274 -1.5441112368317776e-05 -0.64863203187450846 0.049181997635135651 -2.9635860713894415e-06 -0.64416578911213218 0.057371072901663191 -1.482655182529423e-05 -0.47144925552935091 -1.448494470708252e-08 -3.1030670231074551e-05 -0.65323613304938999 0.049181997635135644 -2.963586071389444e-06 -0.64416578911213229 -3.2643779574419069e-08 -1.7514620174656823e-05 -0.48003588644914569 0.057371072901663191 -1.482655182529423e-05 -0.47144925552935091 -1.448494470708252e-08 -3.1030670231074551e-05 -0.65323613304938999 -3.2643779574419069e-08 -1.7514620174656823e-05 -0.48003588644914569 -4.5915444743502503e-09 -3.245151078253697e-06 -0.57490069395937193 0.057371072901663191 -1.482655182529423e-05 -0.47144925552935091 2.9267171256133034e-08 -3.233385741255552e-06 -0.7532050893763268 5.0972203321454827e-09 -3.8261773635960664e-06 -0.56511059309441514 -1.448494470708252e-08 -3.1030670231074551e-05 -0.65323613304938999 0.049181997635135651 -2.963586071389441e-06 -0.64416578911213229 5.0972203321454827e-09 -3.8261773635960664e-06 -0.56511059309441514 -1.448494470708252e-08 -3.1030670231074551e-05 -0.65323613304938999 0.049181997635135651 -2.963586071389441e-06 -0.64416578911213229 -3.2643779574419069e-08 -1.7514620174656823e-05 -0.48003588644914569 0.049181997635135651 -2.963586071389441e-06 -0.64416578911213229 0.042537080386522395 -2.8208323850974802e-06 -0.46053199516637666 5.0972203321454827e-09 -3.8261773635960664e-06 -0.56511059309441514 -3.2643779574419069e-08 -1.7514620174656823e-05 -0.48003588644914569 0.049181997635135651 -2.963586071389441e-06 -0.64416578911213229 0.080554728230826267 -2.3916110779852898e-06 -0.51121715461556816 0.042537080386522395 -2.8208323850974806e-06 -0.46053199516637666 0.057371072901663191 -1.482655182529423e-05 -0.47144925552935091 -3.2643779574419069e-08 -1.7514620174656823e-05 -0.48003588644914569 0.049181997635135644 -2.9635860713894406e-06 -0.64416578911213229 0.042537080386522395 -2.8208323850974802e-06 -0.46053199516637666 0.057371072901663198 -1.4826551825294228e-05 -0.47144925552935085 0.079104505676192635 -2.8272399402584292e-06 -0.78349620374160245 0.10311161779788344 -3.2387912640932053e-06 -0.63344994117354192 0.049181997635135651 -2.9635860713894415e-06 -0.64416578911213229 0.082009779537393274 -1.5441112368317776e-05 -0.64863203187450846 0.080554728230826267 -2.3916110779852898e-06 -0.51121715461556816 0.082009779537393288 -1.5441112368317772e-05 -0.64863203187450857 0.12937193399123142 -5.0654071274080555e-06 -0.50020953381929412 0.057371072901663191 -1.4826551825294228e-05 -0.47144925552935085 0.10311161779788344 -3.2387912640932053e-06 -0.63344994117354192 0.080554728230826267 -2.3916110779852894e-06 -0.51121715461556816 0.082009779537393274 -1.5441112368317772e-05 -0.64863203187450835 0.12937193399123145 -5.0654071274080521e-06 -0.50020953381929389 0.10311161779788344 -3.2387912640932053e-06 -0.63344994117354192 0.082009779537393274 -1.5441112368317776e-05 -0.64863203187450846 0.079104505676192635 -2.8272399402584292e-06 -0.78349620374160245 0.13077772630430035 -3.1158897622435361e-05 -0.73852444114020033 0.049181997635135651 -2.963586071389441e-06 -0.64416578911213229 0.082009779537393274 -1.5441112368317779e-05 -0.64863203187450846 0.080554728230826267 -2.3916110779852898e-06 -0.51121715461556816 0.057371072901663191 -1.482655182529423e-05 -0.47144925552935091 0.15529109985527001 -3.3716569361382251e-06 -0.63993115957659241 0.12937193399123142 -5.0654071274080479e-06 -0.50020953381929389 0.10311161779788344 -3.2387912640932053e-06 -0.63344994117354192 0.13077772630430035 -3.1158897622435361e-05 -0.73852444114020033 0.080554728230826267 -2.3916110779852898e-06 -0.51121715461556816 0.049181997635135657 -2.963586071389441e-06 -0.64416578911213229 0.10311161779788344 -3.2387912640932048e-06 -0.63344994117354192 0.082009779537393274 -1.5441112368317776e-05 -0.64863203187450846 0.10311161779788344 -3.2387912640932053e-06 -0.63344994117354192 0.12937193399123145 -5.0654071274080479e-06 -0.50020953381929401 0.082009779537393274 -1.5441112368317769e-05 -0.64863203187450835 0.13077772630430035 -3.1158897622435361e-05 -0.73852444114020033 0.10311161779788344 -3.2387912640932053e-06 -0.63344994117354192 0.15529109985527001 -3.3716569361382251e-06 -0.63993115957659241 0.12892473719337169 -2.9362538558839879e-06 -0.45435917749770971 0.12937193399123145 -5.0654071274080521e-06 -0.50020953381929401 0.10311161779788344 -3.2387912640932053e-06 -0.63344994117354192 0.12892473719337169 -2.9362538558839875e-06 -0.45435917749770971 0.080554728230826267 -2.3916110779852898e-06 -0.51121715461556816 0.12937193399123145 -5.065407127408053e-06 -0.50020953381929412 0.13032483613488743 -3.0361011204922052e-06 -0.78288385895770674 0.15529109985527001 -3.3716569361382251e-06 -0.63993115957659241 0.10311161779788344 -3.2387912640932048e-06 -0.63344994117354192 0.13077772630430035 -3.1158897622435361e-05 -0.73852444114020033 0.079104505676192635 -2.8272399402584292e-06 -0.78349620374160245 0.039505966264530838 1.4744462685974818e-05 -0.94180293242971347 0.084585172752677101 2.9008675774314671e-05 -0.94332720119732405 0.082009779537393274 -1.5441112368317776e-05 -0.64863203187450846 0.079104505676192635 -2.8272399402584292e-06 -0.78349620374160245 0.082009779537393274 -1.5441112368317776e-05 -0.64863203187450846 0.084585172752677087 2.9008675774314675e-05 -0.94332720119732405 0.13077772630430032 -3.1158897622435347e-05 -0.73852444114020033 0.079104505676192635 -2.8272399402584292e-06 -0.78349620374160245 0.084585172752677101 2.9008675774314685e-05 -0.94332720119732405 0.13032483613488743 -3.0361011204922052e-06 -0.78288385895770674 0.13077772630430035 -3.1158897622435347e-05 -0.73852444114020033 0.10311161779788344 -3.2387912640932053e-06 -0.63344994117354192 0.079104505676192635 -2.8272399402584292e-06 -0.78349620374160245 0.13032483613488743 -3.0361011204922052e-06 -0.78288385895770674 0.13077772630430035 -3.1158897622435361e-05 -0.73852444114020033 0.084585172752677101 2.9008675774314671e-05 -0.94332720119732405 0.10673541019522015 -3.5529174102539046e-06 -0.94429062706057232 0.13032483613488743 -3.0361011204922052e-06 -0.78288385895770674 0.13528879490115717 2.673880807941228e-05 -0.94612869751652806 0.10673541019522015 -3.5529174102539046e-06 -0.94429062706057232 0.13032483613488743 -3.0361011204922052e-06 -0.78288385895770674 0.079104505676192635 -2.8272399402584292e-06 -0.78349620374160245 0.084585172752677101 2.9008675774314671e-05 -0.94332720119732405 0.084585172752677101 2.9008675774314671e-05 -0.94332720119732405 0.13528879490115717 2.673880807941228e-05 -0.94612869751652806 0.13032483613488743 -3.0361011204922052e-06 -0.78288385895770674 0.13077772630430035 -3.1158897622435347e-05 -0.73852444114020033 0.1217903273665502 4.1868964854303746e-05 -0.94520008714197579 0.13528879490115717 2.673880807941228e-05 -0.94612869751652806 0.084585172752677101 2.9008675774314671e-05 -0.94332720119732405 0.13077772630430035 -3.1158897622435361e-05 -0.73852444114020033 0.10673541019522015 -3.5529174102539046e-06 -0.94429062706057232 0.079104505676192635 -2.8272399402584292e-06 -0.78349620374160245 0.053752562414091216 -2.8179965480102704e-06 -0.94212008807914205 0.084585172752677101 2.9008675774314671e-05 -0.94332720119732405 5.8407818292008525e-08 -1.4815537951801167e-05 -0.80344587972597759 -1.4484944704821192e-08 -3.1030670231074544e-05 -0.65323613304938988 1.1173549675694401e-08 8.4075684242070051e-06 -0.76101686049626593 0.082009779537393288 -1.5441112368317776e-05 -0.64863203187450835 0.045539207662264228 1.2120552545384138e-05 -0.94194293199042911 0.084585172752677101 2.9008675774314671e-05 -0.94332720119732394 0.039505966264530838 1.4744462685974818e-05 -0.94180293242971347 0.082009779537393274 -1.5441112368317776e-05 -0.64863203187450846 0.039505966264530838 1.4744462685974818e-05 -0.94180293242971347 0.053752562414091203 -2.8179965480102721e-06 -0.94212008807914205 0.038661603821488484 -2.2777733374867227e-06 -0.80396429994916274 0.079104505676192635 -2.8272399402584292e-06 -0.78349620374160245 0.039505966264530838 1.4744462685974818e-05 -0.94180293242971347 0.079104505676192663 -2.8272399402584287e-06 -0.78349620374160234 0.038661603821488484 -2.2777733374867227e-06 -0.80396429994916274 0.082009779537393301 -1.5441112368317772e-05 -0.64863203187450846 0.039505966264530838 1.4744462685974818e-05 -0.94180293242971347 0.053752562414091216 -2.8179965480102704e-06 -0.94212008807914205 0.079104505676192635 -2.82723994025843e-06 -0.78349620374160245 0.084585172752677101 2.9008675774314671e-05 -0.94332720119732405 0.049181997635135651 -2.963586071389441e-06 -0.64416578911213229 0.038661603821488484 -2.2777733374867227e-06 -0.80396429994916274 0.079104505676192635 -2.8272399402584292e-06 -0.78349620374160245 0.082009779537393274 -1.5441112368317779e-05 -0.64863203187450846 5.8407818292008525e-08 -1.4815537951801167e-05 -0.80344587972597759 0.045539207662264207 1.2120552545384124e-05 -0.94194293199042911 0.039505966264530852 1.474446268597482e-05 -0.94180293242971347 0.082009779537393288 -1.5441112368317776e-05 -0.64863203187450835 0.039505966264530838 1.4744462685974818e-05 -0.94180293242971347 0.038661603821488484 -2.2777733374867227e-06 -0.80396429994916274 5.8407818292008525e-08 -1.4815537951801167e-05 -0.80344587972597759 0.082009779537393274 -1.5441112368317776e-05 -0.64863203187450846 -1.448494470708252e-08 -3.1030670231074551e-05 -0.65323613304938999 5.8407818292008525e-08 -1.4815537951801167e-05 -0.80344587972597759 0.038661603821488484 -2.2777733374867231e-06 -0.80396429994916274 0.08200977953739326 -1.5441112368317772e-05 -0.64863203187450835 1.8936471627895053e-07 1.5001523025103053e-05 -0.94143947473329925 1.1173549675694401e-08 8.4075684242070051e-06 -0.76101686049626593 0.045539207662264228 1.2120552545384138e-05 -0.94194293199042911 5.8407818292008525e-08 -1.4815537951801167e-05 -0.80344587972597759 0.039505966264530838 1.4744462685974818e-05 -0.94180293242971347 1.8936471627726404e-07 1.5001523025103048e-05 -0.94143947473329914 0.045539207662264228 1.2120552545384138e-05 -0.94194293199042911 5.8407818292008525e-08 -1.4815537951801167e-05 -0.80344587972597759 -1.448494470708252e-08 -3.1030670231074551e-05 -0.65323613304938999 0.038661603821488491 -2.2777733374867159e-06 -0.80396429994916274 2.9267171256133034e-08 -3.233385741255552e-06 -0.7532050893763268 0.049181997635135651 -2.9635860713894529e-06 -0.6441657891121324 5.8407818292008525e-08 -1.4815537951801167e-05 -0.80344587972597759 0.038661603821488491 -2.2777733374867248e-06 -0.80396429994916285 2.9267171256133037e-08 -3.2333857412555512e-06 -0.7532050893763268 -1.448494470708252e-08 -3.1030670231074551e-05 -0.65323613304938999 1.2957477171657559e-07 -3.0303333787553723e-06 -0.94119668924068756 1.8936471627895059e-07 1.5001523025103058e-05 -0.94143947473329925 0.039505966264530838 1.4744462685974818e-05 -0.94180293242971347 5.8407818292008525e-08 -1.4815537951801167e-05 -0.80344587972597759 0.038661603821488484 -2.2777733374867227e-06 -0.80396429994916274 2.926717125584456e-08 -3.2333857412555542e-06 -0.7532050893763268 1.2957477171657559e-07 -3.0303333787553723e-06 -0.94119668924068756 5.8407818292008525e-08 -1.4815537951801167e-05 -0.80344587972597759 1.2957477171657559e-07 -3.0303333787553723e-06 -0.94119668924068756 0.039505966264530838 1.4744462685974822e-05 -0.94180293242971358 0.053752562414091216 -2.8179965480102704e-06 -0.94212008807914205 0.038661603821488484 -2.2777733374867227e-06 -0.80396429994916274 0.038661603821488484 -2.2777733374867227e-06 -0.80396429994916274 1.2957477171657559e-07 -3.0303333787553723e-06 -0.94119668924068756 0.039505966264530838 1.4744462685974818e-05 -0.94180293242971347 5.8407818292008525e-08 -1.4815537951801167e-05 -0.80344587972597759 
</DataArray>
</PointData>
<CellData Scalars="" Vectors="" Tensors="stress,">
<DataArray type="Float64" Name="stress" NumberOfComponents="9" format="ascii">
0.024197356016659344 7.177815440487783e-05 0.00018257294141479799 7.177815440487783e-05 -0.19050833223068445 -3.8055672297615914e-05 0.00018257294141479799 -3.8055672297615914e-05 -0.97684177551722329 0.025714106471642184 1.7395590371409805e-05 8.2791744415483134e-06 1.7395590371409805e-05 -0.18980916450054156 4.0290618803827673e-06 8.2791744415483134e-06 4.0290618803827673e-06 -0.97462842001279482 0.025418040934296449 3.381759288426543e-05 7.4577820386871718e-05 3.381759288426543e-05 -0.19000053244066639 1.4911446099875854e-05 7.4577820386871718e-05 1.4911446099875854e-05 -0.97550475495265787 0.025709629084410584 2.0962787297963109e-06 -0.00015078254587341799 2.0962787297963109e-06 -0.1898940476077455 0.00017777705798876199 -0.00015078254587341799 0.00017777705798876199 -0.9750670195875315 0.025678168975250881 -1.3170627555964069e-05 -0.00062746106711936145 -1.3170627555964069e-05 -0.18979168536175861 -0.00010225220363080378 -0.00062746106711936145 -0.00010225220363080378 -0.97493366241941959 0.02440963810912733 9.0863399074497082e-05 -0.00031282633058588027 9.0863399074497082e-05 -0.1902951414779635 -0.00013979110279405127 -0.00031282633058588027 -0.00013979110279405127 -0.97573673977648179 0.025663923202872085 -1.1910614271485658e-05 -0.00013802425377726357 -1.1910614271485658e-05 -0.18988418000086624 0.00016274860587606188 -0.00013802425377726357 0.00016274860587606188 -0.9750546547788419 0.024372218658314848 0.00011692031899010337 -0.00034372546869378129 0.00011692031899010337 -0.19035149224452014 -0.00010392421462190882 -0.00034372546869378129 -0.00010392421462190882 -0.97603321326896064 0.025437273643022312 -1.0313970631467327e-05 -0.00046249525728725427 -1.0313970631467327e-05 -0.19002446584556107 -5.8523402948942871e-05 -0.00046249525728725427 -5.8523402948942871e-05 -0.97587156115187335 0.025456658539282195 -2.3729768237744862e-05 -0.00042573510505933276 -2.3729768237744862e-05 -0.19009234899211835 -0.00012541440923855007 -0.00042573510505933276 -0.00012541440923855007 -0.97581460716472834 0.025407616375840741 -7.7606657531702536e-05 -0.00032619058786931276 -7.7606657531702536e-05 -0.19004930057753347 -0.00015908678715459423 -0.00032619058786931276 -0.00015908678715459423 -0.97550333332667505 0.025723899301564268 5.2816491847541608e-05 -7.74070466241783e-05 5.2816491847541608e-05 -0.18998422876447346 0.00010846932705310675 -7.74070466241783e-05 0.00010846932705310675 -0.97552316274538287 0.02605755613003663 4.7005261710894478e-06 -0.00031856176247746504 4.7005261710894478e-06 -0.18982100281415742 0.00016501583782491114 -0.00031856176247746504 0.00016501583782491114 -0.97501568007781381 0.025710272094781744 2.881013674180173e-05 -2.872040496659789e-05 2.881013674180173e-05 -0.18975039013938785 -8.5564140341165551e-05 -2.872040496659789e-05 -8.5564140341165551e-05 -0.97470619719358265 0.025659404110968884 1.7561198279793402e-05 8.6180487207354296e-06 1.7561198279793402e-05 -0.18982076809082327 1.2717627913073689e-05 8.6180487207354296e-06 1.2717627913073689e-05 -0.97486041799521139 0.024250350672999542 -6.3688547107836686e-05 -4.5494163883540007e-05 -6.3688547107836686e-05 -0.19050931813978672 -2.5429648425459146e-06 -4.5494163883540007e-05 -2.5429648425459146e-06 -0.97697039743389058 0.024457734637944609 -8.3563740034636719e-05 -0.00052355155950095655 -8.3563740034636719e-05 -0.19033055999355919 -0.00016236653844006743 -0.00052355155950095655 -0.00016236653844006743 -0.97618671450156103 0.023035669195035201 0.00019984160559398812 0.00024289300838639831 0.00019984160559398812 -0.190784750420737 6.7384992074753914e-06 0.00024289300838639831 6.7384992074753914e-06 -0.97727469209121554 0.024135252598992796 0.00013735123040488343 0.00014416224797543509 0.00013735123040488343 -0.19055978127910539 1.7840345473418839e-05 0.00014416224797543509 1.7840345473418839e-05 -0.97691511718075419 0.021755917096081094 0.00011290433421990154 -0.00099600657958354155 0.00011290433421990154 -0.19115977194355346 1.0014543468007606e-05 -0.00099600657958354155 1.0014543468007606e-05 -0.97753423821549601 0.020671687200901206 0.00021174511024193272 0.00028479374002867569 0.00021174511024193272 -0.19186510220879877 -8.6427853469628335e-05 0.00028479374002867569 -8.6427853469628335e-05 -0.98011219989036391 0.020647212998305187 0.00018129426933021915 0.00029935282330940277 0.00018129426933021915 -0.19189762140754144 -2.0610084305428118e-05 0.00029935282330940277 -2.0610084305428118e-05 -0.98015592041410582 0.020629871153100093 -0.00010661129060648018 -0.00010574096865010067 -0.00010661129060648018 -0.19178430726562021 6.4531714906853124e-06 -0.00010574096865010067 6.4531714906853124e-06 -0.97989896538035404 0.020864511007813114 -0.00012856692628581573 -0.0007813482473392197 -0.00012856692628581573 -0.19148375418748401 -0.00030195063511888792 -0.0007813482473392197 -0.00030195063511888792 -0.97859845738076567 0.020855668783785697 0.00017780578676720158 -0.00050071139312762858 0.00017780578676720158 -0.19181552933593216 -6.2682368502264829e-05 -0.00050071139312762858 -6.2682368502264829e-05 -0.97990847257662272 0.021138106668693007 0.0002120322314941894 -0.00043004446593397638 0.0002120322314941894 -0.19146284217900805 -0.00031705430315792649 -0.00043004446593397638 -0.00031705430315792649 -0.97852722982656237 0.023691696648035478 -0.00020889365552867735 -0.0016288117200666807 -0.00020889365552867735 -0.19064689593895348 -0.0002152920079142584 -0.0016288117200666807 -0.0002152920079142584 -0.97672645932431224 0.024609620822095724 5.3200831041867523e-05 -0.00077129294281497174 5.3200831041867523e-05 -0.19026749589220016 0.00014681350415887695 -0.00077129294281497174 0.00014681350415887695 -0.9757612053263558 0.023517708827158978 2.2717218330267165e-05 -0.002045179171552225 2.2717218330267165e-05 -0.19085941154438102 -3.2996635648513406e-05 -0.002045179171552225 -3.2996635648513406e-05 -0.9776490166561137 0.021122646172388959 0.00030275535968498133 -0.0012451013451984794 0.00030275535968498133 -0.19174807141187736 5.5770897794016339e-05 -0.0012451013451984794 5.5770897794016339e-05 -0.97984344494583409 0.021847548130901673 0.00010960161317575503 -0.00094408226078851465 0.00010960161317575503 -0.19158234837974902 -0.00015661201797675939 -0.00094408226078851465 -0.00015661201797675939 -0.97960321528560002 0.024373561006008806 3.7230317798216692e-05 -0.00055234722893970911 3.7230317798216692e-05 -0.19055135632327505 5.4883130314709039e-05 -0.00055234722893970911 5.4883130314709039e-05 -0.97697163239921891 0.021877753300767584 2.9056091062686533e-05 -0.00077484985165943154 2.9056091062686533e-05 -0.19117114306058919 4.9184100772160441e-05 -0.00077484985165943154 4.9184100772160441e-05 -0.97757786034107053 0.021342915708703517 0.00019423659840072969 -0.0011507371295635949 0.00019423659840072969 -0.19126927254778381 0.00038097663934955062 -0.0011507371295635949 0.00038097663934955062 -0.97767856063626302 0.021831657247737613 0.0003079580257935028 -0.001718839112774817 0.0003079580257935028 -0.1910808834811164 -0.00018644321712613099 -0.001718839112774817 -0.00018644321712613099 -0.97719210486664299 0.021174627369748178 0.00030101114808456334 -0.0012084007623458515 0.00030101114808456334 -0.1917033809002392 -8.3142761634347195e-06 -0.0012084007623458515 -8.3142761634347195e-06 -0.97964548188642331 0.025415631286421436 4.1689135817422745e-05 -0.00087754672353346219 4.1689135817422745e-05 -0.19020610006089378 7.8490166878886214e-05 -0.00087754672353346219 7.8490166878886214e-05 -0.97617118510672496 0.024948762814443692 0.00014131334026611699 -0.0010288933804835088 0.00014131334026611699 -0.19008224122722261 -2.6639435271369472e-05 -0.0010288933804835088 -2.6639435271369472e-05 -0.9750866346602991 0.02577703466546153 -0.0001092756706491811 -0.00059229377313579912 -0.0001092756706491811 -0.18986170808765643 -0.00011163291816490561 -0.00059229377313579912 -0.00011163291816490561 -0.9749167613815829 0.026241345831640346 1.1108497743052106e-05 -0.0004093197133571147 1.1108497743052106e-05 -0.18974649039096186 -0.00018423010734702761 -0.0004093197133571147 -0.00018423010734702761 -0.97471725222450734 0.025767093249189355 -0.00013557175693929856 -0.0001177095733980657 -0.00013557175693929856 -0.18990327030470533 -0.00011059487813171176 -0.0001177095733980657 -0.00011059487813171176 -0.97511680380171462 0.02722112341818772 1.9098228242210482e-06 -0.00055328363494333566 1.9098228242210482e-06 -0.18938107418726235 0.00012196416014531586 -0.00055328363494333566 0.00012196416014531586 -0.97370015393179843 0.026600640127940944 0.00013498804848761876 -9.036657008898441e-05 0.00013498804848761876 -0.18963788914619173 9.8899023906695582e-05 -9.036657008898441e-05 9.8899023906695582e-05 -0.97460091618765876 0.027163012734681358 1.1316375062429376e-05 -0.00049975540484825665 1.1316375062429376e-05 -0.18941597665971821 0.00017136925144162207 -0.00049975540484825665 0.00017136925144162207 -0.97395626960246151 0.026132372416539928 8.4694374153812813e-07 -0.00038727239120872614 8.4694374153812813e-07 -0.18975411001917919 9.9648845564320743e-05 -0.00038727239120872614 9.9648845564320743e-05 -0.97470812469512458 0.027037589680796656 -2.4500513025617572e-05 -0.00085317365340775719 -2.4500513025617572e-05 -0.18947131607683729 -0.00017374266864045307 -0.00085317365340775719 -0.00017374266864045307 -0.97410061620482258 0.027069711669340801 -5.8948929906182166e-06 -0.00088810841007047614 -5.8948929906182166e-06 -0.18929146204520619 -1.2277727286624796e-05 -0.00088810841007047614 -1.2277727286624796e-05 -0.97401024199983155 0.025730269793299315 -8.4794838917112154e-06 -0.00067387626809062295 -8.4794838917112154e-06 -0.18976315795043988 5.8979252083313227e-06 -0.00067387626809062295 5.8979252083313227e-06 -0.97470159568961134 0.026478813567794024 2.3388954739886251e-05 -0.00010856708830825346 2.3388954739886251e-05 -0.18965968189310556 -4.8560263652075442e-05 -0.00010856708830825346 -4.8560263652075442e-05 -0.97511764947117729 0.025804581350986955 -6.9533512160475823e-06 -0.00066956030781317732 -6.9533512160475823e-06 -0.1896941079280402 4.0276391123306166e-05 -0.00066956030781317732 4.0276391123306166e-05 -0.97439913669119615 0.025664999229829455 0.0002251235175217215 -0.00035786907116788086 0.0002251235175217215 -0.18995402198793321 0.00012426265062620567 -0.00035786907116788086 0.00012426265062620567 -0.97575426652848329 0.025966700365780027 0.00030276546073173188 -0.0005224395129467263 0.00030276546073173188 -0.18969736697662148 -0.00014859025984670371 -0.0005224395129467263 -0.00014859025984670371 -0.97467847533954965 0.025656696139372659 2.9078807430670405e-05 -0.0006427931436451817 2.9078807430670405e-05 -0.18986417841814712 0.00024510925622422963 -0.0006427931436451817 0.00024510925622422963 -0.97507478058340458 0.026216035096594092 -0.00048356730730633924 -0.00035111245255314838 -0.00048356730730633924 -0.18963953876848683 0.00023333896155419698 -0.00035111245255314838 0.00023333896155419698 -0.97473365876938489 0.026848964329945657 -1.45600548977413e-05 -0.0010816183107363875 -1.45600548977413e-05 -0.18930594447947319 0.00028249387866430276 -0.0010816183107363875 0.00028249387866430276 -0.97374683026614606 0.021493355937228287 -5.1187440269173152e-05 -0.00074093140768893839 -5.1187440269173152e-05 -0.19164827602708157 -3.2642389715745179e-05 -0.00074093140768893839 -3.2642389715745179e-05 -0.97991916550523617 0.022529906767135122 -0.00024498823692617401 -0.00057769183505951283 -0.00024498823692617401 -0.19070385950967805 -2.9868855819348283e-05 -0.00057769183505951283 -2.9868855819348283e-05 -0.97640786622405407 0.021583599130608311 -7.8580925243453112e-05 -0.00081731451646840925 -7.8580925243453112e-05 -0.19161403724584647 4.9047493165144118e-05 -0.00081731451646840925 4.9047493165144118e-05 -0.97972375425172409 0.022936095924670163 -0.00010940047886668262 -0.0018004380543167886 -0.00010940047886668262 -0.19095903224643479 5.7675427532766221e-05 -0.0018004380543167886 5.7675427532766221e-05 -0.97793999594579106 0.022202571186042519 -0.0003877215650346831 -0.0012333506278919687 -0.0003877215650346831 -0.19146451319917096 0.00057531325931153843 -0.0012333506278919687 0.00057531325931153843 -0.97991508376274394 0.023528606414879139 5.6331664344876596e-05 -0.002027165833030864 5.6331664344876596e-05 -0.19075339042206163 -2.2268324828877972e-05 -0.002027165833030864 -2.2268324828877972e-05 -0.97763312103946831 0.021386131417962806 2.4377092032166113e-06 -0.00038707473931093306 2.4377092032166113e-06 -0.19145080972166262 -0.00087302364519903364 -0.00038707473931093306 -0.00087302364519903364 -0.97820997772979024 0.022385589744306461 -9.8962499336544532e-07 -0.0010759994484266233 -9.8962499336544532e-07 -0.19102772697758538 -1.2304533890858046e-05 -0.0010759994484266233 -1.2304533890858046e-05 -0.97781069979528024 0.021122646084880667 -3.7937259728149984e-05 -0.0012793716786079767 -3.7937259728149984e-05 -0.19162079625900955 6.8528369656650767e-06 -0.0012793716786079767 6.8528369656650767e-06 -0.97932221749763437 0.021653462879990981 5.2896835604696523e-05 0.00020689634924182085 5.2896835604696523e-05 -0.19128798779784301 -1.2028441809988033e-05 0.00020689634924182085 -1.2028441809988033e-05 -0.9775084938869999 0.024056553478776055 -0.0001130091640831291 6.9595698792446203e-05 -0.0001130091640831291 -0.19053368718930952 0.0002494765365542162 6.9595698792446203e-05 0.0002494765365542162 -0.97673940557719363 0.021414445973801932 1.4135019581397643e-05 -0.00062113713960476602 1.4135019581397643e-05 -0.19142782192607849 0.00092940220551518404 -0.00062113713960476602 0.00092940220551518404 -0.97854053697006316 0.022263756967268185 -0.00041527309798581734 -0.00094109465530600733 -0.00041527309798581734 -0.19099728573349756 -0.00023312170813272193 -0.00094109465530600733 -0.00023312170813272193 -0.9776126493056706 0.023958891490994172 -6.7747718733741035e-05 0.00022433806389493489 -6.7747718733741035e-05 -0.19070145900269378 -1.355566356122799e-05 0.00022433806389493489 -1.355566356122799e-05 -0.97693137633280414 0.020698509212801197 -5.2381363743953805e-06 0.00024666642280380449 -5.2381363743953805e-06 -0.19179714393914826 6.760082889463986e-06 0.00024666642280380449 6.760082889463986e-06 -0.9799725367776646 0.020814100088623666 -7.8883496307048786e-05 0.00024231227540180155 -7.8883496307048786e-05 -0.19194264944774286 -6.1493693355573072e-06 0.00024231227540180155 -6.1493693355573072e-06 -0.97997990984594996 0.025382255538871412 -2.0499416194302209e-05 -0.00043313401350175695 -2.0499416194302209e-05 -0.19010062009207351 4.2194997631896103e-05 -0.00043313401350175695 4.2194997631896103e-05 -0.9760484516104031 0.025372831496969769 3.4072929244883611e-05 -0.00043838652002314675 3.4072929244883611e-05 -0.19011459258393865 0.00016095910888208609 -0.00043838652002314675 0.00016095910888208609 -0.97606177133399785 0.025545230601203756 1.8958234047733312e-05 -0.00024542571319624562 1.8958234047733312e-05 -0.19005711463795935 -2.4299322703719844e-07 -0.00024542571319624562 -2.4299322703719844e-07 -0.97573374825309089 0.024023524070668267 -8.7678715967466835e-06 0.00014325845793336278 -8.7678715967466835e-06 -0.19046609137939607 4.076114283502864e-06 0.00014325845793336278 4.076114283502864e-06 -0.97626341684322382 0.025651351665360735 2.1819772016916153e-05 4.4068522238595344e-06 2.1819772016916153e-05 -0.18981226837875093 1.0488891467262638e-05 4.4068522238595344e-06 1.0488891467262638e-05 -0.97486074928305733 0.025622061795544354 1.358857687060717e-05 -2.5487916384935086e-05 1.358857687060717e-05 -0.18986965469022493 -4.8741777682659304e-05 -2.5487916384935086e-05 -4.8741777682659304e-05 -0.97494983687480474 0.025573363082125544 -5.0247074147081546e-06 -0.00023155481823283752 -5.0247074147081546e-06 -0.19000631464421691 -6.2936568178128226e-05 -0.00023155481823283752 -6.2936568178128226e-05 -0.97558766884392389 0.025860979122089733 -2.3142180921831304e-06 -0.00036514691887956641 -2.3142180921831304e-06 -0.1897386621696649 -7.775255075591174e-05 -0.00036514691887956641 -7.775255075591174e-05 -0.97453863415867836 0.025685791999052812 -2.2445659902894682e-06 4.4748426140766824e-06 -2.2445659902894682e-06 -0.18983515241485135 3.9285544335997461e-06 4.4748426140766824e-06 3.9285544335997461e-06 -0.97501362687195459 0.025635548462588649 3.4781703787548318e-05 -7.0043081064915082e-06 3.4781703787548318e-05 -0.18989877942960887 1.0977011650565075e-05 -7.0043081064915082e-06 1.0977011650565075e-05 -0.97502963429503076 0.026001716146897974 6.4219238345621779e-05 -0.00038349368769208247 6.4219238345621779e-05 -0.18968596664774889 2.3930038109021279e-05 -0.00038349368769208247 2.3930038109021279e-05 -0.97440449516839611 0.025678192123313542 5.9659310633617129e-05 -0.00023290862636218823 5.9659310633617129e-05 -0.18997726460753983 2.9598680267139965e-05 -0.00023290862636218823 2.9598680267139965e-05 -0.97558610340493834 0.025687543478027566 -5.031731942640846e-05 2.3180202920393516e-05 -5.031731942640846e-05 -0.18985583840648859 6.7178319404692127e-06 2.3180202920393516e-05 6.7178319404692127e-06 -0.97476647517127413 0.024261811172406722 3.7538521074730502e-05 0.00022144725078565575 3.7538521074730502e-05 -0.19036275737091105 5.5435184188323827e-05 0.00022144725078565575 5.5435184188323827e-05 -0.97612289589667767 0.025712029375882711 -9.8809303281357197e-06 5.6772770822971497e-05 -9.8809303281357197e-06 -0.18983486632869667 8.4903758253485062e-05 5.6772770822971497e-05 8.4903758253485062e-05 -0.97488282742107968 0.025629868554510035 -1.2673407722811539e-05 3.0997245260491266e-06 -1.2673407722811539e-05 -0.1899002139477094 1.6670561162619636e-05 3.0997245260491266e-06 1.6670561162619636e-05 -0.9747912294535499 0.024097000117121237 -8.3994042059030028e-05 0.00025414945227258772 -8.3994042059030028e-05 -0.19045029101879585 2.4454215916558094e-05 0.00025414945227258772 2.4454215916558094e-05 -0.97611853551245908 0.024097967090489003 -5.9729602604318967e-05 0.00013782051505765829 -5.9729602604318967e-05 -0.19046617465612353 -1.3903579637966238e-06 0.00013782051505765829 -1.3903579637966238e-06 -0.97624782740711247 0.025477918695059443 -5.1188469798808117e-05 -0.00032115782849789776 -5.1188469798808117e-05 -0.19008567707553611 -1.8847796626971641e-05 -0.00032115782849789776 -1.8847796626971641e-05 -0.97570478381708914 0.026059833211650119 -2.4378829846638135e-05 -0.00033187455868599613 -2.4378829846638135e-05 -0.1896005048767434 -0.00011522495920668341 -0.00033187455868599613 -0.00011522495920668341 -0.97460289028682734 0.025905659977457196 8.8203726479593214e-07 -0.00038643997695958499 8.8203726479593214e-07 -0.18969529795176859 7.3128345566407515e-05 -0.00038643997695958499 7.3128345566407515e-05 -0.97435852648385168 0.025551088335877908 -4.3897236670460854e-06 -0.00024669844877905911 -4.3897236670460854e-06 -0.19003644026762173 6.7034543848293326e-05 -0.00024669844877905911 6.7034543848293326e-05 -0.97573308700934402 0.024834382343125738 0.00057037826014723 -0.00069128149686303875 0.00057037826014723 -0.19008201339601455 0.00030144387173619558 -0.00069128149686303875 0.00030144387173619558 -0.97564705747779024 0.025935171827834502 2.3471925869916474e-05 -0.00032746114134651894 2.3471925869916474e-05 -0.18998040574364311 7.2059835993405763e-05 -0.00032746114134651894 7.2059835993405763e-05 -0.97570325629886234 0.026060012233779156 7.3430390953678383e-07 -0.00040962810027703189 7.3430390953678383e-07 -0.18976694463374891 -0.0001109893996951751 -0.00040962810027703189 -0.0001109893996951751 -0.97545546420823193 0.024887945150302904 -2.2437520570163834e-06 -0.0012175147137878234 -2.2437520570163834e-06 -0.19033596009020209 -9.0216707385210038e-05 -0.0012175147137878234 -9.0216707385210038e-05 -0.97657744040133632 0.025912298321688676 -3.0862884919586603e-07 -0.00038996030590465747 -3.0862884919586603e-07 -0.18970869600142387 4.9971982947871751e-05 -0.00038996030590465747 4.9971982947871751e-05 -0.97431192574032499 0.025548758158671359 -0.00014772201814785814 -0.00015468193819578868 -0.00014772201814785814 -0.18987932617517295 5.3213693928855221e-05 -0.00015468193819578868 5.3213693928855221e-05 -0.97507063649409975 0.02551810173655189 -0.00041990358511672434 -0.00038654822500550079 -0.00041990358511672434 -0.19007247026027987 -0.00021937929074689055 -0.00038654822500550079 -0.00021937929074689055 -0.97572768913518459 0.026884826495835346 -4.5394339114568574e-06 -0.0010396908192407128 -4.5394339114568574e-06 -0.18935178696306254 0.00013099738271724407 -0.0010396908192407128 0.00013099738271724407 -0.97352127253534348 0.026773393381637034 -4.66345974853799e-06 -0.0010560586381752612 -4.66345974853799e-06 -0.18947181341755148 -0.00018839969731987427 -0.0010560586381752612 -0.00018839969731987427 -0.97395847259131907 0.026879430789792033 -3.0528201690324398e-05 -0.0009422381083704634 -3.0528201690324398e-05 -0.18925010614507776 -5.5146920775017705e-05 -0.0009422381083704634 -5.5146920775017705e-05 -0.97329581324066261 0.026630635960643523 1.5041588056566821e-06 -0.00088242614299749444 1.5041588056566821e-06 -0.18940092757296967 -9.4709341536866609e-05 -0.00088242614299749444 -9.4709341536866609e-05 -0.97418620635527953 0.026605100463570563 -3.7233114555982221e-05 -0.00087649395399547192 -3.7233114555982221e-05 -0.18952524703728368 1.9651454020164216e-05 -0.00087649395399547192 1.9651454020164216e-05 -0.97436135850623895 0.024877718269063459 -0.00010379163740824989 -0.0009672611272175391 -0.00010379163740824989 -0.19015432101540317 -7.0579711206497642e-05 -0.0009672611272175391 -7.0579711206497642e-05 -0.97560340481301477 0.026009395649228634 -4.0614295063003803e-05 -0.0003820704462525748 -4.0614295063003803e-05 -0.18990844849932872 2.9851890457011088e-05 -0.0003820704462525748 2.9851890457011088e-05 -0.97549361568678161 0.026723478728352887 0.00010474632736442907 -0.00088944446655947473 0.00010474632736442907 -0.18952123237580193 0.00021202533247732802 -0.00088944446655947473 0.00021202533247732802 -0.97403318044795539 0.026693685353284091 -2.0581750082593488e-06 -0.00092895670918202722 -2.0581750082593488e-06 -0.18932308592775132 1.1843163669533752e-05 -0.00092895670918202722 1.1843163669533752e-05 -0.97394939988246665 0.027073505920211405 -1.5766516080284147e-05 -0.000506869521376907 -1.5766516080284147e-05 -0.18943344446204902 -0.00017245717309266606 -0.000506869521376907 -0.00017245717309266606 -0.97384486769414425 0.026545948600962488 -0.00012624258886175053 -0.00012679266163984071 -0.00012624258886175053 -0.1896419266285318 -9.4515832777863906e-05 -0.00012679266163984071 -9.4515832777863906e-05 -0.97450338515486012 0.026021396999129129 5.2799030872230222e-05 -0.00047961461797074723 5.2799030872230222e-05 -0.18976415943794742 0.00023106571161324307 -0.00047961461797074723 0.00023106571161324307 -0.97461993318415796 0.024929586989097158 -3.7450380212254613e-05 -0.0010570680789285802 -3.7450380212254613e-05 -0.19002972878978067 9.5763857471009572e-05 -0.0010570680789285802 9.5763857471009572e-05 -0.97487039832327727 0.026155279356073147 -9.788563122363154e-07 -0.00037319512880751304 -9.788563122363154e-07 -0.18973066904384128 -0.00010330134700864413 -0.00037319512880751304 -0.00010330134700864413 -0.97455019841669799 0.026114086827283223 -2.5011374446767709e-05 -0.00032205873363672088 -2.5011374446767709e-05 -0.18972378086056424 -0.00011442293087154942 -0.00032205873363672088 -0.00011442293087154942 -0.97476360264552486 0.025819542658871486 -4.2860586246687229e-05 -9.795695581338304e-05 -4.2860586246687229e-05 -0.18985284314305206 -8.7146976151031286e-05 -9.795695581338304e-05 -8.7146976151031286e-05 -0.97529130993013979 0.025229896681553621 9.621173768466755e-06 0.00014943889715983471 9.621173768466755e-06 -0.19002329168499149 -1.3689176784519024e-05 0.00014943889715983471 -1.3689176784519024e-05 -0.97577490074947204 0.02574474180431513 -1.8446919734084112e-06 -0.00019231065746716514 -1.8446919734084112e-06 -0.18984248091889849 -0.0001091282034790253 -0.00019231065746716514 -0.0001091282034790253 -0.97517409182530546 0.025506640501050809 6.9763478692864051e-05 -6.5519513285372533e-05 6.9763478692864051e-05 -0.1899062932833977 -0.00014877487827813507 -6.5519513285372533e-05 -0.00014877487827813507 -0.97534827013683567 0.025397590967855155 -8.3501593781206657e-06 7.6935595613375956e-06 -8.3501593781206657e-06 -0.1898542226235953 4.998291068090554e-06 7.6935595613375956e-06 4.998291068090554e-06 -0.97499354605519717 0.025751875293850701 4.7426567243560957e-06 -0.00017499608355936447 4.7426567243560957e-06 -0.18997255768228943 -6.4605234538179374e-05 -0.00017499608355936447 -6.4605234538179374e-05 -0.9754836954844418 0.025453396316893695 -7.8158751339671691e-05 3.358013842044452e-05 -7.8158751339671691e-05 -0.18992093952886779 2.7136068736499693e-05 3.358013842044452e-05 2.7136068736499693e-05 -0.97500505012029781 0.025672866699358116 -1.13157464037986e-05 -8.7060050328435779e-05 -1.13157464037986e-05 -0.18995750985371898 -1.85129569189868e-05 -8.7060050328435779e-05 -1.85129569189868e-05 -0.97560472623144401 0.025610632563346336 -9.2360346930442504e-07 -4.3471601797351322e-05 -9.2360346930442504e-07 -0.18988416415906256 -4.1806034554281446e-05 -4.3471601797351322e-05 -4.1806034554281446e-05 -0.9749036825470333 0.025619730035117139 -7.2463512260555223e-05 -9.6439433390660412e-05 -7.2463512260555223e-05 -0.19000852418521122 2.5794813984618414e-06 -9.6439433390660412e-05 2.5794813984618414e-06 -0.97560523488213724 0.026016798893935239 2.3172967009598641e-05 -0.00035710473725386604 2.3172967009598641e-05 -0.18977949875391673 -7.8254510494313312e-05 -0.00035710473725386604 -7.8254510494313312e-05 -0.97477177606543719 0.025997582732538507 -8.5164744354013482e-06 -0.0003462032565204054 -8.5164744354013482e-06 -0.18977145710135523 -2.2986292927629215e-05 -0.0003462032565204054 -2.2986292927629215e-05 -0.97474303189279499 0.02417617626720589 -0.00011542522990675034 0.00026030204515122002 -0.00011542522990675034 -0.19035755279490998 2.6575053018285111e-05 0.00026030204515122002 2.6575053018285111e-05 -0.97608829253613605 0.024164056295286673 -0.00012256819079031986 0.00025970015527243778 -0.00012256819079031986 -0.19039957011365655 2.3596408225320707e-05 0.00025970015527243778 2.3596408225320707e-05 -0.97609717775306981 0.024351118132390215 0.00013009881079093896 1.8174261540774948e-05 0.00013009881079093896 -0.19024521728924526 -9.569655132315892e-06 1.8174261540774948e-05 -9.569655132315892e-06 -0.97600472298475693 0.024271323480928531 0.00014221523323981153 -0.00049724843270843033 0.00014221523323981153 -0.19035827640570377 -0.000320838762179948 -0.00049724843270843033 -0.000320838762179948 -0.97650172863785301 0.023993744581053078 -0.00010910869067884555 -0.00021700714302662349 -0.00010910869067884555 -0.1905679508018242 -0.00014228884261935359 -0.00021700714302662349 -0.00014228884261935359 -0.97696323571221666 0.024411107179427044 -0.00011675958142715677 -0.00043552744627750606 -0.00011675958142715677 -0.19019891437539335 -7.9151387835485476e-05 -0.00043552744627750606 -7.9151387835485476e-05 -0.9754935101021277 0.025776879894786695 -1.7649251975235585e-05 -0.00016531236414141226 -1.7649251975235585e-05 -0.18988042038793645 -1.867304516733892e-05 -0.00016531236414141226 -1.867304516733892e-05 -0.97528052194245007 0.022212869238315669 0.00032315924867370885 0.00058163830500401748 0.00032315924867370885 -0.19090108652074023 5.3429795250969914e-05 0.00058163830500401748 5.3429795250969914e-05 -0.9768093213651392 0.022365963779647058 -0.0018919331901619423 -0.0012279582327932026 -0.0018919331901619423 -0.19104733989225681 -0.00053930562513226921 -0.0012279582327932026 -0.00053930562513226921 -0.97805467427816528 0.022128253155334843 0.00025171879570761775 -0.00090465992431373876 0.00025171879570761775 -0.19113027424048123 5.4239194197142071e-05 -0.00090465992431373876 5.4239194197142071e-05 -0.97788213685917891 0.023108480835306699 -7.0536001546709596e-05 0.00024972240427160102 -7.0536001546709596e-05 -0.19081370997991692 -4.7454614456765146e-06 0.00024972240427160102 -4.7454614456765146e-06 -0.97760874674382348 0.02106909872505236 7.7929558453733431e-05 7.7316146988637424e-05 7.7929558453733431e-05 -0.19168265763437509 0.00073931676825006454 7.7316146988637424e-05 0.00073931676825006454 -0.97995190285009626 0.021004884910258537 -0.00012831653438100099 0.00011221524186236567 -0.00012831653438100099 -0.19182417952538078 -1.7860222079345807e-05 0.00011221524186236567 -1.7860222079345807e-05 -0.98040331871465769 0.020491721298047712 2.5105300774785962e-05 -0.00085661334142001899 2.5105300774785962e-05 -0.19172572592215095 -0.00048147338134217897 -0.00085661334142001899 -0.00048147338134217897 -0.97907152816682297 0.021497004172392597 0.00025330745830440829 -1.0769695214678362e-05 0.00025330745830440829 -0.19125609209371353 7.176368785895641e-06 -1.0769695214678362e-05 7.176368785895641e-06 -0.97801248153436637 0.020636082393263991 -0.00011448028895338867 -5.2201350725367135e-05 -0.00011448028895338867 -0.19177151520233759 8.9776225696280854e-05 -5.2201350725367135e-05 8.9776225696280854e-05 -0.97955578041553504 0.020249853057815487 -0.00024216805006658468 -0.00065421483764313559 -0.00024216805006658468 -0.1920193351972902 1.6077983784057448e-05 -0.00065421483764313559 1.6077983784057448e-05 -0.98038755093163332 0.023571828884768498 1.591142307900395e-05 -0.0019699505940843354 1.591142307900395e-05 -0.19091419543706512 6.0275751197935712e-05 -0.0019699505940843354 6.0275751197935712e-05 -0.97813930280631456 0.024143068907603676 3.0448576217064854e-05 -0.00087071980539010774 3.0448576217064854e-05 -0.19033845123263404 -0.00010152864186093596 -0.00087071980539010774 -0.00010152864186093596 -0.97580578748606805 0.021880040191532779 -9.0785838547056654e-05 -0.001083622872945611 -9.0785838547056654e-05 -0.19103092769866792 -6.709997391812772e-05 -0.001083622872945611 -6.709997391812772e-05 -0.97709914131973497 0.021100470647364228 -3.9412470367378329e-05 -0.00046236016355288845 -3.9412470367378329e-05 -0.19147416287229324 -0.00019415260154946601 -0.00046236016355288845 -0.00019415260154946601 -0.97852935824427423 0.023620435992201511 -6.6836018686434116e-06 -0.0004543371132688101 -6.6836018686434116e-06 -0.19061476887178039 1.1138151718402545e-05 -0.0004543371132688101 1.1138151718402545e-05 -0.97676768927658653 0.021049809240334394 -8.6640881058018098e-05 -0.00065864676217936013 -8.6640881058018098e-05 -0.19175499725709008 -5.8092160231726364e-05 -0.00065864676217936013 -5.8092160231726364e-05 -0.9798960540092011 0.021830735690861969 -0.00015737355226590465 -0.0013256365858522745 -0.00015737355226590465 -0.19140800609240693 0.00011534199818749591 -0.0013256365858522745 0.00011534199818749591 -0.97895076192525354 0.0244204992215203 -0.00017495358221365689 -0.00061594639238993221 -0.00017495358221365689 -0.19040657273463341 9.0999208608777415e-05 -0.00061594639238993221 9.0999208608777415e-05 -0.97654471535076892 0.025539088192267776 1.1281214389183522e-05 -0.00089624961202594555 1.1281214389183522e-05 -0.19023385487544522 3.9747753729280078e-05 -0.00089624961202594555 3.9747753729280078e-05 -0.97650030283201261 0.021471841114135137 -0.0002660532925320475 -0.0016000677151293274 -0.0002660532925320475 -0.19160229257679429 -0.0001166315727492151 -0.0016000677151293274 -0.0001166315727492151 -0.97963930783065178 0.023517639456035272 -0.00018477132705618392 -0.0019139238357144261 -0.00018477132705618392 -0.19089635355579215 2.6670445475218685e-05 -0.0019139238357144261 2.6670445475218685e-05 -0.97812495055908122 0.022480071355678033 0.00036070140691339778 -0.0014327028565420327 0.00036070140691339778 -0.1914285835377996 -0.00041256874732048532 -0.0014327028565420327 -0.00041256874732048532 -0.9795723170193319 0.02288365010612381 6.3214027739318717e-05 -0.0018107430566731419 6.3214027739318717e-05 -0.19111731520631103 7.0191837991950834e-06 -0.0018107430566731419 7.0191837991950834e-06 -0.97830551108557051 0.022701548559331458 0.00028103795248676122 -0.00062194171541390952 0.00028103795248676122 -0.19074323482601577 -1.8105959369532632e-05 -0.00062194171541390952 -1.8105959369532632e-05 -0.97638325519756741 0.022500790048567962 0.00038226989153731714 -0.000887050632982056 0.00038226989153731714 -0.19102573335452308 0.00011720252921959551 -0.000887050632982056 0.00011720252921959551 -0.97763257456091623 0.021628352530566441 -0.00013903878950242781 0.00032239263664730721 -0.00013903878950242781 -0.1913313661763926 1.3121224023623328e-05 0.00032239263664730721 1.3121224023623328e-05 -0.97805217753941398 0.023834438905849284 1.2373612733354398e-05 -0.00055560605299176391 1.2373612733354398e-05 -0.19067133396353853 -8.1494751695998513e-05 -0.00055560605299176391 -8.1494751695998513e-05 -0.9772083628427537 0.021169291178278087 6.3268811535571211e-05 -9.8697292785054902e-05 6.3268811535571211e-05 -0.1914887301227399 0.00056269502200206878 -9.8697292785054902e-05 0.00056269502200206878 -0.9785169165161498 0.02360765243555471 -0.00010603324128281226 -0.00048223327815200001 -0.00010603324128281226 -0.19079099457367538 -3.0605065021963029e-05 -0.00048223327815200001 -3.0605065021963029e-05 -0.97731944480995803 0.021009976343761158 -0.00033665265098143168 -0.00047742470532541326 -0.00033665265098143168 -0.19155228316757589 -0.00084481609886338793 -0.00047742470532541326 -0.00084481609886338793 -0.97872370677205311 0.020339555343886581 -5.126066611538094e-05 -0.0011461687799240172 -5.126066611538094e-05 -0.19182081123070316 3.1157236919099329e-05 -0.0011461687799240172 3.1157236919099329e-05 -0.97946182659395786 0.02399797038415441 -1.5193061801305332e-05 0.00014870589180092679 -1.5193061801305332e-05 -0.19039551585953426 -7.4317855503930758e-07 0.00014870589180092679 -7.4317855503930758e-07 -0.97625479477622579 0.020801980195513048 6.8477585284257124e-05 0.00026720286448739217 6.8477585284257124e-05 -0.19185888976021784 1.295192313445614e-05 0.00026720286448739217 1.295192313445614e-05 -0.97995973589149277 0.01327549328755806 0.00060669201645746206 0.00094848759278964856 0.00060669201645746206 -0.19427177249670019 0.00083907380453229763 0.00094848759278964856 0.00083907380453229763 -0.98505053075872762 0.014489191736691165 0.00076342453459164056 -0.00086750544280844721 0.00076342453459164056 -0.19379244316718974 -0.00026975324053180039 -0.00086750544280844721 -0.00026975324053180039 -0.98339714553375979 0.01815550999059945 5.314437033697178e-05 0.0003650965689720384 5.314437033697178e-05 -0.19255674078722451 -0.00013654994780654128 0.0003650965689720384 -0.00013654994780654128 -0.9809375162798899 0.015992577296191357 0.0001091235581125866 0.00013335798973934426 0.0001091235581125866 -0.19299439575879562 9.4118455920879326e-06 0.00013335798973934426 9.4118455920879326e-06 -0.98115050235083567 0.016925659411565395 4.4117718369335322e-05 -0.0013016497648879466 4.4117718369335322e-05 -0.19314406333092712 -7.9591628945774318e-05 -0.0013016497648879466 -7.9591628945774318e-05 -0.98265562025505426 0.014426556174962718 -6.395451475597538e-06 -0.0014537795208555138 -6.395451475597538e-06 -0.19382969756069049 -0.00048461314470300831 -0.0014537795208555138 -0.00048461314470300831 -0.98385229900846816 0.013226708636229434 -0.0014415645669628742 -0.00028739261789856307 -0.0014415645669628742 -0.19402606174730599 0.0005104273553327987 -0.00028739261789856307 0.0005104273553327987 -0.98402639253433299 0.018107816617114469 -0.00024267998315273296 0.00014162778871865827 -0.00024267998315273296 -0.19250949691375874 1.3659363430193582e-05 0.00014162778871865827 1.3659363430193582e-05 -0.98063081590692658 0.011972403902301948 -0.00070049349631804325 0.00052059980324117849 -0.00070049349631804325 -0.19446243155270701 -0.00072634198661897242 0.00052059980324117849 -0.00072634198661897242 -0.98464199494528681 0.018198497553664872 0.00022712241749557133 0.00029390958510375274 0.00022712241749557133 -0.19251720276766179 -1.5177143131255993e-05 0.00029390958510375274 -1.5177143131255993e-05 -0.98110198710438756 0.012508293445692598 0.00021071733203330419 -0.00017327375606342757 0.00021071733203330419 -0.19461279678763849 -7.5700169971398362e-05 -0.00017327375606342757 -7.5700169971398362e-05 -0.98642234246462612 0.012119532448077341 -0.00020360218506371543 0.00025257883711512938 -0.00020360218506371543 -0.19469935745823147 -1.2384219114577101e-05 0.00025257883711512938 -1.2384219114577101e-05 -0.98619259253908143 0.018583613754312944 -0.00014064255688296212 -0.0024692026674388544 -0.00014064255688296212 -0.19262602854864386 -4.5700607433363238e-05 -0.0024692026674388544 -4.5700607433363238e-05 -0.98171647061853973 0.018826623391864195 -4.4916009188534843e-05 -0.00041491761203293204 -4.4916009188534843e-05 -0.19228361165660551 4.2667437162080546e-05 -0.00041491761203293204 4.2667437162080546e-05 -0.98008103975112892 0.018690179785802896 -0.00053341019639120636 -0.00090299822761217164 -0.00053341019639120636 -0.1923877293045608 -0.00014236107688431199 -0.00090299822761217164 -0.00014236107688431199 -0.98059691395794746 0.01638588798667609 0.0001797469019653872 -0.002584700304296951 0.0001797469019653872 -0.19301026987736003 0.0012658868621586161 -0.002584700304296951 0.0012658868621586161 -0.98158710888925027 0.014533960873612084 -0.00044349414200402037 -0.0029003781131481388 -0.00044349414200402037 -0.19389402161332808 0.00015635705251448861 -0.0029003781131481388 0.00015635705251448861 -0.9844131857268098 0.014094224785856313 0.00048733251936362892 -0.00037994991037926251 0.00048733251936362892 -0.19438819803214635 0.00014845849419611867 -0.00037994991037926251 0.00014845849419611867 -0.98603137989381784 0.018976624995380942 0.0015216540474979393 -0.00078538925675054883 0.0015216540474979393 -0.19227099594095051 0.00047143946591710062 -0.00078538925675054883 0.00047143946591710062 -0.9803082931371504 0.01580160076962811 2.4667246046067221e-05 -0.0025988392762965468 2.4667246046067221e-05 -0.19368059140819721 0.00018207499230471491 -0.0025988392762965468 0.00018207499230471491 -0.98405840794982247 0.013390726427374877 -0.00028541002093946017 0.00065144242197889835 -0.00028541002093946017 -0.1942155509484762 0.0001524041338370058 0.00065144242197889835 0.0001524041338370058 -0.98469236245274527 0.014485476157370836 -0.0001085919830493984 -0.0029658704375149503 -0.0001085919830493984 -0.19385956773748739 -0.00027853678314604391 -0.0029658704375149503 -0.00027853678314604391 -0.98392902334333576 0.014582881586044233 0.0006597557555642605 -0.00199631750380036 0.0006597557555642605 -0.19381598451118001 -0.00018551389868537438 -0.00199631750380036 -0.00018551389868537438 -0.98353112265702192 0.01163656908550148 -0.00040463370669053259 -0.0006287697966003078 -0.00040463370669053259 -0.19512743966329898 -3.1634039973065659e-05 -0.0006287697966003078 -3.1634039973065659e-05 -0.98740071033863619 0.018546418215157373 -0.00033698994975316798 -0.0011678185703712235 -0.00033698994975316798 -0.1924008139256986 -0.00016612938769050567 -0.0011678185703712235 -0.00016612938769050567 -0.98064448845871077 0.011711020958498186 -0.00036850702886598069 -0.001143357246424781 -0.00036850702886598069 -0.19498091995160727 9.8461737800079052e-05 -0.001143357246424781 9.8461737800079052e-05 -0.98666332319934713 0.01659202101759677 -3.2332736713219924e-05 -0.0013778822044051564 -3.2332736713219924e-05 -0.19289496181121787 -9.0529869867753132e-05 -0.0013778822044051564 -9.0529869867753132e-05 -0.98115075651714745 0.017337818990456333 -0.00012975335741791159 -0.0024308003273705303 -0.00012975335741791159 -0.19305872243772243 -0.0001349230807107249 -0.0024308003273705303 -0.0001349230807107249 -0.98278179180141945 0.018465861378205994 -0.00013224262749786839 -0.00092862991862274757 -0.00013224262749786839 -0.19240595943489325 -0.00015502413985879482 -0.00092862991862274757 -0.00015502413985879482 -0.98064582240183773 0.012159603048917 0.00025615516644792417 -0.00036899625101127764 0.00025615516644792417 -0.19470994184245283 0.00046233500288905827 -0.00036899625101127764 0.00046233500288905827 -0.98539307068204174 0.018519501148536677 -0.0002244820191362084 -0.0013577015293227968 -0.0002244820191362084 -0.19249014445817728 -7.9410932500856291e-05 -0.0013577015293227968 -7.9410932500856291e-05 -0.98103821575297612 0.016048300616200106 -0.00019380102496828399 7.6305255729301052e-05 -0.00019380102496828399 -0.19339517839991849 -0.00011896102256792052 7.6305255729301052e-05 -0.00011896102256792052 -0.98309340133790113 0.01333864653252112 0.0005505555168513486 -0.00070232385663293595 0.0005505555168513486 -0.19422171104848765 7.9574006016103205e-05 -0.00070232385663293595 7.9574006016103205e-05 -0.98412019348643887 0.013073373904245067 0.00048248382983754137 -0.0012481860213035545 0.00048248382983754137 -0.19441416576433473 -2.9774407028254624e-05 -0.0012481860213035545 -2.9774407028254624e-05 -0.98469878679905642 0.016545053193498666 -0.00033201941581559389 -0.00060017793672787444 -0.00033201941581559389 -0.19294238364748836 1.1570923457993043e-05 -0.00060017793672787444 1.1570923457993043e-05 -0.98129951815650895 0.013168302725344833 0.00013847942620464365 -0.001250892571808826 0.00013847942620464365 -0.19401058700788182 0.00071070441403436879 -0.001250892571808826 0.00071070441403436879 -0.98436339094810665 0.016283897830609323 0.00010566733362402228 -0.0010252339220038764 0.00010566733362402228 -0.19324663678438647 0.00045582299342237007 -0.0010252339220038764 0.00045582299342237007 -0.98245931750198645 0.01869415036625614 -0.00033996854128182644 0.00023259591541322088 -0.00033996854128182644 -0.1924181116273124 -1.0561495395014028e-05 0.00023259591541322088 -1.0561495395014028e-05 -0.98073373636219008 0.015360206426482836 -0.00027589992809620636 0.00027843385181964875 -0.00027589992809620636 -0.19313798111619612 -1.431963139069749e-05 0.00027843385181964875 -1.431963139069749e-05 -0.98179380716640485 0.015332085387838201 7.7787789091568311e-05 0.00026503353331421009 7.7787789091568311e-05 -0.19351703950388077 -0.00066841175847165424 0.00026503353331421009 -0.00066841175847165424 -0.98218001392140097 0.012348896733837822 -0.0002335189425020445 0.00059672031086765054 -0.0002335189425020445 -0.19469184247895316 -5.0420214644288673e-06 0.00059672031086765054 -5.0420214644288673e-06 -0.98472025788098716 0.014982628359113943 0.00038167847710492782 1.3370825314031742e-05 0.00038167847710492782 -0.19392404848468833 -5.5238660653522965e-05 1.3370825314031742e-05 -5.5238660653522965e-05 -0.98402874003424579 0.011853609157598088 0.00025495583670474158 -0.0016871139799518042 0.00025495583670474158 -0.19485950502413518 -0.00035624827109570489 -0.0016871139799518042 -0.00035624827109570489 -0.98551987845669209 0.009107535666836919 -0.00013717200822810081 -0.00012997951749144088 -0.00013717200822810081 -0.19590371899662534 1.4517505732170033e-05 -0.00012997951749144088 1.4517505732170033e-05 -0.98798363574394632 0.008938592210830959 -0.00021454873693407562 -0.00064299751283476009 -0.00021454873693407562 -0.19591826126920903 1.77773085621169e-05 -0.00064299751283476009 1.77773085621169e-05 -0.98787780561904848 0.0044607339555417756 5.9542110050063822e-05 -0.00019686320346928854 5.9542110050063822e-05 -0.1970306928077438 -2.2936684072938363e-05 -0.00019686320346928854 -2.2936684072938363e-05 -0.98906163906923272 0.0090217633592645508 0.00020122680564833623 -0.0010026305357787035 0.00020122680564833623 -0.19571329873098967 -0.00035543214347918961 -0.0010026305357787035 -0.00035543214347918961 -0.98692155422692585 0.0097459281543677036 0.0002106162288960975 2.3330478316583663e-05 0.0002106162288960975 -0.19528950559023253 -3.2971008651817984e-05 2.3330478316583663e-05 -3.2971008651817984e-05 -0.98535019573213856 0.0093561245559856121 9.8514394470005176e-05 0.00052721551899050654 9.8514394470005176e-05 -0.19569292753911577 -5.2782329392200531e-06 0.00052721551899050654 -5.2782329392200531e-06 -0.98727663663598442 0.0096608210042676279 -0.00015203879092781007 0.00028806538238970725 -0.00015203879092781007 -0.19560611483185592 0.00046842530719987119 0.00028806538238970725 0.00046842530719987119 -0.98678609412739449 0.0041645655937169179 -7.6467486769748829e-05 -2.7703135071832641e-05 -7.6467486769748829e-05 -0.19740770356796528 -0.00019098970656260261 -2.7703135071832641e-05 -0.00019098970656260261 -0.99144587275630003 0.0043668949955843056 -0.00019439126388091953 -0.00024863421882920234 -0.00019439126388091953 -0.19726617631460025 0.00033790581154746757 -0.00024863421882920234 0.00033790581154746757 -0.99107891234525858 0.0038106243836578957 0.00028122441352509649 -0.00020185395993468913 0.00028122441352509649 -0.19712290970690183 -0.0010703492830671513 -0.00020185395993468913 -0.0010703492830671513 -0.9899724510991017 0.0040485909238049678 -9.4926639289451758e-05 -0.00058443624229745361 -9.4926639289451758e-05 -0.19728797507426704 -9.0879424151646404e-06 -0.00058443624229745361 -9.0879424151646404e-06 -0.99088613885990973 0.0043015236545811686 -1.4945666557683628e-05 -0.00069001448855146585 -1.4945666557683628e-05 -0.19704377768979964 -1.9396258424869695e-05 -0.00069001448855146585 -1.9396258424869695e-05 -0.9889593027756215 0.0039191177624521845 5.3174262632831582e-05 0.00010330854673959794 5.3174262632831582e-05 -0.19705183075490243 -1.9001152006144674e-05 0.00010330854673959794 -1.9001152006144674e-05 -0.9886442624054399 0.0036352070801660241 -0.0001497534865570552 -0.00014242134598885974 -0.0001497534865570552 -0.19734556210609291 0.00034593080507652096 -0.00014242134598885974 0.00034593080507652096 -0.99008665783704075 0.0029540773308218311 -0.00033109845620546717 -0.00055321466038966321 -0.00033109845620546717 -0.19753026911480007 0.0001833488609944145 -0.00055321466038966321 0.0001833488609944145 -0.99073026153525245 0.0031588848030695248 -0.00011146355436180086 0.00033888316951849386 -0.00011146355436180086 -0.19750868631169627 2.1225325315909655e-05 0.00033888316951849386 2.1225325315909655e-05 -0.99113581120926875 0.0045656841111113011 -0.00037673588795858741 0.00050917204949655216 -0.00037673588795858741 -0.19699539977140662 -1.5505242279131461e-05 0.00050917204949655216 -1.5505242279131461e-05 -0.98888727351418648 0.0028551221579407593 -0.00050154206808747804 -0.00028498802901943954 -0.00050154206808747804 -0.19729376522501135 -6.6701091693266434e-06 -0.00028498802901943954 -6.6701091693266434e-06 -0.98943250243014291 0.0028354845186855382 -0.00069608504530357322 -0.00055643593674176151 -0.00069608504530357322 -0.19760534772307436 0.00017436167764697807 -0.00055643593674176151 0.00017436167764697807 -0.99154912098134074 0.0032235237194566668 -0.00047391415714633 -0.00039456869138596029 -0.00047391415714633 -0.1973686541628395 0.00024074057367526325 -0.00039456869138596029 0.00024074057367526325 -0.99167174789886525 0.010179314626593203 2.1265178588693781e-05 -0.00072892709081306961 2.1265178588693781e-05 -0.19556064584954094 -6.63091300214802e-05 -0.00072892709081306961 -6.63091300214802e-05 -0.9872448606506784 0.0054877405411737912 -5.891910663916373e-05 -0.0011330561158429675 -5.891910663916373e-05 -0.1966399654361406 -8.9112531380497462e-05 -0.0011330561158429675 -8.9112531380497462e-05 -0.98845197810597929 0.0047183511139365086 0.0022201120659869739 -0.0013105442041480009 0.0022201120659869739 -0.1957912782339202 9.6221519224060081e-05 -0.0013105442041480009 9.6221519224060081e-05 -0.98846680467979853 0.0063169832780114732 0.00039264153946962647 -0.00097491532249427415 0.00039264153946962647 -0.19661298151623521 -0.0004190224237670126 -0.00097491532249427415 -0.0004190224237670126 -0.98967057722926977 0.0095687829741866182 -5.1477097866675742e-06 -0.0022194462958839978 -5.1477097866675742e-06 -0.19582364778362171 -7.9762386222537174e-06 -0.0022194462958839978 -7.9762386222537174e-06 -0.98836199840758887 0.0029522113559271035 -0.00066990797024618284 -0.00018864433326071239 -0.00066990797024618284 -0.19723362712209397 4.5171638450247631e-05 -0.00018864433326071239 4.5171638450247631e-05 -0.99072968669345074 0.0016831971949973212 -0.00048427331343056754 -0.0011443908165868488 -0.00048427331343056754 -0.1979415013339027 0.00041949362373089327 -0.0011443908165868488 0.00041949362373089327 -0.99291119202768496 0.0052794893287577555 0.0004864419804411322 -0.0018917034361080054 0.0004864419804411322 -0.19727363072794663 -7.6093555331446794e-05 -0.0018917034361080054 -7.6093555331446794e-05 -0.9919258519557872 0.0054823839515221184 -0.00013147821606277531 -0.0018120940332050361 -0.00013147821606277531 -0.19784939193404805 -8.1029795423459561e-05 -0.0018120940332050361 -8.1029795423459561e-05 -0.99199197871352673 0.0053646361321158798 2.0430857727421318e-05 -0.00075392000875368348 2.0430857727421318e-05 -0.19663952091577355 0.00010975480085706393 -0.00075392000875368348 0.00010975480085706393 -0.98824278555552614 0.0061844291844577182 -0.00023672490297590472 -0.00041736337359180031 -0.00023672490297590472 -0.19663026842373474 -0.001022770406138851 -0.00041736337359180031 -0.001022770406138851 -0.99016527828121115 0.0066174355061423551 0.00016645331758234131 -0.00088500049840356532 0.00016645331758234131 -0.19683501547656501 0.0012115485832303596 -0.00088500049840356532 0.0012115485832303596 -0.98907835025668867 0.0068676913799559092 -0.00017994827587693195 -0.00092137299768035863 -0.00017994827587693195 -0.19598134808646583 8.0251409986575872e-05 -0.00092137299768035863 8.0251409986575872e-05 -0.98717129217937538 0.0059838749549991355 0.00011512761039317436 -0.0004134048806267443 0.00011512761039317436 -0.19742520790569879 8.8697980281660094e-06 -0.0004134048806267443 8.8697980281660094e-06 -0.991834107379993 0.0063051568177061035 -0.00090077391557372719 -0.0006193837789822132 -0.00090077391557372719 -0.19633418288596222 9.5596044113521739e-05 -0.0006193837789822132 9.5596044113521739e-05 -0.98799011104398238 0.0069382177806668888 2.970851617181721e-05 -0.0019239969215586149 2.970851617181721e-05 -0.19659423409203636 -0.00028485000091838658 -0.0019239969215586149 -0.00028485000091838658 -0.98834223318837555 0.0070854082752678238 -5.3378442197219518e-05 -0.0019990962380784932 -5.3378442197219518e-05 -0.19606381790761457 4.8283151080352749e-05 -0.0019990962380784932 4.8283151080352749e-05 -0.98780124448292606 0.0046032491796996755 0.00034434846032235349 -0.0015443913194027603 0.00034434846032235349 -0.19744374527559727 8.7943672350543345e-06 -0.0015443913194027603 8.7943672350543345e-06 -0.99226840967988084 0.0045460350726794774 4.7204869261248645e-05 -0.0016838771700523614 4.7204869261248645e-05 -0.19758101839333075 0.00011080756755421639 -0.0016838771700523614 0.00011080756755421639 -0.99214172651800769 0.0043942054132787012 0.00016871697350553952 -0.00073562442854635535 0.00016871697350553952 -0.19695171703127037 -0.00014261236589119264 -0.00073562442854635535 -0.00014261236589119264 -0.98871438251998822 0.0046781979600586665 3.5007873585500432e-05 -0.00062281873881606109 3.5007873585500432e-05 -0.19670332196386267 -7.0986642790094034e-05 -0.00062281873881606109 -7.0986642790094034e-05 -0.98877865666154452 0.0044055702844463529 0.00012567363902520772 -7.7215368990385391e-05 0.00012567363902520772 -0.19721323407936484 -3.0558577680139809e-05 -7.7215368990385391e-05 -3.0558577680139809e-05 -0.99120036440798986 0.004216011834947353 0.0002508458508546519 -1.602581550341764e-05 0.0002508458508546519 -0.1974988108316128 -0.00012016784469884301 -1.602581550341764e-05 -0.00012016784469884301 -0.9913470521510388 0.0092520007394503723 -9.0303569540969432e-06 0.00066912738923877169 -9.0303569540969432e-06 -0.19549208885040673 -0.00013625158015007077 0.00066912738923877169 -0.00013625158015007077 -0.98710711157189035 0.0098365915130781915 -2.7295070349561072e-05 -0.00061166968171838532 -2.7295070349561072e-05 -0.19514970427539285 8.387088696903966e-05 -0.00061166968171838532 8.387088696903966e-05 -0.98597296868673867 0.0041903228063347453 -3.1781896424393495e-05 -0.00012316700395342828 -3.1781896424393495e-05 -0.19771945258059342 -0.00015109869522844654 -0.00012316700395342828 -0.00015109869522844654 -0.99137016471165418 0.0099046083019685982 0.00015164438472778464 0.00059024427878250009 0.00015164438472778464 -0.19528410938300506 -2.2281207582306462e-05 0.00059024427878250009 -2.2281207582306462e-05 -0.98673992431052326 0.0050209999326567001 -0.00012214301757522243 -0.0007925812431014978 -0.00012214301757522243 -0.19669183030682652 -3.2251089825290069e-05 -0.0007925812431014978 -3.2251089825290069e-05 -0.98860198504022667 0.0094439986036803925 -6.8927508424487569e-05 0.00052735105834944009 -6.8927508424487569e-05 -0.19547879102576526 -3.6293276200407848e-05 0.00052735105834944009 -3.6293276200407848e-05 -0.98687419246209807 0.0091227627294357405 2.4612114565491968e-05 0.00055981019398088007 2.4612114565491968e-05 -0.1954720107167553 -4.8328082594910846e-05 0.00055981019398088007 -4.8328082594910846e-05 -0.98727066580797418 0.0032997809926485662 5.5163245145129308e-05 0.00047804063473399475 5.5163245145129308e-05 -0.1975836081925067 -2.7398291073688221e-06 0.00047804063473399475 -2.7398291073688221e-06 -0.99103365786332953 0.0041858257079465154 -0.00024600613532272487 -0.000236076053841147 -0.00024600613532272487 -0.19718256257973951 0.00072332868976144856 -0.000236076053841147 0.00072332868976144856 -0.98959124160342271 0.0029100158729721977 -0.00015284581888762075 0.00061368830487573071 -0.00015284581888762075 -0.19760946823852357 -1.9075242403236219e-05 0.00061368830487573071 -1.9075242403236219e-05 -0.99111783359049632 0.0025619652356210221 0.00012000152588544692 0.00053719848148534033 0.00012000152588544692 -0.19777098100935503 -0.00011939865887217183 0.00053719848148534033 -0.00011939865887217183 -0.99103854699861882 0.0028237320972328561 -1.779265502987181e-05 0.0003716312615682242 -1.779265502987181e-05 -0.19775888850638268 -1.147597337899779e-05 0.0003716312615682242 -1.147597337899779e-05 -0.99080035822494938 0.0060782940457213552 -8.5922663836160001e-05 -0.0011590894081686121 -8.5922663836160001e-05 -0.19629279051478571 -0.00025340139622413715 -0.0011590894081686121 -0.00025340139622413715 -0.98762300503451073 0.0031374498918679827 0.00020406932685564799 0.00030862867232645365 0.00020406932685564799 -0.19728906623830292 -0.000100345645600562 0.00030862867232645365 -0.000100345645600562 -0.99064442464368607 0.0035575067443538999 -0.00021610063389702747 0.00052196645236016193 -0.00021610063389702747 -0.19743902316733486 6.357407490920064e-05 0.00052196645236016193 6.357407490920064e-05 -0.99074534118501789 0.0061664867441972894 0.00043643865885128921 -0.0011372569358042324 0.00043643865885128921 -0.19625728635725073 -0.00018986103047069491 -0.0011372569358042324 -0.00018986103047069491 -0.98759301187286275 0.010130592527851479 -0.00015345128388694098 0.0005971334466187149 -0.00015345128388694098 -0.19511782216034212 -2.5096281810587166e-05 0.0005971334466187149 -2.5096281810587166e-05 -0.98666137272404486 0.0044871223844629993 9.8070726818540088e-05 -0.00073561823130707804 9.8070726818540088e-05 -0.19658896658118388 7.1666027239764007e-05 -0.00073561823130707804 7.1666027239764007e-05 -0.98859400271785947 0.0046126014192353071 -0.00028266005589815498 -0.00038935910655318873 -0.00028266005589815498 -0.19679320997263705 0.0001311337075975208 -0.00038935910655318873 0.0001311337075975208 -0.98855713014015634 0.004114550712908005 -0.00028840841219583804 -7.8936758901637649e-05 -0.00028840841219583804 -0.1975180795304522 0.00016177238101267033 -7.8936758901637649e-05 0.00016177238101267033 -0.99168115162757675 0.003388506514181897 -0.00012007874224691744 0.00061688536589155443 -0.00012007874224691744 -0.197666189899701 -9.6293605543374471e-05 0.00061688536589155443 -9.6293605543374471e-05 -0.9910005979641211 0.0033232967760175071 -0.00013910679271769539 0.0006627288874664055 -0.00013910679271769539 -0.19741410873992757 -0.00016701001199093821 0.0006627288874664055 -0.00016701001199093821 -0.99095272419601221 0.0031437194743855756 -0.0001123132267691046 0.00058779621743214338 -0.0001123132267691046 -0.19794612949871407 0.00018939959158553732 0.00058779621743214338 0.00018939959158553732 -0.99146464728227501 0.010226626587867285 9.1750893797377643e-05 -0.00031710436355930627 9.1750893797377643e-05 -0.19545488384310239 0.00024520725555932099 -0.00031710436355930627 0.00024520725555932099 -0.98751666943598471 0.0098779034694800871 0.0002640458230014802 0.00033180576991225207 0.0002640458230014802 -0.19515404999608255 3.2362716782700644e-06 0.00033180576991225207 3.2362716782700644e-06 -0.98572813827320016 0.0059666883587597419 -0.00027770299456055441 -0.0010403062030829302 -0.00027770299456055441 -0.19725898328186492 0.00028946234688070893 -0.0010403062030829302 0.00028946234688070893 -0.99066285454616154 0.0058977934290645739 -0.00016517333144262306 -0.0011774383737171989 -0.00016517333144262306 -0.19683695080475225 0.00021689118457653145 -0.0011774383737171989 0.00021689118457653145 -0.98836842811652459 0.0061060615474037051 -0.00050407251182093161 -0.00070033467579422304 -0.00050407251182093161 -0.1963862765231624 0.0001922418686451377 -0.00070033467579422304 0.0001922418686451377 -0.98858136117777595 0.0057861207912062729 -0.00034040917920706028 -0.0010841303600680197 -0.00034040917920706028 -0.19643432964604368 0.00018566774581352252 -0.0010841303600680197 0.00018566774581352252 -0.98833536894025886 0.0096390429111114784 2.4207112880263951e-05 0.00049868141551472761 2.4207112880263951e-05 -0.19536750643420578 0.00053427094218788662 0.00049868141551472761 0.00053427094218788662 -0.98642992150303099 0.0029743783287890582 0.00060649609231406567 -0.00053256485655750474 0.00060649609231406567 -0.19688678754458172 -0.00017241051795319207 -0.00053256485655750474 -0.00017241051795319207 -0.98918233803298516 0.00252810547229948 0.00059859264679184925 -0.00092668444990098853 0.00059859264679184925 -0.19735009046218227 -0.00043521569085777645 -0.00092668444990098853 -0.00043521569085777645 -0.99098183100396597 0.0047395510586639321 0.00026997361806819164 0.00069902649730651004 0.00026997361806819164 -0.19688517974061567 9.9952655060050245e-06 0.00069902649730651004 9.9952655060050245e-06 -0.98893482115290132 0.0027550401910795574 0.00054190474680181414 -0.00049249869283671439 0.00054190474680181414 -0.19723153912874339 -0.00038379463549748083 -0.00049249869283671439 -0.00038379463549748083 -0.9906980655498101 0.0030683295972822318 -2.1892122954363613e-05 0.00074329353418746327 -2.1892122954363613e-05 -0.19741798297185628 2.8438393972671623e-05 0.00074329353418746327 2.8438393972671623e-05 -0.99159167609200893 0.0039811134324076588 0.00016439783955885841 4.421421826939642e-05 0.00016439783955885841 -0.19710023216021585 -0.00037312441020228979 4.421421826939642e-05 -0.00037312441020228979 -0.9902483465735582 0.010148620529554085 -0.00015732303162233391 -0.00091731434783406149 -0.00015732303162233391 -0.19538933386698115 -0.00059205059128130549 -0.00091731434783406149 -0.00059205059128130549 -0.98676027580057757 0.0091930775853070155 -0.00033111661749431361 9.5381040464048575e-05 -0.00033111661749431361 -0.19578323275211121 2.9956873322055361e-06 9.5381040464048575e-05 2.9956873322055361e-06 -0.98783100361260556 0.015750211061099466 0.00018165247305858552 -0.00095273548078561587 0.00018165247305858552 -0.19371527094097699 -7.4620613270855174e-05 -0.00095273548078561587 -7.4620613270855174e-05 -0.98422984437090344 0.010619311594417924 0.00022552251818148378 -0.00048600447673691899 0.00022552251818148378 -0.19499099899240305 -8.4082659667084059e-05 -0.00048600447673691899 -8.4082659667084059e-05 -0.98547579263134788 0.012570951829077588 0.00033644651586559277 0.00049329829482488475 0.00033644651586559277 -0.19448919837552928 1.3769705111904604e-06 0.00049329829482488475 1.3769705111904604e-06 -0.9846532046762575 0.018856918638786194 0.00033572776421999189 0.00036903218027512777 0.00033572776421999189 -0.19221836159341657 8.9115872927661256e-06 0.00036903218027512777 8.9115872927661256e-06 -0.98034494340655842 0.015299783549402561 -0.0003067113804256287 -1.6201661810343394e-05 -0.0003067113804256287 -0.19372576338936665 3.1295917425371597e-05 -1.6201661810343394e-05 3.1295917425371597e-05 -0.98394996697784209 0.016554032284627266 -5.2379559118801802e-05 -0.0010225858667896833 -5.2379559118801802e-05 -0.19313032741038952 -0.00045503666053166921 -0.0010225858667896833 -0.00045503666053166921 -0.98259112155561756 0.016731163256607062 0.00028709922667679628 -0.00074925878824619319 0.00028709922667679628 -0.19285138697501719 -5.5175194773382508e-05 -0.00074925878824619319 -5.5175194773382508e-05 -0.98096404951395488 0.016668969071673756 0.00029260875448720007 -0.00072729622508041492 0.00029260875448720007 -0.19289043621877022 -3.6029382736169069e-05 -0.00072729622508041492 -3.6029382736169069e-05 -0.98123579320968657 0.015804426509793912 -1.8745794502818879e-05 0.00025808550990395859 -1.8745794502818879e-05 -0.19331906129231588 0.00083800273088185939 0.00025808550990395859 0.00083800273088185939 -0.98184820946372053 0.015938035640634896 0.00027140931924145653 0.00019204694550392716 0.00027140931924145653 -0.19316454338667144 -1.8982537157382812e-05 0.00019204694550392716 -1.8982537157382812e-05 -0.9813495360318002 0.011935108004275162 -0.00014893763385540436 0.00060740274877170083 -0.00014893763385540436 -0.19463535938763163 -0.00045968834812698534 0.00060740274877170083 -0.00045968834812698534 -0.98524148900072428 0.015739983916593384 0.00039768518408591296 -0.00089091914489541901 0.00039768518408591296 -0.19358323879062134 -0.00060287817028520374 -0.00089091914489541901 -0.00060287817028520374 -0.98358239267270831 0.011930932376689463 -0.0002987891340419771 0.00061061804315920673 -0.0002987891340419771 -0.19464944409895879 1.2942654235740133e-05 0.00061061804315920673 1.2942654235740133e-05 -0.98522690811489289 0.018002334868402081 -0.00023753403590599464 0.00032727259784064437 -0.00023753403590599464 -0.19262380651891517 -2.0078351126879755e-05 0.00032727259784064437 -2.0078351126879755e-05 -0.98082966029211294 0.018021083938734056 -0.00014125726723343031 0.00036806523672484534 -0.00014125726723343031 -0.19253017279214152 4.6115012524661214e-05 0.00036806523672484534 4.6115012524661214e-05 -0.98075066421200874 0.014377024306602478 -6.8256110416974817e-05 -0.0015805217905105529 -6.8256110416974817e-05 -0.19391027637278035 0.0006380218652567597 -0.0015805217905105529 0.0006380218652567597 -0.98410813748105774 0.016597954571701212 -6.1846936639944712e-05 -0.0014432614847919023 -6.1846936639944712e-05 -0.19327851227888701 0.00014719820979175458 -0.0014432614847919023 0.00014719820979175458 -0.98303588913137419 0.014832626874230259 -0.00077148356371941295 -0.0010579050649374977 -0.00077148356371941295 -0.19370995808976083 0.00040837410989236211 -0.0010579050649374977 0.00040837410989236211 -0.9836041753077861 0.0158285075720907 -0.00020853927155865413 8.9807166537191524e-05 -0.00020853927155865413 -0.1930165158236663 5.5463789459912252e-06 8.9807166537191524e-05 5.5463789459912252e-06 -0.98118930635129842 0.017987354587507109 0.00014661532352942193 0.00019120161027748602 0.00014661532352942193 -0.19255135267137957 -7.6771636157065286e-06 0.00019120161027748602 -7.6771636157065286e-06 -0.98066790393101611 0.011682080590349253 0.00030423579955724916 0.00023448639038429166 0.00030423579955724916 -0.19490077849368784 2.0116577938758701e-05 0.00023448639038429166 2.0116577938758701e-05 -0.98630588203511627 0.015929970988247777 -9.0711649824429542e-05 -0.0023859610226996258 -9.0711649824429542e-05 -0.19353186561967667 -0.00017067534570758269 -0.0023859610226996258 -0.00017067534570758269 -0.98374278534939874 0.014411771267806406 0.00041722319605054373 -0.0027920656252446996 0.00041722319605054373 -0.1940568527336381 -7.7139473914744627e-05 -0.0027920656252446996 -7.7139473914744627e-05 -0.98425289872715638 0.016648136867479124 -8.8114030178897959e-05 -0.002259639729612975 -8.8114030178897959e-05 -0.19285711978211628 -0.0011222421716071684 -0.002259639729612975 -0.0011222421716071684 -0.98082701776158077 0.014386077904152833 -0.00035728855030708477 -0.00025610025294758865 -0.00035728855030708477 -0.19429320477373793 -4.445256975307843e-05 -0.00025610025294758865 -4.445256975307843e-05 -0.98589905914234643 0.01658122034355336 -9.9352450019092662e-05 -0.0012786229159072182 -9.9352450019092662e-05 -0.1928643769869024 4.9031558259693409e-05 -0.0012786229159072182 4.9031558259693409e-05 -0.98097305335043616 0.016580193530877751 -6.6743105999677061e-05 -0.0013080152830698966 -6.6743105999677061e-05 -0.19287699677468423 -3.4388098965117131e-05 -0.0013080152830698966 -3.4388098965117131e-05 -0.98114924217343713 0.011019076021782093 0.00021402152940660065 -0.0011586967102772405 0.00021402152940660065 -0.19511440820087644 -0.00019791542800037809 -0.0011586967102772405 -0.00019791542800037809 -0.98671714619408935 0.010983764616093197 0.00012589213020869561 -0.0011487863340274851 0.00012589213020869561 -0.19484279090424361 -0.00012999469384217255 -0.0011487863340274851 -0.00012999469384217255 -0.98520220160805594 0.017785763812388111 0.0004392965885850198 -0.0014813292081725105 0.0004392965885850198 -0.19258462761731973 7.9304968167326351e-05 -0.0014813292081725105 7.9304968167326351e-05 -0.98068444845119929 0.014340466466701104 -0.00059152103588138208 -0.0018316187131749428 -0.00059152103588138208 -0.19398996585075939 8.352193897709359e-05 -0.0018316187131749428 8.352193897709359e-05 -0.98466002305470313 0.0156546921355811 5.2834352093930728e-05 -0.00068070356453747705 5.2834352093930728e-05 -0.19366189192980357 -0.00014375252776145653 -0.00068070356453747705 -0.00014375252776145653 -0.98396798884339076 0.01636862274787812 5.6393102399539965e-05 -0.0013438659114550222 5.6393102399539965e-05 -0.19293842837727687 0.00014430209054125398 -0.0013438659114550222 0.00014430209054125398 -0.98105804857373236 0.014311007016235944 2.631590695015785e-05 -0.0029523151256046765 2.631590695015785e-05 -0.19395710281329653 1.8125309181465932e-05 -0.0029523151256046765 1.8125309181465932e-05 -0.98417387697619796 0.016957433194728422 0.00047638075595260416 -0.0010010556086093025 0.00047638075595260416 -0.19335486326890672 -0.00045324364658022587 -0.0010010556086093025 -0.00045324364658022587 -0.98371684306442653 0.017669387010855131 0.00027023776878069876 -0.0013175676155130489 0.00027023776878069876 -0.19255849738556013 -1.5937121132791887e-05 -0.0013175676155130489 -1.5937121132791887e-05 -0.98041640923298723 0.017265447549995816 0.00020111833481873968 -0.0017555418436415726 0.00020111833481873968 -0.19336085003980086 0.00026057108697863374 -0.0017555418436415726 0.00026057108697863374 -0.98402283528994339 0.010822630786492204 -6.7142470645622425e-05 -0.0015173591434829437 -6.7142470645622425e-05 -0.19482747935588157 3.1147679718457333e-05 -0.0015173591434829437 3.1147679718457333e-05 -0.98557515608407242 0.0063475510123272016 -0.00052523989645526727 -0.0003040795694416662 -0.00052523989645526727 -0.19625668782385752 -2.7198204928545466e-05 -0.0003040795694416662 -2.7198204928545466e-05 -0.98813199770707238 0.0058294782419813299 -0.00047889820206704149 -0.00107599211324233 -0.00047889820206704149 -0.19682075752809519 -6.2524589775625472e-06 -0.00107599211324233 -6.2524589775625472e-06 -0.99045404169602436 0.01089236890629538 3.2179589719252588e-05 -0.0013006423615146145 3.2179589719252588e-05 -0.19536555552815846 0.0002552011313293745 -0.0013006423615146145 0.0002552011313293745 -0.98833978158473357 0.0056062025640875087 -0.00040153693623255001 -0.00090542050546471575 -0.00040153693623255001 -0.19664838858975275 0.0003408336044424809 -0.00090542050546471575 0.0003408336044424809 -0.98967439224894971 0.0030056051692835817 0.00041728219218517987 -0.0005518979569762994 0.00041728219218517987 -0.19714524971024147 4.7144584595870676e-05 -0.0005518979569762994 4.7144584595870676e-05 -0.99031368814772691 0.0032184332748639299 6.7179733378122379e-05 -0.00048844282290538832 6.7179733378122379e-05 -0.19788985232721279 -0.00020487784757405869 -0.00048844282290538832 -0.00020487784757405869 -0.9933918737943559 0.0025370511191170619 0.00044204533070717574 -0.00094895056080446238 0.00044204533070717574 -0.19781876121545838 -0.00044959717978254599 -0.00094895056080446238 -0.00044959717978254599 -0.99286845506721244 0.0031774200057628765 0.00026204955106593766 -0.00056833390230753844 0.00026204955106593766 -0.19738597585555717 -0.00020597744301562027 -0.00056833390230753844 -0.00020597744301562027 -0.99168356051490347 0.0054034613973550361 0.00016495804059433319 -0.0015890138829959266 0.00016495804059433319 -0.19766240757316755 -2.2728424634577138e-05 -0.0015890138829959266 -2.2728424634577138e-05 -0.99212037641280038 0.0050796452901442357 -0.00045434888661259983 -0.0016467152736704405 -0.00045434888661259983 -0.19726094158078009 0.00011677326344483596 -0.0016467152736704405 0.00011677326344483596 -0.99206888560336581 0.006499459050655465 0.00087305833588111233 -0.00084298971887811214 0.00087305833588111233 -0.19630211478974297 3.1298053458361785e-05 -0.00084298971887811214 3.1298053458361785e-05 -0.98793719943968794 0.0059736009474213869 3.7468029273836916e-05 -0.00014903104122487854 3.7468029273836916e-05 -0.19734674942171337 -0.00012018263678784114 -0.00014903104122487854 -0.00012018263678784114 -0.99185142390404479 0.0069914802098647311 8.1315025868003679e-05 -0.00081334724062065433 8.1315025868003679e-05 -0.19610526923631522 3.3465903046314693e-05 -0.00081334724062065433 3.3465903046314693e-05 -0.98697752862769295 0.0062346532237318453 7.4960282020256324e-05 -0.00087647610757579653 7.4960282020256324e-05 -0.19716310417295682 9.3868883733638775e-05 -0.00087647610757579653 9.3868883733638775e-05 -0.99101713166912953 0.0065332836554961027 -8.1074628583207854e-05 -0.0006070207003341932 -8.1074628583207854e-05 -0.19698855028095386 -0.0012604832504118368 -0.0006070207003341932 -0.0012604832504118368 -0.98908565479676613 0.0061666737656213277 0.00060083074640207459 -0.0010851254166876212 0.00060083074640207459 -0.19677380773400086 -0.00047986392657395349 -0.0010851254166876212 -0.00047986392657395349 -0.99021807536940343 0.0062873638366875428 0.00018882031066722905 -0.0002774761715606533 0.00018882031066722905 -0.1966845255097191 0.0008165139642049013 -0.0002774761715606533 0.0008165139642049013 -0.99028487808371346 0.004196917014046786 1.2468604748910999e-05 0.00011369732085253492 1.2468604748910999e-05 -0.19757002095048692 0.00010754555451142345 0.00011369732085253492 0.00010754555451142345 -0.99173539909667485 0.0044507223434101517 -0.00033497349021605283 -0.0014670251182393734 -0.00033497349021605283 -0.19730056358396542 2.9455842422865253e-05 -0.0014670251182393734 2.9455842422865253e-05 -0.99208388106724588 0.0080445954238240747 0.0011770435129973972 -0.00094603898629175287 0.0011770435129973972 -0.19627085828718094 -0.00061825057334552458 -0.00094603898629175287 -0.00061825057334552458 -0.98903317554214265 0.0083326936377075 -0.0011677470107988926 -0.00037893580607384347 -0.0011677470107988926 -0.19696301268021349 -0.00058534746009142324 -0.00037893580607384347 -0.00058534746009142324 -0.9921051564315635 0.003655619422610723 -0.0004234150624585564 0.00034131848960039513 -0.0004234150624585564 -0.19788559591431265 0.00023477665338744735 0.00034131848960039513 0.00023477665338744735 -0.99357613573773929 0.005718476244497589 9.2840465842103809e-05 -0.00069353442432584789 9.2840465842103809e-05 -0.19757343457892232 -2.3545377144995605e-05 -0.00069353442432584789 -2.3545377144995605e-05 -0.9930441639740627 0.0087603391376827044 -0.0023212542564114537 -0.00091929903100562704 -0.0023212542564114537 -0.19616809230263121 0.0011331760751660536 -0.00091929903100562704 0.0011331760751660536 -0.98943873098313295 0.0076638473927340689 0.00014817570867888981 -0.0020964248072230796 0.00014817570867888981 -0.19610971950126566 -0.00017389480737806107 -0.0020964248072230796 -0.00017389480737806107 -0.98770561714578742 0.0047587062096889898 -0.00039945379458130692 -0.00073333650543649931 -0.00039945379458130692 -0.19692358951171018 -0.00028028836463206419 -0.00073333650543649931 -0.00028028836463206419 -0.98979821962143788 0.006896504922468405 0.0012006750275593899 -0.001605418798186542 0.0012006750275593899 -0.19716340332184112 0.00034484488840202943 -0.001605418798186542 0.00034484488840202943 -0.99345973175024271 0.0036929401494971703 -0.00071524476053621189 -0.00025431812162934886 -0.00071524476053621189 -0.19782014531924819 0.00027829356678554795 -0.00025431812162934886 0.00027829356678554795 -0.9936385121119482 0.0048719374579428987 -0.00078669297907885257 -0.00080551550285479223 -0.00078669297907885257 -0.19755586595882835 0.00017547848715360193 -0.00080551550285479223 0.00017547848715360193 -0.99378243318653325 0.0039262442982235246 0.00032846124592231853 -0.0014207983929794832 0.00032846124592231853 -0.19830927386913633 -0.00017443902111535792 -0.0014207983929794832 -0.00017443902111535792 -0.99365134700129065 0.0052712981937422521 0.00046908249228706485 -0.00076143579431631192 0.00046908249228706485 -0.19776763508680154 -1.1848877516262846e-05 -0.00076143579431631192 -1.1848877516262846e-05 -0.99317494547996532 0.0049265531349124148 -8.4500216073294193e-05 -9.6416557080925003e-05 -8.4500216073294193e-05 -0.19741353481510404 -0.00069460863095749392 -9.6416557080925003e-05 -0.00069460863095749392 -0.99292813241769906 0.014481279372603961 0.00035267461453749547 -0.0021519452167302333 0.00035267461453749547 -0.19461106129071387 -9.5337154221386555e-05 -0.0021519452167302333 -9.5337154221386555e-05 -0.98769692293826572 0.004857727212774221 0.00021530120950510187 -0.00063195296676021862 0.00021530120950510187 -0.19706933280095373 -3.7940909981992732e-05 -0.00063195296676021862 -3.7940909981992732e-05 -0.99041949563857345 0.0048175608908642698 0.00038089473068305009 -0.00052479421039075547 0.00038089473068305009 -0.1974960044340508 0.00067777519858402968 -0.00052479421039075547 0.00067777519858402968 -0.99055393148477267 0.0048890117404296607 4.7812125859116242e-05 5.261276277634952e-05 4.7812125859116242e-05 -0.19784292380824176 -2.8592844666386341e-05 5.261276277634952e-05 -2.8592844666386341e-05 -0.99324641631603372 0.0033813816430943167 0.00025916162926419148 -0.00038384032050453598 0.00025916162926419148 -0.19810772180814928 0.00010337619943601162 -0.00038384032050453598 0.00010337619943601162 -0.9950191472102845 0.0030067381967218143 0.00060549676418823978 -0.00069171064583628539 0.00060549676418823978 -0.1979319215566665 -0.00020863099467338664 -0.00069171064583628539 -0.00020863099467338664 -0.99358534188093239 0.0030588638380162347 0.0003201532851998306 -0.00068256114466586082 0.0003201532851998306 -0.19744173793907915 0.0003367620758752965 -0.00068256114466586082 0.0003367620758752965 -0.9909925393654353 0.010889263329656465 -1.9289555706266865e-05 -0.00093390585751040867 -1.9289555706266865e-05 -0.19553627053466427 -3.5738228402859562e-05 -0.00093390585751040867 -3.5738228402859562e-05 -0.9891844453360602 0.005310712750168145 -0.00053420850573945725 -0.00041057084774287489 -0.00053420850573945725 -0.19688807448972057 0.0001484986902847707 -0.00041057084774287489 0.0001484986902847707 -0.99038542866441492 0.016402094935118072 -4.0414872748038108e-05 -0.0013573216930238274 -4.0414872748038108e-05 -0.19336308584789563 -0.00031345166950846881 -0.0013573216930238274 -0.00031345166950846881 -0.98331272176105511 0.013916489893704309 0.00017357651496237357 -0.0029475319389991733 0.00017357651496237357 -0.1943370442067569 7.8383813085780574e-06 -0.0029475319389991733 7.8383813085780574e-06 -0.98575125570973299 0.011643489876031365 -7.3125440546194741e-05 -0.001649814152543394 -7.3125440546194741e-05 -0.19516202022278661 0.0002556235683220387 -0.001649814152543394 0.0002556235683220387 -0.98778927757528301 0.017412085615795436 -0.0001562578916012841 -0.0025232622561777163 -0.0001562578916012841 -0.19342982685388788 0.00013882415729382647 -0.0025232622561777163 0.00013882415729382647 -0.98450494378128806 0.014610132530250231 -0.00034851187415616219 -0.00013151421091717186 -0.00034851187415616219 -0.1941367874767973 -2.2512324900358927e-06 -0.00013151421091717186 -2.2512324900358927e-06 -0.98561612336075877 0.017319258716765318 -2.2979613988428233e-05 -0.0023135682924333434 -2.2979613988428233e-05 -0.19271768161178182 -0.00016895362833652117 -0.0023135682924333434 -0.00016895362833652117 -0.98086840763146288 0.013046450937858944 0.00014998355877855762 -0.001592693320626587 0.00014998355877855762 -0.19504103072001366 -1.5369923662966745e-05 -0.001592693320626587 -1.5369923662966745e-05 -0.98841168873490126 0.016716149152516957 -3.1634545084658388e-05 -0.00078880003379155905 -3.1634545084658388e-05 -0.19312855962010345 0.00011408173399751753 -0.00078880003379155905 0.00011408173399751753 -0.98232060145735467 0.017952716256781839 8.2299638226564608e-05 -0.0026291128103586026 8.2299638226564608e-05 -0.19255404165751488 -5.1544542970183294e-05 -0.0026291128103586026 -5.1544542970183294e-05 -0.98089976276378366 0.015461744013005929 0.00011193341814069553 -0.0006112042811154822 0.00011193341814069553 -0.19396011935926849 -0.00018686153383751236 -0.0006112042811154822 -0.00018686153383751236 -0.98549723863487992 0.01656467414854923 -0.00038289296825702698 -0.0013176112214844798 -0.00038289296825702698 -0.19304258734181645 0.0010841711368954066 -0.0013176112214844798 0.0010841711368954066 -0.98158608114828549 0.01644326145632391 -0.00014294010842531548 -0.0027966695113299522 -0.00014294010842531548 -0.19404694274594081 -3.4473263122891673e-05 -0.0027966695113299522 -3.4473263122891673e-05 -0.9864063291148053 0.017494968387929077 -0.00016801341270194503 -0.0023308751555493057 -0.00016801341270194503 -0.19255221953585289 -0.00015366741407374374 -0.0023308751555493057 -0.00015366741407374374 -0.98079761744567762 0.01471920353418199 0.00045116325817172188 -0.00051105451169641825 0.00045116325817172188 -0.19423807195438098 -0.00010965372522897532 -0.00051105451169641825 -0.00010965372522897532 -0.98546183580325475 0.02409572462705889 -0.00015992666982162643 -0.0034252331003973568 -0.00015992666982162643 -0.19098984785805928 -7.1585479783475847e-05 -0.0034252331003973568 -7.1585479783475847e-05 -0.97972039760633756 0.014265625466782422 0.0014427119396195293 -0.0027081999887096364 0.0014427119396195293 -0.19415367907293851 -0.0011139940049640362 -0.0027081999887096364 -0.0011139940049640362 -0.98546766378317607 0.016276041037758787 -0.00093765362596531971 -0.0010397335659870777 -0.00093765362596531971 -0.19363550721847425 -0.00041618200974480324 -0.0010397335659870777 -0.00041618200974480324 -0.98421041313512003 0.015734524019265395 0.0023032538132333083 -0.0016190213388056485 0.0023032538132333083 -0.19353717382147456 0.00057034941188072175 -0.0016190213388056485 0.00057034941188072175 -0.98466797226227132 0.019463957267861154 8.660112274321054e-05 -0.00057500251476505504 8.660112274321054e-05 -0.19264090717892918 -0.00023103293825865734 -0.00057500251476505504 -0.00023103293825865734 -0.98326420640998369 0.01698729678544586 -0.0011882561784215279 -0.0031194102495260001 -0.0011882561784215279 -0.19391256133891421 0.0010720458921107401 -0.0031194102495260001 0.0010720458921107401 -0.98589268451991474 0.016393877387442912 0.00036054489788803299 -4.1949218835046764e-05 0.00036054489788803299 -0.1935206889065636 -0.00039938230585934154 -4.1949218835046764e-05 -0.00039938230585934154 -0.98418372261835607 0.015679174532595486 -0.00037599349241549583 -0.0011219660931822695 -0.00037599349241549583 -0.194048721297297 -0.00030804052401856019 -0.0011219660931822695 -0.00030804052401856019 -0.98765809592930154 0.01485383969499865 0.0005062092566419775 -0.0021172866003409396 0.0005062092566419775 -0.19444313710932037 0.00033472348153140707 -0.0021172866003409396 0.00033472348153140707 -0.98714157807021286 0.023768225158587231 0.00059810114897207282 -0.0028154490358089923 0.00059810114897207282 -0.19120237023844633 7.0166767952573039e-06 -0.0028154490358089923 7.0166767952573039e-06 -0.97953240368270933 0.019853067722527706 -3.6214994974887205e-05 -0.0023498317168058058 -3.6214994974887205e-05 -0.19208485143505871 0.00021269069395124518 -0.0023498317168058058 0.00021269069395124518 -0.98051866208672767 0.024224603104573306 -0.0006236770205018539 -0.0032568182437393567 -0.0006236770205018539 -0.19114553594279082 0.00016518488427985645 -0.0032568182437393567 0.00016518488427985645 -0.97994772111533424 0.019262822573895222 0.00047794414784342473 -0.0023999161907544975 0.00047794414784342473 -0.19296906925455859 -0.0007610537160649411 -0.0023999161907544975 -0.0007610537160649411 -0.98192442099705524 0.016087994491476687 -0.00092126550360496903 -0.0041138684530125369 -0.00092126550360496903 -0.19407034549276214 -0.00014699555923214369 -0.0041138684530125369 -0.00014699555923214369 -0.98582831706795826 0.014950671716642328 -0.00019626287845087519 6.7038166399635557e-05 -0.00019626287845087519 -0.19426194648686623 -9.753400045309224e-05 6.7038166399635557e-05 -9.753400045309224e-05 -0.98569140101236385 0.015237651564751209 -0.00060640845735076003 -1.4321236619707634e-05 -0.00060640845735076003 -0.19346824486567105 0.00080903838177948106 -1.4321236619707634e-05 0.00080903838177948106 -0.98514330470877676 0.019637256269416481 0.0001884472376296244 -0.0025708941583387213 0.0001884472376296244 -0.19222568904917825 -1.5391090741889712e-05 -0.0025708941583387213 -1.5391090741889712e-05 -0.98124456150075545 0.011706713943928637 0.00027872807691829108 -0.0018328435433145884 0.00027872807691829108 -0.19460109495244637 0.00036767736086940062 -0.0018328435433145884 0.00036767736086940062 -0.98508630337197722 0.019182048118804862 0.0002128353104605122 -0.0033446622992323594 0.0002128353104605122 -0.1929713477367907 -0.00016362198539554562 -0.0033446622992323594 -0.00016362198539554562 -0.9834097772242294 0.019390679908932063 0.00060573868640075371 -0.001510023420316961 0.00060573868640075371 -0.1924647212934818 0.00010673123544036045 -0.001510023420316961 0.00010673123544036045 -0.98134053197374094 0.018978987860536534 -0.00088975441796552426 -6.1148525705601031e-05 -0.00088975441796552426 -0.19246674311962775 0.00036241193408026451 -6.1148525705601031e-05 0.00036241193408026451 -0.98223998447076388 0.025171722423315002 0.00032914926013215382 -0.0022099251517970764 0.00032914926013215382 -0.1906672506372149 -0.00011080670734475717 -0.0022099251517970764 -0.00011080670734475717 -0.97943392637096283 0.019388856331336024 -0.00089791612857122952 -0.00087711270509766015 -0.00089791612857122952 -0.19293107172096291 -0.00031343136528327875 -0.00087711270509766015 -0.00031343136528327875 -0.9836946955531447 0.015493187351209414 -5.8797999940202074e-06 -0.0027585208237672632 -5.8797999940202074e-06 -0.19450593861935428 0.00042441021104444587 -0.0027585208237672632 0.00042441021104444587 -0.98639850944844909 0.013453334564819786 -0.00015881453086126205 -0.0011043348502248751 -0.00015881453086126205 -0.19461912213533361 -0.00040868002790350744 -0.0011043348502248751 -0.00040868002790350744 -0.98638929425640054 0.011824289076537986 0.00029032733548370456 -0.0024981855416931764 0.00029032733548370456 -0.19564765745601742 0.00095384420518218604 -0.0024981855416931764 0.00095384420518218604 -0.98919908493010533 0.011210573945257485 -0.00024370481365738243 -0.0029529461995400075 -0.00024370481365738243 -0.19583052823754055 0.00011065987731884164 -0.0029529461995400075 0.00011065987731884164 -0.99008787171922918 0.00507653462419283 -8.3845569057259764e-05 -0.00046118899585345652 -8.3845569057259764e-05 -0.19744254711622683 0.0004305031223863498 -0.00046118899585345652 0.0004305031223863498 -0.99227489284332093 0.011217795390145557 0.00010290347953204244 -0.0029017567201499173 0.00010290347953204244 -0.19571076855122271 0.00020551945112456949 -0.0029017567201499173 0.00020551945112456949 -0.98960932136158242 0.010384394336581892 0.00042943361250728741 -0.00077738241797885299 0.00042943361250728741 -0.19622958084691766 6.8639622054389449e-05 -0.00077738241797885299 6.8639622054389449e-05 -0.99128431193519972 0.011436548666668767 -0.00065548960495291934 -0.0014922274992934526 -0.00065548960495291934 -0.19551114709609396 0.00050796829047516923 -0.0014922274992934526 0.00050796829047516923 -0.98785819890840809 0.010233308651666828 -0.00067228926457790588 0.00030786885708522505 -0.00067228926457790588 -0.19629403241801535 -5.234936235165577e-05 0.00030786885708522505 -5.234936235165577e-05 -0.99093243625334537 0.0040653027688056786 0.0001660314510085941 -0.00034405971261786128 0.0001660314510085941 -0.19818366952708877 0.0009673272348489359 -0.00034405971261786128 0.0009673272348489359 -0.99518583187728193 0.0045550273153656118 8.0729326951851029e-05 -0.0011738968783769899 8.0729326951851029e-05 -0.19784465278492003 0.00021284397128473742 -0.0011738968783769899 0.00021284397128473742 -0.9930165365554835 0.0032732161305371044 -1.8949756096699682e-05 -0.00096247095589951925 -1.8949756096699682e-05 -0.1985762435655356 0.00054867229147781416 -0.00096247095589951925 0.00054867229147781416 -0.99644526598808181 0.0035140770383526032 8.5061299560833595e-05 0.00056206201880848461 8.5061299560833595e-05 -0.19856958092324239 0.00014386267057076019 0.00056206201880848461 0.00014386267057076019 -0.99754592703918465 0.0031662137861799278 0.00052732208212409289 -0.00042552192797185029 0.00052732208212409289 -0.19767039399687331 0.00058770374768979394 -0.00042552192797185029 0.00058770374768979394 -0.99262235790486897 0.0024707152913952535 0.00063814519554208058 -0.00070666377414929649 0.00063814519554208058 -0.19851999869065223 -8.0400777460187811e-05 -0.00070666377414929649 -8.0400777460187811e-05 -0.99621498269210096 0.0047210623399085438 0.00016128577447112747 -0.0009827190396884955 0.00016128577447112747 -0.19825663695240481 0.00028258452645172488 -0.0009827190396884955 0.00028258452645172488 -0.99541628242842695 0.0045044850340971165 -3.8208618722040267e-05 -0.0011264746648906865 -3.8208618722040267e-05 -0.19822424895203522 7.5948513067913836e-05 -0.0011264746648906865 7.5948513067913836e-05 -0.99561406661502461 0.0044632568112570326 -0.00027470377953018059 -0.00082851507303338678 -0.00027470377953018059 -0.19768047286554147 0.00013068474362985111 -0.00082851507303338678 0.00013068474362985111 -0.99259006460057186 0.0038434327283632941 -0.00013552268318151603 -0.0002128052024246152 -0.00013552268318151603 -0.19817610504653072 -0.0013555270008063225 -0.0002128052024246152 -0.0013555270008063225 -0.99456641606597707 0.0038628248415349953 0.00018075907765109626 0.00045381021410206834 0.00018075907765109626 -0.19855597645007317 0.00026771718018370194 0.00045381021410206834 0.00026771718018370194 -0.99605288568575423 0.004520739798454132 0.00021427583497246841 0.00043713134373057905 0.00021427583497246841 -0.19772513900954558 0.00018458943454313648 0.00043713134373057905 0.00018458943454313648 -0.99306843047911375 0.0037274064307244448 -6.7658134099541484e-05 -0.0013059678430356048 -6.7658134099541484e-05 -0.19854145867167772 -0.00012227252448759884 -0.0013059678430356048 -0.00012227252448759884 -0.99679547739387031 0.0045734453322587854 1.073262791527042e-05 -0.00022578444556276001 1.073262791527042e-05 -0.19804034881825139 0.0012887229113203169 -0.00022578444556276001 0.0012887229113203169 -0.99415041117628844 0.0048857866785623205 6.3753975725888552e-05 0.00026770556478261653 6.3753975725888552e-05 -0.19758010537537185 -0.00020222436843631009 0.00026770556478261653 -0.00020222436843631009 -0.9927521607701193 0.0099808579963337335 2.3357757151708816e-05 -0.00096847669457011953 2.3357757151708816e-05 -0.19555744099122185 1.5591514705648457e-05 -0.00096847669457011953 1.5591514705648457e-05 -0.98764241969033062 0.0053297554254696511 -0.00015521854895196244 -0.0011376008041411589 -0.00015521854895196244 -0.19784651517310836 -3.6266474743085197e-05 -0.0011376008041411589 -3.6266474743085197e-05 -0.99482804459663265 0.011678306541801242 9.7203014703823524e-05 -0.0032592219726359506 9.7203014703823524e-05 -0.19558208296163027 -0.00044786060092416591 -0.0032592219726359506 -0.00044786060092416591 -0.9893156796907685 0.0074786995428797187 3.1558284765191819e-05 0.00075822480931680026 3.1558284765191819e-05 -0.19670857532714714 7.390987091904222e-06 0.00075822480931680026 7.390987091904222e-06 -0.99089593291650235 0.0037754114995285359 -3.3135520866593374e-05 -0.0011853071928880077 -3.3135520866593374e-05 -0.19861652518240769 -0.00025722740895198215 -0.0011853071928880077 -0.00025722740895198215 -0.9965190337675951 0.010946628818755633 -0.00015245243437633283 -0.0028093772856989663 -0.00015245243437633283 -0.19545189998010559 -0.00020547964749506598 -0.0028093772856989663 -0.00020547964749506598 -0.98988570246031227 0.0047449976907152358 0.00031015783057289831 -0.00096672939369168986 0.00031015783057289831 -0.19839746755497589 -7.5214103767429208e-06 -0.00096672939369168986 -7.5214103767429208e-06 -0.99476828247386129 0.0044296457890775631 -0.00017176802930895035 5.4413500087502342e-05 -0.00017176802930895035 -0.19780873540400923 -0.00032239163132192356 5.4413500087502342e-05 -0.00032239163132192356 -0.99305021108903802 0.0050301157132486285 -0.0003209230942224787 -0.0012737264878350807 -0.0003209230942224787 -0.1980535173199871 -0.00012442119426367415 -0.0012737264878350807 -0.00012442119426367415 -0.99502651242049556 0.0046967871925925886 -0.00061740610207041704 -0.00088328706873053164 -0.00061740610207041704 -0.19782203454308522 4.500057877154795e-05 -0.00088328706873053164 4.500057877154795e-05 -0.99570489065652712 0.012088838552867687 0.00013726811741557413 -0.0033931301895604449 0.00013726811741557413 -0.19532633056593229 -2.9439433626432532e-06 -0.0033931301895604449 -2.9439433626432532e-06 -0.98877255133437281 0.011840972053603904 0.00018560697191225586 -0.003143446858377974 0.00018560697191225586 -0.19524944859432358 -0.00023937657696962433 -0.003143446858377974 -0.00023937657696962433 -0.98898630425552136 0.0043709307341760484 0.00013205708394989487 0.00035675053819628211 0.00013205708394989487 -0.19749193615898275 -0.00011751939424373831 0.00035675053819628211 -0.00011751939424373831 -0.99278049551561764 0.0033320650855872547 0.0001508434761866969 -0.00091337798865831488 0.0001508434761866969 -0.19867491498542011 8.7987573502923411e-05 -0.00091337798865831488 8.7987573502923411e-05 -0.99614350486080427 0.0033052477994437446 0.00021332167142819157 -0.001066904291564974 0.00021332167142819157 -0.19842929188173253 -0.00010433780015431382 -0.001066904291564974 -0.00010433780015431382 -0.99645445493153417 0.0064318710570028248 -9.9614188243486471e-05 0.00033879756405497119 -9.9614188243486471e-05 -0.19670309425758514 9.6504250858719942e-05 0.00033879756405497119 9.6504250858719942e-05 -0.9905289221196627 0.0063170004037197414 -0.0002567264447064387 6.8855896855124499e-05 -0.0002567264447064387 -0.19672176221171356 0.00011224229734918545 6.8855896855124499e-05 0.00011224229734918545 -0.99045432456448568 0.003027366018539368 0.00026289296111227346 -0.0010937731325690869 0.00026289296111227346 -0.19858921683956043 0.0001215618252812245 -0.0010937731325690869 0.0001215618252812245 -0.99633714215255997 0.0064282595446309987 -0.00026400510252625104 9.7709832598824597e-05 -0.00026400510252625104 -0.1966322858228069 0.00019344555955014275 9.7709832598824597e-05 0.00019344555955014275 -0.98997440603650322 0.0048342328286288261 -0.0006180079296089308 -0.0018350410529872629 -0.0006180079296089308 -0.19801659906388247 0.00064040011694865839 -0.0018350410529872629 0.00064040011694865839 -0.99533066626500544 0.0053272050690466033 7.502478210490743e-07 -0.0018664167083173311 7.502478210490743e-07 -0.19817231265207202 -9.4966582756095264e-05 -0.0018664167083173311 -9.4966582756095264e-05 -0.99599562226550642 0.011867505798354383 -0.00021189492055248571 -0.0032678021770889965 -0.00021189492055248571 -0.19529670378265929 0.00047082923002728094 -0.0032678021770889965 0.00047082923002728094 -0.98883106896303152 0.0064628534598072385 -0.00052502910863064863 -0.00030523451355324305 -0.00052502910863064863 -0.19697793811485753 0.00089351652489869093 -0.00030523451355324305 0.00089351652489869093 -0.9918505368033701 0.0045947467285203381 0.00010449913049902918 -0.000704788645499832 0.00010449913049902918 -0.19815870075761843 0.00012406829189659518 -0.000704788645499832 0.00012406829189659518 -0.99572540388171671 0.0043795400441162258 0.00033541230016941525 0.00038604987759227605 0.00033541230016941525 -0.19758361340382558 0.00038763980940734188 0.00038604987759227605 0.00038763980940734188 -0.99274704542979197 0.0046262284599393744 0.00034256400976023652 -0.00068703638982148263 0.00034256400976023652 -0.19696081988498587 0.00021698001203485084 -0.00068703638982148263 0.00021698001203485084 -0.98969093874104241 0.0073988660000248729 -0.00018425181854144653 -0.002203722426501159 -0.00018425181854144653 -0.19594237263893727 0.00015207436768382987 -0.002203722426501159 0.00015207436768382987 -0.98748819043920144 0.0073808976682890881 0.00079156779451469478 -0.0017208315671895236 0.00079156779451469478 -0.19669370853994861 -0.00082332014972169576 -0.0017208315671895236 -0.00082332014972169576 -0.98892641359704347 0.0072014170452365141 0.0009430340869123285 -0.00088561948565753223 0.0009430340869123285 -0.19687597548496211 0.0010984814025913892 -0.00088561948565753223 0.0010984814025913892 -0.99326393195524099 0.0055333562650182605 -0.00018949164251933604 -0.0008421143852973545 -0.00018949164251933604 -0.19747838066118639 0.00010190597711989824 -0.0008421143852973545 0.00010190597711989824 -0.99332458666525314 0.0076022660104594353 -0.0012586990653292724 -0.0013474772389246992 -0.0012586990653292724 -0.19624673674512427 0.00075311089661433961 -0.0013474772389246992 0.00075311089661433961 -0.98871784309441635 0.0070344658754123053 -0.00068105379994034014 -0.00089161138646747656 -0.00068105379994034014 -0.19728981176598195 -0.00038217052389044603 -0.00089161138646747656 -0.00038217052389044603 -0.99333467788006635 0.0041871144337424226 0.00059450732030936657 -0.00080407689981365493 0.00059450732030936657 -0.19792627022444909 -0.00050842514362425817 -0.00080407689981365493 -0.00050842514362425817 -0.99402758438168437 0.003985699371633622 0.00029098377372754772 0.00011555024555509608 0.00029098377372754772 -0.19780189686077954 -0.00036043929599471891 0.00011555024555509608 -0.00036043929599471891 -0.9932079475794362 0.0041142341315614783 0.00065440912318209831 -0.00057328896717079303 0.00065440912318209831 -0.19789342410036553 -0.00023774243651542015 -0.00057328896717079303 -0.00023774243651542015 -0.99374674587608136 0.0051780747637113489 -0.0004592735837822812 -0.00087336614411004376 -0.0004592735837822812 -0.19815429398119278 4.1326017020892891e-05 -0.00087336614411004376 4.1326017020892891e-05 -0.99353812241852113 0.0055066940115605645 0.002173637116395536 -0.0010357218814389668 0.002173637116395536 -0.19597090698146802 -0.0010089642093373818 -0.0010357218814389668 -0.0010089642093373818 -0.98941833176810068 0.015141242275227507 -9.3574212726395115e-05 -0.0023435398869038337 -9.3574212726395115e-05 -0.19471178519664867 0.00015322422195840346 -0.0023435398869038337 0.00015322422195840346 -0.98741167712045241 0.0082657960707308575 -0.00029340731351822612 0.00054547668069493405 -0.00029340731351822612 -0.19768479858832766 0.00017161883546279455 0.00054547668069493405 0.00017161883546279455 -0.99015588656518894 0.0057641634264899988 -4.2307823363814926e-05 -0.0013687462559657249 -4.2307823363814926e-05 -0.19818600004972331 0.00026223014205539741 -0.0013687462559657249 0.00026223014205539741 -0.99378762398313469 0.0061349353866977374 2.8928418767721896e-05 -0.0010063869378494905 2.8928418767721896e-05 -0.19670451963109747 -0.00010957750432072366 -0.0010063869378494905 -0.00010957750432072366 -0.98959555206937422 0.0047023653646961483 0.00027385314793663485 0.00022415490023497409 0.00027385314793663485 -0.19826715209435142 8.3715300071118826e-05 0.00022415490023497409 8.3715300071118826e-05 -0.99338582042820356 0.0047410014650616427 0.00044781118249701229 0.0002713695312797082 0.00044781118249701229 -0.19764177587187534 -0.00015215810224722404 0.0002713695312797082 -0.00015215810224722404 -0.99324812996237444 0.0013910224004660687 -0.00043611136365189314 0.00035935332484737792 -0.00043611136365189314 -0.19816124646809241 -8.9463606137374363e-05 0.00035935332484737792 -8.9463606137374363e-05 -0.99402335422281851 0.0033373550271873498 0.00013036004624328339 -0.00063593255390081982 0.00013036004624328339 -0.19782487047146102 4.3776644687576471e-05 -0.00063593255390081982 4.3776644687576471e-05 -0.99387343552861918 0.0034824898302492358 -0.00092293612692139989 -0.0010635179555930074 -0.00092293612692139989 -0.19708775958817348 0.00050555885124836664 -0.0010635179555930074 0.00050555885124836664 -0.99117312479300335 0.0097656178674385141 -0.00017164538989768326 -0.00011968921039096081 -0.00017164538989768326 -0.19602115892332345 3.1268424739772094e-05 -0.00011968921039096081 3.1268424739772094e-05 -0.98954550093044991 0.0063583695282656005 0.0002703609485084322 -0.00094963986068796746 0.0002703609485084322 -0.19679180194456827 0.00019505244890427598 -0.00094963986068796746 0.00019505244890427598 -0.99070745711011965 0.0039090139043680416 -0.00033157284939141091 -0.00058548473554742575 -0.00033157284939141091 -0.19758552199531898 -0.0001926581027579255 -0.00058548473554742575 -0.0001926581027579255 -0.99408893596502956 0.0033755272060173036 -0.00073806629746658793 -0.00042424031580146071 -0.00073806629746658793 -0.19734327713144217 -0.00068254916450261049 -0.00042424031580146071 -0.00068254916450261049 -0.99236600960247801 0.0056570658716974531 0.00051326625208175376 -0.0014439381075816993 0.00051326625208175376 -0.19784471418377825 -7.0779469533599482e-05 -0.0014439381075816993 -7.0779469533599482e-05 -0.9949146904341637 0.002349829066927267 -0.00059928929022530063 -0.0010667341333802094 -0.00059928929022530063 -0.19827895684793972 0.00016570068824284245 -0.0010667341333802094 0.00016570068824284245 -0.99572231611819539 0.0034052191964681899 -1.072698208547307e-05 -0.0010239478988163242 -1.072698208547307e-05 -0.19865466217701555 -0.00019476056956357901 -0.0010239478988163242 -0.00019476056956357901 -0.99692567690059519 0.005255305022871859 -0.00024660472017066533 -0.0017902984116535681 -0.00024660472017066533 -0.19748032165559382 0.000239787498898969 -0.0017902984116535681 0.000239787498898969 -0.99229209063345536 0.0034675592360173813 -4.4855078923590555e-06 0.00032260009074258633 -4.4855078923590555e-06 -0.19840340983191762 -0.00014181883088604241 0.00032260009074258633 -0.00014181883088604241 -0.99730458444195058 0.0039145863502638711 -9.1447270876504773e-05 -0.00042437284976259981 -9.1447270876504773e-05 -0.19815136523133625 -0.00079130051455922334 -0.00042437284976259981 -0.00079130051455922334 -0.99538467043439072 0.0031538004044121548 -0.00029604733532820977 -0.00097029248965463388 -0.00029604733532820977 -0.19914270521322386 9.3352354164188966e-05 -0.00097029248965463388 9.3352354164188966e-05 -0.9967573133991583 0.0045045344236547269 0.00068270322839446653 -0.0018372650237663546 0.00068270322839446653 -0.1981081239688629 -0.0008449081559458449 -0.0018372650237663546 -0.0008449081559458449 -0.9950534022248565 0.0054601338389155263 -0.00044416084284579498 0.00072256297163653116 -0.00044416084284579498 -0.19801909794543748 -0.00019003006096868225 0.00072256297163653116 -0.00019003006096868225 -0.99342327681589726 0.0057140706542933017 0.00013728813871656913 -0.001410647375634122 0.00013728813871656913 -0.19828588433705008 -1.398457589940616e-05 -0.001410647375634122 -1.398457589940616e-05 -0.99500069850097095 0.011238464905105383 0.00010202047116522407 -0.0030719617123090293 0.00010202047116522407 -0.19547641326142329 -0.00038051916411641074 -0.0030719617123090293 -0.00038051916411641074 -0.98874912857252095 0.0071386713078084307 0.00052325101188547239 -0.00012943795098974142 0.00052325101188547239 -0.1969964480965668 -0.0010584632137602967 -0.00012943795098974142 -0.0010584632137602967 -0.99200821995452992 0.0077398456106457791 6.7275280228539547e-05 -0.0012259836891375109 6.7275280228539547e-05 -0.19683543138542714 0.0003167345612379302 -0.0012259836891375109 0.0003167345612379302 -0.99146386942272047 0.010217548689009925 -0.00032325735125212436 1.309935594773215e-06 -0.00032325735125212436 -0.19606998582629598 -0.00011889907635254104 1.309935594773215e-06 -0.00011889907635254104 -0.99000958184768528 0.01108800075175731 0.000397216040090642 -0.0031453392230603172 0.000397216040090642 -0.19571796080755322 -0.00015173332968165809 -0.0031453392230603172 -0.00015173332968165809 -0.98892137565286475 0.0052893559850983873 0.00021547167721148718 0.0006077896017808726 0.00021547167721148718 -0.19760890380557106 -0.00017529216754863519 0.0006077896017808726 -0.00017529216754863519 -0.99339172200171211 0.01126336004508488 2.5048119285103074e-05 -0.002563011255002301 2.5048119285103074e-05 -0.19578935572241485 -0.00012645168228719861 -0.002563011255002301 -0.00012645168228719861 -0.98965644525829344 0.0065073885875679416 0.00049198267359747941 -0.0006929698153212982 0.00049198267359747941 -0.19701154683174904 -0.000621917738473865 -0.0006929698153212982 -0.000621917738473865 -0.99168490618396277 0.015270531167691392 0.00033377676630545332 -2.3482959616405452e-05 0.00033377676630545332 -0.1940633649082083 -6.555968635235665e-05 -2.3482959616405452e-05 -6.555968635235665e-05 -0.98502481560497612 0.015339974206488916 0.00061961217978013497 -4.6035152956980241e-05 0.00061961217978013497 -0.19360924534949542 -0.00042404255582584316 -4.6035152956980241e-05 -0.00042404255582584316 -0.98477677557598353 0.013630518072059838 0.00025498609432094728 -0.00081011225908045326 0.00025498609432094728 -0.1947094381578911 0.00031809869688537162 -0.00081011225908045326 0.00031809869688537162 -0.98663286260096639 0.016075915772066574 0.00062232339815550578 -0.0022842392841480041 0.00062232339815550578 -0.19377908193263627 -0.00016245243055457159 -0.0022842392841480041 -0.00016245243055457159 -0.98453179904992938 0.013071503181676936 6.4583327387486209e-06 -0.0019204083690633755 6.4583327387486209e-06 -0.19501589387330576 -0.00072058468523450436 -0.0019204083690633755 -0.00072058468523450436 -0.98723057168887474 0.018821693066931156 0.00056281646476600904 -0.0001268593845951127 0.00056281646476600904 -0.19316443076799927 0.0002841473712287268 -0.0001268593845951127 0.0002841473712287268 -0.98320355289369799 0.01446771665532387 -0.00025242979107484076 -0.0024715772524555035 -0.00025242979107484076 -0.19470061490457724 -0.00059113481327344175 -0.0024715772524555035 -0.00059113481327344175 -0.98652272240209848 0.01379525473473775 0.00084718890167885996 -0.0017729820084359665 0.00084718890167885996 -0.19443829077467178 0.00039762273827204098 -0.0017729820084359665 0.00039762273827204098 -0.98718334555314335 0.020805187307643358 -0.00014430794460960604 -0.0029295400200928488 -0.00014430794460960604 -0.1918944011456245 0.00027107471295284569 -0.0029295400200928488 0.00027107471295284569 -0.98056381853514374 0.020861498178123994 -0.0003238258358382122 -0.0028790421454312574 -0.0003238258358382122 -0.19190722314244979 -0.0001478133360655054 -0.0028790421454312574 -0.0001478133360655054 -0.98028824349369881 0.024617152567611322 -1.8190264845728228e-05 -0.0019486645226849397 -1.8190264845728228e-05 -0.19103770436526912 -0.00062603069926536747 -0.0019486645226849397 -0.00062603069926536747 -0.98068488852029212 0.020615141044173502 0.0010154076537185087 -0.0015450649468649776 0.0010154076537185087 -0.19215653540460265 -0.00047242481601195152 -0.0015450649468649776 -0.00047242481601195152 -0.98113069228854854 0.018714409543416965 -0.00059141808829079386 -0.0012371576194032258 -0.00059141808829079386 -0.19305763969167578 0.0002253073864786348 -0.0012371576194032258 0.0002253073864786348 -0.98351325615253993 0.018641835575082144 -9.7829448092865725e-05 -0.0031705997269926289 -9.7829448092865725e-05 -0.19299377350614111 0.00013175299711076782 -0.0031705997269926289 0.00013175299711076782 -0.98335703853267553 0.017641102500482675 -3.7801248034167274e-05 -0.0022075195108199885 -3.7801248034167274e-05 -0.19255297845883568 -5.7410894126669332e-05 -0.0022075195108199885 -5.7410894126669332e-05 -0.98070147613656689 0.014814191597599613 0.00060443817679435813 -0.0010951267635012085 0.00060443817679435813 -0.19381369702143231 -0.00015326859034436868 -0.0010951267635012085 -0.00015326859034436868 -0.98373128761424655 0.02027910161697366 -0.00045305161245165612 -0.0019991055586907058 -0.00045305161245165612 -0.19197127885313714 -0.00012656718078063456 -0.0019991055586907058 -0.00012656718078063456 -0.9800365444610879 0.020319491385267785 -0.00017670092594218722 -0.0013398601725230497 -0.00017670092594218722 -0.19205501711768846 -0.00020888406049102137 -0.0013398601725230497 -0.00020888406049102137 -0.98034000175027725 0.015057411569874612 -8.1309800172105499e-05 -0.00023364795327496246 -8.1309800172105499e-05 -0.19386957737867083 0.00011781524009912836 -0.00023364795327496246 0.00011781524009912836 -0.98491100615820493 0.013289086169977038 -0.00018529253892167759 -0.0014031069959865999 -0.00018529253892167759 -0.19491206546885231 -3.7715242276477323e-05 -0.0014031069959865999 -3.7715242276477323e-05 -0.98835065011994327 0.016435301576597006 1.3827024106645513e-05 -0.0032432078634728745 1.3827024106645513e-05 -0.19368926919321139 -0.00024026531515147775 -0.0032432078634728745 -0.00024026531515147775 -0.9853691961244988 0.013579932719659071 -0.00018648523776204829 -0.0017790547531712254 -0.00018648523776204829 -0.19464987361552832 -0.00022768763951473356 -0.0017790547531712254 -0.00022768763951473356 -0.98728549632797646 0.014033395940293625 0.00052187420051295083 -0.0026107773412700416 0.00052187420051295083 -0.19437156885614137 -0.00072246497666650367 -0.0026107773412700416 -0.00072246497666650367 -0.98557952635701751 0.019981096463752679 -7.5593045732009033e-05 -0.0026245153341769162 -7.5593045732009033e-05 -0.19213911337521372 2.2991709711761565e-05 -0.0026245153341769162 2.2991709711761565e-05 -0.98082617106789316 0.016642869324349607 7.9197633750833937e-05 -0.00080826583049953271 7.9197633750833937e-05 -0.19329895782325546 -0.00015389077870997525 -0.00080826583049953271 -0.00015389077870997525 -0.98328518387007735 0.017889823674178573 0.00019243071796328651 -0.0021217552456253008 0.00019243071796328651 -0.19253608965834512 0.00019946178757845878 -0.0021217552456253008 0.00019946178757845878 -0.98071725415565525 0.01637798321026418 0.00075043873298550224 -0.0011301285157284124 0.00075043873298550224 -0.1930656577019445 -0.0015718529579444862 -0.0011301285157284124 -0.0015718529579444862 -0.98083850231122272 0.016538480434452163 0.00023954714883116053 -0.0027367202715348204 0.00023954714883116053 -0.19409312420212954 0.00018205167936291566 -0.0027367202715348204 0.00018205167936291566 -0.98634444042357994 0.015692904194625545 -0.00022280083560290861 -0.00052273599767237167 -0.00022280083560290861 -0.19386968748654876 0.00019323606190080334 -0.00052273599767237167 0.00019323606190080334 -0.98493680816179596 0.015128100406177569 -0.0004777939643604009 -0.00043257786780115381 -0.0004777939643604009 -0.19387806561664039 8.2665064748188577e-05 -0.00043257786780115381 8.2665064748188577e-05 -0.98493687997224577 0.018308774760025487 -0.00017850566444562948 -0.0024559797097670755 -0.00017850566444562948 -0.1925451018964289 7.7997211975766589e-05 -0.0024559797097670755 7.7997211975766589e-05 -0.98086137065018264 0.016056633212611304 -0.00052489642075791436 0.00013442840280719626 -0.00052489642075791436 -0.19367836324395471 0.00047777659336567524 0.00013442840280719626 0.00047777659336567524 -0.98445529430906031 0.016787899991920652 0.0011031950326399129 -0.00095720529728968162 0.0011031950326399129 -0.19360453460682159 0.00058158520536033542 -0.00095720529728968162 0.00058158520536033542 -0.98442719546213153 0.013970282775143093 0.00056385404160899416 -0.0030929777839301571 0.00056385404160899416 -0.19446113922711325 -0.00060053836509621483 -0.0030929777839301571 -0.00060053836509621483 -0.98632893546814226 0.016601969378716303 -0.0018804495669984005 -0.0013860222641718378 -0.0018804495669984005 -0.19331748144376812 -0.0005733617597245555 -0.0013860222641718378 -0.0005733617597245555 -0.9846678323185446 0.01951506728269356 -5.9431440825733671e-05 -0.00054089134198287425 -5.9431440825733671e-05 -0.19279038373422266 0.00035254978186305408 -0.00054089134198287425 0.00035254978186305408 -0.98361536054993437 0.014102389498472919 -0.001054802103001114 -0.0031413503070150325 -0.001054802103001114 -0.1941934701206704 0.00091017875993726349 -0.0031413503070150325 0.00091017875993726349 -0.9861837927760948 0.013851076619223246 -0.00074070679709949756 -0.0020180371680222908 -0.00074070679709949756 -0.19457781640409599 -0.00029706304106391634 -0.0020180371680222908 -0.00029706304106391634 -0.98700804550776366 0.024034905069303059 0.00019166931781930871 -0.0035585345133736651 0.00019166931781930871 -0.19107649447097652 0.00014691287297918798 -0.0035585345133736651 0.00014691287297918798 -0.97967566923451299 0.024088564264612811 0.00059320843092472409 -0.0033891767720448662 0.00059320843092472409 -0.19115623355023281 0.00015348828039263296 -0.0033891767720448662 0.00015348828039263296 -0.97965813787086997 0.023882680214351915 -0.00069059512244230609 -0.0030207750187138949 -0.00069059512244230609 -0.19129065885620689 4.2285769315641986e-05 -0.0030207750187138949 4.2285769315641986e-05 -0.97950628889289915 0.019811838239600865 -5.4466558965292865e-05 -0.0022713202133994304 -5.4466558965292865e-05 -0.19217916954449787 -0.00020237299553738097 -0.0022713202133994304 -0.00020237299553738097 -0.9806843219994783 0.030752302860276109 -2.9204767635062707e-06 -0.00043885672099874817 -2.9204767635062707e-06 -0.18884474332024734 4.1196480213834263e-05 -0.00043885672099874817 4.1196480213834263e-05 -0.97481511329136594 0.028837012223720371 -7.2543044592972083e-05 -0.0018813353562356916 -7.2543044592972083e-05 -0.1897838836936635 7.0367112279021149e-05 -0.0018813353562356916 7.0367112279021149e-05 -0.97846267772907547 0.026055729065572963 -0.0014976770907452741 -0.0011650356087264946 -0.0014976770907452741 -0.19003825031148841 0.0008483559082153036 -0.0011650356087264946 0.0008483559082153036 -0.97708164170973189 0.026730845156507921 -0.00012269262103761268 -0.00038454035807333753 -0.00012269262103761268 -0.18951303519939378 0.00010936185397921599 -0.00038454035807333753 0.00010936185397921599 -0.97499600279187559 0.023247147875727292 9.7934758727699606e-05 -0.00022094710178177657 9.7934758727699606e-05 -0.19096696190553175 4.6479990916559188e-05 -0.00022094710178177657 4.6479990916559188e-05 -0.97837036491926943 0.026234929015833491 0.00090574825898323335 -0.0008356745912809771 0.00090574825898323335 -0.18968872033630035 0.00052320952267081999 -0.0008356745912809771 0.00052320952267081999 -0.97551079856327005 0.028609434498271358 -0.00026131638395865208 -0.0016507587698999515 -0.00026131638395865208 -0.19026772558564653 0.00052029851761192791 -0.0016507587698999515 0.00052029851761192791 -0.97851705840300962 0.02934921874302876 -0.00023362906445254718 -0.002681703230123178 -0.00023362906445254718 -0.18923811791707801 -0.00025971958108339521 -0.002681703230123178 -0.00025971958108339521 -0.97515542882057815 0.026689641946334275 0.0011902275592167808 -0.0018119954635966717 0.0011902275592167808 -0.1900906768039623 -0.00093090433869291722 -0.0018119954635966717 -0.00093090433869291722 -0.9763413928877247 0.030905575042109612 6.742020816979404e-05 -0.00058331327926763876 6.742020816979404e-05 -0.18883111292566784 -0.00013001610978810585 -0.00058331327926763876 -0.00013001610978810585 -0.97487965493893713 0.023186569538903801 -3.5115245115070573e-05 -0.0012952215580471771 -3.5115245115070573e-05 -0.19052736073025084 -6.3352470427102681e-05 -0.0012952215580471771 -6.3352470427102681e-05 -0.97557957045485977 0.024056867568754386 -0.00017798680118462893 -0.0018553480314497106 -0.00017798680118462893 -0.19110592506137045 7.7867967011036043e-05 -0.0018553480314497106 7.7867967011036043e-05 -0.97941357641265736 0.023751206212707376 -0.00032663721547003999 -0.0011477877951545645 -0.00032663721547003999 -0.19031691384420357 -9.141130861334279e-05 -0.0011477877951545645 -9.141130861334279e-05 -0.97540660987599637 0.023467774490690596 0.00035943440264409163 -0.0015767241264214027 0.00035943440264409163 -0.19025217228621705 -0.00010226495089038501 -0.0015767241264214027 -0.00010226495089038501 -0.97551906768169938 0.025231929566774849 0.00036459801483395172 -0.0020523873179044694 0.00036459801483395172 -0.19060211716249614 -9.2814723656076126e-05 -0.0020523873179044694 -9.2814723656076126e-05 -0.97903281623185623 0.024626035436133176 0.00020884630907274792 -0.0014366573764516 0.00020884630907274792 -0.19085117245045535 0.00019669771855346241 -0.0014366573764516 0.00019669771855346241 -0.97902750804254768 0.023690553420184224 0.00015028862467501711 -0.0014433445585526616 0.00015028862467501711 -0.19088057479315745 -0.00024546561077504192 -0.0014433445585526616 -0.00024546561077504192 -0.9778950812572651 0.024464746481204891 0.00011975811640954695 -0.0020806027753244027 0.00011975811640954695 -0.19037854800369469 -8.138416261482817e-05 -0.0020806027753244027 -8.138416261482817e-05 -0.97602297851618447 0.025066571171640351 -0.00016754286400364141 -0.0013076108273886167 -0.00016754286400364141 -0.19079610046230211 2.5921548895135871e-06 -0.0013076108273886167 2.5921548895135871e-06 -0.9788740167756913 0.028351594537769212 0.00026665492666574789 -0.0014427291214103022 0.00026665492666574789 -0.18940038389213548 -8.2923661428951911e-05 -0.0014427291214103022 -8.2923661428951911e-05 -0.97496674618185186 0.023764044611811697 7.1391385952326869e-05 -0.00098551151201631271 7.1391385952326869e-05 -0.19035437166430325 -5.1828116978680505e-06 -0.00098551151201631271 -5.1828116978680505e-06 -0.97531773391279142 0.025705807658929158 -0.00017960541161865672 -0.0018451814175062253 -0.00017960541161865672 -0.19034472387055423 0.00014581829763571363 -0.0018451814175062253 0.00014581829763571363 -0.9771226884912485 0.023622046738087078 0.00030398032038092131 -0.0013798344508892946 0.00030398032038092131 -0.19068818902238441 0.00024678691464230518 -0.0013798344508892946 0.00024678691464230518 -0.97700084317490854 0.02678592490363807 -8.6557700742323059e-05 -0.0016443925274065574 -8.6557700742323059e-05 -0.18959153753783176 -7.3291703207578607e-06 -0.0016443925274065574 -7.3291703207578607e-06 -0.97444031797936193 0.021553206158197558 -0.00021199193480864737 -0.0017290988411864383 -0.00021199193480864737 -0.19116459654901541 1.7033955169609705e-05 -0.0017290988411864383 1.7033955169609705e-05 -0.97752852093905451 0.022799837609107643 -0.00011584822180647028 -0.0008367874572862144 -0.00011584822180647028 -0.19119392829139692 -3.8157799117755076e-05 -0.0008367874572862144 -3.8157799117755076e-05 -0.97892000788416311 0.025580295652572083 -9.5197556700419856e-05 -0.0022697440988304063 -9.5197556700419856e-05 -0.19069751681730246 -0.00021867567214117756 -0.0022697440988304063 -0.00021867567214117756 -0.97881280954033412 0.027940768543462502 0.00026402475789967262 -0.0003111032053244589 0.00026402475789967262 -0.18933243137283984 0.00033386446279415338 -0.0003111032053244589 0.00033386446279415338 -0.97498694257753726 0.026378048993071612 0.00039152289065991599 -0.0029344292725470567 0.00039152289065991599 -0.19028238091489458 0.00021051049093134822 -0.0029344292725470567 0.00021051049093134822 -0.97831568080843034 0.024951390374961191 -0.00054826572810536781 -0.00040533395804917549 -0.00054826572810536781 -0.19090609863215824 -0.00024436778966463457 -0.00040533395804917549 -0.00024436778966463457 -0.97945074982246583 0.02828258192051214 -0.0037581579382355321 0.00050261002467499871 -0.0037581579382355321 -0.18985757206094833 -0.0015181053456174709 0.00050261002467499871 -0.0015181053456174709 -0.97416098284219643 0.025425943582665811 -3.6688701081001323e-05 2.2235022344663236e-05 -3.6688701081001323e-05 -0.19017260302369365 0.0006870685421118683 2.2235022344663236e-05 0.0006870685421118683 -0.97716862851189212 0.029201155865175354 0.00078080993141383173 -0.0014889770269865821 0.00078080993141383173 -0.18910533863602852 0.00013402728754141613 -0.0014889770269865821 0.00013402728754141613 -0.9751879284608802 0.028518646327308828 0.00055577920964977308 -0.001610060601597546 0.00055577920964977308 -0.19001271001036668 -0.0009925407721425028 -0.001610060601597546 -0.0009925407721425028 -0.97799962089692061 0.028682082928943475 -0.00013993123524565974 -0.0014933312053164727 -0.00013993123524565974 -0.18982899266913522 -0.00047205462425159439 -0.0014933312053164727 -0.00047205462425159439 -0.97826344995498182 0.032201675920417117 0.00024641018078048218 -0.0013257492179765684 0.00024641018078048218 -0.18860239174044757 -0.00025484842411760411 -0.0013257492179765684 -0.00025484842411760411 -0.97535465597012561 0.029698254494084031 -9.4928339382572213e-05 -0.0023000913884447804 -9.4928339382572213e-05 -0.18848759001229287 -2.0834722016527252e-05 -0.0023000913884447804 -2.0834722016527252e-05 -0.97295295159149031 0.030405990930895688 -0.00034124501682316488 -0.00047038500428958629 -0.00034124501682316488 -0.1887540079137292 0.000139691531572117 -0.00047038500428958629 0.000139691531572117 -0.97491355678035641 0.030882652532625343 -0.0001913828528948115 -0.00016434895872308175 -0.0001913828528948115 -0.18845201898094821 0.0007021865843785946 -0.00016434895872308175 0.0007021865843785946 -0.9732903801402264 0.034823801779577446 0.0007006072072183639 -0.0012738799187288485 0.0007006072072183639 -0.18729116619350383 0.00033259473760294256 -0.0012738799187288485 0.00033259473760294256 -0.97175096038527098 0.034004974755472261 -8.6289507981086774e-05 -0.001938810684904535 -8.6289507981086774e-05 -0.18791072538622 -5.5872309774329665e-06 -0.001938810684904535 -5.5872309774329665e-06 -0.97305042870946235 0.034175778254984746 8.7736565713906656e-05 -0.001994071416443588 8.7736565713906656e-05 -0.18757687563569392 -5.2873238152617574e-05 -0.001994071416443588 -5.2873238152617574e-05 -0.97294566663264437 0.031335941899651942 -2.6569149697211267e-05 -0.0013806437611469935 -2.6569149697211267e-05 -0.18791542325065702 0.00010043886250844791 -0.0013806437611469935 0.00010043886250844791 -0.97224866511194907 0.030840242883320296 -0.00050887323055485946 -0.0012196900257424037 -0.00050887323055485946 -0.18823992123691638 0.00018761238430320404 -0.0012196900257424037 0.00018761238430320404 -0.97245933494839065 0.036860588356377177 -2.9117282355080386e-05 0.00059122086894802806 -2.9117282355080386e-05 -0.1869948354795451 0.00017743568271066934 0.00059122086894802806 0.00017743568271066934 -0.97130834793681364 0.032052455603746477 -0.00012856980592802157 0.00044413566681744676 -0.00012856980592802157 -0.18795174267556691 0.00030973170635895109 0.00044413566681744676 0.00030973170635895109 -0.97254464608485991 0.031366068811681469 -7.4200889629885534e-06 -0.0013708090242614546 -7.4200889629885534e-06 -0.18788793955940752 0.00019667403647982695 -0.0013708090242614546 0.00019667403647982695 -0.97212736913100795 0.034533510169247827 0.0024560798466457243 -0.00058539467788887301 0.0024560798466457243 -0.18725949811296366 -7.4075861752564975e-05 -0.00058539467788887301 -7.4075861752564975e-05 -0.97159098733492821 0.037007398757414212 -2.0548072060151703e-05 -0.0015928832452343222 -2.0548072060151703e-05 -0.18665998990421095 0.0001819993943372733 -0.0015928832452343222 0.0001819993943372733 -0.97074265611669386 0.034357547380253761 -0.00096550909581784099 -0.00046716672789459679 -0.00096550909581784099 -0.18739156427960668 0.00034857741079630244 -0.00046716672789459679 0.00034857741079630244 -0.97183574147925444 0.037191351728669941 0.00027089202257049881 0.00010092550874163386 0.00027089202257049881 -0.18697738402960273 -0.00029314240177047424 0.00010092550874163386 -0.00029314240177047424 -0.97275817899275108 0.032163680697818053 -1.518201378268201e-06 -0.00088943819651476907 -1.518201378268201e-06 -0.18770433742974224 -0.00016969788673160124 -0.00088943819651476907 -0.00016969788673160124 -0.97106507577775591 0.031869100854222218 -6.6611284866396723e-06 -0.00038683076761314439 -6.6611284866396723e-06 -0.18788511465285529 0.00026786102190867744 -0.00038683076761314439 0.00026786102190867744 -0.97204664747383074 0.029443510417012986 -2.9431539001569167e-05 -0.00073575385812540972 -2.9431539001569167e-05 -0.18856161840954155 -0.00031436073484769622 -0.00073575385812540972 -0.00031436073484769622 -0.97243286355477121 0.031048235618043707 0.00033613843111553372 0.00014979441800222482 0.00033613843111553372 -0.18814770232672062 -0.00029085189818678359 0.00014979441800222482 -0.00029085189818678359 -0.97215675593630557 0.029451733063859287 -8.7674334654695788e-07 -0.00071356254827725785 -8.7674334654695788e-07 -0.18859633425987266 -0.00028755716537420817 -0.00071356254827725785 -0.00028755716537420817 -0.972358643326098 0.03001273588004727 0.0015965319595534599 0.00012675361003111618 0.0015965319595534599 -0.18944636952100524 0.0020439717754205944 0.00012675361003111618 0.0020439717754205944 -0.97327598548516669 0.029446231649381552 2.2449673695974856e-05 -0.00072153448179701485 2.2449673695974856e-05 -0.18864454276105513 -0.00031897118237012023 -0.00072153448179701485 -0.00031897118237012023 -0.97233619740019384 0.027457442539271959 -0.00015095451952981573 -0.0011437192913179572 -0.00015095451952981573 -0.18948787834741809 -0.00023110466552200837 -0.0011437192913179572 -0.00023110466552200837 -0.97376518374710841 0.026151847536012962 -2.1199265155064881e-05 -0.001739716637689348 -2.1199265155064881e-05 -0.18948567837156094 -0.0001289469808680721 -0.001739716637689348 -0.0001289469808680721 -0.97446260294572085 0.029461531225784654 -5.8044916178177752e-05 -0.00021476456662672394 -5.8044916178177752e-05 -0.18868972985701715 8.799716194474172e-05 -0.00021476456662672394 8.799716194474172e-05 -0.97324904202304352 0.027764947439925525 0.00023040804802055144 -0.0010858153231099177 0.00023040804802055144 -0.18928372770573698 -0.00030486662143847099 -0.0010858153231099177 -0.00030486662143847099 -0.97500387815712042 0.026593219916784427 7.0190380399893731e-05 -0.0017500026477152986 7.0190380399893731e-05 -0.18952467769597403 -0.00016243622419298553 -0.0017500026477152986 -0.00016243622419298553 -0.97401073050243747 0.026985345907620938 7.025148076026324e-05 -0.00022014963668626208 7.025148076026324e-05 -0.18939082662648263 0.00017918713710229905 -0.00022014963668626208 0.00017918713710229905 -0.97365861059042069 0.027129893130812432 -9.3472161512323554e-07 -0.00056494969576492693 -9.3472161512323554e-07 -0.18941122293887902 -0.00013120423075596577 -0.00056494969576492693 -0.00013120423075596577 -0.97358485135364115 0.028189103463094556 -0.00037927730961708172 0.00010819978652176765 -0.00037927730961708172 -0.18914635857422057 -0.0001311955617319116 0.00010819978652176765 -0.0001311955617319116 -0.97332065046646576 0.027459504258780069 0.00061531004983872721 -0.00082495965582929376 0.00061531004983872721 -0.18903897774039191 -0.00015248622366614839 -0.00082495965582929376 -0.00015248622366614839 -0.97275808603846192 0.026960601018390262 -1.5047435097803239e-05 -0.00087632034930440472 -1.5047435097803239e-05 -0.1891089493103798 -2.697485545355427e-05 -0.00087632034930440472 -2.697485545355427e-05 -0.97283046806059614 0.027712602798740937 -0.00038522667031486559 -0.00099285658579781333 -0.00038522667031486559 -0.18938949178013698 0.00058583254228727899 -0.00099285658579781333 0.00058583254228727899 -0.97459613553123692 0.027670234320322784 -0.0014696658174366743 0.00030894064201647531 -0.0014696658174366743 -0.18839953876094473 -0.00047874087243515717 0.00030894064201647531 -0.00047874087243515717 -0.97170489954204697 0.031307410884087394 -2.8204392987199982e-05 -0.0013846888395590007 -2.8204392987199982e-05 -0.18803609855966319 8.0463346016301784e-05 -0.0013846888395590007 8.0463346016301784e-05 -0.97226639901054579 0.027550009034801537 -0.0003352089130223277 -0.00058679595931798723 -0.0003352089130223277 -0.18922628846226364 -0.00052409545392473333 -0.00058679595931798723 -0.00052409545392473333 -0.97437254372917659 0.027896406614237645 0.0012203664768860659 -0.0012338906329345534 0.0012203664768860659 -0.18901856808299039 0.00035927159324433688 -0.0012338906329345534 0.00035927159324433688 -0.97282245436857129 0.030145056892607713 4.0629798944326448e-05 -0.00095807196938069161 4.0629798944326448e-05 -0.18873932725231046 3.9356872672424714e-05 -0.00095807196938069161 3.9356872672424714e-05 -0.97394431502980749 0.028936579648696781 -0.0012527608443766056 -0.00213565754166406 -0.0012527608443766056 -0.18892674331649462 -0.00047164064791260785 -0.00213565754166406 -0.00047164064791260785 -0.97345535957287099 0.027357793041497269 -7.7727544051057755e-05 -0.00071577346397952435 -7.7727544051057755e-05 -0.18957532582834391 2.1082755088830396e-05 -0.00071577346397952435 2.1082755088830396e-05 -0.975390718671167 0.027414598676052226 -0.0004607249274266495 -0.0002359893148931036 -0.0004607249274266495 -0.18941470543186223 2.2229046250155093e-05 -0.0002359893148931036 2.2229046250155093e-05 -0.97426775964704482 0.026858003671555108 -1.9759636690060169e-06 -0.00092546430744988584 -1.9759636690060169e-06 -0.18915910501478295 -7.3142280057836295e-05 -0.00092546430744988584 -7.3142280057836295e-05 -0.97329175029182124 0.026918025971644388 -1.6356837503784084e-05 -0.00099878353106974682 -1.6356837503784084e-05 -0.18935863709697576 -0.0001575000006366345 -0.00099878353106974682 -0.0001575000006366345 -0.97334788459877597 0.030552096795767536 6.0156016016844031e-05 -0.0012860768456273153 6.0156016016844031e-05 -0.18836027391978072 0.00023910617472078233 -0.0012860768456273153 0.00023910617472078233 -0.97228737468770987 0.032056326857896722 -2.7395572700897357e-05 0.00052029981363954647 -2.7395572700897357e-05 -0.18806905687516007 9.6645007193640886e-05 0.00052029981363954647 9.6645007193640886e-05 -0.97218241616191392 0.029578408979711091 -8.1828308210514134e-05 0.00032204074980449193 -8.1828308210514134e-05 -0.18835947440852618 -8.1476326692531131e-05 0.00032204074980449193 -8.1476326692531131e-05 -0.97123628290467945 0.032166160763919538 5.7704550416659342e-05 0.00053325907417245411 5.7704550416659342e-05 -0.18813295614681536 0.00023007538021513341 0.00053325907417245411 0.00023007538021513341 -0.97237112068915676 0.030674557328648822 4.011850278516557e-05 -0.0013708642584480124 4.011850278516557e-05 -0.18827563560678812 0.00020951069878671902 -0.0013708642584480124 0.00020951069878671902 -0.97176216504054413 0.030546808062098973 4.3726928882270602e-05 -0.0014448825826121059 4.3726928882270602e-05 -0.18837985656712652 -2.0062723600888788e-05 -0.0014448825826121059 -2.0062723600888788e-05 -0.97229660398447981 0.033949249642539425 7.1912380743670762e-05 -0.0017663227135327197 7.1912380743670762e-05 -0.18792424123513507 -1.6445282173371822e-05 -0.0017663227135327197 -1.6445282173371822e-05 -0.97303994533245008 0.030898602905884531 0.00026994940980174572 -0.0015406913771618402 0.00026994940980174572 -0.18836461270615146 0.00010224244403733707 -0.0015406913771618402 0.00010224244403733707 -0.97242097074309042 0.03129758240184366 -1.3068466284637303e-05 -0.0013775889638374395 -1.3068466284637303e-05 -0.18805230329467393 5.2859968798557588e-05 -0.0013775889638374395 5.2859968798557588e-05 -0.97230326641224885 0.033947447685367171 2.8647677980165456e-05 -0.0018009820624171891 2.8647677980165456e-05 -0.18771730986021784 -0.00021822124451498226 -0.0018009820624171891 -0.00021822124451498226 -0.97272569977026091 0.032121864806925804 5.7377410434319055e-06 0.00050586713775424563 5.7377410434319055e-06 -0.18791208826774708 -4.379162228389244e-05 0.00050586713775424563 -4.379162228389244e-05 -0.97190020552614831 0.033802691093272053 -6.9572617222679099e-06 -0.0018507655412098867 -6.9572617222679099e-06 -0.18792736306229596 -7.0656056034845705e-05 -0.0018507655412098867 -7.0656056034845705e-05 -0.97315166191055358 0.033853755437551869 -0.0017501194938672618 -0.0002309329858383169 -0.0017501194938672618 -0.1875557446068985 0.00039572380105612481 -0.0002309329858383169 0.00039572380105612481 -0.97177875226587851 0.036776267983639421 7.2210402175279856e-05 -0.0011214001438415444 7.2210402175279856e-05 -0.18707903573906015 0.00012130458567380376 -0.0011214001438415444 0.00012130458567380376 -0.97194918697457222 0.036973994055151116 5.0288678366666799e-05 -0.0013504628530252027 5.0288678366666799e-05 -0.18680739135023339 0.00053159102826083604 -0.0013504628530252027 0.00053159102826083604 -0.9712319495390811 0.036739325317418414 0.00011278815211818116 -0.0010963620748121183 0.00011278815211818116 -0.18697166366390139 1.5415757916859008e-06 -0.0010963620748121183 1.5415757916859008e-06 -0.97180132509844741 0.03662244826167993 4.2876071726010047e-05 -0.0010452732565093825 4.2876071726010047e-05 -0.18704310014076664 3.7391227185823439e-05 -0.0010452732565093825 3.7391227185823439e-05 -0.97187670527601266 0.036545540242327812 0.00010389433303412421 -0.0010384202215384386 0.00010389433303412421 -0.18733388605994028 -5.03118127912483e-05 -0.0010384202215384386 -5.03118127912483e-05 -0.97197069957073001 0.036875672680203975 -0.00014225031228839487 -0.0010122903918188264 -0.00014225031228839487 -0.18711488513362995 3.3425276888987554e-05 -0.0010122903918188264 3.3425276888987554e-05 -0.97197491693261906 0.030983427236100147 0.00057110536008860458 0.00057774845872593517 0.00057110536008860458 -0.1880935772385316 -0.00018047202636947701 0.00057774845872593517 -0.00018047202636947701 -0.97222406687092056 0.030908261076373546 0.00020386673367832602 0.00057066449893185267 0.00020386673367832602 -0.18829210934384941 0.00016143405605095751 0.00057066449893185267 0.00016143405605095751 -0.97223208146269158 0.030695710912879814 4.1621235361930717e-05 -0.0013617219004726788 4.1621235361930717e-05 -0.1884067729850456 -0.00020146812842392059 -0.0013617219004726788 -0.00020146812842392059 -0.97152528795913007 0.031990781853729944 -0.00027696190160887555 0.00049831733850225213 -0.00027696190160887555 -0.18826991374681268 -8.0915386663771294e-05 0.00049831733850225213 -8.0915386663771294e-05 -0.97199963811380208 0.037220486612224324 4.2188579259011888e-05 -0.0011959415559998909 4.2188579259011888e-05 -0.18710223300123108 -0.00010844405196719364 -0.0011959415559998909 -0.00010844405196719364 -0.97173892486602576 0.03380275455869497 -0.00024691243729486775 -0.0020051924133719368 -0.00024691243729486775 -0.18790674391323825 0.00012939682111090534 -0.0020051924133719368 0.00012939682111090534 -0.97288320635936465 0.031653304676749872 -0.00018058772667566738 0.00030317339177510227 -0.00018058772667566738 -0.18818798283071192 0.00010267048635644385 0.00030317339177510227 0.00010267048635644385 -0.97213053682865747 0.033227876007361767 -0.00010696008684195604 -0.0012442332285762525 -0.00010696008684195604 -0.1884602807181639 -6.1144441976690445e-05 -0.0012442332285762525 -6.1144441976690445e-05 -0.97443162444172859 0.034067148607538567 -6.698568419552685e-05 -0.0020127087607098026 -6.698568419552685e-05 -0.18760348762775569 0.00010585606831777644 -0.0020127087607098026 0.00010585606831777644 -0.97278233424188887 0.022888808155580698 -0.00010138109807149814 -0.00025404672409123918 -0.00010138109807149814 -0.19098427546352903 3.0355921156965948e-05 -0.00025404672409123918 3.0355921156965948e-05 -0.9785097214492442 0.026638691679543081 -0.00086071580022308817 -0.00071381740251585946 -0.00086071580022308817 -0.18976338669724518 -0.00050091203067714751 -0.00071381740251585946 -0.00050091203067714751 -0.97577226768593861 0.028961168038650342 0.0001414085696166323 -0.0027056751617151598 0.0001414085696166323 -0.18952662446896928 2.9768002873242771e-05 -0.0027056751617151598 2.9768002873242771e-05 -0.97538543321315885 0.025548710312235268 0.0014001459215163428 -0.0012519456866411094 0.0014001459215163428 -0.19011033204532801 -0.00091467304650461045 -0.0012519456866411094 -0.00091467304650461045 -0.97717525445738707 0.026934726790184049 -0.00092034051099182954 -0.0019531484653161346 -0.00092034051099182954 -0.19008059785542442 0.00067049062343438326 -0.0019531484653161346 0.00067049062343438326 -0.97636569323126032 0.032460382660806281 0.00040209092672057855 -0.0011450862340117718 0.00040209092672057855 -0.18843547696322785 -0.00046350886668311553 -0.0011450862340117718 -0.00046350886668311553 -0.97435915143684027 0.028294674826726318 0.00027096840476276135 -0.001535489158813963 0.00027096840476276135 -0.1903635176053291 -0.00051054161716557189 -0.001535489158813963 -0.00051054161716557189 -0.97891304817082947 0.025452127412835548 -0.0004201031085965384 -0.0019635957602965881 -0.0004201031085965384 -0.19065981591167369 -1.4907443330880454e-05 -0.0019635957602965881 -1.4907443330880454e-05 -0.97902182660051595 0.02381944463331892 0.00024303452130627432 -0.0010880767134274771 0.00024303452130627432 -0.19022173764122158 0.00010828035836296657 -0.0010880767134274771 0.00010828035836296657 -0.97519533107014333 0.02448327723413668 -0.00018145745906430019 -0.0016148340245367709 -0.00018145745906430019 -0.19080577126300768 -0.00014742796269773262 -0.0016148340245367709 -0.00014742796269773262 -0.97904986379695513 0.02323926297489376 -1.291900473457659e-05 -0.001224575563540331 -1.291900473457659e-05 -0.19038582205613386 0.00012471685773318697 -0.001224575563540331 0.00012471685773318697 -0.97530877760446266 0.02389827003500293 9.8883635346156933e-05 -0.0019901740362334719 9.8883635346156933e-05 -0.19106542975912361 -4.9170652704377815e-05 -0.0019901740362334719 -4.9170652704377815e-05 -0.97940262729201044 0.023281057134689198 -0.00047054602473421475 -0.0016301561213026561 -0.00047054602473421475 -0.19040371158112301 1.4873085745437109e-05 -0.0016301561213026561 1.4873085745437109e-05 -0.97556491244102039 0.027330381451622532 0.00017361936411056347 -0.00023591216521845482 0.00017361936411056347 -0.18935222529409396 0.00056267289319850144 -0.00023591216521845482 0.00056267289319850144 -0.97419170390032517 0.027048201156883042 -0.00010073746551751047 -0.00089071277987262665 -0.00010073746551751047 -0.18926585218382214 3.1823586815415972e-05 -0.00089071277987262665 3.1823586815415972e-05 -0.97370103799227858 0.027122262897611993 0.00065958184754413515 6.153055771584981e-05 0.00065958184754413515 -0.18960491321682271 -0.00014811691887695044 6.153055771584981e-05 -0.00014811691887695044 -0.97580682509031735 0.028066963374946408 0.00037985854872218467 -0.00072839723161521874 0.00037985854872218467 -0.18898696486540389 0.00025398867585602058 -0.00072839723161521874 0.00025398867585602058 -0.97331971299102626 0.027559909564606244 -2.4163427126090267e-05 -0.00061468334237471667 -2.4163427126090267e-05 -0.18950978118158729 -5.5183766983546434e-05 -0.00061468334237471667 -5.5183766983546434e-05 -0.97542893624384663 0.030135083867439016 4.1413972114292795e-05 -0.00094371745782240168 4.1413972114292795e-05 -0.18875447207761153 -2.2561800958942335e-05 -0.00094371745782240168 -2.2561800958942335e-05 -0.97397855476953055 0.027891807107536359 0.00026886993735848188 -0.0008583438197571347 0.00026886993735848188 -0.18920735522710808 -0.00055752676236248133 -0.0008583438197571347 -0.00055752676236248133 -0.97463999609239416 0.02879271950737107 0.0008211094376640235 -0.001570759271297538 0.0008211094376640235 -0.18872837913416773 0.00010853686434297849 -0.001570759271297538 0.00010853686434297849 -0.97230406525221502 0.028807569824282675 -2.0272256839363679e-05 -0.0015843697264417145 -2.0272256839363679e-05 -0.18848219638227248 -5.5401850498570937e-05 -0.0015843697264417145 -5.5401850498570937e-05 -0.97225657092874096 0.026846193735658552 -2.5463815014225399e-05 -0.0010864603422892083 -2.5463815014225399e-05 -0.18928558882051816 0.00025192833057152697 -0.0010864603422892083 0.00025192833057152697 -0.97378086226234961 0.030642089233458458 -6.3554237330714131e-07 -0.0012759458035673799 -6.3554237330714131e-07 -0.18833340856807257 -0.00025848801130512467 -0.0012759458035673799 -0.00025848801130512467 -0.97186566418021325 0.027156007066495014 -6.0891654523331649e-06 -0.00089439372906841008 -6.0891654523331649e-06 -0.1892025653545647 3.6227713907543979e-05 -0.00089439372906841008 3.6227713907543979e-05 -0.97366768264614079 0.02874104798787265 -0.00010912160689221091 -0.00048344976670722239 -0.00010912160689221091 -0.18896107039233484 -0.00038067571531685829 -0.00048344976670722239 -0.00038067571531685829 -0.97317185674189699 0.028340764118579997 -0.00010114495852681466 -0.00083095740577154853 -0.00010114495852681466 -0.18933951933768434 -0.00038079101912696228 -0.00083095740577154853 -0.00038079101912696228 -0.97466824534772467 0.027704148937690971 -0.00058026652883171352 -0.00092559288331872658 -0.00058026652883171352 -0.18915390424185091 0.00016685663419946373 -0.00092559288331872658 0.00016685663419946373 -0.97286826751827626 0.027354345103492581 -1.1288894733582493e-05 -0.00083444125797893509 -1.1288894733582493e-05 -0.18897318803413118 -0.00016829940081986017 -0.00083444125797893509 -0.00016829940081986017 -0.97290552195572955 0.029091166672015722 1.2814132941761086e-06 -0.00086936903224565931 1.2814132941761086e-06 -0.18883572251194458 0.00025847534905798497 -0.00086936903224565931 0.00025847534905798497 -0.97242139258406679 0.029074392627954637 1.5527629390956408e-05 -0.00084994018992107234 1.5527629390956408e-05 -0.18881539006432513 0.00025176534973814224 -0.00084994018992107234 0.00025176534973814224 -0.97252564635118288 0.028132655836876547 0.00031164892212212414 -9.7606963924468104e-05 0.00031164892212212414 -0.18922779221054739 3.899403249785216e-05 -9.7606963924468104e-05 3.899403249785216e-05 -0.97384725077771461 0.026037611815091122 3.8759677971524955e-05 -0.0012531886743736287 3.8759677971524955e-05 -0.18964145980814484 0.00011194992179874852 -0.0012531886743736287 0.00011194992179874852 -0.97396939491510004 0.027148691552043656 -6.4556673915961349e-05 -0.00024228125503644726 -6.4556673915961349e-05 -0.18943724061848347 -0.00015851671719058213 -0.00024228125503644726 -0.00015851671719058213 -0.97402804911068286 0.026745969011592874 0.00010313498289496871 -0.00090653804783413783 0.00010313498289496871 -0.18962865036415055 0.00019983146341895353 -0.00090653804783413783 0.00019983146341895353 -0.97469202868690141 0.02391444307806323 -9.6212506500821841e-05 -0.00091769660650020679 -9.6212506500821841e-05 -0.1902395607780164 -0.0001183224128905036 -0.00091769660650020679 -0.0001183224128905036 -0.97490761931750347 0.023582821521090258 -0.00013990743922344951 -0.001333602392545985 -0.00013990743922344951 -0.19067260281835319 0.00021541430414448448 -0.001333602392545985 0.00021541430414448448 -0.97678985322457157 0.025745239829637168 2.7252661313400446e-05 -0.0023531759816388664 2.7252661313400446e-05 -0.19030027672642502 -0.00013034883092705174 -0.0023531759816388664 -0.00013034883092705174 -0.97694971519383156 0.026471244698462404 0.00017521906346404357 -0.0013733086678042739 0.00017521906346404357 -0.18966175491681847 -6.3489912026704065e-05 -0.0013733086678042739 -6.3489912026704065e-05 -0.97454457094023228 0.021276069229816064 0.00054705608425022916 -0.0016607797990389576 0.00054705608425022916 -0.19178196152455262 7.8841595612999527e-05 -0.0016607797990389576 7.8841595612999527e-05 -0.97982825869436718 0.026228999765866678 0.0001435840293695858 -0.0020154867102122331 0.0001435840293695858 -0.19001165667342201 0.00021594806763292063 -0.0020154867102122331 0.00021594806763292063 -0.97609147064149049 0.024644755914727701 -4.1002413603996882e-05 -0.0015325158117271975 -4.1002413603996882e-05 -0.19091863398743303 -3.9435765664397326e-06 -0.0015325158117271975 -3.9435765664397326e-06 -0.97900289361295423 0.021242008558777781 0.00012141708860333988 -0.0023883632104903275 0.00012141708860333988 -0.19179752788291393 3.9452638357029279e-05 -0.0023883632104903275 3.9452638357029279e-05 -0.98018868697775341 0.022597674207666896 8.7170763929892781e-05 -0.00069501521852832759 8.7170763929892781e-05 -0.19104092524018096 -0.00012870767334394184 -0.00069501521852832759 -0.00012870767334394184 -0.97776325700709132 0.021277990951023784 0.00027190509887889679 -0.0010965273588514624 0.00027190509887889679 -0.19179895786352386 8.7696094707379046e-05 -0.0010965273588514624 8.7696094707379046e-05 -0.97964236483934508 0.032849462746200153 0.00047823991496911673 -0.00078338309585024302 0.00047823991496911673 -0.18828106701563629 7.3806503182449745e-05 -0.00078338309585024302 7.3806503182449745e-05 -0.97438450691181311 0.025145968277382091 0.00054814518926441457 -0.0012815625604705172 0.00054814518926441457 -0.19018570440164501 0.0001090276844861876 -0.0012815625604705172 0.0001090276844861876 -0.97626671565014411 0.025948123103559873 0.00034197254983637105 -0.0012991917862294096 0.00034197254983637105 -0.19020115216446121 0.00036159555789172515 -0.0012991917862294096 0.00036159555789172515 -0.97660184580007625 0.025647045695528226 4.347242015703659e-05 -0.0027133430684764814 4.347242015703659e-05 -0.19050631456623468 0.0001791311209136115 -0.0027133430684764814 0.0001791311209136115 -0.97754845205755725 0.028365035435879093 -0.00040542731846962484 -0.00087113699612118012 -0.00040542731846962484 -0.1896725994621975 -0.0005885988688589805 -0.00087113699612118012 -0.0005885988688589805 -0.97761963831017562 0.026195196479912086 -0.00086919803460827323 4.5237849576995615e-05 -0.00086919803460827323 -0.18979176798704289 7.9013742407152421e-05 4.5237849576995615e-05 7.9013742407152421e-05 -0.97601735026875236 0.028248117455567545 0.00053376785349873391 -0.0017018377947535801 0.00053376785349873391 -0.19024931554624303 0.00010767709011982873 -0.0017018377947535801 0.00010767709011982873 -0.97912163203270008 0.028207440255698435 1.1891017556535217e-05 -0.001773814440163779 1.1891017556535217e-05 -0.1900029184441816 0.00066220705781994127 -0.001773814440163779 0.00066220705781994127 -0.97873800626441554 0.03233730317547745 0.00016275477701464653 -0.0012296990757294513 0.00016275477701464653 -0.18828162986685193 0.00011646737537107654 -0.0012296990757294513 0.00011646737537107654 -0.97460304877847204 0.028847923118355295 -1.1655883914877086e-05 -0.0015553929854899007 -1.1655883914877086e-05 -0.188476411904514 -8.88434716905806e-05 -0.0015553929854899007 -8.88434716905806e-05 -0.97206125780482588 0.033257096255689622 -9.2291092299169665e-05 -0.0010567172351263476 -9.2291092299169665e-05 -0.18820332551441632 0.00023770257832067543 -0.0010567172351263476 0.00023770257832067543 -0.97412083150455198 0.030896629427240141 -0.0004281969067558747 -6.0232401253745849e-05 -0.0004281969067558747 -0.18821134178517052 -0.00015608193811789128 -6.0232401253745849e-05 -0.00015608193811789128 -0.97254597758360628 0.03038026650014447 0.00016707260751969199 -0.00070499553947288296 0.00016707260751969199 -0.18864490163938008 0.00026940437335620793 -0.00070499553947288296 0.00026940437335620793 -0.97364705812736485 0.033509400488278773 -7.1008696326603401e-06 -0.00015984647576550159 -7.1008696326603401e-06 -0.18776001462432057 -0.0004163464340648515 -0.00015984647576550159 -0.0004163464340648515 -0.97300097812537656 0.029905113855090038 -0.00035966581301463479 -0.0018594859523237695 -0.00035966581301463479 -0.18881735348440337 0.00022175671151902776 -0.0018594859523237695 0.00022175671151902776 -0.97379835909447321 0.032025050850822301 5.846776203405483e-06 0.00068738536325951838 5.846776203405483e-06 -0.18803613920974283 -7.0949414618465267e-05 0.00068738536325951838 -7.0949414618465267e-05 -0.97206262062828452 0.031994828853291968 1.7759265773262959e-05 0.00072458024802057874 1.7759265773262959e-05 -0.18804329153390331 -0.00016187149635771281 0.00072458024802057874 -0.00016187149635771281 -0.97214755944711739 0.029914144788383161 -0.00085023376873673566 -0.0016593631785688512 -0.00085023376873673566 -0.18840512503488493 -5.7502048574575859e-05 -0.0016593631785688512 -5.7502048574575859e-05 -0.97182463637184435 0.037203674230419481 -4.9825689688087191e-05 -0.0010222795546399599 -4.9825689688087191e-05 -0.18681009292475881 -0.00030510749888490452 -0.0010222795546399599 -0.00030510749888490452 -0.97211557999498543 0.037692977041211773 -0.0003676086208981524 -0.0009785534445114763 -0.0003676086208981524 -0.18691135063684472 -0.00012573158585293953 -0.0009785534445114763 -0.00012573158585293953 -0.97217033610889558 0.030886580108003714 0.00075694497591773699 0.00018593006483980101 0.00075694497591773699 -0.18846333761608347 0.00015714862702642662 0.00018593006483980101 0.00015714862702642662 -0.97236212751016771 0.032257497874800922 -1.1077838074812618e-05 -0.0010926722436767067 -1.1077838074812618e-05 -0.18788879308635664 0.00042023183680861553 -0.0010926722436767067 0.00042023183680861553 -0.97114020188592853 0.038149733443452405 1.3143242733744237e-05 -0.0012191689555334229 1.3143242733744237e-05 -0.18663312017913314 -0.0004346973903570639 -0.0012191689555334229 -0.0004346973903570639 -0.97176613074921292 0.032282124171092663 2.5711671477330774e-06 -0.0011011865906725982 2.5711671477330774e-06 -0.18783684296423231 0.00037439244959536211 -0.0011011865906725982 0.00037439244959536211 -0.97106894308043046 0.03701037640393845 0.00044532502813299083 3.4329233837615547e-05 0.00044532502813299083 -0.1868578084000414 0.00019674908764488741 3.4329233837615547e-05 0.00019674908764488741 -0.97190113055766147 0.035180204125028869 0.0012445115202491066 -0.00039875107126308151 0.0012445115202491066 -0.18726037042088384 -8.3975736289820802e-05 -0.00039875107126308151 -8.3975736289820802e-05 -0.97157148020446993 
</DataArray>
</CellData>
</Piece>
</UnstructuredGrid>
</VTKFile>
