<?xml version="1.0"?>
<VTKFile type="UnstructuredGrid" version="0.1" byte_order="LittleEndian">
<UnstructuredGrid>
<Piece NumberOfPoints="2876" NumberOfCells="719">
<Points>
<DataArray type="Float64" NumberOfComponents="3" format="ascii">
0.31610726166346748 0.18804489794572149 0 0.16929708765618309 0.30074819035915368 0 0.14641016151452901 0.14641016151487049 0 0.312576188949791 0.31458070521983672 0.3125761889497819 0 0.20000000000083221 0 0 0 0 0.14641016151452901 0.14641016151487049 0 0 0.14641016151432179 0.14641016151432179 0 0 0 0.19999999999955789 0 0 0.14641016151452901 0.14641016151487049 0 0.1464101615145241 0 0.14641016151486561 0 0.14641016151432179 0.14641016151432179 0 0 0.20000000000083221 0 0 0 0.1464101615145241 0 0.14641016151486561 0 0.14641016151432179 0.14641016151432179 0 0.30074819035869899 0.1692970876565193 0 0.18804489794560331 0.31610726166461361 0.312576188949791 0.31458070521983672 0.3125761889497819 0.31578456131778371 0 0.1865278143482666 0.1464101615145241 0 0.14641016151486561 0.16938214347656569 0 0.30011357660650623 0.312576188949791 0.31458070521983672 0.3125761889497819 0 0.14641016151432179 0.14641016151432179 0 0 0 0.14641016151452901 0.14641016151487049 0 0.1464101615145241 0 0.14641016151486561 0.14641016151452901 0.14641016151487049 0 0.1464101615145241 0 0.14641016151486561 0.31578456131778371 0 0.1865278143482666 0.312576188949791 0.31458070521983672 0.3125761889497819 0.14641016151452901 0.14641016151487049 0 0 0.30074819035869899 0.1692970876565193 0 0.14641016151432179 0.14641016151432179 0.312576188949791 0.31458070521983672 0.3125761889497819 0.14641016151452901 0.14641016151487049 0 0 0.14641016151432179 0.14641016151432179 0.1464101615145241 0 0.14641016151486561 0.312576188949791 0.31458070521983672 0.3125761889497819 0 0.14641016151432179 0.14641016151432179 0.16938214347656569 0 0.30011357660650623 0.1464101615145241 0 0.14641016151486561 0.312576188949791 0.31458070521983672 0.3125761889497819 0.1464101615145241 0 0.14641016151486561 0 0.14641016151432179 0.14641016151432179 0 0 0.20000000000083221 0.16938214347656569 0 0.30011357660650623 0 0.18804489794560331 0.31610726166461361 0 0 0.20000000000083221 0 0.14641016151432179 0.14641016151432179 0.16938214347656569 0 0.30011357660650623 0 0.14641016151432179 0.14641016151432179 0.14641016151452901 0.14641016151487049 0 0 0.20000000000083221 0 0 0.30074819035869899 0.1692970876565193 0 0.30074819035869899 0.1692970876565193 0.14641016151452901 0.14641016151487049 0 0 0.20000000000083221 0 0.16929708765618309 0.30074819035915368 0 0.19999999999955789 0 0 0.14641016151452901 0.14641016151487049 0 0.31578456131778371 0 0.1865278143482666 0.31610726166346748 0.18804489794572149 0 0.19999999999955789 0 0 0.14641016151452901 0.14641016151487049 0 0.1464101615145241 0 0.14641016151486561 0.31578456131778371 0 0.1865278143482666 0.31578456131778371 0 0.1865278143482666 0.3999999999989749 0 0 0.19999999999955789 0 0 0.31610726166346748 0.18804489794572149 0 0.31578456131778371 0 0.1865278143482666 0.31610726166346748 0.18804489794572149 0 0.14641016151452901 0.14641016151487049 0 0.312576188949791 0.31458070521983672 0.3125761889497819 0.31610726166346748 0.18804489794572149 0 0.312576188949791 0.31458070521983672 0.3125761889497819 0.31578456131778371 0 0.1865278143482666 0.5003997205654479 0.21136633249797621 0.2258422409314382 0.31610726166346748 0.18804489794572149 0 0.49391845158624981 0 0.1323760430705655 0.50966790549376417 0.16275515618023731 0 0.5003997205654479 0.21136633249797621 0.2258422409314382 0.31610726166346748 0.18804489794572149 0 0.50966790549376417 0.16275515618023731 0 0.45812322962036273 0.31024977578535839 0 0.5003997205654479 0.21136633249797621 0.2258422409314382 0.49391845158624981 0 0.1323760430705655 0.3999999999989749 0 0 0.31610726166346748 0.18804489794572149 0 0.50966790549376417 0.16275515618023731 0 0.49391845158624981 0 0.1323760430705655 0.3999999999989749 0 0 0.31578456131778371 0 0.1865278143482666 0.31610726166346748 0.18804489794572149 0 0.31578456131778371 0 0.1865278143482666 0.47688326899416439 0 0.31741132792405607 0.49391845158624981 0 0.1323760430705655 0.5003997205654479 0.21136633249797621 0.2258422409314382 0.31610726166346748 0.18804489794572149 0 0.31578456131778371 0 0.1865278143482666 0.49391845158624981 0 0.1323760430705655 0.5003997205654479 0.21136633249797621 0.2258422409314382 0.31030302876556398 0 0.54179813558513157 0.50073570207385831 0.24848280280289631 0.52886631355986169 0.32146143392436449 0 0.38738071487621961 0.22088738526309029 0.22111069116742441 0.50004796911802929 0.32146143392436449 0 0.38738071487621961 0.312576188949791 0.31458070521983672 0.3125761889497819 0.16938214347656569 0 0.30011357660650623 0.22088738526309029 0.22111069116742441 0.50004796911802929 0.32146143392436449 0 0.38738071487621961 0.50073570207385831 0.24848280280289631 0.52886631355986169 0.312576188949791 0.31458070521983672 0.3125761889497819 0.22088738526309029 0.22111069116742441 0.50004796911802929 0.32146143392436449 0 0.38738071487621961 0.50073570207385831 0.24848280280289631 0.52886631355986169 0.47688326899416439 0 0.31741132792405607 0.5003997205654479 0.21136633249797621 0.2258422409314382 0.32146143392436449 0 0.38738071487621961 0.312576188949791 0.31458070521983672 0.3125761889497819 0.50073570207385831 0.24848280280289631 0.52886631355986169 0.5003997205654479 0.21136633249797621 0.2258422409314382 0.32146143392436449 0 0.38738071487621961 0.31578456131778371 0 0.1865278143482666 0.16938214347656569 0 0.30011357660650623 0.312576188949791 0.31458070521983672 0.3125761889497819 0.31578456131778371 0 0.1865278143482666 0.312576188949791 0.31458070521983672 0.3125761889497819 0.32146143392436449 0 0.38738071487621961 0.5003997205654479 0.21136633249797621 0.2258422409314382 0.31578456131778371 0 0.1865278143482666 0.32146143392436449 0 0.38738071487621961 0.47688326899416439 0 0.31741132792405607 0.5003997205654479 0.21136633249797621 0.2258422409314382 0.31030302876556398 0 0.54179813558513157 0.50000000000250922 0 0.48038475773043671 0.32146143392436449 0 0.38738071487621961 0.50073570207385831 0.24848280280289631 0.52886631355986169 0.32146143392436449 0 0.38738071487621961 0.50000000000250922 0 0.48038475773043671 0.47688326899416439 0 0.31741132792405607 0.50073570207385831 0.24848280280289631 0.52886631355986169 0.16370661204827031 0 0.4886650857430957 0.31030302876556398 0 0.54179813558513157 0.32146143392436449 0 0.38738071487621961 0.22088738526309029 0.22111069116742441 0.50004796911802929 0.16370661204827031 0 0.4886650857430957 0.32146143392436449 0 0.38738071487621961 0.16938214347656569 0 0.30011357660650623 0.22088738526309029 0.22111069116742441 0.50004796911802929 0.16938214347656569 0 0.30011357660650623 0 0.14641016151432179 0.14641016151432179 0 0.18804489794560331 0.31610726166461361 0.312576188949791 0.31458070521983672 0.3125761889497819 0 0.18804489794560331 0.31610726166461361 0.16370661204827031 0 0.4886650857430957 0.16938214347656569 0 0.30011357660650623 0.22088738526309029 0.22111069116742441 0.50004796911802929 0 0.18804489794560331 0.31610726166461361 0.16938214347656569 0 0.30011357660650623 0.312576188949791 0.31458070521983672 0.3125761889497819 0.22088738526309029 0.22111069116742441 0.50004796911802929 0 0 0.40000000000166441 0 0 0.60000000000138687 0.16370661204827031 0 0.4886650857430957 0 0.16275515618034081 0.50966790549591257 0 0 0.40000000000166441 0 0.18804489794560331 0.31610726166461361 0.16370661204827031 0 0.4886650857430957 0.16938214347656569 0 0.30011357660650623 0.16370661204827031 0 0.4886650857430957 0 0.18804489794560331 0.31610726166461361 0 0 0.40000000000166441 0 0.16275515618034081 0.50966790549591257 0 0.18804489794560331 0.31610726166461361 0 0 0.40000000000166441 0 0 0.20000000000083221 0.16938214347656569 0 0.30011357660650623 0 0.18804489794560331 0.31610726166461361 0 0.16275515618034081 0.50966790549591257 0.16370661204827031 0 0.4886650857430957 0.22088738526309029 0.22111069116742441 0.50004796911802929 0 0.18804489794560331 0.31610726166461361 0 0.31024977578556651 0.45812322962166352 0 0.16275515618034081 0.50966790549591257 0.22088738526309029 0.22111069116742441 0.50004796911802929 0 0.30074819035869899 0.1692970876565193 0 0.39615100178029522 0.32925244736138171 0 0.18804489794560331 0.31610726166461361 0.312576188949791 0.31458070521983672 0.3125761889497819 0 0.31024977578556651 0.45812322962166352 0.312576188949791 0.31458070521983672 0.3125761889497819 0.24769234054476261 0.52242103280823293 0.45098450226372488 0.22088738526309029 0.22111069116742441 0.50004796911802929 0 0.18804489794560331 0.31610726166461361 0 0.39615100178029522 0.32925244736138171 0 0.31024977578556651 0.45812322962166352 0.312576188949791 0.31458070521983672 0.3125761889497819 0 0.39615100178029522 0.32925244736138171 0.24769234054476261 0.52242103280823293 0.45098450226372488 0.312576188949791 0.31458070521983672 0.3125761889497819 0.22345881830598399 0.5062398304147856 0.22345881830602041 0 0.31024977578556651 0.45812322962166352 0.312576188949791 0.31458070521983672 0.3125761889497819 0 0.39615100178029522 0.32925244736138171 0.24769234054476261 0.52242103280823293 0.45098450226372488 0 0.30074819035869899 0.1692970876565193 0 0.39615100178029522 0.32925244736138171 0.312576188949791 0.31458070521983672 0.3125761889497819 0.22345881830598399 0.5062398304147856 0.22345881830602041 0 0.18804489794560331 0.31610726166461361 0.312576188949791 0.31458070521983672 0.3125761889497819 0 0.31024977578556651 0.45812322962166352 0.22088738526309029 0.22111069116742441 0.50004796911802929 0 0.31024977578556651 0.45812322962166352 0 0.39615100178029522 0.32925244736138171 0 0.50000000000237477 0.51961524226909872 0.24769234054476261 0.52242103280823293 0.45098450226372488 0.50000000000001332 0.49999999999999561 0.49999999999999561 0.50073570207385831 0.24848280280289631 0.52886631355986169 0.312576188949791 0.31458070521983672 0.3125761889497819 0.5004045312576143 0.47050700646456922 0.24963111222780321 0.24769234054476261 0.52242103280823293 0.45098450226372488 0.5004045312576143 0.47050700646456922 0.24963111222780321 0.312576188949791 0.31458070521983672 0.3125761889497819 0.22345881830598399 0.5062398304147856 0.22345881830602041 0.312576188949791 0.31458070521983672 0.3125761889497819 0.5004045312576143 0.47050700646456922 0.24963111222780321 0.50073570207385831 0.24848280280289631 0.52886631355986169 0.5003997205654479 0.21136633249797621 0.2258422409314382 0.50000000000001332 0.49999999999999561 0.49999999999999561 0.24769234054476261 0.52242103280823293 0.45098450226372488 0.312576188949791 0.31458070521983672 0.3125761889497819 0.50073570207385831 0.24848280280289631 0.52886631355986169 0.312576188949791 0.31458070521983672 0.3125761889497819 0.24769234054476261 0.52242103280823293 0.45098450226372488 0.50000000000001332 0.49999999999999561 0.49999999999999561 0.5004045312576143 0.47050700646456922 0.24963111222780321 0.312576188949791 0.31458070521983672 0.3125761889497819 0.50073570207385831 0.24848280280289631 0.52886631355986169 0.24769234054476261 0.52242103280823293 0.45098450226372488 0.22088738526309029 0.22111069116742441 0.50004796911802929 0.32925244736090059 0.39615100178043078 0 0.312576188949791 0.31458070521983672 0.3125761889497819 0.45812322962036273 0.31024977578535839 0 0.5004045312576143 0.47050700646456922 0.24963111222780321 0.32925244736090059 0.39615100178043078 0 0.5004045312576143 0.47050700646456922 0.24963111222780321 0.32446581821364329 0.60020898676454815 0 0.22345881830598399 0.5062398304147856 0.22345881830602041 0.45812322962036273 0.31024977578535839 0 0.5004045312576143 0.47050700646456922 0.24963111222780321 0.312576188949791 0.31458070521983672 0.3125761889497819 0.5003997205654479 0.21136633249797621 0.2258422409314382 0.45812322962036273 0.31024977578535839 0 0.32925244736090059 0.39615100178043078 0 0.31610726166346748 0.18804489794572149 0 0.312576188949791 0.31458070521983672 0.3125761889497819 0.16929708765618309 0.30074819035915368 0 0.312576188949791 0.31458070521983672 0.3125761889497819 0.32925244736090059 0.39615100178043078 0 0.22345881830598399 0.5062398304147856 0.22345881830602041 0.31610726166346748 0.18804489794572149 0 0.45812322962036273 0.31024977578535839 0 0.312576188949791 0.31458070521983672 0.3125761889497819 0.5003997205654479 0.21136633249797621 0.2258422409314382 0.32925244736090059 0.39615100178043078 0 0.312576188949791 0.31458070521983672 0.3125761889497819 0.5004045312576143 0.47050700646456922 0.24963111222780321 0.22345881830598399 0.5062398304147856 0.22345881830602041 0.32925244736090059 0.39615100178043078 0 0.16929708765618309 0.30074819035915368 0 0.31610726166346748 0.18804489794572149 0 0.312576188949791 0.31458070521983672 0.3125761889497819 0.32446581821364329 0.60020898676454815 0 0.32925244736090059 0.39615100178043078 0 0.51961524226956368 0.5000000000025091 0 0.5004045312576143 0.47050700646456922 0.24963111222780321 0.51961524226956368 0.5000000000025091 0 0.32925244736090059 0.39615100178043078 0 0.45812322962036273 0.31024977578535839 0 0.5004045312576143 0.47050700646456922 0.24963111222780321 0 0.30074819035869899 0.1692970876565193 0.14641016151452901 0.14641016151487049 0 0.16929708765618309 0.30074819035915368 0 0.312576188949791 0.31458070521983672 0.3125761889497819 0 0.30074819035869899 0.1692970876565193 0.312576188949791 0.31458070521983672 0.3125761889497819 0.16929708765618309 0.30074819035915368 0 0.22345881830598399 0.5062398304147856 0.22345881830602041 0.17226134197279269 0.49836539647922029 0 0 0.49836539647891548 0.17226134197271731 0.16929708765618309 0.30074819035915368 0 0.22345881830598399 0.5062398304147856 0.22345881830602041 0.17226134197279269 0.49836539647922029 0 0.16929708765618309 0.30074819035915368 0 0.32925244736090059 0.39615100178043078 0 0.22345881830598399 0.5062398304147856 0.22345881830602041 0 0.30074819035869899 0.1692970876565193 0 0.20000000000083221 0 0 0.40000000000166441 0 0.16929708765618309 0.30074819035915368 0 0 0.30074819035869899 0.1692970876565193 0 0.40000000000166441 0 0 0.49836539647891548 0.17226134197271731 0.16929708765618309 0.30074819035915368 0 0 0.30074819035869899 0.1692970876565193 0.16929708765618309 0.30074819035915368 0 0 0.49836539647891548 0.17226134197271731 0.22345881830598399 0.5062398304147856 0.22345881830602041 0 0.30074819035869899 0.1692970876565193 0 0.49836539647891548 0.17226134197271731 0 0.39615100178029522 0.32925244736138171 0.22345881830598399 0.5062398304147856 0.22345881830602041 0 0.49836539647891548 0.17226134197271731 0 0.40000000000166441 0 0 0.60000000000138687 0 0.17226134197279269 0.49836539647922029 0 0.16929708765618309 0.30074819035915368 0 0 0.40000000000166441 0 0 0.49836539647891548 0.17226134197271731 0.17226134197279269 0.49836539647922029 0 0 0.69449451837103049 0.15896804272139439 0 0.60020898676435996 0.32446581821286191 0.22345881830598399 0.5062398304147856 0.22345881830602041 0.19259015428765269 0.77719169076434647 0.19259015428773721 0.1589680427220837 0.69449451837091269 0 0 0.69449451837103049 0.15896804272139439 0.22345881830598399 0.5062398304147856 0.22345881830602041 0.19259015428765269 0.77719169076434647 0.19259015428773721 0 0.69449451837103049 0.15896804272139439 0.17226134197279269 0.49836539647922029 0 0 0.60000000000138687 0 0.1589680427220837 0.69449451837091269 0 0.32446581821364329 0.60020898676454815 0 0.1589680427220837 0.69449451837091269 0 0.22345881830598399 0.5062398304147856 0.22345881830602041 0.19259015428765269 0.77719169076434647 0.19259015428773721 0 0.60000000000138687 0 0 0.49836539647891548 0.17226134197271731 0.17226134197279269 0.49836539647922029 0 0 0.69449451837103049 0.15896804272139439 0 0.69449451837103049 0.15896804272139439 0 0.60000000000138687 0 0 0.79999999999999982 0 0.1589680427220837 0.69449451837091269 0 0.31067093463127438 0.81480288849489035 0 0.1589680427220837 0.69449451837091269 0 0.32446581821364329 0.60020898676454815 0 0.19259015428765269 0.77719169076434647 0.19259015428773721 0.32446581821364329 0.60020898676454815 0 0.1589680427220837 0.69449451837091269 0 0.17226134197279269 0.49836539647922029 0 0.22345881830598399 0.5062398304147856 0.22345881830602041 0.1589680427220837 0.69449451837091269 0 0 0.69449451837103049 0.15896804272139439 0.17226134197279269 0.49836539647922029 0 0.22345881830598399 0.5062398304147856 0.22345881830602041 0 0.69449451837103049 0.15896804272139439 0 0.81480288849496429 0.31067093462946233 0 0.60020898676435996 0.32446581821286191 0.19259015428765269 0.77719169076434647 0.19259015428773721 0 0.49836539647891548 0.17226134197271731 0 0.69449451837103049 0.15896804272139439 0 0.60020898676435996 0.32446581821286191 0.22345881830598399 0.5062398304147856 0.22345881830602041 0 0.49836539647891548 0.17226134197271731 0.17226134197279269 0.49836539647922029 0 0 0.69449451837103049 0.15896804272139439 0.22345881830598399 0.5062398304147856 0.22345881830602041 0 0.60020898676435996 0.32446581821286191 0.22516916914780419 0.77057994845201627 0.48187244075707292 0.35848654557803328 0.70013656506632282 0.30029870175293161 0.19259015428765269 0.77719169076434647 0.19259015428773721 0 0.60020898676435996 0.32446581821286191 0.24769234054476261 0.52242103280823293 0.45098450226372488 0 0.39615100178029522 0.32925244736138171 0.22345881830598399 0.5062398304147856 0.22345881830602041 0 0.60020898676435996 0.32446581821286191 0 0.81480288849496429 0.31067093462946233 0.22516916914780419 0.77057994845201627 0.48187244075707292 0.19259015428765269 0.77719169076434647 0.19259015428773721 0.35848654557803328 0.70013656506632282 0.30029870175293161 0.22345881830598399 0.5062398304147856 0.22345881830602041 0 0.60020898676435996 0.32446581821286191 0.19259015428765269 0.77719169076434647 0.19259015428773721 0 0.49836539647891548 0.17226134197271731 0 0.60020898676435996 0.32446581821286191 0 0.39615100178029522 0.32925244736138171 0.22345881830598399 0.5062398304147856 0.22345881830602041 0 0.60020898676435996 0.32446581821286191 0.24769234054476261 0.52242103280823293 0.45098450226372488 0.35848654557803328 0.70013656506632282 0.30029870175293161 0.22516916914780419 0.77057994845201627 0.48187244075707292 0.35848654557803328 0.70013656506632282 0.30029870175293161 0.24769234054476261 0.52242103280823293 0.45098450226372488 0 0.60020898676435996 0.32446581821286191 0.22345881830598399 0.5062398304147856 0.22345881830602041 0 0.39615100178029522 0.32925244736138171 0 0.60020898676435996 0.32446581821286191 0 0.50000000000237477 0.51961524226909872 0.24769234054476261 0.52242103280823293 0.45098450226372488 0 0.68801781652248195 0.45664527743358641 0 0.50000000000237477 0.51961524226909872 0 0.60020898676435996 0.32446581821286191 0.24769234054476261 0.52242103280823293 0.45098450226372488 0 0.66416205381430016 0.59944234540882957 0.24769234054476261 0.52242103280823293 0.45098450226372488 0 0.68801781652248195 0.45664527743358641 0.22516916914780419 0.77057994845201627 0.48187244075707292 0 0.60020898676435996 0.32446581821286191 0 0.81480288849496429 0.31067093462946233 0 0.68801781652248195 0.45664527743358641 0.22516916914780419 0.77057994845201627 0.48187244075707292 0 0.68801781652248195 0.45664527743358641 0.24769234054476261 0.52242103280823293 0.45098450226372488 0 0.60020898676435996 0.32446581821286191 0.22516916914780419 0.77057994845201627 0.48187244075707292 0.16929708765615539 1 0.30074819035677097 0.32926555316115258 1 0.39615987727515128 0.22516916914780419 0.77057994845201627 0.48187244075707292 0.19259015428765269 0.77719169076434647 0.19259015428773721 0 0.81480288849496429 0.31067093462946233 0.16929708765615539 1 0.30074819035677097 0.22516916914780419 0.77057994845201627 0.48187244075707292 0.19259015428765269 0.77719169076434647 0.19259015428773721 0.17226134197293 1 0.49836539647645101 0 0.83630110503664845 0.50803330197135654 0 0.81480288849496429 0.31067093462946233 0.22516916914780419 0.77057994845201627 0.48187244075707292 0 0.68801781652248195 0.45664527743358641 0 0.81480288849496429 0.31067093462946233 0 0.83630110503664845 0.50803330197135654 0.22516916914780419 0.77057994845201627 0.48187244075707292 0.17226134197293 1 0.49836539647645101 0 1 0.3999999999989749 0 0.81480288849496429 0.31067093462946233 0 0.83630110503664845 0.50803330197135654 0 0.81480288849496429 0.31067093462946233 0.16929708765615539 1 0.30074819035677097 0 1 0.3999999999989749 0.17226134197293 1 0.49836539647645101 0.17226134197293 1 0.49836539647645101 0 0.81480288849496429 0.31067093462946233 0.16929708765615539 1 0.30074819035677097 0.22516916914780419 0.77057994845201627 0.48187244075707292 0.17226134197293 1 0.49836539647645101 0.16929708765615539 1 0.30074819035677097 0.32926555316115258 1 0.39615987727515128 0.22516916914780419 0.77057994845201627 0.48187244075707292 0 1 0.3999999999989749 0 1 0.19999999999955789 0.16929708765615539 1 0.30074819035677097 0 0.81480288849496429 0.31067093462946233 0.16929708765615539 1 0.30074819035677097 0 1 0.19999999999955789 0 0.85358983848655678 0.14641016151332509 0 0.81480288849496429 0.31067093462946233 0.14641016151352521 1 0.1464101615131837 0 1 0.19999999999955789 0 0.85358983848655678 0.14641016151332509 0.16929708765615539 1 0.30074819035677097 0.20000000000083221 1 0 0 1 0 0.14641016151479211 0.85358983848543113 0 0.14641016151352521 1 0.1464101615131837 0 0.85358983848655678 0.14641016151332509 0 1 0 0 1 0.19999999999955789 0.14641016151352521 1 0.1464101615131837 0 0.85358983848655678 0.14641016151332509 0.14641016151479211 0.85358983848543113 0 0 1 0 0.14641016151352521 1 0.1464101615131837 0.14641016151479211 0.85358983848543113 0 0 1 0 0 0.79999999999999982 0 0 0.85358983848655678 0.14641016151332509 0 0.85358983848655678 0.14641016151332509 0 0.69449451837103049 0.15896804272139439 0.1589680427220837 0.69449451837091269 0 0.19259015428765269 0.77719169076434647 0.19259015428773721 0 0.79999999999999982 0 0.1589680427220837 0.69449451837091269 0 0.14641016151479211 0.85358983848543113 0 0 0.85358983848655678 0.14641016151332509 0.14641016151352521 1 0.1464101615131837 0 0.85358983848655678 0.14641016151332509 0.14641016151479211 0.85358983848543113 0 0.19259015428765269 0.77719169076434647 0.19259015428773721 0.1589680427220837 0.69449451837091269 0 0 0.79999999999999982 0 0 0.69449451837103049 0.15896804272139439 0 0.85358983848655678 0.14641016151332509 0.1589680427220837 0.69449451837091269 0 0.14641016151479211 0.85358983848543113 0 0 0.85358983848655678 0.14641016151332509 0.19259015428765269 0.77719169076434647 0.19259015428773721 0.16929708765615539 1 0.30074819035677097 0 0.81480288849496429 0.31067093462946233 0 0.85358983848655678 0.14641016151332509 0.19259015428765269 0.77719169076434647 0.19259015428773721 0 0.85358983848655678 0.14641016151332509 0 0.81480288849496429 0.31067093462946233 0 0.69449451837103049 0.15896804272139439 0.19259015428765269 0.77719169076434647 0.19259015428773721 0.14641016151352521 1 0.1464101615131837 0.14641016151479211 0.85358983848543113 0 0.31067093463127438 0.81480288849489035 0 0.19259015428765269 0.77719169076434647 0.19259015428773721 0.1589680427220837 0.69449451837091269 0 0.31067093463127438 0.81480288849489035 0 0.14641016151479211 0.85358983848543113 0 0.19259015428765269 0.77719169076434647 0.19259015428773721 0.14641016151479211 0.85358983848543113 0 0.31067093463127438 0.81480288849489035 0 0.20000000000083221 1 0 0.14641016151352521 1 0.1464101615131837 0.31635851157303152 1 0.18818969570840721 0.20000000000083221 1 0 0.31067093463127438 0.81480288849489035 0 0.14641016151352521 1 0.1464101615131837 0.31067093463127438 0.81480288849489035 0 0.31635851157303152 1 0.18818969570840721 0.14641016151352521 1 0.1464101615131837 0.19259015428765269 0.77719169076434647 0.19259015428773721 0.31635851157303152 1 0.18818969570840721 0.16929708765615539 1 0.30074819035677097 0.14641016151352521 1 0.1464101615131837 0.19259015428765269 0.77719169076434647 0.19259015428773721 0.14641016151352521 1 0.1464101615131837 0.16929708765615539 1 0.30074819035677097 0 0.85358983848655678 0.14641016151332509 0.19259015428765269 0.77719169076434647 0.19259015428773721 0.35848654557803328 0.70013656506632282 0.30029870175293161 0.19259015428765269 0.77719169076434647 0.19259015428773721 0.31635851157303152 1 0.18818969570840721 0.52894546611500048 0.79133000140429866 0.2082794184507949 0.31067093463127438 0.81480288849489035 0 0.19259015428765269 0.77719169076434647 0.19259015428773721 0.35848654557803328 0.70013656506632282 0.30029870175293161 0.52894546611500048 0.79133000140429866 0.2082794184507949 0.31067093463127438 0.81480288849489035 0 0.31635851157303152 1 0.18818969570840721 0.19259015428765269 0.77719169076434647 0.19259015428773721 0.52894546611500048 0.79133000140429866 0.2082794184507949 0.31067093463127438 0.81480288849489035 0 0.40000000000166441 1 0 0.20000000000083221 1 0 0.31635851157303152 1 0.18818969570840721 0.31067093463127438 0.81480288849489035 0 0.50803330197353713 0.83630110503668265 0 0.31635851157303152 1 0.18818969570840721 0.52894546611500048 0.79133000140429866 0.2082794184507949 0.45664527743509797 0.68801781652245086 0 0.50803330197353713 0.83630110503668265 0 0.31067093463127438 0.81480288849489035 0 0.52894546611500048 0.79133000140429866 0.2082794184507949 0.51133491425992716 1 0.16370661204795281 0.31635851157303152 1 0.18818969570840721 0.40000000000166441 1 0 0.50803330197353713 0.83630110503668265 0 0.31635851157303152 1 0.18818969570840721 0.31067093463127438 0.81480288849489035 0 0.40000000000166441 1 0 0.50803330197353713 0.83630110503668265 0 0.51133491425992716 1 0.16370661204795281 0.45820186441796368 1 0.31030302876579191 0.31635851157303152 1 0.18818969570840721 0.52894546611500048 0.79133000140429866 0.2082794184507949 0.51133491425992716 1 0.16370661204795281 0.31635851157303152 1 0.18818969570840721 0.50803330197353713 0.83630110503668265 0 0.52894546611500048 0.79133000140429866 0.2082794184507949 0.32926555316115258 1 0.39615987727515128 0.35848654557803328 0.70013656506632282 0.30029870175293161 0.49983993748706529 0.75039103705932653 0.52967335724801234 0.22516916914780419 0.77057994845201627 0.48187244075707292 0.35848654557803328 0.70013656506632282 0.30029870175293161 0.22516916914780419 0.77057994845201627 0.48187244075707292 0.32926555316115258 1 0.39615987727515128 0.19259015428765269 0.77719169076434647 0.19259015428773721 0.31635851157303152 1 0.18818969570840721 0.45820186441796368 1 0.31030302876579191 0.32926555316115258 1 0.39615987727515128 0.35848654557803328 0.70013656506632282 0.30029870175293161 0.45820186441796368 1 0.31030302876579191 0.35848654557803328 0.70013656506632282 0.30029870175293161 0.31635851157303152 1 0.18818969570840721 0.52894546611500048 0.79133000140429866 0.2082794184507949 0.31635851157303152 1 0.18818969570840721 0.35848654557803328 0.70013656506632282 0.30029870175293161 0.32926555316115258 1 0.39615987727515128 0.19259015428765269 0.77719169076434647 0.19259015428773721 0.45820186441796368 1 0.31030302876579191 0.49983993748706529 0.75039103705932653 0.52967335724801234 0.35848654557803328 0.70013656506632282 0.30029870175293161 0.52894546611500048 0.79133000140429866 0.2082794184507949 0.45820186441796368 1 0.31030302876579191 0.32926555316115258 1 0.39615987727515128 0.35848654557803328 0.70013656506632282 0.30029870175293161 0.49983993748706529 0.75039103705932653 0.52967335724801234 0.31635851157303152 1 0.18818969570840721 0.32926555316115258 1 0.39615987727515128 0.16929708765615539 1 0.30074819035677097 0.19259015428765269 0.77719169076434647 0.19259015428773721 0.32926555316115258 1 0.39615987727515128 0.32448110831226962 1 0.6002015905153204 0.17226134197293 1 0.49836539647645101 0.22516916914780419 0.77057994845201627 0.48187244075707292 0.45820186441796368 1 0.31030302876579191 0.51961524227008238 1 0.49999999999872219 0.32926555316115258 1 0.39615987727515128 0.49983993748706529 0.75039103705932653 0.52967335724801234 0.24769234054476261 0.52242103280823293 0.45098450226372488 0.49983993748706529 0.75039103705932653 0.52967335724801234 0.35848654557803328 0.70013656506632282 0.30029870175293161 0.22516916914780419 0.77057994845201627 0.48187244075707292 0.35848654557803328 0.70013656506632282 0.30029870175293161 0.50000000000001332 0.49999999999999561 0.49999999999999561 0.24769234054476261 0.52242103280823293 0.45098450226372488 0.5004045312576143 0.47050700646456922 0.24963111222780321 0.35848654557803328 0.70013656506632282 0.30029870175293161 0.24769234054476261 0.52242103280823293 0.45098450226372488 0.50000000000001332 0.49999999999999561 0.49999999999999561 0.49983993748706529 0.75039103705932653 0.52967335724801234 0.35848654557803328 0.70013656506632282 0.30029870175293161 0.5004045312576143 0.47050700646456922 0.24963111222780321 0.24769234054476261 0.52242103280823293 0.45098450226372488 0.22345881830598399 0.5062398304147856 0.22345881830602041 0.35848654557803328 0.70013656506632282 0.30029870175293161 0.32446581821364329 0.60020898676454815 0 0.5004045312576143 0.47050700646456922 0.24963111222780321 0.22345881830598399 0.5062398304147856 0.22345881830602041 0.31067093463127438 0.81480288849489035 0 0.32446581821364329 0.60020898676454815 0 0.45664527743509797 0.68801781652245086 0 0.35848654557803328 0.70013656506632282 0.30029870175293161 0.32446581821364329 0.60020898676454815 0 0.22345881830598399 0.5062398304147856 0.22345881830602041 0.35848654557803328 0.70013656506632282 0.30029870175293161 0.19259015428765269 0.77719169076434647 0.19259015428773721 0.32446581821364329 0.60020898676454815 0 0.45664527743509797 0.68801781652245086 0 0.35848654557803328 0.70013656506632282 0.30029870175293161 0.5004045312576143 0.47050700646456922 0.24963111222780321 0.31067093463127438 0.81480288849489035 0 0.32446581821364329 0.60020898676454815 0 0.35848654557803328 0.70013656506632282 0.30029870175293161 0.19259015428765269 0.77719169076434647 0.19259015428773721 0.45664527743509797 0.68801781652245086 0 0.31067093463127438 0.81480288849489035 0 0.35848654557803328 0.70013656506632282 0.30029870175293161 0.52894546611500048 0.79133000140429866 0.2082794184507949 0.35848654557803328 0.70013656506632282 0.30029870175293161 0.5004045312576143 0.47050700646456922 0.24963111222780321 0.45664527743509797 0.68801781652245086 0 0.52894546611500048 0.79133000140429866 0.2082794184507949 0.17226134197279269 0.49836539647922029 0 0.32925244736090059 0.39615100178043078 0 0.32446581821364329 0.60020898676454815 0 0.22345881830598399 0.5062398304147856 0.22345881830602041 0.32446581821364329 0.60020898676454815 0 0.51961524226956368 0.5000000000025091 0 0.45664527743509797 0.68801781652245086 0 0.5004045312576143 0.47050700646456922 0.24963111222780321 0.72722573386132172 0.60922248848163563 0 0.68456408135056701 0.68607101396845627 0.31096060989957619 0.59944234541082553 0.66416205381394655 0 0.77713227489941183 0.50036915849493024 0.21774643624003751 0.68456408135056701 0.68607101396845627 0.31096060989957619 0.5004045312576143 0.47050700646456922 0.24963111222780321 0.59944234541082553 0.66416205381394655 0 0.77713227489941183 0.50036915849493024 0.21774643624003751 0.59944234541082553 0.66416205381394655 0 0.45664527743509797 0.68801781652245086 0 0.5004045312576143 0.47050700646456922 0.24963111222780321 0.52894546611500048 0.79133000140429866 0.2082794184507949 0.51961524226956368 0.5000000000025091 0 0.67320508075660079 0.46954769941202479 0 0.59944234541082553 0.66416205381394655 0 0.5004045312576143 0.47050700646456922 0.24963111222780321 0.59944234541082553 0.66416205381394655 0 0.5004045312576143 0.47050700646456922 0.24963111222780321 0.68456408135056701 0.68607101396845627 0.31096060989957619 0.52894546611500048 0.79133000140429866 0.2082794184507949 0.59944234541082553 0.66416205381394655 0 0.5004045312576143 0.47050700646456922 0.24963111222780321 0.67320508075660079 0.46954769941202479 0 0.77713227489941183 0.50036915849493024 0.21774643624003751 0.59944234541082553 0.66416205381394655 0 0.52894546611500048 0.79133000140429866 0.2082794184507949 0.68456408135056701 0.68607101396845627 0.31096060989957619 0.81582077266975173 0.77657922508894406 0.18483084990574741 0.59944234541082553 0.66416205381394655 0 0.45664527743509797 0.68801781652245086 0 0.51961524226956368 0.5000000000025091 0 0.5004045312576143 0.47050700646456922 0.24963111222780321 0.59944234541082553 0.66416205381394655 0 0.68456408135056701 0.68607101396845627 0.31096060989957619 0.72722573386132172 0.60922248848163563 0 0.81582077266975173 0.77657922508894406 0.18483084990574741 0.45664527743509797 0.68801781652245086 0 0.59944234541082553 0.66416205381394655 0 0.50803330197353713 0.83630110503668265 0 0.52894546611500048 0.79133000140429866 0.2082794184507949 0.59944234541082553 0.66416205381394655 0 0.72722573386132172 0.60922248848163563 0 0.7054234997318658 0.80860557108880304 0 0.81582077266975173 0.77657922508894406 0.18483084990574741 0.72722573386132172 0.60922248848163563 0 0.59944234541082553 0.66416205381394655 0 0.67320508075660079 0.46954769941202479 0 0.77713227489941183 0.50036915849493024 0.21774643624003751 0.68456408135056701 0.68607101396845627 0.31096060989957619 0.5004045312576143 0.47050700646456922 0.24963111222780321 0.35848654557803328 0.70013656506632282 0.30029870175293161 0.52894546611500048 0.79133000140429866 0.2082794184507949 0.68456408135056701 0.68607101396845627 0.31096060989957619 0.35848654557803328 0.70013656506632282 0.30029870175293161 0.50000000000001332 0.49999999999999561 0.49999999999999561 0.49983993748706529 0.75039103705932653 0.52967335724801234 0.50000000000001332 0.49999999999999561 0.49999999999999561 0.35848654557803328 0.70013656506632282 0.30029870175293161 0.68456408135056701 0.68607101396845627 0.31096060989957619 0.5004045312576143 0.47050700646456922 0.24963111222780321 0.50000000000001332 0.49999999999999561 0.49999999999999561 0.68456408135056701 0.68607101396845627 0.31096060989957619 0.7504488434426726 0.53051757989633308 0.49836643074154852 0.5004045312576143 0.47050700646456922 0.24963111222780321 0.68456408135056701 0.68607101396845627 0.31096060989957619 0.49983993748706529 0.75039103705932653 0.52967335724801234 0.7504488434426726 0.53051757989633308 0.49836643074154852 0.77374673111774417 0.78860835645735528 0.49829081152968557 0.7504488434426726 0.53051757989633308 0.49836643074154852 0.5004045312576143 0.47050700646456922 0.24963111222780321 0.68456408135056701 0.68607101396845627 0.31096060989957619 0.77713227489941183 0.50036915849493024 0.21774643624003751 0.35848654557803328 0.70013656506632282 0.30029870175293161 0.49983993748706529 0.75039103705932653 0.52967335724801234 0.68456408135056701 0.68607101396845627 0.31096060989957619 0.52894546611500048 0.79133000140429866 0.2082794184507949 0.50000000000001332 0.49999999999999561 0.49999999999999561 0.7504488434426726 0.53051757989633308 0.49836643074154852 0.68456408135056701 0.68607101396845627 0.31096060989957619 0.49983993748706529 0.75039103705932653 0.52967335724801234 0.68456408135056701 0.68607101396845627 0.31096060989957619 0.52894546611500048 0.79133000140429866 0.2082794184507949 0.61068558124908323 1 0.33127740899601937 0.81582077266975173 0.77657922508894406 0.18483084990574741 0.61068558124908323 1 0.33127740899601937 0.49983993748706529 0.75039103705932653 0.52967335724801234 0.68456408135056701 0.68607101396845627 0.31096060989957619 0.77374673111774417 0.78860835645735528 0.49829081152968557 0.61068558124908323 1 0.33127740899601937 0.68240285647621723 1 0.52310058211166854 0.49983993748706529 0.75039103705932653 0.52967335724801234 0.77374673111774417 0.78860835645735528 0.49829081152968557 0.82751535738810444 1 0.31407731390515509 0.68456408135056701 0.68607101396845627 0.31096060989957619 0.61068558124908323 1 0.33127740899601937 0.81582077266975173 0.77657922508894406 0.18483084990574741 0.45820186441796368 1 0.31030302876579191 0.61068558124908323 1 0.33127740899601937 0.49983993748706529 0.75039103705932653 0.52967335724801234 0.52894546611500048 0.79133000140429866 0.2082794184507949 0.61068558124908323 1 0.33127740899601937 0.68456408135056701 0.68607101396845627 0.31096060989957619 0.82751535738810444 1 0.31407731390515509 0.77374673111774417 0.78860835645735528 0.49829081152968557 0.68456408135056701 0.68607101396845627 0.31096060989957619 0.49983993748706529 0.75039103705932653 0.52967335724801234 0.61068558124908323 1 0.33127740899601937 0.52894546611500048 0.79133000140429866 0.2082794184507949 0.61068558124908323 1 0.33127740899601937 0.68240285647621723 1 0.52310058211166854 0.51961524227008238 1 0.49999999999872219 0.49983993748706529 0.75039103705932653 0.52967335724801234 0.51961524227008238 1 0.49999999999872219 0.45820186441796368 1 0.31030302876579191 0.61068558124908323 1 0.33127740899601937 0.49983993748706529 0.75039103705932653 0.52967335724801234 0.68240285647621723 1 0.52310058211166854 0.61068558124908323 1 0.33127740899601937 0.82751535738810444 1 0.31407731390515509 0.77374673111774417 0.78860835645735528 0.49829081152968557 0.51133491425992716 1 0.16370661204795281 0.61068558124908323 1 0.33127740899601937 0.45820186441796368 1 0.31030302876579191 0.52894546611500048 0.79133000140429866 0.2082794184507949 0.51133491425992716 1 0.16370661204795281 0.69988642339594154 1 0.16938214347578889 0.61068558124908323 1 0.33127740899601937 0.52894546611500048 0.79133000140429866 0.2082794184507949 0.69988642339594154 1 0.16938214347578889 0.61068558124908323 1 0.33127740899601937 0.52894546611500048 0.79133000140429866 0.2082794184507949 0.81582077266975173 0.77657922508894406 0.18483084990574741 0.69988642339594154 1 0.16938214347578889 0.52894546611500048 0.79133000140429866 0.2082794184507949 0.7054234997318658 0.80860557108880304 0 0.81582077266975173 0.77657922508894406 0.18483084990574741 0.69988642339594154 1 0.16938214347578889 0.51133491425992716 1 0.16370661204795281 0.50803330197353713 0.83630110503668265 0 0.52894546611500048 0.79133000140429866 0.2082794184507949 0.59944234541082553 0.66416205381394655 0 0.7054234997318658 0.80860557108880304 0 0.52894546611500048 0.79133000140429866 0.2082794184507949 0.81582077266975173 0.77657922508894406 0.18483084990574741 0.60000000000138687 1 0 0.69988642339594154 1 0.16938214347578889 0.51133491425992716 1 0.16370661204795281 0.50803330197353713 0.83630110503668265 0 0.51133491425992716 1 0.16370661204795281 0.40000000000166441 1 0 0.60000000000138687 1 0 0.50803330197353713 0.83630110503668265 0 0.50803330197353713 0.83630110503668265 0 0.59944234541082553 0.66416205381394655 0 0.7054234997318658 0.80860557108880304 0 0.52894546611500048 0.79133000140429866 0.2082794184507949 0.69988642339594154 1 0.16938214347578889 0.50803330197353713 0.83630110503668265 0 0.7054234997318658 0.80860557108880304 0 0.52894546611500048 0.79133000140429866 0.2082794184507949 0.60000000000138687 1 0 0.79999999999999982 1 0 0.69988642339594154 1 0.16938214347578889 0.7054234997318658 0.80860557108880304 0 0.50803330197353713 0.83630110503668265 0 0.60000000000138687 1 0 0.69988642339594154 1 0.16938214347578889 0.7054234997318658 0.80860557108880304 0 0.69988642339594154 1 0.16938214347578889 0.82751535738810444 1 0.31407731390515509 0.61068558124908323 1 0.33127740899601937 0.81582077266975173 0.77657922508894406 0.18483084990574741 0.82751535738810444 1 0.31407731390515509 0.69988642339594154 1 0.16938214347578889 0.85358983848665693 1 0.14641016151322461 0.81582077266975173 0.77657922508894406 0.18483084990574741 0.69988642339594154 1 0.16938214347578889 0.85358983848666903 0.85358983848666903 0 0.85358983848665693 1 0.14641016151322461 0.81582077266975173 0.77657922508894406 0.18483084990574741 0.85358983848665693 1 0.14641016151322461 1 0.85358983848655678 0.14641016151332509 0.82751535738810444 1 0.31407731390515509 0.81582077266975173 0.77657922508894406 0.18483084990574741 0.85358983848666903 0.85358983848666903 0 0.85358983848665693 1 0.14641016151322461 0.79999999999999982 1 0 0.69988642339594154 1 0.16938214347578889 0.69988642339594154 1 0.16938214347578889 0.79999999999999982 1 0 0.85358983848666903 0.85358983848666903 0 0.7054234997318658 0.80860557108880304 0 0.85358983848666903 0.85358983848666903 0 0.7054234997318658 0.80860557108880304 0 0.85173693729186062 0.69992182039541118 0 0.81582077266975173 0.77657922508894406 0.18483084990574741 0.69988642339594154 1 0.16938214347578889 0.7054234997318658 0.80860557108880304 0 0.85358983848666903 0.85358983848666903 0 0.81582077266975173 0.77657922508894406 0.18483084990574741 1 0.85358983848655678 0.14641016151332509 1 0.69449451837101916 0.15896804272136739 1 0.8148028884949543 0.31067093462944562 0.81582077266975173 0.77657922508894406 0.18483084990574741 0.82751535738810444 1 0.31407731390515509 1 0.85358983848655678 0.14641016151332509 1 0.8148028884949543 0.31067093462944562 0.81582077266975173 0.77657922508894406 0.18483084990574741 1 0.85358983848655678 0.14641016151332509 0.85358983848666903 0.85358983848666903 0 1 0.79999999999999982 0 0.81582077266975173 0.77657922508894406 0.18483084990574741 1 0.79999999999999982 0 0.81582077266975173 0.77657922508894406 0.18483084990574741 1 0.69449451837101916 0.15896804272136739 1 0.85358983848655678 0.14641016151332509 0.85358983848666903 0.85358983848666903 0 1 0.85358983848655678 0.14641016151332509 0.85358983848665693 1 0.14641016151322461 0.81582077266975173 0.77657922508894406 0.18483084990574741 0.85358983848666903 0.85358983848666903 0 0.85173693729186062 0.69992182039541118 0 1 0.79999999999999982 0 0.81582077266975173 0.77657922508894406 0.18483084990574741 1 0.85358983848655678 0.14641016151332509 0.85358983848665693 1 0.14641016151322461 1 1 0 0.85358983848666903 0.85358983848666903 0 1 1 0.19999999999955789 0.85358983848665693 1 0.14641016151322461 1 1 0 1 0.85358983848655678 0.14641016151332509 1 1 0 1 0.85358983848655678 0.14641016151332509 0.85358983848666903 0.85358983848666903 0 1 0.79999999999999982 0 0.79999999999999982 1 0 1 1 0 0.85358983848665693 1 0.14641016151322461 0.85358983848666903 0.85358983848666903 0 0.82751535738810444 1 0.31407731390515509 0.85358983848665693 1 0.14641016151322461 1 1 0.19999999999955789 1 0.85358983848655678 0.14641016151332509 1 1 0.19999999999955789 1 0.8148028884949543 0.31067093462944562 0.82751535738810444 1 0.31407731390515509 1 0.85358983848655678 0.14641016151332509 1 1 0.3999999999989749 1 0.8148028884949543 0.31067093462944562 0.82751535738810444 1 0.31407731390515509 1 1 0.19999999999955789 0.82751535738810444 1 0.31407731390515509 0.77374673111774417 0.78860835645735528 0.49829081152968557 0.68456408135056701 0.68607101396845627 0.31096060989957619 0.81582077266975173 0.77657922508894406 0.18483084990574741 1 0.8148028884949543 0.31067093462944562 0.77374673111774417 0.78860835645735528 0.49829081152968557 0.82751535738810444 1 0.31407731390515509 0.81582077266975173 0.77657922508894406 0.18483084990574741 1 0.8148028884949543 0.31067093462944562 0.68456408135056701 0.68607101396845627 0.31096060989957619 0.77374673111774417 0.78860835645735528 0.49829081152968557 0.81582077266975173 0.77657922508894406 0.18483084990574741 1 0.8148028884949543 0.31067093462944562 0.86762395692956074 1 0.5060815484123421 0.82751535738810444 1 0.31407731390515509 0.77374673111774417 0.78860835645735528 0.49829081152968557 0.68240285647621723 1 0.52310058211166854 0.82751535738810444 1 0.31407731390515509 0.86762395692956074 1 0.5060815484123421 0.77374673111774417 0.78860835645735528 0.49829081152968557 0.86762395692956074 1 0.5060815484123421 1 1 0.3999999999989749 1 0.8148028884949543 0.31067093462944562 0.82751535738810444 1 0.31407731390515509 1 1 0.3999999999989749 1 0.83630110503662825 0.50803330197135588 0.86762395692956074 1 0.5060815484123421 1 0.8148028884949543 0.31067093462944562 1 0.8148028884949543 0.31067093462944562 1 0.83630110503662825 0.50803330197135588 0.86762395692956074 1 0.5060815484123421 0.77374673111774417 0.78860835645735528 0.49829081152968557 1 0.8148028884949543 0.31067093462944562 1 0.68975022421527898 0.45812322962078778 1 0.83630110503662825 0.50803330197135588 0.77374673111774417 0.78860835645735528 0.49829081152968557 1 0.39615100178016449 0.32925244736082498 0.7504488434426726 0.53051757989633308 0.49836643074154852 1 0.60020898676431722 0.32446581821274012 0.77713227489941183 0.50036915849493024 0.21774643624003751 1 0.68975022421527898 0.45812322962078778 0.68456408135056701 0.68607101396845627 0.31096060989957619 1 0.60020898676431722 0.32446581821274012 0.7504488434426726 0.53051757989633308 0.49836643074154852 1 0.8148028884949543 0.31067093462944562 0.68456408135056701 0.68607101396845627 0.31096060989957619 1 0.68975022421527898 0.45812322962078778 0.77374673111774417 0.78860835645735528 0.49829081152968557 1 0.68975022421527898 0.45812322962078778 0.68456408135056701 0.68607101396845627 0.31096060989957619 0.7504488434426726 0.53051757989633308 0.49836643074154852 0.77374673111774417 0.78860835645735528 0.49829081152968557 1 0.68975022421527898 0.45812322962078778 1 0.8148028884949543 0.31067093462944562 1 0.60020898676431722 0.32446581821274012 0.68456408135056701 0.68607101396845627 0.31096060989957619 0.68456408135056701 0.68607101396845627 0.31096060989957619 1 0.60020898676431722 0.32446581821274012 0.7504488434426726 0.53051757989633308 0.49836643074154852 0.77713227489941183 0.50036915849493024 0.21774643624003751 1 0.8148028884949543 0.31067093462944562 1 0.60020898676431722 0.32446581821274012 0.68456408135056701 0.68607101396845627 0.31096060989957619 0.81582077266975173 0.77657922508894406 0.18483084990574741 1 0.60020898676431722 0.32446581821274012 0.77713227489941183 0.50036915849493024 0.21774643624003751 0.68456408135056701 0.68607101396845627 0.31096060989957619 0.81582077266975173 0.77657922508894406 0.18483084990574741 1 0.50000000000229983 0.51961524226898759 1 0.68975022421527898 0.45812322962078778 1 0.60020898676431722 0.32446581821274012 0.7504488434426726 0.53051757989633308 0.49836643074154852 1 0.39615100178016449 0.32925244736082498 1 0.50000000000229983 0.51961524226898759 1 0.60020898676431722 0.32446581821274012 0.7504488434426726 0.53051757989633308 0.49836643074154852 0.84191918937744659 0.51186163305076127 0 1 0.49836539647890021 0.17226134197269399 1 0.69449451837101916 0.15896804272136739 0.77713227489941183 0.50036915849493024 0.21774643624003751 1 0.69449451837101916 0.15896804272136739 0.85173693729186062 0.69992182039541118 0 0.77713227489941183 0.50036915849493024 0.21774643624003751 0.81582077266975173 0.77657922508894406 0.18483084990574741 1 0.69449451837101916 0.15896804272136739 0.77713227489941183 0.50036915849493024 0.21774643624003751 1 0.60020898676431722 0.32446581821274012 0.81582077266975173 0.77657922508894406 0.18483084990574741 1 0.69449451837101916 0.15896804272136739 1 0.49836539647890021 0.17226134197269399 1 0.60020898676431722 0.32446581821274012 0.77713227489941183 0.50036915849493024 0.21774643624003751 0.72722573386132172 0.60922248848163563 0 0.77713227489941183 0.50036915849493024 0.21774643624003751 0.85173693729186062 0.69992182039541118 0 0.81582077266975173 0.77657922508894406 0.18483084990574741 0.72722573386132172 0.60922248848163563 0 0.68456408135056701 0.68607101396845627 0.31096060989957619 0.77713227489941183 0.50036915849493024 0.21774643624003751 0.81582077266975173 0.77657922508894406 0.18483084990574741 1 0.8148028884949543 0.31067093462944562 1 0.69449451837101916 0.15896804272136739 1 0.60020898676431722 0.32446581821274012 0.81582077266975173 0.77657922508894406 0.18483084990574741 0.72722573386132172 0.60922248848163563 0 0.67320508075660079 0.46954769941202479 0 0.84191918937744659 0.51186163305076127 0 0.77713227489941183 0.50036915849493024 0.21774643624003751 0.84191918937744659 0.51186163305076127 0 1 0.69449451837101916 0.15896804272136739 0.85173693729186062 0.69992182039541118 0 0.77713227489941183 0.50036915849493024 0.21774643624003751 0.72722573386132172 0.60922248848163563 0 0.84191918937744659 0.51186163305076127 0 0.85173693729186062 0.69992182039541118 0 0.77713227489941183 0.50036915849493024 0.21774643624003751 0.7054234997318658 0.80860557108880304 0 0.72722573386132172 0.60922248848163563 0 0.85173693729186062 0.69992182039541118 0 0.81582077266975173 0.77657922508894406 0.18483084990574741 1 0.69449451837101916 0.15896804272136739 0.85173693729186062 0.69992182039541118 0 1 0.79999999999999982 0 1 0.60000000000138687 0 1 0.69449451837101916 0.15896804272136739 0.81582077266975173 0.77657922508894406 0.18483084990574741 1 0.79999999999999982 0 0.85173693729186062 0.69992182039541118 0 0.84191918937744659 0.51186163305076127 0 0.85173693729186062 0.69992182039541118 0 1 0.69449451837101916 0.15896804272136739 1 0.60000000000138687 0 1 0.60000000000138687 0 1 0.69449451837101916 0.15896804272136739 0.84191918937744659 0.51186163305076127 0 1 0.49836539647890021 0.17226134197269399 1 0.40000000000166441 0 1 0.60000000000138687 0 0.84191918937744659 0.51186163305076127 0 1 0.49836539647890021 0.17226134197269399 0.80839867011859301 0.31807971531731721 0 0.85358983848570813 0.1464101615143738 0 1 0.30074819035868428 0.16929708765640439 0.68777432594363841 0.31447353261427252 0.31366778418247038 0.80839867011859301 0.31807971531731721 0 1 0.40000000000166441 0 0.84191918937744659 0.51186163305076127 0 1 0.49836539647890021 0.17226134197269399 1 0.40000000000166441 0 0.80839867011859301 0.31807971531731721 0 1 0.30074819035868428 0.16929708765640439 1 0.49836539647890021 0.17226134197269399 0.80839867011859301 0.31807971531731721 0 0.68777432594363841 0.31447353261427252 0.31366778418247038 1 0.30074819035868428 0.16929708765640439 0.77713227489941183 0.50036915849493024 0.21774643624003751 0.84191918937744659 0.51186163305076127 0 0.67320508075660079 0.46954769941202479 0 0.80839867011859301 0.31807971531731721 0 0.77713227489941183 0.50036915849493024 0.21774643624003751 0.84191918937744659 0.51186163305076127 0 0.80839867011859301 0.31807971531731721 0 1 0.49836539647890021 0.17226134197269399 0.77713227489941183 0.50036915849493024 0.21774643624003751 0.80839867011859301 0.31807971531731721 0 1 0.30074819035868428 0.16929708765640439 1 0.49836539647890021 0.17226134197269399 0.77713227489941183 0.50036915849493024 0.21774643624003751 1 0.30074819035868428 0.16929708765640439 1 0.39615100178016449 0.32925244736082498 1 0.49836539647890021 0.17226134197269399 0.77713227489941183 0.50036915849493024 0.21774643624003751 1 0.30074819035868428 0.16929708765640439 0.80839867011859301 0.31807971531731721 0 1 0.40000000000166441 0 1 0.20000000000083221 0 1 0.30074819035868428 0.16929708765640439 0.80839867011859301 0.31807971531731721 0 1 0.20000000000083221 0 0.85358983848570813 0.1464101615143738 0 1 0.20000000000083221 0 1 0.14641016151453831 0.14641016151419689 1 0.30074819035868428 0.16929708765640439 0.85358983848570813 0.1464101615143738 0 0.83057691269884504 0 0.30018449338884379 0.85358983848650494 0 0.1464101615132356 0.68592116352011878 0 0.1724872797865501 0.68777432594363841 0.31447353261427252 0.31366778418247038 0.80839867011859301 0.31807971531731721 0 0.69380980079964416 0.1619694349440581 0 0.85358983848570813 0.1464101615143738 0 0.68777432594363841 0.31447353261427252 0.31366778418247038 1 0.18804489794556911 0.3161072616634244 1 0.30074819035868428 0.16929708765640439 1 0.14641016151453831 0.14641016151419689 0.68777432594363841 0.31447353261427252 0.31366778418247038 1 0.14641016151453831 0.14641016151419689 1 0.30074819035868428 0.16929708765640439 0.85358983848570813 0.1464101615143738 0 0.68777432594363841 0.31447353261427252 0.31366778418247038 1 0.14641016151453831 0.14641016151419689 0.85358983848650494 0 0.1464101615132356 0.83057691269884504 0 0.30018449338884379 0.68777432594363841 0.31447353261427252 0.31366778418247038 1 0.14641016151453831 0.14641016151419689 0.85358983848570813 0.1464101615143738 0 0.85358983848650494 0 0.1464101615132356 0.68777432594363841 0.31447353261427252 0.31366778418247038 0.69380980079964416 0.1619694349440581 0 0.85358983848650494 0 0.1464101615132356 0.85358983848570813 0.1464101615143738 0 0.68777432594363841 0.31447353261427252 0.31366778418247038 0.85358983848650494 0 0.1464101615132356 0.83057691269884504 0 0.30018449338884379 1 0 0.19999999999955789 1 0.14641016151453831 0.14641016151419689 0.83057691269884504 0 0.30018449338884379 1 0.18804489794556911 0.3161072616634244 1 0 0.19999999999955789 1 0.14641016151453831 0.14641016151419689 0.85358983848570813 0.1464101615143738 0 1 0 0 0.85358983848650494 0 0.1464101615132356 0.79999999999947335 0 0 0.85358983848650494 0 0.1464101615132356 1 0 0.19999999999955789 1 0 0 1 0.14641016151453831 0.14641016151419689 1 0 0 1 0.14641016151453831 0.14641016151419689 1 0.20000000000083221 0 0.85358983848570813 0.1464101615143738 0 1 0.14641016151453831 0.14641016151419689 1 0 0 0.85358983848650494 0 0.1464101615132356 0.85358983848570813 0.1464101615143738 0 0.68592116352011878 0 0.1724872797865501 0.69380980079964416 0.1619694349440581 0 0.85358983848650494 0 0.1464101615132356 0.79999999999947335 0 0 0.85358983848570813 0.1464101615143738 0 0.85358983848650494 0 0.1464101615132356 0.69380980079964416 0.1619694349440581 0 0.79999999999947335 0 0 0.68592116352011878 0 0.1724872797865501 0.68777432594363841 0.31447353261427252 0.31366778418247038 0.69380980079964416 0.1619694349440581 0 0.5003997205654479 0.21136633249797621 0.2258422409314382 0.68592116352011878 0 0.1724872797865501 0.85358983848650494 0 0.1464101615132356 0.69380980079964416 0.1619694349440581 0 0.68777432594363841 0.31447353261427252 0.31366778418247038 0.69380980079964416 0.1619694349440581 0 0.68592116352011878 0 0.1724872797865501 0.59999999999894682 0 0 0.79999999999947335 0 0 0.49391845158624981 0 0.1323760430705655 0.3999999999989749 0 0 0.50966790549376417 0.16275515618023731 0 0.59999999999894682 0 0 0.50966790549376417 0.16275515618023731 0 0.69380980079964416 0.1619694349440581 0 0.68592116352011878 0 0.1724872797865501 0.59999999999894682 0 0 0.68592116352011878 0 0.1724872797865501 0.49391845158624981 0 0.1323760430705655 0.50966790549376417 0.16275515618023731 0 0.59999999999894682 0 0 0.47688326899416439 0 0.31741132792405607 0.68592116352011878 0 0.1724872797865501 0.49391845158624981 0 0.1323760430705655 0.5003997205654479 0.21136633249797621 0.2258422409314382 0.49391845158624981 0 0.1323760430705655 0.68592116352011878 0 0.1724872797865501 0.50966790549376417 0.16275515618023731 0 0.5003997205654479 0.21136633249797621 0.2258422409314382 0.50966790549376417 0.16275515618023731 0 0.68592116352011878 0 0.1724872797865501 0.69380980079964416 0.1619694349440581 0 0.5003997205654479 0.21136633249797621 0.2258422409314382 0.6104699881764214 0.32043363027358418 0 0.50966790549376417 0.16275515618023731 0 0.69380980079964416 0.1619694349440581 0 0.5003997205654479 0.21136633249797621 0.2258422409314382 0.6104699881764214 0.32043363027358418 0 0.68777432594363841 0.31447353261427252 0.31366778418247038 0.80839867011859301 0.31807971531731721 0 0.77713227489941183 0.50036915849493024 0.21774643624003751 0.6104699881764214 0.32043363027358418 0 0.69380980079964416 0.1619694349440581 0 0.68777432594363841 0.31447353261427252 0.31366778418247038 0.5003997205654479 0.21136633249797621 0.2258422409314382 0.80839867011859301 0.31807971531731721 0 0.6104699881764214 0.32043363027358418 0 0.69380980079964416 0.1619694349440581 0 0.68777432594363841 0.31447353261427252 0.31366778418247038 0.6104699881764214 0.32043363027358418 0 0.45812322962036273 0.31024977578535839 0 0.50966790549376417 0.16275515618023731 0 0.5003997205654479 0.21136633249797621 0.2258422409314382 0.45812322962036273 0.31024977578535839 0 0.6104699881764214 0.32043363027358418 0 0.5004045312576143 0.47050700646456922 0.24963111222780321 0.5003997205654479 0.21136633249797621 0.2258422409314382 0.77713227489941183 0.50036915849493024 0.21774643624003751 0.6104699881764214 0.32043363027358418 0 0.5004045312576143 0.47050700646456922 0.24963111222780321 0.67320508075660079 0.46954769941202479 0 0.68777432594363841 0.31447353261427252 0.31366778418247038 0.5004045312576143 0.47050700646456922 0.24963111222780321 0.6104699881764214 0.32043363027358418 0 0.5003997205654479 0.21136633249797621 0.2258422409314382 0.77713227489941183 0.50036915849493024 0.21774643624003751 0.5004045312576143 0.47050700646456922 0.24963111222780321 0.6104699881764214 0.32043363027358418 0 0.68777432594363841 0.31447353261427252 0.31366778418247038 0.51961524226956368 0.5000000000025091 0 0.6104699881764214 0.32043363027358418 0 0.67320508075660079 0.46954769941202479 0 0.5004045312576143 0.47050700646456922 0.24963111222780321 0.45812322962036273 0.31024977578535839 0 0.6104699881764214 0.32043363027358418 0 0.51961524226956368 0.5000000000025091 0 0.5004045312576143 0.47050700646456922 0.24963111222780321 0.6104699881764214 0.32043363027358418 0 0.80839867011859301 0.31807971531731721 0 0.67320508075660079 0.46954769941202479 0 0.77713227489941183 0.50036915849493024 0.21774643624003751 0.68777432594363841 0.31447353261427252 0.31366778418247038 0.7504488434426726 0.53051757989633308 0.49836643074154852 0.50000000000001332 0.49999999999999561 0.49999999999999561 0.50073570207385831 0.24848280280289631 0.52886631355986169 0.7504488434426726 0.53051757989633308 0.49836643074154852 0.50073570207385831 0.24848280280289631 0.52886631355986169 0.68777432594363841 0.31447353261427252 0.31366778418247038 0.77973766487723961 0.22090161127815711 0.50014622462635805 0.50000000000001332 0.49999999999999561 0.49999999999999561 0.7504488434426726 0.53051757989633308 0.49836643074154852 0.68777432594363841 0.31447353261427252 0.31366778418247038 0.5004045312576143 0.47050700646456922 0.24963111222780321 0.68777432594363841 0.31447353261427252 0.31366778418247038 0.5004045312576143 0.47050700646456922 0.24963111222780321 0.7504488434426726 0.53051757989633308 0.49836643074154852 0.77713227489941183 0.50036915849493024 0.21774643624003751 0.50073570207385831 0.24848280280289631 0.52886631355986169 0.5004045312576143 0.47050700646456922 0.24963111222780321 0.68777432594363841 0.31447353261427252 0.31366778418247038 0.5003997205654479 0.21136633249797621 0.2258422409314382 0.50000000000001332 0.49999999999999561 0.49999999999999561 0.68777432594363841 0.31447353261427252 0.31366778418247038 0.50073570207385831 0.24848280280289631 0.52886631355986169 0.5004045312576143 0.47050700646456922 0.24963111222780321 0.83057691269884504 0 0.30018449338884379 0.68777432594363841 0.31447353261427252 0.31366778418247038 0.66852282575985944 0 0.3853248791658106 0.77973766487723961 0.22090161127815711 0.50014622462635805 0.68592116352011878 0 0.1724872797865501 0.66852282575985944 0 0.3853248791658106 0.83057691269884504 0 0.30018449338884379 0.68777432594363841 0.31447353261427252 0.31366778418247038 0.66852282575985944 0 0.3853248791658106 0.47688326899416439 0 0.31741132792405607 0.50073570207385831 0.24848280280289631 0.52886631355986169 0.5003997205654479 0.21136633249797621 0.2258422409314382 0.68969697123394857 0 0.54179813558228873 0.66852282575985944 0 0.3853248791658106 0.50073570207385831 0.24848280280289631 0.52886631355986169 0.77973766487723961 0.22090161127815711 0.50014622462635805 0.68592116352011878 0 0.1724872797865501 0.66852282575985944 0 0.3853248791658106 0.68777432594363841 0.31447353261427252 0.31366778418247038 0.5003997205654479 0.21136633249797621 0.2258422409314382 0.66852282575985944 0 0.3853248791658106 0.50073570207385831 0.24848280280289631 0.52886631355986169 0.68777432594363841 0.31447353261427252 0.31366778418247038 0.5003997205654479 0.21136633249797621 0.2258422409314382 0.68777432594363841 0.31447353261427252 0.31366778418247038 0.50073570207385831 0.24848280280289631 0.52886631355986169 0.66852282575985944 0 0.3853248791658106 0.77973766487723961 0.22090161127815711 0.50014622462635805 0.68592116352011878 0 0.1724872797865501 0.47688326899416439 0 0.31741132792405607 0.66852282575985944 0 0.3853248791658106 0.5003997205654479 0.21136633249797621 0.2258422409314382 0.50000000000250922 0 0.48038475773043671 0.66852282575985944 0 0.3853248791658106 0.47688326899416439 0 0.31741132792405607 0.50073570207385831 0.24848280280289631 0.52886631355986169 0.50000000000250922 0 0.48038475773043671 0.68969697123394857 0 0.54179813558228873 0.66852282575985944 0 0.3853248791658106 0.50073570207385831 0.24848280280289631 0.52886631355986169 0.66852282575985944 0 0.3853248791658106 0.68969697123394857 0 0.54179813558228873 0.83534964916824084 0 0.4902996892628636 0.77973766487723961 0.22090161127815711 0.50014622462635805 1 0.18804489794556911 0.3161072616634244 0.68777432594363841 0.31447353261427252 0.31366778418247038 0.83057691269884504 0 0.30018449338884379 0.77973766487723961 0.22090161127815711 0.50014622462635805 1 0.18804489794556911 0.3161072616634244 1 0.14641016151453831 0.14641016151419689 0.83057691269884504 0 0.30018449338884379 0.68777432594363841 0.31447353261427252 0.31366778418247038 0.83534964916824084 0 0.4902996892628636 0.83057691269884504 0 0.30018449338884379 0.66852282575985944 0 0.3853248791658106 0.77973766487723961 0.22090161127815711 0.50014622462635805 0.83534964916824084 0 0.4902996892628636 1 0.18804489794556911 0.3161072616634244 0.83057691269884504 0 0.30018449338884379 0.77973766487723961 0.22090161127815711 0.50014622462635805 0.83057691269884504 0 0.30018449338884379 0.83534964916824084 0 0.4902996892628636 1 0 0.3999999999989749 1 0.18804489794556911 0.3161072616634244 0.83534964916824084 0 0.4902996892628636 1 0.162755156180173 0.50966790549372887 1 0 0.59999999999894682 1 0 0.3999999999989749 1 0 0.3999999999989749 0.83534964916824084 0 0.4902996892628636 1 0.162755156180173 0.50966790549372887 1 0.18804489794556911 0.3161072616634244 1 0.18804489794556911 0.3161072616634244 1 0 0.3999999999989749 0.83057691269884504 0 0.30018449338884379 1 0 0.19999999999955789 1 0.31024977578542368 0.45812322962028301 1 0.18804489794556911 0.3161072616634244 1 0.162755156180173 0.50966790549372887 0.77973766487723961 0.22090161127815711 0.50014622462635805 0.83534964916824084 0 0.4902996892628636 1 0.162755156180173 0.50966790549372887 1 0.18804489794556911 0.3161072616634244 0.77973766487723961 0.22090161127815711 0.50014622462635805 1 0.39615100178016449 0.32925244736082498 0.68777432594363841 0.31447353261427252 0.31366778418247038 0.7504488434426726 0.53051757989633308 0.49836643074154852 0.77713227489941183 0.50036915849493024 0.21774643624003751 1 0.39615100178016449 0.32925244736082498 1 0.18804489794556911 0.3161072616634244 1 0.31024977578542368 0.45812322962028301 0.68777432594363841 0.31447353261427252 0.31366778418247038 1 0.31024977578542368 0.45812322962028301 0.7504488434426726 0.53051757989633308 0.49836643074154852 0.68777432594363841 0.31447353261427252 0.31366778418247038 0.77973766487723961 0.22090161127815711 0.50014622462635805 1 0.30074819035868428 0.16929708765640439 1 0.18804489794556911 0.3161072616634244 1 0.39615100178016449 0.32925244736082498 0.68777432594363841 0.31447353261427252 0.31366778418247038 1 0.31024977578542368 0.45812322962028301 0.68777432594363841 0.31447353261427252 0.31366778418247038 1 0.18804489794556911 0.3161072616634244 0.77973766487723961 0.22090161127815711 0.50014622462635805 1 0.30074819035868428 0.16929708765640439 0.68777432594363841 0.31447353261427252 0.31366778418247038 1 0.39615100178016449 0.32925244736082498 0.77713227489941183 0.50036915849493024 0.21774643624003751 1 0.39615100178016449 0.32925244736082498 0.68777432594363841 0.31447353261427252 0.31366778418247038 1 0.31024977578542368 0.45812322962028301 0.7504488434426726 0.53051757989633308 0.49836643074154852 1 0.60020898676431722 0.32446581821274012 1 0.49836539647890021 0.17226134197269399 1 0.39615100178016449 0.32925244736082498 0.77713227489941183 0.50036915849493024 0.21774643624003751 1 0.39615100178016449 0.32925244736082498 1 0.31024977578542368 0.45812322962028301 1 0.50000000000229983 0.51961524226898759 0.7504488434426726 0.53051757989633308 0.49836643074154852 1 0.33579115324550912 0.59952339316293046 0.7504488434426726 0.53051757989633308 0.49836643074154852 0.68742751001967084 0.31250796680084852 0.687427510020161 0.78019141325921404 0.49972466465542442 0.78019141325930785 1 0.33579115324550912 0.59952339316293046 1 0.39076805646076263 0.7272421105028648 0.68742751001967084 0.31250796680084852 0.687427510020161 0.81599560342209843 0.22280203704001911 0.81599560342233202 1 0.33579115324550912 0.59952339316293046 1 0.53045230059030524 0.6732050807565132 1 0.50000000000229983 0.51961524226898759 0.7504488434426726 0.53051757989633308 0.49836643074154852 1 0.33579115324550912 0.59952339316293046 0.7504488434426726 0.53051757989633308 0.49836643074154852 1 0.31024977578542368 0.45812322962028301 0.77973766487723961 0.22090161127815711 0.50014622462635805 0.68742751001967084 0.31250796680084852 0.687427510020161 0.77973766487723961 0.22090161127815711 0.50014622462635805 1 0.33579115324550912 0.59952339316293046 0.81599560342209843 0.22280203704001911 0.81599560342233202 1 0.33579115324550912 0.59952339316293046 0.68742751001967084 0.31250796680084852 0.687427510020161 0.7504488434426726 0.53051757989633308 0.49836643074154852 0.77973766487723961 0.22090161127815711 0.50014622462635805 1 0.53045230059030524 0.6732050807565132 0.7504488434426726 0.53051757989633308 0.49836643074154852 1 0.33579115324550912 0.59952339316293046 0.78019141325921404 0.49972466465542442 0.78019141325930785 1 0.39076805646076263 0.7272421105028648 1 0.33579115324550912 0.59952339316293046 0.68742751001967084 0.31250796680084852 0.687427510020161 0.78019141325921404 0.49972466465542442 0.78019141325930785 1 0.33579115324550912 0.59952339316293046 1 0.50000000000229983 0.51961524226898759 1 0.31024977578542368 0.45812322962028301 0.7504488434426726 0.53051757989633308 0.49836643074154852 1 0.39076805646076263 0.7272421105028648 1 0.53045230059030524 0.6732050807565132 1 0.33579115324550912 0.59952339316293046 0.78019141325921404 0.49972466465542442 0.78019141325930785 1 0.33579115324550912 0.59952339316293046 1 0.1912596090855686 0.70565701451953711 1 0.39076805646076263 0.7272421105028648 0.81599560342209843 0.22280203704001911 0.81599560342233202 1 0.33579115324550912 0.59952339316293046 1 0.31024977578542368 0.45812322962028301 1 0.162755156180173 0.50966790549372887 0.77973766487723961 0.22090161127815711 0.50014622462635805 1 0.162755156180173 0.50966790549372887 0.81469961246449951 0 0.68914937826112133 1 0.1912596090855686 0.70565701451953711 0.77973766487723961 0.22090161127815711 0.50014622462635805 0.81469961246449951 0 0.68914937826112133 0.77973766487723961 0.22090161127815711 0.50014622462635805 0.68742751001967084 0.31250796680084852 0.687427510020161 0.81599560342209843 0.22280203704001911 0.81599560342233202 0.81469961246449951 0 0.68914937826112133 1 0.1912596090855686 0.70565701451953711 0.77973766487723961 0.22090161127815711 0.50014622462635805 0.81599560342209843 0.22280203704001911 0.81599560342233202 1 0.1912596090855686 0.70565701451953711 1 0.33579115324550912 0.59952339316293046 0.77973766487723961 0.22090161127815711 0.50014622462635805 0.81599560342209843 0.22280203704001911 0.81599560342233202 1 0.162755156180173 0.50966790549372887 1 0.1912596090855686 0.70565701451953711 1 0.33579115324550912 0.59952339316293046 0.77973766487723961 0.22090161127815711 0.50014622462635805 1 0.1912596090855686 0.70565701451953711 0.81469961246449951 0 0.68914937826112133 1 0 0.59999999999894682 1 0 0.79999999999947335 0.81469961246449951 0 0.68914937826112133 1 0 0.59999999999894682 1 0.162755156180173 0.50966790549372887 1 0.1912596090855686 0.70565701451953711 1 0.162755156180173 0.50966790549372887 1 0 0.59999999999894682 0.81469961246449951 0 0.68914937826112133 0.83534964916824084 0 0.4902996892628636 0.81469961246449951 0 0.68914937826112133 0.83534964916824084 0 0.4902996892628636 0.68969697123394857 0 0.54179813558228873 0.77973766487723961 0.22090161127815711 0.50014622462635805 0.81469961246449951 0 0.68914937826112133 1 0.162755156180173 0.50966790549372887 0.83534964916824084 0 0.4902996892628636 0.77973766487723961 0.22090161127815711 0.50014622462635805 0.68969697123394857 0 0.54179813558228873 0.6002015905170176 0 0.67551889168744117 0.68742751001967084 0.31250796680084852 0.687427510020161 0.50073570207385831 0.24848280280289631 0.52886631355986169 0.6002015905170176 0 0.67551889168744117 0.81469961246449951 0 0.68914937826112133 0.68969697123394857 0 0.54179813558228873 0.68742751001967084 0.31250796680084852 0.687427510020161 0.81469961246449951 0 0.68914937826112133 0.68969697123394857 0 0.54179813558228873 0.68742751001967084 0.31250796680084852 0.687427510020161 0.77973766487723961 0.22090161127815711 0.50014622462635805 0.69447607299129699 0 0.84099946107689361 0.68742751001967084 0.31250796680084852 0.687427510020161 0.6002015905170176 0 0.67551889168744117 0.50084626324420545 0.22238844715913 0.78084811589659187 0.68742751001967084 0.31250796680084852 0.687427510020161 0.68969697123394857 0 0.54179813558228873 0.50073570207385831 0.24848280280289631 0.52886631355986169 0.77973766487723961 0.22090161127815711 0.50014622462635805 0.68742751001967084 0.31250796680084852 0.687427510020161 0.50073570207385831 0.24848280280289631 0.52886631355986169 0.6002015905170176 0 0.67551889168744117 0.50084626324420545 0.22238844715913 0.78084811589659187 0.6002015905170176 0 0.67551889168744117 0.81469961246449951 0 0.68914937826112133 0.68742751001967084 0.31250796680084852 0.687427510020161 0.81599560342209843 0.22280203704001911 0.81599560342233202 0.68969697123394857 0 0.54179813558228873 0.50000000000250922 0 0.48038475773043671 0.6002015905170176 0 0.67551889168744117 0.50073570207385831 0.24848280280289631 0.52886631355986169 0.50000000000001332 0.49999999999999561 0.49999999999999561 0.68742751001967084 0.31250796680084852 0.687427510020161 0.49816183246753282 0.5307146639261795 0.75045686993209071 0.50073570207385831 0.24848280280289631 0.52886631355986169 0.68742751001967084 0.31250796680084852 0.687427510020161 0.50000000000001332 0.49999999999999561 0.49999999999999561 0.7504488434426726 0.53051757989633308 0.49836643074154852 0.50073570207385831 0.24848280280289631 0.52886631355986169 0.68742751001967084 0.31250796680084852 0.687427510020161 0.7504488434426726 0.53051757989633308 0.49836643074154852 0.50000000000001332 0.49999999999999561 0.49999999999999561 0.49816183246753282 0.5307146639261795 0.75045686993209071 0.7504488434426726 0.53051757989633308 0.49836643074154852 0.49816183246753282 0.5307146639261795 0.75045686993209071 0.68742751001967084 0.31250796680084852 0.687427510020161 0.78019141325921404 0.49972466465542442 0.78019141325930785 0.49816183246753282 0.5307146639261795 0.75045686993209071 0.50073570207385831 0.24848280280289631 0.52886631355986169 0.68742751001967084 0.31250796680084852 0.687427510020161 0.50084626324420545 0.22238844715913 0.78084811589659187 0.68742751001967084 0.31250796680084852 0.687427510020161 0.50073570207385831 0.24848280280289631 0.52886631355986169 0.7504488434426726 0.53051757989633308 0.49836643074154852 0.77973766487723961 0.22090161127815711 0.50014622462635805 0.45812322962173568 0.31024977578554058 1 0.49816183246753282 0.5307146639261795 0.75045686993209071 0.59952339316492498 0.33579115324593939 1 0.50084626324420545 0.22238844715913 0.78084811589659187 0.59952339316492498 0.33579115324593939 1 0.68742751001967084 0.31250796680084852 0.687427510020161 0.72724211050425436 0.39076805646176382 1 0.81599560342209843 0.22280203704001911 0.81599560342233202 0.59952339316492498 0.33579115324593939 1 0.68742751001967084 0.31250796680084852 0.687427510020161 0.49816183246753282 0.5307146639261795 0.75045686993209071 0.78019141325921404 0.49972466465542442 0.78019141325930785 0.59952339316492498 0.33579115324593939 1 0.50084626324420545 0.22238844715913 0.78084811589659187 0.68742751001967084 0.31250796680084852 0.687427510020161 0.81599560342209843 0.22280203704001911 0.81599560342233202 0.59952339316492498 0.33579115324593939 1 0.49816183246753282 0.5307146639261795 0.75045686993209071 0.68742751001967084 0.31250796680084852 0.687427510020161 0.50084626324420545 0.22238844715913 0.78084811589659187 0.59952339316492498 0.33579115324593939 1 0.72724211050425436 0.39076805646176382 1 0.68742751001967084 0.31250796680084852 0.687427510020161 0.78019141325921404 0.49972466465542442 0.78019141325930785 0.59952339316492498 0.33579115324593939 1 0.49816183246753282 0.5307146639261795 0.75045686993209071 0.67320508075671459 0.53045230059073867 1 0.78019141325921404 0.49972466465542442 0.78019141325930785 0.70565701452089868 0.1912596090858541 1 0.59952339316492498 0.33579115324593939 1 0.72724211050425436 0.39076805646176382 1 0.81599560342209843 0.22280203704001911 0.81599560342233202 0.59952339316492498 0.33579115324593939 1 0.67320508075671459 0.53045230059073867 1 0.72724211050425436 0.39076805646176382 1 0.78019141325921404 0.49972466465542442 0.78019141325930785 0.45812322962173568 0.31024977578554058 1 0.51961524226934941 0.50000000000250611 1 0.59952339316492498 0.33579115324593939 1 0.49816183246753282 0.5307146639261795 0.75045686993209071 0.67320508075671459 0.53045230059073867 1 0.59952339316492498 0.33579115324593939 1 0.51961524226934941 0.50000000000250611 1 0.49816183246753282 0.5307146639261795 0.75045686993209071 0.59952339316492498 0.33579115324593939 1 0.50966790549576724 0.1627551561802443 1 0.45812322962173568 0.31024977578554058 1 0.50084626324420545 0.22238844715913 0.78084811589659187 0.50966790549576724 0.1627551561802443 1 0.70565701452089868 0.1912596090858541 1 0.69447607299129699 0 0.84099946107689361 0.50084626324420545 0.22238844715913 0.78084811589659187 0.68742751001967084 0.31250796680084852 0.687427510020161 0.50084626324420545 0.22238844715913 0.78084811589659187 0.69447607299129699 0 0.84099946107689361 0.81599560342209843 0.22280203704001911 0.81599560342233202 0.70565701452089868 0.1912596090858541 1 0.69447607299129699 0 0.84099946107689361 0.50084626324420545 0.22238844715913 0.78084811589659187 0.81599560342209843 0.22280203704001911 0.81599560342233202 0.70565701452089868 0.1912596090858541 1 0.50084626324420545 0.22238844715913 0.78084811589659187 0.59952339316492498 0.33579115324593939 1 0.81599560342209843 0.22280203704001911 0.81599560342233202 0.70565701452089868 0.1912596090858541 1 0.50966790549576724 0.1627551561802443 1 0.59952339316492498 0.33579115324593939 1 0.50084626324420545 0.22238844715913 0.78084811589659187 0.6002015905170176 0 0.67551889168744117 0.68742751001967084 0.31250796680084852 0.687427510020161 0.69447607299129699 0 0.84099946107689361 0.81599560342209843 0.22280203704001911 0.81599560342233202 0.69447607299129699 0 0.84099946107689361 0.6002015905170176 0 0.67551889168744117 0.49836539647917322 0 0.82773865802723501 0.50084626324420545 0.22238844715913 0.78084811589659187 0.69447607299129699 0 0.84099946107689361 0.49836539647917322 0 0.82773865802723501 0.50966790549576724 0.1627551561802443 1 0.50084626324420545 0.22238844715913 0.78084811589659187 0.60000000000138687 0 1 0.49836539647917322 0 0.82773865802723501 0.50966790549576724 0.1627551561802443 1 0.69447607299129699 0 0.84099946107689361 0.50966790549576724 0.1627551561802443 1 0.40000000000166441 0 1 0.49836539647917322 0 0.82773865802723501 0.60000000000138687 0 1 0.50966790549576724 0.1627551561802443 1 0.70565701452089868 0.1912596090858541 1 0.60000000000138687 0 1 0.69447607299129699 0 0.84099946107689361 0.70565701452089868 0.1912596090858541 1 0.60000000000138687 0 1 0.69447607299129699 0 0.84099946107689361 0.79999999999999982 0 1 0.6002015905170176 0 0.67551889168744117 0.69447607299129699 0 0.84099946107689361 0.81469961246449951 0 0.68914937826112133 0.81599560342209843 0.22280203704001911 0.81599560342233202 0.70565701452089868 0.1912596090858541 1 0.85358983848646974 0.14641016151341191 1 0.69447607299129699 0 0.84099946107689361 0.81599560342209843 0.22280203704001911 0.81599560342233202 0.85358983848646974 0.14641016151341191 1 0.70565701452089868 0.1912596090858541 1 0.85173693729199718 0.30007817960516198 1 0.81599560342209843 0.22280203704001911 0.81599560342233202 1 0.1912596090855686 0.70565701451953711 0.81469961246449951 0 0.68914937826112133 0.85358983848570524 0 0.85358983848556425 0.81599560342209843 0.22280203704001911 0.81599560342233202 0.69447607299129699 0 0.84099946107689361 0.85358983848570524 0 0.85358983848556425 0.81469961246449951 0 0.68914937826112133 0.81599560342209843 0.22280203704001911 0.81599560342233202 0.85358983848570524 0 0.85358983848556425 0.69447607299129699 0 0.84099946107689361 0.85358983848646974 0.14641016151341191 1 0.81599560342209843 0.22280203704001911 0.81599560342233202 0.79999999999999982 0 1 0.69447607299129699 0 0.84099946107689361 0.70565701452089868 0.1912596090858541 1 0.85358983848646974 0.14641016151341191 1 0.79999999999999982 0 1 0.85358983848570524 0 0.85358983848556425 0.69447607299129699 0 0.84099946107689361 0.85358983848646974 0.14641016151341191 1 1 0 1 1 0.14641016151333891 0.85358983848640169 0.85358983848570524 0 0.85358983848556425 0.85358983848646974 0.14641016151341191 1 0.79999999999999982 0 1 1 0 1 0.85358983848570524 0 0.85358983848556425 0.85358983848646974 0.14641016151341191 1 0.85358983848646974 0.14641016151341191 1 1 0 1 1 0.14641016151333891 0.85358983848640169 1 0.19999999999955789 1 0.85358983848570524 0 0.85358983848556425 1 0.14641016151333891 0.85358983848640169 1 0 1 1 0 0.79999999999947335 0.85358983848570524 0 0.85358983848556425 0.81469961246449951 0 0.68914937826112133 1 0.1912596090855686 0.70565701451953711 1 0 0.79999999999947335 1 0.1912596090855686 0.70565701451953711 1 0.14641016151333891 0.85358983848640169 0.85358983848570524 0 0.85358983848556425 1 0 0.79999999999947335 1 0.14641016151333891 0.85358983848640169 1 0.30007817960499339 0.85173693729139244 1 0.1912596090855686 0.70565701451953711 0.81599560342209843 0.22280203704001911 0.81599560342233202 1 0.1912596090855686 0.70565701451953711 0.85358983848570524 0 0.85358983848556425 1 0.14641016151333891 0.85358983848640169 0.81599560342209843 0.22280203704001911 0.81599560342233202 0.85358983848646974 0.14641016151341191 1 0.85173693729199718 0.30007817960516198 1 1 0.19999999999955789 1 0.81599560342209843 0.22280203704001911 0.81599560342233202 1 0.14641016151333891 0.85358983848640169 0.85358983848646974 0.14641016151341191 1 1 0.19999999999955789 1 0.81599560342209843 0.22280203704001911 0.81599560342233202 1 0.14641016151333891 0.85358983848640169 1 0.19999999999955789 1 1 0.30007817960499339 0.85173693729139244 0.81599560342209843 0.22280203704001911 0.81599560342233202 0.85358983848570524 0 0.85358983848556425 0.85358983848646974 0.14641016151341191 1 1 0.14641016151333891 0.85358983848640169 0.81599560342209843 0.22280203704001911 0.81599560342233202 1 0.19999999999955789 1 1 0.30007817960499339 0.85173693729139244 0.85173693729199718 0.30007817960516198 1 1 0.3999999999989749 1 1 0.19999999999955789 1 0.85173693729199718 0.30007817960516198 1 1 0.30007817960499339 0.85173693729139244 0.81599560342209843 0.22280203704001911 0.81599560342233202 1 0.30007817960499339 0.85173693729139244 0.85173693729199718 0.30007817960516198 1 0.78019141325921404 0.49972466465542442 0.78019141325930785 0.81599560342209843 0.22280203704001911 0.81599560342233202 0.68742751001967084 0.31250796680084852 0.687427510020161 0.78019141325921404 0.49972466465542442 0.78019141325930785 0.72724211050425436 0.39076805646176382 1 0.81599560342209843 0.22280203704001911 0.81599560342233202 1 0.39076805646076263 0.7272421105028648 1 0.30007817960499339 0.85173693729139244 0.78019141325921404 0.49972466465542442 0.78019141325930785 0.81599560342209843 0.22280203704001911 0.81599560342233202 0.85173693729199718 0.30007817960516198 1 0.72724211050425436 0.39076805646176382 1 0.78019141325921404 0.49972466465542442 0.78019141325930785 0.81599560342209843 0.22280203704001911 0.81599560342233202 1 0.39076805646076263 0.7272421105028648 0.78019141325921404 0.49972466465542442 0.78019141325930785 0.68742751001967084 0.31250796680084852 0.687427510020161 0.81599560342209843 0.22280203704001911 0.81599560342233202 0.85173693729199718 0.30007817960516198 1 1 0.30007817960499339 0.85173693729139244 1 0.48813836695007229 0.84191918937727617 1 0.3999999999989749 1 0.72724211050425436 0.39076805646176382 1 0.85173693729199718 0.30007817960516198 1 0.70565701452089868 0.1912596090858541 1 0.81599560342209843 0.22280203704001911 0.81599560342233202 1 0.1912596090855686 0.70565701451953711 1 0.30007817960499339 0.85173693729139244 1 0.39076805646076263 0.7272421105028648 0.81599560342209843 0.22280203704001911 0.81599560342233202 0.85173693729199718 0.30007817960516198 1 1 0.48813836695007229 0.84191918937727617 1 0.30007817960499339 0.85173693729139244 0.78019141325921404 0.49972466465542442 0.78019141325930785 1 0.30007817960499339 0.85173693729139244 1 0.48813836695007229 0.84191918937727617 1 0.39076805646076263 0.7272421105028648 0.78019141325921404 0.49972466465542442 0.78019141325930785 1 0.39076805646076263 0.7272421105028648 1 0.48813836695007229 0.84191918937727617 1 0.53045230059030524 0.6732050807565132 0.78019141325921404 0.49972466465542442 0.78019141325930785 0.72724211050425436 0.39076805646176382 1 0.67320508075671459 0.53045230059073867 1 0.84191918937756771 0.48813836695034618 1 0.78019141325921404 0.49972466465542442 0.78019141325930785 0.84191918937756771 0.48813836695034618 1 0.85173693729199718 0.30007817960516198 1 0.72724211050425436 0.39076805646176382 1 0.78019141325921404 0.49972466465542442 0.78019141325930785 0.84191918937756771 0.48813836695034618 1 1 0.48813836695007229 0.84191918937727617 0.85173693729199718 0.30007817960516198 1 0.78019141325921404 0.49972466465542442 0.78019141325930785 1 0.3999999999989749 1 1 0.48813836695007229 0.84191918937727617 0.84191918937756771 0.48813836695034618 1 1 0.59999999999894682 1 1 0.48813836695007229 0.84191918937727617 0.84191918937756771 0.48813836695034618 1 0.85173693729199718 0.30007817960516198 1 1 0.3999999999989749 1 0.80839867011861499 0.68192028468377774 1 0.78019141325921404 0.49972466465542442 0.78019141325930785 0.68649174659499257 0.68600703198516766 0.6864917465949647 0.77683220420328725 0.81278569633583353 0.81664766512111064 0.80839867011861499 0.68192028468377774 1 1 0.68192028468364885 0.80839867011854549 0.78019141325921404 0.49972466465542442 0.78019141325930785 0.77683220420328725 0.81278569633583353 0.81664766512111064 1 0.59999999999894682 1 1 0.48813836695007229 0.84191918937727617 0.84191918937756771 0.48813836695034618 1 1 0.68192028468364885 0.80839867011854549 0.68649174659499257 0.68600703198516766 0.6864917465949647 0.78019141325921404 0.49972466465542442 0.78019141325930785 1 0.68192028468364885 0.80839867011854549 0.77683220420328725 0.81278569633583353 0.81664766512111064 0.84191918937756771 0.48813836695034618 1 1 0.59999999999894682 1 1 0.68192028468364885 0.80839867011854549 0.80839867011861499 0.68192028468377774 1 1 0.59999999999894682 1 1 0.68192028468364885 0.80839867011854549 0.80839867011861499 0.68192028468377774 1 1 0.79999999999947335 1 0.84191918937756771 0.48813836695034618 1 0.67320508075671459 0.53045230059073867 1 0.80839867011861499 0.68192028468377774 1 0.78019141325921404 0.49972466465542442 0.78019141325930785 0.84191918937756771 0.48813836695034618 1 0.80839867011861499 0.68192028468377774 1 1 0.68192028468364885 0.80839867011854549 0.78019141325921404 0.49972466465542442 0.78019141325930785 1 0.68192028468364885 0.80839867011854549 1 0.53045230059030524 0.6732050807565132 1 0.48813836695007229 0.84191918937727617 0.78019141325921404 0.49972466465542442 0.78019141325930785 1 0.68192028468364885 0.80839867011854549 1 0.48813836695007229 0.84191918937727617 0.84191918937756771 0.48813836695034618 1 0.78019141325921404 0.49972466465542442 0.78019141325930785 1 0.67939035495490308 0.61016512164639347 0.78019141325921404 0.49972466465542442 0.78019141325930785 0.7504488434426726 0.53051757989633308 0.49836643074154852 1 0.53045230059030524 0.6732050807565132 1 0.67939035495490308 0.61016512164639347 0.7504488434426726 0.53051757989633308 0.49836643074154852 0.68649174659499257 0.68600703198516766 0.6864917465949647 0.77374673111774417 0.78860835645735528 0.49829081152968557 1 0.67939035495490308 0.61016512164639347 0.68649174659499257 0.68600703198516766 0.6864917465949647 1 0.83791821520125753 0.69361520514217179 0.77374673111774417 0.78860835645735528 0.49829081152968557 1 0.68192028468364885 0.80839867011854549 1 0.67939035495490308 0.61016512164639347 0.68649174659499257 0.68600703198516766 0.6864917465949647 0.77683220420328725 0.81278569633583353 0.81664766512111064 1 0.67939035495490308 0.61016512164639347 1 0.68975022421527898 0.45812322962078778 0.7504488434426726 0.53051757989633308 0.49836643074154852 0.77374673111774417 0.78860835645735528 0.49829081152968557 0.7504488434426726 0.53051757989633308 0.49836643074154852 0.78019141325921404 0.49972466465542442 0.78019141325930785 1 0.67939035495490308 0.61016512164639347 0.68649174659499257 0.68600703198516766 0.6864917465949647 1 0.68192028468364885 0.80839867011854549 0.68649174659499257 0.68600703198516766 0.6864917465949647 1 0.67939035495490308 0.61016512164639347 0.78019141325921404 0.49972466465542442 0.78019141325930785 1 0.53045230059030524 0.6732050807565132 1 0.68192028468364885 0.80839867011854549 1 0.67939035495490308 0.61016512164639347 0.78019141325921404 0.49972466465542442 0.78019141325930785 1 0.67939035495490308 0.61016512164639347 1 0.50000000000229983 0.51961524226898759 1 0.53045230059030524 0.6732050807565132 0.7504488434426726 0.53051757989633308 0.49836643074154852 1 0.67939035495490308 0.61016512164639347 1 0.68975022421527898 0.45812322962078778 1 0.50000000000229983 0.51961524226898759 0.7504488434426726 0.53051757989633308 0.49836643074154852 1 0.67939035495490308 0.61016512164639347 1 0.83630110503662825 0.50803330197135588 1 0.68975022421527898 0.45812322962078778 0.77374673111774417 0.78860835645735528 0.49829081152968557 1 0.83791821520125753 0.69361520514217179 0.77374673111774417 0.78860835645735528 0.49829081152968557 0.68649174659499257 0.68600703198516766 0.6864917465949647 0.77683220420328725 0.81278569633583353 0.81664766512111064 0.68649174659499257 0.68600703198516766 0.6864917465949647 0.77374673111774417 0.78860835645735528 0.49829081152968557 0.81346205468287114 1 0.68420958956387889 0.77683220420328725 0.81278569633583353 0.81664766512111064 1 0.83791821520125753 0.69361520514217179 0.68649174659499257 0.68600703198516766 0.6864917465949647 1 0.67939035495490308 0.61016512164639347 0.77683220420328725 0.81278569633583353 0.81664766512111064 1 0.68192028468364885 0.80839867011854549 1 0.83791821520125753 0.69361520514217179 1 0.67939035495490308 0.61016512164639347 0.77683220420328725 0.81278569633583353 0.81664766512111064 1 0.83791821520125753 0.69361520514217179 0.81346205468287114 1 0.68420958956387889 0.77374673111774417 0.78860835645735528 0.49829081152968557 0.77683220420328725 0.81278569633583353 0.81664766512111064 1 0.83630110503662825 0.50803330197135588 1 0.67939035495490308 0.61016512164639347 1 0.83791821520125753 0.69361520514217179 0.77374673111774417 0.78860835645735528 0.49829081152968557 1 0.83791821520125753 0.69361520514217179 0.86762395692956074 1 0.5060815484123421 1 0.83630110503662825 0.50803330197135588 0.77374673111774417 0.78860835645735528 0.49829081152968557 1 1 0.59999999999894682 1 0.83630110503662825 0.50803330197135588 1 0.83791821520125753 0.69361520514217179 0.86762395692956074 1 0.5060815484123421 0.86762395692956074 1 0.5060815484123421 1 1 0.59999999999894682 1 0.83630110503662825 0.50803330197135588 1 1 0.3999999999989749 1 0.83791821520125753 0.69361520514217179 0.81346205468287114 1 0.68420958956387889 1 1 0.59999999999894682 0.86762395692956074 1 0.5060815484123421 0.86762395692956074 1 0.5060815484123421 0.81346205468287114 1 0.68420958956387889 0.68240285647621723 1 0.52310058211166854 0.77374673111774417 0.78860835645735528 0.49829081152968557 0.81346205468287114 1 0.68420958956387889 0.86762395692956074 1 0.5060815484123421 1 0.83791821520125753 0.69361520514217179 0.77374673111774417 0.78860835645735528 0.49829081152968557 1 0.83791821520125753 0.69361520514217179 0.81346205468287114 1 0.68420958956387889 1 1 0.79999999999947335 1 1 0.59999999999894682 1 1 0.79999999999947335 0.85358983848569092 1 0.85358983848569092 0.81346205468287114 1 0.68420958956387889 1 0.83791821520125753 0.69361520514217179 0.85358983848569092 1 0.85358983848569092 1 0.83791821520125753 0.69361520514217179 1 0.85358983848587056 0.85358983848587056 0.77683220420328725 0.81278569633583353 0.81664766512111064 0.85358983848569092 1 0.85358983848569092 1 1 0.79999999999947335 1 0.85358983848587056 0.85358983848587056 1 0.83791821520125753 0.69361520514217179 0.85358983848587056 0.85358983848587056 1 1 1 1 1 0.79999999999947335 1 1 0.85358983848587056 0.85358983848587056 0.85358983848587056 0.85358983848587056 1 0.79999999999947335 1 1 1 1 1 0.85358983848569092 1 0.85358983848569092 1 1 0.79999999999947335 1 0.85358983848587056 0.85358983848587056 1 1 1 0.85358983848569092 1 0.85358983848569092 1 0.85358983848587056 0.85358983848587056 0.85358983848587056 0.85358983848587056 1 1 1 1 0.85358983848569092 1 0.85358983848569092 0.85358983848587056 0.85358983848587056 1 1 0.79999999999947335 1 1 0.68192028468364885 0.80839867011854549 1 0.85358983848587056 0.85358983848587056 1 0.79999999999947335 1 1 0.68192028468364885 0.80839867011854549 0.80839867011861499 0.68192028468377774 1 0.85358983848587056 0.85358983848587056 1 0.85358983848587056 0.85358983848587056 1 1 0.85358983848587056 0.85358983848587056 1 0.68192028468364885 0.80839867011854549 0.77683220420328725 0.81278569633583353 0.81664766512111064 1 0.68192028468364885 0.80839867011854549 1 0.85358983848587056 0.85358983848587056 1 0.83791821520125753 0.69361520514217179 0.77683220420328725 0.81278569633583353 0.81664766512111064 0.69361520514218133 0.83791821520130205 1 0.85358983848587056 0.85358983848587056 1 0.80839867011861499 0.68192028468377774 1 0.77683220420328725 0.81278569633583353 0.81664766512111064 0.80839867011861499 0.68192028468377774 1 0.85358983848587056 0.85358983848587056 1 1 0.68192028468364885 0.80839867011854549 0.77683220420328725 0.81278569633583353 0.81664766512111064 0.85358983848587056 0.85358983848587056 1 0.79999999999947335 1 1 0.85358983848569092 1 0.85358983848569092 0.77683220420328725 0.81278569633583353 0.81664766512111064 0.69981550660938663 1 0.83057691269844081 0.85358983848569092 1 0.85358983848569092 0.79999999999947335 1 1 0.77683220420328725 0.81278569633583353 0.81664766512111064 0.85358983848587056 0.85358983848587056 1 0.69361520514218133 0.83791821520130205 1 0.79999999999947335 1 1 0.77683220420328725 0.81278569633583353 0.81664766512111064 1 0.85358983848587056 0.85358983848587056 0.85358983848587056 0.85358983848587056 1 0.85358983848569092 1 0.85358983848569092 0.77683220420328725 0.81278569633583353 0.81664766512111064 0.85358983848569092 1 0.85358983848569092 0.69981550660938663 1 0.83057691269844081 0.81346205468287114 1 0.68420958956387889 0.77683220420328725 0.81278569633583353 0.81664766512111064 0.81346205468287114 1 0.68420958956387889 1 0.83791821520125753 0.69361520514217179 0.85358983848569092 1 0.85358983848569092 0.77683220420328725 0.81278569633583353 0.81664766512111064 0.69361520514218133 0.83791821520130205 1 0.49911199724958061 0.77872228561593948 0.77895350115271889 0.69981550660938663 1 0.83057691269844081 0.77683220420328725 0.81278569633583353 0.81664766512111064 0.69361520514218133 0.83791821520130205 1 0.61016512164652226 0.67939035495506384 1 0.49911199724958061 0.77872228561593948 0.77895350115271889 0.77683220420328725 0.81278569633583353 0.81664766512111064 0.81346205468287114 1 0.68420958956387889 0.69981550660938663 1 0.83057691269844081 0.6123333432449789 1 0.67837347745467769 0.77683220420328725 0.81278569633583353 0.81664766512111064 0.6123333432449789 1 0.67837347745467769 0.69981550660938663 1 0.83057691269844081 0.49911199724958061 0.77872228561593948 0.77895350115271889 0.77683220420328725 0.81278569633583353 0.81664766512111064 0.69361520514218133 0.83791821520130205 1 0.69981550660938663 1 0.83057691269844081 0.79999999999947335 1 1 0.77683220420328725 0.81278569633583353 0.81664766512111064 0.50970031073508926 1 0.83534964916803001 0.59999999999894682 1 1 0.69361520514218133 0.83791821520130205 1 0.69981550660938663 1 0.83057691269844081 0.69981550660938663 1 0.83057691269844081 0.59999999999894682 1 1 0.69361520514218133 0.83791821520130205 1 0.79999999999947335 1 1 0.80839867011861499 0.68192028468377774 1 0.61016512164652226 0.67939035495506384 1 0.69361520514218133 0.83791821520130205 1 0.77683220420328725 0.81278569633583353 0.81664766512111064 0.50803330197137353 0.83630110503667787 1 0.69361520514218133 0.83791821520130205 1 0.61016512164652226 0.67939035495506384 1 0.49911199724958061 0.77872228561593948 0.77895350115271889 0.50803330197137353 0.83630110503667787 1 0.50970031073508926 1 0.83534964916803001 0.69361520514218133 0.83791821520130205 1 0.49911199724958061 0.77872228561593948 0.77895350115271889 0.59999999999894682 1 1 0.50803330197137353 0.83630110503667787 1 0.3999999999989749 1 1 0.50970031073508926 1 0.83534964916803001 0.69361520514218133 0.83791821520130205 1 0.50803330197137353 0.83630110503667787 1 0.59999999999894682 1 1 0.50970031073508926 1 0.83534964916803001 0.69361520514218133 0.83791821520130205 1 0.50970031073508926 1 0.83534964916803001 0.69981550660938663 1 0.83057691269844081 0.49911199724958061 0.77872228561593948 0.77895350115271889 0.50970031073508926 1 0.83534964916803001 0.6123333432449789 1 0.67837347745467769 0.69981550660938663 1 0.83057691269844081 0.49911199724958061 0.77872228561593948 0.77895350115271889 0.6123333432449789 1 0.67837347745467769 0.49983993748706529 0.75039103705932653 0.52967335724801234 0.68649174659499257 0.68600703198516766 0.6864917465949647 0.49911199724958061 0.77872228561593948 0.77895350115271889 0.6123333432449789 1 0.67837347745467769 0.49983993748706529 0.75039103705932653 0.52967335724801234 0.68240285647621723 1 0.52310058211166854 0.77374673111774417 0.78860835645735528 0.49829081152968557 0.6123333432449789 1 0.67837347745467769 0.45820186441573879 1 0.68969697123405882 0.49983993748706529 0.75039103705932653 0.52967335724801234 0.49911199724958061 0.77872228561593948 0.77895350115271889 0.45820186441573879 1 0.68969697123405882 0.6123333432449789 1 0.67837347745467769 0.50970031073508926 1 0.83534964916803001 0.49911199724958061 0.77872228561593948 0.77895350115271889 0.6123333432449789 1 0.67837347745467769 0.68649174659499257 0.68600703198516766 0.6864917465949647 0.49983993748706529 0.75039103705932653 0.52967335724801234 0.77374673111774417 0.78860835645735528 0.49829081152968557 0.81346205468287114 1 0.68420958956387889 0.6123333432449789 1 0.67837347745467769 0.68649174659499257 0.68600703198516766 0.6864917465949647 0.77683220420328725 0.81278569633583353 0.81664766512111064 0.6123333432449789 1 0.67837347745467769 0.49911199724958061 0.77872228561593948 0.77895350115271889 0.68649174659499257 0.68600703198516766 0.6864917465949647 0.77683220420328725 0.81278569633583353 0.81664766512111064 0.81346205468287114 1 0.68420958956387889 0.68649174659499257 0.68600703198516766 0.6864917465949647 0.6123333432449789 1 0.67837347745467769 0.77374673111774417 0.78860835645735528 0.49829081152968557 0.81346205468287114 1 0.68420958956387889 0.6123333432449789 1 0.67837347745467769 0.68240285647621723 1 0.52310058211166854 0.77374673111774417 0.78860835645735528 0.49829081152968557 0.6123333432449789 1 0.67837347745467769 0.45820186441573879 1 0.68969697123405882 0.51961524227008238 1 0.49999999999872219 0.49983993748706529 0.75039103705932653 0.52967335724801234 0.6123333432449789 1 0.67837347745467769 0.51961524227008238 1 0.49999999999872219 0.68240285647621723 1 0.52310058211166854 0.49983993748706529 0.75039103705932653 0.52967335724801234 0.68649174659499257 0.68600703198516766 0.6864917465949647 0.49983993748706529 0.75039103705932653 0.52967335724801234 0.49816183246753282 0.5307146639261795 0.75045686993209071 0.49911199724958061 0.77872228561593948 0.77895350115271889 0.68649174659499257 0.68600703198516766 0.6864917465949647 0.50000000000001332 0.49999999999999561 0.49999999999999561 0.7504488434426726 0.53051757989633308 0.49836643074154852 0.49816183246753282 0.5307146639261795 0.75045686993209071 0.68649174659499257 0.68600703198516766 0.6864917465949647 0.49816183246753282 0.5307146639261795 0.75045686993209071 0.7504488434426726 0.53051757989633308 0.49836643074154852 0.78019141325921404 0.49972466465542442 0.78019141325930785 0.50000000000001332 0.49999999999999561 0.49999999999999561 0.68649174659499257 0.68600703198516766 0.6864917465949647 0.7504488434426726 0.53051757989633308 0.49836643074154852 0.49983993748706529 0.75039103705932653 0.52967335724801234 0.7504488434426726 0.53051757989633308 0.49836643074154852 0.49983993748706529 0.75039103705932653 0.52967335724801234 0.68649174659499257 0.68600703198516766 0.6864917465949647 0.77374673111774417 0.78860835645735528 0.49829081152968557 0.68649174659499257 0.68600703198516766 0.6864917465949647 0.50000000000001332 0.49999999999999561 0.49999999999999561 0.49816183246753282 0.5307146639261795 0.75045686993209071 0.49983993748706529 0.75039103705932653 0.52967335724801234 0.78019141325921404 0.49972466465542442 0.78019141325930785 0.61016512164652226 0.67939035495506384 1 0.49816183246753282 0.5307146639261795 0.75045686993209071 0.67320508075671459 0.53045230059073867 1 0.78019141325921404 0.49972466465542442 0.78019141325930785 0.49816183246753282 0.5307146639261795 0.75045686993209071 0.61016512164652226 0.67939035495506384 1 0.68649174659499257 0.68600703198516766 0.6864917465949647 0.61016512164652226 0.67939035495506384 1 0.68649174659499257 0.68600703198516766 0.6864917465949647 0.80839867011861499 0.68192028468377774 1 0.78019141325921404 0.49972466465542442 0.78019141325930785 0.68649174659499257 0.68600703198516766 0.6864917465949647 0.49911199724958061 0.77872228561593948 0.77895350115271889 0.61016512164652226 0.67939035495506384 1 0.77683220420328725 0.81278569633583353 0.81664766512111064 0.68649174659499257 0.68600703198516766 0.6864917465949647 0.49816183246753282 0.5307146639261795 0.75045686993209071 0.61016512164652226 0.67939035495506384 1 0.49911199724958061 0.77872228561593948 0.77895350115271889 0.80839867011861499 0.68192028468377774 1 0.68649174659499257 0.68600703198516766 0.6864917465949647 0.61016512164652226 0.67939035495506384 1 0.77683220420328725 0.81278569633583353 0.81664766512111064 0.67320508075671459 0.53045230059073867 1 0.61016512164652226 0.67939035495506384 1 0.80839867011861499 0.68192028468377774 1 0.78019141325921404 0.49972466465542442 0.78019141325930785 0.45812322962090041 0.68975022421538157 1 0.61016512164652226 0.67939035495506384 1 0.49816183246753282 0.5307146639261795 0.75045686993209071 0.49911199724958061 0.77872228561593948 0.77895350115271889 0.50803330197137353 0.83630110503667787 1 0.61016512164652226 0.67939035495506384 1 0.45812322962090041 0.68975022421538157 1 0.49911199724958061 0.77872228561593948 0.77895350115271889 0.51961524226934941 0.50000000000250611 1 0.45812322962090041 0.68975022421538157 1 0.61016512164652226 0.67939035495506384 1 0.49816183246753282 0.5307146639261795 0.75045686993209071 0.67320508075671459 0.53045230059073867 1 0.51961524226934941 0.50000000000250611 1 0.61016512164652226 0.67939035495506384 1 0.49816183246753282 0.5307146639261795 0.75045686993209071 0.3115891413135391 0.68758981780459771 0.68521708032990558 0.2184393375098648 0.50004596894495223 0.77634962490704662 0.32446581821293602 0.60020898676440626 1 0.18453958615733529 0.77655623474864555 0.81613222483915937 0.32925244736146098 0.39615100178034629 1 0.32446581821293602 0.60020898676440626 1 0.51961524226934941 0.50000000000250611 1 0.49816183246753282 0.5307146639261795 0.75045686993209071 0.45812322962090041 0.68975022421538157 1 0.3115891413135391 0.68758981780459771 0.68521708032990558 0.31067093462947892 0.81480288849497895 1 0.49911199724958061 0.77872228561593948 0.77895350115271889 0.32925244736146098 0.39615100178034629 1 0.32446581821293602 0.60020898676440626 1 0.49816183246753282 0.5307146639261795 0.75045686993209071 0.2184393375098648 0.50004596894495223 0.77634962490704662 0.45812322962090041 0.68975022421538157 1 0.49816183246753282 0.5307146639261795 0.75045686993209071 0.3115891413135391 0.68758981780459771 0.68521708032990558 0.49911199724958061 0.77872228561593948 0.77895350115271889 0.32446581821293602 0.60020898676440626 1 0.3115891413135391 0.68758981780459771 0.68521708032990558 0.49816183246753282 0.5307146639261795 0.75045686993209071 0.2184393375098648 0.50004596894495223 0.77634962490704662 0.45812322962090041 0.68975022421538157 1 0.51961524226934941 0.50000000000250611 1 0.32446581821293602 0.60020898676440626 1 0.49816183246753282 0.5307146639261795 0.75045686993209071 0.31067093462947892 0.81480288849497895 1 0.45812322962090041 0.68975022421538157 1 0.32446581821293602 0.60020898676440626 1 0.3115891413135391 0.68758981780459771 0.68521708032990558 0.45812322962090041 0.68975022421538157 1 0.32446581821293602 0.60020898676440626 1 0.3115891413135391 0.68758981780459771 0.68521708032990558 0.49816183246753282 0.5307146639261795 0.75045686993209071 0.32446581821293602 0.60020898676440626 1 0.31067093462947892 0.81480288849497895 1 0.3115891413135391 0.68758981780459771 0.68521708032990558 0.18453958615733529 0.77655623474864555 0.81613222483915937 0.3115891413135391 0.68758981780459771 0.68521708032990558 0.50000000000001332 0.49999999999999561 0.49999999999999561 0.24769234054476261 0.52242103280823293 0.45098450226372488 0.49983993748706529 0.75039103705932653 0.52967335724801234 0.3115891413135391 0.68758981780459771 0.68521708032990558 0.49816183246753282 0.5307146639261795 0.75045686993209071 0.50000000000001332 0.49999999999999561 0.49999999999999561 0.49983993748706529 0.75039103705932653 0.52967335724801234 0.3115891413135391 0.68758981780459771 0.68521708032990558 0.49983993748706529 0.75039103705932653 0.52967335724801234 0.24769234054476261 0.52242103280823293 0.45098450226372488 0.22516916914780419 0.77057994845201627 0.48187244075707292 0.50000000000001332 0.49999999999999561 0.49999999999999561 0.3115891413135391 0.68758981780459771 0.68521708032990558 0.24769234054476261 0.52242103280823293 0.45098450226372488 0.2184393375098648 0.50004596894495223 0.77634962490704662 0.3115891413135391 0.68758981780459771 0.68521708032990558 0.50000000000001332 0.49999999999999561 0.49999999999999561 0.49816183246753282 0.5307146639261795 0.75045686993209071 0.2184393375098648 0.50004596894495223 0.77634962490704662 0.49816183246753282 0.5307146639261795 0.75045686993209071 0.49983993748706529 0.75039103705932653 0.52967335724801234 0.3115891413135391 0.68758981780459771 0.68521708032990558 0.49911199724958061 0.77872228561593948 0.77895350115271889 0.32448110831226962 1 0.6002015905153204 0.45820186441573879 1 0.68969697123405882 0.3115891413135391 0.68758981780459771 0.68521708032990558 0.49983993748706529 0.75039103705932653 0.52967335724801234 0.45820186441573879 1 0.68969697123405882 0.31085062173747541 1 0.81469961246428202 0.32448110831226962 1 0.6002015905153204 0.3115891413135391 0.68758981780459771 0.68521708032990558 0.45820186441573879 1 0.68969697123405882 0.3115891413135391 0.68758981780459771 0.68521708032990558 0.49983993748706529 0.75039103705932653 0.52967335724801234 0.49911199724958061 0.77872228561593948 0.77895350115271889 0.32448110831226962 1 0.6002015905153204 0.3115891413135391 0.68758981780459771 0.68521708032990558 0.31085062173747541 1 0.81469961246428202 0.18453958615733529 0.77655623474864555 0.81613222483915937 0.32448110831226962 1 0.6002015905153204 0.49983993748706529 0.75039103705932653 0.52967335724801234 0.3115891413135391 0.68758981780459771 0.68521708032990558 0.22516916914780419 0.77057994845201627 0.48187244075707292 0.45820186441573879 1 0.68969697123405882 0.31085062173747541 1 0.81469961246428202 0.3115891413135391 0.68758981780459771 0.68521708032990558 0.49911199724958061 0.77872228561593948 0.77895350115271889 0.32926555316115258 1 0.39615987727515128 0.49983993748706529 0.75039103705932653 0.52967335724801234 0.32448110831226962 1 0.6002015905153204 0.22516916914780419 0.77057994845201627 0.48187244075707292 0.32448110831226962 1 0.6002015905153204 0.3115891413135391 0.68758981780459771 0.68521708032990558 0.15900053892265181 1 0.69447607299016312 0.22516916914780419 0.77057994845201627 0.48187244075707292 0.32926555316115258 1 0.39615987727515128 0.51961524227008238 1 0.49999999999872219 0.32448110831226962 1 0.6002015905153204 0.49983993748706529 0.75039103705932653 0.52967335724801234 0.32448110831226962 1 0.6002015905153204 0.51961524227008238 1 0.49999999999872219 0.45820186441573879 1 0.68969697123405882 0.49983993748706529 0.75039103705932653 0.52967335724801234 0.45820186441573879 1 0.68969697123405882 0.50970031073508926 1 0.83534964916803001 0.31085062173747541 1 0.81469961246428202 0.49911199724958061 0.77872228561593948 0.77895350115271889 0.31085062173747541 1 0.81469961246428202 0.49911199724958061 0.77872228561593948 0.77895350115271889 0.31067093462947892 0.81480288849497895 1 0.18453958615733529 0.77655623474864555 0.81613222483915937 0.31085062173747541 1 0.81469961246428202 0.3115891413135391 0.68758981780459771 0.68521708032990558 0.49911199724958061 0.77872228561593948 0.77895350115271889 0.18453958615733529 0.77655623474864555 0.81613222483915937 0.50803330197137353 0.83630110503667787 1 0.31085062173747541 1 0.81469961246428202 0.50970031073508926 1 0.83534964916803001 0.49911199724958061 0.77872228561593948 0.77895350115271889 0.31067093462947892 0.81480288849497895 1 0.49911199724958061 0.77872228561593948 0.77895350115271889 0.3115891413135391 0.68758981780459771 0.68521708032990558 0.18453958615733529 0.77655623474864555 0.81613222483915937 0.31085062173747541 1 0.81469961246428202 0.3999999999989749 1 1 0.50803330197137353 0.83630110503667787 1 0.50970031073508926 1 0.83534964916803001 0.31085062173747541 1 0.81469961246428202 0.3999999999989749 1 1 0.31067093462947892 0.81480288849497895 1 0.50803330197137353 0.83630110503667787 1 0.31085062173747541 1 0.81469961246428202 0.50803330197137353 0.83630110503667787 1 0.31067093462947892 0.81480288849497895 1 0.49911199724958061 0.77872228561593948 0.77895350115271889 0.45812322962090041 0.68975022421538157 1 0.31067093462947892 0.81480288849497895 1 0.50803330197137353 0.83630110503667787 1 0.49911199724958061 0.77872228561593948 0.77895350115271889 0.3999999999989749 1 1 0.19999999999955789 1 1 0.31085062173747541 1 0.81469961246428202 0.31067093462947892 0.81480288849497895 1 0.15900053892265181 1 0.69447607299016312 0.31085062173747541 1 0.81469961246428202 0.1464101615132356 1 0.85358983848650494 0.18453958615733529 0.77655623474864555 0.81613222483915937 0.31085062173747541 1 0.81469961246428202 0.31067093462947892 0.81480288849497895 1 0.1464101615132356 1 0.85358983848650494 0.18453958615733529 0.77655623474864555 0.81613222483915937 0.31085062173747541 1 0.81469961246428202 0.19999999999955789 1 1 0.1464101615132356 1 0.85358983848650494 0.31067093462947892 0.81480288849497895 1 0.14641016151332509 0.85358983848655678 1 0.1464101615132356 1 0.85358983848650494 0.19999999999955789 1 1 0.31067093462947892 0.81480288849497895 1 0.31067093462947892 0.81480288849497895 1 0.15896804272141651 0.69449451837104537 1 0.14641016151332509 0.85358983848655678 1 0.18453958615733529 0.77655623474864555 0.81613222483915937 0.14641016151332509 0.85358983848655678 1 0.1464101615132356 1 0.85358983848650494 0.31067093462947892 0.81480288849497895 1 0.18453958615733529 0.77655623474864555 0.81613222483915937 0 0.85358983848682146 0.85358983848668035 0 0.69992182039579531 0.85173693729137989 0 0.80860557108920617 0.70542349973054763 0.18453958615733529 0.77655623474864555 0.81613222483915937 0.15900053892265181 1 0.69447607299016312 0 0.85358983848682146 0.85358983848668035 0 0.80860557108920617 0.70542349973054763 0.18453958615733529 0.77655623474864555 0.81613222483915937 0.18453958615733529 0.77655623474864555 0.81613222483915937 0 0.79999999999999982 1 0.15896804272141651 0.69449451837104537 1 0.14641016151332509 0.85358983848655678 1 0.1464101615132356 1 0.85358983848650494 0.14641016151332509 0.85358983848655678 1 0 0.85358983848682146 0.85358983848668035 0.18453958615733529 0.77655623474864555 0.81613222483915937 0 0.85358983848682146 0.85358983848668035 0 0.79999999999999982 1 0 0.69992182039579531 0.85173693729137989 0.18453958615733529 0.77655623474864555 0.81613222483915937 0 0.85358983848682146 0.85358983848668035 0.14641016151332509 0.85358983848655678 1 0 0.79999999999999982 1 0.18453958615733529 0.77655623474864555 0.81613222483915937 0 1 1 0 0.85358983848682146 0.85358983848668035 0.14641016151332509 0.85358983848655678 1 0 0.79999999999999982 1 0 0.85358983848682146 0.85358983848668035 0.1464101615132356 1 0.85358983848650494 0 1 1 0.14641016151332509 0.85358983848655678 1 0.19999999999955789 1 1 0 1 1 0.1464101615132356 1 0.85358983848650494 0.14641016151332509 0.85358983848655678 1 0.1464101615132356 1 0.85358983848650494 0 1 1 0 1 0.79999999999947335 0 0.85358983848682146 0.85358983848668035 0.1464101615132356 1 0.85358983848650494 0 0.85358983848682146 0.85358983848668035 0.15900053892265181 1 0.69447607299016312 0.18453958615733529 0.77655623474864555 0.81613222483915937 0.15900053892265181 1 0.69447607299016312 0 1 0.79999999999947335 0 0.80860557108920617 0.70542349973054763 0 0.85358983848682146 0.85358983848668035 0 1 0.79999999999947335 0.15900053892265181 1 0.69447607299016312 0.1464101615132356 1 0.85358983848650494 0 0.85358983848682146 0.85358983848668035 0 0.80860557108920617 0.70542349973054763 0 1 0.59999999999894682 0 1 0.79999999999947335 0.15900053892265181 1 0.69447607299016312 0.3115891413135391 0.68758981780459771 0.68521708032990558 0.22516916914780419 0.77057994845201627 0.48187244075707292 0 0.80860557108920617 0.70542349973054763 0.18453958615733529 0.77655623474864555 0.81613222483915937 0 0.80860557108920617 0.70542349973054763 0 0.83630110503664845 0.50803330197135654 0 1 0.59999999999894682 0.15900053892265181 1 0.69447607299016312 0.15900053892265181 1 0.69447607299016312 0.3115891413135391 0.68758981780459771 0.68521708032990558 0.32448110831226962 1 0.6002015905153204 0.18453958615733529 0.77655623474864555 0.81613222483915937 0.15900053892265181 1 0.69447607299016312 0.22516916914780419 0.77057994845201627 0.48187244075707292 0.3115891413135391 0.68758981780459771 0.68521708032990558 0.18453958615733529 0.77655623474864555 0.81613222483915937 0.15900053892265181 1 0.69447607299016312 0 0.80860557108920617 0.70542349973054763 0.22516916914780419 0.77057994845201627 0.48187244075707292 0.18453958615733529 0.77655623474864555 0.81613222483915937 0.15900053892265181 1 0.69447607299016312 0.32448110831226962 1 0.6002015905153204 0.31085062173747541 1 0.81469961246428202 0.18453958615733529 0.77655623474864555 0.81613222483915937 0.32448110831226962 1 0.6002015905153204 0.15900053892265181 1 0.69447607299016312 0.17226134197293 1 0.49836539647645101 0.22516916914780419 0.77057994845201627 0.48187244075707292 0 0.83630110503664845 0.50803330197135654 0.17226134197293 1 0.49836539647645101 0.15900053892265181 1 0.69447607299016312 0.22516916914780419 0.77057994845201627 0.48187244075707292 0 1 0.59999999999894682 0 1 0.3999999999989749 0.17226134197293 1 0.49836539647645101 0 0.83630110503664845 0.50803330197135654 0 0.83630110503664845 0.50803330197135654 0.17226134197293 1 0.49836539647645101 0 1 0.59999999999894682 0.15900053892265181 1 0.69447607299016312 0 0.83630110503664845 0.50803330197135654 0.15900053892265181 1 0.69447607299016312 0 0.80860557108920617 0.70542349973054763 0.22516916914780419 0.77057994845201627 0.48187244075707292 0 0.66416205381430016 0.59944234540882957 0 0.83630110503664845 0.50803330197135654 0 0.80860557108920617 0.70542349973054763 0.22516916914780419 0.77057994845201627 0.48187244075707292 0 0.66416205381430016 0.59944234540882957 0 0.80860557108920617 0.70542349973054763 0.3115891413135391 0.68758981780459771 0.68521708032990558 0.22516916914780419 0.77057994845201627 0.48187244075707292 0 0.66416205381430016 0.59944234540882957 0.3115891413135391 0.68758981780459771 0.68521708032990558 0 0.80860557108920617 0.70542349973054763 0.18453958615733529 0.77655623474864555 0.81613222483915937 0 0.66416205381430016 0.59944234540882957 0 0.80860557108920617 0.70542349973054763 0 0.60922248848335758 0.72722573386012812 0.18453958615733529 0.77655623474864555 0.81613222483915937 0 0.66416205381430016 0.59944234540882957 0.24769234054476261 0.52242103280823293 0.45098450226372488 0.3115891413135391 0.68758981780459771 0.68521708032990558 0.2184393375098648 0.50004596894495223 0.77634962490704662 0 0.66416205381430016 0.59944234540882957 0 0.60922248848335758 0.72722573386012812 0.3115891413135391 0.68758981780459771 0.68521708032990558 0.18453958615733529 0.77655623474864555 0.81613222483915937 0 0.66416205381430016 0.59944234540882957 0 0.46954769941369501 0.67320508075638175 0 0.50000000000237477 0.51961524226909872 0.2184393375098648 0.50004596894495223 0.77634962490704662 0 0.60922248848335758 0.72722573386012812 0 0.66416205381430016 0.59944234540882957 0.3115891413135391 0.68758981780459771 0.68521708032990558 0.2184393375098648 0.50004596894495223 0.77634962490704662 0 0.66416205381430016 0.59944234540882957 0.3115891413135391 0.68758981780459771 0.68521708032990558 0.24769234054476261 0.52242103280823293 0.45098450226372488 0.22516916914780419 0.77057994845201627 0.48187244075707292 0 0.66416205381430016 0.59944234540882957 0 0.50000000000237477 0.51961524226909872 0.24769234054476261 0.52242103280823293 0.45098450226372488 0.2184393375098648 0.50004596894495223 0.77634962490704662 0 0.68801781652248195 0.45664527743358641 0 0.83630110503664845 0.50803330197135654 0 0.66416205381430016 0.59944234540882957 0.22516916914780419 0.77057994845201627 0.48187244075707292 0 0.66416205381430016 0.59944234540882957 0 0.50000000000237477 0.51961524226909872 0 0.68801781652248195 0.45664527743358641 0.24769234054476261 0.52242103280823293 0.45098450226372488 0 0.60922248848335758 0.72722573386012812 0 0.46954769941369501 0.67320508075638175 0 0.66416205381430016 0.59944234540882957 0.2184393375098648 0.50004596894495223 0.77634962490704662 0 0.5118616330515301 0.84191918937737908 0 0.69992182039579531 0.85173693729137989 0.15896804272141651 0.69449451837104537 1 0.2184393375098648 0.50004596894495223 0.77634962490704662 0 0.60922248848335758 0.72722573386012812 0.2184393375098648 0.50004596894495223 0.77634962490704662 0.3115891413135391 0.68758981780459771 0.68521708032990558 0.18453958615733529 0.77655623474864555 0.81613222483915937 0.15896804272141651 0.69449451837104537 1 0.2184393375098648 0.50004596894495223 0.77634962490704662 0 0.69992182039579531 0.85173693729137989 0.18453958615733529 0.77655623474864555 0.81613222483915937 0 0.5118616330515301 0.84191918937737908 0 0.46954769941369501 0.67320508075638175 0 0.60922248848335758 0.72722573386012812 0.2184393375098648 0.50004596894495223 0.77634962490704662 0 0.5118616330515301 0.84191918937737908 0 0.60922248848335758 0.72722573386012812 0 0.69992182039579531 0.85173693729137989 0.2184393375098648 0.50004596894495223 0.77634962490704662 0.15896804272141651 0.69449451837104537 1 0.32446581821293602 0.60020898676440626 1 0.2184393375098648 0.50004596894495223 0.77634962490704662 0.18453958615733529 0.77655623474864555 0.81613222483915937 0 0.60922248848335758 0.72722573386012812 0 0.69992182039579531 0.85173693729137989 0.2184393375098648 0.50004596894495223 0.77634962490704662 0.18453958615733529 0.77655623474864555 0.81613222483915937 0 0.80860557108920617 0.70542349973054763 0 0.69992182039579531 0.85173693729137989 0 0.60922248848335758 0.72722573386012812 0.18453958615733529 0.77655623474864555 0.81613222483915937 0.15896804272141651 0.69449451837104537 1 0.32446581821293602 0.60020898676440626 1 0.17226134197275911 0.49836539647894412 1 0.2184393375098648 0.50004596894495223 0.77634962490704662 0.15896804272141651 0.69449451837104537 1 0.17226134197275911 0.49836539647894412 1 0 0.5118616330515301 0.84191918937737908 0.2184393375098648 0.50004596894495223 0.77634962490704662 0.32446581821293602 0.60020898676440626 1 0.15896804272141651 0.69449451837104537 1 0.31067093462947892 0.81480288849497895 1 0.18453958615733529 0.77655623474864555 0.81613222483915937 0.18453958615733529 0.77655623474864555 0.81613222483915937 0.15896804272141651 0.69449451837104537 1 0 0.79999999999999982 1 0 0.69992182039579531 0.85173693729137989 0 0.69992182039579531 0.85173693729137989 0 0.5118616330515301 0.84191918937737908 0.15896804272141651 0.69449451837104537 1 0 0.60000000000138687 1 0.15896804272141651 0.69449451837104537 1 0 0.79999999999999982 1 0 0.69992182039579531 0.85173693729137989 0 0.60000000000138687 1 0 0.60000000000138687 1 0 0.5118616330515301 0.84191918937737908 0.15896804272141651 0.69449451837104537 1 0.17226134197275911 0.49836539647894412 1 0 0.5118616330515301 0.84191918937737908 0 0.60000000000138687 1 0 0.40000000000166441 1 0.17226134197275911 0.49836539647894412 1 0.17226134197275911 0.49836539647894412 1 0 0.40000000000166441 1 0 0.5118616330515301 0.84191918937737908 0 0.31807971531776508 0.80839867011913336 0 0.40000000000166441 1 0.17226134197275911 0.49836539647894412 1 0.16929708765653109 0.30074819035870082 1 0 0.31807971531776508 0.80839867011913336 0 0.14641016151490169 0.85358983848532144 0 0.31807971531776508 0.80839867011913336 0.16929708765653109 0.30074819035870082 1 0.31426750628021272 0.31270343261798911 0.68761148188185484 0.16929708765653109 0.30074819035870082 1 0.31426750628021272 0.31270343261798911 0.68761148188185484 0 0.31807971531776508 0.80839867011913336 0.2184393375098648 0.50004596894495223 0.77634962490704662 0 0.5118616330515301 0.84191918937737908 0 0.31807971531776508 0.80839867011913336 0 0.46954769941369501 0.67320508075638175 0.2184393375098648 0.50004596894495223 0.77634962490704662 0 0.5118616330515301 0.84191918937737908 0.17226134197275911 0.49836539647894412 1 0 0.31807971531776508 0.80839867011913336 0.2184393375098648 0.50004596894495223 0.77634962490704662 0 0.31807971531776508 0.80839867011913336 0.16929708765653109 0.30074819035870082 1 0 0.40000000000166441 1 0 0.20000000000083221 1 0.17226134197275911 0.49836539647894412 1 0.32925244736146098 0.39615100178034629 1 0.16929708765653109 0.30074819035870082 1 0.2184393375098648 0.50004596894495223 0.77634962490704662 0.17226134197275911 0.49836539647894412 1 0.16929708765653109 0.30074819035870082 1 0 0.31807971531776508 0.80839867011913336 0.2184393375098648 0.50004596894495223 0.77634962490704662 0.31610726166461628 0.1880448979455934 1 0.16929708765653109 0.30074819035870082 1 0.32925244736146098 0.39615100178034629 1 0.31426750628021272 0.31270343261798911 0.68761148188185484 0.32446581821293602 0.60020898676440626 1 0.32925244736146098 0.39615100178034629 1 0.17226134197275911 0.49836539647894412 1 0.2184393375098648 0.50004596894495223 0.77634962490704662 0.45812322962173568 0.31024977578554058 1 0.31426750628021272 0.31270343261798911 0.68761148188185484 0.49816183246753282 0.5307146639261795 0.75045686993209071 0.50084626324420545 0.22238844715913 0.78084811589659187 0.32925244736146098 0.39615100178034629 1 0.49816183246753282 0.5307146639261795 0.75045686993209071 0.31426750628021272 0.31270343261798911 0.68761148188185484 0.2184393375098648 0.50004596894495223 0.77634962490704662 0.31610726166461628 0.1880448979455934 1 0.32925244736146098 0.39615100178034629 1 0.45812322962173568 0.31024977578554058 1 0.31426750628021272 0.31270343261798911 0.68761148188185484 0.45812322962173568 0.31024977578554058 1 0.31610726166461628 0.1880448979455934 1 0.31426750628021272 0.31270343261798911 0.68761148188185484 0.50084626324420545 0.22238844715913 0.78084811589659187 0.32925244736146098 0.39615100178034629 1 0.45812322962173568 0.31024977578554058 1 0.31426750628021272 0.31270343261798911 0.68761148188185484 0.49816183246753282 0.5307146639261795 0.75045686993209071 0.32925244736146098 0.39615100178034629 1 0.31426750628021272 0.31270343261798911 0.68761148188185484 0.16929708765653109 0.30074819035870082 1 0.2184393375098648 0.50004596894495223 0.77634962490704662 0.32925244736146098 0.39615100178034629 1 0.51961524226934941 0.50000000000250611 1 0.45812322962173568 0.31024977578554058 1 0.49816183246753282 0.5307146639261795 0.75045686993209071 0.31426750628021272 0.31270343261798911 0.68761148188185484 0.49816183246753282 0.5307146639261795 0.75045686993209071 0.50000000000001332 0.49999999999999561 0.49999999999999561 0.2184393375098648 0.50004596894495223 0.77634962490704662 0.24769234054476261 0.52242103280823293 0.45098450226372488 0.50073570207385831 0.24848280280289631 0.52886631355986169 0.31426750628021272 0.31270343261798911 0.68761148188185484 0.22088738526309029 0.22111069116742441 0.50004796911802929 0.31426750628021272 0.31270343261798911 0.68761148188185484 0.50073570207385831 0.24848280280289631 0.52886631355986169 0.49816183246753282 0.5307146639261795 0.75045686993209071 0.50084626324420545 0.22238844715913 0.78084811589659187 0.50000000000001332 0.49999999999999561 0.49999999999999561 0.31426750628021272 0.31270343261798911 0.68761148188185484 0.24769234054476261 0.52242103280823293 0.45098450226372488 0.50073570207385831 0.24848280280289631 0.52886631355986169 0.50000000000001332 0.49999999999999561 0.49999999999999561 0.49816183246753282 0.5307146639261795 0.75045686993209071 0.31426750628021272 0.31270343261798911 0.68761148188185484 0.50073570207385831 0.24848280280289631 0.52886631355986169 0.50000000000001332 0.49999999999999561 0.49999999999999561 0.24769234054476261 0.52242103280823293 0.45098450226372488 0.31426750628021272 0.31270343261798911 0.68761148188185484 0.2184393375098648 0.50004596894495223 0.77634962490704662 0.2184393375098648 0.50004596894495223 0.77634962490704662 0.31426750628021272 0.31270343261798911 0.68761148188185484 0 0.50000000000237477 0.51961524226909872 0.24769234054476261 0.52242103280823293 0.45098450226372488 0 0.31024977578556651 0.45812322962166352 0.24769234054476261 0.52242103280823293 0.45098450226372488 0 0.32043363027398297 0.61046998817722586 0.22088738526309029 0.22111069116742441 0.50004796911802929 0 0.32043363027398297 0.61046998817722586 0 0.50000000000237477 0.51961524226909872 0.31426750628021272 0.31270343261798911 0.68761148188185484 0.24769234054476261 0.52242103280823293 0.45098450226372488 0.2184393375098648 0.50004596894495223 0.77634962490704662 0 0.32043363027398297 0.61046998817722586 0 0.50000000000237477 0.51961524226909872 0.31426750628021272 0.31270343261798911 0.68761148188185484 0 0.32043363027398297 0.61046998817722586 0.24769234054476261 0.52242103280823293 0.45098450226372488 0.31426750628021272 0.31270343261798911 0.68761148188185484 0.22088738526309029 0.22111069116742441 0.50004796911802929 0.2184393375098648 0.50004596894495223 0.77634962490704662 0 0.50000000000237477 0.51961524226909872 0 0.32043363027398297 0.61046998817722586 0 0.46954769941369501 0.67320508075638175 0 0.16196943494415611 0.69380980080116506 0 0.32043363027398297 0.61046998817722586 0.31426750628021272 0.31270343261798911 0.68761148188185484 0.22088738526309029 0.22111069116742441 0.50004796911802929 0 0.32043363027398297 0.61046998817722586 0 0.31807971531776508 0.80839867011913336 0.31426750628021272 0.31270343261798911 0.68761148188185484 0.2184393375098648 0.50004596894495223 0.77634962490704662 0 0.16196943494415611 0.69380980080116506 0 0.32043363027398297 0.61046998817722586 0 0.31807971531776508 0.80839867011913336 0.31426750628021272 0.31270343261798911 0.68761148188185484 0 0.31024977578556651 0.45812322962166352 0 0.50000000000237477 0.51961524226909872 0 0.32043363027398297 0.61046998817722586 0.24769234054476261 0.52242103280823293 0.45098450226372488 0 0.32043363027398297 0.61046998817722586 0 0.46954769941369501 0.67320508075638175 0 0.31807971531776508 0.80839867011913336 0.2184393375098648 0.50004596894495223 0.77634962490704662 0 0.32043363027398297 0.61046998817722586 0 0.16275515618034081 0.50966790549591257 0 0.31024977578556651 0.45812322962166352 0.22088738526309029 0.22111069116742441 0.50004796911802929 0 0.16196943494415611 0.69380980080116506 0.14641016151479661 0 0.85358983848542624 0.18818969570926641 0 0.68364148842842287 0.31426750628021272 0.31270343261798911 0.68761148188185484 0 0.16196943494415611 0.69380980080116506 0.31426750628021272 0.31270343261798911 0.68761148188185484 0.18818969570926641 0 0.68364148842842287 0.22088738526309029 0.22111069116742441 0.50004796911802929 0 0.16196943494415611 0.69380980080116506 0.18818969570926641 0 0.68364148842842287 0 0.16275515618034081 0.50966790549591257 0.22088738526309029 0.22111069116742441 0.50004796911802929 0 0.16196943494415611 0.69380980080116506 0 0.16275515618034081 0.50966790549591257 0 0.32043363027398297 0.61046998817722586 0.22088738526309029 0.22111069116742441 0.50004796911802929 0 0 0.79999999999999982 0 0 0.60000000000138687 0 0.16196943494415611 0.69380980080116506 0.18818969570926641 0 0.68364148842842287 0 0 0.60000000000138687 0 0.16196943494415611 0.69380980080116506 0.18818969570926641 0 0.68364148842842287 0 0.16275515618034081 0.50966790549591257 0.18818969570926641 0 0.68364148842842287 0.16370661204827031 0 0.4886650857430957 0 0 0.60000000000138687 0 0.16275515618034081 0.50966790549591257 0.18818969570926641 0 0.68364148842842287 0.31030302876556398 0 0.54179813558513157 0.16370661204827031 0 0.4886650857430957 0.22088738526309029 0.22111069116742441 0.50004796911802929 0 0.16275515618034081 0.50966790549591257 0.18818969570926641 0 0.68364148842842287 0.16370661204827031 0 0.4886650857430957 0.22088738526309029 0.22111069116742441 0.50004796911802929 0.30074819035913852 0 0.83070291234383831 0.39615987727709562 0 0.67073444684008199 0.18818969570926641 0 0.68364148842842287 0.31426750628021272 0.31270343261798911 0.68761148188185484 0.31030302876556398 0 0.54179813558513157 0.31426750628021272 0.31270343261798911 0.68761148188185484 0.50073570207385831 0.24848280280289631 0.52886631355986169 0.22088738526309029 0.22111069116742441 0.50004796911802929 0.39615987727709562 0 0.67073444684008199 0.31030302876556398 0 0.54179813558513157 0.31426750628021272 0.31270343261798911 0.68761148188185484 0.50073570207385831 0.24848280280289631 0.52886631355986169 0.39615987727709562 0 0.67073444684008199 0.31426750628021272 0.31270343261798911 0.68761148188185484 0.30074819035913852 0 0.83070291234383831 0.50084626324420545 0.22238844715913 0.78084811589659187 0.18818969570926641 0 0.68364148842842287 0.31426750628021272 0.31270343261798911 0.68761148188185484 0.31030302876556398 0 0.54179813558513157 0.22088738526309029 0.22111069116742441 0.50004796911802929 0.6002015905170176 0 0.67551889168744117 0.50073570207385831 0.24848280280289631 0.52886631355986169 0.39615987727709562 0 0.67073444684008199 0.50084626324420545 0.22238844715913 0.78084811589659187 0.31030302876556398 0 0.54179813558513157 0.18818969570926641 0 0.68364148842842287 0.39615987727709562 0 0.67073444684008199 0.31426750628021272 0.31270343261798911 0.68761148188185484 0.39615987727709562 0 0.67073444684008199 0.50073570207385831 0.24848280280289631 0.52886631355986169 0.31426750628021272 0.31270343261798911 0.68761148188185484 0.50084626324420545 0.22238844715913 0.78084811589659187 0.39615987727709562 0 0.67073444684008199 0.6002015905170176 0 0.67551889168744117 0.50000000000250922 0 0.48038475773043671 0.50073570207385831 0.24848280280289631 0.52886631355986169 0.39615987727709562 0 0.67073444684008199 0.50000000000250922 0 0.48038475773043671 0.31030302876556398 0 0.54179813558513157 0.50073570207385831 0.24848280280289631 0.52886631355986169 0.49836539647917322 0 0.82773865802723501 0.6002015905170176 0 0.67551889168744117 0.39615987727709562 0 0.67073444684008199 0.50084626324420545 0.22238844715913 0.78084811589659187 0.30074819035913852 0 0.83070291234383831 0.14641016151432179 0.14641016151432179 1 0.31610726166461628 0.1880448979455934 1 0.31426750628021272 0.31270343261798911 0.68761148188185484 0.30074819035913852 0 0.83070291234383831 0.31426750628021272 0.31270343261798911 0.68761148188185484 0.31610726166461628 0.1880448979455934 1 0.50084626324420545 0.22238844715913 0.78084811589659187 0.30074819035913852 0 0.83070291234383831 0.31610726166461628 0.1880448979455934 1 0.49836539647917322 0 0.82773865802723501 0.50084626324420545 0.22238844715913 0.78084811589659187 0.39615987727709562 0 0.67073444684008199 0.30074819035913852 0 0.83070291234383831 0.49836539647917322 0 0.82773865802723501 0.50084626324420545 0.22238844715913 0.78084811589659187 0.31610726166461628 0.1880448979455934 1 0.40000000000166441 0 1 0.49836539647917322 0 0.82773865802723501 0.50966790549576724 0.1627551561802443 1 0.40000000000166441 0 1 0.49836539647917322 0 0.82773865802723501 0.30074819035913852 0 0.83070291234383831 0.31610726166461628 0.1880448979455934 1 0.31610726166461628 0.1880448979455934 1 0.50966790549576724 0.1627551561802443 1 0.49836539647917322 0 0.82773865802723501 0.50084626324420545 0.22238844715913 0.78084811589659187 0.45812322962173568 0.31024977578554058 1 0.50966790549576724 0.1627551561802443 1 0.31610726166461628 0.1880448979455934 1 0.50084626324420545 0.22238844715913 0.78084811589659187 0.40000000000166441 0 1 0.30074819035913852 0 0.83070291234383831 0.20000000000083221 0 1 0.31610726166461628 0.1880448979455934 1 0 0.14641016151490169 0.85358983848532144 0 0.16196943494415611 0.69380980080116506 0 0.31807971531776508 0.80839867011913336 0.31426750628021272 0.31270343261798911 0.68761148188185484 0.16929708765653109 0.30074819035870082 1 0.31610726166461628 0.1880448979455934 1 0.14641016151432179 0.14641016151432179 1 0.31426750628021272 0.31270343261798911 0.68761148188185484 0.14641016151432179 0.14641016151432179 1 0.20000000000083221 0 1 0.14641016151479661 0 0.85358983848542624 0.30074819035913852 0 0.83070291234383831 0.14641016151432179 0.14641016151432179 1 0.30074819035913852 0 0.83070291234383831 0.14641016151479661 0 0.85358983848542624 0.31426750628021272 0.31270343261798911 0.68761148188185484 0.14641016151432179 0.14641016151432179 1 0.20000000000083221 0 1 0.30074819035913852 0 0.83070291234383831 0.31610726166461628 0.1880448979455934 1 0.18818969570926641 0 0.68364148842842287 0.14641016151479661 0 0.85358983848542624 0.30074819035913852 0 0.83070291234383831 0.31426750628021272 0.31270343261798911 0.68761148188185484 0 0.14641016151490169 0.85358983848532144 0.16929708765653109 0.30074819035870082 1 0.14641016151432179 0.14641016151432179 1 0.31426750628021272 0.31270343261798911 0.68761148188185484 0.14641016151432179 0.14641016151432179 1 0.14641016151479661 0 0.85358983848542624 0 0.14641016151490169 0.85358983848532144 0.31426750628021272 0.31270343261798911 0.68761148188185484 0 0.16196943494415611 0.69380980080116506 0 0.14641016151490169 0.85358983848532144 0.14641016151479661 0 0.85358983848542624 0.31426750628021272 0.31270343261798911 0.68761148188185484 0 0.20000000000083221 1 0 0.31807971531776508 0.80839867011913336 0.16929708765653109 0.30074819035870082 1 0 0.14641016151490169 0.85358983848532144 0.14641016151432179 0.14641016151432179 1 0 0.20000000000083221 1 0.16929708765653109 0.30074819035870082 1 0 0.14641016151490169 0.85358983848532144 0 0.16196943494415611 0.69380980080116506 0.14641016151479661 0 0.85358983848542624 0 0 0.79999999999999982 0.18818969570926641 0 0.68364148842842287 0 0.14641016151490169 0.85358983848532144 0.14641016151479661 0 0.85358983848542624 0 0 0.79999999999999982 0 0.16196943494415611 0.69380980080116506 0 0 1 0 0.20000000000083221 1 0.14641016151432179 0.14641016151432179 1 0 0.14641016151490169 0.85358983848532144 0.14641016151479661 0 0.85358983848542624 0 0 0.79999999999999982 0 0 1 0 0.14641016151490169 0.85358983848532144 0 0 1 0.14641016151432179 0.14641016151432179 1 0.20000000000083221 0 1 0.14641016151479661 0 0.85358983848542624 0.14641016151479661 0 0.85358983848542624 0 0 1 0.14641016151432179 0.14641016151432179 1 0 0.14641016151490169 0.85358983848532144 
</DataArray>
</Points>
<Cells>
<DataArray type="UInt32" Name="connectivity" format="ascii">
0 1 2 3 4 5 6 7 8 9 10 11 12 13 14 15 16 17 18 19 20 21 22 23 24 25 26 27 28 29 30 31 32 33 34 35 36 37 38 39 40 41 42 43 44 45 46 47 48 49 50 51 52 53 54 55 56 57 58 59 60 61 62 63 64 65 66 67 68 69 70 71 72 73 74 75 76 77 78 79 80 81 82 83 84 85 86 87 88 89 90 91 92 93 94 95 96 97 98 99 100 101 102 103 104 105 106 107 108 109 110 111 112 113 114 115 116 117 118 119 120 121 122 123 124 125 126 127 128 129 130 131 132 133 134 135 136 137 138 139 140 141 142 143 144 145 146 147 148 149 150 151 152 153 154 155 156 157 158 159 160 161 162 163 164 165 166 167 168 169 170 171 172 173 174 175 176 177 178 179 180 181 182 183 184 185 186 187 188 189 190 191 192 193 194 195 196 197 198 199 200 201 202 203 204 205 206 207 208 209 210 211 212 213 214 215 216 217 218 219 220 221 222 223 224 225 226 227 228 229 230 231 232 233 234 235 236 237 238 239 240 241 242 243 244 245 246 247 248 249 250 251 252 253 254 255 256 257 258 259 260 261 262 263 264 265 266 267 268 269 270 271 272 273 274 275 276 277 278 279 280 281 282 283 284 285 286 287 288 289 290 291 292 293 294 295 296 297 298 299 300 301 302 303 304 305 306 307 308 309 310 311 312 313 314 315 316 317 318 319 320 321 322 323 324 325 326 327 328 329 330 331 332 333 334 335 336 337 338 339 340 341 342 343 344 345 346 347 348 349 350 351 352 353 354 355 356 357 358 359 360 361 362 363 364 365 366 367 368 369 370 371 372 373 374 375 376 377 378 379 380 381 382 383 384 385 386 387 388 389 390 391 392 393 394 395 396 397 398 399 400 401 402 403 404 405 406 407 408 409 410 411 412 413 414 415 416 417 418 419 420 421 422 423 424 425 426 427 428 429 430 431 432 433 434 435 436 437 438 439 440 441 442 443 444 445 446 447 448 449 450 451 452 453 454 455 456 457 458 459 460 461 462 463 464 465 466 467 468 469 470 471 472 473 474 475 476 477 478 479 480 481 482 483 484 485 486 487 488 489 490 491 492 493 494 495 496 497 498 499 500 501 502 503 504 505 506 507 508 509 510 511 512 513 514 515 516 517 518 519 520 521 522 523 524 525 526 527 528 529 530 531 532 533 534 535 536 537 538 539 540 541 542 543 544 545 546 547 548 549 550 551 552 553 554 555 556 557 558 559 560 561 562 563 564 565 566 567 568 569 570 571 572 573 574 575 576 577 578 579 580 581 582 583 584 585 586 587 588 589 590 591 592 593 594 595 596 597 598 599 600 601 602 603 604 605 606 607 608 609 610 611 612 613 614 615 616 617 618 619 620 621 622 623 624 625 626 627 628 629 630 631 632 633 634 635 636 637 638 639 640 641 642 643 644 645 646 647 648 649 650 651 652 653 654 655 656 657 658 659 660 661 662 663 664 665 666 667 668 669 670 671 672 673 674 675 676 677 678 679 680 681 682 683 684 685 686 687 688 689 690 691 692 693 694 695 696 697 698 699 700 701 702 703 704 705 706 707 708 709 710 711 712 713 714 715 716 717 718 719 720 721 722 723 724 725 726 727 728 729 730 731 732 733 734 735 736 737 738 739 740 741 742 743 744 745 746 747 748 749 750 751 752 753 754 755 756 757 758 759 760 761 762 763 764 765 766 767 768 769 770 771 772 773 774 775 776 777 778 779 780 781 782 783 784 785 786 787 788 789 790 791 792 793 794 795 796 797 798 799 800 801 802 803 804 805 806 807 808 809 810 811 812 813 814 815 816 817 818 819 820 821 822 823 824 825 826 827 828 829 830 831 832 833 834 835 836 837 838 839 840 841 842 843 844 845 846 847 848 849 850 851 852 853 854 855 856 857 858 859 860 861 862 863 864 865 866 867 868 869 870 871 872 873 874 875 876 877 878 879 880 881 882 883 884 885 886 887 888 889 890 891 892 893 894 895 896 897 898 899 900 901 902 903 904 905 906 907 908 909 910 911 912 913 914 915 916 917 918 919 920 921 922 923 924 925 926 927 928 929 930 931 932 933 934 935 936 937 938 939 940 941 942 943 944 945 946 947 948 949 950 951 952 953 954 955 956 957 958 959 960 961 962 963 964 965 966 967 968 969 970 971 972 973 974 975 976 977 978 979 980 981 982 983 984 985 986 987 988 989 990 991 992 993 994 995 996 997 998 999 1000 1001 1002 1003 1004 1005 1006 1007 1008 1009 1010 1011 1012 1013 1014 1015 1016 1017 1018 1019 1020 1021 1022 1023 1024 1025 1026 1027 1028 1029 1030 1031 1032 1033 1034 1035 1036 1037 1038 1039 1040 1041 1042 1043 1044 1045 1046 1047 1048 1049 1050 1051 1052 1053 1054 1055 1056 1057 1058 1059 1060 1061 1062 1063 1064 1065 1066 1067 1068 1069 1070 1071 1072 1073 1074 1075 1076 1077 1078 1079 1080 1081 1082 1083 1084 1085 1086 1087 1088 1089 1090 1091 1092 1093 1094 1095 1096 1097 1098 1099 1100 1101 1102 1103 1104 1105 1106 1107 1108 1109 1110 1111 1112 1113 1114 1115 1116 1117 1118 1119 1120 1121 1122 1123 1124 1125 1126 1127 1128 1129 1130 1131 1132 1133 1134 1135 1136 1137 1138 1139 1140 1141 1142 1143 1144 1145 1146 1147 1148 1149 1150 1151 1152 1153 1154 1155 1156 1157 1158 1159 1160 1161 1162 1163 1164 1165 1166 1167 1168 1169 1170 1171 1172 1173 1174 1175 1176 1177 1178 1179 1180 1181 1182 1183 1184 1185 1186 1187 1188 1189 1190 1191 1192 1193 1194 1195 1196 1197 1198 1199 1200 1201 1202 1203 1204 1205 1206 1207 1208 1209 1210 1211 1212 1213 1214 1215 1216 1217 1218 1219 1220 1221 1222 1223 1224 1225 1226 1227 1228 1229 1230 1231 1232 1233 1234 1235 1236 1237 1238 1239 1240 1241 1242 1243 1244 1245 1246 1247 1248 1249 1250 1251 1252 1253 1254 1255 1256 1257 1258 1259 1260 1261 1262 1263 1264 1265 1266 1267 1268 1269 1270 1271 1272 1273 1274 1275 1276 1277 1278 1279 1280 1281 1282 1283 1284 1285 1286 1287 1288 1289 1290 1291 1292 1293 1294 1295 1296 1297 1298 1299 1300 1301 1302 1303 1304 1305 1306 1307 1308 1309 1310 1311 1312 1313 1314 1315 1316 1317 1318 1319 1320 1321 1322 1323 1324 1325 1326 1327 1328 1329 1330 1331 1332 1333 1334 1335 1336 1337 1338 1339 1340 1341 1342 1343 1344 1345 1346 1347 1348 1349 1350 1351 1352 1353 1354 1355 1356 1357 1358 1359 1360 1361 1362 1363 1364 1365 1366 1367 1368 1369 1370 1371 1372 1373 1374 1375 1376 1377 1378 1379 1380 1381 1382 1383 1384 1385 1386 1387 1388 1389 1390 1391 1392 1393 1394 1395 1396 1397 1398 1399 1400 1401 1402 1403 1404 1405 1406 1407 1408 1409 1410 1411 1412 1413 1414 1415 1416 1417 1418 1419 1420 1421 1422 1423 1424 1425 1426 1427 1428 1429 1430 1431 1432 1433 1434 1435 1436 1437 1438 1439 1440 1441 1442 1443 1444 1445 1446 1447 1448 1449 1450 1451 1452 1453 1454 1455 1456 1457 1458 1459 1460 1461 1462 1463 1464 1465 1466 1467 1468 1469 1470 1471 1472 1473 1474 1475 1476 1477 1478 1479 1480 1481 1482 1483 1484 1485 1486 1487 1488 1489 1490 1491 1492 1493 1494 1495 1496 1497 1498 1499 1500 1501 1502 1503 1504 1505 1506 1507 1508 1509 1510 1511 1512 1513 1514 1515 1516 1517 1518 1519 1520 1521 1522 1523 1524 1525 1526 1527 1528 1529 1530 1531 1532 1533 1534 1535 1536 1537 1538 1539 1540 1541 1542 1543 1544 1545 1546 1547 1548 1549 1550 1551 1552 1553 1554 1555 1556 1557 1558 1559 1560 1561 1562 1563 1564 1565 1566 1567 1568 1569 1570 1571 1572 1573 1574 1575 1576 1577 1578 1579 1580 1581 1582 1583 1584 1585 1586 1587 1588 1589 1590 1591 1592 1593 1594 1595 1596 1597 1598 1599 1600 1601 1602 1603 1604 1605 1606 1607 1608 1609 1610 1611 1612 1613 1614 1615 1616 1617 1618 1619 1620 1621 1622 1623 1624 1625 1626 1627 1628 1629 1630 1631 1632 1633 1634 1635 1636 1637 1638 1639 1640 1641 1642 1643 1644 1645 1646 1647 1648 1649 1650 1651 1652 1653 1654 1655 1656 1657 1658 1659 1660 1661 1662 1663 1664 1665 1666 1667 1668 1669 1670 1671 1672 1673 1674 1675 1676 1677 1678 1679 1680 1681 1682 1683 1684 1685 1686 1687 1688 1689 1690 1691 1692 1693 1694 1695 1696 1697 1698 1699 1700 1701 1702 1703 1704 1705 1706 1707 1708 1709 1710 1711 1712 1713 1714 1715 1716 1717 1718 1719 1720 1721 1722 1723 1724 1725 1726 1727 1728 1729 1730 1731 1732 1733 1734 1735 1736 1737 1738 1739 1740 1741 1742 1743 1744 1745 1746 1747 1748 1749 1750 1751 1752 1753 1754 1755 1756 1757 1758 1759 1760 1761 1762 1763 1764 1765 1766 1767 1768 1769 1770 1771 1772 1773 1774 1775 1776 1777 1778 1779 1780 1781 1782 1783 1784 1785 1786 1787 1788 1789 1790 1791 1792 1793 1794 1795 1796 1797 1798 1799 1800 1801 1802 1803 1804 1805 1806 1807 1808 1809 1810 1811 1812 1813 1814 1815 1816 1817 1818 1819 1820 1821 1822 1823 1824 1825 1826 1827 1828 1829 1830 1831 1832 1833 1834 1835 1836 1837 1838 1839 1840 1841 1842 1843 1844 1845 1846 1847 1848 1849 1850 1851 1852 1853 1854 1855 1856 1857 1858 1859 1860 1861 1862 1863 1864 1865 1866 1867 1868 1869 1870 1871 1872 1873 1874 1875 1876 1877 1878 1879 1880 1881 1882 1883 1884 1885 1886 1887 1888 1889 1890 1891 1892 1893 1894 1895 1896 1897 1898 1899 1900 1901 1902 1903 1904 1905 1906 1907 1908 1909 1910 1911 1912 1913 1914 1915 1916 1917 1918 1919 1920 1921 1922 1923 1924 1925 1926 1927 1928 1929 1930 1931 1932 1933 1934 1935 1936 1937 1938 1939 1940 1941 1942 1943 1944 1945 1946 1947 1948 1949 1950 1951 1952 1953 1954 1955 1956 1957 1958 1959 1960 1961 1962 1963 1964 1965 1966 1967 1968 1969 1970 1971 1972 1973 1974 1975 1976 1977 1978 1979 1980 1981 1982 1983 1984 1985 1986 1987 1988 1989 1990 1991 1992 1993 1994 1995 1996 1997 1998 1999 2000 2001 2002 2003 2004 2005 2006 2007 2008 2009 2010 2011 2012 2013 2014 2015 2016 2017 2018 2019 2020 2021 2022 2023 2024 2025 2026 2027 2028 2029 2030 2031 2032 2033 2034 2035 2036 2037 2038 2039 2040 2041 2042 2043 2044 2045 2046 2047 2048 2049 2050 2051 2052 2053 2054 2055 2056 2057 2058 2059 2060 2061 2062 2063 2064 2065 2066 2067 2068 2069 2070 2071 2072 2073 2074 2075 2076 2077 2078 2079 2080 2081 2082 2083 2084 2085 2086 2087 2088 2089 2090 2091 2092 2093 2094 2095 2096 2097 2098 2099 2100 2101 2102 2103 2104 2105 2106 2107 2108 2109 2110 2111 2112 2113 2114 2115 2116 2117 2118 2119 2120 2121 2122 2123 2124 2125 2126 2127 2128 2129 2130 2131 2132 2133 2134 2135 2136 2137 2138 2139 2140 2141 2142 2143 2144 2145 2146 2147 2148 2149 2150 2151 2152 2153 2154 2155 2156 2157 2158 2159 2160 2161 2162 2163 2164 2165 2166 2167 2168 2169 2170 2171 2172 2173 2174 2175 2176 2177 2178 2179 2180 2181 2182 2183 2184 2185 2186 2187 2188 2189 2190 2191 2192 2193 2194 2195 2196 2197 2198 2199 2200 2201 2202 2203 2204 2205 2206 2207 2208 2209 2210 2211 2212 2213 2214 2215 2216 2217 2218 2219 2220 2221 2222 2223 2224 2225 2226 2227 2228 2229 2230 2231 2232 2233 2234 2235 2236 2237 2238 2239 2240 2241 2242 2243 2244 2245 2246 2247 2248 2249 2250 2251 2252 2253 2254 2255 2256 2257 2258 2259 2260 2261 2262 2263 2264 2265 2266 2267 2268 2269 2270 2271 2272 2273 2274 2275 2276 2277 2278 2279 2280 2281 2282 2283 2284 2285 2286 2287 2288 2289 2290 2291 2292 2293 2294 2295 2296 2297 2298 2299 2300 2301 2302 2303 2304 2305 2306 2307 2308 2309 2310 2311 2312 2313 2314 2315 2316 2317 2318 2319 2320 2321 2322 2323 2324 2325 2326 2327 2328 2329 2330 2331 2332 2333 2334 2335 2336 2337 2338 2339 2340 2341 2342 2343 2344 2345 2346 2347 2348 2349 2350 2351 2352 2353 2354 2355 2356 2357 2358 2359 2360 2361 2362 2363 2364 2365 2366 2367 2368 2369 2370 2371 2372 2373 2374 2375 2376 2377 2378 2379 2380 2381 2382 2383 2384 2385 2386 2387 2388 2389 2390 2391 2392 2393 2394 2395 2396 2397 2398 2399 2400 2401 2402 2403 2404 2405 2406 2407 2408 2409 2410 2411 2412 2413 2414 2415 2416 2417 2418 2419 2420 2421 2422 2423 2424 2425 2426 2427 2428 2429 2430 2431 2432 2433 2434 2435 2436 2437 2438 2439 2440 2441 2442 2443 2444 2445 2446 2447 2448 2449 2450 2451 2452 2453 2454 2455 2456 2457 2458 2459 2460 2461 2462 2463 2464 2465 2466 2467 2468 2469 2470 2471 2472 2473 2474 2475 2476 2477 2478 2479 2480 2481 2482 2483 2484 2485 2486 2487 2488 2489 2490 2491 2492 2493 2494 2495 2496 2497 2498 2499 2500 2501 2502 2503 2504 2505 2506 2507 2508 2509 2510 2511 2512 2513 2514 2515 2516 2517 2518 2519 2520 2521 2522 2523 2524 2525 2526 2527 2528 2529 2530 2531 2532 2533 2534 2535 2536 2537 2538 2539 2540 2541 2542 2543 2544 2545 2546 2547 2548 2549 2550 2551 2552 2553 2554 2555 2556 2557 2558 2559 2560 2561 2562 2563 2564 2565 2566 2567 2568 2569 2570 2571 2572 2573 2574 2575 2576 2577 2578 2579 2580 2581 2582 2583 2584 2585 2586 2587 2588 2589 2590 2591 2592 2593 2594 2595 2596 2597 2598 2599 2600 2601 2602 2603 2604 2605 2606 2607 2608 2609 2610 2611 2612 2613 2614 2615 2616 2617 2618 2619 2620 2621 2622 2623 2624 2625 2626 2627 2628 2629 2630 2631 2632 2633 2634 2635 2636 2637 2638 2639 2640 2641 2642 2643 2644 2645 2646 2647 2648 2649 2650 2651 2652 2653 2654 2655 2656 2657 2658 2659 2660 2661 2662 2663 2664 2665 2666 2667 2668 2669 2670 2671 2672 2673 2674 2675 2676 2677 2678 2679 2680 2681 2682 2683 2684 2685 2686 2687 2688 2689 2690 2691 2692 2693 2694 2695 2696 2697 2698 2699 2700 2701 2702 2703 2704 2705 2706 2707 2708 2709 2710 2711 2712 2713 2714 2715 2716 2717 2718 2719 2720 2721 2722 2723 2724 2725 2726 2727 2728 2729 2730 2731 2732 2733 2734 2735 2736 2737 2738 2739 2740 2741 2742 2743 2744 2745 2746 2747 2748 2749 2750 2751 2752 2753 2754 2755 2756 2757 2758 2759 2760 2761 2762 2763 2764 2765 2766 2767 2768 2769 2770 2771 2772 2773 2774 2775 2776 2777 2778 2779 2780 2781 2782 2783 2784 2785 2786 2787 2788 2789 2790 2791 2792 2793 2794 2795 2796 2797 2798 2799 2800 2801 2802 2803 2804 2805 2806 2807 2808 2809 2810 2811 2812 2813 2814 2815 2816 2817 2818 2819 2820 2821 2822 2823 2824 2825 2826 2827 2828 2829 2830 2831 2832 2833 2834 2835 2836 2837 2838 2839 2840 2841 2842 2843 2844 2845 2846 2847 2848 2849 2850 2851 2852 2853 2854 2855 2856 2857 2858 2859 2860 2861 2862 2863 2864 2865 2866 2867 2868 2869 2870 2871 2872 2873 2874 2875 
</DataArray>
<DataArray type="UInt32" Name="offsets" format="ascii">
4 8 12 16 20 24 28 32 36 40 44 48 52 56 60 64 68 72 76 80 84 88 92 96 100 104 108 112 116 120 124 128 132 136 140 144 148 152 156 160 164 168 172 176 180 184 188 192 196 200 204 208 212 216 220 224 228 232 236 240 244 248 252 256 260 264 268 272 276 280 284 288 292 296 300 304 308 312 316 320 324 328 332 336 340 344 348 352 356 360 364 368 372 376 380 384 388 392 396 400 404 408 412 416 420 424 428 432 436 440 444 448 452 456 460 464 468 472 476 480 484 488 492 496 500 504 508 512 516 520 524 528 532 536 540 544 548 552 556 560 564 568 572 576 580 584 588 592 596 600 604 608 612 616 620 624 628 632 636 640 644 648 652 656 660 664 668 672 676 680 684 688 692 696 700 704 708 712 716 720 724 728 732 736 740 744 748 752 756 760 764 768 772 776 780 784 788 792 796 800 804 808 812 816 820 824 828 832 836 840 844 848 852 856 860 864 868 872 876 880 884 888 892 896 900 904 908 912 916 920 924 928 932 936 940 944 948 952 956 960 964 968 972 976 980 984 988 992 996 1000 1004 1008 1012 1016 1020 1024 1028 1032 1036 1040 1044 1048 1052 1056 1060 1064 1068 1072 1076 1080 1084 1088 1092 1096 1100 1104 1108 1112 1116 1120 1124 1128 1132 1136 1140 1144 1148 1152 1156 1160 1164 1168 1172 1176 1180 1184 1188 1192 1196 1200 1204 1208 1212 1216 1220 1224 1228 1232 1236 1240 1244 1248 1252 1256 1260 1264 1268 1272 1276 1280 1284 1288 1292 1296 1300 1304 1308 1312 1316 1320 1324 1328 1332 1336 1340 1344 1348 1352 1356 1360 1364 1368 1372 1376 1380 1384 1388 1392 1396 1400 1404 1408 1412 1416 1420 1424 1428 1432 1436 1440 1444 1448 1452 1456 1460 1464 1468 1472 1476 1480 1484 1488 1492 1496 1500 1504 1508 1512 1516 1520 1524 1528 1532 1536 1540 1544 1548 1552 1556 1560 1564 1568 1572 1576 1580 1584 1588 1592 1596 1600 1604 1608 1612 1616 1620 1624 1628 1632 1636 1640 1644 1648 1652 1656 1660 1664 1668 1672 1676 1680 1684 1688 1692 1696 1700 1704 1708 1712 1716 1720 1724 1728 1732 1736 1740 1744 1748 1752 1756 1760 1764 1768 1772 1776 1780 1784 1788 1792 1796 1800 1804 1808 1812 1816 1820 1824 1828 1832 1836 1840 1844 1848 1852 1856 1860 1864 1868 1872 1876 1880 1884 1888 1892 1896 1900 1904 1908 1912 1916 1920 1924 1928 1932 1936 1940 1944 1948 1952 1956 1960 1964 1968 1972 1976 1980 1984 1988 1992 1996 2000 2004 2008 2012 2016 2020 2024 2028 2032 2036 2040 2044 2048 2052 2056 2060 2064 2068 2072 2076 2080 2084 2088 2092 2096 2100 2104 2108 2112 2116 2120 2124 2128 2132 2136 2140 2144 2148 2152 2156 2160 2164 2168 2172 2176 2180 2184 2188 2192 2196 2200 2204 2208 2212 2216 2220 2224 2228 2232 2236 2240 2244 2248 2252 2256 2260 2264 2268 2272 2276 2280 2284 2288 2292 2296 2300 2304 2308 2312 2316 2320 2324 2328 2332 2336 2340 2344 2348 2352 2356 2360 2364 2368 2372 2376 2380 2384 2388 2392 2396 2400 2404 2408 2412 2416 2420 2424 2428 2432 2436 2440 2444 2448 2452 2456 2460 2464 2468 2472 2476 2480 2484 2488 2492 2496 2500 2504 2508 2512 2516 2520 2524 2528 2532 2536 2540 2544 2548 2552 2556 2560 2564 2568 2572 2576 2580 2584 2588 2592 2596 2600 2604 2608 2612 2616 2620 2624 2628 2632 2636 2640 2644 2648 2652 2656 2660 2664 2668 2672 2676 2680 2684 2688 2692 2696 2700 2704 2708 2712 2716 2720 2724 2728 2732 2736 2740 2744 2748 2752 2756 2760 2764 2768 2772 2776 2780 2784 2788 2792 2796 2800 2804 2808 2812 2816 2820 2824 2828 2832 2836 2840 2844 2848 2852 2856 2860 2864 2868 2872 2876 
</DataArray>
<DataArray type="UInt32" Name="types" format="ascii">
10 10 10 10 10 10 10 10 10 10 10 10 10 10 10 10 10 10 10 10 10 10 10 10 10 10 10 10 10 10 10 10 10 10 10 10 10 10 10 10 10 10 10 10 10 10 10 10 10 10 10 10 10 10 10 10 10 10 10 10 10 10 10 10 10 10 10 10 10 10 10 10 10 10 10 10 10 10 10 10 10 10 10 10 10 10 10 10 10 10 10 10 10 10 10 10 10 10 10 10 10 10 10 10 10 10 10 10 10 10 10 10 10 10 10 10 10 10 10 10 10 10 10 10 10 10 10 10 10 10 10 10 10 10 10 10 10 10 10 10 10 10 10 10 10 10 10 10 10 10 10 10 10 10 10 10 10 10 10 10 10 10 10 10 10 10 10 10 10 10 10 10 10 10 10 10 10 10 10 10 10 10 10 10 10 10 10 10 10 10 10 10 10 10 10 10 10 10 10 10 10 10 10 10 10 10 10 10 10 10 10 10 10 10 10 10 10 10 10 10 10 10 10 10 10 10 10 10 10 10 10 10 10 10 10 10 10 10 10 10 10 10 10 10 10 10 10 10 10 10 10 10 10 10 10 10 10 10 10 10 10 10 10 10 10 10 10 10 10 10 10 10 10 10 10 10 10 10 10 10 10 10 10 10 10 10 10 10 10 10 10 10 10 10 10 10 10 10 10 10 10 10 10 10 10 10 10 10 10 10 10 10 10 10 10 10 10 10 10 10 10 10 10 10 10 10 10 10 10 10 10 10 10 10 10 10 10 10 10 10 10 10 10 10 10 10 10 10 10 10 10 10 10 10 10 10 10 10 10 10 10 10 10 10 10 10 10 10 10 10 10 10 10 10 10 10 10 10 10 10 10 10 10 10 10 10 10 10 10 10 10 10 10 10 10 10 10 10 10 10 10 10 10 10 10 10 10 10 10 10 10 10 10 10 10 10 10 10 10 10 10 10 10 10 10 10 10 10 10 10 10 10 10 10 10 10 10 10 10 10 10 10 10 10 10 10 10 10 10 10 10 10 10 10 10 10 10 10 10 10 10 10 10 10 10 10 10 10 10 10 10 10 10 10 10 10 10 10 10 10 10 10 10 10 10 10 10 10 10 10 10 10 10 10 10 10 10 10 10 10 10 10 10 10 10 10 10 10 10 10 10 10 10 10 10 10 10 10 10 10 10 10 10 10 10 10 10 10 10 10 10 10 10 10 10 10 10 10 10 10 10 10 10 10 10 10 10 10 10 10 10 10 10 10 10 10 10 10 10 10 10 10 10 10 10 10 10 10 10 10 10 10 10 10 10 10 10 10 10 10 10 10 10 10 10 10 10 10 10 10 10 10 10 10 10 10 10 10 10 10 10 10 10 10 10 10 10 10 10 10 10 10 10 10 10 10 10 10 10 10 10 10 10 10 10 10 10 10 10 10 10 10 10 10 10 10 10 10 10 10 10 10 10 10 10 10 10 10 10 10 10 10 10 10 10 10 10 10 10 10 10 10 10 10 10 10 10 10 10 10 10 10 10 10 10 10 10 10 10 10 10 10 10 10 10 10 10 10 10 10 10 10 10 10 10 10 10 10 10 10 10 10 10 10 10 10 10 10 10 10 10 10 10 10 10 10 10 10 10 
</DataArray>
</Cells>
<PointData Scalars="" Vectors="displacement," Tensors="">
<DataArray type="Float64" Name="displacement" NumberOfComponents="3" format="ascii">
0.14300606390028697 -3.3333117702632477e-06 -1.3620872998770498e-05 0.076589698418823016 -2.2515538426195405e-06 -1.3118403215527923e-05 0.066235848961200369 -3.5228127220387985e-06 -1.0484828279364324e-05 0.14140886480970463 -1.6976087965988891e-06 -0.23369617389400457 2.5233860546941313e-10 -3.543160208668984e-06 -1.3084158094491097e-05 2.1390747506246985e-10 -5.2933112551874336e-06 -1.412334428836208e-05 0.066235848961200369 -3.5228127220387985e-06 -1.0484828279360175e-05 -3.0265182251884456e-10 -3.3269558055059524e-06 -0.10946925572609301 2.1390747506246991e-10 -5.2933112551874336e-06 -1.4123344288353223e-05 0.090478740769812535 -5.7820719736777839e-06 -1.4866751575521228e-05 0.066235848961200369 -3.5228127220387985e-06 -1.0484828279360175e-05 0.066235776070291075 -3.8708455920590328e-06 -0.10946946674982524 -3.0265182251884456e-10 -3.3269558055059524e-06 -0.10946925572609301 1.0673567267664604e-10 -5.0425702963082781e-06 -0.14953374134116937 2.1390747506246991e-10 -5.2933112551874336e-06 -1.4123344288353223e-05 0.066235776070291075 -3.8708455920590328e-06 -0.10946946674982524 -3.0265182251884456e-10 -3.3269558055059524e-06 -0.10946925572609301 -1.1350998225011167e-10 -1.6379445107043362e-06 -0.12658073938131228 2.5820642756331143e-12 -3.1752910690425579e-06 -0.23633573801351826 0.14140886480970469 -1.6976087965988883e-06 -0.23369617389400452 0.14286052960874707 -5.2198038828329373e-06 -0.13946308321157194 0.066235776070291061 -3.8708455920590328e-06 -0.10946946674982523 0.076628291090771739 -4.8975923610804606e-06 -0.22437898496584899 0.14140886480970463 -1.6976087965988891e-06 -0.23369617389400457 -3.0265182251884456e-10 -3.3269558055059524e-06 -0.10946925572609301 2.1390746970227962e-10 -5.2933112551874328e-06 -1.4123344288348793e-05 0.066235848961200369 -3.5228127220387985e-06 -1.0484828279360175e-05 0.066235776070291075 -3.8708455920590328e-06 -0.10946946674982524 0.066235848961200369 -3.5228127220387985e-06 -1.0484828279360175e-05 0.066235776070291075 -3.8708455920590328e-06 -0.10946946674982529 0.14286052960874707 -5.2198038828329373e-06 -0.13946308321157194 0.14140886480970463 -1.6976087965988891e-06 -0.23369617389400457 0.066235848961200369 -3.5228127220387985e-06 -1.0484828279360175e-05 -1.1350997969158229e-10 -1.6379445107043355e-06 -0.12658073938131226 -3.0265181739737596e-10 -3.3269558055059529e-06 -0.10946925572609302 0.14140886480970463 -1.6976087965988891e-06 -0.23369617389400457 0.066235848961200369 -3.5228127220387985e-06 -1.0484828279360175e-05 -3.0265182191269643e-10 -3.3269558055059524e-06 -0.10946925572609299 0.066235776070291075 -3.8708455920590328e-06 -0.10946946674982524 0.14140886480970463 -1.6976087965988889e-06 -0.23369617389400457 -3.0265182251884456e-10 -3.3269558055059524e-06 -0.10946925572609301 0.076628291090771752 -4.8975923610804606e-06 -0.22437898496584896 0.066235776070291075 -3.8708455920590328e-06 -0.10946946674982524 0.14140886480970466 -1.6976087965988893e-06 -0.23369617389400463 0.066235776070291075 -3.8708455920590328e-06 -0.10946946674982524 -3.0265182163287539e-10 -3.3269558055059524e-06 -0.10946925572609301 1.0673566339251904e-10 -5.0425702963082781e-06 -0.14953374134116937 0.076628291090771739 -4.8975923610804606e-06 -0.22437898496584899 2.5820642756331143e-12 -3.1752910690425579e-06 -0.23633573801351826 1.0673566339251904e-10 -5.0425702963082781e-06 -0.14953374134116937 -3.0265182251884456e-10 -3.3269558055059524e-06 -0.10946925572609301 0.076628291090771739 -4.8975923610804606e-06 -0.22437898496584899 -3.0265182251884456e-10 -3.3269558055059524e-06 -0.10946925572609301 0.066235848961200369 -3.5228127220387985e-06 -1.0484828279360175e-05 2.5233860546941313e-10 -3.543160208668984e-06 -1.3084158094490385e-05 -1.1350998225011167e-10 -1.6379445107043362e-06 -0.12658073938131228 -1.1350998225011167e-10 -1.6379445107043362e-06 -0.12658073938131228 0.066235848961200383 -3.5228127220387981e-06 -1.0484828279391693e-05 2.5233860546941313e-10 -3.543160208668984e-06 -1.3084158094491097e-05 0.076589698418823016 -2.2515538426195405e-06 -1.3118403215527923e-05 0.090478740769812535 -5.7820719736777839e-06 -1.4866751575521228e-05 0.066235848961200355 -3.5228127220387985e-06 -1.0484828279372357e-05 0.14286052960874707 -5.2198038828329373e-06 -0.13946308321157194 0.14300606390028697 -3.3333117702632477e-06 -1.3620872998770498e-05 0.090478740769812535 -5.7820719736777839e-06 -1.4866751575521228e-05 0.066235848961200369 -3.5228127220387985e-06 -1.0484828279360072e-05 0.066235776070291061 -3.8708455920590319e-06 -0.10946946674982526 0.14286052960874707 -5.2198038828329373e-06 -0.13946308321157194 0.14286052960874707 -5.2198038828329373e-06 -0.13946308321157194 0.18095917225266553 -5.301288700710817e-06 -1.7602067413750924e-05 0.090478740769812535 -5.7820719736777839e-06 -1.486675157552807e-05 0.14300606390028697 -3.3333117702632477e-06 -1.3620872998770498e-05 0.14286052960874707 -5.2198038828329373e-06 -0.13946308321157194 0.14300606390028697 -3.3333117702632477e-06 -1.3620872998771031e-05 0.066235848961200341 -3.5228127220387981e-06 -1.0484828279367107e-05 0.1414088648097046 -1.6976087965988887e-06 -0.23369617389400454 0.14300606390028697 -3.3333117702632477e-06 -1.3620872998770498e-05 0.1414088648097046 -1.6976087965988891e-06 -0.2336961738940046 0.14286052960874704 -5.2198038828329373e-06 -0.13946308321157194 0.226379894435842 -3.4194094836257693e-06 -0.16885316456399896 0.14300606390028697 -3.3333117702632477e-06 -1.3620872998770498e-05 0.22344745319704531 -4.9112702969296861e-06 -0.098979626598148102 0.23057277196796691 -3.1638959812411186e-06 -1.2742267191688474e-05 0.22637989443584197 -3.4194094836257689e-06 -0.16885316456399901 0.14300606390028697 -3.3333117702632477e-06 -1.3620872998770498e-05 0.23057277196796691 -3.1638959812411186e-06 -1.2742267191711443e-05 0.20725392975022658 -1.9819092859140732e-06 -1.0991663659009338e-05 0.22637989443584194 -3.4194094836257698e-06 -0.16885316456399899 0.22344745319704534 -4.911270296929687e-06 -0.098979626598148143 0.18095917225266553 -5.301288700710817e-06 -1.7602067413750924e-05 0.143006063900287 -3.3333117702632486e-06 -1.3620872998722122e-05 0.23057277196796691 -3.1638959812411186e-06 -1.2742267191688474e-05 0.22344745319704534 -4.911270296929687e-06 -0.098979626598148143 0.18095917225266553 -5.301288700710817e-06 -1.7602067413750924e-05 0.14286052960874707 -5.2198038828329373e-06 -0.13946308321157194 0.143006063900287 -3.3333117702632494e-06 -1.3620872998757104e-05 0.14286052960874707 -5.2198038828329373e-06 -0.13946308321157194 0.21574089098275745 -6.0128665280115097e-06 -0.23731113599681114 0.22344745319704534 -4.911270296929687e-06 -0.098979626598148143 0.22637989443584194 -3.4194094836257693e-06 -0.16885316456399896 0.14300606390028697 -3.3333117702632477e-06 -1.3620872998770498e-05 0.14286052960874707 -5.2198038828329373e-06 -0.13946308321157189 0.22344745319704531 -4.9112702969296861e-06 -0.098979626598148171 0.22637989443584194 -3.4194094836257685e-06 -0.16885316456399901 0.14038042364143041 -4.1918698930495857e-06 -0.40506306480308973 0.22653183170620358 -2.6190254589385634e-06 -0.39539491481799288 0.1454285292852848 -4.5251923814837334e-06 -0.28962047798669716 0.099928949133755565 -2.6401087815954378e-06 -0.37385048821119149 0.1454285292852848 -4.5251923814837334e-06 -0.28962047798669716 0.14140886480970463 -1.6976087965988891e-06 -0.23369617389400457 0.076628291090771739 -4.8975923610804606e-06 -0.22437898496584899 0.099928949133755551 -2.6401087815954382e-06 -0.37385048821119149 0.1454285292852848 -4.5251923814837334e-06 -0.28962047798669716 0.22653183170620356 -2.619025458938563e-06 -0.39539491481799283 0.14140886480970466 -1.6976087965988893e-06 -0.23369617389400457 0.099928949133755565 -2.6401087815954382e-06 -0.37385048821119149 0.1454285292852848 -4.5251923814837334e-06 -0.28962047798669716 0.22653183170620358 -2.619025458938563e-06 -0.39539491481799288 0.21574089098275748 -6.0128665280115105e-06 -0.23731113599681114 0.22637989443584194 -3.4194094836257693e-06 -0.16885316456399896 0.1454285292852848 -4.5251923814837334e-06 -0.28962047798669716 0.14140886480970469 -1.6976087965988893e-06 -0.23369617389400454 0.22653183170620358 -2.6190254589385634e-06 -0.39539491481799288 0.22637989443584189 -3.4194094836257685e-06 -0.16885316456399896 0.1454285292852848 -4.5251923814837334e-06 -0.28962047798669716 0.14286052960874704 -5.2198038828329373e-06 -0.13946308321157191 0.076628291090771739 -4.8975923610804606e-06 -0.22437898496584899 0.14140886480970463 -1.6976087965988891e-06 -0.23369617389400457 0.14286052960874707 -5.2198038828329373e-06 -0.13946308321157194 0.14140886480970463 -1.6976087965988891e-06 -0.23369617389400457 0.1454285292852848 -4.5251923814837334e-06 -0.28962047798669716 0.22637989443584194 -3.4194094836257693e-06 -0.16885316456399896 0.14286052960874707 -5.2198038828329373e-06 -0.13946308321157194 0.1454285292852848 -4.5251923814837334e-06 -0.28962047798669716 0.21574089098275748 -6.0128665280115114e-06 -0.23731113599681114 0.22637989443584194 -3.4194094836257693e-06 -0.16885316456399896 0.14038042364143041 -4.1918698930495857e-06 -0.40506306480308973 0.22619885663055506 -5.1965511607049874e-06 -0.35915014205715967 0.1454285292852848 -4.5251923814837334e-06 -0.28962047798669716 0.22653183170620358 -2.6190254589385642e-06 -0.39539491481799288 0.1454285292852848 -4.5251923814837334e-06 -0.28962047798669716 0.22619885663055506 -5.1965511607049874e-06 -0.35915014205715967 0.21574089098275745 -6.0128665280115097e-06 -0.23731113599681114 0.22653183170620358 -2.6190254589385634e-06 -0.39539491481799288 0.074060610542187544 -4.8812155743605547e-06 -0.3653406491458514 0.14038042364143041 -4.1918698930495857e-06 -0.40506306480308973 0.1454285292852848 -4.5251923814837334e-06 -0.28962047798669716 0.099928949133755565 -2.6401087815954382e-06 -0.37385048821119149 0.074060610542187544 -4.8812155743605547e-06 -0.3653406491458514 0.1454285292852848 -4.5251923814837334e-06 -0.28962047798669716 0.076628291090771739 -4.8975923610804606e-06 -0.22437898496584899 0.099928949133755565 -2.6401087815954382e-06 -0.37385048821119149 0.076628291090771739 -4.8975923610804606e-06 -0.22437898496584899 -3.0265182251884456e-10 -3.3269558055059524e-06 -0.10946925572609301 2.5820596585450607e-12 -3.1752910690425583e-06 -0.23633573801351826 0.14140886480970463 -1.6976087965988889e-06 -0.23369617389400452 2.5820642756331143e-12 -3.1752910690425579e-06 -0.23633573801351826 0.074060610542187516 -4.8812155743605556e-06 -0.3653406491458514 0.076628291090771739 -4.8975923610804606e-06 -0.22437898496584899 0.099928949133755593 -2.6401087815954378e-06 -0.37385048821119149 2.5820642756331143e-12 -3.1752910690425579e-06 -0.23633573801351826 0.076628291090771725 -4.8975923610804606e-06 -0.22437898496584899 0.14140886480970463 -1.6976087965988889e-06 -0.23369617389400457 0.099928949133755565 -2.6401087815954378e-06 -0.37385048821119155 9.923878521648374e-11 -5.8783154850777977e-06 -0.29905439039809256 1.4551448445376691e-10 -6.6216579954622113e-06 -0.44857483927914782 0.074060610542187544 -4.8812155743605547e-06 -0.3653406491458514 -6.8805456131890634e-11 -3.8714948435333116e-06 -0.38104230391771904 9.923878521648374e-11 -5.8783154850777977e-06 -0.29905439039809256 2.5820642756331143e-12 -3.1752910690425579e-06 -0.23633573801351826 0.074060610542187544 -4.8812155743605547e-06 -0.3653406491458514 0.076628291090771739 -4.8975923610804606e-06 -0.22437898496584899 0.074060610542187544 -4.8812155743605547e-06 -0.3653406491458514 2.5820704479371323e-12 -3.1752910690425579e-06 -0.23633573801351823 9.9238785396817217e-11 -5.8783154850777977e-06 -0.29905439039809256 -6.8805456131890634e-11 -3.8714948435333116e-06 -0.38104230391771904 2.5820642756331143e-12 -3.1752910690425579e-06 -0.23633573801351826 9.9238799121445206e-11 -5.8783154850777977e-06 -0.29905439039809256 1.0673566339251904e-10 -5.0425702963082781e-06 -0.14953374134116937 0.076628291090771739 -4.8975923610804606e-06 -0.22437898496584899 2.5820642756331143e-12 -3.1752910690425579e-06 -0.23633573801351826 -6.8805456131890634e-11 -3.8714948435333116e-06 -0.38104230391771904 0.074060610542187544 -4.8812155743605547e-06 -0.3653406491458514 0.099928949133755593 -2.6401087815954374e-06 -0.37385048821119149 2.5820642756331143e-12 -3.1752910690425579e-06 -0.23633573801351826 -2.4472843855072245e-11 -1.8627966982154283e-06 -0.34250760745174758 -6.8805452579017114e-11 -3.8714948435333116e-06 -0.38104230391771904 0.099928949133755593 -2.6401087815954378e-06 -0.37385048821119143 -1.1350998225011167e-10 -1.6379445107043362e-06 -0.12658073938131228 5.8649088777036707e-11 -8.7809212572515108e-07 -0.24616381528734363 2.5820642756331143e-12 -3.1752910690425579e-06 -0.23633573801351826 0.14140886480970463 -1.6976087965988891e-06 -0.23369617389400457 -2.4472846323060767e-11 -1.8627966982154279e-06 -0.34250760745174758 0.14140886480970463 -1.6976087965988893e-06 -0.23369617389400452 0.11205544633452627 3.2147483549732888e-07 -0.33717063617942594 0.099928949133755565 -2.6401087815954382e-06 -0.37385048821119149 2.5820642756331143e-12 -3.1752910690425579e-06 -0.23633573801351826 5.8649093798440014e-11 -8.7809212572515108e-07 -0.24616381528734363 -2.4472846636898474e-11 -1.8627966982154279e-06 -0.34250760745174758 0.14140886480970463 -1.6976087965988891e-06 -0.23369617389400457 5.8649088777036707e-11 -8.7809212572515108e-07 -0.24616381528734363 0.11205544633452628 3.2147483549732877e-07 -0.33717063617942594 0.14140886480970463 -1.6976087965988891e-06 -0.23369617389400457 0.10109254550238678 1.3767948515969365e-07 -0.16707257477002524 -2.4472846323060767e-11 -1.8627966982154279e-06 -0.34250760745174758 0.14140886480970463 -1.6976087965988898e-06 -0.23369617389400454 5.8649088777036707e-11 -8.7809212572515108e-07 -0.24616381528734363 0.11205544633452627 3.2147483549732888e-07 -0.33717063617942594 -1.1350998225011167e-10 -1.6379445107043362e-06 -0.12658073938131228 5.8649088777036707e-11 -8.7809212572515108e-07 -0.24616381528734363 0.14140886480970463 -1.6976087965988898e-06 -0.2336961738940046 0.10109254550238675 1.3767948515969306e-07 -0.16707257477002535 2.5820642756331143e-12 -3.1752910690425579e-06 -0.23633573801351826 0.14140886480970463 -1.6976087965988889e-06 -0.23369617389400457 -2.4472847489310965e-11 -1.8627966982154277e-06 -0.34250760745174758 0.099928949133755593 -2.6401087815954387e-06 -0.37385048821119149 -2.4472846323060767e-11 -1.8627966982154279e-06 -0.34250760745174758 5.8649085288349404e-11 -8.7809212572515118e-07 -0.24616381528734366 -2.1345117389425489e-11 3.6853755799612144e-08 -0.38847920603421959 0.11205544633452627 3.2147483549732888e-07 -0.33717063617942594 0.22619892886928009 -2.3452065275424338e-08 -0.37381437153063996 0.22653183170620358 -2.6190254589385634e-06 -0.39539491481799283 0.14140886480970458 -1.6976087965988891e-06 -0.23369617389400452 0.22638180992008103 -3.4219472022081751e-07 -0.18663793408543666 0.11205544633452627 3.2147483549732888e-07 -0.33717063617942594 0.226381809920081 -3.4219472022081804e-07 -0.18663793408543672 0.14140886480970463 -1.6976087965988887e-06 -0.23369617389400454 0.10109254550238678 1.3767948515969381e-07 -0.16707257477002529 0.14140886480970463 -1.6976087965988891e-06 -0.23369617389400457 0.22638180992008103 -3.4219472022081746e-07 -0.18663793408543669 0.22653183170620356 -2.6190254589385634e-06 -0.39539491481799288 0.22637989443584194 -3.4194094836257693e-06 -0.16885316456399899 0.22619892886928009 -2.3452065275424338e-08 -0.37381437153063996 0.11205544633452627 3.2147483549732888e-07 -0.33717063617942594 0.14140886480970469 -1.6976087965988889e-06 -0.23369617389400449 0.22653183170620358 -2.6190254589385634e-06 -0.39539491481799288 0.14140886480970463 -1.6976087965988891e-06 -0.23369617389400457 0.11205544633452627 3.2147483549732888e-07 -0.33717063617942594 0.22619892886928009 -2.3452065275424623e-08 -0.37381437153064007 0.22638180992008103 -3.4219472022081746e-07 -0.18663793408543672 0.14140886480970463 -1.6976087965988891e-06 -0.23369617389400457 0.22653183170620358 -2.6190254589385634e-06 -0.39539491481799294 0.11205544633452627 3.2147483549732898e-07 -0.33717063617942594 0.099928949133755565 -2.6401087815954382e-06 -0.37385048821119149 0.14895332819698023 -1.1772136150919474e-06 -1.5131315677798344e-05 0.14140886480970463 -1.6976087965988898e-06 -0.23369617389400457 0.20725392975022658 -1.9819092859140732e-06 -1.0991663659010727e-05 0.22638180992008103 -3.4219472022081746e-07 -0.18663793408543672 0.14895332819698023 -1.1772136150919474e-06 -1.5131315677798344e-05 0.22638180992008103 -3.4219472022081746e-07 -0.18663793408543672 0.14678802555338136 1.1488715220033267e-06 -1.5869398263816877e-05 0.10109254550238678 1.3767948515969381e-07 -0.16707257477002529 0.20725392975022658 -1.9819092859140732e-06 -1.0991663659009338e-05 0.22638180992008103 -3.4219472022081746e-07 -0.18663793408543672 0.1414088648097046 -1.6976087965988883e-06 -0.23369617389400457 0.226379894435842 -3.4194094836257698e-06 -0.16885316456399893 0.20725392975022658 -1.9819092859140732e-06 -1.0991663659009338e-05 0.14895332819698023 -1.1772136150919474e-06 -1.5131315677798344e-05 0.14300606390028697 -3.3333117702632477e-06 -1.3620872998770498e-05 0.14140886480970463 -1.6976087965988891e-06 -0.23369617389400457 0.076589698418823016 -2.2515538426195405e-06 -1.3118403215527923e-05 0.1414088648097046 -1.6976087965988891e-06 -0.23369617389400457 0.14895332819698023 -1.1772136150919474e-06 -1.5131315677798344e-05 0.10109254550238678 1.3767948515969381e-07 -0.16707257477002529 0.14300606390028697 -3.3333117702632477e-06 -1.3620872998770498e-05 0.20725392975022658 -1.9819092859140732e-06 -1.0991663659009338e-05 0.1414088648097046 -1.6976087965988887e-06 -0.23369617389400457 0.22637989443584197 -3.4194094836257702e-06 -0.16885316456399899 0.14895332819698023 -1.1772136150919474e-06 -1.5131315677798344e-05 0.14140886480970463 -1.6976087965988906e-06 -0.23369617389400457 0.22638180992008103 -3.4219472022081746e-07 -0.18663793408543672 0.1010925455023868 1.3767948515969447e-07 -0.16707257477002527 0.14895332819698023 -1.1772136150919474e-06 -1.5131315677798344e-05 0.076589698418823016 -2.2515538426195409e-06 -1.3118403215524955e-05 0.14300606390028697 -3.3333117702632477e-06 -1.3620872998770498e-05 0.1414088648097046 -1.6976087965988891e-06 -0.23369617389400463 0.14678802555338136 1.1488715220033267e-06 -1.5869398263816877e-05 0.14895332819698023 -1.1772136150919474e-06 -1.5131315677798344e-05 0.23507346707675242 2.5063337896829052e-07 -1.4050883435834513e-05 0.22638180992008103 -3.4219472022081746e-07 -0.18663793408543672 0.23507346707675242 2.5063337896829052e-07 -1.4050883435834513e-05 0.14895332819698023 -1.1772136150919474e-06 -1.5131315677798344e-05 0.20725392975022658 -1.9819092859140732e-06 -1.0991663659009338e-05 0.22638180992008103 -3.4219472022081746e-07 -0.18663793408543672 -1.1350998225011167e-10 -1.6379445107043362e-06 -0.12658073938131228 0.066235848961200369 -3.5228127220387985e-06 -1.0484828279360175e-05 0.076589698418823016 -2.2515538426195405e-06 -1.3118403215526098e-05 0.14140886480970463 -1.6976087965988891e-06 -0.23369617389400457 -1.1350998225011167e-10 -1.6379445107043362e-06 -0.12658073938131228 0.14140886480970463 -1.6976087965988904e-06 -0.2336961738940046 0.076589698418823016 -2.2515538426195405e-06 -1.3118403215521077e-05 0.10109254550238676 1.3767948515969365e-07 -0.16707257477002529 0.077930685535308672 -7.3088172231354398e-08 -1.4297213498810704e-05 -1.1761022688257003e-10 -3.2986004608675814e-08 -0.12879799733109137 0.076589698418823016 -2.2515538426195405e-06 -1.3118403215527923e-05 0.10109254550238678 1.3767948515969381e-07 -0.16707257477002529 0.077930685535308672 -7.3088172231354398e-08 -1.4297213498810704e-05 0.076589698418823016 -2.2515538426195405e-06 -1.3118403215527923e-05 0.14895332819698023 -1.1772136150919474e-06 -1.5131315677798344e-05 0.10109254550238678 1.3767948515969381e-07 -0.16707257477002529 -1.1350998225011167e-10 -1.6379445107043362e-06 -0.12658073938131228 2.5233860546941313e-10 -3.543160208668984e-06 -1.3084158094491097e-05 2.9701669720766697e-10 -1.453839517957917e-06 -1.6700308739887683e-05 0.076589698418823016 -2.2515538426195405e-06 -1.3118403215527923e-05 -1.1350998225011167e-10 -1.6379445107043362e-06 -0.12658073938131228 2.9701669720766697e-10 -1.453839517957917e-06 -1.6700308739887683e-05 -1.1761023151812397e-10 -3.2986004608675722e-08 -0.12879799733109137 0.076589698418823016 -2.2515538426195405e-06 -1.3118403215527923e-05 -1.1350998225011167e-10 -1.6379445107043362e-06 -0.12658073938131228 0.076589698418823016 -2.2515538426195405e-06 -1.3118403215527923e-05 -1.1761022688257003e-10 -3.2986004608675814e-08 -0.12879799733109137 0.10109254550238676 1.3767948515969365e-07 -0.16707257477002527 -1.1350998225011167e-10 -1.6379445107043362e-06 -0.12658073938131228 -1.1761022688257003e-10 -3.2986004608675814e-08 -0.12879799733109137 5.8649087224221789e-11 -8.7809212572515108e-07 -0.24616381528734363 0.10109254550238675 1.3767948515969381e-07 -0.16707257477002532 -1.1761022688257003e-10 -3.2986004608675814e-08 -0.12879799733109137 2.9701669272635226e-10 -1.4538395179579168e-06 -1.6700308739876637e-05 1.5828903860971096e-10 1.3139276045595633e-06 -1.5590411932203583e-05 0.077930685535308672 -7.3088172231354398e-08 -1.4297213498810704e-05 0.076589698418823016 -2.2515538426195405e-06 -1.3118403215527923e-05 2.9701669720766697e-10 -1.453839517957917e-06 -1.6700308739887683e-05 -1.1761022688257003e-10 -3.2986004608675814e-08 -0.12879799733109137 0.077930685535308672 -7.3088172231354398e-08 -1.4297213498810704e-05 -2.2498792867291477e-11 1.7588588696946077e-06 -0.11885874395293201 1.9080221858799147e-11 9.6393279253246327e-07 -0.24258536956132229 0.1010925455023868 1.376794851596933e-07 -0.16707257477002529 0.087127708449082575 2.5716608514598498e-06 -0.1439942675992468 0.071916848517190698 1.9965939499735975e-06 -1.3050958064027989e-05 -2.2498793949226444e-11 1.7588588696946077e-06 -0.118858743952932 0.10109254550238678 1.3767948515969375e-07 -0.16707257477002532 0.087127708449082575 2.5716608514598498e-06 -0.14399426759924683 -2.2498792867291477e-11 1.7588588696946077e-06 -0.11885874395293201 0.077930685535308672 -7.3088172231354398e-08 -1.4297213498810704e-05 1.5828903898392682e-10 1.3139276045595633e-06 -1.5590411932202963e-05 0.071916848517190698 1.9965939499735975e-06 -1.3050958064027989e-05 0.14678802555338136 1.1488715220033267e-06 -1.5869398263816877e-05 0.071916848517190698 1.9965939499735975e-06 -1.3050958064027989e-05 0.10109254550238679 1.3767948515969386e-07 -0.16707257477002532 0.087127708449082575 2.5716608514598502e-06 -0.14399426759924683 1.5828903860971096e-10 1.3139276045595633e-06 -1.5590411932203583e-05 -1.1761022688257003e-10 -3.2986004608675814e-08 -0.12879799733109137 0.077930685535308672 -7.3088172231354358e-08 -1.4297213498814982e-05 -2.2498792867291477e-11 1.7588588696946077e-06 -0.11885874395293201 -2.2498792867291477e-11 1.7588588696946077e-06 -0.11885874395293201 1.5828903860971096e-10 1.3139276045595633e-06 -1.5590411932203583e-05 8.9094121717587318e-11 3.3787917633314478e-06 -1.2683356820461382e-05 0.071916848517190698 1.9965939499735975e-06 -1.3050958064027989e-05 0.14054729250144707 3.632483788051212e-06 -1.4129769613850013e-05 0.071916848517190698 1.9965939499735979e-06 -1.3050958064024643e-05 0.14678802555338136 1.1488715220033267e-06 -1.5869398263820245e-05 0.087127708449082575 2.5716608514598502e-06 -0.14399426759924683 0.14678802555338136 1.1488715220033267e-06 -1.5869398263816877e-05 0.071916848517190698 1.9965939499735975e-06 -1.3050958064027989e-05 0.077930685535308672 -7.3088172231354398e-08 -1.4297213498810704e-05 0.10109254550238678 1.3767948515969381e-07 -0.16707257477002529 0.071916848517190698 1.9965939499735975e-06 -1.3050958064027989e-05 -2.2498794990397741e-11 1.7588588696946077e-06 -0.118858743952932 0.077930685535308672 -7.3088172231354398e-08 -1.4297213498810704e-05 0.10109254550238678 1.3767948515969381e-07 -0.16707257477002529 -2.2498792867291477e-11 1.7588588696946077e-06 -0.11885874395293201 1.641894139079851e-11 3.3471475511357895e-06 -0.23227172433193496 1.9080221858799147e-11 9.6393279253246327e-07 -0.24258536956132229 0.087127708449082561 2.5716608514598506e-06 -0.14399426759924683 -1.1761022688257003e-10 -3.2986004608675814e-08 -0.12879799733109137 -2.2498792867291477e-11 1.7588588696946077e-06 -0.11885874395293201 1.9080221858799147e-11 9.6393279253246327e-07 -0.24258536956132229 0.10109254550238678 1.3767948515969381e-07 -0.16707257477002529 -1.1761022688257003e-10 -3.2986004608675814e-08 -0.12879799733109137 0.077930685535308686 -7.3088172231354385e-08 -1.4297213498814213e-05 -2.2498792867291477e-11 1.7588588696946077e-06 -0.11885874395293201 0.10109254550238678 1.3767948515969381e-07 -0.16707257477002529 1.9080221858799147e-11 9.6393279253246327e-07 -0.24258536956132229 0.10186607222497057 3.0104793302996286e-06 -0.36026243520608153 0.16217844158062017 2.01428961761065e-06 -0.2245173343130058 0.087127708449082575 2.5716608514598498e-06 -0.1439942675992468 1.9080221858799147e-11 9.6393279253246327e-07 -0.24258536956132229 0.1120554463345263 3.2147483549732877e-07 -0.33717063617942589 5.8649088777036707e-11 -8.7809212572515108e-07 -0.24616381528734363 0.1010925455023868 1.3767948515969394e-07 -0.16707257477002529 1.9080221858799147e-11 9.6393279253246327e-07 -0.24258536956132229 1.6418945465711928e-11 3.3471475511357895e-06 -0.23227172433193496 0.10186607222497057 3.0104793302996286e-06 -0.36026243520608159 0.087127708449082561 2.5716608514598502e-06 -0.1439942675992468 0.16217844158062017 2.01428961761065e-06 -0.2245173343130058 0.1010925455023868 1.3767948515969391e-07 -0.16707257477002524 1.9080225400467258e-11 9.639327925324637e-07 -0.24258536956132232 0.087127708449082561 2.5716608514598502e-06 -0.14399426759924677 -1.1761022688257003e-10 -3.2986004608675814e-08 -0.12879799733109137 1.9080222305854528e-11 9.6393279253246327e-07 -0.24258536956132226 5.8649088777036707e-11 -8.7809212572515108e-07 -0.24616381528734363 0.10109254550238678 1.3767948515969381e-07 -0.16707257477002529 1.9080221858799147e-11 9.6393279253246327e-07 -0.24258536956132229 0.11205544633452627 3.2147483549732909e-07 -0.337170636179426 0.16217844158062017 2.01428961761065e-06 -0.2245173343130058 0.10186607222497059 3.0104793302996277e-06 -0.36026243520608159 0.16217844158062017 2.01428961761065e-06 -0.2245173343130058 0.11205544633452626 3.214748354973293e-07 -0.337170636179426 1.9080208154099952e-11 9.639327925324637e-07 -0.24258536956132232 0.10109254550238682 1.3767948515969362e-07 -0.16707257477002529 5.8649088777036707e-11 -8.7809212572515108e-07 -0.24616381528734363 1.908021552202735e-11 9.6393279253246327e-07 -0.24258536956132229 -2.1345117389425489e-11 3.6853755799612144e-08 -0.38847920603421959 0.11205544633452627 3.2147483549732888e-07 -0.33717063617942594 1.3826707026408644e-11 2.024218737135154e-06 -0.3414027924910058 -2.1345117389425489e-11 3.6853755799612144e-08 -0.38847920603421959 1.9080221858799147e-11 9.6393279253246327e-07 -0.24258536956132229 0.11205544633452627 3.2147483549732888e-07 -0.33717063617942594 9.8579311108963177e-12 1.7411091620546848e-06 -0.44815814549788013 0.11205544633452628 3.214748354973284e-07 -0.33717063617942594 1.3826707026408644e-11 2.024218737135154e-06 -0.3414027924910058 0.10186607222497059 3.0104793302996286e-06 -0.36026243520608153 1.9080221858799147e-11 9.6393279253246327e-07 -0.24258536956132229 1.6418945465711928e-11 3.3471475511357895e-06 -0.23227172433193496 1.382669851145597e-11 2.024218737135154e-06 -0.34140279249100575 0.10186607222497059 3.0104793302996286e-06 -0.36026243520608153 1.3826707026408644e-11 2.024218737135154e-06 -0.3414027924910058 0.11205544633452627 3.2147483549732898e-07 -0.33717063617942594 1.9080221858799147e-11 9.6393279253246327e-07 -0.24258536956132229 0.10186607222497059 3.0104793302996286e-06 -0.36026243520608153 0.076589806949958178 4.9331790071566912e-06 -0.22485368094108207 0.14895913551403203 5.7539910868273474e-06 -0.29618386964925936 0.10186607222497059 3.0104793302996286e-06 -0.36026243520608153 0.087127708449082575 2.5716608514598502e-06 -0.14399426759924683 1.6418945465711928e-11 3.3471475511357895e-06 -0.23227172433193496 0.076589806949958178 4.9331790071566912e-06 -0.22485368094108205 0.10186607222497059 3.0104793302996286e-06 -0.36026243520608153 0.087127708449082575 2.5716608514598502e-06 -0.14399426759924683 0.077930619624080294 5.3788559216394743e-06 -0.37259273406164062 -6.0598511938840033e-11 3.8767339326099437e-06 -0.37982043004889221 1.6418947532504246e-11 3.3471475511357895e-06 -0.23227172433193494 0.10186607222497059 3.0104793302996286e-06 -0.36026243520608148 1.3826707026408644e-11 2.024218737135154e-06 -0.3414027924910058 1.6418945465711928e-11 3.3471475511357895e-06 -0.23227172433193496 -6.0598487977698599e-11 3.8767339326099445e-06 -0.37982043004889221 0.10186607222497059 3.0104793302996286e-06 -0.36026243520608153 0.077930619624080294 5.3788559216394743e-06 -0.37259273406164062 9.5228944014104491e-11 6.3024709240102891e-06 -0.29905458880170638 1.6418952267268249e-11 3.3471475511357895e-06 -0.23227172433193494 -6.0598487977698625e-11 3.8767339326099437e-06 -0.37982043004889215 1.6418945465711928e-11 3.3471475511357895e-06 -0.23227172433193496 0.076589806949958178 4.9331790071566912e-06 -0.22485368094108207 9.5228944014104491e-11 6.3024709240102891e-06 -0.29905458880170638 0.077930619624080294 5.3788559216394734e-06 -0.37259273406164062 0.077930619624080294 5.3788559216394743e-06 -0.37259273406164062 1.6418932464554704e-11 3.3471475511357886e-06 -0.23227172433193491 0.076589806949958178 4.9331790071566912e-06 -0.22485368094108207 0.10186607222497056 3.0104793302996286e-06 -0.36026243520608159 0.077930619624080294 5.3788559216394743e-06 -0.37259273406164062 0.076589806949958178 4.9331790071566912e-06 -0.22485368094108207 0.14895913551403203 5.7539910868273474e-06 -0.29618386964925936 0.10186607222497059 3.0104793302996286e-06 -0.36026243520608153 9.5228944014104491e-11 6.3024709240102891e-06 -0.29905458880170638 7.7847677152448189e-11 4.9358255746890334e-06 -0.14953402743408856 0.076589806949958178 4.9331790071566912e-06 -0.22485368094108207 1.6418945465711928e-11 3.3471475511357895e-06 -0.23227172433193496 0.076589806949958178 4.9331790071566912e-06 -0.22485368094108207 7.7847659712944069e-11 4.9358255746890334e-06 -0.14953402743408853 -2.1690698761409894e-10 3.4131567432522317e-06 -0.10946950090212859 1.6418936962535226e-11 3.3471475511357899e-06 -0.23227172433193496 0.066235822962640717 3.9523815877174351e-06 -0.10946998612313805 7.7847677152448189e-11 4.9358255746890334e-06 -0.14953402743408856 -2.1690696235115473e-10 3.4131567432522317e-06 -0.10946950090212861 0.076589806949958178 4.9331790071566912e-06 -0.22485368094108207 0.090478887663843946 5.6029043636386061e-06 -1.4353268135960859e-05 1.7573034501492315e-10 5.3240495723813461e-06 -1.4364806514057524e-05 0.06623556445158138 3.5229162846748603e-06 -1.0459125316699976e-05 0.066235822962640717 3.9523815877174351e-06 -0.10946998612313805 -2.1690696278123866e-10 3.4131567432522317e-06 -0.10946950090212859 1.7573034697681624e-10 5.324049572381347e-06 -1.4364806514048668e-05 7.7847677152448189e-11 4.9358255746890334e-06 -0.14953402743408856 0.066235822962640717 3.9523815877174351e-06 -0.10946998612313805 -2.1690696278123866e-10 3.4131567432522317e-06 -0.10946950090212859 0.06623556445158138 3.5229162846748603e-06 -1.0459125316699976e-05 1.7573034697681624e-10 5.324049572381347e-06 -1.4364806514048668e-05 0.066235822962640717 3.9523815877174351e-06 -0.10946998612313805 0.06623556445158138 3.5229162846748603e-06 -1.0459125316699976e-05 1.757303394106986e-10 5.324049572381347e-06 -1.4364806514059899e-05 8.9094116780836032e-11 3.3787917633314478e-06 -1.2683356820469541e-05 -2.1690696278123866e-10 3.4131567432522317e-06 -0.10946950090212859 -2.1690696278123866e-10 3.4131567432522317e-06 -0.10946950090212859 -2.2498792867291477e-11 1.7588588696946077e-06 -0.11885874395293201 0.071916848517190712 1.9965939499735975e-06 -1.3050958064032424e-05 0.087127708449082575 2.5716608514598502e-06 -0.14399426759924683 8.9094116780836032e-11 3.3787917633314478e-06 -1.2683356820469541e-05 0.071916848517190698 1.9965939499735975e-06 -1.3050958064027989e-05 0.06623556445158138 3.5229162846748603e-06 -1.0459125316699976e-05 -2.1690696278123866e-10 3.4131567432522317e-06 -0.10946950090212859 0.066235822962640717 3.9523815877174351e-06 -0.10946998612313805 -2.1690696497039239e-10 3.4131567432522317e-06 -0.10946950090212858 0.06623556445158138 3.5229162846748599e-06 -1.0459125316696543e-05 0.087127708449082575 2.5716608514598498e-06 -0.1439942675992468 0.071916848517190698 1.9965939499735975e-06 -1.3050958064027989e-05 8.9094116780836032e-11 3.3787917633314478e-06 -1.2683356820469541e-05 -2.2498792867291477e-11 1.7588588696946077e-06 -0.11885874395293201 -2.1690696278123866e-10 3.4131567432522317e-06 -0.10946950090212859 0.071916848517190698 1.9965939499735975e-06 -1.3050958064027989e-05 0.06623556445158138 3.5229162846748603e-06 -1.0459125316691126e-05 -2.1690696278123866e-10 3.4131567432522317e-06 -0.10946950090212859 0.087127708449082575 2.5716608514598502e-06 -0.14399426759924683 0.076589806949958178 4.9331790071566912e-06 -0.22485368094108207 1.6418927169027273e-11 3.3471475511357895e-06 -0.23227172433193494 -2.1690697128441532e-10 3.4131567432522313e-06 -0.10946950090212862 0.087127708449082575 2.5716608514598502e-06 -0.14399426759924683 -2.1690696278123866e-10 3.4131567432522317e-06 -0.10946950090212859 1.6418945465711928e-11 3.3471475511357895e-06 -0.23227172433193496 -2.2498792867291477e-11 1.7588588696946077e-06 -0.11885874395293201 0.087127708449082575 2.5716608514598502e-06 -0.14399426759924683 0.066235822962640717 3.9523815877174351e-06 -0.10946998612313805 0.066235564451581394 3.5229162846748603e-06 -1.0459125316740298e-05 0.14054729250144707 3.6324837880512116e-06 -1.4129769613869559e-05 0.087127708449082575 2.5716608514598498e-06 -0.14399426759924683 0.071916848517190698 1.9965939499735975e-06 -1.3050958064027989e-05 0.14054729250144707 3.632483788051212e-06 -1.4129769613850013e-05 0.06623556445158138 3.5229162846748603e-06 -1.0459125316699976e-05 0.087127708449082575 2.5716608514598502e-06 -0.14399426759924683 0.06623556445158138 3.5229162846748603e-06 -1.0459125316699976e-05 0.14054729250144707 3.632483788051212e-06 -1.4129769613850013e-05 0.090478887663843946 5.6029043636386061e-06 -1.4353268135960859e-05 0.066235822962640717 3.9523815877174351e-06 -0.10946998612313805 0.14312014743080059 5.1747332424416733e-06 -0.14070553808597827 0.09047888766384396 5.6029043636386078e-06 -1.4353268135951703e-05 0.14054729250144707 3.632483788051212e-06 -1.4129769613850013e-05 0.066235822962640717 3.9523815877174351e-06 -0.10946998612313805 0.14054729250144707 3.632483788051212e-06 -1.4129769613850013e-05 0.14312014743080059 5.1747332424416733e-06 -0.14070553808597827 0.066235822962640703 3.9523815877174342e-06 -0.10946998612313802 0.087127708449082575 2.5716608514598498e-06 -0.14399426759924683 0.14312014743080059 5.1747332424416733e-06 -0.14070553808597827 0.076589806949958178 4.9331790071566912e-06 -0.22485368094108207 0.066235822962640717 3.9523815877174351e-06 -0.10946998612313805 0.087127708449082575 2.5716608514598502e-06 -0.14399426759924683 0.066235822962640717 3.9523815877174351e-06 -0.10946998612313805 0.076589806949958178 4.9331790071566912e-06 -0.22485368094108207 -2.1690696278123866e-10 3.4131567432522317e-06 -0.10946950090212859 0.087127708449082575 2.5716608514598502e-06 -0.14399426759924683 0.16217844158062017 2.01428961761065e-06 -0.2245173343130058 0.087127708449082589 2.5716608514598502e-06 -0.1439942675992468 0.14312014743080059 5.1747332424416733e-06 -0.14070553808597827 0.23929399994647038 3.2575689533685863e-06 -0.15572324267658635 0.14054729250144707 3.632483788051212e-06 -1.4129769613850013e-05 0.087127708449082575 2.5716608514598502e-06 -0.14399426759924683 0.1621784415806202 2.0142896176106496e-06 -0.2245173343130058 0.23929399994647038 3.2575689533685858e-06 -0.15572324267658638 0.14054729250144707 3.632483788051212e-06 -1.4129769613850013e-05 0.14312014743080059 5.1747332424416742e-06 -0.14070553808597824 0.087127708449082561 2.5716608514598498e-06 -0.14399426759924683 0.23929399994647038 3.2575689533685858e-06 -0.15572324267658635 0.14054729250144707 3.632483788051212e-06 -1.4129769613850013e-05 0.18095930560721929 6.6164437494140374e-06 -1.6744822031405647e-05 0.090478887663843946 5.6029043636386061e-06 -1.4353268135960859e-05 0.14312014743080059 5.1747332424416733e-06 -0.14070553808597827 0.14054729250144707 3.632483788051212e-06 -1.4129769613850013e-05 0.2298334662806916 3.9397607390917404e-06 -1.3710286314201547e-05 0.14312014743080059 5.1747332424416733e-06 -0.14070553808597827 0.23929399994647038 3.2575689533685854e-06 -0.15572324267658638 0.2065856373912304 2.0230949016110659e-06 -1.0758230593830945e-05 0.2298334662806916 3.9397607390917412e-06 -1.3710286314179026e-05 0.14054729250144707 3.632483788051212e-06 -1.41297696138469e-05 0.23929399994647038 3.2575689533685863e-06 -0.15572324267658633 0.23132697466184118 4.8731457250224054e-06 -0.12240196144465164 0.14312014743080059 5.1747332424416733e-06 -0.14070553808597827 0.18095930560721926 6.6164437494140374e-06 -1.6744822031381672e-05 0.2298334662806916 3.9397607390917412e-06 -1.3710286314179026e-05 0.14312014743080059 5.1747332424416733e-06 -0.14070553808597827 0.14054729250144707 3.6324837880512112e-06 -1.4129769613882036e-05 0.18095930560721929 6.6164437494140374e-06 -1.6744822031405647e-05 0.2298334662806916 3.9397607390917412e-06 -1.3710286314179026e-05 0.23132697466184118 4.8731457250224054e-06 -0.12240196144465164 0.20728955635439858 3.9473095218718269e-06 -0.23199707928263402 0.14312014743080059 5.1747332424416733e-06 -0.14070553808597827 0.23929399994647038 3.2575689533685863e-06 -0.15572324267658635 0.23132697466184118 4.8731457250224054e-06 -0.12240196144465164 0.14312014743080059 5.1747332424416733e-06 -0.14070553808597827 0.2298334662806916 3.9397607390917404e-06 -1.3710286314184171e-05 0.23929399994647038 3.2575689533685863e-06 -0.15572324267658633 0.14895913551403203 5.7539910868273474e-06 -0.29618386964925936 0.16217844158062017 2.0142896176106496e-06 -0.2245173343130058 0.22612649512514449 2.5731993807400468e-06 -0.39599827624837231 0.10186607222497059 3.0104793302996286e-06 -0.36026243520608153 0.16217844158062017 2.01428961761065e-06 -0.2245173343130058 0.10186607222497059 3.0104793302996286e-06 -0.36026243520608153 0.14895913551403203 5.7539910868273474e-06 -0.29618386964925936 0.087127708449082547 2.5716608514598502e-06 -0.1439942675992468 0.14312014743080059 5.1747332424416733e-06 -0.14070553808597827 0.20728955635439855 3.947309521871826e-06 -0.23199707928263402 0.14895913551403203 5.7539910868273474e-06 -0.29618386964925936 0.16217844158062014 2.0142896176106488e-06 -0.2245173343130058 0.20728955635439855 3.947309521871826e-06 -0.23199707928263402 0.16217844158062014 2.01428961761065e-06 -0.2245173343130058 0.14312014743080059 5.1747332424416733e-06 -0.14070553808597827 0.23929399994647038 3.2575689533685863e-06 -0.15572324267658635 0.14312014743080059 5.1747332424416733e-06 -0.14070553808597827 0.16217844158062023 2.0142896176106496e-06 -0.2245173343130058 0.14895913551403206 5.7539910868273483e-06 -0.29618386964925936 0.087127708449082575 2.5716608514598502e-06 -0.14399426759924683 0.20728955635439855 3.947309521871826e-06 -0.23199707928263402 0.22612649512514438 2.5731993807400456e-06 -0.39599827624837219 0.16217844158062017 2.0142896176106496e-06 -0.22451733431300586 0.23929399994647038 3.2575689533685863e-06 -0.15572324267658635 0.20728955635439855 3.947309521871826e-06 -0.23199707928263402 0.14895913551403203 5.7539910868273474e-06 -0.29618386964925936 0.16217844158062017 2.0142896176106492e-06 -0.2245173343130058 0.22612649512514438 2.5731993807400456e-06 -0.39599827624837219 0.14312014743080059 5.1747332424416733e-06 -0.14070553808597827 0.14895913551403203 5.7539910868273474e-06 -0.29618386964925936 0.076589806949958178 4.9331790071566912e-06 -0.22485368094108207 0.087127708449082575 2.5716608514598502e-06 -0.14399426759924683 0.14895913551403203 5.7539910868273474e-06 -0.29618386964925936 0.14679452600589454 5.9997083619623197e-06 -0.44872566529089891 0.077930619624080294 5.3788559216394743e-06 -0.37259273406164062 0.10186607222497059 3.0104793302996286e-06 -0.36026243520608153 0.20728955635439855 3.947309521871826e-06 -0.23199707928263402 0.2350727932316008 5.1523488357949548e-06 -0.37381470342766665 0.14895913551403203 5.7539910868273474e-06 -0.29618386964925936 0.22612649512514441 2.573199380740046e-06 -0.39599827624837225 0.11205544633452627 3.2147483549732888e-07 -0.33717063617942594 0.22612649512514438 2.5731993807400456e-06 -0.39599827624837225 0.16217844158062017 2.0142896176106505e-06 -0.2245173343130058 0.1018660722249706 3.0104793302996282e-06 -0.36026243520608153 0.16217844158062017 2.01428961761065e-06 -0.2245173343130058 0.22619892886928011 -2.3452065275423908e-08 -0.37381437153064001 0.11205544633452627 3.2147483549732888e-07 -0.33717063617942594 0.226381809920081 -3.4219472022081793e-07 -0.18663793408543664 0.16217844158062017 2.01428961761065e-06 -0.2245173343130058 0.11205544633452627 3.2147483549732888e-07 -0.33717063617942594 0.22619892886928009 -2.345206527542452e-08 -0.37381437153063996 0.22612649512514441 2.5731993807400464e-06 -0.39599827624837231 0.16217844158062017 2.01428961761065e-06 -0.2245173343130058 0.22638180992008103 -3.4219472022081746e-07 -0.18663793408543672 0.11205544633452626 3.2147483549732872e-07 -0.33717063617942589 0.10109254550238678 1.3767948515969381e-07 -0.16707257477002529 0.16217844158062017 2.01428961761065e-06 -0.2245173343130058 0.14678802555338136 1.1488715220033267e-06 -1.5869398263816877e-05 0.22638180992008103 -3.4219472022081746e-07 -0.18663793408543672 0.10109254550238678 1.3767948515969381e-07 -0.16707257477002529 0.14054729250144707 3.632483788051212e-06 -1.4129769613850013e-05 0.14678802555338136 1.1488715220033267e-06 -1.5869398263816877e-05 0.2065856373912304 2.0230949016110659e-06 -1.0758230593830945e-05 0.16217844158062017 2.01428961761065e-06 -0.22451733431300586 0.14678802555338136 1.1488715220033267e-06 -1.5869398263816877e-05 0.1010925455023868 1.3767948515969404e-07 -0.16707257477002532 0.16217844158062017 2.01428961761065e-06 -0.2245173343130058 0.087127708449082575 2.5716608514598502e-06 -0.14399426759924683 0.14678802555338136 1.1488715220033267e-06 -1.5869398263816877e-05 0.2065856373912304 2.0230949016110659e-06 -1.0758230593834372e-05 0.16217844158062014 2.01428961761065e-06 -0.22451733431300577 0.22638180992008103 -3.4219472022081746e-07 -0.18663793408543672 0.14054729250144707 3.632483788051212e-06 -1.4129769613850013e-05 0.14678802555338136 1.1488715220033267e-06 -1.5869398263816877e-05 0.16217844158062017 2.01428961761065e-06 -0.2245173343130058 0.087127708449082575 2.5716608514598502e-06 -0.14399426759924683 0.2065856373912304 2.0230949016110659e-06 -1.0758230593830945e-05 0.14054729250144707 3.632483788051212e-06 -1.4129769613850377e-05 0.16217844158062017 2.01428961761065e-06 -0.2245173343130058 0.23929399994647035 3.2575689533685858e-06 -0.15572324267658635 0.16217844158062017 2.01428961761065e-06 -0.2245173343130058 0.22638180992008103 -3.4219472022081746e-07 -0.18663793408543672 0.2065856373912304 2.0230949016110659e-06 -1.0758230593830945e-05 0.23929399994647038 3.2575689533685863e-06 -0.15572324267658635 0.077930685535308672 -7.3088172231354398e-08 -1.4297213498810704e-05 0.14895332819698023 -1.1772136150919474e-06 -1.5131315677798344e-05 0.14678802555338136 1.1488715220033267e-06 -1.5869398263816877e-05 0.10109254550238678 1.3767948515969381e-07 -0.16707257477002529 0.14678802555338136 1.1488715220033267e-06 -1.5869398263816877e-05 0.23507346707675242 2.5063337896829052e-07 -1.4050883435834513e-05 0.2065856373912304 2.0230949016110659e-06 -1.0758230593830945e-05 0.22638180992008103 -3.4219472022081746e-07 -0.18663793408543672 0.32899536483313757 1.2605461896590403e-06 -9.0114467843602398e-06 0.30969547095480149 1.9808902143465701e-06 -0.23248752750117541 0.27118652465939452 1.7382674649585951e-06 -1.0731302727626586e-05 0.35157332969084715 -3.0335623609979619e-07 -0.16280013197731033 0.30969547095480149 1.980890214346571e-06 -0.23248752750117541 0.226381809920081 -3.4219472022081778e-07 -0.18663793408543672 0.27118652465939458 1.7382674649585949e-06 -1.0731302727620596e-05 0.35157332969084715 -3.033562360997972e-07 -0.1628001319773103 0.27118652465939452 1.7382674649585951e-06 -1.0731302727626586e-05 0.2065856373912304 2.0230949016110659e-06 -1.0758230593836764e-05 0.226381809920081 -3.421947202208174e-07 -0.18663793408543675 0.23929399994647041 3.2575689533685867e-06 -0.15572324267658638 0.23507346707675242 2.5063337896829052e-07 -1.4050883435834513e-05 0.30455642357383661 -1.4350759346082086e-07 -1.1064024949151987e-05 0.27118652465939452 1.7382674649585951e-06 -1.0731302727626586e-05 0.22638180992008103 -3.4219472022081746e-07 -0.18663793408543672 0.27118652465939452 1.7382674649585951e-06 -1.0731302727626586e-05 0.226381809920081 -3.4219472022081751e-07 -0.18663793408543672 0.30969547095480149 1.9808902143465706e-06 -0.23248752750117543 0.2392939999464703 3.2575689533685867e-06 -0.15572324267658638 0.27118652465939452 1.7382674649585951e-06 -1.0731302727626586e-05 0.226381809920081 -3.4219472022081756e-07 -0.18663793408543669 0.30455642357383661 -1.4350759346082086e-07 -1.1064024949151987e-05 0.35157332969084709 -3.0335623609979741e-07 -0.16280013197731028 0.27118652465939452 1.7382674649585951e-06 -1.0731302727626586e-05 0.23929399994647038 3.257568953368588e-06 -0.15572324267658633 0.30969547095480149 1.9808902143465706e-06 -0.23248752750117541 0.36907578283503928 3.0155472479505443e-06 -0.1381921707247111 0.27118652465939452 1.7382674649585951e-06 -1.0731302727626586e-05 0.2065856373912304 2.0230949016110659e-06 -1.0758230593836141e-05 0.23507346707675242 2.5063337896829052e-07 -1.4050883435834513e-05 0.22638180992008103 -3.4219472022081746e-07 -0.18663793408543672 0.27118652465939452 1.7382674649585951e-06 -1.0731302727626586e-05 0.30969547095480149 1.980890214346571e-06 -0.23248752750117541 0.32899536483313757 1.2605461896590403e-06 -9.0114467843602398e-06 0.36907578283503933 3.0155472479505435e-06 -0.1381921707247111 0.2065856373912304 2.0230949016110659e-06 -1.0758230593830945e-05 0.27118652465939452 1.7382674649585951e-06 -1.0731302727625441e-05 0.2298334662806916 3.9397607390917412e-06 -1.3710286314191479e-05 0.23929399994647038 3.2575689533685863e-06 -0.15572324267658633 0.27118652465939452 1.7382674649585951e-06 -1.0731302727626586e-05 0.32899536483313757 1.2605461896590405e-06 -9.0114467843564468e-06 0.3191323298236437 2.7280930272402677e-06 -1.3759286948731046e-05 0.36907578283503933 3.0155472479505435e-06 -0.1381921707247111 0.32899536483313757 1.2605461896590403e-06 -9.0114467843602398e-06 0.27118652465939452 1.7382674649585951e-06 -1.0731302727626386e-05 0.30455642357383661 -1.4350759346082086e-07 -1.106402494914603e-05 0.35157332969084715 -3.0335623609979725e-07 -0.1628001319773103 0.30969547095480149 1.980890214346571e-06 -0.23248752750117541 0.22638180992008106 -3.4219472022081756e-07 -0.18663793408543664 0.16217844158062017 2.01428961761065e-06 -0.2245173343130058 0.23929399994647033 3.2575689533685858e-06 -0.15572324267658638 0.30969547095480149 1.980890214346571e-06 -0.23248752750117541 0.16217844158062017 2.0142896176106496e-06 -0.22451733431300577 0.22619892886928009 -2.3452065275424338e-08 -0.37381437153063996 0.22612649512514441 2.573199380740046e-06 -0.39599827624837225 0.22619892886928009 -2.3452065275424338e-08 -0.37381437153063996 0.16217844158062017 2.01428961761065e-06 -0.22451733431300583 0.30969547095480149 1.980890214346571e-06 -0.23248752750117541 0.22638180992008108 -3.4219472022081815e-07 -0.18663793408543675 0.22619892886928009 -2.3452065275424338e-08 -0.37381437153063996 0.30969547095480149 1.980890214346571e-06 -0.23248752750117541 0.33950159773267918 2.927878424028328e-07 -0.37259283566123869 0.22638180992008108 -3.421947202208182e-07 -0.18663793408543675 0.30969547095480149 1.980890214346571e-06 -0.23248752750117541 0.22612649512514441 2.573199380740046e-06 -0.39599827624837225 0.33950159773267918 2.927878424028328e-07 -0.37259283566123869 0.35004137673566627 3.2786141008641368e-06 -0.37253638369815351 0.33950159773267918 2.927878424028328e-07 -0.37259283566123869 0.22638180992008103 -3.4219472022081778e-07 -0.1866379340854368 0.30969547095480149 1.980890214346571e-06 -0.23248752750117538 0.35157332969084715 -3.0335623609979725e-07 -0.1628001319773103 0.16217844158062017 2.01428961761065e-06 -0.2245173343130058 0.22612649512514441 2.573199380740046e-06 -0.39599827624837225 0.30969547095480149 1.980890214346571e-06 -0.23248752750117541 0.23929399994647038 3.2575689533685863e-06 -0.15572324267658635 0.22619892886928009 -2.3452065275424338e-08 -0.37381437153063996 0.33950159773267913 2.9278784240283269e-07 -0.37259283566123869 0.30969547095480149 1.980890214346571e-06 -0.23248752750117541 0.22612649512514441 2.573199380740046e-06 -0.39599827624837225 0.30969547095480149 1.980890214346571e-06 -0.23248752750117541 0.23929399994647038 3.2575689533685863e-06 -0.15572324267658635 0.27627292134061904 5.4694791499267468e-06 -0.24767757661288708 0.36907578283503933 3.0155472479505435e-06 -0.1381921707247111 0.27627292134061904 5.4694791499267468e-06 -0.24767757661288708 0.22612649512514441 2.573199380740046e-06 -0.39599827624837219 0.30969547095480149 1.980890214346571e-06 -0.23248752750117541 0.35004137673566627 3.2786141008641368e-06 -0.37253638369815351 0.27627292134061904 5.4694791499267468e-06 -0.24767757661288708 0.30871758577478675 6.0573994822422e-06 -0.3910844864552328 0.22612649512514443 2.5731993807400464e-06 -0.39599827624837225 0.35004137673566627 3.2786141008641368e-06 -0.37253638369815351 0.37436630339268506 6.0323223068688704e-06 -0.2348180570780693 0.30969547095480143 1.9808902143465701e-06 -0.23248752750117541 0.27627292134061904 5.4694791499267468e-06 -0.24767757661288711 0.36907578283503933 3.0155472479505443e-06 -0.13819217072471118 0.20728955635439855 3.947309521871826e-06 -0.23199707928263402 0.27627292134061904 5.4694791499267468e-06 -0.24767757661288708 0.22612649512514441 2.573199380740046e-06 -0.39599827624837225 0.23929399994647038 3.2575689533685863e-06 -0.15572324267658635 0.27627292134061904 5.4694791499267468e-06 -0.24767757661288708 0.30969547095480149 1.9808902143465706e-06 -0.23248752750117543 0.37436630339268506 6.0323223068688704e-06 -0.2348180570780693 0.35004137673566627 3.2786141008641368e-06 -0.37253638369815351 0.30969547095480149 1.980890214346571e-06 -0.23248752750117541 0.22612649512514443 2.573199380740046e-06 -0.39599827624837225 0.27627292134061904 5.4694791499267468e-06 -0.24767757661288708 0.23929399994647038 3.2575689533685863e-06 -0.15572324267658638 0.27627292134061904 5.4694791499267468e-06 -0.24767757661288708 0.30871758577478681 6.0573994822422e-06 -0.39108448645523286 0.2350727932316008 5.1523488357949548e-06 -0.37381470342766665 0.22612649512514441 2.573199380740046e-06 -0.39599827624837225 0.2350727932316008 5.1523488357949548e-06 -0.37381470342766665 0.20728955635439855 3.947309521871826e-06 -0.23199707928263402 0.27627292134061904 5.4694791499267468e-06 -0.24767757661288708 0.22612649512514443 2.5731993807400456e-06 -0.39599827624837231 0.30871758577478681 6.0573994822422e-06 -0.39108448645523286 0.27627292134061898 5.4694791499267459e-06 -0.24767757661288708 0.37436630339268506 6.0323223068688704e-06 -0.2348180570780693 0.35004137673566627 3.2786141008641368e-06 -0.37253638369815351 0.23132697466184118 4.8731457250224054e-06 -0.12240196144465164 0.27627292134061904 5.4694791499267468e-06 -0.24767757661288708 0.20728955635439855 3.947309521871826e-06 -0.23199707928263402 0.23929399994647038 3.2575689533685867e-06 -0.15572324267658635 0.23132697466184118 4.8731457250224054e-06 -0.12240196144465164 0.31662705335058899 4.9423424838946821e-06 -0.1266453097818781 0.27627292134061904 5.4694791499267468e-06 -0.24767757661288708 0.23929399994647038 3.2575689533685867e-06 -0.15572324267658635 0.31662705335058899 4.9423424838946821e-06 -0.1266453097818781 0.27627292134061904 5.4694791499267468e-06 -0.24767757661288708 0.23929399994647041 3.2575689533685863e-06 -0.15572324267658638 0.36907578283503933 3.0155472479505435e-06 -0.13819217072471107 0.31662705335058899 4.9423424838946821e-06 -0.1266453097818781 0.23929399994647038 3.2575689533685867e-06 -0.15572324267658635 0.3191323298236437 2.7280930272402677e-06 -1.3759286948732221e-05 0.36907578283503928 3.0155472479505435e-06 -0.13819217072471102 0.31662705335058899 4.9423424838946821e-06 -0.1266453097818781 0.23132697466184118 4.8731457250224054e-06 -0.12240196144465164 0.22983346628069165 3.9397607390917421e-06 -1.3710286314123805e-05 0.23929399994647038 3.2575689533685871e-06 -0.15572324267658633 0.27118652465939452 1.7382674649585951e-06 -1.0731302727626586e-05 0.3191323298236437 2.7280930272402677e-06 -1.3759286948731046e-05 0.23929399994647038 3.2575689533685867e-06 -0.15572324267658638 0.36907578283503933 3.0155472479505435e-06 -0.13819217072471113 0.27143906854561839 5.8664418872247613e-06 -1.7430396342145604e-05 0.31662705335058899 4.9423424838946821e-06 -0.1266453097818781 0.23132697466184118 4.8731457250224054e-06 -0.12240196144465164 0.2298334662806916 3.9397607390917412e-06 -1.3710286314179026e-05 0.23132697466184118 4.8731457250224054e-06 -0.12240196144465164 0.18095930560721929 6.6164437494140374e-06 -1.6744822031417234e-05 0.27143906854561839 5.8664418872247613e-06 -1.7430396342145604e-05 0.2298334662806916 3.9397607390917412e-06 -1.3710286314179026e-05 0.2298334662806916 3.9397607390917412e-06 -1.3710286314179026e-05 0.27118652465939452 1.7382674649585949e-06 -1.0731302727626788e-05 0.3191323298236437 2.7280930272402677e-06 -1.3759286948731046e-05 0.23929399994647038 3.2575689533685863e-06 -0.15572324267658635 0.31662705335058899 4.9423424838946821e-06 -0.1266453097818781 0.2298334662806916 3.9397607390917421e-06 -1.3710286314125987e-05 0.3191323298236437 2.7280930272402681e-06 -1.3759286948710951e-05 0.23929399994647035 3.2575689533685871e-06 -0.15572324267658633 0.27143906854561839 5.8664418872247613e-06 -1.7430396342145604e-05 0.3619193269116463 5.0436776623534704e-06 -1.4309155499573948e-05 0.31662705335058899 4.9423424838946821e-06 -0.1266453097818781 0.3191323298236437 2.7280930272402677e-06 -1.3759286948731046e-05 0.2298334662806916 3.9397607390917412e-06 -1.3710286314179026e-05 0.27143906854561839 5.8664418872247613e-06 -1.7430396342145604e-05 0.31662705335058899 4.9423424838946821e-06 -0.12664530978187818 0.3191323298236437 2.7280930272402677e-06 -1.3759286948731046e-05 0.31662705335058899 4.9423424838946821e-06 -0.1266453097818781 0.37436630339268506 6.0323223068688704e-06 -0.2348180570780693 0.27627292134061904 5.4694791499267468e-06 -0.24767757661288708 0.36907578283503939 3.0155472479505448e-06 -0.1381921707247111 0.37436630339268506 6.0323223068688704e-06 -0.2348180570780693 0.31662705335058899 4.9423424838946821e-06 -0.1266453097818781 0.38616265634214431 3.7113332463965999e-06 -0.10946956624789535 0.36907578283503933 3.0155472479505439e-06 -0.13819217072471107 0.31662705335058899 4.9423424838946821e-06 -0.1266453097818781 0.3861622857349199 3.5142290907101177e-06 -9.7316869713463948e-06 0.38616265634214431 3.7113332463965999e-06 -0.10946956624789536 0.36907578283503933 3.0155472479505439e-06 -0.13819217072471102 0.38616265634214431 3.7113332463965999e-06 -0.10946956624789536 0.45239881088049677 3.3723655313732405e-06 -0.10946933500734067 0.37436630339268506 6.0323223068688704e-06 -0.2348180570780693 0.36907578283503928 3.0155472479505431e-06 -0.1381921707247111 0.38616228573491995 3.5142290907101177e-06 -9.7316869713159168e-06 0.38616265634214431 3.7113332463965999e-06 -0.10946956624789536 0.3619193269116463 5.0436776623534704e-06 -1.4309155499573948e-05 0.31662705335058899 4.9423424838946821e-06 -0.1266453097818781 0.31662705335058899 4.9423424838946821e-06 -0.1266453097818781 0.3619193269116463 5.0436776623534704e-06 -1.4309155499573229e-05 0.38616228573491995 3.5142290907101177e-06 -9.7316869713159168e-06 0.3191323298236437 2.7280930272402677e-06 -1.3759286948731046e-05 0.38616228573491995 3.5142290907101177e-06 -9.7316869713159168e-06 0.3191323298236437 2.7280930272402677e-06 -1.3759286948732548e-05 0.38532375365709359 2.1288876871060282e-06 -1.0969907419819482e-05 0.36907578283503939 3.0155472479505435e-06 -0.13819217072471107 0.31662705335058899 4.9423424838946821e-06 -0.1266453097818781 0.3191323298236437 2.7280930272402681e-06 -1.3759286948775999e-05 0.3861622857349199 3.5142290907101177e-06 -9.7316869713324865e-06 0.36907578283503933 3.0155472479505439e-06 -0.13819217072471104 0.45239881088049672 3.3723655313732409e-06 -0.10946933500734068 0.45239826851238546 1.8256008836395423e-06 -0.11885764295280277 0.45239810216011667 3.4149118941935761e-06 -0.23227103045719538 0.36907578283503933 3.0155472479505435e-06 -0.1381921707247111 0.37436630339268506 6.0323223068688704e-06 -0.2348180570780693 0.45239881088049677 3.3723655313732409e-06 -0.10946933500734068 0.45239810216011667 3.4149118941935761e-06 -0.23227103045719538 0.36907578283503939 3.0155472479505443e-06 -0.13819217072471113 0.45239881088049672 3.3723655313732409e-06 -0.10946933500734068 0.38616228573491995 3.5142290907101177e-06 -9.7316869713159168e-06 0.45239784694564295 2.8623704669419677e-06 -1.2737994324444855e-05 0.36907578283503933 3.0155472479505435e-06 -0.1381921707247111 0.45239784694564295 2.8623704669419677e-06 -1.2737994324444855e-05 0.36907578283503939 3.0155472479505435e-06 -0.1381921707247111 0.45239826851238546 1.8256008836395423e-06 -0.11885764295280277 0.45239881088049672 3.3723655313732409e-06 -0.10946933500734068 0.38616228573491995 3.5142290907101177e-06 -9.7316869713159168e-06 0.45239881088049672 3.3723655313732409e-06 -0.1094693350073407 0.38616265634214431 3.7113332463965999e-06 -0.10946956624789536 0.36907578283503939 3.0155472479505435e-06 -0.13819217072471107 0.38616228573491995 3.5142290907101177e-06 -9.7316869713159168e-06 0.38532375365709365 2.1288876871060286e-06 -1.0969907419812467e-05 0.45239784694564295 2.8623704669419677e-06 -1.2737994324441347e-05 0.36907578283503939 3.0155472479505431e-06 -0.13819217072471107 0.45239881088049672 3.3723655313732409e-06 -0.10946933500734068 0.38616265634214431 3.7113332463966004e-06 -0.10946956624789538 0.45239728807906937 5.5262384101662267e-06 -1.4725840727478119e-05 0.38616228573491995 3.5142290907101177e-06 -9.7316869713159168e-06 0.45239838145879824 5.168130320427664e-06 -0.14953375061945909 0.38616265634214431 3.7113332463965999e-06 -0.10946956624789538 0.45239728807906937 5.5262384101662267e-06 -1.4725840727478119e-05 0.45239881088049672 3.3723655313732409e-06 -0.10946933500734068 0.45239728807906937 5.5262384101662267e-06 -1.4725840727478119e-05 0.45239881088049672 3.3723655313732409e-06 -0.10946933500734068 0.38616228573491995 3.5142290907101177e-06 -9.7316869713159168e-06 0.45239784694564295 2.8623704669419677e-06 -1.2737994324444855e-05 0.3619193269116463 5.0436776623534704e-06 -1.4309155499573948e-05 0.45239728807906937 5.5262384101662267e-06 -1.4725840727478119e-05 0.38616265634214431 3.7113332463965999e-06 -0.10946956624789536 0.38616228573491995 3.5142290907101177e-06 -9.7316869713159168e-06 0.37436630339268506 6.0323223068688704e-06 -0.2348180570780693 0.38616265634214431 3.7113332463965999e-06 -0.10946956624789536 0.45239838145879824 5.168130320427664e-06 -0.14953375061945909 0.45239881088049672 3.3723655313732409e-06 -0.10946933500734068 0.45239838145879824 5.168130320427664e-06 -0.14953375061945909 0.45239810216011667 3.4149118941935761e-06 -0.23227103045719538 0.37436630339268501 6.0323223068688704e-06 -0.2348180570780693 0.45239881088049672 3.3723655313732409e-06 -0.10946933500734068 0.45239817010782996 4.8630715435789774e-06 -0.2990537520298866 0.45239810216011667 3.4149118941935761e-06 -0.23227103045719538 0.37436630339268506 6.0323223068688704e-06 -0.23481805707806927 0.45239838145879824 5.168130320427664e-06 -0.14953375061945909 0.37436630339268506 6.0323223068688704e-06 -0.2348180570780693 0.35004137673566621 3.2786141008641368e-06 -0.37253638369815351 0.30969547095480149 1.980890214346571e-06 -0.23248752750117541 0.36907578283503928 3.0155472479505439e-06 -0.1381921707247111 0.45239810216011667 3.4149118941935761e-06 -0.23227103045719538 0.35004137673566621 3.2786141008641364e-06 -0.37253638369815351 0.37436630339268506 6.0323223068688704e-06 -0.2348180570780693 0.36907578283503928 3.0155472479505435e-06 -0.13819217072471104 0.45239810216011667 3.4149118941935761e-06 -0.23227103045719538 0.30969547095480154 1.9808902143465693e-06 -0.23248752750117538 0.35004137673566632 3.278614100864136e-06 -0.37253638369815351 0.36907578283503933 3.0155472479505431e-06 -0.13819217072471107 0.45239810216011667 3.4149118941935761e-06 -0.23227103045719538 0.39251133551049144 4.8943700049111569e-06 -0.37836073788045593 0.37436630339268506 6.0323223068688712e-06 -0.23481805707806927 0.35004137673566627 3.2786141008641368e-06 -0.37253638369815351 0.30871758577478681 6.0573994822422e-06 -0.39108448645523286 0.37436630339268506 6.0323223068688704e-06 -0.2348180570780693 0.39251133551049139 4.8943700049111586e-06 -0.37836073788045582 0.35004137673566627 3.2786141008641368e-06 -0.37253638369815351 0.39251133551049139 4.8943700049111586e-06 -0.37836073788045582 0.45239817010782996 4.8630715435789774e-06 -0.2990537520298866 0.45239810216011667 3.4149118941935761e-06 -0.23227103045719538 0.37436630339268506 6.0323223068688704e-06 -0.2348180570780693 0.45239817010782996 4.8630715435789774e-06 -0.2990537520298866 0.4523980462830417 3.468921318974577e-06 -0.37981969267544152 0.39251133551049139 4.8943700049111586e-06 -0.37836073788045582 0.45239810216011667 3.4149118941935761e-06 -0.23227103045719538 0.45239810216011667 3.4149118941935761e-06 -0.23227103045719538 0.4523980462830417 3.468921318974577e-06 -0.37981969267544152 0.39251133551049139 4.8943700049111586e-06 -0.37836073788045582 0.35004137673566627 3.2786141008641368e-06 -0.37253638369815351 0.45239810216011667 3.4149118941935761e-06 -0.23227103045719538 0.45239804988469384 1.9906771343841719e-06 -0.34250691644958181 0.4523980462830417 3.468921318974577e-06 -0.37981969267544152 0.35004137673566627 3.2786141008641368e-06 -0.37253638369815351 0.45239827109130615 -1.2859759392806893e-06 -0.24616333192149337 0.33950159773267918 2.9278784240283285e-07 -0.37259283566123863 0.4523982650556117 9.1110115012175981e-07 -0.2425843751689597 0.35157332969084715 -3.0335623609979725e-07 -0.1628001319773103 0.45239804988469379 1.9906771343841719e-06 -0.34250691644958181 0.30969547095480149 1.980890214346571e-06 -0.23248752750117541 0.4523982650556117 9.1110115012175981e-07 -0.24258437516895973 0.33950159773267918 2.927878424028328e-07 -0.37259283566123869 0.45239810216011667 3.4149118941935761e-06 -0.23227103045719538 0.30969547095480143 1.9808902143465697e-06 -0.23248752750117538 0.45239804988469379 1.9906771343841719e-06 -0.34250691644958176 0.35004137673566627 3.2786141008641368e-06 -0.37253638369815351 0.45239804988469379 1.9906771343841719e-06 -0.34250691644958181 0.30969547095480149 1.980890214346571e-06 -0.23248752750117541 0.33950159773267924 2.9278784240283338e-07 -0.37259283566123874 0.35004137673566615 3.2786141008641368e-06 -0.37253638369815351 0.45239804988469379 1.9906771343841719e-06 -0.34250691644958181 0.45239810216011667 3.4149118941935761e-06 -0.23227103045719538 0.4523982650556117 9.1110115012175981e-07 -0.24258437516895973 0.30969547095480149 1.980890214346571e-06 -0.23248752750117541 0.30969547095480149 1.980890214346571e-06 -0.23248752750117541 0.4523982650556117 9.1110115012175939e-07 -0.2425843751689597 0.33950159773267918 2.927878424028328e-07 -0.37259283566123869 0.35157332969084715 -3.0335623609979741e-07 -0.16280013197731028 0.45239810216011667 3.4149118941935761e-06 -0.23227103045719538 0.4523982650556117 9.1110115012175981e-07 -0.24258437516895973 0.30969547095480143 1.980890214346571e-06 -0.23248752750117543 0.36907578283503933 3.0155472479505435e-06 -0.1381921707247111 0.4523982650556117 9.1110115012175981e-07 -0.24258437516895973 0.35157332969084715 -3.0335623609979725e-07 -0.1628001319773103 0.30969547095480149 1.980890214346571e-06 -0.23248752750117549 0.36907578283503933 3.0155472479505426e-06 -0.13819217072471116 0.45239802113657634 -4.0475699137257002e-08 -0.38847856406132852 0.45239804988469379 1.9906771343841719e-06 -0.34250691644958181 0.4523982650556117 9.1110115012175981e-07 -0.24258437516895973 0.33950159773267918 2.927878424028328e-07 -0.37259283566123869 0.45239827109130615 -1.2859759392806893e-06 -0.24616333192149337 0.45239802113657634 -4.047569913725722e-08 -0.38847856406132852 0.4523982650556117 9.1110115012175981e-07 -0.24258437516895973 0.33950159773267924 2.9278784240283264e-07 -0.37259283566123874 0.38088177295854275 4.911498512976506e-07 -1.2555175961201001e-05 0.45239810150253279 -2.4545638796488053e-07 -0.12879692040830404 0.45239826851238546 1.8256008836395423e-06 -0.11885764295280278 0.35157332969084715 -3.0335623609979725e-07 -0.1628001319773103 0.45239826851238546 1.8256008836395423e-06 -0.11885764295280278 0.3853237536570937 2.1288876871060286e-06 -1.0969907419856535e-05 0.35157332969084709 -3.0335623609979789e-07 -0.1628001319773103 0.36907578283503933 3.0155472479505435e-06 -0.1381921707247111 0.45239826851238546 1.8256008836395423e-06 -0.11885764295280278 0.35157332969084709 -3.0335623609979773e-07 -0.16280013197731028 0.4523982650556117 9.1110115012175981e-07 -0.24258437516895973 0.36907578283503933 3.0155472479505435e-06 -0.1381921707247111 0.45239826851238546 1.8256008836395423e-06 -0.11885764295280278 0.45239810150253279 -2.4545638796488011e-07 -0.12879692040830407 0.4523982650556117 9.1110115012175981e-07 -0.24258437516895973 0.35157332969084709 -3.0335623609979667e-07 -0.16280013197731036 0.32899536483313757 1.2605461896590403e-06 -9.0114467843602398e-06 0.35157332969084715 -3.0335623609979725e-07 -0.1628001319773103 0.38532375365709359 2.1288876871060286e-06 -1.0969907419819492e-05 0.36907578283503933 3.0155472479505435e-06 -0.1381921707247111 0.32899536483313757 1.2605461896590403e-06 -9.0114467843602398e-06 0.30969547095480154 1.9808902143465706e-06 -0.23248752750117543 0.35157332969084709 -3.0335623609979709e-07 -0.1628001319773103 0.36907578283503933 3.0155472479505435e-06 -0.1381921707247111 0.45239810216011667 3.4149118941935761e-06 -0.23227103045719538 0.45239826851238546 1.8256008836395423e-06 -0.11885764295280278 0.4523982650556117 9.1110115012175981e-07 -0.24258437516895973 0.36907578283503933 3.0155472479505435e-06 -0.1381921707247111 0.32899536483313757 1.2605461896590403e-06 -9.0114467843602398e-06 0.30455642357383661 -1.4350759346082081e-07 -1.1064024949147829e-05 0.38088177295854275 4.911498512976506e-07 -1.2555175961206957e-05 0.35157332969084715 -3.0335623609979725e-07 -0.1628001319773103 0.38088177295854275 4.911498512976506e-07 -1.2555175961201001e-05 0.45239826851238552 1.8256008836395419e-06 -0.11885764295280278 0.38532375365709365 2.1288876871060286e-06 -1.0969907419812467e-05 0.35157332969084715 -3.0335623609979725e-07 -0.1628001319773103 0.32899536483313757 1.2605461896590403e-06 -9.0114467843602398e-06 0.38088177295854275 4.911498512976506e-07 -1.2555175961202009e-05 0.38532375365709365 2.1288876871060286e-06 -1.0969907419809489e-05 0.35157332969084715 -3.0335623609979725e-07 -0.1628001319773103 0.3191323298236437 2.7280930272402677e-06 -1.3759286948731046e-05 0.32899536483313757 1.2605461896590403e-06 -9.0114467843602398e-06 0.38532375365709365 2.1288876871060286e-06 -1.0969907419819484e-05 0.36907578283503928 3.0155472479505435e-06 -0.13819217072471113 0.45239826851238546 1.8256008836395423e-06 -0.11885764295280278 0.3853237536570937 2.1288876871060286e-06 -1.0969907419798986e-05 0.45239784694564295 2.8623704669419677e-06 -1.2737994324446076e-05 0.45239678535118821 1.4062454490603803e-06 -1.4200113194029365e-05 0.45239826851238546 1.8256008836395423e-06 -0.11885764295280278 0.36907578283503933 3.0155472479505431e-06 -0.1381921707247111 0.45239784694564295 2.8623704669419677e-06 -1.2737994324444855e-05 0.3853237536570937 2.1288876871060286e-06 -1.0969907419832728e-05 0.38088177295854275 4.911498512976506e-07 -1.2555175961201001e-05 0.38532375365709365 2.1288876871060286e-06 -1.0969907419812467e-05 0.45239826851238546 1.8256008836395423e-06 -0.11885764295280278 0.45239678535118821 1.4062454490603803e-06 -1.4200113194029365e-05 0.45239678535118821 1.4062454490603803e-06 -1.4200113194029365e-05 0.45239826851238546 1.8256008836395423e-06 -0.11885764295280278 0.38088177295854275 4.911498512976506e-07 -1.2555175961201001e-05 0.45239810150253279 -2.4545638796487979e-07 -0.12879692040830407 0.45239651383644136 -6.2751885604472771e-07 -1.7247839586127776e-05 0.45239678535118821 1.4062454490603803e-06 -1.4200113194029365e-05 0.38088177295854275 4.911498512976506e-07 -1.2555175961201001e-05 0.45239810150253279 -2.4545638796487979e-07 -0.12879692040830407 0.36571744004419943 -1.9397812466592487e-06 -1.5123860600616548e-05 0.38616190389438815 -2.9657181569479333e-06 -1.068607386174934e-05 0.45239809958528288 -1.592259267785277e-06 -0.12658150573285334 0.31114777374481156 -1.997596158821425e-06 -0.23451177165470677 0.36571744004419943 -1.9397812466592487e-06 -1.5123860600616548e-05 0.45239651383644131 -6.2751885604472824e-07 -1.7247839586163253e-05 0.38088177295854275 4.9114985129765038e-07 -1.2555175961207808e-05 0.45239810150253279 -2.4545638796487979e-07 -0.12879692040830407 0.45239651383644136 -6.2751885604472771e-07 -1.7247839586127776e-05 0.36571744004419943 -1.9397812466592487e-06 -1.5123860600616548e-05 0.45239809958528293 -1.5922592677852768e-06 -0.12658150573285334 0.45239810150253279 -2.4545638796487979e-07 -0.12879692040830407 0.36571744004419943 -1.9397812466592487e-06 -1.5123860600616548e-05 0.31114777374481162 -1.9975961588214263e-06 -0.2345117716547068 0.45239809958528288 -1.5922592677852768e-06 -0.12658150573285332 0.35157332969084715 -3.0335623609979683e-07 -0.16280013197731028 0.38088177295854275 4.911498512976506e-07 -1.2555175961201001e-05 0.30455642357383661 -1.4350759346082073e-07 -1.1064024949151834e-05 0.36571744004419943 -1.9397812466592487e-06 -1.5123860600616548e-05 0.35157332969084715 -3.0335623609979725e-07 -0.1628001319773103 0.38088177295854275 4.911498512976506e-07 -1.2555175961201001e-05 0.36571744004419943 -1.9397812466592487e-06 -1.5123860600616548e-05 0.45239810150253279 -2.454563879648799e-07 -0.12879692040830407 0.35157332969084715 -3.0335623609979725e-07 -0.1628001319773103 0.36571744004419943 -1.9397812466592487e-06 -1.5123860600616548e-05 0.45239809958528293 -1.5922592677852765e-06 -0.12658150573285329 0.45239810150253279 -2.4545638796487979e-07 -0.12879692040830407 0.35157332969084715 -3.0335623609979725e-07 -0.1628001319773103 0.45239809958528293 -1.5922592677852768e-06 -0.12658150573285334 0.45239827109130615 -1.2859759392806893e-06 -0.24616333192149337 0.45239810150253279 -2.4545638796487985e-07 -0.12879692040830409 0.35157332969084715 -3.0335623609979746e-07 -0.16280013197731033 0.45239809958528293 -1.5922592677852768e-06 -0.12658150573285334 0.36571744004419948 -1.9397812466592487e-06 -1.5123860600618191e-05 0.45239651383644136 -6.2751885604472771e-07 -1.7247839586127776e-05 0.45239673482173259 -3.4304125817303368e-06 -1.4726313628170759e-05 0.45239809958528293 -1.5922592677852768e-06 -0.12658150573285334 0.36571744004419943 -1.9397812466592491e-06 -1.5123860600650971e-05 0.45239673482173259 -3.4304125817303368e-06 -1.4726313628170759e-05 0.38616190389438815 -2.9657181569479333e-06 -1.068607386174934e-05 0.45239673482173259 -3.4304125817303368e-06 -1.4726313628170759e-05 0.45239851560274197 -3.1666497793754356e-06 -0.10946975409464715 0.45239809958528293 -1.5922592677852768e-06 -0.12658150573285334 0.38616190389438815 -2.9657181569479333e-06 -1.068607386174934e-05 0.37575123323378912 -4.9404436398084605e-06 -0.2244317997575119 0.38616205418437582 -3.7275003662329393e-06 -0.10946930077511217 0.31030933772875374 -5.9651879830734998e-06 -0.1289654605087644 0.31114777374481162 -1.9975961588214259e-06 -0.23451177165470677 0.36571744004419943 -1.9397812466592487e-06 -1.5123860600616548e-05 0.31387801346930616 -3.6242215539999365e-06 -1.2945763798678848e-05 0.38616190389438815 -2.9657181569479333e-06 -1.068607386174934e-05 0.31114777374481162 -1.9975961588214254e-06 -0.23451177165470674 0.45239828862708736 -3.18222459790595e-06 -0.23633581277947327 0.45239809958528293 -1.5922592677852768e-06 -0.12658150573285334 0.45239851560274197 -3.1666497793754356e-06 -0.10946975409464715 0.31114777374481162 -1.9975961588214254e-06 -0.23451177165470677 0.45239851560274197 -3.1666497793754356e-06 -0.10946975409464715 0.45239809958528293 -1.5922592677852768e-06 -0.12658150573285334 0.38616190389438815 -2.9657181569479337e-06 -1.0686073861764433e-05 0.31114777374481167 -1.9975961588214246e-06 -0.23451177165470671 0.45239851560274197 -3.1666497793754356e-06 -0.10946975409464715 0.38616205418437582 -3.7275003662329401e-06 -0.1094693007751122 0.37575123323378906 -4.9404436398084588e-06 -0.22443179975751187 0.31114777374481167 -1.9975961588214275e-06 -0.23451177165470685 0.45239851560274197 -3.1666497793754356e-06 -0.10946975409464715 0.38616190389438815 -2.9657181569479333e-06 -1.0686073861752444e-05 0.38616205418437582 -3.7275003662329393e-06 -0.10946930077511217 0.31114777374481167 -1.9975961588214259e-06 -0.23451177165470671 0.31387801346930616 -3.6242215539999365e-06 -1.2945763798682983e-05 0.38616205418437582 -3.7275003662329393e-06 -0.10946930077511219 0.38616190389438815 -2.9657181569479333e-06 -1.068607386174934e-05 0.31114777374481162 -1.9975961588214254e-06 -0.23451177165470677 0.38616205418437582 -3.7275003662329393e-06 -0.10946930077511217 0.37575123323378912 -4.9404436398084605e-06 -0.2244317997575119 0.45239789033027783 -5.0343562562584087e-06 -0.1495339097183507 0.45239851560274197 -3.1666497793754356e-06 -0.10946975409464715 0.37575123323378912 -4.9404436398084605e-06 -0.2244317997575119 0.45239828862708736 -3.18222459790595e-06 -0.23633581277947327 0.45239789033027783 -5.0343562562584087e-06 -0.1495339097183507 0.45239851560274197 -3.1666497793754356e-06 -0.10946975409464715 0.38616190389438815 -2.9657181569479333e-06 -1.068607386174934e-05 0.45239662729204672 -5.5165962684677115e-06 -1.4056953542430857e-05 0.38616205418437582 -3.7275003662329393e-06 -0.10946930077511217 0.36191873136274133 -5.1839670555935688e-06 -1.3088148808560545e-05 0.38616205418437582 -3.7275003662329393e-06 -0.10946930077511217 0.45239789033027783 -5.0343562562584087e-06 -0.1495339097183507 0.45239662729204672 -5.5165962684677107e-06 -1.4056953542420185e-05 0.45239851560274197 -3.1666497793754356e-06 -0.10946975409464715 0.45239662729204672 -5.5165962684677115e-06 -1.4056953542430857e-05 0.45239851560274197 -3.1666497793754356e-06 -0.10946975409464715 0.45239673482173259 -3.4304125817303364e-06 -1.4726313628161901e-05 0.38616190389438815 -2.9657181569479333e-06 -1.068607386174934e-05 0.45239851560274197 -3.1666497793754356e-06 -0.10946975409464715 0.45239662729204677 -5.5165962684677107e-06 -1.4056953542421999e-05 0.38616205418437582 -3.7275003662329393e-06 -0.10946930077511217 0.38616190389438815 -2.9657181569479333e-06 -1.068607386174934e-05 0.31030933772875374 -5.9651879830734998e-06 -0.1289654605087644 0.31387801346930616 -3.6242215539999365e-06 -1.2945763798682983e-05 0.38616205418437582 -3.7275003662329406e-06 -0.10946930077511216 0.36191873136274133 -5.1839670555935688e-06 -1.3088148808560545e-05 0.38616190389438815 -2.9657181569479333e-06 -1.068607386174934e-05 0.38616205418437582 -3.7275003662329393e-06 -0.10946930077511217 0.31387801346930622 -3.6242215539999365e-06 -1.2945763798687411e-05 0.36191873136274133 -5.1839670555935688e-06 -1.3088148808560545e-05 0.31030933772875374 -5.9651879830734998e-06 -0.1289654605087644 0.31114777374481173 -1.997596158821425e-06 -0.23451177165470682 0.31387801346930611 -3.6242215539999365e-06 -1.2945763798665383e-05 0.22637989443584189 -3.4194094836257702e-06 -0.16885316456399893 0.31030933772875374 -5.9651879830734998e-06 -0.1289654605087644 0.38616205418437582 -3.7275003662329393e-06 -0.10946930077511217 0.31387801346930616 -3.6242215539999365e-06 -1.2945763798679491e-05 0.31114777374481156 -1.9975961588214242e-06 -0.2345117716547068 0.31387801346930616 -3.6242215539999365e-06 -1.2945763798682983e-05 0.31030933772875374 -5.9651879830734998e-06 -0.12896546050876437 0.27143893374562084 -4.8784484688407893e-06 -1.4775218847335846e-05 0.36191873136274133 -5.1839670555935688e-06 -1.3088148808560545e-05 0.22344745319704534 -4.911270296929687e-06 -0.098979626598148143 0.18095917225266553 -5.301288700710817e-06 -1.7602067413734803e-05 0.23057277196796691 -3.1638959812411186e-06 -1.2742267191688474e-05 0.27143893374562084 -4.8784484688407893e-06 -1.4775218847335846e-05 0.23057277196796691 -3.1638959812411186e-06 -1.2742267191688474e-05 0.31387801346930616 -3.6242215539999365e-06 -1.2945763798682983e-05 0.31030933772875374 -5.9651879830734998e-06 -0.1289654605087644 0.27143893374562084 -4.8784484688407893e-06 -1.4775218847335846e-05 0.31030933772875374 -5.9651879830734998e-06 -0.1289654605087644 0.22344745319704534 -4.911270296929687e-06 -0.098979626598148143 0.23057277196796691 -3.1638959812411186e-06 -1.2742267191688474e-05 0.27143893374562084 -4.8784484688407893e-06 -1.4775218847335846e-05 0.21574089098275745 -6.0128665280115097e-06 -0.23731113599681114 0.31030933772875374 -5.9651879830734998e-06 -0.1289654605087644 0.22344745319704534 -4.911270296929687e-06 -0.098979626598148143 0.22637989443584194 -3.4194094836257693e-06 -0.16885316456399896 0.22344745319704534 -4.911270296929687e-06 -0.098979626598148143 0.31030933772875374 -5.9651879830734998e-06 -0.1289654605087644 0.23057277196796691 -3.1638959812411186e-06 -1.2742267191688474e-05 0.22637989443584194 -3.4194094836257693e-06 -0.16885316456399896 0.23057277196796691 -3.1638959812411186e-06 -1.2742267191688474e-05 0.3103093377287538 -5.9651879830735007e-06 -0.12896546050876437 0.31387801346930616 -3.6242215539999365e-06 -1.2945763798682983e-05 0.22637989443584194 -3.4194094836257689e-06 -0.16885316456399896 0.27617519275648433 -1.7950638899229611e-06 -1.2085506657008317e-05 0.23057277196796691 -3.1638959812411186e-06 -1.2742267191688474e-05 0.31387801346930616 -3.6242215539999365e-06 -1.2945763798682983e-05 0.22637989443584194 -3.4194094836257693e-06 -0.16885316456399896 0.27617519275648433 -1.7950638899229611e-06 -1.2085506657008317e-05 0.31114777374481156 -1.997596158821425e-06 -0.23451177165470674 0.36571744004419943 -1.9397812466592487e-06 -1.5123860600616548e-05 0.35157332969084715 -3.0335623609979725e-07 -0.1628001319773103 0.27617519275648433 -1.7950638899229611e-06 -1.2085506657008317e-05 0.31387801346930616 -3.6242215539999365e-06 -1.2945763798682983e-05 0.31114777374481162 -1.9975961588214259e-06 -0.23451177165470674 0.22637989443584194 -3.4194094836257693e-06 -0.16885316456399896 0.36571744004419943 -1.9397812466592487e-06 -1.5123860600616548e-05 0.27617519275648433 -1.7950638899229611e-06 -1.2085506657016587e-05 0.31387801346930616 -3.6242215539999365e-06 -1.2945763798682983e-05 0.31114777374481156 -1.997596158821425e-06 -0.23451177165470674 0.27617519275648433 -1.7950638899229611e-06 -1.2085506657008317e-05 0.20725392975022658 -1.9819092859140732e-06 -1.0991663659009338e-05 0.23057277196796691 -3.1638959812411186e-06 -1.2742267191682731e-05 0.22637989443584194 -3.4194094836257693e-06 -0.16885316456399896 0.20725392975022658 -1.9819092859140732e-06 -1.0991663659009338e-05 0.27617519275648433 -1.7950638899229611e-06 -1.2085506657008317e-05 0.22638180992008103 -3.4219472022081746e-07 -0.18663793408543672 0.22637989443584194 -3.4194094836257693e-06 -0.16885316456399896 0.35157332969084715 -3.0335623609979725e-07 -0.1628001319773103 0.27617519275648439 -1.7950638899229611e-06 -1.2085506657014951e-05 0.226381809920081 -3.421947202208173e-07 -0.18663793408543672 0.30455642357383661 -1.4350759346082086e-07 -1.1064024949151987e-05 0.31114777374481162 -1.9975961588214254e-06 -0.23451177165470677 0.22638180992008103 -3.4219472022081746e-07 -0.18663793408543672 0.27617519275648428 -1.7950638899229611e-06 -1.2085506657022155e-05 0.22637989443584197 -3.4194094836257685e-06 -0.16885316456399893 0.35157332969084715 -3.0335623609979725e-07 -0.1628001319773103 0.22638180992008103 -3.4219472022081746e-07 -0.18663793408543672 0.27617519275648433 -1.7950638899229609e-06 -1.2085506657001537e-05 0.31114777374481162 -1.9975961588214254e-06 -0.23451177165470677 0.23507346707675242 2.5063337896829052e-07 -1.4050883435834513e-05 0.27617519275648433 -1.7950638899229611e-06 -1.2085506657007017e-05 0.30455642357383661 -1.4350759346082086e-07 -1.1064024949153286e-05 0.22638180992008103 -3.4219472022081746e-07 -0.18663793408543672 0.20725392975022658 -1.9819092859140732e-06 -1.0991663659009338e-05 0.27617519275648433 -1.7950638899229611e-06 -1.2085506657008317e-05 0.23507346707675242 2.5063337896829052e-07 -1.4050883435834513e-05 0.22638180992008103 -3.4219472022081746e-07 -0.18663793408543672 0.27617519275648433 -1.7950638899229611e-06 -1.2085506657008317e-05 0.36571744004419943 -1.9397812466592487e-06 -1.5123860600616548e-05 0.30455642357383667 -1.435075934608211e-07 -1.1064024949166447e-05 0.35157332969084715 -3.0335623609979725e-07 -0.1628001319773103 0.31114777374481162 -1.9975961588214254e-06 -0.23451177165470677 0.33950159773267918 2.9278784240283269e-07 -0.37259283566123869 0.22619892886928011 -2.3452065275424355e-08 -0.37381437153063996 0.22653183170620358 -2.619025458938563e-06 -0.39539491481799288 0.33950159773267918 2.927878424028328e-07 -0.37259283566123869 0.22653183170620358 -2.6190254589385634e-06 -0.39539491481799288 0.31114777374481162 -1.9975961588214259e-06 -0.23451177165470677 0.35275185738142778 -2.8589352885346302e-06 -0.37392362678872793 0.22619892886928009 -2.3452065275424338e-08 -0.37381437153063996 0.33950159773267918 2.927878424028328e-07 -0.37259283566123869 0.31114777374481162 -1.9975961588214242e-06 -0.23451177165470674 0.22638180992008103 -3.4219472022081703e-07 -0.18663793408543664 0.31114777374481162 -1.9975961588214254e-06 -0.23451177165470677 0.22638180992008103 -3.4219472022081751e-07 -0.18663793408543672 0.33950159773267918 2.927878424028328e-07 -0.37259283566123869 0.35157332969084715 -3.0335623609979725e-07 -0.1628001319773103 0.22653183170620358 -2.6190254589385634e-06 -0.39539491481799288 0.22638180992008095 -3.4219472022081762e-07 -0.18663793408543672 0.31114777374481156 -1.9975961588214254e-06 -0.23451177165470677 0.22637989443584197 -3.4194094836257706e-06 -0.16885316456399899 0.22619892886928009 -2.3452065275424338e-08 -0.37381437153063996 0.31114777374481156 -1.9975961588214254e-06 -0.23451177165470674 0.22653183170620358 -2.6190254589385634e-06 -0.39539491481799288 0.226381809920081 -3.4219472022081762e-07 -0.18663793408543666 0.37575123323378912 -4.9404436398084605e-06 -0.2244317997575119 0.31114777374481162 -1.9975961588214254e-06 -0.23451177165470677 0.30243830866434512 -5.4331166668039865e-06 -0.28808312746774384 0.35275185738142772 -2.8589352885346302e-06 -0.37392362678872793 0.31030933772875374 -5.9651879830734998e-06 -0.1289654605087644 0.30243830866434512 -5.4331166668039865e-06 -0.28808312746774384 0.37575123323378912 -4.9404436398084605e-06 -0.2244317997575119 0.31114777374481162 -1.9975961588214254e-06 -0.23451177165470677 0.30243830866434512 -5.4331166668039865e-06 -0.28808312746774384 0.21574089098275745 -6.0128665280115097e-06 -0.23731113599681114 0.22653183170620358 -2.6190254589385642e-06 -0.39539491481799283 0.22637989443584192 -3.4194094836257698e-06 -0.16885316456399901 0.31201738995145883 -4.1797508594781288e-06 -0.40506270654328136 0.30243830866434512 -5.4331166668039865e-06 -0.28808312746774384 0.22653183170620361 -2.6190254589385638e-06 -0.39539491481799288 0.35275185738142772 -2.8589352885346302e-06 -0.37392362678872793 0.31030933772875374 -5.9651879830734998e-06 -0.1289654605087644 0.30243830866434512 -5.4331166668039865e-06 -0.28808312746774384 0.31114777374481162 -1.9975961588214254e-06 -0.2345117716547068 0.22637989443584189 -3.4194094836257698e-06 -0.16885316456399896 0.30243830866434512 -5.4331166668039865e-06 -0.28808312746774384 0.22653183170620358 -2.6190254589385634e-06 -0.39539491481799283 0.31114777374481173 -1.997596158821425e-06 -0.23451177165470677 0.22637989443584194 -3.4194094836257689e-06 -0.16885316456399901 0.31114777374481162 -1.9975961588214254e-06 -0.23451177165470677 0.22653183170620358 -2.6190254589385634e-06 -0.39539491481799283 0.30243830866434512 -5.4331166668039865e-06 -0.28808312746774384 0.35275185738142772 -2.8589352885346302e-06 -0.37392362678872793 0.31030933772875374 -5.9651879830734998e-06 -0.1289654605087644 0.21574089098275745 -6.0128665280115097e-06 -0.23731113599681114 0.30243830866434512 -5.4331166668039865e-06 -0.28808312746774384 0.226379894435842 -3.4194094836257698e-06 -0.16885316456399896 0.22619885663055506 -5.1965511607049874e-06 -0.35915014205715967 0.30243830866434512 -5.4331166668039865e-06 -0.28808312746774384 0.21574089098275745 -6.0128665280115097e-06 -0.23731113599681114 0.22653183170620358 -2.6190254589385634e-06 -0.39539491481799288 0.22619885663055506 -5.1965511607049874e-06 -0.35915014205715967 0.31201738995145883 -4.1797508594781288e-06 -0.40506270654328136 0.30243830866434512 -5.4331166668039865e-06 -0.28808312746774384 0.22653183170620358 -2.6190254589385634e-06 -0.39539491481799288 0.30243830866434512 -5.4331166668039865e-06 -0.28808312746774384 0.31201738995145883 -4.1797508594781288e-06 -0.40506270654328136 0.37791031645205431 -4.9337075749980924e-06 -0.36656238848367467 0.35275185738142772 -2.8589352885346302e-06 -0.37392362678872793 0.45239828862708736 -3.18222459790595e-06 -0.23633581277947327 0.31114777374481162 -1.9975961588214254e-06 -0.23451177165470677 0.37575123323378912 -4.9404436398084605e-06 -0.22443179975751187 0.35275185738142772 -2.8589352885346298e-06 -0.37392362678872793 0.45239828862708736 -3.18222459790595e-06 -0.23633581277947327 0.45239851560274197 -3.1666497793754356e-06 -0.10946975409464715 0.37575123323378912 -4.9404436398084605e-06 -0.2244317997575119 0.31114777374481162 -1.9975961588214254e-06 -0.23451177165470677 0.37791031645205431 -4.9337075749980924e-06 -0.36656238848367467 0.37575123323378912 -4.9404436398084605e-06 -0.2244317997575119 0.30243830866434512 -5.4331166668039865e-06 -0.28808312746774384 0.35275185738142767 -2.8589352885346298e-06 -0.37392362678872787 0.37791031645205431 -4.9337075749980924e-06 -0.36656238848367467 0.45239828862708736 -3.1822245979059496e-06 -0.23633581277947327 0.37575123323378912 -4.9404436398084605e-06 -0.2244317997575119 0.35275185738142778 -2.8589352885346306e-06 -0.37392362678872793 0.37575123323378912 -4.9404436398084605e-06 -0.2244317997575119 0.37791031645205431 -4.9337075749980907e-06 -0.36656238848367467 0.45239755534625636 -5.9195449166402956e-06 -0.2990542288432767 0.45239828862708736 -3.18222459790595e-06 -0.23633581277947327 0.37791031645205431 -4.9337075749980924e-06 -0.36656238848367467 0.45239810186290258 -3.9205751742795032e-06 -0.3810420152836857 0.45239744523829717 -6.5721750873996516e-06 -0.44857449159167495 0.45239755534625636 -5.9195449166402948e-06 -0.2990542288432767 0.45239755534625636 -5.9195449166402948e-06 -0.2990542288432767 0.37791031645205431 -4.9337075749980924e-06 -0.36656238848367467 0.45239810186290258 -3.9205751742795041e-06 -0.38104201528368575 0.45239828862708736 -3.18222459790595e-06 -0.23633581277947327 0.45239828862708736 -3.18222459790595e-06 -0.23633581277947327 0.45239755534625636 -5.9195449166402939e-06 -0.2990542288432767 0.37575123323378912 -4.9404436398084605e-06 -0.2244317997575119 0.45239789033027783 -5.0343562562584087e-06 -0.1495339097183507 0.45239819617644433 -2.0405669175080158e-06 -0.34250719464964158 0.45239828862708736 -3.18222459790595e-06 -0.23633581277947327 0.45239810186290258 -3.9205751742795041e-06 -0.3810420152836857 0.35275185738142772 -2.8589352885346302e-06 -0.37392362678872793 0.37791031645205431 -4.9337075749980924e-06 -0.36656238848367467 0.45239810186290258 -3.9205751742795049e-06 -0.38104201528368575 0.45239828862708736 -3.1822245979059496e-06 -0.23633581277947327 0.35275185738142772 -2.8589352885346302e-06 -0.37392362678872787 0.45239827109130615 -1.2859759392806893e-06 -0.24616333192149337 0.31114777374481156 -1.9975961588214259e-06 -0.23451177165470682 0.33950159773267918 2.9278784240283216e-07 -0.37259283566123858 0.35157332969084715 -3.0335623609979725e-07 -0.1628001319773103 0.45239827109130615 -1.2859759392806893e-06 -0.24616333192149337 0.45239828862708736 -3.18222459790595e-06 -0.23633581277947327 0.45239819617644433 -2.0405669175080158e-06 -0.34250719464964158 0.31114777374481162 -1.9975961588214254e-06 -0.23451177165470677 0.45239819617644433 -2.0405669175080158e-06 -0.34250719464964158 0.33950159773267918 2.927878424028328e-07 -0.37259283566123874 0.31114777374481156 -1.997596158821425e-06 -0.23451177165470674 0.35275185738142767 -2.8589352885346294e-06 -0.37392362678872793 0.45239809958528293 -1.5922592677852768e-06 -0.12658150573285334 0.45239828862708731 -3.18222459790595e-06 -0.23633581277947324 0.45239827109130615 -1.2859759392806893e-06 -0.24616333192149337 0.31114777374481162 -1.9975961588214254e-06 -0.23451177165470677 0.45239819617644433 -2.0405669175080158e-06 -0.34250719464964158 0.31114777374481162 -1.9975961588214254e-06 -0.23451177165470674 0.45239828862708736 -3.18222459790595e-06 -0.23633581277947327 0.35275185738142778 -2.8589352885346306e-06 -0.37392362678872798 0.45239809958528293 -1.5922592677852768e-06 -0.12658150573285334 0.31114777374481162 -1.9975961588214254e-06 -0.23451177165470674 0.45239827109130615 -1.2859759392806893e-06 -0.24616333192149337 0.35157332969084715 -3.0335623609979656e-07 -0.16280013197731028 0.45239827109130615 -1.2859759392806893e-06 -0.24616333192149337 0.31114777374481162 -1.9975961588214254e-06 -0.23451177165470677 0.45239819617644433 -2.0405669175080158e-06 -0.34250719464964158 0.33950159773267924 2.9278784240283174e-07 -0.37259283566123863 0.4523982650556117 9.1110115012175981e-07 -0.24258437516895973 0.45239810150253279 -2.4545638796487979e-07 -0.12879692040830407 0.45239827109130615 -1.2859759392806893e-06 -0.24616333192149337 0.35157332969084715 -3.0335623609979725e-07 -0.1628001319773103 0.45239827109130615 -1.2859759392806893e-06 -0.24616333192149337 0.45239819617644433 -2.0405669175080158e-06 -0.34250719464964158 0.45239802113657634 -4.0475699137257002e-08 -0.38847856406132852 0.33950159773267924 2.9278784240283291e-07 -0.37259283566123874 0.45239809868051262 -1.8158165041814361e-06 -0.44821817744876591 0.33950159773267918 2.927878424028328e-07 -0.37259283566123869 0.31099076271617376 -2.0304804559765894e-06 -0.51393550518440234 0.35295691817522873 -5.9307337587658212e-08 -0.5832859229807682 0.45239809868051262 -1.8158165041814361e-06 -0.44821817744876591 0.4523979807729494 -1.1532891743718605e-06 -0.5437009151446629 0.31099076271617376 -2.0304804559765903e-06 -0.51393550518440234 0.36915463212804017 -2.6932182373331333e-06 -0.61005327103537976 0.45239809868051262 -1.8158165041814361e-06 -0.44821817744876591 0.45239793873711343 3.3347548110930448e-07 -0.50330265943169317 0.45239802113657634 -4.0475699137257002e-08 -0.38847856406132852 0.33950159773267918 2.927878424028328e-07 -0.37259283566123869 0.45239809868051262 -1.8158165041814361e-06 -0.44821817744876591 0.33950159773267918 2.927878424028328e-07 -0.37259283566123869 0.45239819617644433 -2.0405669175080158e-06 -0.34250719464964158 0.35275185738142767 -2.8589352885346298e-06 -0.37392362678872793 0.31099076271617376 -2.0304804559765894e-06 -0.51393550518440234 0.35275185738142767 -2.8589352885346298e-06 -0.37392362678872793 0.45239809868051262 -1.8158165041814359e-06 -0.44821817744876591 0.36915463212804012 -2.6932182373331329e-06 -0.61005327103537976 0.45239809868051262 -1.8158165041814361e-06 -0.44821817744876591 0.31099076271617376 -2.0304804559765894e-06 -0.51393550518440234 0.33950159773267918 2.9278784240283243e-07 -0.37259283566123869 0.35275185738142767 -2.8589352885346298e-06 -0.37392362678872787 0.45239793873711343 3.3347548110930448e-07 -0.50330265943169317 0.33950159773267918 2.9278784240283269e-07 -0.37259283566123869 0.45239809868051262 -1.8158165041814361e-06 -0.44821817744876591 0.35295691817522867 -5.9307337587658185e-08 -0.5832859229807682 0.4523979807729494 -1.1532891743718605e-06 -0.5437009151446629 0.45239809868051262 -1.8158165041814361e-06 -0.44821817744876591 0.31099076271617376 -2.0304804559765903e-06 -0.51393550518440234 0.35295691817522873 -5.9307337587656968e-08 -0.5832859229807682 0.45239809868051262 -1.8158165041814361e-06 -0.44821817744876591 0.45239802113657634 -4.0475699137257002e-08 -0.38847856406132852 0.45239819617644433 -2.0405669175080158e-06 -0.34250719464964158 0.33950159773267918 2.927878424028328e-07 -0.37259283566123869 0.4523979807729494 -1.1532891743718605e-06 -0.5437009151446629 0.45239793873711343 3.3347548110930448e-07 -0.50330265943169317 0.45239809868051262 -1.8158165041814361e-06 -0.44821817744876591 0.35295691817522873 -5.9307337587658212e-08 -0.5832859229807682 0.45239809868051262 -1.8158165041814361e-06 -0.44821817744876591 0.45239798125317671 -3.460221973525209e-06 -0.5275639507014237 0.4523979807729494 -1.1532891743718605e-06 -0.5437009151446629 0.36915463212804012 -2.6932182373331329e-06 -0.61005327103537976 0.45239809868051262 -1.8158165041814361e-06 -0.44821817744876591 0.45239819617644433 -2.0405669175080158e-06 -0.34250719464964158 0.45239810186290258 -3.9205751742795041e-06 -0.3810420152836857 0.35275185738142772 -2.8589352885346302e-06 -0.37392362678872793 0.45239810186290258 -3.9205751742795041e-06 -0.3810420152836857 0.36856833145498202 -5.3298586019848313e-06 -0.51522276718794791 0.45239798125317671 -3.460221973525209e-06 -0.5275639507014237 0.35275185738142767 -2.8589352885346294e-06 -0.37392362678872787 0.36856833145498202 -5.3298586019848313e-06 -0.51522276718794802 0.35275185738142767 -2.8589352885346311e-06 -0.37392362678872793 0.31099076271617376 -2.0304804559765886e-06 -0.51393550518440223 0.36915463212804012 -2.6932182373331329e-06 -0.61005327103537976 0.36856833145498202 -5.3298586019848313e-06 -0.51522276718794802 0.45239798125317671 -3.460221973525209e-06 -0.5275639507014237 0.35275185738142772 -2.8589352885346306e-06 -0.37392362678872793 0.36915463212804012 -2.6932182373331329e-06 -0.61005327103537976 0.45239798125317671 -3.460221973525209e-06 -0.5275639507014237 0.45239809868051262 -1.8158165041814361e-06 -0.44821817744876591 0.35275185738142772 -2.8589352885346302e-06 -0.37392362678872793 0.36915463212804012 -2.6932182373331329e-06 -0.61005327103537976 0.45239810186290258 -3.9205751742795041e-06 -0.3810420152836857 0.45239798125317671 -3.460221973525209e-06 -0.5275639507014237 0.45239809868051262 -1.8158165041814361e-06 -0.44821817744876591 0.35275185738142772 -2.8589352885346302e-06 -0.37392362678872793 0.45239798125317671 -3.460221973525209e-06 -0.5275639507014237 0.36856833145498202 -5.3298586019848313e-06 -0.51522276718794802 0.45239744523829717 -6.5721750873996516e-06 -0.44857449159167495 0.45239748684795927 -5.3673862790659512e-06 -0.59809464199964479 0.36856833145498202 -5.3298586019848313e-06 -0.51522276718794802 0.45239744523829717 -6.5721750873996516e-06 -0.44857449159167495 0.45239810186290258 -3.9205751742795041e-06 -0.3810420152836857 0.45239798125317671 -3.460221973525209e-06 -0.5275639507014237 0.45239810186290258 -3.9205751742795041e-06 -0.3810420152836857 0.45239744523829722 -6.5721750873996516e-06 -0.44857449159167495 0.36856833145498202 -5.3298586019848313e-06 -0.51522276718794802 0.37791031645205425 -4.9337075749980916e-06 -0.36656238848367456 0.36856833145498202 -5.3298586019848313e-06 -0.51522276718794802 0.37791031645205431 -4.9337075749980924e-06 -0.36656238848367467 0.31201738995145883 -4.1797508594781288e-06 -0.40506270654328136 0.35275185738142772 -2.8589352885346302e-06 -0.37392362678872793 0.36856833145498202 -5.3298586019848313e-06 -0.51522276718794802 0.45239810186290258 -3.9205751742795041e-06 -0.3810420152836857 0.37791031645205431 -4.9337075749980924e-06 -0.36656238848367467 0.35275185738142772 -2.8589352885346302e-06 -0.37392362678872793 0.31201738995145883 -4.1797508594781288e-06 -0.40506270654328136 0.27152987672919016 -6.0255620961681997e-06 -0.50503277846922234 0.31099076271617376 -2.0304804559765894e-06 -0.51393550518440234 0.22653183170620361 -2.6190254589385634e-06 -0.39539491481799294 0.27152987672919016 -6.0255620961681997e-06 -0.50503277846922234 0.36856833145498202 -5.3298586019848313e-06 -0.51522276718794802 0.31201738995145883 -4.1797508594781288e-06 -0.40506270654328136 0.31099076271617376 -2.0304804559765894e-06 -0.51393550518440234 0.36856833145498202 -5.3298586019848313e-06 -0.51522276718794802 0.31201738995145883 -4.1797508594781288e-06 -0.40506270654328136 0.31099076271617376 -2.0304804559765894e-06 -0.51393550518440223 0.35275185738142772 -2.8589352885346298e-06 -0.37392362678872798 0.31417945715021772 -4.9127555384946182e-06 -0.62874637006600564 0.31099076271617376 -2.0304804559765894e-06 -0.51393550518440234 0.27152987672919016 -6.0255620961681997e-06 -0.50503277846922234 0.22658175066792174 -3.1033533060508919e-06 -0.58377714103432365 0.31099076271617376 -2.0304804559765894e-06 -0.51393550518440234 0.31201738995145878 -4.1797508594781288e-06 -0.40506270654328141 0.22653183170620356 -2.619025458938563e-06 -0.39539491481799283 0.35275185738142772 -2.8589352885346302e-06 -0.37392362678872793 0.31099076271617376 -2.0304804559765894e-06 -0.51393550518440234 0.22653183170620356 -2.6190254589385625e-06 -0.39539491481799283 0.27152987672919016 -6.0255620961681997e-06 -0.50503277846922234 0.22658175066792174 -3.1033533060508919e-06 -0.58377714103432365 0.27152987672919016 -6.0255620961681997e-06 -0.50503277846922234 0.36856833145498202 -5.3298586019848313e-06 -0.51522276718794802 0.31099076271617376 -2.0304804559765894e-06 -0.51393550518440234 0.36915463212804012 -2.6932182373331329e-06 -0.61005327103537976 0.31201738995145883 -4.1797508594781288e-06 -0.40506270654328136 0.22619885663055506 -5.1965511607049874e-06 -0.35915014205715967 0.27152987672919016 -6.0255620961681997e-06 -0.50503277846922234 0.22653183170620358 -2.6190254589385647e-06 -0.39539491481799288 0.22619892886928009 -2.3452065275424338e-08 -0.37381437153063996 0.31099076271617376 -2.0304804559765894e-06 -0.51393550518440223 0.2253673042186822 2.4790669938359956e-07 -0.56105647851103446 0.22653183170620358 -2.6190254589385634e-06 -0.39539491481799288 0.31099076271617376 -2.0304804559765894e-06 -0.51393550518440234 0.22619892886928009 -2.345206527542453e-08 -0.3738143715306399 0.33950159773267913 2.9278784240283269e-07 -0.37259283566123858 0.22653183170620353 -2.6190254589385634e-06 -0.39539491481799272 0.31099076271617376 -2.0304804559765894e-06 -0.51393550518440234 0.33950159773267918 2.9278784240283343e-07 -0.37259283566123869 0.22619892886928009 -2.3452065275424338e-08 -0.37381437153063996 0.22536730421868226 2.4790669938359945e-07 -0.56105647851103457 0.33950159773267918 2.927878424028328e-07 -0.37259283566123869 0.22536730421868223 2.4790669938359887e-07 -0.56105647851103457 0.31099076271617376 -2.0304804559765894e-06 -0.51393550518440234 0.35295691817522873 -5.9307337587658212e-08 -0.5832859229807682 0.2253673042186822 2.479066993835993e-07 -0.56105647851103446 0.22653183170620358 -2.6190254589385634e-06 -0.39539491481799288 0.31099076271617376 -2.0304804559765894e-06 -0.51393550518440234 0.22658175066792174 -3.1033533060508919e-06 -0.58377714103432365 0.31099076271617376 -2.0304804559765894e-06 -0.51393550518440234 0.22653183170620356 -2.619025458938563e-06 -0.39539491481799283 0.33950159773267924 2.9278784240283275e-07 -0.37259283566123869 0.35275185738142772 -2.8589352885346302e-06 -0.37392362678872793 0.20725386515383803 -2.1524730192561133e-06 -0.74761549873995914 0.2253673042186822 2.479066993835993e-07 -0.56105647851103446 0.27122291122111131 -1.8041343499400903e-06 -0.74761540611933197 0.22658175066792174 -3.1033533060508919e-06 -0.58377714103432365 0.27122291122111131 -1.8041343499400903e-06 -0.74761540611933197 0.31099076271617371 -2.030480455976589e-06 -0.51393550518440223 0.32900261618037208 -1.1400838542623619e-06 -0.74761532423216792 0.36915463212804012 -2.6932182373331329e-06 -0.61005327103537976 0.27122291122111131 -1.8041343499400903e-06 -0.74761540611933197 0.31099076271617376 -2.0304804559765894e-06 -0.51393550518440234 0.2253673042186822 2.479066993835984e-07 -0.56105647851103446 0.35295691817522873 -5.9307337587658212e-08 -0.5832859229807682 0.27122291122111131 -1.8041343499400903e-06 -0.74761540611933197 0.22658175066792174 -3.1033533060508919e-06 -0.58377714103432365 0.31099076271617382 -2.0304804559765903e-06 -0.51393550518440234 0.36915463212804012 -2.6932182373331329e-06 -0.61005327103537976 0.27122291122111131 -1.8041343499400903e-06 -0.74761540611933197 0.22536730421868223 2.4790669938359908e-07 -0.56105647851103446 0.31099076271617376 -2.0304804559765886e-06 -0.51393550518440234 0.22658175066792172 -3.1033533060508919e-06 -0.58377714103432365 0.27122291122111131 -1.8041343499400903e-06 -0.74761540611933197 0.32900261618037202 -1.1400838542623623e-06 -0.7476153242321677 0.31099076271617376 -2.0304804559765894e-06 -0.51393550518440234 0.35295691817522873 -5.9307337587658212e-08 -0.5832859229807682 0.27122291122111131 -1.8041343499400903e-06 -0.74761540611933197 0.22536730421868223 2.479066993835993e-07 -0.56105647851103446 0.30455635680792603 2.8156745527417359e-07 -0.74761534384395167 0.35295691817522873 -5.9307337587658212e-08 -0.5832859229807682 0.31923752228565766 -3.1606193694005413e-06 -0.74761532563246857 0.27122291122111131 -1.8041343499400903e-06 -0.74761540611933197 0.32900261618037202 -1.1400838542623619e-06 -0.74761532423216781 0.36915463212804012 -2.6932182373331329e-06 -0.61005327103537976 0.27122291122111131 -1.8041343499400903e-06 -0.74761540611933197 0.30455635680792603 2.8156745527417353e-07 -0.74761534384395167 0.32900261618037202 -1.1400838542623619e-06 -0.74761532423216781 0.35295691817522873 -5.9307337587658212e-08 -0.5832859229807682 0.20725386515383803 -2.1524730192561133e-06 -0.74761549873995914 0.23507266646833469 -6.2278586589232347e-08 -0.74761543421025201 0.27122291122111131 -1.8041343499400903e-06 -0.74761540611933197 0.2253673042186822 2.479066993835993e-07 -0.56105647851103446 0.30455635680792603 2.8156745527417353e-07 -0.74761534384395167 0.27122291122111125 -1.8041343499400901e-06 -0.74761540611933197 0.23507266646833469 -6.2278586589232294e-08 -0.74761543421025201 0.2253673042186822 2.479066993835993e-07 -0.56105647851103446 0.27122291122111131 -1.8041343499400903e-06 -0.74761540611933197 0.23057252595542499 -3.9481978485994312e-06 -0.74761546523128186 0.20725386515383803 -2.1524730192561133e-06 -0.74761549873995914 0.22658175066792174 -3.1033533060508919e-06 -0.58377714103432365 0.23057252595542502 -3.9481978485994312e-06 -0.74761546523128186 0.31923752228565766 -3.1606193694005413e-06 -0.74761532563246857 0.31417945715021772 -4.9127555384946182e-06 -0.62874637006600553 0.22658175066792172 -3.1033533060508919e-06 -0.58377714103432354 0.31099076271617376 -2.0304804559765894e-06 -0.51393550518440234 0.22658175066792174 -3.1033533060508919e-06 -0.58377714103432365 0.31417945715021772 -4.9127555384946182e-06 -0.62874637006600564 0.36915463212804012 -2.6932182373331329e-06 -0.61005327103537976 0.31923752228565766 -3.1606193694005413e-06 -0.74761532563246857 0.31417945715021772 -4.9127555384946182e-06 -0.62874637006600576 0.22658175066792177 -3.1033533060508919e-06 -0.58377714103432365 0.36915463212804006 -2.6932182373331324e-06 -0.61005327103537965 0.31923752228565766 -3.1606193694005413e-06 -0.74761532563246857 0.22658175066792174 -3.1033533060508919e-06 -0.58377714103432365 0.27122291122111131 -1.8041343499400903e-06 -0.74761540611933197 0.36915463212804006 -2.6932182373331324e-06 -0.61005327103537965 0.31923752228565766 -3.1606193694005413e-06 -0.74761532563246857 0.23057252595542502 -3.9481978485994312e-06 -0.74761546523128186 0.27122291122111131 -1.8041343499400903e-06 -0.74761540611933197 0.22658175066792177 -3.1033533060508923e-06 -0.58377714103432377 0.27152987672919016 -6.0255620961681997e-06 -0.50503277846922234 0.31099076271617371 -2.0304804559765869e-06 -0.51393550518440245 0.31417945715021772 -4.9127555384946182e-06 -0.62874637006600564 0.36915463212804012 -2.6932182373331329e-06 -0.61005327103537976 0.31417945715021772 -4.9127555384946182e-06 -0.62874637006600564 0.27152987672919016 -6.0255620961681997e-06 -0.50503277846922234 0.22545932766464066 -5.3824667730861968e-06 -0.61883269716332878 0.22658175066792174 -3.1033533060508919e-06 -0.58377714103432365 0.31417945715021772 -4.9127555384946182e-06 -0.62874637006600564 0.22545932766464066 -5.3824667730861968e-06 -0.61883269716332878 0.23057252595542502 -3.9481978485994312e-06 -0.74761546523128186 0.22658175066792174 -3.1033533060508919e-06 -0.58377714103432365 0.2714387039165374 -5.8833684751383395e-06 -0.74761577928867673 0.22545932766464066 -5.3824667730861968e-06 -0.61883269716332878 0.23057252595542502 -3.9481978485994312e-06 -0.74761546523128186 0.31417945715021772 -4.9127555384946182e-06 -0.62874637006600564 0.23057252595542502 -3.9481978485994312e-06 -0.74761546523128186 0.18095890399991613 -6.2968999793141703e-06 -0.74761600596921329 0.22545932766464066 -5.3824667730861977e-06 -0.61883269716332878 0.2714387039165374 -5.8833684751383395e-06 -0.74761577928867673 0.23057252595542502 -3.9481978485994312e-06 -0.74761546523128186 0.31923752228565766 -3.1606193694005413e-06 -0.74761532563246857 0.2714387039165374 -5.8833684751383387e-06 -0.74761577928867673 0.31417945715021772 -4.9127555384946182e-06 -0.62874637006600564 0.31923752228565766 -3.1606193694005413e-06 -0.74761532563246857 0.2714387039165374 -5.8833684751383395e-06 -0.74761577928867673 0.31417945715021772 -4.9127555384946182e-06 -0.62874637006600564 0.36191825775458719 -4.7788653289545406e-06 -0.74761543564390376 0.27152987672919016 -6.0255620961681997e-06 -0.50503277846922234 0.31417945715021778 -4.9127555384946182e-06 -0.62874637006600576 0.36856833145498202 -5.3298586019848313e-06 -0.51522276718794802 0.36915463212804012 -2.6932182373331329e-06 -0.61005327103537976 0.31923752228565766 -3.1606193694005413e-06 -0.74761532563246857 0.38616212557802154 -3.3032523123399745e-06 -0.74761516152560337 0.31417945715021772 -4.9127555384946173e-06 -0.62874637006600564 0.36915463212804012 -2.6932182373331324e-06 -0.61005327103537976 0.38616212557802154 -3.3032523123399745e-06 -0.74761516152560337 0.31923752228565766 -3.1606193694005413e-06 -0.74761532563246857 0.38532386454645201 -1.9652430193378566e-06 -0.74761528847503544 0.36915463212804012 -2.6932182373331329e-06 -0.61005327103537976 0.45239798125317671 -3.460221973525209e-06 -0.5275639507014237 0.36856833145498208 -5.3298586019848313e-06 -0.51522276718794813 0.38616217446831647 -3.9565373814610825e-06 -0.63815876286827267 0.36915463212804006 -2.6932182373331324e-06 -0.61005327103537965 0.31417945715021772 -4.9127555384946182e-06 -0.62874637006600564 0.38616217446831647 -3.9565373814610825e-06 -0.63815876286827267 0.36856833145498202 -5.3298586019848313e-06 -0.51522276718794802 0.36915463212804012 -2.6932182373331329e-06 -0.61005327103537976 0.38616217446831647 -3.9565373814610825e-06 -0.63815876286827267 0.31417945715021772 -4.9127555384946182e-06 -0.62874637006600564 0.38616212557802154 -3.3032523123399745e-06 -0.74761516152560337 0.36915463212804012 -2.6932182373331329e-06 -0.61005327103537976 0.36191825775458719 -4.7788653289545406e-06 -0.74761543564390376 0.31417945715021767 -4.9127555384946182e-06 -0.62874637006600553 0.31923752228565766 -3.1606193694005413e-06 -0.74761532563246857 0.38616212557802154 -3.3032523123399745e-06 -0.74761516152560337 0.36191825775458719 -4.7788653289545406e-06 -0.74761543564390376 0.38616217446831652 -3.9565373814610825e-06 -0.63815876286827267 0.31417945715021772 -4.9127555384946182e-06 -0.62874637006600564 0.38616212557802154 -3.3032523123399745e-06 -0.74761516152560337 0.45239753456393345 -5.4202109916439864e-06 -0.74761530132996323 0.45239802186525946 -3.4795037575714494e-06 -0.63815866595094428 0.38616217446831647 -3.9565373814610825e-06 -0.63815876286827267 0.38616212557802154 -3.3032523123399745e-06 -0.74761516152560337 0.36191825775458719 -4.7788653289545406e-06 -0.74761543564390376 0.45239753456393345 -5.4202109916439864e-06 -0.74761530132996334 0.38616217446831647 -3.9565373814610825e-06 -0.63815876286827267 0.38616212557802154 -3.3032523123399745e-06 -0.74761516152560337 0.38616212557802154 -3.3032523123399745e-06 -0.74761516152560337 0.45239753456393345 -5.4202109916439864e-06 -0.74761530132996323 0.45239802186525946 -3.4795037575714494e-06 -0.63815866595094428 0.45239786620634226 -2.9426283490309148e-06 -0.74761519188372394 0.38616217446831647 -3.9565373814610825e-06 -0.63815876286827267 0.45239802186525946 -3.4795037575714494e-06 -0.63815866595094439 0.45239753456393345 -5.4202109916439864e-06 -0.74761530132996323 0.45239748684795927 -5.3673862790659512e-06 -0.59809464199964479 0.38616217446831647 -3.9565373814610825e-06 -0.63815876286827267 0.36856833145498202 -5.3298586019848313e-06 -0.51522276718794802 0.45239798125317671 -3.4602219735252095e-06 -0.5275639507014237 0.45239748684795927 -5.3673862790659512e-06 -0.59809464199964479 0.45239798125317671 -3.460221973525209e-06 -0.5275639507014237 0.4523980218652594 -3.4795037575714489e-06 -0.63815866595094428 0.38616217446831647 -3.9565373814610825e-06 -0.63815876286827267 0.45239748684795927 -5.3673862790659512e-06 -0.59809464199964479 0.45239802186525946 -3.4795037575714494e-06 -0.63815866595094428 0.45239788255754937 -1.9842498340398374e-06 -0.63677350261281229 0.45239798125317671 -3.460221973525209e-06 -0.5275639507014237 0.36915463212804012 -2.6932182373331329e-06 -0.61005327103537976 0.45239798125317671 -3.460221973525209e-06 -0.5275639507014237 0.38616217446831647 -3.9565373814610825e-06 -0.63815876286827267 0.45239802186525946 -3.4795037575714494e-06 -0.63815866595094428 0.36915463212804012 -2.6932182373331329e-06 -0.61005327103537976 0.38616212557802154 -3.3032523123399745e-06 -0.74761516152560337 0.38532386454645201 -1.9652430193378566e-06 -0.74761528847503544 0.45239786620634226 -2.9426283490309148e-06 -0.74761519188372394 0.36915463212804012 -2.6932182373331329e-06 -0.61005327103537976 0.45239802186525946 -3.4795037575714494e-06 -0.63815866595094428 0.38616212557802149 -3.303252312339974e-06 -0.74761516152560337 0.45239786620634226 -2.9426283490309148e-06 -0.74761519188372394 0.36915463212804012 -2.6932182373331329e-06 -0.61005327103537976 0.45239802186525946 -3.4795037575714494e-06 -0.63815866595094428 0.45239786620634226 -2.9426283490309148e-06 -0.74761519188372394 0.45239788255754937 -1.9842498340398374e-06 -0.63677350261281229 0.36915463212804012 -2.6932182373331329e-06 -0.61005327103537976 0.38616217446831647 -3.9565373814610825e-06 -0.63815876286827267 0.38616212557802154 -3.3032523123399745e-06 -0.74761516152560337 0.45239802186525946 -3.4795037575714494e-06 -0.63815866595094428 0.36915463212804017 -2.6932182373331337e-06 -0.61005327103537987 0.45239786620634226 -2.9426283490309148e-06 -0.74761519188372394 0.45239788255754942 -1.9842498340398374e-06 -0.6367735026128124 0.38532386454645201 -1.965243019337857e-06 -0.74761528847503544 0.45239777873337311 -9.8910511783772217e-07 -0.74761521941259101 0.45239786620634226 -2.9426283490309148e-06 -0.74761519188372394 0.38532386454645207 -1.9652430193378562e-06 -0.74761528847503544 0.45239788255754937 -1.9842498340398374e-06 -0.63677350261281229 0.36915463212804012 -2.6932182373331333e-06 -0.61005327103537965 0.45239788255754937 -1.9842498340398374e-06 -0.63677350261281229 0.38532386454645201 -1.9652430193378562e-06 -0.74761528847503544 0.35295691817522873 -5.9307337587658146e-08 -0.5832859229807682 0.36915463212804023 -2.6932182373331329e-06 -0.61005327103537987 0.31099076271617376 -2.0304804559765894e-06 -0.51393550518440234 0.35295691817522873 -5.9307337587658391e-08 -0.5832859229807682 0.32900261618037202 -1.1400838542623625e-06 -0.74761532423216781 0.36915463212804012 -2.6932182373331329e-06 -0.61005327103537976 0.4523979807729494 -1.1532891743718605e-06 -0.5437009151446629 0.45239788255754937 -1.9842498340398374e-06 -0.63677350261281229 0.35295691817522873 -5.9307337587658245e-08 -0.5832859229807682 0.36915463212804006 -2.6932182373331333e-06 -0.61005327103537965 0.38532386454645201 -1.9652430193378566e-06 -0.74761528847503544 0.32900261618037202 -1.1400838542623619e-06 -0.74761532423216781 0.35295691817522873 -5.9307337587658212e-08 -0.5832859229807682 0.36915463212804012 -2.6932182373331329e-06 -0.61005327103537976 0.4523979807729494 -1.1532891743718605e-06 -0.5437009151446629 0.35295691817522873 -5.9307337587658e-08 -0.58328592298076831 0.31099076271617376 -2.0304804559765898e-06 -0.51393550518440223 0.36915463212804006 -2.6932182373331329e-06 -0.61005327103537976 0.38532386454645201 -1.9652430193378566e-06 -0.74761528847503544 0.45239788255754937 -1.9842498340398369e-06 -0.63677350261281229 0.45239785667637838 -1.1827327175497001e-07 -0.62943367556446383 0.45239777873337311 -9.8910511783772217e-07 -0.74761521941259101 0.32900261618037202 -1.1400838542623619e-06 -0.74761532423216781 0.38532386454645196 -1.9652430193378566e-06 -0.74761528847503533 0.31923752228565766 -3.1606193694005413e-06 -0.74761532563246857 0.36915463212804012 -2.6932182373331329e-06 -0.61005327103537976 0.45239798125317671 -3.460221973525209e-06 -0.5275639507014237 0.45239788255754937 -1.9842498340398374e-06 -0.63677350261281229 0.4523979807729494 -1.1532891743718605e-06 -0.5437009151446629 0.36915463212804012 -2.6932182373331329e-06 -0.61005327103537976 0.38532386454645201 -1.9652430193378566e-06 -0.74761528847503544 0.45239785667637833 -1.182732717549698e-07 -0.62943367556446372 0.45239788255754937 -1.9842498340398374e-06 -0.63677350261281229 0.35295691817522873 -5.9307337587658212e-08 -0.5832859229807682 0.45239788255754937 -1.9842498340398374e-06 -0.63677350261281229 0.45239785667637838 -1.1827327175497029e-07 -0.62943367556446383 0.4523979807729494 -1.1532891743718605e-06 -0.5437009151446629 0.35295691817522873 -5.9307337587658212e-08 -0.5832859229807682 0.4523979807729494 -1.1532891743718605e-06 -0.5437009151446629 0.45239785667637838 -1.1827327175497007e-07 -0.62943367556446383 0.45239793873711343 3.3347548110930448e-07 -0.50330265943169317 0.35295691817522873 -5.9307337587658212e-08 -0.5832859229807682 0.32900261618037202 -1.1400838542623619e-06 -0.74761532423216781 0.30455635680792603 2.8156745527417348e-07 -0.74761534384395167 0.38088230978912391 -1.4033748005469285e-07 -0.74761525110687033 0.35295691817522873 -5.9307337587658212e-08 -0.5832859229807682 0.38088230978912391 -1.4033748005469288e-07 -0.74761525110687044 0.38532386454645201 -1.9652430193378566e-06 -0.74761528847503544 0.32900261618037202 -1.1400838542623619e-06 -0.74761532423216781 0.35295691817522873 -5.9307337587658212e-08 -0.5832859229807682 0.38088230978912391 -1.4033748005469288e-07 -0.74761525110687044 0.45239785667637838 -1.1827327175497001e-07 -0.62943367556446383 0.38532386454645201 -1.9652430193378566e-06 -0.74761528847503544 0.35295691817522873 -5.9307337587658205e-08 -0.5832859229807682 0.45239777873337311 -9.8910511783772217e-07 -0.74761521941259101 0.45239785667637838 -1.1827327175497001e-07 -0.62943367556446383 0.38088230978912391 -1.4033748005469288e-07 -0.74761525110687044 0.45239773565765989 9.9379566064857424e-07 -0.74761515937562362 0.45239785667637838 -1.1827327175497001e-07 -0.62943367556446383 0.38088230978912396 -1.4033748005469254e-07 -0.74761525110687044 0.38532386454645207 -1.965243019337857e-06 -0.74761528847503533 0.45239777873337311 -9.8910511783772217e-07 -0.74761521941259101 0.36571764143587643 1.7975114520197534e-06 -0.74761521517145679 0.35295691817522884 -5.9307337587658483e-08 -0.5832859229807682 0.31056738938901346 1.8040401496819169e-06 -0.51323589861555285 0.35143711064082406 3.0095762289039325e-06 -0.61054067523339839 0.36571764143587643 1.7975114520197534e-06 -0.74761521517145679 0.45239784666739641 1.8524615216916193e-06 -0.60437360783281691 0.35295691817522873 -5.9307337587658212e-08 -0.5832859229807682 0.35143711064082406 3.0095762289039325e-06 -0.61054067523339839 0.45239773565765989 9.9379566064857424e-07 -0.74761515937562362 0.45239785667637838 -1.1827327175497001e-07 -0.62943367556446383 0.38088230978912391 -1.4033748005469288e-07 -0.74761525110687044 0.45239784666739641 1.8524615216916193e-06 -0.60437360783281702 0.31056738938901352 1.8040401496819158e-06 -0.51323589861555274 0.35295691817522873 -5.9307337587658073e-08 -0.58328592298076831 0.45239784666739641 1.8524615216916195e-06 -0.60437360783281713 0.35143711064082406 3.0095762289039325e-06 -0.61054067523339839 0.38088230978912391 -1.4033748005469288e-07 -0.74761525110687044 0.45239773565765989 9.9379566064857424e-07 -0.74761515937562373 0.45239784666739641 1.8524615216916193e-06 -0.60437360783281702 0.36571764143587643 1.7975114520197534e-06 -0.74761521517145679 0.45239773565765989 9.9379566064857424e-07 -0.74761515937562362 0.45239784666739641 1.8524615216916193e-06 -0.60437360783281702 0.36571764143587643 1.7975114520197534e-06 -0.74761521517145679 0.45239771752934277 2.9943991563338279e-06 -0.74761503222894932 0.38088230978912391 -1.4033748005469288e-07 -0.74761525110687044 0.30455635680792603 2.8156745527417353e-07 -0.74761534384395167 0.36571764143587643 1.7975114520197534e-06 -0.74761521517145679 0.35295691817522873 -5.9307337587658212e-08 -0.5832859229807682 0.38088230978912391 -1.4033748005469288e-07 -0.74761525110687044 0.36571764143587643 1.7975114520197534e-06 -0.74761521517145679 0.45239784666739641 1.8524615216916193e-06 -0.60437360783281702 0.35295691817522873 -5.9307337587658212e-08 -0.5832859229807682 0.45239784666739641 1.8524615216916193e-06 -0.60437360783281702 0.45239793873711343 3.3347548110930437e-07 -0.50330265943169306 0.45239785667637838 -1.1827327175497001e-07 -0.62943367556446383 0.35295691817522873 -5.9307337587658212e-08 -0.5832859229807682 0.45239784666739641 1.8524615216916193e-06 -0.60437360783281702 0.45239785667637838 -1.1827327175497001e-07 -0.62943367556446383 0.38088230978912391 -1.403374800546928e-07 -0.74761525110687044 0.35295691817522873 -5.9307337587658212e-08 -0.5832859229807682 0.45239794983398829 1.9878562098913827e-06 -0.45617379715521728 0.35295691817522867 -5.9307337587658986e-08 -0.58328592298076809 0.33950159773267918 2.9278784240283296e-07 -0.37259283566123869 0.45239793873711343 3.3347548110930448e-07 -0.50330265943169317 0.45239794983398829 1.9878562098913827e-06 -0.45617379715521728 0.33950159773267918 2.9278784240283243e-07 -0.37259283566123863 0.31056738938901346 1.8040401496819162e-06 -0.51323589861555263 0.35004137673566615 3.2786141008641372e-06 -0.37253638369815345 0.45239794983398829 1.9878562098913827e-06 -0.45617379715521728 0.31056738938901352 1.8040401496819162e-06 -0.51323589861555274 0.45239789210952769 3.6830725517527065e-06 -0.5185611904459918 0.35004137673566621 3.2786141008641368e-06 -0.37253638369815345 0.45239784666739641 1.8524615216916193e-06 -0.60437360783281702 0.45239794983398829 1.9878562098913827e-06 -0.45617379715521728 0.31056738938901352 1.8040401496819169e-06 -0.51323589861555274 0.35143711064082406 3.0095762289039325e-06 -0.61054067523339839 0.45239794983398829 1.9878562098913827e-06 -0.45617379715521728 0.45239804988469379 1.9906771343841719e-06 -0.34250691644958181 0.33950159773267918 2.927878424028328e-07 -0.37259283566123869 0.35004137673566615 3.2786141008641368e-06 -0.37253638369815339 0.33950159773267918 2.927878424028328e-07 -0.37259283566123869 0.35295691817522867 -5.9307337587658331e-08 -0.5832859229807682 0.45239794983398834 1.9878562098913827e-06 -0.45617379715521728 0.31056738938901352 1.8040401496819158e-06 -0.51323589861555274 0.45239784666739641 1.8524615216916193e-06 -0.60437360783281702 0.31056738938901352 1.8040401496819158e-06 -0.51323589861555274 0.45239794983398834 1.9878562098913827e-06 -0.45617379715521728 0.35295691817522873 -5.9307337587658212e-08 -0.5832859229807682 0.45239793873711343 3.3347548110930448e-07 -0.50330265943169317 0.45239784666739641 1.852461521691619e-06 -0.60437360783281713 0.45239794983398829 1.9878562098913827e-06 -0.45617379715521728 0.35295691817522867 -5.9307337587658192e-08 -0.5832859229807682 0.45239794983398829 1.9878562098913827e-06 -0.45617379715521728 0.45239802113657634 -4.0475699137257002e-08 -0.38847856406132852 0.45239793873711343 3.3347548110930442e-07 -0.50330265943169317 0.33950159773267918 2.927878424028328e-07 -0.37259283566123869 0.45239794983398829 1.9878562098913827e-06 -0.45617379715521728 0.45239804988469379 1.9906771343841719e-06 -0.34250691644958181 0.45239802113657634 -4.0475699137257101e-08 -0.38847856406132852 0.33950159773267918 2.927878424028328e-07 -0.37259283566123869 0.45239794983398829 1.9878562098913827e-06 -0.45617379715521728 0.4523980462830417 3.4689213189745766e-06 -0.37981969267544152 0.45239804988469379 1.9906771343841719e-06 -0.34250691644958181 0.35004137673566621 3.2786141008641368e-06 -0.37253638369815345 0.45239789210952769 3.6830725517527065e-06 -0.5185611904459918 0.35004137673566627 3.2786141008641368e-06 -0.37253638369815351 0.31056738938901357 1.8040401496819143e-06 -0.51323589861555274 0.35143711064082406 3.0095762289039325e-06 -0.61054067523339839 0.31056738938901352 1.8040401496819158e-06 -0.51323589861555274 0.35004137673566632 3.2786141008641368e-06 -0.37253638369815356 0.36800835715243507 5.2223788606017942e-06 -0.51152967237792368 0.35143711064082411 3.0095762289039325e-06 -0.6105406752333985 0.45239789210952769 3.6830725517527065e-06 -0.5185611904459918 0.31056738938901346 1.8040401496819177e-06 -0.51323589861555263 0.45239794983398829 1.9878562098913827e-06 -0.45617379715521728 0.35143711064082406 3.0095762289039325e-06 -0.61054067523339839 0.45239784666739641 1.8524615216916193e-06 -0.60437360783281702 0.45239789210952769 3.6830725517527065e-06 -0.5185611904459918 0.45239794983398829 1.9878562098913827e-06 -0.45617379715521728 0.35143711064082406 3.0095762289039325e-06 -0.61054067523339839 0.45239789210952769 3.6830725517527065e-06 -0.5185611904459918 0.36800835715243507 5.222378860601795e-06 -0.51152967237792368 0.35004137673566627 3.2786141008641368e-06 -0.37253638369815351 0.35143711064082406 3.0095762289039325e-06 -0.61054067523339839 0.4523980462830417 3.468921318974577e-06 -0.37981969267544152 0.45239794983398829 1.9878562098913827e-06 -0.45617379715521728 0.45239789210952769 3.6830725517527065e-06 -0.5185611904459918 0.35004137673566627 3.2786141008641368e-06 -0.37253638369815351 0.45239789210952769 3.6830725517527065e-06 -0.5185611904459918 0.39251133551049139 4.8943700049111594e-06 -0.37836073788045577 0.4523980462830417 3.468921318974577e-06 -0.37981969267544152 0.35004137673566627 3.2786141008641368e-06 -0.37253638369815351 0.45239782060893841 5.3095599753517348e-06 -0.44857428432505347 0.4523980462830417 3.468921318974577e-06 -0.37981969267544152 0.45239789210952769 3.6830725517527065e-06 -0.5185611904459918 0.39251133551049139 4.8943700049111586e-06 -0.37836073788045582 0.39251133551049139 4.8943700049111586e-06 -0.37836073788045582 0.45239782060893841 5.3095599753517348e-06 -0.44857428432505347 0.4523980462830417 3.468921318974577e-06 -0.37981969267544152 0.45239817010782996 4.8630715435789774e-06 -0.2990537520298866 0.45239789210952769 3.6830725517527065e-06 -0.5185611904459918 0.36800835715243502 5.222378860601795e-06 -0.51152967237792368 0.45239782060893841 5.3095599753517348e-06 -0.44857428432505347 0.39251133551049133 4.8943700049111569e-06 -0.37836073788045571 0.39251133551049139 4.8943700049111586e-06 -0.37836073788045582 0.36800835715243502 5.222378860601795e-06 -0.51152967237792368 0.30871758577478681 6.0573994822422e-06 -0.39108448645523286 0.35004137673566627 3.2786141008641368e-06 -0.37253638369815351 0.36800835715243502 5.222378860601795e-06 -0.51152967237792368 0.39251133551049139 4.8943700049111586e-06 -0.37836073788045582 0.45239789210952769 3.6830725517527069e-06 -0.5185611904459918 0.35004137673566627 3.2786141008641368e-06 -0.37253638369815351 0.45239789210952769 3.6830725517527065e-06 -0.5185611904459918 0.36800835715243507 5.2223788606017959e-06 -0.51152967237792379 0.45239724559513522 5.7804473085785428e-06 -0.59809452672390628 0.45239782060893841 5.3095599753517348e-06 -0.44857428432505347 0.45239724559513522 5.7804473085785428e-06 -0.59809452672390628 0.38616208728788798 3.8679863918206618e-06 -0.63815875121292476 0.36800835715243502 5.222378860601795e-06 -0.51152967237792368 0.45239789210952769 3.6830725517527065e-06 -0.5185611904459918 0.38616208728788803 3.8679863918206618e-06 -0.63815875121292476 0.45239789210952769 3.6830725517527065e-06 -0.51856119044599192 0.45239798687842048 3.4739514258625675e-06 -0.63815853006772927 0.351437110640824 3.0095762289039325e-06 -0.61054067523339839 0.38616208728788803 3.8679863918206618e-06 -0.63815875121292476 0.45239724559513522 5.7804473085785428e-06 -0.59809452672390628 0.45239798687842048 3.4739514258625675e-06 -0.63815853006772916 0.45239789210952774 3.6830725517527074e-06 -0.51856119044599192 0.38616201953323442 3.4852684134570001e-06 -0.74761509028301187 0.45239744925613129 5.2995253053353061e-06 -0.74761520682942217 0.45239771752934277 2.9943991563338279e-06 -0.74761503222894932 0.45239798687842048 3.4739514258625675e-06 -0.63815853006772927 0.38616201953323442 3.4852684134570001e-06 -0.74761509028301187 0.36191807284081501 5.0257975724692447e-06 -0.74761541117488806 0.45239744925613129 5.2995253053353061e-06 -0.74761520682942217 0.38616208728788803 3.8679863918206618e-06 -0.63815875121292476 0.45239724559513522 5.7804473085785428e-06 -0.59809452672390628 0.45239798687842048 3.4739514258625675e-06 -0.63815853006772927 0.45239744925613129 5.2995253053353061e-06 -0.74761520682942217 0.38616208728788803 3.8679863918206618e-06 -0.63815875121292476 0.45239798687842048 3.4739514258625675e-06 -0.63815853006772927 0.38616201953323442 3.4852684134570005e-06 -0.74761509028301198 0.45239744925613129 5.2995253053353061e-06 -0.74761520682942217 0.38616208728788803 3.8679863918206618e-06 -0.63815875121292476 0.38616201953323442 3.4852684134570001e-06 -0.74761509028301187 0.45239771752934277 2.9943991563338279e-06 -0.74761503222894932 0.45239784666739641 1.8524615216916193e-06 -0.60437360783281702 0.45239798687842048 3.4739514258625675e-06 -0.63815853006772927 0.45239771752934277 2.9943991563338279e-06 -0.74761503222894932 0.45239784666739641 1.8524615216916193e-06 -0.60437360783281702 0.36571764143587637 1.7975114520197534e-06 -0.74761521517145668 0.38616201953323442 3.4852684134570001e-06 -0.74761509028301187 0.38616201953323442 3.4852684134570001e-06 -0.74761509028301187 0.45239798687842048 3.4739514258625675e-06 -0.63815853006772927 0.45239784666739641 1.8524615216916193e-06 -0.60437360783281702 0.35143711064082406 3.0095762289039321e-06 -0.61054067523339839 0.45239784666739641 1.8524615216916193e-06 -0.60437360783281702 0.45239798687842048 3.4739514258625675e-06 -0.63815853006772927 0.45239789210952769 3.6830725517527065e-06 -0.5185611904459918 0.35143711064082406 3.0095762289039325e-06 -0.61054067523339839 0.31378977768271116 3.6326205771436536e-06 -0.74761531811591819 0.38616201953323442 3.4852684134570001e-06 -0.74761509028301187 0.36571764143587643 1.7975114520197534e-06 -0.74761521517145679 0.35143711064082406 3.0095762289039325e-06 -0.61054067523339839 0.36571764143587643 1.7975114520197534e-06 -0.74761521517145679 0.38616201953323442 3.4852684134570001e-06 -0.74761509028301187 0.45239784666739641 1.8524615216916193e-06 -0.60437360783281702 0.35143711064082406 3.0095762289039325e-06 -0.61054067523339839 0.38616201953323442 3.4852684134570001e-06 -0.74761509028301187 0.36191807284081501 5.0257975724692447e-06 -0.74761541117488806 0.38616208728788803 3.8679863918206618e-06 -0.63815875121292476 0.35143711064082406 3.0095762289039325e-06 -0.61054067523339839 0.31659494566057228 4.9288207849719137e-06 -0.62095452066519341 0.38616208728788803 3.8679863918206618e-06 -0.63815875121292476 0.36191807284081501 5.0257975724692447e-06 -0.74761541117488806 0.35143711064082406 3.0095762289039325e-06 -0.61054067523339839 0.38616201953323442 3.4852684134570001e-06 -0.74761509028301187 0.31378977768271116 3.6326205771436536e-06 -0.74761531811591819 0.36191807284081501 5.0257975724692447e-06 -0.74761541117488806 0.35143711064082406 3.0095762289039325e-06 -0.61054067523339839 0.45239798687842048 3.4739514258625675e-06 -0.63815853006772927 0.38616201953323442 3.4852684134570001e-06 -0.74761509028301198 0.38616208728788798 3.8679863918206618e-06 -0.63815875121292465 0.351437110640824 3.0095762289039325e-06 -0.61054067523339839 0.38616208728788803 3.8679863918206618e-06 -0.63815875121292476 0.31659494566057228 4.9288207849719137e-06 -0.62095452066519341 0.36800835715243502 5.222378860601795e-06 -0.51152967237792368 0.35143711064082406 3.0095762289039325e-06 -0.61054067523339839 0.36800835715243502 5.222378860601795e-06 -0.51152967237792368 0.45239789210952769 3.6830725517527065e-06 -0.5185611904459918 0.38616208728788803 3.8679863918206618e-06 -0.63815875121292476 0.35143711064082406 3.0095762289039325e-06 -0.61054067523339839 0.31378977768271116 3.6326205771436536e-06 -0.74761531811591819 0.22579710697869038 2.7830124674590828e-06 -0.58236060379606691 0.31659494566057234 4.9288207849719146e-06 -0.62095452066519341 0.35143711064082406 3.0095762289039325e-06 -0.61054067523339839 0.31378977768271116 3.6326205771436536e-06 -0.74761531811591819 0.27603717854581344 1.8922174752347478e-06 -0.74761531247944546 0.22579710697869038 2.7830124674590833e-06 -0.58236060379606702 0.35143711064082406 3.0095762289039325e-06 -0.61054067523339839 0.36800835715243502 5.222378860601795e-06 -0.51152967237792368 0.31659494566057228 4.9288207849719137e-06 -0.62095452066519341 0.27701821855176489 4.4858055034493404e-06 -0.5071669545704427 0.35143711064082406 3.0095762289039325e-06 -0.61054067523339839 0.27701821855176489 4.4858055034493404e-06 -0.5071669545704427 0.31659494566057228 4.9288207849719146e-06 -0.6209545206651933 0.22579710697869038 2.7830124674590833e-06 -0.58236060379606702 0.35143711064082406 3.0095762289039325e-06 -0.61054067523339839 0.31378977768271116 3.6326205771436536e-06 -0.74761531811591819 0.31659494566057228 4.9288207849719137e-06 -0.62095452066519341 0.36191807284081501 5.0257975724692447e-06 -0.74761541117488806 0.35143711064082406 3.0095762289039325e-06 -0.61054067523339839 0.23058726300665813 4.9125753314586359e-06 -0.6245228493402093 0.27143855799262301 5.9299944955315869e-06 -0.74761599724193706 0.31378977768271121 3.6326205771436527e-06 -0.74761531811591819 0.31659494566057228 4.9288207849719137e-06 -0.62095452066519341 0.31659494566057228 4.9288207849719137e-06 -0.62095452066519341 0.27143855799262306 5.9299944955315869e-06 -0.74761599724193717 0.31378977768271116 3.6326205771436536e-06 -0.74761531811591819 0.36191807284081501 5.0257975724692447e-06 -0.74761541117488806 0.36571764143587643 1.7975114520197534e-06 -0.74761521517145679 0.27603717854581344 1.8922174752347478e-06 -0.74761531247944546 0.31378977768271116 3.6326205771436536e-06 -0.74761531811591819 0.35143711064082406 3.0095762289039325e-06 -0.61054067523339839 0.22983292979470488 3.8982620174309706e-06 -0.74761541524300801 0.31378977768271121 3.6326205771436536e-06 -0.74761531811591819 0.27603717854581344 1.8922174752347478e-06 -0.74761531247944546 0.22579710697869038 2.7830124674590833e-06 -0.58236060379606702 0.22983292979470488 3.8982620174309706e-06 -0.74761541524300801 0.23058726300665813 4.9125753314586359e-06 -0.62452284934020919 0.31378977768271116 3.6326205771436536e-06 -0.74761531811591819 0.22579710697869038 2.7830124674590833e-06 -0.58236060379606702 0.27143855799262301 5.9299944955315869e-06 -0.74761599724193706 0.22983292979470488 3.8982620174309706e-06 -0.74761541524300801 0.18095894572513138 6.5836596301995369e-06 -0.74761613525501247 0.23058726300665813 4.9125753314586359e-06 -0.6245228493402093 0.31378977768271116 3.6326205771436536e-06 -0.74761531811591819 0.22983292979470488 3.8982620174309706e-06 -0.74761541524300801 0.27143855799262301 5.9299944955315869e-06 -0.74761599724193706 0.23058726300665811 4.9125753314586359e-06 -0.62452284934020907 0.31378977768271116 3.6326205771436536e-06 -0.74761531811591819 0.23058726300665811 4.9125753314586359e-06 -0.6245228493402093 0.31659494566057228 4.9288207849719137e-06 -0.62095452066519341 0.22579710697869035 2.7830124674590828e-06 -0.58236060379606702 0.23058726300665813 4.9125753314586359e-06 -0.6245228493402093 0.27701821855176489 4.4858055034493404e-06 -0.5071669545704427 0.31659494566057228 4.9288207849719137e-06 -0.62095452066519341 0.22579710697869038 2.7830124674590833e-06 -0.58236060379606702 0.27701821855176489 4.4858055034493404e-06 -0.5071669545704427 0.22612649512514438 2.573199380740046e-06 -0.39599827624837225 0.31056738938901352 1.8040401496819156e-06 -0.51323589861555274 0.22579710697869035 2.7830124674590833e-06 -0.58236060379606702 0.27701821855176489 4.4858055034493404e-06 -0.5071669545704427 0.22612649512514438 2.5731993807400464e-06 -0.39599827624837219 0.30871758577478681 6.0573994822422e-06 -0.39108448645523286 0.35004137673566627 3.2786141008641368e-06 -0.37253638369815351 0.27701821855176489 4.4858055034493404e-06 -0.5071669545704427 0.20728944308841038 4.3448269952286803e-06 -0.51563251881362993 0.22612649512514443 2.573199380740046e-06 -0.39599827624837231 0.22579710697869038 2.7830124674590833e-06 -0.58236060379606702 0.20728944308841038 4.3448269952286803e-06 -0.51563251881362993 0.27701821855176489 4.4858055034493404e-06 -0.5071669545704427 0.23058726300665813 4.9125753314586359e-06 -0.6245228493402093 0.22579710697869038 2.7830124674590833e-06 -0.58236060379606702 0.27701821855176489 4.4858055034493404e-06 -0.5071669545704427 0.31056738938901346 1.8040401496819156e-06 -0.51323589861555274 0.22612649512514441 2.573199380740046e-06 -0.39599827624837225 0.35004137673566627 3.2786141008641368e-06 -0.37253638369815351 0.36800835715243502 5.222378860601795e-06 -0.51152967237792368 0.27701821855176489 4.4858055034493404e-06 -0.5071669545704427 0.31056738938901346 1.8040401496819156e-06 -0.51323589861555263 0.35143711064082406 3.0095762289039325e-06 -0.61054067523339839 0.27701821855176489 4.4858055034493404e-06 -0.5071669545704427 0.22579710697869038 2.7830124674590833e-06 -0.58236060379606702 0.31056738938901352 1.8040401496819154e-06 -0.51323589861555263 0.35143711064082406 3.0095762289039325e-06 -0.61054067523339839 0.36800835715243502 5.222378860601795e-06 -0.51152967237792368 0.31056738938901352 1.804040149681916e-06 -0.51323589861555285 0.27701821855176489 4.4858055034493404e-06 -0.5071669545704427 0.35004137673566627 3.2786141008641368e-06 -0.37253638369815356 0.36800835715243502 5.222378860601795e-06 -0.51152967237792368 0.27701821855176489 4.4858055034493404e-06 -0.5071669545704427 0.30871758577478681 6.0573994822421983e-06 -0.39108448645523286 0.35004137673566627 3.2786141008641368e-06 -0.37253638369815351 0.27701821855176489 4.4858055034493404e-06 -0.5071669545704427 0.20728944308841035 4.3448269952286803e-06 -0.51563251881362993 0.2350727932316008 5.1523488357949548e-06 -0.37381470342766665 0.22612649512514441 2.5731993807400451e-06 -0.39599827624837225 0.27701821855176489 4.4858055034493404e-06 -0.5071669545704427 0.2350727932316008 5.1523488357949548e-06 -0.37381470342766665 0.30871758577478681 6.0573994822422e-06 -0.39108448645523286 0.22612649512514446 2.573199380740046e-06 -0.39599827624837231 0.31056738938901352 1.8040401496819158e-06 -0.51323589861555274 0.22612649512514438 2.5731993807400456e-06 -0.39599827624837225 0.2253673042186822 2.4790669938359935e-07 -0.56105647851103446 0.22579710697869038 2.7830124674590833e-06 -0.58236060379606702 0.31056738938901352 1.8040401496819158e-06 -0.51323589861555274 0.22619892886928009 -2.3452065275424844e-08 -0.37381437153063996 0.33950159773267918 2.9278784240283301e-07 -0.37259283566123863 0.2253673042186822 2.479066993835993e-07 -0.56105647851103446 0.31056738938901352 1.8040401496819158e-06 -0.51323589861555274 0.2253673042186822 2.479066993835993e-07 -0.56105647851103446 0.33950159773267918 2.927878424028328e-07 -0.37259283566123869 0.35295691817522873 -5.9307337587658212e-08 -0.5832859229807682 0.22619892886928009 -2.3452065275424338e-08 -0.37381437153063996 0.31056738938901352 1.8040401496819162e-06 -0.51323589861555263 0.33950159773267918 2.927878424028328e-07 -0.37259283566123869 0.22612649512514441 2.573199380740046e-06 -0.39599827624837225 0.33950159773267918 2.927878424028328e-07 -0.37259283566123869 0.22612649512514438 2.5731993807400456e-06 -0.39599827624837231 0.31056738938901352 1.8040401496819158e-06 -0.51323589861555274 0.35004137673566638 3.2786141008641377e-06 -0.37253638369815356 0.31056738938901352 1.8040401496819158e-06 -0.51323589861555274 0.22619892886928006 -2.345206527542407e-08 -0.37381437153063996 0.22536730421868217 2.479066993835993e-07 -0.56105647851103446 0.22612649512514435 2.5731993807400464e-06 -0.39599827624837219 0.35295691817522873 -5.9307337587658212e-08 -0.5832859229807682 0.27603717854581344 1.8922174752347465e-06 -0.74761531247944546 0.22536730421868217 2.479066993835994e-07 -0.56105647851103446 0.30455635680792603 2.8156745527417438e-07 -0.74761534384395179 0.35295691817522873 -5.9307337587658212e-08 -0.5832859229807682 0.2253673042186822 2.479066993835994e-07 -0.56105647851103446 0.27603717854581344 1.8922174752347478e-06 -0.74761531247944546 0.31056738938901352 1.8040401496819154e-06 -0.51323589861555274 0.27603717854581344 1.8922174752347478e-06 -0.74761531247944546 0.31056738938901357 1.8040401496819149e-06 -0.51323589861555274 0.36571764143587643 1.7975114520197534e-06 -0.74761521517145679 0.35295691817522873 -5.9307337587657716e-08 -0.5832859229807682 0.31056738938901352 1.8040401496819158e-06 -0.51323589861555274 0.22579710697869038 2.7830124674590833e-06 -0.58236060379606702 0.27603717854581344 1.8922174752347478e-06 -0.74761531247944546 0.35143711064082406 3.0095762289039329e-06 -0.61054067523339828 0.31056738938901352 1.8040401496819158e-06 -0.51323589861555274 0.2253673042186822 2.4790669938359924e-07 -0.56105647851103457 0.27603717854581339 1.8922174752347476e-06 -0.74761531247944546 0.22579710697869035 2.7830124674590833e-06 -0.58236060379606702 0.36571764143587643 1.7975114520197534e-06 -0.74761521517145679 0.31056738938901346 1.8040401496819154e-06 -0.51323589861555263 0.27603717854581344 1.8922174752347478e-06 -0.74761531247944546 0.35143711064082406 3.0095762289039325e-06 -0.61054067523339839 0.30455635680792603 2.8156745527417353e-07 -0.74761534384395167 0.27603717854581344 1.8922174752347478e-06 -0.74761531247944546 0.36571764143587643 1.7975114520197534e-06 -0.74761521517145679 0.35295691817522873 -5.9307337587658212e-08 -0.5832859229807682 0.20725381627969419 2.0409819427244151e-06 -0.74761541745417781 0.27603717854581344 1.8922174752347478e-06 -0.74761531247944546 0.2253673042186822 2.479066993835993e-07 -0.56105647851103446 0.22579710697869038 2.7830124674590833e-06 -0.58236060379606702 0.22983292979470488 3.8982620174309706e-06 -0.74761541524300801 0.27603717854581344 1.8922174752347478e-06 -0.74761531247944535 0.20725381627969419 2.0409819427244151e-06 -0.74761541745417781 0.22579710697869038 2.7830124674590833e-06 -0.58236060379606702 0.23507266646833469 -6.2278586589232294e-08 -0.74761543421025201 0.20725381627969419 2.0409819427244151e-06 -0.74761541745417781 0.27603717854581344 1.8922174752347478e-06 -0.74761531247944546 0.2253673042186822 2.479066993835993e-07 -0.56105647851103446 0.30455635680792603 2.8156745527417353e-07 -0.74761534384395167 0.23507266646833469 -6.2278586589232347e-08 -0.74761543421025201 0.27603717854581344 1.8922174752347478e-06 -0.74761531247944546 0.2253673042186822 2.479066993835993e-07 -0.56105647851103446 0.14096224220381373 1.938139489213582e-06 -0.51228327881027347 0.098821481012930798 -1.1498800988963808e-08 -0.58041420964596002 0.14678756731880258 1.079278434321198e-06 -0.74761555682206193 0.083485319036696939 2.6760119175637345e-06 -0.61015581891957771 0.14895304118306257 -1.1192519697194962e-06 -0.74761555911506872 0.14678756731880258 1.079278434321198e-06 -0.74761555682206193 0.23507266646833469 -6.2278586589232294e-08 -0.74761543421025201 0.2253673042186822 2.479066993835993e-07 -0.56105647851103435 0.20725381627969419 2.0409819427244151e-06 -0.74761541745417781 0.14096224220381373 1.938139489213582e-06 -0.51228327881027347 0.14054682282014644 3.4560792940444988e-06 -0.74761551107945223 0.22579710697869038 2.7830124674590833e-06 -0.58236060379606702 0.14895304118306257 -1.1192519697194962e-06 -0.74761555911506872 0.14678756731880258 1.079278434321198e-06 -0.74761555682206193 0.2253673042186822 2.4790669938359935e-07 -0.56105647851103435 0.098821481012930826 -1.1498800988963413e-08 -0.58041420964596002 0.20725381627969419 2.0409819427244151e-06 -0.74761541745417781 0.2253673042186822 2.4790669938359908e-07 -0.56105647851103457 0.14096224220381373 1.938139489213582e-06 -0.51228327881027347 0.22579710697869038 2.7830124674590833e-06 -0.58236060379606702 0.14678756731880258 1.079278434321198e-06 -0.74761555682206193 0.14096224220381373 1.9381394892135816e-06 -0.51228327881027336 0.22536730421868217 2.4790669938359988e-07 -0.56105647851103435 0.098821481012930798 -1.1498800988963404e-08 -0.58041420964596002 0.20725381627969419 2.0409819427244151e-06 -0.74761541745417781 0.23507266646833469 -6.2278586589232294e-08 -0.74761543421025201 0.14678756731880258 1.079278434321198e-06 -0.74761555682206193 0.2253673042186822 2.479066993835993e-07 -0.56105647851103446 0.14054682282014644 3.4560792940444988e-06 -0.74761551107945223 0.20725381627969419 2.0409819427244151e-06 -0.74761541745417781 0.14678756731880258 1.079278434321198e-06 -0.74761555682206193 0.14096224220381373 1.938139489213582e-06 -0.51228327881027347 0.20725381627969419 2.0409819427244151e-06 -0.74761541745417781 0.14678756731880258 1.079278434321198e-06 -0.74761555682206193 0.14096224220381373 1.938139489213582e-06 -0.51228327881027347 0.2253673042186822 2.479066993835993e-07 -0.56105647851103446 0.14678756731880258 1.079278434321198e-06 -0.74761555682206193 0.14054682282014638 3.4560792940444983e-06 -0.74761551107945223 0.14096224220381376 1.938139489213582e-06 -0.51228327881027347 0.083485319036696953 2.676011917563735e-06 -0.61015581891957771 0.14096224220381373 1.938139489213582e-06 -0.51228327881027347 0.22619892886928006 -2.3452065275424106e-08 -0.3738143715306399 0.11205544633452628 3.214748354973284e-07 -0.33717063617942594 0.22612649512514441 2.573199380740046e-06 -0.39599827624837225 0.14096224220381373 1.938139489213582e-06 -0.51228327881027347 0.2253673042186822 2.4790669938359935e-07 -0.56105647851103446 0.22619892886928009 -2.3452065275423832e-08 -0.37381437153063996 0.22612649512514441 2.573199380740046e-06 -0.39599827624837225 0.14096224220381373 1.938139489213582e-06 -0.51228327881027347 0.22612649512514443 2.573199380740046e-06 -0.39599827624837231 0.11205544633452626 3.2147483549732936e-07 -0.33717063617942594 0.10186607222497057 3.0104793302996282e-06 -0.36026243520608148 0.22619892886928009 -2.3452065275424338e-08 -0.37381437153063996 0.14096224220381373 1.938139489213582e-06 -0.51228327881027347 0.11205544633452627 3.2147483549732888e-07 -0.33717063617942594 0.098821481012930798 -1.1498800988963404e-08 -0.58041420964596002 0.14096224220381373 1.938139489213582e-06 -0.51228327881027347 0.22619892886928009 -2.3452065275424639e-08 -0.3738143715306399 0.2253673042186822 2.479066993835993e-07 -0.56105647851103446 0.098821481012930784 -1.1498800988963887e-08 -0.58041420964595991 0.2253673042186822 2.479066993835993e-07 -0.56105647851103446 0.22612649512514443 2.573199380740046e-06 -0.39599827624837225 0.14096224220381373 1.938139489213582e-06 -0.51228327881027347 0.22579710697869038 2.7830124674590833e-06 -0.58236060379606702 0.14679452600589454 5.9997083619623197e-06 -0.44872566529089891 0.20728944308841038 4.3448269952286803e-06 -0.51563251881362993 0.14096224220381373 1.938139489213582e-06 -0.51228327881027347 0.22612649512514438 2.573199380740046e-06 -0.39599827624837231 0.20728944308841038 4.3448269952286803e-06 -0.51563251881362993 0.14062804856881164 5.3090981206132151e-06 -0.60908480293758194 0.14679452600589454 5.9997083619623197e-06 -0.44872566529089891 0.14096224220381373 1.938139489213582e-06 -0.51228327881027347 0.20728944308841038 4.3448269952286803e-06 -0.51563251881362993 0.14096224220381373 1.938139489213582e-06 -0.51228327881027347 0.22612649512514441 2.573199380740046e-06 -0.39599827624837225 0.22579710697869038 2.7830124674590833e-06 -0.58236060379606702 0.14679452600589454 5.9997083619623197e-06 -0.44872566529089891 0.14096224220381373 1.938139489213582e-06 -0.51228327881027347 0.14062804856881167 5.3090981206132142e-06 -0.60908480293758183 0.083485319036696953 2.676011917563735e-06 -0.61015581891957771 0.14679452600589454 5.9997083619623197e-06 -0.44872566529089891 0.22612649512514435 2.573199380740046e-06 -0.39599827624837231 0.14096224220381376 1.938139489213582e-06 -0.51228327881027358 0.1018660722249706 3.0104793302996303e-06 -0.36026243520608153 0.20728944308841038 4.3448269952286803e-06 -0.51563251881362993 0.14062804856881167 5.3090981206132151e-06 -0.60908480293758194 0.1409622422038137 1.9381394892135812e-06 -0.51228327881027347 0.22579710697869038 2.7830124674590833e-06 -0.58236060379606702 0.14895913551403203 5.7539910868273474e-06 -0.29618386964925936 0.22612649512514443 2.573199380740046e-06 -0.39599827624837225 0.14679452600589454 5.9997083619623197e-06 -0.44872566529089891 0.10186607222497057 3.0104793302996286e-06 -0.36026243520608153 0.14679452600589454 5.9997083619623197e-06 -0.44872566529089891 0.14096224220381376 1.938139489213582e-06 -0.51228327881027358 0.071931476210553638 4.9216280437605024e-06 -0.51920543986393997 0.10186607222497059 3.010479330299629e-06 -0.36026243520608148 0.14895913551403203 5.7539910868273474e-06 -0.29618386964925936 0.2350727932316008 5.1523488357949548e-06 -0.37381470342766665 0.14679452600589454 5.9997083619623197e-06 -0.44872566529089891 0.22612649512514441 2.573199380740046e-06 -0.39599827624837225 0.14679452600589454 5.9997083619623197e-06 -0.44872566529089891 0.2350727932316008 5.1523488357949548e-06 -0.37381470342766665 0.20728944308841038 4.3448269952286803e-06 -0.51563251881362993 0.22612649512514441 2.5731993807400468e-06 -0.39599827624837225 0.20728944308841038 4.3448269952286803e-06 -0.51563251881362993 0.23058726300665813 4.9125753314586359e-06 -0.6245228493402093 0.14062804856881164 5.3090981206132151e-06 -0.60908480293758194 0.22579710697869038 2.7830124674590833e-06 -0.58236060379606702 0.14062804856881164 5.3090981206132151e-06 -0.60908480293758194 0.22579710697869038 2.7830124674590828e-06 -0.58236060379606691 0.14054682282014644 3.4560792940444988e-06 -0.74761551107945223 0.083485319036696953 2.676011917563735e-06 -0.61015581891957771 0.14062804856881164 5.3090981206132151e-06 -0.60908480293758194 0.14096224220381368 1.9381394892135829e-06 -0.51228327881027347 0.22579710697869038 2.7830124674590816e-06 -0.58236060379606713 0.083485319036696953 2.676011917563735e-06 -0.61015581891957771 0.22983292979470488 3.8982620174309706e-06 -0.74761541524300801 0.14062804856881164 5.3090981206132151e-06 -0.60908480293758194 0.23058726300665813 4.9125753314586359e-06 -0.6245228493402093 0.22579710697869038 2.7830124674590833e-06 -0.58236060379606702 0.14054682282014644 3.4560792940444988e-06 -0.74761551107945223 0.22579710697869035 2.7830124674590841e-06 -0.58236060379606702 0.14096224220381373 1.9381394892135812e-06 -0.51228327881027358 0.083485319036696953 2.676011917563735e-06 -0.61015581891957771 0.14062804856881164 5.3090981206132151e-06 -0.60908480293758194 0.18095894572513138 6.5836596301995369e-06 -0.74761613525501247 0.22983292979470488 3.8982620174309706e-06 -0.74761541524300801 0.23058726300665813 4.9125753314586359e-06 -0.6245228493402093 0.14062804856881164 5.3090981206132151e-06 -0.60908480293758194 0.18095894572513138 6.5836596301995369e-06 -0.74761613525501247 0.14054682282014644 3.4560792940444988e-06 -0.74761551107945223 0.22983292979470488 3.8982620174309706e-06 -0.74761541524300801 0.14062804856881164 5.3090981206132151e-06 -0.60908480293758194 0.22983292979470488 3.8982620174309706e-06 -0.74761541524300801 0.14054682282014644 3.4560792940444988e-06 -0.74761551107945223 0.2257971069786904 2.7830124674590824e-06 -0.58236060379606691 0.20725381627969419 2.0409819427244151e-06 -0.74761541745417781 0.14054682282014644 3.4560792940444988e-06 -0.74761551107945223 0.22983292979470488 3.8982620174309706e-06 -0.74761541524300801 0.22579710697869038 2.7830124674590833e-06 -0.58236060379606702 0.18095894572513138 6.5836596301995369e-06 -0.74761613525501247 0.090479274421975731 5.3718200790923745e-06 -0.74761608109376998 0.14062804856881164 5.3090981206132151e-06 -0.60908480293758194 0.14054682282014644 3.4560792940444988e-06 -0.74761551107945223 0.071931476210553638 4.9216280437605024e-06 -0.51920543986393997 0.14062804856881164 5.3090981206132151e-06 -0.60908480293758194 0.06623560041515425 3.9589861860721598e-06 -0.63815920671680315 0.083485319036696953 2.676011917563735e-06 -0.61015581891957771 0.14062804856881164 5.3090981206132151e-06 -0.60908480293758194 0.14054682282014644 3.4560792940444988e-06 -0.74761551107945223 0.06623560041515425 3.9589861860721598e-06 -0.63815920671680315 0.083485319036696953 2.676011917563735e-06 -0.61015581891957771 0.14062804856881164 5.3090981206132151e-06 -0.60908480293758194 0.090479274421975703 5.3718200790923728e-06 -0.74761608109377009 0.06623560041515425 3.9589861860721598e-06 -0.63815920671680315 0.14054682282014644 3.4560792940444988e-06 -0.74761551107945223 0.066235537886341359 3.4653148844279925e-06 -0.74761549743543931 0.06623560041515425 3.9589861860721598e-06 -0.63815920671680315 0.090479274421975731 5.3718200790923745e-06 -0.74761608109376998 0.14054682282014644 3.4560792940444988e-06 -0.74761551107945223 0.14054682282014644 3.4560792940444988e-06 -0.74761551107945223 0.071916777050347269 1.9263875283238126e-06 -0.74761568165954373 0.066235537886341359 3.4653148844279925e-06 -0.74761549743543931 0.083485319036696953 2.676011917563735e-06 -0.61015581891957771 0.066235537886341359 3.4653148844279925e-06 -0.74761549743543931 0.066235600415154236 3.9589861860721598e-06 -0.63815920671680304 0.14054682282014644 3.4560792940444983e-06 -0.74761551107945223 0.083485319036696953 2.6760119175637345e-06 -0.61015581891957771 -5.205055596471649e-11 3.2922385375483991e-06 -0.63815920652293623 1.1323924442957221e-11 1.9340105884448171e-06 -0.6367740083290433 -1.4821338971122415e-11 3.1171757328667765e-06 -0.52738985298123819 0.083485319036696953 2.676011917563735e-06 -0.61015581891957771 0.071931476210553638 4.9216280437605024e-06 -0.51920543986393997 -5.2050552844354232e-11 3.2922385375483983e-06 -0.63815920652293623 -1.4821336528269288e-11 3.1171757328667756e-06 -0.52738985298123808 0.083485319036696939 2.6760119175637345e-06 -0.61015581891957771 0.083485319036696953 2.676011917563735e-06 -0.61015581891957771 -9.5386961823302205e-12 2.9169787073645767e-06 -0.74761565317853673 0.071916777050347241 1.9263875283238135e-06 -0.74761568165954373 0.066235537886341359 3.4653148844279921e-06 -0.7476154974354392 0.06623560041515425 3.9589861860721598e-06 -0.63815920671680315 0.066235537886341359 3.4653148844279925e-06 -0.74761549743543942 -5.205055596471649e-11 3.2922385375483991e-06 -0.63815920652293623 0.083485319036696953 2.676011917563735e-06 -0.61015581891957771 -5.205055596471649e-11 3.2922385375483991e-06 -0.63815920652293623 -9.5387106848959638e-12 2.9169787073645775e-06 -0.74761565317853662 1.1323924442957221e-11 1.9340105884448171e-06 -0.6367740083290433 0.083485319036696953 2.676011917563735e-06 -0.61015581891957771 -5.205055596471649e-11 3.2922385375483991e-06 -0.63815920652293623 0.066235537886341359 3.4653148844279925e-06 -0.74761549743543931 -9.5387078249514288e-12 2.9169787073645775e-06 -0.74761565317853673 0.083485319036696953 2.676011917563735e-06 -0.61015581891957771 1.8766927967832278e-11 5.418665504392613e-06 -0.74761599497762432 -5.2050558837225063e-11 3.2922385375483996e-06 -0.63815920652293623 0.066235537886341359 3.4653148844279925e-06 -0.74761549743543931 -9.5387112164792224e-12 2.9169787073645775e-06 -0.74761565317853662 -5.205055596471649e-11 3.2922385375483991e-06 -0.63815920652293623 0.06623560041515425 3.9589861860721589e-06 -0.63815920671680304 1.8766927967832278e-11 5.418665504392613e-06 -0.74761599497762432 0.066235537886341359 3.4653148844279925e-06 -0.74761549743543931 0.090479274421975731 5.3718200790923745e-06 -0.74761608109376998 1.8766929929779735e-11 5.4186655043926139e-06 -0.74761599497762432 0.06623560041515425 3.9589861860721598e-06 -0.63815920671680315 0.066235537886341359 3.4653148844279925e-06 -0.74761549743543931 0.06623560041515425 3.9589861860721598e-06 -0.63815920671680315 1.8766927967832278e-11 5.418665504392613e-06 -0.74761599497762432 2.9021320881626878e-11 4.7756957049157446e-06 -0.59809522582859465 -5.205055596471649e-11 3.2922385375483991e-06 -0.63815920652293623 0.06623560041515425 3.9589861860721598e-06 -0.63815920671680315 -5.2050555946368053e-11 3.2922385375483991e-06 -0.63815920652293623 0.071931476210553638 4.9216280437605024e-06 -0.51920543986393997 0.083485319036696953 2.676011917563735e-06 -0.61015581891957771 0.071931476210553638 4.9216280437605024e-06 -0.51920543986393997 2.9021303577964025e-11 4.7756957049157463e-06 -0.59809522582859487 -1.4821338971122415e-11 3.1171757328667765e-06 -0.52738985298123819 -5.205055596471649e-11 3.2922385375483991e-06 -0.63815920652293623 2.9021326241805892e-11 4.7756957049157455e-06 -0.59809522582859476 0.071931476210553638 4.9216280437605024e-06 -0.51920543986393997 0.06623560041515425 3.9589861860721598e-06 -0.63815920671680315 -5.205055596471649e-11 3.2922385375483991e-06 -0.63815920652293623 -1.4821338971122415e-11 3.1171757328667765e-06 -0.52738985298123819 7.1209438143021884e-11 5.8811687278892993e-06 -0.44857479382116283 2.9021326241805892e-11 4.7756957049157455e-06 -0.59809522582859476 0.071931476210553638 4.9216280437605024e-06 -0.51920543986393997 0.14096224220381373 1.938139489213582e-06 -0.51228327881027347 0.10186607222497059 3.010479330299629e-06 -0.36026243520608159 -1.482135591320001e-11 3.1171757328667756e-06 -0.52738985298123808 0.083485319036696967 2.676011917563735e-06 -0.61015581891957771 -1.4821338971122415e-11 3.1171757328667765e-06 -0.52738985298123819 -6.0598477365270611e-11 3.8767339326099445e-06 -0.37982043004889221 7.1209438143021884e-11 5.8811687278892993e-06 -0.44857479382116283 0.071931476210553638 4.9216280437605024e-06 -0.51920543986393997 0.071931476210553638 4.9216280437605024e-06 -0.51920543986393997 0.14096224220381376 1.9381394892135824e-06 -0.51228327881027347 0.14679452600589454 5.9997083619623197e-06 -0.44872566529089891 0.083485319036696953 2.676011917563735e-06 -0.61015581891957771 0.071931476210553638 4.9216280437605024e-06 -0.51920543986393997 0.10186607222497066 3.0104793302996286e-06 -0.36026243520608159 0.14096224220381365 1.938139489213582e-06 -0.51228327881027358 0.083485319036696953 2.676011917563735e-06 -0.61015581891957771 0.071931476210553638 4.9216280437605024e-06 -0.51920543986393997 -1.4821318617968029e-11 3.1171757328667756e-06 -0.52738985298123819 0.10186607222497059 3.0104793302996286e-06 -0.36026243520608153 0.083485319036696939 2.6760119175637345e-06 -0.61015581891957771 0.071931476210553638 4.9216280437605024e-06 -0.51920543986393997 0.14679452600589454 5.9997083619623197e-06 -0.44872566529089886 0.14062804856881164 5.3090981206132151e-06 -0.60908480293758194 0.083485319036696953 2.676011917563735e-06 -0.61015581891957771 0.14679452600589454 5.9997083619623197e-06 -0.44872566529089891 0.071931476210553638 4.9216280437605024e-06 -0.51920543986393997 0.077930619624080294 5.3788559216394743e-06 -0.37259273406164062 0.10186607222497059 3.0104793302996286e-06 -0.36026243520608153 -6.0598487977698599e-11 3.8767339326099445e-06 -0.37982043004889221 0.077930619624080308 5.3788559216394743e-06 -0.37259273406164056 0.071931476210553638 4.9216280437605024e-06 -0.51920543986393997 0.10186607222497059 3.0104793302996286e-06 -0.36026243520608153 7.1209438143021884e-11 5.8811687278892993e-06 -0.44857479382116283 9.5228953125664245e-11 6.3024709240102891e-06 -0.29905458880170638 0.077930619624080294 5.3788559216394743e-06 -0.37259273406164062 -6.0598487977698599e-11 3.8767339326099445e-06 -0.37982043004889221 -6.0598487977698599e-11 3.8767339326099445e-06 -0.37982043004889221 0.077930619624080322 5.3788559216394743e-06 -0.37259273406164056 7.1209438143021884e-11 5.8811687278892993e-06 -0.44857479382116283 0.071931476210553638 4.9216280437605024e-06 -0.51920543986393997 -6.0598487977698599e-11 3.8767339326099445e-06 -0.37982043004889221 0.071931476210553638 4.9216280437605024e-06 -0.51920543986393997 -1.4821338971122415e-11 3.1171757328667765e-06 -0.52738985298123819 0.10186607222497059 3.0104793302996286e-06 -0.36026243520608153 9.8579311108963177e-12 1.7411091620546848e-06 -0.44815814549788013 -6.0598487977698599e-11 3.8767339326099445e-06 -0.37982043004889221 -1.4821338971122415e-11 3.1171757328667765e-06 -0.52738985298123819 0.10186607222497059 3.0104793302996286e-06 -0.36026243520608153 9.8579311108963177e-12 1.7411091620546848e-06 -0.44815814549788013 -1.4821336961544044e-11 3.1171757328667765e-06 -0.52738985298123819 0.14096224220381373 1.9381394892135816e-06 -0.51228327881027336 0.10186607222497059 3.0104793302996286e-06 -0.36026243520608153 9.8579311108963177e-12 1.7411091620546848e-06 -0.44815814549788013 0.14096224220381368 1.9381394892135795e-06 -0.5122832788102738 -1.4821335531979461e-11 3.1171757328667769e-06 -0.52738985298123819 0.083485319036696953 2.6760119175637337e-06 -0.61015581891957771 9.8579311108963177e-12 1.7411091620546848e-06 -0.44815814549788013 -1.4821338971122415e-11 3.1171757328667765e-06 -0.52738985298123819 -4.4145819291749545e-12 1.092435875790406e-06 -0.54368922107958295 0.083485319036696995 2.676011917563735e-06 -0.6101558189195776 9.8579311108963177e-12 1.7411091620546848e-06 -0.44815814549788013 0.11205544633452628 3.214748354973283e-07 -0.33717063617942589 0.14096224220381373 1.938139489213582e-06 -0.51228327881027347 0.098821481012930798 -1.1498800988963803e-08 -0.58041420964596002 9.8579311108963177e-12 1.7411091620546848e-06 -0.44815814549788013 -4.4145819291749545e-12 1.092435875790406e-06 -0.54368922107958295 0.1409622422038137 1.9381394892135829e-06 -0.51228327881027347 0.083485319036696967 2.676011917563735e-06 -0.61015581891957771 9.8579311108963177e-12 1.7411091620546848e-06 -0.44815814549788013 -4.0400311013709056e-12 -3.1607712195826674e-07 -0.50330323843331015 -2.1345122866258577e-11 3.6853755799612183e-08 -0.38847920603421959 0.098821481012930826 -1.149880098896331e-08 -0.58041420964596002 -4.4145819291749545e-12 1.092435875790406e-06 -0.54368922107958295 9.8579311108963177e-12 1.7411091620546848e-06 -0.44815814549788013 0.14096224220381373 1.938139489213582e-06 -0.51228327881027347 0.098821481012930798 -1.1498800988963404e-08 -0.58041420964596002 9.8579311108963177e-12 1.7411091620546848e-06 -0.44815814549788013 0.14096224220381373 1.938139489213582e-06 -0.51228327881027347 0.11205544633452626 3.2147483549732814e-07 -0.33717063617942589 0.10186607222497059 3.0104793302996286e-06 -0.36026243520608153 9.8579311108963177e-12 1.7411091620546848e-06 -0.44815814549788013 -2.1345117389425489e-11 3.6853755799612144e-08 -0.38847920603421959 0.11205544633452627 3.2147483549732888e-07 -0.33717063617942594 0.098821481012930812 -1.1498800988964251e-08 -0.58041420964596002 1.3826707026408644e-11 2.024218737135154e-06 -0.3414027924910058 -6.0598487997223008e-11 3.8767339326099445e-06 -0.37982043004889221 9.8579311108963177e-12 1.7411091620546848e-06 -0.44815814549788013 0.10186607222497059 3.0104793302996286e-06 -0.36026243520608153 9.8579311108963177e-12 1.7411091620546848e-06 -0.44815814549788013 -2.1345117389425489e-11 3.6853755799612144e-08 -0.38847920603421959 1.3826707026408644e-11 2.024218737135154e-06 -0.3414027924910058 0.11205544633452627 3.2147483549732888e-07 -0.33717063617942594 -4.4145819291749545e-12 1.092435875790406e-06 -0.54368922107958295 -4.0400311013709056e-12 -3.1607712195826674e-07 -0.50330323843331015 9.8579347035877041e-12 1.7411091620546848e-06 -0.44815814549788008 0.098821481012930798 -1.1498800988963404e-08 -0.58041420964596002 -4.3353485664646598e-12 9.7498500459808941e-08 -0.62943421926828969 1.1323924442957221e-11 1.9340105884448171e-06 -0.6367740083290433 0.071916777050347269 1.9263875283238126e-06 -0.74761568165954373 0.098821481012930812 -1.1498800988963068e-08 -0.58041420964595991 -4.4145819291749545e-12 1.092435875790406e-06 -0.54368922107958295 0.098821481012930798 -1.1498800988963533e-08 -0.58041420964596002 0.14096224220381373 1.938139489213582e-06 -0.51228327881027347 0.083485319036696953 2.6760119175637354e-06 -0.61015581891957771 0.071916777050347269 1.9263875283238126e-06 -0.74761568165954373 0.098821481012930784 -1.1498800988963345e-08 -0.58041420964595991 1.1323904959359823e-11 1.9340105884448167e-06 -0.6367740083290433 0.083485319036696953 2.6760119175637345e-06 -0.61015581891957771 -4.3353485664646598e-12 9.7498500459808941e-08 -0.62943421926828969 -4.0400311013709056e-12 -3.1607712195826674e-07 -0.50330323843331015 -4.4145819291749545e-12 1.092435875790406e-06 -0.54368922107958295 0.098821481012930826 -1.1498800988963421e-08 -0.58041420964595991 -4.3353485664646598e-12 9.7498500459808941e-08 -0.62943421926828969 -4.4145819291749545e-12 1.092435875790406e-06 -0.54368922107958295 1.1323924442957221e-11 1.9340105884448171e-06 -0.6367740083290433 0.098821481012930826 -1.1498800988963406e-08 -0.58041420964596013 0.071916777050347269 1.9263875283238126e-06 -0.74761568165954373 0.14678756731880258 1.0792784343211977e-06 -0.74761555682206193 0.098821481012930798 -1.1498800988963312e-08 -0.58041420964596002 0.083485319036696953 2.676011917563735e-06 -0.61015581891957771 -4.4145819291749545e-12 1.092435875790406e-06 -0.54368922107958295 1.1323924033571136e-11 1.9340105884448171e-06 -0.6367740083290433 0.098821481012930784 -1.1498800988963389e-08 -0.58041420964596002 0.083485319036696967 2.6760119175637358e-06 -0.61015581891957771 -1.4821338971122415e-11 3.1171757328667765e-06 -0.52738985298123819 1.1323924442957221e-11 1.9340105884448171e-06 -0.6367740083290433 -4.4145840555079904e-12 1.092435875790406e-06 -0.54368922107958295 0.083485319036696953 2.676011917563735e-06 -0.61015581891957771 0.071916777050347269 1.9263875283238126e-06 -0.74761568165954373 0.14678756731880258 1.079278434321198e-06 -0.74761555682206193 0.077930628303774493 -2.8730672491045563e-10 -0.74761565937997398 0.098821481012930798 -1.1498800988963404e-08 -0.58041420964596002 0.071916777050347269 1.9263875283238126e-06 -0.74761568165954373 0.077930628303774507 -2.8730672491021803e-10 -0.7476156593799741 -4.3353485664646598e-12 9.7498500459808941e-08 -0.62943421926828969 0.098821481012930798 -1.1498800988963404e-08 -0.58041420964596002 0.14678756731880258 1.079278434321198e-06 -0.74761555682206193 0.071916777050347269 1.9263875283238126e-06 -0.74761568165954373 0.14054682282014647 3.4560792940444988e-06 -0.74761551107945223 0.083485319036696953 2.676011917563735e-06 -0.61015581891957771 0.083485319036696953 2.676011917563735e-06 -0.61015581891957771 0.071916777050347255 1.9263875283238135e-06 -0.74761568165954362 -9.5386962580875246e-12 2.9169787073645771e-06 -0.74761565317853673 1.1323924442957221e-11 1.9340105884448171e-06 -0.6367740083290433 1.1323924442957221e-11 1.9340105884448171e-06 -0.6367740083290433 -4.3353487207379848e-12 9.7498500459808941e-08 -0.62943421926828969 0.071916777050347269 1.9263875283238126e-06 -0.74761568165954373 -9.8148533455254422e-12 9.8175551774662435e-07 -0.74761572473077276 0.071916777050347269 1.9263875283238126e-06 -0.74761568165954373 -9.5387112164792224e-12 2.9169787073645775e-06 -0.74761565317853662 1.1323918529177864e-11 1.9340105884448171e-06 -0.6367740083290433 -9.8148533455254422e-12 9.8175551774662435e-07 -0.74761572473077276 -9.8148533455254422e-12 9.8175551774662435e-07 -0.74761572473077276 -4.3353485664646598e-12 9.7498500459808941e-08 -0.62943421926828969 0.071916777050347269 1.9263875283238126e-06 -0.74761568165954373 0.077930628303774507 -2.8730672491021803e-10 -0.7476156593799741 -4.3353485664646598e-12 9.7498500459808941e-08 -0.62943421926828969 -9.8148533455254422e-12 9.8175551774662435e-07 -0.74761572473077276 -1.897128899802092e-11 -9.8093546911196655e-07 -0.7476157131412029 0.077930628303774507 -2.8730672491021803e-10 -0.7476156593799741 0.077930628303774507 -2.8730672491021803e-10 -0.7476156593799741 -1.8971284442240526e-11 -9.8093546911196655e-07 -0.74761571314120279 -4.3353351914947949e-12 9.7498500459808359e-08 -0.62943421926828969 1.858543412771189e-11 -1.8368913544719364e-06 -0.60437422064935253 -1.8971284442240526e-11 -9.8093546911196655e-07 -0.74761571314120279 0.077930628303774507 -2.8730672491021803e-10 -0.7476156593799741 0.076589617086216644 -1.9304665494850048e-06 -0.74761559459375382 1.8585460083825259e-11 -1.8368913544719366e-06 -0.60437422064935253 -1.0000085368145258e-10 -3.4073313825964544e-06 -0.63815918607864885 1.8585460083825259e-11 -1.8368913544719366e-06 -0.60437422064935253 0.076589617086216644 -1.9304665494850044e-06 -0.74761559459375371 0.1421739828103124 -1.9511759641241417e-06 -0.51407328492307536 0.076589617086216644 -1.9304665494850048e-06 -0.74761559459375382 0.14217398281031235 -1.9511759641241404e-06 -0.51407328492307536 1.8585463741410234e-11 -1.8368913544719366e-06 -0.60437422064935264 0.098821481012930784 -1.1498800988963348e-08 -0.58041420964596002 -4.3353485664646598e-12 9.7498500459808941e-08 -0.62943421926828969 1.8585461497925548e-11 -1.8368913544719366e-06 -0.60437422064935253 -4.0400311013709056e-12 -3.1607712195826674e-07 -0.50330323843331015 0.098821481012930826 -1.1498800988963411e-08 -0.58041420964595991 -4.3353485664646598e-12 9.7498500459808941e-08 -0.62943421926828969 0.077930628303774493 -2.8730672491018504e-10 -0.7476156593799741 1.8585461749558398e-11 -1.8368913544719366e-06 -0.60437422064935253 0.098821481012930812 -1.1498800988963366e-08 -0.58041420964596002 1.8585460083825259e-11 -1.8368913544719366e-06 -0.60437422064935253 0.076589617086216644 -1.9304665494850048e-06 -0.74761559459375382 -1.8971284442240526e-11 -9.8093546911196655e-07 -0.74761571314120279 2.5019309823710741e-12 -2.9378630543416282e-06 -0.74761564842116057 0.077930628303774507 -2.8730672491021803e-10 -0.7476156593799741 0.14895304118306257 -1.1192519697194962e-06 -0.74761555911506872 0.076589617086216644 -1.9304665494850048e-06 -0.74761559459375382 0.098821481012930798 -1.1498800988963404e-08 -0.58041420964596002 0.077930628303774507 -2.8730672491021803e-10 -0.7476156593799741 0.076589617086216644 -1.9304665494850048e-06 -0.74761559459375382 1.8585478028881267e-11 -1.8368913544719366e-06 -0.60437422064935253 0.098821481012930784 -1.1498800988963409e-08 -0.58041420964595991 0.14300623240029942 -3.4017923090783664e-06 -0.74761550173011304 0.076589617086216644 -1.9304665494850048e-06 -0.74761559459375382 0.14895304118306257 -1.1192519697194962e-06 -0.74761555911506872 0.14217398281031235 -1.9511759641241404e-06 -0.51407328492307536 0.14678756731880258 1.079278434321198e-06 -0.74761555682206193 0.14895304118306257 -1.1192519697194962e-06 -0.74761555911506872 0.077930628303774507 -2.8730672491021803e-10 -0.7476156593799741 0.098821481012930798 -1.1498800988963404e-08 -0.58041420964596002 0.20725386515383803 -2.1524730192561133e-06 -0.74761549873995914 0.14217398281031232 -1.9511759641241404e-06 -0.51407328492307536 0.2253673042186822 2.479066993835993e-07 -0.56105647851103446 0.2265817506679218 -3.1033533060508923e-06 -0.58377714103432377 0.14895304118306257 -1.1192519697194962e-06 -0.74761555911506872 0.22536730421868223 2.4790669938359945e-07 -0.56105647851103457 0.14217398281031235 -1.9511759641241408e-06 -0.51407328492307536 0.098821481012930812 -1.149880098896391e-08 -0.58041420964596002 0.14300623240029942 -3.4017923090783664e-06 -0.74761550173011304 0.14895304118306257 -1.1192519697194964e-06 -0.74761555911506872 0.20725386515383803 -2.1524730192561133e-06 -0.74761549873995914 0.14217398281031232 -1.9511759641241404e-06 -0.51407328492307536 0.20725386515383803 -2.1524730192561133e-06 -0.74761549873995914 0.14300623240029944 -3.4017923090783668e-06 -0.74761550173011304 0.14217398281031235 -1.9511759641241408e-06 -0.51407328492307536 0.22658175066792174 -3.1033533060508923e-06 -0.58377714103432354 0.14895304118306257 -1.1192519697194962e-06 -0.74761555911506872 0.20725386515383803 -2.1524730192561133e-06 -0.74761549873995914 0.14217398281031235 -1.9511759641241408e-06 -0.51407328492307536 0.22536730421868223 2.4790669938360025e-07 -0.56105647851103446 0.14895304118306257 -1.1192519697194962e-06 -0.74761555911506872 0.14217398281031235 -1.9511759641241408e-06 -0.51407328492307536 0.076589617086216644 -1.9304665494850048e-06 -0.74761559459375382 0.098821481012930826 -1.1498800988964198e-08 -0.58041420964596013 0.14895304118306257 -1.1192519697194962e-06 -0.74761555911506872 0.23507266646833469 -6.2278586589232215e-08 -0.74761543421025201 0.20725386515383803 -2.1524730192561133e-06 -0.74761549873995914 0.2253673042186822 2.479066993835993e-07 -0.56105647851103446 0.14217398281031235 -1.9511759641241408e-06 -0.51407328492307536 0.2253673042186822 2.4790669938359967e-07 -0.56105647851103435 0.22619892886928006 -2.3452065275424146e-08 -0.37381437153063996 0.098821481012930784 -1.1498800988963201e-08 -0.58041420964595991 0.11205544633452627 3.2147483549732888e-07 -0.33717063617942594 0.22653183170620356 -2.6190254589385634e-06 -0.39539491481799283 0.14217398281031229 -1.9511759641241408e-06 -0.51407328492307536 0.099928949133755593 -2.6401087815954382e-06 -0.37385048821119155 0.14217398281031235 -1.9511759641241408e-06 -0.51407328492307536 0.22653183170620358 -2.6190254589385634e-06 -0.39539491481799288 0.2253673042186822 2.4790669938359887e-07 -0.56105647851103435 0.22658175066792174 -3.1033533060508919e-06 -0.58377714103432365 0.22619892886928009 -2.3452065275424338e-08 -0.37381437153063996 0.14217398281031235 -1.9511759641241408e-06 -0.51407328492307536 0.11205544633452627 3.2147483549732888e-07 -0.33717063617942594 0.22653183170620358 -2.6190254589385634e-06 -0.39539491481799288 0.22619892886928009 -2.3452065275424338e-08 -0.37381437153063996 0.22536730421868226 2.479066993835993e-07 -0.56105647851103446 0.14217398281031238 -1.9511759641241413e-06 -0.51407328492307536 0.22653183170620358 -2.6190254589385634e-06 -0.39539491481799288 0.22619892886928009 -2.3452065275424338e-08 -0.37381437153063996 0.11205544633452627 3.2147483549732888e-07 -0.33717063617942594 0.14217398281031235 -1.9511759641241413e-06 -0.51407328492307525 0.098821481012930798 -1.1498800988963404e-08 -0.58041420964596002 0.098821481012930798 -1.1498800988963404e-08 -0.58041420964596002 0.14217398281031235 -1.9511759641241408e-06 -0.51407328492307536 -2.1345115024993883e-11 3.685375579961211e-08 -0.38847920603421959 0.11205544633452623 3.214748354973284e-07 -0.33717063617942594 -2.4472846323060767e-11 -1.8627966982154279e-06 -0.34250760745174758 0.11205544633452626 3.2147483549732904e-07 -0.33717063617942594 2.6212578288360287e-11 -1.8933928073118674e-06 -0.45640231089323835 0.099928949133755565 -2.6401087815954382e-06 -0.37385048821119149 2.6212577069520699e-11 -1.8933928073118674e-06 -0.45640231089323835 -2.1345117389425489e-11 3.6853755799612144e-08 -0.38847920603421959 0.14217398281031232 -1.95117596412414e-06 -0.51407328492307536 0.11205544633452627 3.2147483549732888e-07 -0.33717063617942594 0.098821481012930798 -1.1498800988963404e-08 -0.58041420964596002 2.62126134380169e-11 -1.8933928073118665e-06 -0.45640231089323835 -2.1345117389425489e-11 3.6853755799612144e-08 -0.38847920603421959 0.14217398281031235 -1.9511759641241408e-06 -0.51407328492307536 2.6212577069520699e-11 -1.8933928073118674e-06 -0.45640231089323835 0.11205544633452628 3.2147483549732872e-07 -0.33717063617942589 0.14217398281031235 -1.9511759641241408e-06 -0.51407328492307536 0.099928949133755579 -2.6401087815954387e-06 -0.37385048821119138 0.098821481012930798 -1.1498800988963404e-08 -0.58041420964596002 -2.1345117389425489e-11 3.6853755799612144e-08 -0.38847920603421959 2.6212573594194402e-11 -1.8933928073118665e-06 -0.45640231089323829 -4.0400311013709056e-12 -3.1607712195826674e-07 -0.50330323843331015 -7.487561425517566e-11 -3.7938240511678651e-06 -0.51870738219627222 2.6212577069520699e-11 -1.8933928073118674e-06 -0.45640231089323835 0.14217398281031235 -1.9511759641241404e-06 -0.51407328492307536 0.099928949133755565 -2.6401087815954382e-06 -0.37385048821119149 2.6212577069520699e-11 -1.8933928073118674e-06 -0.45640231089323835 1.8585460083825259e-11 -1.8368913544719366e-06 -0.60437422064935253 0.14217398281031235 -1.9511759641241408e-06 -0.51407328492307536 0.098821481012930798 -1.1498800988964187e-08 -0.58041420964596002 -7.487561425517566e-11 -3.7938240511678651e-06 -0.51870738219627222 2.6212577069520699e-11 -1.8933928073118674e-06 -0.45640231089323835 1.8585462581014336e-11 -1.8368913544719366e-06 -0.60437422064935253 0.14217398281031235 -1.9511759641241408e-06 -0.51407328492307536 -2.4472846323060767e-11 -1.8627966982154279e-06 -0.34250760745174758 -2.1345117389425489e-11 3.6853755799612144e-08 -0.38847920603421959 2.6212577069520699e-11 -1.8933928073118674e-06 -0.45640231089323835 0.11205544633452627 3.2147483549732888e-07 -0.33717063617942594 2.6212577069520699e-11 -1.8933928073118674e-06 -0.45640231089323835 -4.040029470214705e-12 -3.1607712195826674e-07 -0.50330323843331015 1.8585464437078506e-11 -1.8368913544719368e-06 -0.60437422064935253 0.098821481012930742 -1.1498800988962797e-08 -0.58041420964596002 2.6212577069520699e-11 -1.8933928073118674e-06 -0.45640231089323835 -6.8805456131890634e-11 -3.8714948435333116e-06 -0.38104230391771904 -2.447284809949753e-11 -1.8627966982154279e-06 -0.34250760745174758 0.099928949133755593 -2.6401087815954378e-06 -0.37385048821119143 -7.487561425517566e-11 -3.7938240511678651e-06 -0.51870738219627222 0.066235567422348041 -3.9556326244636002e-06 -0.63815924610626862 0.085136561331843261 -5.1409884776718471e-06 -0.5111053808885615 0.14217398281031235 -1.9511759641241408e-06 -0.51407328492307536 -7.487561425517566e-11 -3.7938240511678651e-06 -0.51870738219627222 0.14217398281031235 -1.9511759641241408e-06 -0.51407328492307536 0.085136561331843261 -5.1409884776718471e-06 -0.51110538088856139 0.099928949133755565 -2.6401087815954382e-06 -0.37385048821119149 -7.487561425517566e-11 -3.7938240511678651e-06 -0.51870738219627222 0.085136561331843247 -5.1409884776718471e-06 -0.5111053808885615 -6.8805456131890634e-11 -3.8714948435333116e-06 -0.38104230391771904 0.099928949133755565 -2.6401087815954382e-06 -0.37385048821119149 -7.487561425517566e-11 -3.7938240511678651e-06 -0.51870738219627222 -6.8805456131890634e-11 -3.8714948435333116e-06 -0.38104230391771904 2.6212573924100804e-11 -1.8933928073118674e-06 -0.45640231089323835 0.099928949133755565 -2.6401087815954382e-06 -0.37385048821119149 1.3942709581588759e-10 -5.6128457356677917e-06 -0.59809508366843933 1.4551448445376691e-10 -6.6216579954622113e-06 -0.44857483927914782 -7.487561425517566e-11 -3.7938240511678651e-06 -0.51870738219627222 0.085136561331843261 -5.1409884776718479e-06 -0.5111053808885615 1.4551448445376691e-10 -6.6216579954622113e-06 -0.44857483927914782 -7.487561425517566e-11 -3.7938240511678651e-06 -0.51870738219627222 0.085136561331843261 -5.1409884776718479e-06 -0.5111053808885615 -6.8805456131890634e-11 -3.8714948435333116e-06 -0.38104230391771904 0.085136561331843261 -5.1409884776718479e-06 -0.5111053808885615 0.074060610542187544 -4.8812155743605547e-06 -0.3653406491458514 1.4551448445376691e-10 -6.6216579954622113e-06 -0.44857483927914782 -6.8805456131890634e-11 -3.8714948435333116e-06 -0.38104230391771904 0.085136561331843261 -5.1409884776718479e-06 -0.5111053808885615 0.14038042364143041 -4.1918698930495857e-06 -0.40506306480308973 0.074060610542187544 -4.8812155743605547e-06 -0.3653406491458514 0.099928949133755565 -2.6401087815954382e-06 -0.37385048821119149 -6.8805456131890634e-11 -3.8714948435333116e-06 -0.38104230391771904 0.085136561331843247 -5.1409884776718479e-06 -0.5111053808885615 0.074060610542187544 -4.8812155743605547e-06 -0.3653406491458514 0.099928949133755579 -2.640108781595437e-06 -0.37385048821119138 0.13605767816898967 -4.9476042676100808e-06 -0.62104888518200296 0.17922175356659323 -5.7041962944467547e-06 -0.50145609221725718 0.085136561331843261 -5.1409884776718479e-06 -0.5111053808885615 0.14217398281031235 -1.9511759641241408e-06 -0.51407328492307536 0.14038042364143041 -4.1918698930495857e-06 -0.40506306480308973 0.14217398281031238 -1.9511759641241413e-06 -0.51407328492307536 0.22653183170620356 -2.6190254589385638e-06 -0.39539491481799299 0.099928949133755565 -2.6401087815954378e-06 -0.37385048821119143 0.17922175356659323 -5.7041962944467547e-06 -0.50145609221725718 0.14038042364143041 -4.1918698930495857e-06 -0.40506306480308973 0.14217398281031235 -1.95117596412414e-06 -0.51407328492307525 0.22653183170620358 -2.6190254589385621e-06 -0.39539491481799283 0.17922175356659323 -5.7041962944467547e-06 -0.50145609221725718 0.14217398281031235 -1.9511759641241408e-06 -0.51407328492307536 0.13605767816898967 -4.9476042676100808e-06 -0.62104888518200296 0.22658175066792174 -3.1033533060508919e-06 -0.58377714103432365 0.085136561331843261 -5.1409884776718479e-06 -0.5111053808885615 0.14217398281031235 -1.95117596412414e-06 -0.51407328492307536 0.14038042364143041 -4.1918698930495857e-06 -0.40506306480308973 0.099928949133755565 -2.6401087815954382e-06 -0.37385048821119149 0.27152987672919016 -6.0255620961681997e-06 -0.50503277846922234 0.22653183170620358 -2.6190254589385634e-06 -0.39539491481799283 0.17922175356659323 -5.7041962944467547e-06 -0.50145609221725718 0.22658175066792174 -3.1033533060508919e-06 -0.58377714103432365 0.14038042364143041 -4.1918698930495857e-06 -0.40506306480308973 0.085136561331843275 -5.1409884776718479e-06 -0.5111053808885615 0.17922175356659323 -5.7041962944467547e-06 -0.50145609221725718 0.14217398281031235 -1.9511759641241408e-06 -0.51407328492307536 0.17922175356659323 -5.7041962944467547e-06 -0.50145609221725718 0.22653183170620358 -2.6190254589385625e-06 -0.39539491481799288 0.14217398281031235 -1.95117596412414e-06 -0.51407328492307525 0.22658175066792174 -3.1033533060508919e-06 -0.58377714103432365 0.17922175356659323 -5.7041962944467547e-06 -0.50145609221725718 0.27152987672919016 -6.0255620961681997e-06 -0.50503277846922234 0.22619885663055506 -5.1965511607049874e-06 -0.35915014205715962 0.22653183170620361 -2.619025458938563e-06 -0.39539491481799294 0.17922175356659323 -5.7041962944467547e-06 -0.50145609221725718 0.22619885663055506 -5.1965511607049874e-06 -0.35915014205715967 0.14038042364143041 -4.1918698930495857e-06 -0.40506306480308973 0.22653183170620361 -2.619025458938563e-06 -0.39539491481799294 0.22545932766464066 -5.3824667730861968e-06 -0.61883269716332878 0.27152987672919016 -6.0255620961681997e-06 -0.50503277846922234 0.17922175356659323 -5.7041962944467547e-06 -0.50145609221725718 0.22658175066792174 -3.1033533060508919e-06 -0.58377714103432365 0.13605767816898967 -4.9476042676100808e-06 -0.62104888518200296 0.066235599684014768 -3.3365121601201552e-06 -0.74761550470175431 0.14300623240029942 -3.4017923090783664e-06 -0.74761550173011304 0.14217398281031235 -1.9511759641241408e-06 -0.51407328492307536 0.13605767816898967 -4.9476042676100808e-06 -0.62104888518200296 0.14217398281031235 -1.9511759641241408e-06 -0.51407328492307536 0.14300623240029939 -3.4017923090783668e-06 -0.74761550173011304 0.22658175066792169 -3.1033533060508919e-06 -0.58377714103432365 0.13605767816898967 -4.9476042676100808e-06 -0.62104888518200296 0.14300623240029942 -3.4017923090783664e-06 -0.74761550173011304 0.22545932766464066 -5.3824667730861968e-06 -0.61883269716332878 0.22658175066792172 -3.1033533060508927e-06 -0.58377714103432377 0.17922175356659323 -5.7041962944467547e-06 -0.50145609221725718 0.13605767816898967 -4.9476042676100808e-06 -0.62104888518200296 0.22545932766464066 -5.3824667730861968e-06 -0.61883269716332878 0.22658175066792174 -3.1033533060508919e-06 -0.58377714103432365 0.14300623240029942 -3.4017923090783664e-06 -0.74761550173011304 0.18095890399991613 -6.2968999793141703e-06 -0.74761600596921329 0.22545932766464066 -5.3824667730861968e-06 -0.61883269716332878 0.23057252595542502 -3.9481978485994312e-06 -0.74761546523128186 0.18095890399991613 -6.2968999793141703e-06 -0.74761600596921329 0.22545932766464066 -5.3824667730861968e-06 -0.61883269716332878 0.13605767816898967 -4.9476042676100808e-06 -0.62104888518200296 0.14300623240029942 -3.4017923090783664e-06 -0.74761550173011304 0.14300623240029942 -3.4017923090783664e-06 -0.74761550173011304 0.23057252595542502 -3.9481978485994312e-06 -0.74761546523128186 0.22545932766464066 -5.3824667730861968e-06 -0.61883269716332878 0.22658175066792174 -3.1033533060508927e-06 -0.58377714103432365 0.20725386515383803 -2.1524730192561133e-06 -0.74761549873995914 0.23057252595542502 -3.9481978485994312e-06 -0.74761546523128186 0.14300623240029942 -3.4017923090783664e-06 -0.74761550173011304 0.22658175066792174 -3.1033533060508919e-06 -0.58377714103432365 0.18095890399991613 -6.2968999793141703e-06 -0.74761600596921329 0.13605767816898967 -4.9476042676100808e-06 -0.62104888518200296 0.090479319385012399 -4.931351810016431e-06 -0.74761582071930577 0.14300623240029942 -3.4017923090783664e-06 -0.74761550173011304 -1.0000085368145258e-10 -3.4073313825964544e-06 -0.63815918607864885 -7.4875610334896055e-11 -3.7938240511678647e-06 -0.5187073821962721 1.8585460083825259e-11 -1.8368913544719366e-06 -0.60437422064935253 0.14217398281031238 -1.9511759641241404e-06 -0.51407328492307536 0.076589617086216644 -1.9304665494850048e-06 -0.74761559459375382 0.14300623240029942 -3.4017923090783664e-06 -0.74761550173011304 0.066235599684014768 -3.3365121601201552e-06 -0.74761550470175431 0.14217398281031235 -1.9511759641241408e-06 -0.51407328492307536 0.066235599684014768 -3.3365121601201552e-06 -0.74761550470175431 0.090479319385012386 -4.931351810016431e-06 -0.74761582071930566 0.066235567422348027 -3.9556326244635994e-06 -0.63815924610626862 0.13605767816898967 -4.9476042676100808e-06 -0.62104888518200296 0.066235599684014768 -3.3365121601201552e-06 -0.74761550470175431 0.1360576781689897 -4.9476042676100816e-06 -0.62104888518200285 0.066235567422348027 -3.9556326244635994e-06 -0.63815924610626862 0.1421739828103124 -1.9511759641241421e-06 -0.51407328492307536 0.066235599684014768 -3.3365121601201552e-06 -0.74761550470175431 0.090479319385012399 -4.931351810016431e-06 -0.74761582071930577 0.13605767816898967 -4.9476042676100808e-06 -0.62104888518200296 0.14300623240029942 -3.4017923090783664e-06 -0.74761550173011304 0.085136561331843261 -5.1409884776718479e-06 -0.5111053808885615 0.066235567422348027 -3.9556326244635994e-06 -0.63815924610626862 0.13605767816898967 -4.9476042676100808e-06 -0.62104888518200296 0.14217398281031235 -1.95117596412414e-06 -0.51407328492307536 -1.0000085368145258e-10 -3.4073313825964544e-06 -0.63815918607864885 0.076589617086216616 -1.9304665494850039e-06 -0.74761559459375371 0.066235599684014768 -3.3365121601201557e-06 -0.74761550470175431 0.14217398281031238 -1.9511759641241404e-06 -0.51407328492307525 0.066235599684014768 -3.3365121601201552e-06 -0.74761550470175431 0.066235567422348027 -3.9556326244635994e-06 -0.63815924610626862 -1.0000085368145258e-10 -3.4073313825964544e-06 -0.63815918607864885 0.14217398281031235 -1.9511759641241408e-06 -0.51407328492307536 -7.487561425517566e-11 -3.7938240511678651e-06 -0.51870738219627222 -1.0000085368145258e-10 -3.4073313825964544e-06 -0.63815918607864885 0.066235567422348027 -3.9556326244635994e-06 -0.63815924610626862 0.14217398281031232 -1.9511759641241408e-06 -0.51407328492307525 2.5019309823710741e-12 -2.9378630543416282e-06 -0.74761564842116057 1.8585460083825259e-11 -1.8368913544719366e-06 -0.60437422064935253 0.076589617086216644 -1.9304665494850048e-06 -0.74761559459375382 -1.0000085368145258e-10 -3.4073313825964544e-06 -0.63815918607864885 0.066235599684014768 -3.3365121601201552e-06 -0.74761550470175431 2.50192816756807e-12 -2.9378630543416277e-06 -0.74761564842116046 0.076589617086216644 -1.9304665494850048e-06 -0.74761559459375382 -1.0000085368145258e-10 -3.4073313825964544e-06 -0.63815918607864885 -7.487561425517566e-11 -3.7938240511678651e-06 -0.51870738219627222 0.066235567422348041 -3.9556326244636002e-06 -0.63815924610626862 1.3942709581588759e-10 -5.6128457356677917e-06 -0.59809508366843933 0.085136561331843261 -5.1409884776718462e-06 -0.51110538088856161 -1.0000085368145258e-10 -3.4073313825964544e-06 -0.63815918607864885 0.066235567422348041 -3.9556326244635985e-06 -0.63815924610626851 1.3942709581588759e-10 -5.6128457356677917e-06 -0.59809508366843933 -7.487561425517566e-11 -3.7938240511678651e-06 -0.51870738219627222 3.9071602148779808e-11 -5.3211740467662151e-06 -0.74761589817726803 2.5019309823710882e-12 -2.9378630543416282e-06 -0.74761564842116057 0.066235599684014768 -3.3365121601201552e-06 -0.74761550470175431 -1.0000085368145258e-10 -3.4073313825964544e-06 -0.63815918607864885 0.066235567422348027 -3.9556326244635994e-06 -0.63815924610626862 1.394270953216699e-10 -5.6128457356677917e-06 -0.59809508366843933 3.9071602148779808e-11 -5.3211740467662151e-06 -0.74761589817726803 -1.0000085368145258e-10 -3.4073313825964544e-06 -0.63815918607864885 3.9071602148779808e-11 -5.3211740467662151e-06 -0.74761589817726803 0.066235599684014768 -3.3365121601201552e-06 -0.74761550470175431 0.090479319385012399 -4.931351810016431e-06 -0.74761582071930577 0.066235567422348027 -3.9556326244635994e-06 -0.63815924610626862 0.066235567422348027 -3.9556326244635994e-06 -0.63815924610626862 3.9071602148779808e-11 -5.3211740467662151e-06 -0.74761589817726803 0.066235599684014768 -3.3365121601201552e-06 -0.74761550470175431 -1.0000085368145258e-10 -3.4073313825964544e-06 -0.63815918607864885 
</DataArray>
</PointData>
<CellData Scalars="" Vectors="" Tensors="stress,">
<DataArray type="Float64" Name="stress" NumberOfComponents="9" format="ascii">
0.29499866503219319 -6.5530240646471271e-07 -5.7495460893794339e-06 -6.5530240646471271e-07 -0.08199078608873156 -5.4301601411634836e-06 -5.7495460893794339e-06 -5.4301601411634836e-06 -0.704994475442283 0.29500226044693401 1.3925694963475642e-06 8.1882813379616725e-06 1.3925694963475642e-06 -0.081989830553409471 4.1148471759822674e-06 8.1882813379616725e-06 4.1148471759822674e-06 -0.7049951669901442 0.29499976842722209 1.2973182011288165e-06 5.5936528558983421e-07 1.2973182011288165e-06 -0.081982870111998452 1.6969994870441474e-05 5.5936528558983421e-07 1.6969994870441474e-05 -0.70498680165451755 0.29500253835817219 3.5245516909259468e-06 1.7462880987362261e-06 3.5245516909259468e-06 -0.081986283372506602 2.8694367536620238e-06 1.7462880987362261e-06 2.8694367536620238e-06 -0.70499483898416127 0.29499995012100788 6.9041892787497141e-08 8.6768692697525296e-07 6.9041892787497141e-08 -0.081989092387730722 -3.8345128224315239e-06 8.6768692697525296e-07 -3.8345128224315239e-06 -0.70500150825286934 0.2950010504592851 -3.0472350868553671e-06 -3.610251710639556e-06 -3.0472350868553671e-06 -0.081986640563492419 -8.1757732950382689e-07 -3.610251710639556e-06 -8.1757732950382689e-07 -0.705001300191752 0.29499954229531467 1.8483790687121631e-06 4.7726725133090397e-06 1.8483790687121631e-06 -0.081993048706109489 7.780456540956715e-06 4.7726725133090397e-06 7.780456540956715e-06 -0.7050043047413489 0.29499782062451713 -4.0636254361369846e-06 -3.2445501438743696e-06 -4.0636254361369846e-06 -0.081994062095068598 5.4460941911749217e-06 -3.2445501438743696e-06 5.4460941911749217e-06 -0.70501115527483771 0.29499805849774874 -3.1596277480000915e-07 2.0221484836602244e-06 -3.1596277480000915e-07 -0.08199158002560647 -2.3783653754563816e-06 2.0221484836602244e-06 -2.3783653754563816e-06 -0.70501033817562031 0.29499557528321585 4.1741119804717866e-07 6.3205053493775587e-07 4.1741119804717866e-07 -0.081999119797351264 2.5877949911545794e-06 6.3205053493775587e-07 2.5877949911545794e-06 -0.70501579514080581 0.29499889130011714 1.7157670026600493e-06 -3.9646444896512811e-07 1.7157670026600493e-06 -0.081992685696277948 -2.9512953524379881e-06 -3.9646444896512811e-07 -2.9512953524379881e-06 -0.7050040850396847 0.29499958290163097 2.2122193362029902e-06 6.3300452432524246e-07 2.2122193362029902e-06 -0.081991934554118406 -1.9262757488258675e-06 6.3300452432524246e-07 -1.9262757488258675e-06 -0.70500417826633865 0.29500011177164803 8.0352641929027674e-07 6.9221254905826868e-07 8.0352641929027674e-07 -0.081989738395918915 3.6176496573392392e-07 6.9221254905826868e-07 3.6176496573392392e-07 -0.70500406599407428 0.2950013604497404 1.6100209248269671e-06 6.245220768710813e-06 1.6100209248269671e-06 -0.081989546255363047 -9.7749445471251306e-07 6.245220768710813e-06 -9.7749445471251306e-07 -0.70499995402563487 0.29500209237321845 7.8811617571960535e-07 4.8199971643993624e-06 7.8811617571960535e-07 -0.081990460972005963 -5.0276686552131834e-06 4.8199971643993624e-06 -5.0276686552131834e-06 -0.70499336341315177 0.29500159784099289 1.3643572322788406e-06 -6.4558251729719156e-06 1.3643572322788406e-06 -0.081981421209366828 1.074614883707765e-05 -6.4558251729719156e-06 1.074614883707765e-05 -0.7049813764869185 0.29500205162241094 -1.3944784631776917e-06 -2.1339867474212681e-06 -1.3944784631776917e-06 -0.081985836507375773 1.4611485884510889e-05 -2.1339867474212681e-06 1.4611485884510889e-05 -0.70498976918850387 0.29500792687797334 1.3283758296429922e-06 -4.3504666199918089e-06 1.3283758296429922e-06 -0.081984256030279562 6.9133970922109703e-06 -4.3504666199918089e-06 6.9133970922109703e-06 -0.70498689665777192 0.29499743823360419 -1.1319772061363721e-06 -7.5189830317165529e-06 -1.1319772061363721e-06 -0.081990060125804037 1.7330371160084734e-06 -7.5189830317165529e-06 1.7330371160084734e-06 -0.70500199388826124 0.29500006335022078 -1.6623319985904611e-06 2.276505910614457e-06 -1.6623319985904611e-06 -0.081989371065538871 1.7947099883266517e-06 2.276505910614457e-06 1.7947099883266517e-06 -0.70500113008262277 0.29500027784732585 1.4660310712716403e-06 2.4166109476655984e-06 1.4660310712716403e-06 -0.081992471453247145 3.279942882850051e-06 2.4166109476655984e-06 3.279942882850051e-06 -0.70500387622012917 0.29499991597369579 6.4768346337955928e-07 2.7788543712888386e-06 6.4768346337955928e-07 -0.08199222158526745 4.655766736290495e-06 2.7788543712888386e-06 4.655766736290495e-06 -0.70500461232721578 0.29500570786042518 7.8365454018781564e-07 2.1032915987763142e-06 7.8365454018781564e-07 -0.081984083407374786 1.0787120321770719e-05 2.1032915987763142e-06 1.0787120321770719e-05 -0.70498376439230348 0.29500227684676095 -5.1686451209710904e-08 1.083909763555102e-06 -5.1686451209710904e-08 -0.081984262202539473 9.8697200822512185e-06 1.083909763555102e-06 9.8697200822512185e-06 -0.70498073673860451 0.29499882212593659 5.7213566208747053e-07 -1.987331573749529e-07 5.7213566208747053e-07 -0.081989231864864259 2.084555071890648e-07 -1.987331573749529e-07 2.084555071890648e-07 -0.70499346394263807 0.2949982111712347 6.1022744247414503e-07 3.7399533053816825e-07 6.1022744247414503e-07 -0.081991905013523797 2.4533188134334694e-06 3.7399533053816825e-07 2.4533188134334694e-06 -0.7049974930643339 0.29499983792413209 -3.6340500465347462e-07 8.1480925118171399e-08 -3.6340500465347462e-07 -0.081992825282666909 1.202779923548114e-06 8.1480925118171399e-08 1.202779923548114e-06 -0.70499935128520208 0.29499905339940052 8.0484325154107214e-07 -1.2022721770366118e-06 8.0484325154107214e-07 -0.081991274691892324 5.1325380617806005e-07 -1.2022721770366118e-06 5.1325380617806005e-07 -0.70500136442103956 0.29500013164936034 -3.0946250875702141e-07 1.1610148875629278e-07 -3.0946250875702141e-07 -0.081991151767493609 3.9585820288401408e-08 1.1610148875629278e-07 3.9585820288401408e-08 -0.70499954260600706 0.29499927129247927 -3.3974337405308494e-06 -1.7597897815357921e-07 -3.3974337405308494e-06 -0.081986632039289659 1.5963887110281849e-06 -1.7597897815357921e-07 1.5963887110281849e-06 -0.70500096900975795 0.29499956196177629 -1.4248642909216252e-06 1.0327294676371057e-06 -1.4248642909216252e-06 -0.081991145906498364 9.2417839368114096e-07 1.0327294676371057e-06 9.2417839368114096e-07 -0.70500155306026957 0.29500057450144568 9.6016413678234256e-08 -2.3238200353992156e-06 9.6016413678234256e-08 -0.081989357033866381 2.0932503018711301e-06 -2.3238200353992156e-06 2.0932503018711301e-06 -0.70499646433625229 0.29500033608430221 -1.0085218131808669e-06 1.7567293703057985e-06 -1.0085218131808669e-06 -0.081989533653754013 2.2122313580001662e-06 1.7567293703057985e-06 2.2122313580001662e-06 -0.70499682403559683 0.29500050525174809 -2.9956030709056553e-06 4.0997999273262309e-07 -2.9956030709056553e-06 -0.081984282882743884 3.4604397073367821e-06 4.0997999273262309e-07 3.4604397073367821e-06 -0.70499564780189372 0.29499962790851553 -1.6792490049429682e-06 3.2621719975312047e-07 -1.6792490049429682e-06 -0.081989789991724016 8.7790680691757217e-07 3.2621719975312047e-07 8.7790680691757217e-07 -0.70499873888015285 0.29499906893338768 -2.634312737115511e-06 5.6552573240997717e-07 -2.634312737115511e-06 -0.081990747406332054 2.6051066659427136e-06 5.6552573240997717e-07 2.6051066659427136e-06 -0.70499893492080901 0.29499938304245843 1.4233900322902393e-06 -4.8617060927069744e-07 1.4233900322902393e-06 -0.081990932424004348 1.1165524227418899e-06 -4.8617060927069744e-07 1.1165524227418899e-06 -0.70499915758165566 0.29499893199682248 8.1274037892093446e-07 -1.0577403695699594e-06 8.1274037892093446e-07 -0.081990980086217358 3.6399483305249447e-07 -1.0577403695699594e-06 3.6399483305249447e-07 -0.70500142101884333 0.29499931596972162 6.5687525139648439e-08 -3.6401848968470318e-07 6.5687525139648439e-08 -0.081990995204921119 -5.4420693446077806e-07 -3.6401848968470318e-07 -5.4420693446077806e-07 -0.70500387467284598 0.29499988924702514 1.0100005767283052e-07 -4.4704316004562372e-07 1.0100005767283052e-07 -0.081990321852682624 1.8860334249914956e-07 -4.4704316004562372e-07 1.8860334249914956e-07 -0.70500105448593131 0.29500007812767126 1.0654487158844577e-07 -6.1554606805083734e-07 1.0654487158844577e-07 -0.081990294686474119 1.2901309966173446e-07 -6.1554606805083734e-07 1.2901309966173446e-07 -0.70500064678168206 0.29500172673796587 3.3760802874283792e-06 -1.0590365462359586e-07 3.3760802874283792e-06 -0.081984583082491902 -1.3981813024033229e-06 -1.0590365462359586e-07 -1.3981813024033229e-06 -0.70499881567521872 0.29500168604475741 2.4008085510138475e-06 -1.2010275129981096e-07 2.4008085510138475e-06 -0.081985095144463949 5.4098866078544638e-07 -1.2010275129981096e-07 5.4098866078544638e-07 -0.70499962658812931 0.29500112907131981 2.9493989695433658e-06 9.2061208434301989e-08 2.9493989695433658e-06 -0.081986243223571398 -3.6336937281333803e-07 9.2061208434301989e-08 -3.6336937281333803e-07 -0.70500014574765935 0.2950013224699074 1.3855141080338945e-06 -2.1804463679053754e-08 1.3855141080338945e-06 -0.081987314133234263 -1.3667831846586598e-06 -2.1804463679053754e-08 -1.3667831846586598e-06 -0.70500044361417069 0.29499936613966604 1.0092747060175177e-06 -2.1278618178577346e-07 1.0092747060175177e-06 -0.081990941163818123 -8.5729462240280441e-07 -2.1278618178577346e-07 -8.5729462240280441e-07 -0.70500152332811716 0.2950000915422249 8.6245151305051321e-07 5.6069156983973301e-08 8.6245151305051321e-07 -0.081987213015939642 -1.5945304999709364e-06 5.6069156983973301e-08 -1.5945304999709364e-06 -0.7050009229112677 0.29500075489060051 7.8668074663155439e-08 2.3181356079149396e-07 7.8668074663155439e-08 -0.081988338129667826 -2.2492774507942848e-06 2.3181356079149396e-07 -2.2492774507942848e-06 -0.7049982402191326 0.29499967023862284 1.2784274555267694e-07 -4.6658254759801565e-08 1.2784274555267694e-07 -0.081990317453382699 -1.2987880709802724e-07 -4.6658254759801565e-08 -1.2987880709802724e-07 -0.70500026866304299 0.295000308023597 1.0379852983799662e-07 2.0810716394592532e-07 1.0379852983799662e-07 -0.081988870941321013 -1.529008422443412e-06 2.0810716394592532e-07 -1.529008422443412e-06 -0.70499994148478429 0.29500076066533681 1.5256112641116966e-07 -1.4691683613426987e-07 1.5256112641116966e-07 -0.081989685794973816 -8.1173750351992702e-07 -1.4691683613426987e-07 -8.1173750351992702e-07 -0.70499712782347757 0.29500040101763669 -1.2966716910214934e-07 3.9997228379329286e-07 -1.2966716910214934e-07 -0.081989365817790372 -8.0215927344973181e-07 3.9997228379329286e-07 -8.0215927344973181e-07 -0.70499850311162549 0.29500034583579826 2.693507577543361e-07 4.7928002094854705e-08 2.693507577543361e-07 -0.08199061852122648 -1.5445175795547605e-06 4.7928002094854705e-08 -1.5445175795547605e-06 -0.70499906338796037 0.29499963940669444 3.8428015534872005e-07 -1.3183452735043844e-07 3.8428015534872005e-07 -0.081990048552118722 -7.4666407201551266e-07 -1.3183452735043844e-07 -7.4666407201551266e-07 -0.70500136415786352 0.29500017403982315 -3.3827258731162214e-10 3.5927113906097929e-07 -3.3827258731162214e-10 -0.081989355450621471 -6.4247581854637303e-07 3.5927113906097929e-07 -6.4247581854637303e-07 -0.70499829748103138 0.29499901815910806 -6.5163786567198519e-07 9.4973883324467323e-07 -6.5163786567198519e-07 -0.081990040600251113 4.3991885190219904e-08 9.4973883324467323e-07 4.3991885190219904e-08 -0.70500083154521676 0.29499888193033474 -2.8530212742181884e-07 1.0346234793068287e-06 -2.8530212742181884e-07 -0.081990406846423614 -3.4803258813775884e-07 1.0346234793068287e-06 -3.4803258813775884e-07 -0.70499800244047717 0.29499977371247832 -1.311085663140721e-06 8.2947557483725731e-07 -1.311085663140721e-06 -0.081988444745248162 2.8252017431062981e-07 8.2947557483725731e-07 2.8252017431062981e-07 -0.70500081903392597 0.29499997902670438 -2.4976458819010024e-07 5.2240042699991385e-07 -2.4976458819010024e-07 -0.081989857494098262 -3.3745086325254192e-07 5.2240042699991385e-07 -3.3745086325254192e-07 -0.70500035074476419 0.29499944297758529 -6.2209799939695774e-07 8.9852470533391404e-07 -6.2209799939695774e-07 -0.081990866981833166 1.8717662714218264e-07 8.9852470533391404e-07 1.8717662714218264e-07 -0.70500094018039139 0.29500026483354064 -3.9632827963130944e-07 1.9405113294013177e-07 -3.9632827963130944e-07 -0.081990121261793197 -3.8402273316862079e-07 1.9405113294013177e-07 -3.8402273316862079e-07 -0.70499994586774561 0.29499795715936583 1.8110999940939242e-07 7.6514226442780942e-06 1.8110999940939242e-07 -0.0819912414050777 -8.0212835431581198e-06 7.6514226442780942e-06 -8.0212835431581198e-06 -0.70499993248884429 0.29500076345973625 1.9601648286069255e-07 8.5910549207923737e-07 1.9601648286069255e-07 -0.081986949784490615 -1.4203024530949279e-06 8.5910549207923737e-07 -1.4203024530949279e-06 -0.70499247568787538 0.29499784493504733 -1.6351689847031603e-06 -3.3627320245033232e-07 -1.6351689847031603e-06 -0.081990369639409727 -1.7241220101604782e-07 -3.3627320245033232e-07 -1.7241220101604782e-07 -0.70500934264169612 0.29500025808538077 1.1049980582091896e-06 1.0899807469739386e-05 1.1049980582091896e-06 -0.081988767800468876 -3.2706637158666236e-06 1.0899807469739386e-05 -3.2706637158666236e-06 -0.70499569936614082 0.29500115294566959 6.7973535454411274e-07 -3.7055756151316288e-06 6.7973535454411274e-07 -0.081988795216801885 -2.2828336864733068e-06 -3.7055756151316288e-06 -2.2828336864733068e-06 -0.70499676674446776 0.29500028800424061 -7.0361016650267102e-07 3.4451984880501385e-06 -7.0361016650267102e-07 -0.081987517821050696 5.2317753687081137e-06 3.4451984880501385e-06 5.2317753687081137e-06 -0.70500441569455952 0.29499973927715051 -1.8568571580989697e-07 1.2348534674799794e-06 -1.8568571580989697e-07 -0.081989291633061373 4.5815483701305837e-07 1.2348534674799794e-06 4.5815483701305837e-07 -0.70499472326983903 0.29500054053754599 1.0578423662204717e-06 -3.5749665579162679e-06 1.0578423662204717e-06 -0.081988959108391796 -2.3569790299508856e-06 -3.5749665579162679e-06 -2.3569790299508856e-06 -0.70499696266288336 0.2950031638893334 8.6745248234399962e-07 1.9534521757795971e-06 8.6745248234399962e-07 -0.081986986917792215 -1.8195815749996738e-06 1.9534521757795971e-06 -1.8195815749996738e-06 -0.70499524263710578 0.2950011206524194 2.0079278106344909e-06 6.2164462639439023e-06 2.0079278106344909e-06 -0.081987882196026346 -9.4803908576379057e-06 6.2164462639439023e-06 -9.4803908576379057e-06 -0.70499723017237337 0.29499919004041869 -1.0504274226478596e-06 1.0798512404541771e-06 -1.0504274226478596e-06 -0.081992209918263656 -6.3998191660100123e-06 1.0798512404541771e-06 -6.3998191660100123e-06 -0.70500255599125261 0.29499937930563053 -2.242815065607022e-07 8.8213994730787504e-07 -2.242815065607022e-07 -0.081990852772726969 -7.4420703488620177e-07 8.8213994730787504e-07 -7.4420703488620177e-07 -0.70500265981757526 0.29500098727784901 2.9002657652625212e-08 1.9149318156164163e-06 2.9002657652625212e-08 -0.081988843716802262 -2.3028655817417323e-06 1.9149318156164163e-06 -2.3028655817417323e-06 -0.7050003045281551 0.29500203450771623 -2.1932450902232316e-08 -3.4719288632821288e-06 -2.1932450902232316e-08 -0.081987966611203694 -2.2110081910903863e-06 -3.4719288632821288e-06 -2.2110081910903863e-06 -0.7049969751666596 0.29500200247060315 5.8862942107257682e-07 4.3980124841430673e-06 5.8862942107257682e-07 -0.081987794109045192 -5.4349220992775753e-06 4.3980124841430673e-06 -5.4349220992775753e-06 -0.70499320603309656 0.29500328543452975 7.248607557828309e-09 7.3141434117534994e-06 7.248607557828309e-09 -0.081988494108913526 -1.0419888870627503e-06 7.3141434117534994e-06 -1.0419888870627503e-06 -0.70498609060417461 0.29500018309129966 -1.2306753719439281e-07 1.8481159930749946e-06 -1.2306753719439281e-07 -0.081992133076676826 -1.0822085489657629e-06 1.8481159930749946e-06 -1.0822085489657629e-06 -0.70500120582708237 0.29500135604123118 2.0795597778532044e-07 1.238268914571794e-06 2.0795597778532044e-07 -0.081991040072422916 -2.535098254352261e-06 1.238268914571794e-06 -2.535098254352261e-06 -0.70499717124650485 0.29500280105370169 4.6850584262880566e-08 4.49141119250103e-06 4.6850584262880566e-08 -0.081983993727935855 2.4564239564177947e-06 4.49141119250103e-06 2.4564239564177947e-06 -0.70499196387144403 0.29500399469952732 6.4746141062969386e-07 7.3365704724111267e-06 6.4746141062969386e-07 -0.081985253849090708 -1.7747442622523599e-06 7.3365704724111267e-06 -1.7747442622523599e-06 -0.70498525210000729 0.29500147136362465 3.1998003097383811e-07 4.0987632238254079e-07 3.1998003097383811e-07 -0.08199042947572216 1.503733095375992e-06 4.0987632238254079e-07 1.503733095375992e-06 -0.70499889048265008 0.29499996912791415 4.6336881945503007e-07 1.1329281305039185e-06 4.6336881945503007e-07 -0.081991897135606812 7.8699472899623757e-07 1.1329281305039185e-06 7.8699472899623757e-07 -0.70500414266372768 0.29500193972703898 -7.3734047241319408e-07 4.8522512129559552e-06 -7.3734047241319408e-07 -0.081987766275485499 1.5632103508610566e-06 4.8522512129559552e-06 1.5632103508610566e-06 -0.70499288986354458 0.2950022433634199 2.5045952065720872e-07 -6.4762467368306709e-06 2.5045952065720872e-07 -0.081990585252089493 1.6769700961205558e-07 -6.4762467368306709e-06 1.6769700961205558e-07 -0.70499958421628328 0.29500157947118405 -1.1509575746906047e-06 4.6891785383251783e-06 -1.1509575746906047e-06 -0.081989277727924276 1.592908577541241e-06 4.6891785383251783e-06 1.592908577541241e-06 -0.70499279098688294 0.29500078000865171 -7.6792262087861392e-07 3.0556506038571828e-06 -7.6792262087861392e-07 -0.0819890744881379 4.6654656174416537e-06 3.0556506038571828e-06 4.6654656174416537e-06 -0.70499777405331099 0.29500192563049854 7.7923396507047182e-07 -4.9676606407286612e-06 7.7923396507047182e-07 -0.081988427181023088 2.0774903407107302e-06 -4.9676606407286612e-06 2.0774903407107302e-06 -0.70500242014010028 0.29500326268135713 4.9658541436407389e-07 -5.5938718259600599e-06 4.9658541436407389e-07 -0.081987934078672886 2.40248092675468e-06 -5.5938718259600599e-06 2.40248092675468e-06 -0.70499600994285883 0.29500086837022366 7.7869984780719533e-07 2.0666566414861975e-06 7.7869984780719533e-07 -0.081989353725903782 2.8417624311841139e-06 2.0666566414861975e-06 2.8417624311841139e-06 -0.70500096901565279 0.29500226746647984 -3.6172526409276834e-07 4.230596671872533e-07 -3.6172526409276834e-07 -0.081988058419904808 1.7666009053396436e-06 4.230596671872533e-07 1.7666009053396436e-06 -0.70499859643487639 0.29500157242478969 1.4400302361783878e-07 1.0861308814003046e-06 1.4400302361783878e-07 -0.081989955948731541 2.701193399859414e-06 1.0861308814003046e-06 2.701193399859414e-06 -0.70499717398367689 0.29500037211058416 1.5446955209160206e-07 1.7704743764945796e-06 1.5446955209160206e-07 -0.081990991753184708 2.654387899779509e-06 1.7704743764945796e-06 2.654387899779509e-06 -0.70500119675139872 0.294998597535989 1.0456890896297797e-06 2.0029797599685484e-07 1.0456890896297797e-06 -0.081990356855398516 1.2751526854426487e-06 2.0029797599685484e-07 1.2751526854426487e-06 -0.7050010031031092 0.29500088051139783 5.6298930972164096e-08 -5.4261199256000481e-07 5.6298930972164096e-08 -0.081990243327214524 -1.0372188403301452e-08 -5.4261199256000481e-07 -1.0372188403301452e-08 -0.70499724932436225 0.2950011454166509 -3.2321763339109083e-07 -3.5277693311019931e-07 -3.2321763339109083e-07 -0.081988542922502877 1.8507484286448689e-06 -3.5277693311019931e-07 1.8507484286448689e-06 -0.70499998383731699 0.29499945944027045 1.1910838333027813e-07 -1.0270255608318957e-06 1.1910838333027813e-07 -0.08199076480092593 1.6735132877254699e-06 -1.0270255608318957e-06 1.6735132877254699e-06 -0.70499882903822297 0.29500267944385344 1.3753459931383187e-07 7.8406452830304119e-07 1.3753459931383187e-07 -0.081988953547704302 1.7614001446286665e-07 7.8406452830304119e-07 1.7614001446286665e-07 -0.70499264088069458 0.29499964722316757 8.9408990389217615e-08 8.6140897069542088e-07 8.9408990389217615e-08 -0.081989420893056331 7.9035144728845097e-07 8.6140897069542088e-07 7.9035144728845097e-07 -0.70500009192165225 0.29500033590517372 -4.4947781991837271e-07 -9.2781179891754384e-09 -4.4947781991837271e-07 -0.081990043707474175 1.2421229220738184e-06 -9.2781179891754384e-09 1.2421229220738184e-06 -0.70499765550080784 0.29499974632661563 1.2487071679927732e-07 3.0488085600577364e-07 1.2487071679927732e-07 -0.081990820747125048 -1.3406142567243262e-07 3.0488085600577364e-07 -1.3406142567243262e-07 -0.70499897121777488 0.29500030566695556 1.642600287196995e-07 3.1309475523322305e-07 1.642600287196995e-07 -0.081988744975963479 4.1255529464878649e-07 3.1309475523322305e-07 4.1255529464878649e-07 -0.70499825037609165 0.2950001569523284 2.680600054346144e-07 3.8092576654102928e-07 2.680600054346144e-07 -0.081988986869625607 9.7949643174111145e-08 3.8092576654102928e-07 9.7949643174111145e-08 -0.70499955520624569 0.29500022035761297 9.3433443291911382e-08 4.4618432060161695e-08 9.3433443291911382e-08 -0.081988789727102329 1.3449331367626494e-06 4.4618432060161695e-08 1.3449331367626494e-06 -0.70499989595489554 0.29500046239525562 2.520797517929965e-07 2.5870411429762541e-07 2.520797517929965e-07 -0.081988805790105757 4.6645239315523668e-07 2.5870411429762541e-07 4.6645239315523668e-07 -0.70499827897741141 0.29500015370985144 1.7476682774380133e-06 -9.3551976373951184e-07 1.7476682774380133e-06 -0.081989587062721025 9.5864936405787304e-08 -9.3551976373951184e-07 9.5864936405787304e-08 -0.70500030745007014 0.29500069303932269 -4.5356264300860405e-07 -6.3807885625211114e-07 -4.5356264300860405e-07 -0.081990355350828992 3.9297429202389544e-07 -6.3807885625211114e-07 3.9297429202389544e-07 -0.70500043961821324 0.29499960307710132 -4.2170690159833652e-07 5.9471986113557307e-08 -4.2170690159833652e-07 -0.081990263010496375 4.6270330500419732e-07 5.9471986113557307e-08 4.6270330500419732e-07 -0.7050011193384067 0.29500018077952928 -7.5181339919597309e-08 2.7031027938217989e-07 -7.5181339919597309e-08 -0.081988103279691971 1.1735707304838527e-06 2.7031027938217989e-07 1.1735707304838527e-06 -0.70500078114346021 0.29500083194841875 -2.4711051832946982e-06 2.7293135612671549e-07 -2.4711051832946982e-06 -0.081984280056654923 -2.0547426538009006e-08 2.7293135612671549e-07 -2.0547426538009006e-08 -0.70499961514234011 0.29500153364691883 -2.580105449837419e-06 -3.4887235839109465e-07 -2.580105449837419e-06 -0.081984631499473881 3.9529873147037264e-07 -3.4887235839109465e-07 3.9529873147037264e-07 -0.70499879804502408 0.29500077741634945 -5.3400547674713161e-07 -6.781689741996999e-07 -5.3400547674713161e-07 -0.08198998322037121 6.5953704098120625e-07 -6.781689741996999e-07 6.5953704098120625e-07 -0.70500000790577322 0.29500036036182864 1.5291268555536733e-06 -9.7978302471268819e-07 1.5291268555536733e-06 -0.081988852465704545 5.5675607746330513e-07 -9.7978302471268819e-07 5.5675607746330513e-07 -0.70499985415601218 0.29500145378330883 -1.7007007697594534e-06 -5.8076285558428253e-08 -1.7007007697594534e-06 -0.081987032000402305 2.3871564489574837e-06 -5.8076285558428253e-08 2.3871564489574837e-06 -0.70499992248368715 0.29499974381256866 -4.7470584983425654e-07 7.3564470981501984e-07 -4.7470584983425654e-07 -0.08199120255904413 -4.6865460451295249e-07 7.3564470981501984e-07 -4.6865460451295249e-07 -0.70500429684505739 0.29499998866453986 -1.6966639162696057e-06 9.9268175013378368e-08 -1.6966639162696057e-06 -0.081992631885534573 1.3215372208497111e-06 9.9268175013378368e-08 1.3215372208497111e-06 -0.70500238766082224 0.29499877549314718 -6.1894094352928303e-07 1.959621415404078e-06 -6.1894094352928303e-07 -0.081985175503183044 -1.557564470920391e-05 1.959621415404078e-06 -1.557564470920391e-05 -0.70499313422450882 0.29500253630323608 -3.0938975938538823e-06 1.0483831252017239e-06 -3.0938975938538823e-06 -0.081987441035806546 -3.2382711463441183e-06 1.0483831252017239e-06 -3.2382711463441183e-06 -0.70499529408603923 0.29499814450954309 -1.4272178968855028e-06 5.2344088223577057e-06 -1.4272178968855028e-06 -0.081993696218602169 -8.3559913947595099e-06 5.2344088223577057e-06 -8.3559913947595099e-06 -0.70500658796083515 0.29499947418004602 -1.0730195444054885e-06 7.6111673432297635e-06 -1.0730195444054885e-06 -0.081990185249155995 -4.8885834021574531e-06 7.6111673432297635e-06 -4.8885834021574531e-06 -0.7049990318710524 0.29500025681946557 6.2087384008520075e-08 7.8816206400267319e-07 6.2087384008520075e-08 -0.081990630389234584 1.7210241917663127e-06 7.8816206400267319e-07 1.7210241917663127e-06 -0.70500483128029245 0.2949971292110023 -1.3601568901328082e-06 3.859754683826965e-06 -1.3601568901328082e-06 -0.08199304886307901 5.7471643444263846e-06 3.859754683826965e-06 5.7471643444263846e-06 -0.70500937294694876 0.29499523396643873 -7.1780599948781007e-07 7.9506091948955415e-07 -7.1780599948781007e-07 -0.081999591475788974 -2.4242864506696105e-06 7.9506091948955415e-07 -2.4242864506696105e-06 -0.70501994309003302 0.29499908152890703 -8.2368665791978507e-07 5.921544271592083e-07 -8.2368665791978507e-07 -0.081990939198011439 8.9871840464050834e-07 5.921544271592083e-07 8.9871840464050834e-07 -0.70500439841703311 0.29499797133925099 -4.2568711464168469e-07 3.4029056574791383e-06 -4.2568711464168469e-07 -0.081993165870600293 6.558762675086538e-06 3.4029056574791383e-06 6.558762675086538e-06 -0.70501164412603723 0.29500056461460206 -6.4291951711858862e-07 -7.9239900313554656e-07 -6.4291951711858862e-07 -0.081990960052702705 8.858985294513122e-07 -7.9239900313554656e-07 8.858985294513122e-07 -0.70500330990329374 0.29500139816408855 -2.8412145118415126e-07 4.3306343788795942e-08 -2.8412145118415126e-07 -0.081989464708847465 3.2859525646578014e-06 4.3306343788795942e-08 3.2859525646578014e-06 -0.70500153830872325 0.29499863529449583 9.7772019776993015e-07 -9.4290863943830017e-06 9.7772019776993015e-07 -0.081997204336902663 -4.4249551948705168e-06 -9.4290863943830017e-06 -4.4249551948705168e-06 -0.70501462755865851 0.29500159794206632 1.0133682186090887e-06 -7.3451314560943298e-06 1.0133682186090887e-06 -0.081990884055532176 5.4360914912224386e-06 -7.3451314560943298e-06 5.4360914912224386e-06 -0.70500516632181776 0.29500181010841003 -4.7477522667686171e-07 -8.2261277338178031e-06 -4.7477522667686171e-07 -0.081987310308258732 -1.1196355694693249e-05 -8.2261277338178031e-06 -1.1196355694693249e-05 -0.70500261997884572 0.29500135220619172 1.0517860174326537e-06 -7.2465053241321797e-07 1.0517860174326537e-06 -0.081982582900227308 -5.6131513460344618e-06 -7.2465053241321797e-07 -5.6131513460344618e-06 -0.70499477818472955 0.29499947306644064 2.673403870130623e-06 -2.7451478321893763e-06 2.673403870130623e-06 -0.081992631693737147 -4.0054674335654461e-07 -2.7451478321893763e-06 -4.0054674335654461e-07 -0.70500135089575011 0.29499959237529538 2.1628208230486431e-06 -2.6354737460432265e-06 2.1628208230486431e-06 -0.081991797940848515 1.7266422523976033e-06 -2.6354737460432265e-06 1.7266422523976033e-06 -0.70500130971704034 0.29500043769078632 -1.5333497849898981e-06 -1.2201279323831304e-06 -1.5333497849898981e-06 -0.081993370732607818 2.552857922777374e-06 -1.2201279323831304e-06 2.552857922777374e-06 -0.70500198741768871 0.29499820717601932 4.7739155001576236e-07 -1.0610394429177994e-06 4.7739155001576236e-07 -0.08199085094456493 -2.3446156977302568e-06 -1.0610394429177994e-06 -2.3446156977302568e-06 -0.705006503526596 0.29499981929945929 2.6614300938254097e-06 2.2370895891299369e-07 2.6614300938254097e-06 -0.081991967038008012 1.8633860749961428e-06 2.2370895891299369e-07 1.8633860749961428e-06 -0.70499531891814593 0.29500048759899594 5.9365816051669791e-07 1.5960703492190476e-07 5.9365816051669791e-07 -0.081988531678599916 -3.2125291257734112e-06 1.5960703492190476e-07 -3.2125291257734112e-06 -0.7049966025402028 0.29500733347390096 6.6546833811268751e-07 -4.0392608130660767e-06 6.6546833811268751e-07 -0.08198301798580912 -5.7338258843901115e-06 -4.0392608130660767e-06 -5.7338258843901115e-06 -0.70499076321965737 0.29499947405657245 -1.6609992812389841e-08 8.7504918235697948e-07 -1.6609992812389841e-08 -0.081990215931445926 -2.1901683474045974e-06 8.7504918235697948e-07 -2.1901683474045974e-06 -0.7049984969318579 0.2949991916108532 1.6002185317505177e-07 1.7411358492749232e-06 1.6002185317505177e-07 -0.081987691252049993 -9.1526272291449602e-06 1.7411358492749232e-06 -9.1526272291449602e-06 -0.7050020081663676 0.29500411632472229 -1.5335604828417644e-06 6.7831553176822632e-07 -1.5335604828417644e-06 -0.081981615522655135 -1.1018891546437216e-05 6.7831553176822632e-07 -1.1018891546437216e-05 -0.70498518258045129 0.29500465215469274 -5.6695634782278321e-07 1.663917625453488e-06 -5.6695634782278321e-07 -0.08197957173923473 -9.8914017322394653e-06 1.663917625453488e-06 -9.8914017322394653e-06 -0.70498357699743219 0.29499940369837785 -1.2425414754524877e-06 -2.9466736600758381e-07 -1.2425414754524877e-06 -0.081993352289925214 -5.4440114621301383e-06 -2.9466736600758381e-07 -5.4440114621301383e-06 -0.70499614794501442 0.29499894104259117 -8.785739189624993e-07 -1.6764804119245857e-07 -8.785739189624993e-07 -0.081992830339178036 -3.3885475671513454e-06 -1.6764804119245857e-07 -3.3885475671513454e-06 -0.7049994346232864 0.29500029343313589 -6.1180841143792951e-08 4.2461562144158194e-07 -6.1180841143792951e-08 -0.081987483028902908 -6.3510298239921603e-07 4.2461562144158194e-07 -6.3510298239921603e-07 -0.7049994426063384 0.29499836201779955 8.1937192497228832e-07 -3.711884702939372e-07 8.1937192497228832e-07 -0.081988387151580869 3.1191356109072643e-08 -3.711884702939372e-07 3.1191356109072643e-08 -0.70500056334219519 0.29499946539839506 -4.5442987619585583e-06 6.4618772821489756e-07 -4.5442987619585583e-06 -0.081989347350915953 4.5149759653195787e-07 6.4618772821489756e-07 4.5149759653195787e-07 -0.70499726015207997 0.29499972745429021 -3.5901734166624434e-07 6.038626925719548e-07 -3.5901734166624434e-07 -0.081992877484278082 -4.8163359629149749e-06 6.038626925719548e-07 -4.8163359629149749e-06 -0.70499978265504248 0.2949988918925685 3.7122648179197047e-07 -1.467425385370813e-06 3.7122648179197047e-07 -0.081987969512971243 -1.0720263380475936e-07 -1.467425385370813e-06 -1.0720263380475936e-07 -0.70499678082600237 0.29499995795025113 1.5911740884005942e-06 7.9774818684263948e-07 1.5911740884005942e-06 -0.081995232123064671 -1.4770685378834303e-06 7.9774818684263948e-07 -1.4770685378834303e-06 -0.70500201674433749 0.29499932441113774 -3.8588981590926885e-06 3.7339649000545094e-07 -3.8588981590926885e-06 -0.081990673386444057 1.9162691546614763e-06 3.7339649000545094e-07 1.9162691546614763e-06 -0.70500009606203384 0.29500059219644265 1.3123024135128567e-06 -1.5915465887417213e-06 1.3123024135128567e-06 -0.08198949658312453 -1.5399513736413795e-07 -1.5915465887417213e-06 -1.5399513736413795e-07 -0.70499673538195495 0.29500094173811431 1.293305736620065e-06 -5.1000777512300033e-07 1.293305736620065e-06 -0.081988550850856101 2.1035689357074006e-07 -5.1000777512300033e-07 2.1035689357074006e-07 -0.70499856830582863 0.29499985980693799 -3.3424552717692853e-06 3.5534476094944978e-07 -3.3424552717692853e-06 -0.081987741119629115 3.2640529166183541e-06 3.5534476094944978e-07 3.2640529166183541e-06 -0.70499874142586461 0.29499958960403461 -3.1636690170337801e-07 5.8940381364447347e-07 -3.1636690170337801e-07 -0.081989543336037779 4.9252474787486733e-07 5.8940381364447347e-07 4.9252474787486733e-07 -0.70500064972867349 0.29499970341290199 -1.990087091646936e-07 8.4608730212265559e-07 -1.990087091646936e-07 -0.081990283489270288 1.1472453431693452e-07 8.4608730212265559e-07 1.1472453431693452e-07 -0.70500075778964888 0.29499975827618197 -2.8291184144300103e-07 7.8812666005900756e-07 -2.8291184144300103e-07 -0.081989926727088602 1.8841693727456033e-07 7.8812666005900756e-07 1.8841693727456033e-07 -0.7050009350876244 0.29499892860906118 -3.9193606740873112e-07 1.1642869365835473e-06 -3.9193606740873112e-07 -0.081989885313593608 4.9339225777211837e-07 1.1642869365835473e-06 4.9339225777211837e-07 -0.70499806576633628 0.29500065662372765 -3.2958244969971418e-07 7.3807407630077648e-07 -3.2958244969971418e-07 -0.081988033343252636 -5.0123283990011203e-07 7.3807407630077648e-07 -5.0123283990011203e-07 -0.70499143283334487 0.29499969341168536 -3.6778174764095328e-07 1.263976886227296e-05 -3.6778174764095328e-07 -0.081988267855697156 3.8866550557838152e-06 1.263976886227296e-05 3.8866550557838152e-06 -0.70499856917617709 0.29499963842351568 3.9680830908829866e-07 -1.7040714651028743e-06 3.9680830908829866e-07 -0.081989548215101113 1.3917180023415021e-06 -1.7040714651028743e-06 1.3917180023415021e-06 -0.70499273062018875 0.29499900138967117 -7.7279274608881668e-08 1.0935626360092376e-05 -7.7279274608881668e-08 -0.081990081178322127 6.608596947121903e-06 1.0935626360092376e-05 6.608596947121903e-06 -0.70500066920001458 0.29499998905076552 1.2874794231354621e-06 -3.3643179386810829e-07 1.2874794231354621e-06 -0.081987047228564564 2.8234250467260025e-06 -3.3643179386810829e-07 2.8234250467260025e-06 -0.70499405614000488 0.29499947204049642 6.6801994739511275e-07 2.8080107493111406e-06 6.6801994739511275e-07 -0.081988312115384335 -7.4492455920394107e-06 2.8080107493111406e-06 -7.4492455920394107e-06 -0.70500532842431007 0.29499825052437156 9.0027016158715832e-07 -1.8118668037581109e-06 9.0027016158715832e-07 -0.081991360020220935 -3.2167351235456998e-07 -1.8118668037581109e-06 -3.2167351235456998e-07 -0.70501053248058421 0.2950027710615577 5.0521065379949539e-07 -2.999397553097067e-06 5.0521065379949539e-07 -0.081987457420019755 -1.3953946300973677e-06 -2.999397553097067e-06 -1.3953946300973677e-06 -0.704997100154094 0.2950024267891872 -5.9899305633659937e-07 7.854104424576421e-06 -5.9899305633659937e-07 -0.08198822458292912 9.8713922732521916e-06 7.854104424576421e-06 9.8713922732521916e-06 -0.70499116645364013 0.29499535612186834 -8.3872215685960749e-08 8.6061110890212067e-06 -8.3872215685960749e-08 -0.081989917262017514 5.8464601490060275e-06 8.6061110890212067e-06 5.8464601490060275e-06 -0.70501388873697657 0.29500022128232861 -4.9838966499758972e-07 5.486224535222739e-07 -4.9838966499758972e-07 -0.081989733780452878 1.2761325848820171e-06 5.486224535222739e-07 1.2761325848820171e-06 -0.70500704195236374 0.29499582769891169 4.022743551873651e-07 -2.2204582105639359e-07 4.022743551873651e-07 -0.081991969134064965 -3.2014520193190954e-07 -2.2204582105639359e-07 -3.2014520193190954e-07 -0.70501206373371228 0.29499571134435837 -6.6098900905890876e-07 7.4170763150151096e-06 -6.6098900905890876e-07 -0.081990411784937406 3.5418355749617697e-06 7.4170763150151096e-06 3.5418355749617697e-06 -0.70499478653151559 0.294998231414492 1.4242920958034386e-07 2.9052241953264613e-06 1.4242920958034386e-07 -0.081990816456938259 -5.2674966927179767e-07 2.9052241953264613e-06 -5.2674966927179767e-07 -0.70500882164552525 0.29499942486600517 2.7078451259130957e-07 1.1286844966984511e-06 2.7078451259130957e-07 -0.08199246357557731 3.2051159563895038e-07 1.1286844966984511e-06 3.2051159563895038e-07 -0.70500811947291819 0.29499859049294441 2.1777912695616016e-07 9.4196942707069908e-07 2.1777912695616016e-07 -0.081989861387708612 -2.8533185060519717e-06 9.4196942707069908e-07 -2.8533185060519717e-06 -0.70500686480257502 0.29499923254444155 -1.2201328448811405e-06 -9.5723951208796108e-08 -1.2201328448811405e-06 -0.08198973529275369 7.2101728101381412e-06 -9.5723951208796108e-08 7.2101728101381412e-06 -0.70499429994025942 0.2949976560673192 7.8609423562279742e-07 2.9860353007726825e-06 7.8609423562279742e-07 -0.081991839931404076 -6.2927746404817242e-06 2.9860353007726825e-06 -6.2927746404817242e-06 -0.70500820719330148 0.29499888228290128 2.4758671500573923e-07 -1.3098118915628286e-06 2.4758671500573923e-07 -0.081987497748734262 -8.080104343680215e-06 -1.3098118915628286e-06 -8.080104343680215e-06 -0.70500072970304761 0.29499945361775753 2.6103652954484078e-07 1.4599386121443938e-06 2.6103652954484078e-07 -0.081992529038249579 -8.4433919033375785e-06 1.4599386121443938e-06 -8.4433919033375785e-06 -0.704998571712661 0.29499510710835564 5.9720379359417717e-07 7.9644356907912186e-06 5.9720379359417717e-07 -0.081994632722806299 2.4035653779368576e-06 7.9644356907912186e-06 2.4035653779368576e-06 -0.70501756493679646 0.2950012509891769 5.2799613542131961e-07 4.4654214560388428e-07 5.2799613542131961e-07 -0.081988543494006416 -7.0570461982444321e-07 4.4654214560388428e-07 -7.0570461982444321e-07 -0.70499867346577849 0.29500045484030746 1.133985298683872e-07 8.3157908769247724e-07 1.133985298683872e-07 -0.081989753623612993 -3.1327120564306199e-08 8.3157908769247724e-07 -3.1327120564306199e-08 -0.70500110591957554 0.29500064296729733 3.4678907375031287e-07 1.065819031057999e-06 3.4678907375031287e-07 -0.081989494170553318 2.4202654502758492e-07 1.065819031057999e-06 2.4202654502758492e-07 -0.70500045440919423 0.2950004108848045 2.7656879476387116e-07 5.5407947138763625e-07 2.7656879476387116e-07 -0.081989206229964001 6.6640633050729647e-07 5.5407947138763625e-07 6.6640633050729647e-07 -0.70500057019315154 0.29499975930609124 1.8961082071045452e-07 6.7712745632775295e-08 1.8961082071045452e-07 -0.081989011544117474 -8.4424960578033392e-08 6.7712745632775295e-08 -8.4424960578033392e-08 -0.7050022134319518 0.29500150435386124 -4.1134190961573707e-07 7.6628942882739359e-07 -4.1134190961573707e-07 -0.081988604590484182 6.1923869326685477e-07 7.6628942882739359e-07 6.1923869326685477e-07 -0.70500152527917082 0.2950011633294698 7.4447433176540966e-07 6.5250336574521062e-07 7.4447433176540966e-07 -0.081987525777077866 -8.3358598967908648e-07 6.5250336574521062e-07 -8.3358598967908648e-07 -0.705000155085302 0.29500002860036451 -2.7355113038484633e-08 3.4566013941417228e-07 -2.7355113038484633e-08 -0.081990007452500568 -1.1719416947997274e-07 3.4566013941417228e-07 -1.1719416947997274e-07 -0.70500213190902361 0.29499919169306987 -2.1783341846971677e-07 8.0410871733382905e-07 -2.1783341846971677e-07 -0.081989762727980642 -1.4522044003498213e-06 8.0410871733382905e-07 -1.4522044003498213e-06 -0.70500338057328238 0.29500002267193498 3.516510381354914e-07 2.3854885600194109e-07 3.516510381354914e-07 -0.081988808465516178 -1.306700902412028e-06 2.3854885600194109e-07 -1.306700902412028e-06 -0.70500075283060093 0.29500140212866816 4.2937973100092827e-07 3.3646321806468649e-07 4.2937973100092827e-07 -0.081985814544513647 7.1098815596082332e-07 3.3646321806468649e-07 7.1098815596082332e-07 -0.70499685383818045 0.29499973336321661 1.1169452570779757e-06 1.071494126710093e-06 1.1169452570779757e-06 -0.081989017376397799 9.2837435742426644e-08 1.071494126710093e-06 9.2837435742426644e-08 -0.70500273287763604 0.2949991559116536 4.0127823572351137e-06 -2.4770693535583477e-07 4.0127823572351137e-06 -0.081993729258394488 -1.4310817323670566e-06 -2.4770693535583477e-07 -1.4310817323670566e-06 -0.7050021755077488 0.2949999605490421 9.9839275512143818e-07 9.5851889429787729e-07 9.9839275512143818e-07 -0.08198862333363971 -1.4959893652952139e-06 9.5851889429787729e-07 -1.4959893652952139e-06 -0.70500185989243391 0.29499979018285077 -1.6603894611932768e-07 8.3976550102615732e-08 -1.6603894611932768e-07 -0.081989150450412634 -1.7329355943632163e-06 8.3976550102615732e-08 -1.7329355943632163e-06 -0.70500110207310096 0.29500065104188156 2.2113014019240162e-06 3.4069336241060455e-07 2.2113014019240162e-06 -0.0819893905494678 8.8661434860526356e-09 3.4069336241060455e-07 8.8661434860526356e-09 -0.70499774289045103 0.29500064142430865 3.9271978281203892e-06 -2.4594496716989767e-07 3.9271978281203892e-06 -0.081989628810144322 9.453166962547499e-07 -2.4594496716989767e-07 9.453166962547499e-07 -0.7049986142724759 0.2950015730610317 1.1769468458716614e-06 1.1733725867602018e-06 1.1769468458716614e-06 -0.08198507606045255 8.507600778306923e-07 1.1733725867602018e-06 8.507600778306923e-07 -0.70499744261497366 0.29500102705410702 4.155811396539933e-06 -5.9237620320118367e-07 4.155811396539933e-06 -0.081990873557177407 -3.5865435693560599e-06 -5.9237620320118367e-07 -3.5865435693560599e-06 -0.70499572347144579 0.29499948756485433 -1.1313071317482861e-08 -6.6071469955256146e-07 -1.1313071317482861e-08 -0.081990673202129827 -1.0783201629949168e-06 -6.6071469955256146e-07 -1.0783201629949168e-06 -0.70499530972952962 0.29500167926203646 -5.3963819146915126e-07 1.6922442240829838e-06 -5.3963819146915126e-07 -0.081989257791869594 -2.6552922659239808e-06 1.6922442240829838e-06 -2.6552922659239808e-06 -0.70499184598513542 0.29500072051098658 -6.008048677921539e-07 1.0575643774324295e-06 -6.008048677921539e-07 -0.081990127175412958 -2.8103478906804646e-06 1.0575643774324295e-06 -2.8103478906804646e-06 -0.70499521839150625 0.29499825266369895 1.4611665088409436e-09 -8.6129329151477668e-07 1.4611665088409436e-09 -0.081992823156157107 -3.5134220079946488e-06 -8.6129329151477668e-07 -3.5134220079946488e-06 -0.70499942229607793 0.29499992291442884 3.3030177885875708e-07 8.6128883400315992e-07 3.3030177885875708e-07 -0.081992497762325103 -8.1705518259200804e-06 8.6128883400315992e-07 -8.1705518259200804e-06 -0.70499756847865758 0.29500354388562233 6.5148421005658999e-07 -1.6466382089519449e-06 6.5148421005658999e-07 -0.081984188802863303 -1.1375565720020165e-05 -1.6466382089519449e-06 -1.1375565720020165e-05 -0.7049818170739629 0.29500631834895313 -1.6208275955310829e-06 -1.7189159088454027e-06 -1.6208275955310829e-06 -0.081981130198829674 -1.204087888221121e-05 -1.7189159088454027e-06 -1.204087888221121e-05 -0.70498135151952201 0.29499960023962929 -1.4876724029896197e-06 -1.2714156998974734e-06 -1.4876724029896197e-06 -0.081990000497858539 -8.0925791205332529e-06 -1.2714156998974734e-06 -8.0925791205332529e-06 -0.70500108561017172 0.29500029985596432 -2.3381656078324227e-06 -7.7331959589393984e-07 -2.3381656078324227e-06 -0.08198786797569893 -3.0827853678416783e-06 -7.7331959589393984e-07 -3.0827853678416783e-06 -0.70499814973366226 0.29500643035748991 -6.9919489058259255e-07 4.6276940977200363e-06 -6.9919489058259255e-07 -0.081982870072336816 -5.6726765245792459e-06 4.6276940977200363e-06 -5.6726765245792459e-06 -0.70499143730659863 0.2950055396743656 -1.5364833768554824e-06 -2.3260951757245109e-06 -1.5364833768554824e-06 -0.081980810078103192 -9.9744056342854938e-06 -2.3260951757245109e-06 -9.9744056342854938e-06 -0.7049801216705307 0.29500259188984179 8.2808255356434617e-07 2.0319698080251136e-06 8.2808255356434617e-07 -0.081987146493315594 -1.7885982500076558e-06 2.0319698080251136e-06 -1.7885982500076558e-06 -0.7049908823194021 0.29500247151523407 -2.4241611252462671e-06 4.465440558765188e-06 -2.4241611252462671e-06 -0.08199302042371176 3.1209496769157852e-06 4.465440558765188e-06 3.1209496769157852e-06 -0.70499937442141125 0.29499802800101294 -3.2019121139724116e-06 4.8220533510751062e-06 -3.2019121139724116e-06 -0.081999770636822997 -4.341492349485554e-06 4.8220533510751062e-06 -4.341492349485554e-06 -0.70501722498276498 0.29500216217308772 1.2351892728859351e-06 -1.3089628705664769e-06 1.2351892728859351e-06 -0.081994863765538328 4.5224432885515586e-06 -1.3089628705664769e-06 4.5224432885515586e-06 -0.70500197416001686 0.29500302831133479 -5.5390374397019961e-07 3.1596797831490164e-06 -5.5390374397019961e-07 -0.081991315506843659 -1.3541388389395892e-05 3.1596797831490164e-06 -1.3541388389395892e-05 -0.70499558026946318 0.29500142972422899 3.1177506349560286e-06 1.032009068351782e-05 3.1177506349560286e-06 -0.081985083751560078 -7.7692711250363314e-06 1.032009068351782e-05 -7.7692711250363314e-06 -0.70498259533043062 0.29499610371204965 1.8519500390032223e-06 1.0837221377113782e-05 1.8519500390032223e-06 -0.081993149115591024 3.8876814697838778e-06 1.0837221377113782e-05 3.8876814697838778e-06 -0.70500676964408626 0.29499693844856589 2.7849335207376808e-07 1.1102215057665066e-05 2.7849335207376808e-07 -0.081992397019564886 1.460434699368518e-06 1.1102215057665066e-05 1.460434699368518e-06 -0.70500863863434304 0.29500198773743452 6.0671444802707408e-07 -2.7458661546742036e-06 6.0671444802707408e-07 -0.081989591659874295 1.1109737109438189e-06 -2.7458661546742036e-06 1.1109737109438189e-06 -0.70499958470718338 0.29500284094171336 -2.638980007698823e-07 -2.3014276597788097e-06 -2.638980007698823e-07 -0.081987553528434676 -2.7142103201094336e-07 -2.3014276597788097e-06 -2.7142103201094336e-07 -0.70499989747531289 0.29499935990586701 2.2889174749087472e-06 -3.7724677902917225e-06 2.2889174749087472e-06 -0.0819936057907934 8.6460368478591398e-06 -3.7724677902917225e-06 8.6460368478591398e-06 -0.70500873800234698 0.29500352536532048 6.9907572807964974e-07 8.7529075887271546e-07 6.9907572807964974e-07 -0.081989512319806682 -1.7613972280727808e-08 8.7529075887271546e-07 -1.7613972280727808e-08 -0.70499966935136582 0.29499774947234836 4.6691331369980681e-07 -9.3007740117889703e-07 4.6691331369980681e-07 -0.082001592979955962 -2.9726821453857077e-06 -9.3007740117889703e-07 -2.9726821453857077e-06 -0.70501964833457653 0.29499586523875787 2.9016104017323381e-07 -6.6456368030031257e-06 2.9016104017323381e-07 -0.081994919872076938 3.7909634308765935e-06 -6.6456368030031257e-06 3.7909634308765935e-06 -0.70501560956512099 0.29499748777026924 7.4113623894034288e-07 -4.0831416681242918e-06 7.4113623894034288e-07 -0.081993666555564504 -1.0219809647035405e-05 -4.0831416681242918e-06 -1.0219809647035405e-05 -0.70500596422750239 0.29500095990234437 2.3631099243772196e-06 3.3575956682738633e-07 2.3631099243772196e-06 -0.081985285122503498 -3.3462579191456676e-06 3.3575956682738633e-07 -3.3462579191456676e-06 -0.70499198893934245 0.2949998862401419 -9.8808057029194975e-07 -6.9020325773560986e-06 -9.8808057029194975e-07 -0.081985908846253661 -4.7212990182696831e-06 -6.9020325773560986e-06 -4.7212990182696831e-06 -0.70499602716999099 0.294993890716158 2.5358654779896163e-06 -1.3439187892168856e-06 2.5358654779896163e-06 -0.081988172918540853 -1.7504378093342981e-05 -1.3439187892168856e-06 -1.7504378093342981e-05 -0.70499140268624294 0.29499990771918538 9.6036501321386415e-07 -1.3828085056455386e-06 9.6036501321386415e-07 -0.081993507163089674 4.7293813947302255e-06 -1.3828085056455386e-06 4.7293813947302255e-06 -0.70500212091736714 0.29499909023128079 -1.8064697682089876e-06 -2.4570451254701808e-06 -1.8064697682089876e-06 -0.081989158784245425 -2.0693674265825912e-07 -2.4570451254701808e-06 -2.0693674265825912e-07 -0.70500089557578394 0.29500176380310628 -2.1426804350306974e-06 -1.8478923646814138e-07 -2.1426804350306974e-06 -0.081990648771221836 -1.3367565786792657e-06 -1.8478923646814138e-07 -1.3367565786792657e-06 -0.70499778404793989 0.2950000218908555 -5.2474962759252406e-07 1.304420341463608e-06 -5.2474962759252406e-07 -0.081986847300197035 -1.2766710937583969e-06 1.304420341463608e-06 -1.2766710937583969e-06 -0.70500166442942913 0.29500061809548095 -3.5517622589601734e-07 -4.4706771146207913e-07 -3.5517622589601734e-07 -0.081986892408079826 -1.0093469367811192e-06 -4.4706771146207913e-07 -1.0093469367811192e-06 -0.70500215352554352 0.2950005092527353 -6.990305846834679e-07 -8.1967123166659661e-07 -6.990305846834679e-07 -0.081987685936302956 1.3934029192697039e-06 -8.1967123166659661e-07 1.3934029192697039e-06 -0.70500268139520084 0.29500071742560408 -1.8820622381361747e-06 5.9742042834987075e-07 -1.8820622381361747e-06 -0.081989931129889906 -2.3412766989583389e-06 5.9742042834987075e-07 -2.3412766989583389e-06 -0.70499983221637696 0.29500077370166672 -2.7009866358445757e-06 5.6038249784950978e-07 -2.7009866358445757e-06 -0.081988982648232234 -2.1404555990978125e-06 5.6038249784950978e-07 -2.1404555990978125e-06 -0.70499960488999702 0.29500128022713101 -1.5622439902540292e-06 5.3014964174202817e-07 -1.5622439902540292e-06 -0.081989416209645449 -2.4036676028460491e-06 5.3014964174202817e-07 -2.4036676028460491e-06 -0.70499960099306835 0.2950004448975766 -8.0845688919732794e-08 2.51931449202214e-07 -8.0845688919732794e-08 -0.081992016328274631 -3.978318524056057e-07 2.51931449202214e-07 -3.978318524056057e-07 -0.70500109589318205 0.294999915218563 -2.7622229619803841e-07 2.7883808084716577e-07 -2.7622229619803841e-07 -0.081992233974840484 -3.8590153716988596e-07 2.7883808084716577e-07 -3.8590153716988596e-07 -0.7050012475115196 0.29500054856539959 -5.1463935947477749e-07 1.7307098509888874e-07 -5.1463935947477749e-07 -0.081989660652831808 4.0304604542740208e-08 1.7307098509888874e-07 4.0304604542740208e-08 -0.70500074543791214 0.29499995007818436 4.2278484427466703e-08 -1.3042293192933041e-06 4.2278484427466703e-08 -0.081989758896009873 1.327130435342834e-06 -1.3042293192933041e-06 1.327130435342834e-06 -0.70500269402237448 0.29500069974626519 -5.287043253167101e-07 -7.0678111815936084e-07 -5.287043253167101e-07 -0.08198859885967455 6.5887146871723701e-07 -7.0678111815936084e-07 6.5887146871723701e-07 -0.70500025403227939 0.29500036821593978 -3.2309997486460426e-07 -3.228132744448331e-07 -3.2309997486460426e-07 -0.081988241246482796 7.0250740002997247e-08 -3.228132744448331e-07 7.0250740002997247e-08 -0.70500160754747854 0.29500020048018294 -4.3388684702627372e-07 -2.7568773142139236e-07 -4.3388684702627372e-07 -0.08198870052235413 2.033067737494676e-07 -2.7568773142139236e-07 2.033067737494676e-07 -0.70500176401990955 0.29500082207876555 -4.3699889220967667e-07 -7.2546578466781142e-07 -4.3699889220967667e-07 -0.081988193887732264 5.9342704961107273e-07 -7.2546578466781142e-07 5.9342704961107273e-07 -0.70500021018555237 0.29500051718314657 -2.7602283596603088e-07 -7.6601637762074848e-07 -2.7602283596603088e-07 -0.081988501050914792 -8.8479250259787534e-08 -7.6601637762074848e-07 -8.8479250259787534e-08 -0.70500186163979517 0.29499993003992953 -4.1706962796378266e-07 -4.3263948553556864e-07 -4.1706962796378266e-07 -0.08198908915778097 3.8217249503577633e-07 -4.3263948553556864e-07 3.8217249503577633e-07 -0.70500369617584657 0.29499990454674335 -3.1463287118292316e-07 -4.3656494522203992e-07 -3.1463287118292316e-07 -0.081988803377647412 2.6682241999198553e-07 -4.3656494522203992e-07 2.6682241999198553e-07 -0.7050042844297213 0.29500019639092279 -1.5186181168212695e-07 -6.7984643659091404e-07 -1.5186181168212695e-07 -0.08198901520338997 4.8896380400176298e-07 -6.7984643659091404e-07 4.8896380400176298e-07 -0.70500000034074106 0.29500043740898962 -5.5306977433602124e-08 -5.6670602122110836e-07 -5.5306977433602124e-08 -0.081988926167437665 1.2281351929877005e-06 -5.6670602122110836e-07 1.2281351929877005e-06 -0.70499898035380293 0.29500013111298706 3.685335154109947e-07 -9.2762448444805301e-07 3.685335154109947e-07 -0.081989895308349159 1.138985518928104e-06 -9.2762448444805301e-07 1.138985518928104e-06 -0.70500132432565688 0.2949996730127038 -6.2038824275855478e-07 -5.3348386269691517e-07 -6.2038824275855478e-07 -0.081989516987242217 -3.9297981480057587e-08 -5.3348386269691517e-07 -3.9297981480057587e-08 -0.70500785654204001 0.29500100120524742 -5.9483480965807998e-07 -1.3037548584338143e-06 -5.9483480965807998e-07 -0.081987567947311241 1.0322327811396192e-06 -1.3037548584338143e-06 1.0322327811396192e-06 -0.70500034300541037 0.2950001082873564 5.597347253843325e-07 -2.4851620786803252e-06 5.597347253843325e-07 -0.081988956983921113 2.7738485607123331e-06 -2.4851620786803252e-06 2.7738485607123331e-06 -0.70499786430766853 0.29499552066279822 -8.1445520766987625e-07 -6.274615398954575e-06 -8.1445520766987625e-07 -0.081991117176085399 4.8721718926003632e-07 -6.274615398954575e-06 4.8721718926003632e-07 -0.70501214912332921 0.29499868762140746 -8.0180592240011611e-07 -3.5738876462132474e-06 -8.0180592240011611e-07 -0.081990949100683497 -1.618618417076334e-07 -3.5738876462132474e-06 -1.618618417076334e-07 -0.70501389701526207 0.29500079516439826 -7.7221146130424826e-07 -1.2988146973480497e-06 -7.7221146130424826e-07 -0.081988180907107189 9.6899062995703389e-07 -1.2988146973480497e-06 9.6899062995703389e-07 -0.70500041219566723 0.29499470100921976 1.5312742808226911e-06 -4.2572971846890552e-06 1.5312742808226911e-06 -0.081992372548635478 7.2175055404843124e-06 -4.2572971846890552e-06 7.2175055404843124e-06 -0.70500416852599557 0.29499817078586121 1.5520113222046549e-06 -2.2163857603119119e-06 1.5520113222046549e-06 -0.081992299124385576 2.5572417686921256e-06 -2.2163857603119119e-06 2.5572417686921256e-06 -0.70500287410566564 0.29499385666957223 1.3540285758835537e-06 -7.9136985780910008e-06 1.3540285758835537e-06 -0.081994129814837446 2.7585146022579717e-06 -7.9136985780910008e-06 2.7585146022579717e-06 -0.70500787763320327 0.29499732835699927 1.0320697956708751e-06 1.2159569486317265e-06 1.0320697956708751e-06 -0.081992594854420231 -9.0341549918638107e-06 1.2159569486317265e-06 -9.0341549918638107e-06 -0.70499792131790495 0.29499782538502289 2.2252881862681472e-06 -4.4521975658076576e-06 2.2252881862681472e-06 -0.081992468103241914 2.3419988819028036e-06 -4.4521975658076576e-06 2.3419988819028036e-06 -0.70499656902667951 0.29499997087589042 -8.2437780548834579e-07 -1.8397391550864255e-06 -8.2437780548834579e-07 -0.081990956145203492 -2.9385254153893661e-06 -1.8397391550864255e-06 -2.9385254153893661e-06 -0.70500551362379815 0.29499587440100289 1.4910952488560265e-06 -3.2434837478448374e-06 1.4910952488560265e-06 -0.081991759826588281 2.8054316175597478e-06 -3.2434837478448374e-06 2.8054316175597478e-06 -0.70499796553399596 0.29499755156559176 6.0826402766292231e-07 -2.2772463754705541e-06 6.0826402766292231e-07 -0.081989249189749633 1.1892938245328111e-06 -2.2772463754705541e-06 1.1892938245328111e-06 -0.70499541038071423 0.29499900788713773 6.1529350652132677e-07 -4.3585860773995779e-06 6.1529350652132677e-07 -0.081987952986071477 4.8541300565422074e-06 -4.3585860773995779e-06 4.8541300565422074e-06 -0.70498961692512285 0.29500160389137703 7.3749149613922235e-07 -7.7676397455817003e-07 7.3749149613922235e-07 -0.081992331056917001 -1.0963810362148163e-05 -7.7676397455817003e-07 -1.0963810362148163e-05 -0.70499559231920106 0.29499785656249028 4.1131095219407082e-07 -3.5508432749687626e-06 4.1131095219407082e-07 -0.081986191358001476 4.8324842867054241e-06 -3.5508432749687626e-06 4.8324842867054241e-06 -0.70499014941962523 0.29499822131014547 1.5810636449365966e-06 -1.3041375045708126e-06 1.5810636449365966e-06 -0.081990175256998518 5.9775602972989006e-07 -1.3041375045708126e-06 5.9775602972989006e-07 -0.7049833002620296 0.29500261409705386 1.4985132692830637e-06 1.0505252474521387e-07 1.4985132692830637e-06 -0.081989704034510835 3.3697430526502536e-06 1.0505252474521387e-07 3.3697430526502536e-06 -0.70499367895643295 0.29499643257791131 -1.1071863489672e-07 -3.7468926743896902e-06 -1.1071863489672e-07 -0.081988884929240086 5.2724128028551748e-06 -3.7468926743896902e-06 5.2724128028551748e-06 -0.70500302410963878 0.29500083149256029 -7.3608814188984305e-07 -9.1921773115455352e-07 -7.3608814188984305e-07 -0.081987276931914349 4.7485896377333359e-06 -9.1921773115455352e-07 4.7485896377333359e-06 -0.70500015693854468 0.295001627917717 2.8077826341877521e-07 -6.6895341652162266e-07 2.8077826341877521e-07 -0.081991110821707958 2.1601605230672435e-06 -6.6895341652162266e-07 2.1601605230672435e-06 -0.70499111280577043 0.29500006268999879 -5.3264970285770035e-08 -1.98248453842087e-06 -5.3264970285770035e-08 -0.081992218847960929 4.7258284707751841e-07 -1.98248453842087e-06 4.7258284707751841e-07 -0.7049953956896633 0.29499811569026541 -1.0332271610374815e-07 1.2599790527135613e-06 -1.0332271610374815e-07 -0.081984650082437632 -4.2041824928613875e-06 1.2599790527135613e-06 -4.2041824928613875e-06 -0.7049914384455952 0.29499800149005095 -2.7612279466362957e-06 -3.1019816445054788e-06 -2.7612279466362957e-06 -0.08199221108861629 -9.2239712063601492e-06 -3.1019816445054788e-06 -9.2239712063601492e-06 -0.70498250150383068 0.2949970538836022 -4.5376075044799429e-06 -5.5113882510143582e-06 -4.5376075044799429e-06 -0.081989986103430418 -2.1006247488686292e-06 -5.5113882510143582e-06 -2.1006247488686292e-06 -0.7049940961245228 0.29499921474476526 5.0837349031557238e-06 2.3599676097774136e-06 5.0837349031557238e-06 -0.081985258733027505 -1.3624364305075964e-06 2.3599676097774136e-06 -1.3624364305075964e-06 -0.70500176357807498 0.29500018493971325 1.6411126251832706e-06 5.3982531597199107e-06 1.6411126251832706e-06 -0.08199058174726423 -8.7311205553557795e-06 5.3982531597199107e-06 -8.7311205553557795e-06 -0.70498932826745242 0.29500025235299798 -8.6342990748819742e-07 -2.2821960726226997e-06 -8.6342990748819742e-07 -0.081989029878994368 -5.092711832799246e-06 -2.2821960726226997e-06 -5.092711832799246e-06 -0.70499840274273873 0.29500016117633054 -1.0744416601462563e-06 -1.9700790946930447e-06 -1.0744416601462563e-06 -0.081991128892921761 -4.2729251011966451e-06 -1.9700790946930447e-06 -4.2729251011966451e-06 -0.70500839873946564 0.29500226237500926 -8.682785316459674e-07 -3.7447067657847555e-07 -8.682785316459674e-07 -0.081992399818945447 -3.7485585033525393e-06 -3.7447067657847555e-07 -3.7485585033525393e-06 -0.70500367319154567 0.29499954695695108 1.9441525187822276e-07 -1.1674074127665524e-06 1.9441525187822276e-07 -0.081997799907734759 8.989647132251477e-07 -1.1674074127665524e-06 8.989647132251477e-07 -0.7050135280425387 0.29499587194539723 1.8821114473231846e-06 6.5816918910950595e-06 1.8821114473231846e-06 -0.081995105225353901 4.6988421344151821e-06 6.5816918910950595e-06 4.6988421344151821e-06 -0.70500666059843309 0.29499960379701756 -4.1079593078434214e-07 -9.8808792425852943e-07 -4.1079593078434214e-07 -0.081991354138747877 -3.4121195655045788e-06 -9.8808792425852943e-07 -3.4121195655045788e-06 -0.70500415409152772 0.29499859670921058 4.8633170723486512e-07 -1.8271259284996511e-06 4.8633170723486512e-07 -0.081988886125135413 -6.2487435223412824e-07 -1.8271259284996511e-06 -6.2487435223412824e-07 -0.7050014006111468 0.2949932266783179 -1.5655701329907579e-06 -2.4632286168380188e-06 -1.5655701329907579e-06 -0.081984873296589392 1.1973382880042059e-05 -2.4632286168380188e-06 1.1973382880042059e-05 -0.70499639153850013 0.2950005071259062 -1.3443089401461655e-06 1.1231526592395748e-07 -1.3443089401461655e-06 -0.081985512314556544 2.2335872846279692e-06 1.1231526592395748e-07 2.2335872846279692e-06 -0.70499626486342415 0.29499608593518567 -2.6892727702140045e-06 -5.8377430595302151e-06 -2.6892727702140045e-06 -0.081988647896135899 9.4696422740455261e-07 -5.8377430595302151e-06 9.4696422740455261e-07 -0.70499148000803358 0.29499844054413499 -3.5859085606255605e-07 -2.5408046535266158e-06 -3.5859085606255605e-07 -0.081990628263189425 6.411390634760045e-06 -2.5408046535266158e-06 6.411390634760045e-06 -0.70500471561572753 0.29500024800695263 4.0616354780367785e-06 7.1115556078378564e-07 4.0616354780367785e-06 -0.081980641118396438 3.7656064002432267e-06 7.1115556078378564e-07 3.7656064002432267e-06 -0.70499779427473575 0.29499751895477566 4.1161706897989778e-07 4.9203053263921104e-06 4.1161706897989778e-07 -0.081988023137683566 7.8388692414988907e-06 4.9203053263921104e-06 7.8388692414988907e-06 -0.70500349910009286 0.29499999796717669 3.4936033466082026e-07 -6.8959517096622847e-08 3.4936033466082026e-07 -0.081987081358781203 5.1116085186299343e-07 -6.8959517096622847e-08 5.1116085186299343e-07 -0.70500112621876709 0.29499878632508236 5.4842092645514732e-06 2.2827690868837403e-06 5.4842092645514732e-06 -0.081987589077021195 6.1218535052365297e-07 2.2827690868837403e-06 6.1218535052365297e-07 -0.70500130961937368 0.29500140173775918 -1.6120693671124052e-06 2.9266451075539768e-06 -1.6120693671124052e-06 -0.081990564701771587 3.6249841058907698e-07 2.9266451075539768e-06 3.6249841058907698e-07 -0.70499736703148952 0.29500397899539521 8.0424853921354194e-07 4.8991823286277902e-06 8.0424853921354194e-07 -0.08198527058250861 9.075802403230686e-06 4.8991823286277902e-06 9.075802403230686e-06 -0.70498887176471592 0.29500065328550229 -1.5205148059479117e-06 -6.1424351611095641e-07 -1.5205148059479117e-06 -0.081989204036421445 2.8462726176103027e-06 -6.1424351611095641e-07 2.8462726176103027e-06 -0.70499251750193137 0.29500216501604648 -1.8296052551437236e-06 2.0408543673267239e-06 -1.8296052551437236e-06 -0.081990892998679996 5.0778550890423713e-06 2.0408543673267239e-06 5.0778550890423713e-06 -0.70499637764849465 0.29500323035807496 -1.241270836805613e-06 2.7365162465486925e-06 -1.241270836805613e-06 -0.081987697565666928 -1.4751566768111957e-07 2.7365162465486925e-06 -1.4751566768111957e-07 -0.70499165858117507 0.29500012402655273 -1.3519206728046868e-06 3.2799659144960858e-06 -1.3519206728046868e-06 -0.081992106213454541 3.0843954960668718e-06 3.2799659144960858e-06 3.0843954960668718e-06 -0.70500372413014623 0.29499857994153078 -1.2393587388385941e-06 -3.7009538922231668e-07 -1.2393587388385941e-06 -0.081989930616987519 -5.5472521282018405e-07 -3.7009538922231668e-07 -5.5472521282018405e-07 -0.70500217188993652 0.29499827175936233 -1.3904208472851657e-06 -3.3312582171641348e-07 -1.3904208472851657e-06 -0.081990684564261479 5.9154569288918588e-07 -3.3312582171641348e-07 5.9154569288918588e-07 -0.70500295116747369 0.29499837505755461 7.3670494031636088e-07 -5.8367136613179244e-06 7.3670494031636088e-07 -0.08199104265875054 4.519137623448799e-06 -5.8367136613179244e-06 4.519137623448799e-06 -0.70499983344619543 0.29499957194996262 3.0926170400523185e-07 -2.805648499637492e-07 3.0926170400523185e-07 -0.081988415046428093 1.6292914941651304e-06 -2.805648499637492e-07 1.6292914941651304e-06 -0.70500256656440974 0.29499881664637045 -7.2355800001449194e-07 -5.9288404682251055e-06 -7.2355800001449194e-07 -0.081988916341332402 -1.227613386546681e-06 -5.9288404682251055e-06 -1.227613386546681e-06 -0.70499954202112225 0.29499780663664621 -1.8737926868600581e-07 -3.0993095155636259e-06 -1.8737926868600581e-07 -0.081993135529802585 2.6111410877704941e-06 -3.0993095155636259e-06 2.6111410877704941e-06 -0.70500473252637286 0.29499770473103071 -2.5713410496183141e-07 -2.8315543400339593e-06 -2.5713410496183141e-07 -0.081990120399583727 -4.6261570346706193e-07 -2.8315543400339593e-06 -4.6261570346706193e-07 -0.70500822969184562 0.29500030415126011 -8.6833253926994293e-07 1.0171966550907541e-06 -8.6833253926994293e-07 -0.081989863413281849 1.9256172204808945e-06 1.0171966550907541e-06 1.9256172204808945e-06 -0.7050077695201642 0.29499968771441543 1.2273144153331791e-07 9.7006387048126363e-07 1.2273144153331791e-07 -0.081988814811717381 -4.3540100008732097e-07 9.7006387048126363e-07 -4.3540100008732097e-07 -0.70500348227302578 0.29500054887206539 -1.5883469651149264e-07 1.1106061917065535e-06 -1.5883469651149264e-07 -0.081991256771638821 8.4151433987766922e-08 1.1106061917065535e-06 8.4151433987766922e-08 -0.70500394774835007 0.29499643595967179 6.7959515723342654e-07 6.6632662137576968e-06 6.7959515723342654e-07 -0.081988645687066597 -9.6017883515884422e-07 6.6632662137576968e-06 -9.6017883515884422e-07 -0.70499576212625892 0.29499972482776088 1.7955974699245816e-06 -3.7245367962151715e-06 1.7955974699245816e-06 -0.081988131084807764 -6.278491068614527e-06 -3.7245367962151715e-06 -6.278491068614527e-06 -0.70499848005352361 0.29499844621575388 1.0428346757456609e-08 -5.2110345497970246e-06 1.0428346757456609e-08 -0.081989222554728014 4.6623885283842873e-06 -5.2110345497970246e-06 4.6623885283842873e-06 -0.70500119264084327 0.29500052982444663 -1.1185333895455221e-07 5.1299247481872978e-07 -1.1185333895455221e-07 -0.081989580355929903 1.5250129292709858e-07 5.1299247481872978e-07 1.5250129292709858e-07 -0.70500019621291021 0.29500018462772748 1.7909046597854767e-08 1.4899158296000081e-07 1.7909046597854767e-08 -0.081989926589846829 4.6661760011446063e-07 1.4899158296000081e-07 4.6661760011446063e-07 -0.7050008164637277 0.29500057645196615 -2.9159181547391975e-07 6.8806667757881357e-07 -2.9159181547391975e-07 -0.081989381659305444 1.4388807700882467e-07 6.8806667757881357e-07 1.4388807700882467e-07 -0.70500042087371673 0.29500109688318804 -3.295423764125139e-07 7.3662181721001474e-07 -3.295423764125139e-07 -0.081990165097713841 9.2067889112534829e-07 7.3662181721001474e-07 9.2067889112534829e-07 -0.70500198532464908 0.29500073701912949 -1.864992710169083e-07 1.7703125057555447e-07 -1.864992710169083e-07 -0.081988203317123282 2.812068368718279e-07 1.7703125057555447e-07 2.812068368718279e-07 -0.70500057633574031 0.2950009470619781 -2.0001880488883647e-07 5.6755306587774612e-07 -2.0001880488883647e-07 -0.081989555166752159 4.3379818237543333e-08 5.6755306587774612e-07 4.3379818237543333e-08 -0.70500034983109905 0.29500003351532722 1.336366758279448e-06 5.0773156945460585e-07 1.336366758279448e-06 -0.081989556498090033 1.1310445410805947e-07 5.0773156945460585e-07 1.1310445410805947e-07 -0.70500089364256158 0.29500028794673383 2.0408376343889194e-06 5.9115947337318175e-07 2.0408376343889194e-06 -0.081988399368115764 1.7203225222139906e-06 5.9115947337318175e-07 1.7203225222139906e-06 -0.70499878759451318 0.29500077152697696 1.4314865423054827e-06 7.7859671224200788e-07 1.4314865423054827e-06 -0.081987551751288634 1.5542471387131052e-06 7.7859671224200788e-07 1.5542471387131052e-06 -0.70500082590360647 0.29499987919593124 6.2753194377024249e-07 -2.6052024981737532e-09 6.2753194377024249e-07 -0.081992771437751466 3.3457461591779314e-06 -2.6052024981737532e-09 3.3457461591779314e-06 -0.70499973920842307 0.29500040660030047 1.8078793665683964e-07 -6.6995757186383287e-07 1.8078793665683964e-07 -0.08198822359181307 1.6223384439705002e-06 -6.6995757186383287e-07 1.6223384439705002e-06 -0.70499897693454194 0.2949997806734308 5.0066960178856086e-07 -1.838322197800224e-07 5.0066960178856086e-07 -0.081989105341871926 9.0422807631773683e-07 -1.838322197800224e-07 9.0422807631773683e-07 -0.70500112139334392 0.29500055535192388 3.1529395723467066e-07 2.7015349912673514e-07 3.1529395723467066e-07 -0.081988888614650368 7.3526066045326299e-07 2.7015349912673514e-07 7.3526066045326299e-07 -0.70500042121430373 0.29500158100813589 1.2151794023429953e-06 4.7139859787881377e-07 1.2151794023429953e-06 -0.081986108292027793 2.6515241964841785e-06 4.7139859787881377e-07 2.6515241964841785e-06 -0.70499809892079546 0.29500062507952529 7.9374727010843321e-07 4.6370659606553843e-07 7.9374727010843321e-07 -0.081990145850811269 2.1202800277730915e-06 4.6370659606553843e-07 2.1202800277730915e-06 -0.70499849584034013 0.29500006924291666 1.4812007947217428e-06 1.6462204405209846e-07 1.4812007947217428e-06 -0.081990986975900126 3.3361824807176532e-06 1.6462204405209846e-07 3.3361824807176532e-06 -0.7049993942987598 0.29499928127487707 -4.2707621033546105e-07 -6.9850185857589508e-08 -4.2707621033546105e-07 -0.081991602699218763 3.5596852797636913e-06 -6.9850185857589508e-08 3.5596852797636913e-06 -0.70499958742044588 0.2950009722976592 4.0896967561392252e-07 -2.6523314820142696e-07 4.0896967561392252e-07 -0.08199055358999674 1.0092226617602895e-07 -2.6523314820142696e-07 1.0092226617602895e-07 -0.70500049490424299 0.29500094760473911 4.8382800468139552e-07 -1.0109460041596297e-06 4.8382800468139552e-07 -0.081990506229597554 -9.2921907801635228e-07 -1.0109460041596297e-06 -9.2921907801635228e-07 -0.7050009439210797 0.29499948755750593 1.7768659228964155e-06 2.1986028475584618e-07 1.7768659228964155e-06 -0.081990069345735148 1.9466633227605001e-07 2.1986028475584618e-07 1.9466633227605001e-07 -0.70500060487002569 0.29500044942417986 6.1356147086602399e-07 -5.1860776328904734e-07 6.1356147086602399e-07 -0.081990624958757474 4.2678640399529399e-08 -5.1860776328904734e-07 4.2678640399529399e-08 -0.70500047978656966 0.2949992020603347 -9.1101592724599458e-07 -4.6160390954064212e-07 -9.1101592724599458e-07 -0.081985460773619401 7.5530923959732377e-08 -4.6160390954064212e-07 7.5530923959732377e-08 -0.70499969832127163 0.29499940922951601 -1.686752956312244e-06 -2.4630567740935305e-07 -1.686752956312244e-06 -0.081985337172327089 -1.1451552551222655e-06 -2.4630567740935305e-07 -1.1451552551222655e-06 -0.70499849933065817 0.29499922222330655 -1.4239973678298976e-06 -2.160957361940774e-07 -1.4239973678298976e-06 -0.081986246630123771 -6.3461697774602754e-07 -2.160957361940774e-07 -6.3461697774602754e-07 -0.70499870850625346 0.29499967172651198 -8.010453700876862e-09 -1.1825569242174261e-06 -8.010453700876862e-09 -0.081987308047244439 -1.6867722845981259e-06 -1.1825569242174261e-06 -1.6867722845981259e-06 -0.7049991228909559 0.29500086687864918 -5.2030832306812743e-07 -3.6003483927515845e-07 -5.2030832306812743e-07 -0.08198762072446647 -1.0853580462155676e-06 -3.6003483927515845e-07 -1.0853580462155676e-06 -0.70499876686143015 0.2950003738596324 -3.6931819623311739e-07 -2.3190627063129909e-07 -3.6931819623311739e-07 -0.081990894829258365 -9.9682652143773254e-07 -2.3190627063129909e-07 -9.9682652143773254e-07 -0.70499944061697262 0.29499990693200029 2.2082506926793244e-08 -1.1432035396524709e-06 2.2082506926793244e-08 -0.081990797973145457 1.6971815811339663e-06 -1.1432035396524709e-06 1.6971815811339663e-06 -0.70500296032148602 0.29500087111442874 -6.5455091793591824e-08 -7.6901723577993408e-07 -6.5455091793591824e-08 -0.081990520838478909 -2.4238539390875058e-07 -7.6901723577993408e-07 -2.4238539390875058e-07 -0.70499896880053647 0.2950004612828156 -1.7431982285891034e-07 -2.386301826695636e-07 -1.7431982285891034e-07 -0.081989823305477494 5.2249653947900043e-07 -2.386301826695636e-07 5.2249653947900043e-07 -0.70500035745903822 0.29500275406092658 -5.8451115665522858e-08 -1.2233987073395625e-07 -5.8451115665522858e-08 -0.081988384853935475 -2.0319303759008811e-06 -1.2233987073395625e-07 -2.0319303759008811e-06 -0.70499139318534609 0.2950003502286368 -2.1222793631151581e-07 -3.4656856851000839e-07 -2.1222793631151581e-07 -0.081990746098203893 3.4842583251926129e-07 -3.4656856851000839e-07 3.4842583251926129e-07 -0.70500047097843244 0.29500063912956637 6.3094437446433753e-07 -1.1899641502860492e-06 6.3094437446433753e-07 -0.081991739831534585 1.6824958763428377e-06 -1.1899641502860492e-06 1.6824958763428377e-06 -0.70499717230927406 0.29500109972961069 -8.3802499591427939e-08 -7.3873273689906149e-07 -8.3802499591427939e-08 -0.081989475555717173 1.2088964157497273e-07 -7.3873273689906149e-07 1.2088964157497273e-07 -0.70499853877088059 0.29500098608680675 1.798357724156565e-07 -2.0368580743168607e-06 1.798357724156565e-07 -0.081988022137021499 1.1509233975859345e-06 -2.0368580743168607e-06 1.1509233975859345e-06 -0.70499497693058322 0.29500046856939194 -3.2093574668189883e-07 -5.7619046756052228e-07 -3.2093574668189883e-07 -0.081989279960258621 5.6490226874039706e-07 -5.7619046756052228e-07 5.6490226874039706e-07 -0.70499801172577303 0.29500044256091817 -1.1013314549579866e-07 -2.9131197143428267e-07 -1.1013314549579866e-07 -0.081989342103876095 2.2955066569796401e-07 -2.9131197143428267e-07 2.2955066569796401e-07 -0.70500029452772228 0.29500018028195168 1.1405660834203639e-07 -3.3272630439729056e-07 1.1405660834203639e-07 -0.081990523914318436 6.0626358888704601e-07 -3.3272630439729056e-07 6.0626358888704601e-07 -0.70499996875356419 0.29500003856099555 -2.8704031902090483e-07 -2.5230163647194104e-07 -2.8704031902090483e-07 -0.0819890688425986 3.5822242028249462e-07 -2.5230163647194104e-07 3.5822242028249462e-07 -0.70500008623396626 0.29500055182782048 -2.4540720873974787e-07 -4.4250725561578719e-07 -2.4540720873974787e-07 -0.081989653018666606 1.7196878288050499e-07 -4.4250725561578719e-07 1.7196878288050499e-07 -0.70499949805434858 0.29499984213943264 1.4151820836001677e-07 -3.0025296721136741e-07 1.4151820836001677e-07 -0.081991807984610809 2.1192843724371357e-07 -3.0025296721136741e-07 2.1192843724371357e-07 -0.7050004572029922 0.29500032635163742 -1.6886404693957194e-07 -2.8984734340431473e-07 -1.6886404693957194e-07 -0.081989853661326884 5.2227335789467588e-09 -2.8984734340431473e-07 5.2227335789467588e-09 -0.70500035096977265 0.29500018412091278 -1.5566770226533227e-07 -2.7837504379402134e-07 -1.5566770226533227e-07 -0.081988951628080953 2.5826904265224826e-07 -2.7837504379402134e-07 2.5826904265224826e-07 -0.70500026652783898 0.29500032930286202 1.1643895086318252e-07 -3.4119646974417606e-07 1.1643895086318252e-07 -0.081989887633313607 4.4270355248343662e-07 -3.4119646974417606e-07 4.4270355248343662e-07 -0.70499974687291633 0.29500011839685658 -3.1135177393698008e-07 -3.2144516903809262e-07 -3.1135177393698008e-07 -0.081989235391719761 2.226773239688562e-07 -3.2144516903809262e-07 2.226773239688562e-07 -0.70499953992604603 0.29500024540567271 -1.6854079780077092e-08 -1.7576916122585828e-07 -1.6854079780077092e-08 -0.081989051044833672 4.1388622806781683e-07 -1.7576916122585828e-07 4.1388622806781683e-07 -0.70499972383028409 0.2950005859556426 -8.1499354415890858e-07 -4.2661742560845539e-07 -8.1499354415890858e-07 -0.081988242875928652 2.9172235527230583e-07 -4.2661742560845539e-07 2.9172235527230583e-07 -0.7049994965846702 0.29500100859802247 -4.6378794698077247e-07 -2.922765601764965e-07 -4.6378794698077247e-07 -0.081987025248105735 -4.3735958499269145e-07 -2.922765601764965e-07 -4.3735958499269145e-07 -0.70499869450655961 0.2950005132539027 -5.3740543790518712e-07 -2.3993389397514164e-07 -5.3740543790518712e-07 -0.081988412974787941 1.5948685117006534e-07 -2.3993389397514164e-07 1.5948685117006534e-07 -0.70499997321716035 0.29500107698424605 1.4106970802514031e-06 -3.3929538445498508e-07 1.4106970802514031e-06 -0.081987919874366155 3.9681418040338201e-08 -3.3929538445498508e-07 3.9681418040338201e-08 -0.70499942490092682 0.29500071822332985 -5.6672010815326183e-07 -4.1411030005100713e-07 -5.6672010815326183e-07 -0.081988298926713998 2.6143959430680042e-07 -4.1411030005100713e-07 2.6143959430680042e-07 -0.70499954836227463 0.29500078476676039 -6.3388216494663012e-07 -3.819206181310264e-07 -6.3388216494663012e-07 -0.081987878042535711 4.4835879509097509e-07 -3.819206181310264e-07 4.4835879509097509e-07 -0.70499946188698748 0.29500053503160095 -5.8172252371542302e-07 -1.8059032913519957e-07 -5.8172252371542302e-07 -0.081988046213033031 3.1169532377361975e-07 -1.8059032913519957e-07 3.1169532377361975e-07 -0.70499995623211076 0.29499881129398597 -4.6606447132283734e-07 3.8656870571252e-07 -4.6606447132283734e-07 -0.081986971515550122 2.0838628469466158e-06 3.8656870571252e-07 2.0838628469466158e-06 -0.70499838408219384 0.29499856893160892 -1.3735268768981668e-06 -4.9833188675574291e-07 -1.3735268768981668e-06 -0.081983902555420318 -4.9711229022086911e-08 -4.9833188675574291e-07 -4.9711229022086911e-08 -0.70499948855813432 0.29499893214764333 -1.6742078024935993e-06 1.1161237295498339e-07 -1.6742078024935993e-06 -0.081985294902484185 -1.0633788135039346e-06 1.1161237295498339e-07 -1.0633788135039346e-06 -0.70499901341819848 0.29499917737362996 -2.0286291720797633e-06 5.9120857098804436e-08 -2.0286291720797633e-06 -0.081992270751824067 -1.0103092882296494e-06 5.9120857098804436e-08 -1.0103092882296494e-06 -0.70500039329224518 0.2950001848859744 -4.0577378319011556e-07 2.2210898453778327e-07 -4.0577378319011556e-07 -0.081991051799512243 -8.1578730615206041e-07 2.2210898453778327e-07 -8.1578730615206041e-07 -0.704999914580834 0.29499972274970748 3.0525250021316338e-06 3.1147527823627286e-07 3.0525250021316338e-06 -0.081988996823882554 -3.6365762105527999e-06 3.1147527823627286e-07 -3.6365762105527999e-06 -0.70500052852384854 0.29500029450452747 1.7305183538920991e-06 4.135231438245901e-07 1.7305183538920991e-06 -0.081987863922411308 -4.5068706984174867e-06 4.135231438245901e-07 -4.5068706984174867e-06 -0.70500014382700504 0.29500039819635798 -2.3355802960669747e-06 -2.3131896575989686e-07 -2.3355802960669747e-06 -0.081991962422268083 -1.0442614886696511e-06 -2.3131896575989686e-07 -1.0442614886696511e-06 -0.70500031974771615 0.29500046682414693 1.1691207024090418e-06 2.7955551473723972e-07 1.1691207024090418e-06 -0.08198802960376439 2.3348637767650615e-06 2.7955551473723972e-07 2.3348637767650615e-06 -0.70499985387110486 0.29499932488115604 2.6647690096311581e-07 -3.1573583303412533e-07 2.6647690096311581e-07 -0.081994037889118632 5.4546098793295528e-07 -3.1573583303412533e-07 5.4546098793295528e-07 -0.70500085662890211 0.29500056312266953 -2.5288589338184935e-07 1.2387723291595876e-07 -2.5288589338184935e-07 -0.08198679035077816 -6.7971636402708313e-08 1.2387723291595876e-07 -6.7971636402708313e-08 -0.70499970676168022 0.29500024237977884 1.4420252840384648e-06 2.2499572041589921e-07 1.4420252840384648e-06 -0.081988127717909531 9.4814336840109981e-08 2.2499572041589921e-07 9.4814336840109981e-08 -0.70500028601223086 0.29500040160937024 3.5994119699672433e-06 5.4872742510925221e-07 3.5994119699672433e-06 -0.081987922891303522 -3.2366812017237123e-06 5.4872742510925221e-07 -3.2366812017237123e-06 -0.70499995320899744 0.29499984897121806 -2.206968739975679e-07 1.7853371403475649e-07 -2.206968739975679e-07 -0.081989770370841292 -3.5783645935261177e-08 1.7853371403475649e-07 -3.5783645935261177e-08 -0.70500019192454355 0.29500039630786701 -1.5749990548232777e-07 9.6624883150209229e-08 -1.5749990548232777e-07 -0.08198979032194087 -1.7384944428489035e-07 9.6624883150209229e-08 -1.7384944428489035e-07 -0.7050006912192579 0.29500053398965109 8.392552699638326e-08 3.5356469747782615e-07 8.392552699638326e-08 -0.081989414020112505 1.346105366062389e-07 3.5356469747782615e-07 1.346105366062389e-07 -0.70500003291244306 0.2950000252697762 3.2800577725167516e-08 4.1020702834515532e-08 3.2800577725167516e-08 -0.081989560331343747 8.5452884712733379e-08 4.1020702834515532e-08 8.5452884712733379e-08 -0.70500053497684734 0.29500008717674198 1.9119537731031351e-08 1.2891700362782643e-07 1.9119537731031351e-08 -0.081989252536162405 -2.0848862902766996e-07 1.2891700362782643e-07 -2.0848862902766996e-07 -0.7050003051870386 0.29500026876958579 -2.6743104996784319e-08 -1.2566625456900127e-07 -2.6743104996784319e-08 -0.081989791364819958 8.8425865074626131e-08 -1.2566625456900127e-07 8.8425865074626131e-08 -0.70500015277909023 0.29499946710267372 1.6675485338274482e-07 6.9097345345436878e-08 1.6675485338274482e-07 -0.081989194108969099 1.8071491592053235e-07 6.9097345345436878e-08 1.8071491592053235e-07 -0.70499984167706797 0.29499988649917397 4.9417270658462527e-07 -7.7380539087457123e-08 4.9417270658462527e-07 -0.081990611709211791 3.1991838067568779e-07 -7.7380539087457123e-08 3.1991838067568779e-07 -0.70500031283076781 0.29500017524221911 4.1566025376621846e-08 -2.2897868934279586e-08 4.1566025376621846e-08 -0.081989443091338127 2.1645177761264733e-08 -2.2897868934279586e-08 2.1645177761264733e-08 -0.70499995853549835 0.29499978211344668 4.4036310247754726e-07 -3.9302379128969278e-09 4.4036310247754726e-07 -0.081990410321906321 4.670559503594518e-07 -3.9302379128969278e-09 4.670559503594518e-07 -0.70500026179302988 0.29500009232969615 1.6994610779922082e-07 9.3911411092051367e-08 1.6994610779922082e-07 -0.081989067458964171 1.7118032169527453e-07 9.3911411092051367e-08 1.7118032169527453e-07 -0.70499982891278634 0.29500007075850349 3.8086663395758405e-07 -8.2832015690925687e-09 3.8086663395758405e-07 -0.081990046431980712 1.3191667469492074e-07 -8.2832015690925687e-09 1.3191667469492074e-07 -0.70500009321928259 0.29500022253644492 1.7410713065998783e-08 -4.2997734595040527e-08 1.7410713065998783e-08 -0.081989250499810928 7.9645472716993737e-08 -4.2997734595040527e-08 7.9645472716993737e-08 -0.70499990560594816 0.29500013373094247 4.491865295362371e-07 -4.9689548475839729e-08 4.491865295362371e-07 -0.081989851349669407 -1.4898741307334262e-07 -4.9689548475839729e-08 -1.4898741307334262e-07 -0.70499955179256046 0.29500023817135135 2.6717135608093614e-07 -2.0982422910265086e-08 2.6717135608093614e-07 -0.081989491987358165 2.1825032425759616e-07 -2.0982422910265086e-08 2.1825032425759616e-07 -0.70499994306304226 0.2949994049028094 1.7116102991013365e-07 8.7914545865430682e-08 1.7116102991013365e-07 -0.081989279132356652 7.7180850266422851e-08 8.7914545865430682e-08 7.7180850266422851e-08 -0.70500006273094762 0.29499980942093373 9.6106968237889115e-08 5.7219579296940992e-08 9.6106968237889115e-08 -0.081989370062311218 6.8534535269115793e-08 5.7219579296940992e-08 6.8534535269115793e-08 -0.70499999837106042 0.29499986275067819 1.2792527863427995e-07 6.767541371743846e-08 1.2792527863427995e-07 -0.081987624163202821 -2.1954811035840294e-07 6.767541371743846e-08 -2.1954811035840294e-07 -0.70499929226446101 0.2949996964205272 9.1893876694979617e-07 8.4550596524124444e-09 9.1893876694979617e-07 -0.081989959670628276 -3.0420503283057343e-07 8.4550596524124444e-09 -3.0420503283057343e-07 -0.7049996569426793 0.2949995538910839 4.9687000921509746e-07 4.5315678320889674e-08 4.9687000921509746e-07 -0.081990983967376252 1.3581446656196761e-07 4.5315678320889674e-08 1.3581446656196761e-07 -0.70500078565377855 0.29499984225547005 4.8401188171432083e-07 -1.2479545719035201e-07 4.8401188171432083e-07 -0.081990751940223983 1.2234686241896497e-07 -1.2479545719035201e-07 1.2234686241896497e-07 -0.70499974553508338 0.29500011647518293 5.947156934734216e-07 -1.0104440084646171e-07 5.947156934734216e-07 -0.081989554693092603 -4.6437236833618556e-08 -1.0104440084646171e-07 -4.6437236833618556e-08 -0.70499954422334699 0.29499992674772363 9.4982823550886386e-07 6.7832605976647642e-08 9.4982823550886386e-07 -0.08198877284752859 -3.9551510400137602e-07 6.7832605976647642e-08 -3.9551510400137602e-07 -0.70499952045708403 0.29500019418631362 -1.9918574782654606e-06 3.6596298880198219e-07 -1.9918574782654606e-06 -0.081985981623900361 4.2087868452611588e-06 3.6596298880198219e-07 4.2087868452611588e-06 -0.70499936370296901 0.2950006105655667 9.791754582783219e-07 2.0181541704467065e-07 9.791754582783219e-07 -0.081988452405259649 2.4667551703494439e-06 2.0181541704467065e-07 2.4667551703494439e-06 -0.70499987912732864 0.29500042649021596 1.1469388332014089e-06 6.6669805752483935e-08 1.1469388332014089e-06 -0.081989854704073717 -3.1273896239358834e-07 6.6669805752483935e-08 -3.1273896239358834e-07 -0.70499949073342583 0.29500082836673447 8.7535496679947335e-07 4.6102814565962547e-07 8.7535496679947335e-07 -0.081986547722311953 -8.9657472235327162e-07 4.6102814565962547e-07 -8.9657472235327162e-07 -0.70500050856674656 0.29500151335503411 7.8785383104259944e-07 4.3184583886635153e-07 7.8785383104259944e-07 -0.081986788247711218 -6.53764006264268e-07 4.3184583886635153e-07 -6.53764006264268e-07 -0.70500064289579001 0.29500007932710814 5.0814323869105796e-07 1.7897959037060929e-07 5.0814323869105796e-07 -0.081987115047863712 -1.1227266385471779e-06 1.7897959037060929e-07 -1.1227266385471779e-06 -0.70500098317270332 0.29499985263037576 1.9104379119678558e-06 7.4587699749883996e-07 1.9104379119678558e-06 -0.081988967452991113 -5.8346235531914203e-07 7.4587699749883996e-07 -5.8346235531914203e-07 -0.70500061536206182 0.29499946952804934 1.2082607597315811e-06 3.8794196211000553e-07 1.2082607597315811e-06 -0.081991332994503563 2.1883098584307703e-06 3.8794196211000553e-07 2.1883098584307703e-06 -0.70500081536313619 0.2950004621959269 5.6503016775990094e-07 2.3058970455291927e-07 5.6503016775990094e-07 -0.081990767509828033 1.0403836969707925e-07 2.3058970455291927e-07 1.0403836969707925e-07 -0.70499932819516209 0.2950004001861638 6.7048405263840295e-07 1.5358377003504842e-07 6.7048405263840295e-07 -0.081991146666854142 -3.5473112403039408e-07 1.5358377003504842e-07 -3.5473112403039408e-07 -0.70499977062329577 0.29499993207676639 8.1420013310844068e-07 -1.3942798271493473e-07 8.1420013310844068e-07 -0.081992781766664635 3.2405613197283856e-06 -1.3942798271493473e-07 3.2405613197283856e-06 -0.70500041859522855 0.29499911888120056 2.2801370629832045e-06 5.0054588936199185e-07 2.2801370629832045e-06 -0.08199256637209773 2.9568061441498372e-06 5.0054588936199185e-07 2.9568061441498372e-06 -0.70500085843185811 0.29499900095974441 2.5598273181591514e-06 3.6455422056103082e-07 2.5598273181591514e-06 -0.081993864678067019 -7.2955472041336122e-07 3.6455422056103082e-07 -7.2955472041336122e-07 -0.70500025097787455 0.29500011386804936 5.2722899621827568e-07 4.7932368874015197e-07 5.2722899621827568e-07 -0.081990743605177885 3.80198009297672e-07 4.7932368874015197e-07 3.80198009297672e-07 -0.705000779789696 0.29499901530027373 2.4514905064534229e-06 5.5946878196877492e-07 2.4514905064534229e-06 -0.081992661371456221 -7.9993833379532475e-07 5.5946878196877492e-07 -7.9993833379532475e-07 -0.70500123596338016 0.29499943312979371 -1.7096866173605133e-06 -8.239955910926966e-07 -1.7096866173605133e-06 -0.081991312767432101 -1.4950861331186616e-06 -8.239955910926966e-07 -1.4950861331186616e-06 -0.70500029020924693 0.29499834895668453 -1.2830026577370043e-06 8.7549367089323482e-08 -1.2830026577370043e-06 -0.081989260775291228 -2.1516238000174326e-06 8.7549367089323482e-08 -2.1516238000174326e-06 -0.70500091467494119 0.29500051983008713 -1.7207142352304857e-07 -8.6573676982837355e-07 -1.7207142352304857e-07 -0.081987419189602173 -1.3338854421007795e-07 -8.6573676982837355e-07 -1.3338854421007795e-07 -0.70499955534416348 0.29499789737952398 -2.5691847019018209e-06 6.1436999021502459e-07 -2.5691847019018209e-06 -0.081987680005715213 -3.4919572122760201e-07 6.1436999021502459e-07 -3.4919572122760201e-07 -0.70500125317486217 0.29499876495201222 -1.3585084580226909e-06 8.5133082206034771e-07 -1.3585084580226909e-06 -0.081985364084995849 3.3418110800820244e-06 8.5133082206034771e-07 3.3418110800820244e-06 -0.70499957312364248 0.29499848452327049 -2.1635282448477369e-06 1.3358436699029141e-06 -2.1635282448477369e-06 -0.081988517718866838 8.7572131945989895e-07 1.3358436699029141e-06 8.7572131945989895e-07 -0.70499932037492652 0.29500079845059357 -7.1002856264155804e-07 1.3850836988460458e-07 -7.1002856264155804e-07 -0.081989848355087602 9.9602409539198411e-07 1.3850836988460458e-07 9.9602409539198411e-07 -0.70499886293114145 0.29500014333948521 -8.3310139650287679e-07 3.7304627498180309e-07 -8.3310139650287679e-07 -0.081994370722260651 6.9982295203274703e-07 3.7304627498180309e-07 6.9982295203274703e-07 -0.70499972618819429 0.29500039547782009 -3.3073616532001484e-07 -1.6324359863872928e-07 -3.3073616532001484e-07 -0.08199114615562475 -1.5907308476004189e-07 -1.6324359863872928e-07 -1.5907308476004189e-07 -0.70499961851402793 0.29500063718628544 -6.0558563595824907e-07 -2.5793092073289614e-07 -6.0558563595824907e-07 -0.081991061644644425 -2.4927129405050152e-07 -2.5793092073289614e-07 -2.4927129405050152e-07 -0.70499967051033297 0.29500073994828258 -4.8737920450073129e-07 -1.0180501375245399e-07 -4.8737920450073129e-07 -0.081990055122736494 -1.4325621666699817e-07 -1.0180501375245399e-07 -1.4325621666699817e-07 -0.70499967397126273 0.29500010308673619 -7.4632463658912958e-07 3.3350061823256283e-08 -7.4632463658912958e-07 -0.081994791437935088 -2.781180628019797e-07 3.3350061823256283e-08 -2.781180628019797e-07 -0.7050001274644826 0.29500038237587167 -1.8184214843473405e-07 6.377805750190646e-08 -1.8184214843473405e-07 -0.0819900633418984 -3.5433687095576261e-09 6.377805750190646e-08 -3.5433687095576261e-09 -0.7049995371661435 0.29500035573365768 -2.0421021656505387e-07 3.4806836857192991e-08 -2.0421021656505387e-07 -0.081990331983110232 -1.5031796385400753e-07 3.4806836857192991e-08 -1.5031796385400753e-07 -0.7049997317581953 0.2950001211650895 -2.432927384902148e-08 -1.1425106738460755e-07 -2.432927384902148e-08 -0.081990486567431464 1.0823055762720912e-07 -1.1425106738460755e-07 1.0823055762720912e-07 -0.70500002165550324 0.29499993600000923 5.9307044914905508e-07 -1.5483905224655814e-07 5.9307044914905508e-07 -0.081990325826330882 2.0355177510200662e-07 -1.5483905224655814e-07 2.0355177510200662e-07 -0.70500017471605358 0.29500022676304627 -6.1416604467808719e-08 -2.3608752941495226e-07 -6.1416604467808719e-08 -0.081990411936571306 2.2276855693448283e-07 -2.3608752941495226e-07 2.2276855693448283e-07 -0.70499988500227229 0.29500027570595705 1.7051656512845525e-07 -7.7138869736259608e-09 1.7051656512845525e-07 -0.081990415509224035 7.5639029484264597e-08 -7.7138869736259608e-09 7.5639029484264597e-08 -0.70500004486855117 0.29500021141857469 9.2079765298113228e-08 -2.9338821366711038e-07 9.2079765298113228e-08 -0.081990233460223383 7.0454245881812483e-07 -2.9338821366711038e-07 7.0454245881812483e-07 -0.70499998830408117 0.29500013869326169 -1.1348577782476299e-07 -1.3998838932494095e-07 -1.1348577782476299e-07 -0.081990025994891136 1.4290536030914236e-07 -1.3998838932494095e-07 1.4290536030914236e-07 -0.70499988610936892 0.29500052018150491 3.5355984496056238e-07 -1.1865381832620869e-07 3.5355984496056238e-07 -0.081989781980019716 -1.7610497793363322e-07 -1.1865381832620869e-07 -1.7610497793363322e-07 -0.70499969209859792 0.29500076382880813 -4.8643590005088668e-07 -2.6912147754742932e-07 -4.8643590005088668e-07 -0.08198830473275287 8.6415035749354274e-07 -2.6912147754742932e-07 8.6415035749354274e-07 -0.7049992260872342 0.29500006727529415 -1.3972392731322218e-10 -1.6915442457854368e-07 -1.3972392731322218e-10 -0.081990029456141089 2.5765070559707892e-07 -1.6915442457854368e-07 2.5765070559707892e-07 -0.7049999039201329 0.29500018241575388 -3.7946976681869829e-08 -2.9329831563451592e-07 -3.7946976681869829e-08 -0.081989964958784523 3.7463364387091413e-07 -2.9329831563451592e-07 3.7463364387091413e-07 -0.70499976850369972 0.29500022143588656 -1.0271877223918131e-07 -1.4839980844172374e-07 -1.0271877223918131e-07 -0.081989266271056294 1.965917642010595e-07 -1.4839980844172374e-07 1.965917642010595e-07 -0.70499975416825222 0.29500019430422991 3.0310887900749818e-09 -2.9461228567839726e-08 3.0310887900749818e-09 -0.081989765359617439 9.7031234935762711e-08 -2.9461228567839726e-08 9.7031234935762711e-08 -0.70500002022656583 0.29500014344529668 1.3966572426468115e-07 -8.8593109737189479e-08 1.3966572426468115e-07 -0.081990261185430624 9.8989721641906669e-08 -8.8593109737189479e-08 9.8989721641906669e-08 -0.7050000881776648 0.29499996675295881 3.7143006167652277e-08 -1.4301627215829171e-07 3.7143006167652277e-08 -0.08199030798406115 1.2262187224637566e-07 -1.4301627215829171e-07 1.2262187224637566e-07 -0.70500008354453358 0.29500005072338487 -2.3634203998770172e-08 -1.0219994306392977e-07 -2.3634203998770172e-08 -0.081990059518021186 1.3302742196685813e-07 -1.0219994306392977e-07 1.3302742196685813e-07 -0.70499992083295249 0.29500003305693845 -3.6170281939242912e-08 -1.0187658849858394e-07 -3.6170281939242912e-08 -0.081990290914545572 4.9291509013338342e-08 -1.0187658849858394e-07 4.9291509013338342e-08 -0.70500001789470446 0.29499985755942137 -5.5590239696695233e-07 -1.3307247792582189e-07 -5.5590239696695233e-07 -0.081990283833176414 2.2859699455590743e-07 -1.3307247792582189e-07 2.2859699455590743e-07 -0.70499993318025123 0.29500012545788229 1.1989899688646876e-07 -5.9500493199138305e-08 1.1989899688646876e-07 -0.081990175777597929 1.2890144129862335e-07 -5.9500493199138305e-08 1.2890144129862335e-07 -0.70499989029086096 0.29500006979117599 -7.0172978576997363e-08 -1.2417361450189901e-07 -7.0172978576997363e-08 -0.081989818113993196 7.472714758094412e-08 -1.2417361450189901e-07 7.472714758094412e-08 -0.70499988511974365 0.29500012654395813 1.4151240616288289e-07 -1.2296174733972265e-07 1.4151240616288289e-07 -0.081990075166245235 -3.0799004990811341e-07 -1.2296174733972265e-07 -3.0799004990811341e-07 -0.70500001017349678 0.29500009917693093 -7.0922134419822207e-08 -1.2059128073893532e-07 -7.0922134419822207e-08 -0.081989951976518816 2.3004871785303749e-08 -1.2059128073893532e-07 2.3004871785303749e-08 -0.70499993538173156 0.29500022033557455 -3.5507760604997629e-09 -2.2963978163481613e-08 -3.5507760604997629e-09 -0.081989900499387314 1.79608047767843e-07 -2.2963978163481613e-08 1.79608047767843e-07 -0.70499973791990311 0.29500008150728679 -1.0240251928864892e-07 -5.675793224302339e-09 -1.0240251928864892e-07 -0.081990000951665643 1.8734793050256826e-07 -5.675793224302339e-09 1.8734793050256826e-07 -0.70500009368324523 0.29500014504077787 4.1920774029356292e-08 -1.2885387712380236e-07 4.1920774029356292e-08 -0.081989906978358729 1.2771627111440864e-07 -1.2885387712380236e-07 1.2771627111440864e-07 -0.70499998353428817 0.29500006492558395 6.7466919330907108e-08 -1.0540195383157425e-07 6.7466919330907108e-08 -0.081989828025627154 7.5708172175836808e-08 -1.0540195383157425e-07 7.5708172175836808e-08 -0.70499993954991114 0.29500009775095282 3.4252086251073842e-08 -1.4179928631286032e-07 3.4252086251073842e-08 -0.081989782810039769 1.7126908768982929e-07 -1.4179928631286032e-07 1.7126908768982929e-07 -0.70499994830455881 0.29500013476585774 1.5360216690511942e-08 -2.4085863126188656e-07 1.5360216690511942e-08 -0.081988958200644751 4.946192921906345e-08 -2.4085863126188656e-07 4.946192921906345e-08 -0.7050003370679766 0.29500033785756574 -1.5427961295863727e-08 2.5936729750042353e-08 -1.5427961295863727e-08 -0.081988466781437286 -6.9334083341310304e-07 2.5936729750042353e-08 -6.9334083341310304e-07 -0.70500028470516662 0.29500049506726622 8.2506840773113534e-08 1.4871067696708984e-07 8.2506840773113534e-08 -0.081988431080352919 -3.9179088962004727e-07 1.4871067696708984e-07 -3.9179088962004727e-07 -0.70499975347952404 0.29499999715591296 6.0798452367771341e-08 -2.6508513301104486e-09 6.0798452367771341e-08 -0.081990104983241913 -2.9985469973681234e-07 -2.6508513301104486e-09 -2.9985469973681234e-07 -0.70500009017192444 0.29500064557202288 -4.351967235753528e-07 -1.9216546676137369e-07 -4.351967235753528e-07 -0.08198824327575277 1.8211744567953048e-07 -1.9216546676137369e-07 1.8211744567953048e-07 -0.70499992482734508 0.29499991797002706 2.2434802820118839e-07 -9.7938970933242331e-08 2.2434802820118839e-07 -0.081989869549401961 -2.2685385503429245e-07 -9.7938970933242331e-08 -2.2685385503429245e-07 -0.70500065629747244 0.29499999825656614 1.7837079774955437e-07 -4.531443473926311e-09 1.7837079774955437e-07 -0.081990122301174084 -3.2079199652201851e-07 -4.531443473926311e-09 -3.2079199652201851e-07 -0.70500009277130538 0.29500021396777021 -1.0899708439281064e-07 -1.2576982100220846e-07 -1.0899708439281064e-07 -0.081989169282194574 -1.7899104165497448e-07 -1.2576982100220846e-07 -1.7899104165497448e-07 -0.70499986350931865 0.29500020665390903 -5.2079279213585716e-08 -3.1151051449462841e-07 -5.2079279213585716e-08 -0.081988747073415191 2.2491022022563811e-07 -3.1151051449462841e-07 2.2491022022563811e-07 -0.7049999349633076 0.29500012407733278 -5.1102137847880825e-08 -3.6768967559552834e-07 -5.1102137847880825e-08 -0.081989064038922463 4.6556068478142976e-07 -3.6768967559552834e-07 4.6556068478142976e-07 -0.7050001438038479 0.29500055879126924 -4.463944869836765e-07 3.285846705836093e-08 -4.463944869836765e-07 -0.081990070637370516 5.8567760219396803e-07 3.285846705836093e-08 5.8567760219396803e-07 -0.70500023354402508 0.2950005791835702 -4.1038474044291908e-09 1.1527889154372417e-07 -4.1038474044291908e-09 -0.081989327221270225 -6.0828101444698746e-07 1.1527889154372417e-07 -6.0828101444698746e-07 -0.70499999366946264 0.29499968487626727 3.0479774871141864e-07 3.1715220139005851e-07 3.0479774871141864e-07 -0.081989659975106655 -7.7121419761461141e-07 3.1715220139005851e-07 -7.7121419761461141e-07 -0.70500021391873058 0.29500034109535145 1.6328299210966823e-07 -2.7250515155508026e-07 1.6328299210966823e-07 -0.081987849735136731 -8.4086432972085845e-07 -2.7250515155508026e-07 -8.4086432972085845e-07 -0.70500002721354349 0.29500056887564263 5.0795682908970252e-07 6.9083964326921432e-08 5.0795682908970252e-07 -0.081988698096153279 -1.8059846584872474e-07 6.9083964326921432e-08 -1.8059846584872474e-07 -0.70499969830110309 0.29500048344241203 1.9306292420772051e-07 1.2063741128276462e-07 1.9306292420772051e-07 -0.081989434566250519 -7.3343429807248839e-07 1.2063741128276462e-07 -7.3343429807248839e-07 -0.70500001145364011 0.29500061776263353 -5.2796215357372093e-07 -3.0599696665412068e-08 -5.2796215357372093e-07 -0.081989816192719278 7.0571078225611927e-07 -3.0599696665412068e-08 7.0571078225611927e-07 -0.70500036135257904 0.29500000417044342 -2.9923625024967612e-07 5.3046753101249067e-08 -2.9923625024967612e-07 -0.081992189743138627 3.142033117575771e-07 5.3046753101249067e-08 3.142033117575771e-07 -0.7050009504315683 0.29499924203917549 6.1133837400670601e-07 4.7459115748438307e-08 6.1133837400670601e-07 -0.081989621516782019 2.9686989133637098e-07 4.7459115748438307e-08 2.9686989133637098e-07 -0.70500058905114615 0.29499974702395787 4.8155086414378493e-07 -2.9399565132370853e-07 4.8155086414378493e-07 -0.081990211618581721 8.1962293135839914e-07 -2.9399565132370853e-07 8.1962293135839914e-07 -0.7050007543948642 0.2950000417965376 9.6109388588235141e-08 -3.3037358038168207e-07 9.6109388588235141e-08 -0.081988592625977019 9.0988140022396635e-07 -3.3037358038168207e-07 9.0988140022396635e-07 -0.70499981943801782 0.29500060684293139 -2.4965782417311386e-06 1.3111440522184381e-07 -2.4965782417311386e-06 -0.081989358244351745 -2.8697333187555074e-07 1.3111440522184381e-07 -2.8697333187555074e-07 -0.70499958484199621 0.29500042522077985 -4.8966488323721278e-07 -2.0782623516568677e-07 -4.8966488323721278e-07 -0.08199185308795745 5.3326935622877158e-07 -2.0782623516568677e-07 5.3326935622877158e-07 -0.70500041211297848 0.29499958161173279 -2.3811853713306136e-07 -7.5828341750128203e-07 -2.3811853713306136e-07 -0.081988487454456416 1.1488702383877225e-06 -7.5828341750128203e-07 1.1488702383877225e-06 -0.70499899316084091 0.29499890045174282 2.0166384884443613e-06 1.1886908830027743e-06 2.0166384884443613e-06 -0.081980418842356628 -3.6268275762640911e-06 1.1886908830027743e-06 -3.6268275762640911e-06 -0.70499918932756156 0.29499951955656878 3.900744399417846e-07 6.5784682001801542e-07 3.900744399417846e-07 -0.081996049459618026 -9.640254428067152e-07 6.5784682001801542e-07 -9.640254428067152e-07 -0.70500114706056971 0.29499790950038285 3.0736020346507145e-06 1.4472350541860912e-06 3.0736020346507145e-06 -0.081985575933737342 -7.6651025160412445e-07 1.4472350541860912e-06 -7.6651025160412445e-07 -0.7049995212867457 0.29500009760678347 -1.9807991081297717e-07 -9.3903620324020665e-07 -1.9807991081297717e-07 -0.081988413971965546 2.9278487412298659e-08 -9.3903620324020665e-07 2.9278487412298659e-08 -0.70499979562033577 0.29499889851155914 3.6863435845215431e-07 3.1265700028981769e-08 3.6863435845215431e-07 -0.081989317412639595 2.7463332632482462e-06 3.1265700028981769e-08 2.7463332632482462e-06 -0.70500060040651746 0.29499753925247951 3.1216121350646502e-06 1.2183048414549091e-06 3.1216121350646502e-06 -0.081985830388574543 -8.3726419553009634e-07 1.2183048414549091e-06 -8.3726419553009634e-07 -0.70500105875282992 0.2949993612480325 1.3523002230916221e-06 -7.1257876288477462e-07 1.3523002230916221e-06 -0.081992689860120094 1.5725857493986695e-06 -7.1257876288477462e-07 1.5725857493986695e-06 -0.70500051783334294 0.29500066623262661 5.3136425738710247e-07 -3.5781437124349225e-07 5.3136425738710247e-07 -0.081990386361030176 2.3993253894794009e-07 -3.5781437124349225e-07 2.3993253894794009e-07 -0.70499960677521711 0.29500020217810352 3.4755674946872726e-08 7.2272445805765528e-09 3.4755674946872726e-08 -0.081990136616988174 2.1075067957454507e-07 7.2272445805765528e-09 2.1075067957454507e-07 -0.70499974724756376 0.29500098898920807 5.9359665267600413e-07 -1.8476684893187212e-07 5.9359665267600413e-07 -0.081990335330857755 3.1543979356341012e-07 -1.8476684893187212e-07 3.1543979356341012e-07 -0.70499938487414671 0.29500084823999984 5.4215321710047049e-07 5.2925456017760553e-07 5.4215321710047049e-07 -0.081989726014874864 -7.5294117740654087e-07 5.2925456017760553e-07 -7.5294117740654087e-07 -0.70499972166196567 0.29500042798375092 -8.7247277007643585e-07 3.4207346472081568e-07 -8.7247277007643585e-07 -0.081989497513404896 6.1032068443545029e-07 3.4207346472081568e-07 6.1032068443545029e-07 -0.70499961839500935 0.29500026708736621 1.5004650521578998e-07 9.4131817673925866e-08 1.5004650521578998e-07 -0.081990162186466375 3.1049551141304477e-07 9.4131817673925866e-08 3.1049551141304477e-07 -0.70499956422784615 0.29499933320849925 -3.7040043511669627e-06 8.6147351030518848e-07 -3.7040043511669627e-06 -0.081992981558942191 1.4274971562588945e-06 8.6147351030518848e-07 1.4274971562588945e-06 -0.70500067542006661 0.29499871257665489 -3.1437366595258128e-06 5.0145102364895777e-07 -3.1437366595258128e-06 -0.081993783652140939 1.7547863608857739e-06 5.0145102364895777e-07 1.7547863608857739e-06 -0.70500122941823484 0.29500036776433769 -7.8051011921986662e-07 4.097419807891356e-07 -7.8051011921986662e-07 -0.081989967330560298 -1.73959665339396e-07 4.097419807891356e-07 -1.73959665339396e-07 -0.70499936595584289 0.29499978023835793 3.0716220652622146e-07 -1.6483868825467596e-08 3.0716220652622146e-07 -0.08199631620304848 2.460140163806912e-07 -1.6483868825467596e-08 2.460140163806912e-07 -0.70500066171044962 0.29499885505057932 -2.4562375785071534e-06 8.4990093360270969e-07 -2.4562375785071534e-06 -0.081992223141885812 -3.0838918816389338e-06 8.4990093360270969e-07 -3.0838918816389338e-06 -0.70500152278886175 0.29499953723720307 -9.2526093658881582e-07 1.6969641591924045e-07 -9.2526093658881582e-07 -0.081993495516734405 -3.2635470750275175e-06 1.6969641591924045e-07 -3.2635470750275175e-06 -0.70500130419132834 0.29499984256943745 -1.8516457473294435e-07 -2.6324795232568476e-08 -1.8516457473294435e-07 -0.081990156558067628 1.594701183327274e-07 -2.6324795232568476e-08 1.594701183327274e-07 -0.70499992792725497 0.29500026722193862 -4.4113045898918292e-07 -3.2397556859464771e-08 -4.4113045898918292e-07 -0.081988494945392509 4.6411573162430386e-07 -3.2397556859464771e-08 4.6411573162430386e-07 -0.70499969384736927 0.29499972885894721 1.5163535890057349e-06 8.0714347716615009e-07 1.5163535890057349e-06 -0.081988497973241703 -4.2913648190534559e-09 8.0714347716615009e-07 -4.2913648190534559e-09 -0.70500065576462312 0.29499957431876439 -3.049603216657374e-07 3.0124404881703981e-07 -3.049603216657374e-07 -0.08199051894852033 8.5870297750201274e-07 3.0124404881703981e-07 8.5870297750201274e-07 -0.70500046272617989 0.29499986457320643 -5.157731862068837e-07 1.1465022931034241e-07 -5.157731862068837e-07 -0.081990450412386395 7.1984488481113829e-08 1.1465022931034241e-07 7.1984488481113829e-08 -0.70499985717377589 0.29500034704171751 3.1815672386729017e-07 2.6709541822711458e-07 3.1815672386729017e-07 -0.081985823586186113 1.0431813107780741e-06 2.6709541822711458e-07 1.0431813107780741e-06 -0.70500102112519247 0.29499972306618283 -1.698578145897057e-06 9.88306301019648e-07 -1.698578145897057e-06 -0.081988619688440179 3.117742786162836e-07 9.88306301019648e-07 3.117742786162836e-07 -0.70500063617949271 0.29500034551501331 -3.9834416057443149e-07 -6.5268445155475252e-08 -3.9834416057443149e-07 -0.08198857824916439 5.2919603010792571e-07 -6.5268445155475252e-08 5.2919603010792571e-07 -0.70499976664948294 0.29500030330131843 -7.3551434477686223e-07 -4.9735596325400921e-08 -7.3551434477686223e-07 -0.081988057552805249 7.1861093675629206e-07 -4.9735596325400921e-08 7.1861093675629206e-07 -0.70499952151815259 0.29499963042589028 -4.9607671301498149e-07 -1.0392144971383549e-07 -4.9607671301498149e-07 -0.081991055078620256 3.9487302527785317e-07 -1.0392144971383549e-07 3.9487302527785317e-07 -0.70499986439361706 0.29500077795707069 -1.1777687689451898e-06 1.0737707611951919e-08 -1.1777687689451898e-06 -0.081985733525365978 1.6786441082716763e-06 1.0737707611951919e-08 1.6786441082716763e-06 -0.70500068337688848 0.29500025260628626 -4.0224140759755507e-07 1.2293518290157346e-08 -4.0224140759755507e-07 -0.081986856938392361 1.3164568133383625e-06 1.2293518290157346e-08 1.3164568133383625e-06 -0.70500094019175652 0.29499944008953582 1.7348058721495092e-07 1.9512342585431552e-07 1.7348058721495092e-07 -0.081990902286281808 -1.8685251912398115e-07 1.9512342585431552e-07 -1.8685251912398115e-07 -0.70500044993192246 0.29499925499088131 1.1941153971465494e-07 4.6697326716582666e-07 1.1941153971465494e-07 -0.081991436344178936 5.028059459899481e-07 4.6697326716582666e-07 5.028059459899481e-07 -0.70500092430456252 0.29499966490900065 -5.6403527430562841e-07 -1.0491158275449664e-08 -5.6403527430562841e-07 -0.081991872585265968 -4.0247707039364755e-07 -1.0491158275449664e-08 -4.0247707039364755e-07 -0.70500031600860846 0.29500093776997049 -2.4346041362488389e-07 2.1536879113437379e-07 -2.4346041362488389e-07 -0.081985584247586868 -4.6654409971425004e-06 2.1536879113437379e-07 -4.6654409971425004e-06 -0.70499941848509773 0.29499927163982709 3.3395979164060413e-07 1.579089919240273e-07 3.3395979164060413e-07 -0.081993029717629784 -4.3450460962546344e-07 1.579089919240273e-07 -4.3450460962546344e-07 -0.70500060226551087 0.29499942509155308 5.1501246735749423e-07 3.0679562429414275e-07 5.1501246735749423e-07 -0.081991699766555959 8.3118013272098779e-07 3.0679562429414275e-07 8.3118013272098779e-07 -0.70500132369126911 0.29499947044494435 3.6413578664941555e-07 3.1724864385518359e-07 3.6413578664941555e-07 -0.081991588445009145 -1.3805692013618698e-06 3.1724864385518359e-07 -1.3805692013618698e-06 -0.7050010363092245 0.29499922525887046 1.4333053423090684e-06 6.2967779401734703e-07 1.4333053423090684e-06 -0.081990951624677066 -1.225784224227755e-06 6.2967779401734703e-07 -1.225784224227755e-06 -0.70500077994024402 0.29499965428561603 -2.5982591357278222e-07 -2.3790257985822905e-08 -2.5982591357278222e-07 -0.081991519494396758 2.1204771255556309e-07 -2.3790257985822905e-08 2.1204771255556309e-07 -0.70499965147423094 0.29499934263859023 1.4155316601498661e-06 6.0520482920989327e-07 1.4155316601498661e-06 -0.081990812605196695 -6.2310864739137384e-07 6.0520482920989327e-07 -6.2310864739137384e-07 -0.70500033894198655 0.29500112555995461 1.5697207312986887e-06 5.3086146142161672e-07 1.5697207312986887e-06 -0.081983678257091297 -3.6762426055547692e-06 5.3086146142161672e-07 -3.6762426055547692e-06 -0.70499858469269849 0.29500002595428854 2.2406216166946092e-07 1.3921831550078867e-07 2.2406216166946092e-07 -0.081990134259108949 -2.1779686593115244e-06 1.3921831550078867e-07 -2.1779686593115244e-06 -0.70499970516332633 0.29499972754382842 2.7028559130996141e-06 5.2328779398536085e-07 2.7028559130996141e-06 -0.081991187629544604 -3.5246144605149965e-06 5.2328779398536085e-07 -3.5246144605149965e-06 -0.70500047240638386 0.29500018965734764 -2.0001016645322512e-07 1.5709504952443609e-07 -2.0001016645322512e-07 -0.081989676525163091 -1.1547822775792582e-07 1.5709504952443609e-07 -1.1547822775792582e-07 -0.70499987453582036 0.29500052600821314 -2.3391564853968361e-07 4.5768469722484717e-07 -2.3391564853968361e-07 -0.081989995726769238 -3.3380850572584109e-07 4.5768469722484717e-07 -3.3380850572584109e-07 -0.70500000302739974 0.29499981703242739 -8.1441047589665036e-08 1.0450831755548506e-08 -8.1441047589665036e-08 -0.081990261629362182 -1.58886909074063e-07 1.0450831755548506e-08 -1.58886909074063e-07 -0.70500076882288232 0.29500045355622534 -1.1680627866266161e-08 2.0904878705874097e-07 -1.1680627866266161e-08 -0.081989552485693284 -2.9291311687273947e-07 2.0904878705874097e-07 -2.9291311687273947e-07 -0.70500042436921362 0.29500031828938794 1.2350070377318297e-07 2.3146802580198411e-07 1.2350070377318297e-07 -0.081988457553234417 -6.5628168088860406e-07 2.3146802580198411e-07 -6.5628168088860406e-07 -0.70500007130947973 0.2950001152492211 -1.8391381285919356e-07 2.4055999492400559e-07 -1.8391381285919356e-07 -0.081989598353600229 -1.4425441208221201e-07 2.4055999492400559e-07 -1.4425441208221201e-07 -0.70500007260646147 0.29500024339673825 -2.8752286434326781e-08 -1.9731221878593885e-08 -2.8752286434326781e-08 -0.081989076449952458 2.3243696833930017e-07 -1.9731221878593885e-08 2.3243696833930017e-07 -0.70499989786355854 0.29500012068479931 -1.0451052392260879e-07 -2.4350371580217356e-08 -1.0451052392260879e-07 -0.081989697852057897 2.6891321747157804e-07 -2.4350371580217356e-08 2.6891321747157804e-07 -0.70499982566270036 0.2949999980895579 -3.5265913876763031e-07 -6.041924063490689e-08 -3.5265913876763031e-07 -0.081990120126133686 1.840179517653695e-07 -6.041924063490689e-08 1.840179517653695e-07 -0.70499995607144939 0.29499973111727928 -2.427134618252653e-07 -3.3813967958984392e-08 -2.427134618252653e-07 -0.081990684196638575 1.0944453610051141e-07 -3.3813967958984392e-08 1.0944453610051141e-07 -0.70500010427286464 0.29499999657924225 -2.9325731345792027e-08 9.0680111197727342e-09 -2.9325731345792027e-08 -0.081989807544850302 2.2794026333095019e-07 9.0680111197727342e-09 2.2794026333095019e-07 -0.70499985009677935 0.29499992024259347 -3.8024382004034546e-07 -6.0223896116567976e-08 -3.8024382004034546e-07 -0.08199043319818336 1.2559008588652887e-07 -6.0223896116567976e-08 1.2559008588652887e-07 -0.70500003668792843 0.29500011413576904 -3.2808066902365038e-07 -8.5444634034814726e-08 -3.2808066902365038e-07 -0.08198943375376444 8.0533292923234967e-08 -8.5444634034814726e-08 8.0533292923234967e-08 -0.7050000578919513 0.2949994320801968 -1.8278985113959495e-07 1.1689662958447311e-07 -1.8278985113959495e-07 -0.081989968798363122 2.9676598223282724e-07 1.1689662958447311e-07 2.9676598223282724e-07 -0.70500000407166463 0.29500008902808528 -2.5601547246315335e-07 4.9049865946670934e-08 -2.5601547246315335e-07 -0.081987153673429236 6.3485684864694747e-07 4.9049865946670934e-08 6.3485684864694747e-07 -0.70499941501790842 0.29499962631869076 -1.4285371992221843e-07 1.1522055798351971e-07 -1.4285371992221843e-07 -0.081989055983743286 1.8787787281482338e-07 1.1522055798351971e-07 1.8787787281482338e-07 -0.70499995827222861 0.29499995842923754 -8.102203026911351e-08 8.1744345181711253e-09 -8.102203026911351e-08 -0.081989132420053235 2.1213297030087119e-07 8.1744345181711253e-09 2.1213297030087119e-07 -0.70499987634938499 0.29499947611670985 4.518888036755469e-07 3.3918391073584075e-07 4.518888036755469e-07 -0.081990256447790538 -6.0591516137797896e-08 3.3918391073584075e-07 -6.0591516137797896e-08 -0.70500002815813001 0.29499951546627023 -1.6500302699351586e-07 8.9053059149080127e-08 -1.6500302699351586e-07 -0.081989343997558195 5.6692750313724893e-08 8.9053059149080127e-08 5.6692750313724893e-08 -0.70500006803484894 0.29499949896836025 -2.0653734972164106e-07 2.7249794698480656e-07 -2.0653734972164106e-07 -0.081989733848514101 3.8515158706786679e-07 2.7249794698480656e-07 3.8515158706786679e-07 -0.7049998139337359 0.29499993117272227 -1.2712879890325408e-07 2.9811749202579563e-07 -1.2712879890325408e-07 -0.081989198238860639 8.3319453881430805e-08 2.9811749202579563e-07 8.3319453881430805e-08 -0.70499976471230408 0.29499978054977966 -3.6952483080519385e-07 2.7799284119112144e-07 -3.6952483080519385e-07 -0.08198985839231826 2.6111752027269119e-07 2.7799284119112144e-07 2.6111752027269119e-07 -0.70499985349468353 0.29499990371432505 -1.2557282284891264e-07 3.084404300857102e-07 -1.2557282284891264e-07 -0.081989357928553774 5.7209304848981901e-08 3.084404300857102e-07 5.7209304848981901e-08 -0.70499975594847464 0.29499955970481384 -1.3503571289230848e-07 1.5638777606241661e-07 -1.3503571289230848e-07 -0.081989060442423489 2.0008704582075154e-07 1.5638777606241661e-07 2.0008704582075154e-07 -0.70499997690817118 0.29499948006459825 -4.6458482382015518e-08 3.0856617194707781e-07 -4.6458482382015518e-08 -0.081988974364386569 2.5821184701513289e-07 3.0856617194707781e-07 2.5821184701513289e-07 -0.704999661673817 0.29499973973024296 -1.7379000908073442e-07 3.1677273149011143e-07 -1.7379000908073442e-07 -0.081989172924936737 1.2744440558432046e-07 3.1677273149011143e-07 1.2744440558432046e-07 -0.70499972301281377 0.29499999170982411 1.0357745392234053e-06 5.1084832364267641e-07 1.0357745392234053e-06 -0.081988676724237722 2.4677823909358132e-07 5.1084832364267641e-07 2.4677823909358132e-07 -0.70499951123726401 0.29500014395011059 -1.9945933819255605e-07 6.0405049701062197e-07 -1.9945933819255605e-07 -0.081989493172080985 -2.2232747520778418e-07 6.0405049701062197e-07 -2.2232747520778418e-07 -0.70499965951091315 0.29499975893693747 -1.339578294721363e-07 3.4689401340326498e-07 -1.339578294721363e-07 -0.081989687065502331 -1.4391167313387854e-07 3.4689401340326498e-07 -1.4391167313387854e-07 -0.70500015971355345 0.29499989449669928 -1.9280500263817306e-07 3.3616308670048056e-07 -1.9280500263817306e-07 -0.081989172562209972 -4.8564081644997259e-08 3.3616308670048056e-07 -4.8564081644997259e-08 -0.70499996257532793 0.29500016119996414 -1.8512008547630364e-07 5.9037068933509573e-07 -1.8512008547630364e-07 -0.081989477060037841 -2.3753387390357261e-07 5.9037068933509573e-07 -2.3753387390357261e-07 -0.70499962856998244 0.29499976754515389 -1.255887157245662e-07 3.1891094443015078e-07 -1.255887157245662e-07 -0.081989659009082186 -1.7679139652226894e-07 3.1891094443015078e-07 -1.7679139652226894e-07 -0.70500014352554263 0.29499972170838717 -2.0347391564265467e-07 3.4529651060655198e-07 -2.0347391564265467e-07 -0.081989793147060674 -1.1628960694398671e-07 3.4529651060655198e-07 -1.1628960694398671e-07 -0.70499998990939838 0.29499971326144403 -2.9642625162567943e-06 2.1945127798295161e-07 -2.9642625162567943e-06 -0.081989033389222699 -3.6105343685088886e-06 2.1945127798295161e-07 -3.6105343685088886e-06 -0.70500036451022741 0.29500023976316969 -4.1410692292039445e-06 4.8347336800702578e-08 -4.1410692292039445e-06 -0.081987463562877894 -1.7815728665659947e-06 4.8347336800702578e-08 -1.7815728665659947e-06 -0.70499935573832717 0.29499891582576998 3.3406647545839512e-07 5.1658201649651403e-07 3.3406647545839512e-07 -0.08199311118692032 -3.7151555021264215e-07 5.1658201649651403e-07 -3.7151555021264215e-07 -0.70500070451791164 0.29499971698083716 -3.3011165886704343e-07 1.3527781694833152e-07 -3.3011165886704343e-07 -0.08198781929763857 -1.542018415158497e-06 1.3527781694833152e-07 -1.542018415158497e-06 -0.7049995164900299 0.29500041106840863 -3.2562446246215209e-07 2.7989378909021312e-07 -3.2562446246215209e-07 -0.081986745297560171 -9.892233529540384e-08 2.7989378909021312e-07 -9.892233529540384e-08 -0.7049998026376334 0.29499950492077398 -1.0088742715803998e-06 3.3743924521267843e-07 -1.0088742715803998e-06 -0.081991327294571037 1.8085986607796478e-06 3.3743924521267843e-07 1.8085986607796478e-06 -0.70499956972501332 0.29500084985531261 -3.0618684890630944e-07 -5.6358442468429359e-08 -3.0618684890630944e-07 -0.081986677086657717 -3.3733991211537528e-08 -5.6358442468429359e-08 -3.3733991211537528e-08 -0.70499818610134557 0.29500026666882101 2.0850911622447583e-06 -1.2878943089766892e-07 2.0850911622447583e-06 -0.081987744017422426 -1.2252678363577907e-06 -1.2878943089766892e-07 -1.2252678363577907e-06 -0.70499954467538095 0.29499995784484001 -1.6056118096769338e-06 3.9771168192093143e-08 -1.6056118096769338e-06 -0.081989009464092488 6.741905145268845e-09 3.9771168192093143e-08 6.741905145268845e-09 -0.70499882540546066 0.29499971585128748 -3.2895523944222736e-06 -1.9908929838052813e-08 -3.2895523944222736e-06 -0.081989871606680809 -3.3127719681891321e-06 -1.9908929838052813e-08 -3.3127719681891321e-06 -0.70499980232208737 0.29499947045191471 -1.0100599112759581e-06 1.4797928438170516e-08 -1.0100599112759581e-06 -0.081991798443711572 1.3582855153959628e-06 1.4797928438170516e-08 1.3582855153959628e-06 -0.70500108884050738 0.29500009779406572 4.6433693509074665e-08 4.70822668408033e-07 4.6433693509074665e-08 -0.08198824375911945 3.6522822854934134e-07 4.70822668408033e-07 3.6522822854934134e-07 -0.70499903599646019 0.29500019473664629 -1.5064164419760364e-07 5.1950745272311138e-07 -1.5064164419760364e-07 -0.081987959015585865 -1.2744376627349396e-06 5.1950745272311138e-07 -1.2744376627349396e-06 -0.70499890120726416 0.29500001567316647 -8.2406866142174671e-07 -4.308487280696438e-07 -8.2406866142174671e-07 -0.08199092151401266 4.1749339085850323e-07 -4.308487280696438e-07 4.1749339085850323e-07 -0.70499973748507871 0.29499831436765866 1.9817356484416774e-07 4.5569380513477142e-07 1.9817356484416774e-07 -0.081995340958406215 9.0477488878804024e-07 4.5569380513477142e-07 9.0477488878804024e-07 -0.70500082996253877 0.29500080770492115 -9.8523885651727098e-07 -2.4476438698073366e-07 -9.8523885651727098e-07 -0.08198553043057949 1.6135597795674528e-06 -2.4476438698073366e-07 1.6135597795674528e-06 -0.70500107533657208 0.29499987811822409 2.9031289538948807e-08 3.7201496061456396e-07 2.9031289538948807e-08 -0.081983599161966514 1.1959739917299927e-06 3.7201496061456396e-07 1.1959739917299927e-06 -0.70500129265962075 0.29499937472791599 5.7293922841053786e-08 5.823301173213391e-08 5.7293922841053786e-08 -0.081988121244373491 3.6089387001059237e-07 5.823301173213391e-08 3.6089387001059237e-07 -0.70499953376042068 0.29499937990739533 2.4103071862969164e-07 -3.4204462151521398e-08 2.4103071862969164e-07 -0.08198768937808254 6.7968908612492385e-07 -3.4204462151521398e-08 6.7968908612492385e-07 -0.70499967235714101 0.2950009461432187 2.075915519324212e-06 -4.1651783688756439e-07 2.075915519324212e-06 -0.081986046606799756 3.0146662610697206e-07 -4.1651783688756439e-07 3.0146662610697206e-07 -0.70500100526259191 0.29499878015395309 2.7675723965325015e-06 -7.226100739998742e-08 2.7675723965325015e-06 -0.08199254891592811 -2.2984435654738178e-06 -7.226100739998742e-08 -2.2984435654738178e-06 -0.70500074141919367 0.29499902762386421 3.050322421716247e-06 1.1425382989704858e-07 3.050322421716247e-06 -0.081992654079099281 -1.118053123416729e-06 1.1425382989704858e-07 -1.118053123416729e-06 -0.70499962357817836 0.29500012606317183 3.2676985320527873e-06 -8.4099742192478288e-07 3.2676985320527873e-06 -0.081984047300620921 1.1282245091503995e-06 -8.4099742192478288e-07 1.1282245091503995e-06 -0.7050009374214854 0.2949999171043336 6.0191733525644515e-07 -1.1265908863578034e-06 6.0191733525644515e-07 -0.081988351247655245 2.0797980766484869e-06 -1.1265908863578034e-06 2.0797980766484869e-06 -0.7050016967960655 0.29500033419595195 7.4365353735467608e-07 -6.2990727078826581e-08 7.4365353735467608e-07 -0.081989894865864388 7.5380015740478257e-07 -6.2990727078826581e-08 7.5380015740478257e-07 -0.70499906943141788 0.29499940501017896 4.9647155603840975e-07 -2.6772964289989432e-07 4.9647155603840975e-07 -0.081994460590167129 8.147797705415627e-07 -2.6772964289989432e-07 8.147797705415627e-07 -0.70499963855555192 0.29499972292155363 2.1470692421195301e-08 8.9493100485782406e-08 2.1470692421195301e-08 -0.081991136435523138 -5.3769923780491724e-07 8.9493100485782406e-08 -5.3769923780491724e-07 -0.70499968956318737 0.29499975781207494 1.8752829572310964e-08 1.2066904475638296e-07 1.8752829572310964e-08 -0.081990783801803635 -5.3750598505430958e-07 1.2066904475638296e-07 -5.3750598505430958e-07 -0.70499964320601172 0.29499943219581359 -1.4534558021690213e-07 5.7981211165625268e-08 -1.4534558021690213e-07 -0.08199027512945245 6.1744528734308801e-07 5.7981211165625268e-08 6.1744528734308801e-07 -0.7049992512891019 0.29499876678233639 -3.6914026502682155e-07 -1.5301340694495735e-07 -3.6914026502682155e-07 -0.081994914302463529 7.1418955727153843e-07 -1.5301340694495735e-07 7.1418955727153843e-07 -0.70499980572781507 0.29499973023336856 2.0099347683501261e-07 9.3922001509483266e-08 2.0099347683501261e-07 -0.081991151038854793 3.6897541111358123e-07 9.3922001509483266e-08 3.6897541111358123e-07 -0.70499963866336923 0.29499935161896185 -1.5662104396065787e-07 1.4175252449621922e-07 -1.5662104396065787e-07 -0.081991141558526603 7.4316576093025333e-07 1.4175252449621922e-07 7.4316576093025333e-07 -0.70499938849026611 0.29499972138294894 -3.4710722230984611e-07 7.0400960283656389e-07 -3.4710722230984611e-07 -0.081987469042966832 1.2764035695056464e-07 7.0400960283656389e-07 1.2764035695056464e-07 -0.70499960876770906 0.2949989671425417 -1.7416870863669928e-06 6.1882395230306031e-07 -1.7416870863669928e-06 -0.081991368510307638 1.6150681734217187e-06 6.1882395230306031e-07 1.6150681734217187e-06 -0.70500054870401963 0.2949984438852935 -4.1625568259236286e-07 -6.7601968778419064e-07 -4.1625568259236286e-07 -0.081987609957476337 2.4611295730281313e-06 -6.7601968778419064e-07 2.4611295730281313e-06 -0.70500203070127743 0.29499936625091172 -2.8143379955561197e-06 -3.2870141275509468e-08 -2.8143379955561197e-06 -0.081989179511598342 1.3718170972509824e-06 -3.2870141275509468e-08 1.3718170972509824e-06 -0.70500180839531668 0.29499877298701166 -8.8160111678481285e-07 -4.2675890932208915e-08 -8.8160111678481285e-07 -0.081993994498411132 -2.5860615709971668e-06 -4.2675890932208915e-08 -2.5860615709971668e-06 -0.70500102847547008 0.29499962387343426 -8.8938226511710045e-08 -1.8894702091820648e-07 -8.8938226511710045e-08 -0.08199052577317123 -3.3762743512077975e-07 -1.8894702091820648e-07 -3.3762743512077975e-07 -0.70499979304651283 0.2949989477047823 -1.3802652105616607e-06 -3.5799410524894881e-07 -1.3802652105616607e-06 -0.081992539679758947 -2.3213893616258474e-06 -3.5799410524894881e-07 -2.3213893616258474e-06 -0.70500076138718626 0.29499999659141285 -1.1459183865199104e-06 -3.4024109263341984e-07 -1.1459183865199104e-06 -0.081988579221151325 -1.8175046357926661e-06 -3.4024109263341984e-07 -1.8175046357926661e-06 -0.70499987656113916 0.29499997986606785 2.5354828394628161e-07 2.5654055080259752e-07 2.5354828394628161e-07 -0.081989924914237955 -5.0673564500058887e-07 2.5654055080259752e-07 -5.0673564500058887e-07 -0.70500020929781848 0.29500045988942813 -2.0254459522860057e-06 -2.6873409897376632e-07 -2.0254459522860057e-06 -0.081986484771099738 -4.0316266058937344e-07 -2.6873409897376632e-07 -4.0316266058937344e-07 -0.70499965294465528 0.2950008063878653 3.9997762218308862e-06 -1.8963522396830967e-07 3.9997762218308862e-06 -0.081985797277758898 1.9390824284037933e-06 -1.8963522396830967e-07 1.9390824284037933e-06 -0.70500012402730938 0.29499906829701017 -3.3909349187586855e-07 2.2490024909060935e-07 -3.3909349187586855e-07 -0.081990993924803357 -5.405890188825424e-07 2.2490024909060935e-07 -5.405890188825424e-07 -0.70500060688992783 0.29499964625973985 -9.1242569670983307e-08 2.5443565798699552e-07 -9.1242569670983307e-08 -0.081990754932789511 -5.147405131022964e-07 2.5443565798699552e-07 -5.147405131022964e-07 -0.70500044207414581 0.29499931970916471 1.8691719762107797e-06 -1.8124028655641666e-07 1.8691719762107797e-06 -0.081991179508342338 -1.210451882949215e-06 -1.8124028655641666e-07 -1.210451882949215e-06 -0.70500031801566543 0.29500037107413102 2.1286510712311008e-06 2.4029488621124528e-08 2.1286510712311008e-06 -0.081988097668836524 -1.0659046252303739e-06 2.4029488621124528e-08 -1.0659046252303739e-06 -0.70499940311995823 0.29499998101146202 -5.9276943380830071e-07 1.2932888537875442e-07 -5.9276943380830071e-07 -0.08198972828474399 -1.2263239966836537e-06 1.2932888537875442e-07 -1.2263239966836537e-06 -0.70499979022874881 0.29500079060229678 -1.7324860427233025e-06 -1.7908823279899622e-07 -1.7324860427233025e-06 -0.081986028316613002 -7.913043182927737e-07 -1.7908823279899622e-07 -7.913043182927737e-07 -0.70499807264025049 0.29500066655883816 -1.8772955437507205e-06 -3.7229941274308231e-07 -1.8772955437507205e-06 -0.081985937461047209 -8.0123670842535688e-07 -3.7229941274308231e-07 -8.0123670842535688e-07 -0.70499897528428601 0.29499980044681406 -5.4959287577150502e-07 1.3613394189704309e-07 -5.4959287577150502e-07 -0.081989921130827592 -9.3328436889805744e-07 1.3613394189704309e-07 -9.3328436889805744e-07 -0.70500058925166931 0.29500014102017924 -3.515706008216925e-07 1.8733008100291215e-07 -3.515706008216925e-07 -0.081988826016903937 -7.4498954605317635e-07 1.8733008100291215e-07 -7.4498954605317635e-07 -0.7050002576199903 0.29499986654395216 1.1169403275122344e-07 2.5864629341065815e-07 1.1169403275122344e-07 -0.081989703748674758 -3.7366916710857012e-07 2.5864629341065815e-07 -3.7366916710857012e-07 -0.70500012488442065 0.29499976885371759 3.0092410576226913e-08 4.0853347682556773e-07 3.0092410576226913e-08 -0.081989641563324556 -3.8345139707907094e-07 4.0853347682556773e-07 -3.8345139707907094e-07 -0.70500032680920288 0.29499997396979982 -8.0863873026192871e-08 1.449293958177833e-07 -8.0863873026192871e-08 -0.081989871584032259 -3.5158187339234814e-07 1.449293958177833e-07 -3.5158187339234814e-07 -0.70499969951424779 0.29499987728755062 -9.2405185467103782e-09 3.1962708015031982e-07 -9.2405185467103782e-09 -0.081989714110725365 -1.0519634230377051e-07 3.1962708015031982e-07 -1.0519634230377051e-07 -0.70499976954868715 0.29499973177765154 9.7038822475874216e-08 3.2371682628928866e-07 9.7038822475874216e-08 -0.081990273581904971 -5.5012846367219481e-07 3.2371682628928866e-07 -5.5012846367219481e-07 -0.70499997817135518 0.29499999137109933 1.388584229634376e-08 1.6591700191526115e-07 1.388584229634376e-08 -0.081989455610554485 -2.2360401891186044e-07 1.6591700191526115e-07 -2.2360401891186044e-07 -0.70499970830300551 0.2949998898265932 2.607639479096523e-08 2.4673291221244398e-07 2.607639479096523e-08 -0.081989984834539009 -2.4445847213172556e-07 2.4673291221244398e-07 -2.4445847213172556e-07 -0.70499960722052313 0.29500002505828815 1.1823063600015453e-07 2.707909799726238e-07 1.1823063600015453e-07 -0.08198902540642039 -1.6894283538793076e-07 2.707909799726238e-07 -1.6894283538793076e-07 -0.70499986009857984 0.29499988737680172 3.2417020259112558e-08 2.157529037094541e-07 3.2417020259112558e-08 -0.081989452788236772 -2.4625242422970928e-07 2.157529037094541e-07 -2.4625242422970928e-07 -0.70499976244633245 0.29500071894007363 -8.3206415736500634e-08 2.7977791927646933e-07 -8.3206415736500634e-08 -0.081987196742877133 4.2616204043444128e-07 2.7977791927646933e-07 4.2616204043444128e-07 -0.70499899689583501 0.29499983623276382 5.6592004251684851e-08 1.7544493191579136e-07 5.6592004251684851e-08 -0.081989506750472341 -2.1074203088167209e-07 1.7544493191579136e-07 -2.1074203088167209e-07 -0.7049998359425973 0.29499994797680051 1.0500617350728586e-07 1.655565726732533e-07 1.0500617350728586e-07 -0.081989630701095106 -3.9701175724715654e-07 1.655565726732533e-07 -3.9701175724715654e-07 -0.70499975079805033 0.29499975564800196 4.016963803882075e-08 1.1650932163487226e-07 4.016963803882075e-08 -0.081990277488955265 3.5862591285518164e-08 1.1650932163487226e-07 3.5862591285518164e-08 -0.70499991657616823 0.29499968790892672 5.1613283202870831e-08 2.9845116660334736e-07 5.1613283202870831e-08 -0.081990260564777873 -4.4912729557644582e-07 2.9845116660334736e-07 -4.4912729557644582e-07 -0.70500035069124722 0.29499979747095018 4.5995563354531318e-08 7.6076169586158926e-08 4.5995563354531318e-08 -0.081990323903731399 2.0057738137069236e-08 7.6076169586158926e-08 2.0057738137069236e-08 -0.70499985992688474 0.29499990045422908 9.342335144414498e-09 1.5838568190318369e-07 9.342335144414498e-09 -0.081989855110234267 -1.7496018900331478e-07 1.5838568190318369e-07 -1.7496018900331478e-07 -0.70499976380195228 0.29499985541163321 -3.3452661254840281e-08 1.8426698877860304e-07 -3.3452661254840281e-08 -0.081990177473319381 -2.0896587016316914e-07 1.8426698877860304e-07 -2.0896587016316914e-07 -0.70499966677837156 0.29499954802352357 1.9242567470751668e-07 1.9566492004408076e-07 1.9242567470751668e-07 -0.081990335962550787 6.1888629332429446e-08 1.9566492004408076e-07 6.1888629332429446e-08 -0.70499985171701285 0.29499990619878602 -1.9241011732033369e-08 1.4127457081958283e-07 -1.9241011732033369e-08 -0.081990178329737207 -2.4157240119393464e-07 1.4127457081958283e-07 -2.4157240119393464e-07 -0.70499958529572559 0.29500000227867462 -1.1814488095136363e-07 1.2429663320823181e-07 -1.1814488095136363e-07 -0.081989829093404354 -2.8347724678745578e-07 1.2429663320823181e-07 -2.8347724678745578e-07 -0.70499959960931458 0.2949995543588888 2.1804926109229408e-07 2.255721609500938e-07 2.1804926109229408e-07 -0.081990212652678474 6.7447863960623522e-08 2.255721609500938e-07 6.7447863960623522e-08 -0.70499990362287512 0.29499975876121709 4.7830170347527176e-08 9.98186767686704e-08 4.7830170347527176e-08 -0.081990206274710098 2.1248843018462082e-08 9.98186767686704e-08 2.1248843018462082e-08 -0.70499993288926177 0.29500006830446812 5.701478251288659e-07 3.213422397063681e-07 5.701478251288659e-07 -0.081988667032813822 5.6055248576214467e-07 3.213422397063681e-07 5.6055248576214467e-07 -0.70499918001465467 0.2949997918663273 1.0517431022627347e-07 1.293995910423007e-09 1.0517431022627347e-07 -0.081990430823971616 2.6036399236595287e-07 1.293995910423007e-09 2.6036399236595287e-07 -0.70499962789664528 0.29499966300188518 5.9265196531725321e-08 1.4354191169019259e-07 5.9265196531725321e-08 -0.081990289833340668 1.2278658534370379e-08 1.4354191169019259e-07 1.2278658534370379e-08 -0.70499989991326029 0.2949997306070431 7.9398332041615702e-08 2.422457923145771e-08 7.9398332041615702e-08 -0.081990290131726984 1.9009797047608856e-07 2.422457923145771e-08 1.9009797047608856e-07 -0.70499956184541901 0.29499965632972458 5.5051029292221047e-08 1.2784710967661539e-07 5.5051029292221047e-08 -0.081990219570368783 8.8748113302727916e-09 1.2784710967661539e-07 8.8748113302727916e-09 -0.70499990522786637 0.29499962476110431 3.7132686692319843e-08 1.4380021595705728e-07 3.7132686692319843e-08 -0.081990248817387035 2.676553556568706e-08 1.4380021595705728e-07 2.676553556568706e-08 -0.70499993612271039 0.29499967362639762 5.7636213059348269e-09 1.2896599366207795e-07 5.7636213059348269e-09 -0.081990090347540012 9.1475527819184776e-08 1.2896599366207795e-07 9.1475527819184776e-08 -0.70499985065694437 0.2949996980466939 2.6180918388110796e-08 2.1930576188378126e-07 2.6180918388110796e-08 -0.081990241014082366 -1.8048255112645961e-08 2.1930576188378126e-07 -1.8048255112645961e-08 -0.70499973069904831 0.29499975199503498 -4.0228987022759631e-08 2.1967680574608295e-07 -4.0228987022759631e-08 -0.081990794538238765 8.6326892453914006e-08 2.1967680574608295e-07 8.6326892453914006e-08 -0.70499998563832489 0.2949999906037481 -6.0935742487267073e-08 2.1519144492720965e-07 -6.0935742487267073e-08 -0.081989819257643093 4.1848460252680297e-08 2.1519144492720965e-07 4.1848460252680297e-08 -0.70499975164992823 0.2949998408273502 1.0402805944356233e-08 1.5526977059643343e-07 1.0402805944356233e-08 -0.081990019579616713 -1.418933573416048e-08 1.5526977059643343e-07 -1.418933573416048e-08 -0.70499989747979708 0.29499979407103155 4.3809134477352784e-08 1.023120934640076e-07 4.3809134477352784e-08 -0.08199006242679352 6.6235101431333376e-08 1.023120934640076e-07 6.6235101431333376e-08 -0.70499989495857207 0.2949997368110468 5.3145636931928857e-08 2.1265410432569354e-07 5.3145636931928857e-08 -0.081990212454984335 -1.6541877645437353e-08 2.1265410432569354e-07 -1.6541877645437353e-08 -0.70499972227559859 0.29499959763755013 -3.3909782925697235e-07 1.0830983576681774e-07 -3.3909782925697235e-07 -0.081990296791692119 -1.5318144530596101e-07 1.0830983576681774e-07 -1.5318144530596101e-07 -0.70499997497349209 0.29499983207868552 8.0354543366028682e-08 2.3482954680797974e-07 8.0354543366028682e-08 -0.081990242689195747 -6.8001337243453475e-08 2.3482954680797974e-07 -6.8001337243453475e-08 -0.70499986317439722 0.29500003571770506 -7.2386924636496469e-07 6.3599285837767638e-08 -7.2386924636496469e-07 -0.081988864812164164 -2.1682642503684235e-07 6.3599285837767638e-08 -2.1682642503684235e-07 -0.70499968309615779 0.29499987587196208 -7.6557105063966987e-08 2.0522405819178857e-07 -7.6557105063966987e-08 -0.081989182516275294 5.5854595788773498e-08 2.0522405819178857e-07 5.5854595788773498e-08 -0.70499964526038372 0.29499987221782797 -3.8624947431956044e-07 -3.3768130514033601e-09 -3.8624947431956044e-07 -0.081989139648425691 7.5330189752698118e-08 -3.3768130514033601e-09 7.5330189752698118e-08 -0.70499979485255171 0.29499978217272438 -1.5936119188398203e-07 2.799200973235827e-07 -1.5936119188398203e-07 -0.081989757734460433 -8.2849124338757463e-08 2.799200973235827e-07 -8.2849124338757463e-08 -0.70499998472073089 0.2949996467001606 -3.6085163088161761e-07 1.4555481264721948e-08 -3.6085163088161761e-07 -0.081989017158234145 -2.2446404887577209e-07 1.4555481264721948e-08 -2.2446404887577209e-07 -0.70499978738224245 0.29499980420608113 -4.2785140569751763e-07 -8.6859542891559727e-08 -4.2785140569751763e-07 -0.08198891831594296 -1.2492143697251379e-07 -8.6859542891559727e-08 -1.2492143697251379e-07 -0.70499964594594755 0.2949996947014869 -3.3485836984178551e-07 1.2248553060700829e-07 -3.3485836984178551e-07 -0.081989233187303556 -3.3797847853733742e-09 1.2248553060700829e-07 -3.3797847853733742e-09 -0.70499996264259712 0.29499969847331575 -4.2131279507505435e-07 8.7175158980379308e-08 -4.2131279507505435e-07 -0.081990157206982522 -1.4581103058297629e-07 8.7175158980379308e-08 -1.4581103058297629e-07 -0.70499998340534809 0.29499968325451276 -2.9176260971128035e-07 5.4862776988073847e-08 -2.9176260971128035e-07 -0.081988850779282307 1.4061673803134056e-07 5.4862776988073847e-08 1.4061673803134056e-07 -0.70499991398727957 0.2949997573934437 -1.8545575476259771e-07 3.1759308993795088e-07 -1.8545575476259771e-07 -0.081989758608029484 -9.5704106861660421e-08 3.1759308993795088e-07 -9.5704106861660421e-08 -0.70500018816196341 0.295000199197826 -3.4713361667854751e-07 4.2724460375120898e-07 -3.4713361667854751e-07 -0.081990153838749358 -4.4754114414402579e-07 4.2724460375120898e-07 -4.4754114414402579e-07 -0.70499990118604194 0.29499973224286091 -2.6853470176638868e-07 7.7113284091545609e-08 -2.6853470176638868e-07 -0.081989347550634473 -2.0907547182424935e-07 7.7113284091545609e-08 -2.0907547182424935e-07 -0.70500039523477787 0.29500017183860122 -2.7662993424355816e-07 5.5793711466189944e-07 -2.7662993424355816e-07 -0.081989581527128541 -9.2367415938099384e-08 5.5793711466189944e-07 -9.2367415938099384e-08 -0.70499944681504001 0.29499984709656391 -2.0542085070102205e-07 2.550451688732025e-07 -2.0542085070102205e-07 -0.081989770434236789 -3.5394201125527047e-08 2.550451688732025e-07 -3.5394201125527047e-08 -0.70500019104802769 0.29500012718711854 -2.4947463434427987e-07 5.9181572158173434e-07 -2.4947463434427987e-07 -0.081989579866433571 -1.5851538659461539e-07 5.9181572158173434e-07 -1.5851538659461539e-07 -0.70499964109473456 0.29499991503542505 -8.4248308456192391e-08 2.1258239879529128e-07 -8.4248308456192391e-08 -0.081989420226441012 -3.0061060463104639e-07 2.1258239879529128e-07 -3.0061060463104639e-07 -0.7049997586157255 0.29499965826794794 2.1769548542905065e-07 1.8829210429727183e-07 2.1769548542905065e-07 -0.081990400186195717 -4.805750579706114e-07 1.8829210429727183e-07 -4.805750579706114e-07 -0.70499987871177205 0.29500005281389474 1.7513904054324101e-07 4.3052884840522054e-07 1.7513904054324101e-07 -0.081989274628927911 -2.4235007889394922e-07 4.3052884840522054e-07 -2.4235007889394922e-07 -0.70499965301169976 0.29500020725348186 3.1552282576905836e-08 1.3106414287200607e-07 3.1552282576905836e-08 -0.081989312266117498 -3.0585036414620959e-07 1.3106414287200607e-07 -3.0585036414620959e-07 -0.70499969951502184 0.29499984231903897 1.5434444043352745e-07 3.2027909360743401e-07 1.5434444043352745e-07 -0.081990398126326136 -6.2428358249544402e-07 3.2027909360743401e-07 -6.2428358249544402e-07 -0.70499985721793834 0.29500003439240219 -2.5918272325538308e-09 1.7249843708988521e-07 -2.5918272325538308e-09 -0.0819892726306235 -2.380653522093823e-07 1.7249843708988521e-07 -2.380653522093823e-07 -0.70499967658972906 0.29500013887294724 2.9415883284867877e-07 3.3716991948429254e-07 2.9415883284867877e-07 -0.081988986880704218 -6.8164968070050236e-07 3.3716991948429254e-07 -6.8164968070050236e-07 -0.70499987815961962 0.29499996095360587 -8.685269024127182e-08 2.2650419027533952e-07 -8.685269024127182e-08 -0.081989893411996861 6.9239249445018913e-08 2.2650419027533952e-07 6.9239249445018913e-08 -0.7050001473766504 0.29500054348682536 4.8245653725780319e-09 2.3226532341880102e-07 4.8245653725780319e-09 -0.081987584458589002 3.0527059680096613e-07 2.3226532341880102e-07 3.0527059680096613e-07 -0.70499956263593244 0.29499983071955171 -1.2385330555194542e-08 1.9783076476986849e-07 -1.2385330555194542e-08 -0.081989673754080616 -5.1029250197620613e-07 1.9783076476986849e-07 -5.1029250197620613e-07 -0.70499969709701471 0.29499987275239103 -1.0496434545165464e-07 2.2965093271487547e-07 -1.0496434545165464e-07 -0.081989642691643105 6.7790083102536869e-08 2.2965093271487547e-07 6.7790083102536869e-08 -0.70500011495122328 0.29500068024429932 8.4591089099816664e-07 1.908161928465546e-08 8.4591089099816664e-07 -0.081986385898587311 -9.8649397917149884e-07 1.908161928465546e-08 -9.8649397917149884e-07 -0.70499880635954382 0.29499949684773102 7.2532899142530974e-07 2.4190959752035113e-07 7.2532899142530974e-07 -0.081990750822588054 3.0306912077726622e-06 2.4190959752035113e-07 3.0306912077726622e-06 -0.70500089089621443 0.29499974856254313 6.0155383926426458e-07 4.0130488698428279e-07 6.0155383926426458e-07 -0.081990316936024099 -7.2311390325249802e-07 4.0130488698428279e-07 -7.2311390325249802e-07 -0.70500012419440106 0.29499966797696892 1.1401312122089881e-06 -4.347700177653735e-08 1.1401312122089881e-06 -0.081988972705546531 -2.0977850678782772e-07 -4.347700177653735e-08 -2.0977850678782772e-07 -0.70500110905654811 0.29499996430530656 9.8407677087046002e-07 -1.2090664058828082e-07 9.8407677087046002e-07 -0.081987932784334638 8.4287052448672739e-08 -1.2090664058828082e-07 8.4287052448672739e-08 -0.70500083881208986 0.29500099969059002 2.3436546494849639e-06 -1.3873686355303505e-07 2.3436546494849639e-06 -0.081984861287043631 1.5326337874377316e-06 -1.3873686355303505e-07 1.5326337874377316e-06 -0.70499799427093324 0.2950011696557312 3.1860784624277507e-06 2.3586578162815286e-07 3.1860784624277507e-06 -0.08198249574711014 1.2538356963798236e-07 2.3586578162815286e-07 1.2538356963798236e-07 -0.70499951000346783 0.29500145209963535 3.5610360289813818e-06 -3.2086608037218411e-07 3.5610360289813818e-06 -0.081983854071618817 -7.9618957338212226e-07 -3.2086608037218411e-07 -7.9618957338212226e-07 -0.70499839053527558 0.29499913607193895 2.091357688093392e-06 -4.24408833410439e-07 2.091357688093392e-06 -0.081991403437191135 -7.5527550502663132e-07 -4.24408833410439e-07 -7.5527550502663132e-07 -0.70500032580132732 0.29499968107589641 1.0443765446796704e-06 -4.5411974392006726e-07 1.0443765446796704e-06 -0.081990628742743307 -6.2519489663070971e-07 -4.5411974392006726e-07 -6.2519489663070971e-07 -0.7050000582143463 0.29499962971704391 -8.5955461665419394e-07 -2.7237929023371521e-07 -8.5955461665419394e-07 -0.081988964059422076 1.4824965215431973e-06 -2.7237929023371521e-07 1.4824965215431973e-06 -0.7050003032691412 0.29499926571891238 -2.5931727333137377e-07 3.9523815509312499e-07 -2.5931727333137377e-07 -0.081993513419798547 5.0452484301466427e-07 3.9523815509312499e-07 5.0452484301466427e-07 -0.70500119277878115 0.2949996232753917 -2.4203874455674217e-06 -3.4005596116770676e-09 -2.4203874455674217e-06 -0.081989380541341472 -2.8996191430707974e-06 -3.4005596116770676e-09 -2.8996191430707974e-06 -0.70500032888763431 0.29500018911130671 -7.7835824266618884e-07 1.0859325971779299e-07 -7.7835824266618884e-07 -0.081988715136340817 1.5731758920556338e-06 1.0859325971779299e-07 1.5731758920556338e-06 -0.7049997372797574 0.29500002165240535 1.959686312098418e-06 -4.3161070828467984e-08 1.959686312098418e-06 -0.08199163418564176 -1.0096678477733434e-06 -4.3161070828467984e-08 -1.0096678477733434e-06 -0.70500005796743426 0.29500096897272943 -4.7770686594843329e-07 2.1495597046436443e-07 -4.7770686594843329e-07 -0.081987009861516857 -4.5819658067713931e-08 2.1495597046436443e-07 -4.5819658067713931e-08 -0.70499966078567677 0.2949999356630143 -1.1853281194487525e-06 -3.69857811488572e-07 -1.1853281194487525e-06 -0.081988242539735245 -3.8475531299875243e-06 -3.69857811488572e-07 -3.8475531299875243e-06 -0.70499940920157877 0.29500040305406916 2.3072772600142827e-07 1.529630944130389e-07 2.3072772600142827e-07 -0.081987871907685195 -4.5322330000097111e-08 1.529630944130389e-07 -4.5322330000097111e-08 -0.70499993867769462 0.29500054576472495 -3.7594906868458525e-07 3.400124197090737e-07 -3.7594906868458525e-07 -0.081988820235704973 -1.2023440453257095e-06 3.400124197090737e-07 -1.2023440453257095e-06 -0.70499993077724055 0.29499959501592449 -2.8251174962960577e-06 5.5042800317650631e-08 -2.8251174962960577e-06 -0.081988391306749342 -2.5570087754944737e-06 5.5042800317650631e-08 -2.5570087754944737e-06 -0.70500011046624289 0.29500053563145417 -5.4726772764528681e-07 2.8093134396556252e-07 -5.4726772764528681e-07 -0.081988942883554017 1.4542100097436617e-06 2.8093134396556252e-07 1.4542100097436617e-06 -0.70499987519418972 0.29499978222511086 -8.2893793273458443e-07 -2.7316034725832772e-08 -8.2893793273458443e-07 -0.081990706349362064 -7.2826786934321319e-08 -2.7316034725832772e-08 -7.2826786934321319e-08 -0.70499967817129305 0.29499968998107035 -2.3665968942736495e-07 1.7157294895930875e-07 -2.3665968942736495e-07 -0.081990815217937357 -1.0069120193190173e-07 1.7157294895930875e-07 -1.0069120193190173e-07 -0.70499973185994669 0.29500028365982156 -7.419323624934523e-07 3.6381481984329445e-07 -7.419323624934523e-07 -0.081989875872817919 -4.7137093039939515e-07 3.6381481984329445e-07 -4.7137093039939515e-07 -0.7049992537716796 0.29500039773601061 -7.4376482575375108e-07 1.9883469648540597e-07 -7.4376482575375108e-07 -0.081988855989345688 1.6100445312527967e-06 1.9883469648540597e-07 1.6100445312527967e-06 -0.70499967430606159 0.29500011263765735 3.7321315305764466e-08 -2.0024480873459538e-07 3.7321315305764466e-08 -0.081985149150307191 -1.1931681169752295e-06 -2.0024480873459538e-07 -1.1931681169752295e-06 -0.70500091563842249 0.29500077912534584 -4.1884804626884924e-07 -4.5114159297199308e-08 -4.1884804626884924e-07 -0.081985658924839111 -1.5478791401957182e-06 -4.5114159297199308e-08 -1.5478791401957182e-06 -0.70500092272277026 0.29499928149124455 -5.065187360342173e-07 -7.223589623683857e-08 -5.065187360342173e-07 -0.081990050683535598 -2.3306919416654637e-07 -7.223589623683857e-08 -2.3306919416654637e-07 -0.70499974139286259 0.29499966265926136 -5.193147954359338e-07 -1.3664919640277162e-07 -5.193147954359338e-07 -0.081988240295045922 -3.2582708431316831e-07 -1.3664919640277162e-07 -3.2582708431316831e-07 -0.70499948228464149 0.29500025954416442 -2.3375111081840367e-06 -5.9935049057102674e-07 -2.3375111081840367e-06 -0.081987718214437511 -7.0788127604082263e-07 -5.9935049057102674e-07 -7.0788127604082263e-07 -0.70500059942792159 0.29500010293946244 4.6431507921976916e-07 3.238324863819031e-07 4.6431507921976916e-07 -0.081989839267816639 1.3602819566305158e-06 3.238324863819031e-07 1.3602819566305158e-06 -0.70499951044974229 0.29499984884582214 -1.0844892105028419e-06 1.9211372048744124e-08 -1.0844892105028419e-06 -0.081990552648311787 -5.9935199403504669e-07 1.9211372048744124e-08 -5.9935199403504669e-07 -0.70500017877085241 0.29499850911522563 -2.4410501894157855e-06 -2.8998989476392012e-07 -2.4410501894157855e-06 -0.081992208194427874 -7.6523224679103663e-07 -2.8998989476392012e-07 -7.6523224679103663e-07 -0.705001142235814 0.29499893025185092 -2.7034726079221138e-06 6.7729960750995133e-08 -2.7034726079221138e-06 -0.0819920429762791 -1.2336138693336274e-06 6.7729960750995133e-08 -1.2336138693336274e-06 -0.70499969174077992 0.29499938548795657 -6.0139227551555243e-07 -4.6712225287848241e-07 -6.0139227551555243e-07 -0.081990467252854748 1.7209266578444016e-07 -4.6712225287848241e-07 1.7209266578444016e-07 -0.70500105245140965 0.29499965044279663 -2.1136501927386029e-06 -2.8043494859630869e-08 -2.1136501927386029e-06 -0.0819877613208988 2.3971055501670335e-06 -2.8043494859630869e-08 2.3971055501670335e-06 -0.70500038862848213 0.294999609447121 8.1320450259869107e-08 3.5288300487268387e-07 8.1320450259869107e-08 -0.081990953812408285 -1.2666823236140434e-07 3.5288300487268387e-07 -1.2666823236140434e-07 -0.70499989439882005 0.29499858862188544 7.4078875432189818e-07 1.4656758412501247e-07 7.4078875432189818e-07 -0.08199519963488805 -9.7334001969429096e-09 1.4656758412501247e-07 -9.7334001969429096e-09 -0.70500037753856071 0.29499892536657529 1.3409910473227606e-06 1.6348400910803917e-07 1.3409910473227606e-06 -0.081993769538720937 1.5899852843781481e-06 1.6348400910803917e-07 1.5899852843781481e-06 -0.70500044507060433 0.29499958559955253 2.1981929166269633e-07 1.6120126078433827e-07 2.1981929166269633e-07 -0.081990922105602326 -1.0190516297470253e-07 1.6120126078433827e-07 -1.0190516297470253e-07 -0.70499976598803027 0.29499950636467087 3.1316376117160672e-07 2.7785514356004626e-07 3.1316376117160672e-07 -0.081990991629391941 -3.2793840798461815e-07 2.7785514356004626e-07 -3.2793840798461815e-07 -0.70499958514127758 0.29500099945300606 3.2857345402539135e-06 -7.4679874839667093e-07 3.2857345402539135e-06 -0.081982604470112963 2.6207616509177356e-06 -7.4679874839667093e-07 2.6207616509177356e-06 -0.70499952022793044 0.29500036863750945 4.1433726222677014e-06 -8.7464422093841421e-07 4.1433726222677014e-06 -0.081986004059603546 8.596832611340588e-07 -8.7464422093841421e-07 8.596832611340588e-07 -0.70499884185995132 0.29500004287648407 6.828145687194113e-07 5.9978093114310127e-07 6.828145687194113e-07 -0.081987992436547197 3.897792022478086e-08 5.9978093114310127e-07 3.897792022478086e-08 -0.70499958783403116 0.29499994699324783 4.4932200618169458e-06 -5.151412905135544e-07 4.4932200618169458e-06 -0.081985726128660619 2.6354869020472904e-07 -5.151412905135544e-07 2.6354869020472904e-07 -0.7050012283712257 0.29499876218774079 1.2129712973576796e-06 -1.4765723732601543e-07 1.2129712973576796e-06 -0.081988729767450863 -2.1156301062141836e-06 -1.4765723732601543e-07 -2.1156301062141836e-06 -0.70500044293295261 0.29499909679289005 2.0895684406506765e-06 5.2058221589046383e-07 2.0895684406506765e-06 -0.0819915688874161 -1.1970070020739243e-06 5.2058221589046383e-07 -1.1970070020739243e-06 -0.70500019237972511 
</DataArray>
</CellData>
</Piece>
</UnstructuredGrid>
</VTKFile>
