<?xml version="1.0"?>
<VTKFile type="UnstructuredGrid" version="0.1" byte_order="LittleEndian">
<UnstructuredGrid>
<Piece NumberOfPoints="2876" NumberOfCells="719">
<Points>
<DataArray type="Float64" NumberOfComponents="3" format="ascii">
0.31610726166346748 0.18804489794572149 0 0.16929708765618309 0.30074819035915368 0 0.14641016151452901 0.14641016151487049 0 0.312576188949791 0.31458070521983672 0.3125761889497819 0 0.20000000000083221 0 0 0 0 0.14641016151452901 0.14641016151487049 0 0 0.14641016151432179 0.14641016151432179 0 0 0 0.19999999999955789 0 0 0.14641016151452901 0.14641016151487049 0 0.1464101615145241 0 0.14641016151486561 0 0.14641016151432179 0.14641016151432179 0 0 0.20000000000083221 0 0 0 0.1464101615145241 0 0.14641016151486561 0 0.14641016151432179 0.14641016151432179 0 0.30074819035869899 0.1692970876565193 0 0.18804489794560331 0.31610726166461361 0.312576188949791 0.31458070521983672 0.3125761889497819 0.31578456131778371 0 0.1865278143482666 0.1464101615145241 0 0.14641016151486561 0.16938214347656569 0 0.30011357660650623 0.312576188949791 0.31458070521983672 0.3125761889497819 0 0.14641016151432179 0.14641016151432179 0 0 0 0.14641016151452901 0.14641016151487049 0 0.1464101615145241 0 0.14641016151486561 0.14641016151452901 0.14641016151487049 0 0.1464101615145241 0 0.14641016151486561 0.31578456131778371 0 0.1865278143482666 0.312576188949791 0.31458070521983672 0.3125761889497819 0.14641016151452901 0.14641016151487049 0 0 0.30074819035869899 0.1692970876565193 0 0.14641016151432179 0.14641016151432179 0.312576188949791 0.31458070521983672 0.3125761889497819 0.14641016151452901 0.14641016151487049 0 0 0.14641016151432179 0.14641016151432179 0.1464101615145241 0 0.14641016151486561 0.312576188949791 0.31458070521983672 0.3125761889497819 0 0.14641016151432179 0.14641016151432179 0.16938214347656569 0 0.30011357660650623 0.1464101615145241 0 0.14641016151486561 0.312576188949791 0.31458070521983672 0.3125761889497819 0.1464101615145241 0 0.14641016151486561 0 0.14641016151432179 0.14641016151432179 0 0 0.20000000000083221 0.16938214347656569 0 0.30011357660650623 0 0.18804489794560331 0.31610726166461361 0 0 0.20000000000083221 0 0.14641016151432179 0.14641016151432179 0.16938214347656569 0 0.30011357660650623 0 0.14641016151432179 0.14641016151432179 0.14641016151452901 0.14641016151487049 0 0 0.20000000000083221 0 0 0.30074819035869899 0.1692970876565193 0 0.30074819035869899 0.1692970876565193 0.14641016151452901 0.14641016151487049 0 0 0.20000000000083221 0 0.16929708765618309 0.30074819035915368 0 0.19999999999955789 0 0 0.14641016151452901 0.14641016151487049 0 0.31578456131778371 0 0.1865278143482666 0.31610726166346748 0.18804489794572149 0 0.19999999999955789 0 0 0.14641016151452901 0.14641016151487049 0 0.1464101615145241 0 0.14641016151486561 0.31578456131778371 0 0.1865278143482666 0.31578456131778371 0 0.1865278143482666 0.3999999999989749 0 0 0.19999999999955789 0 0 0.31610726166346748 0.18804489794572149 0 0.31578456131778371 0 0.1865278143482666 0.31610726166346748 0.18804489794572149 0 0.14641016151452901 0.14641016151487049 0 0.312576188949791 0.31458070521983672 0.3125761889497819 0.31610726166346748 0.18804489794572149 0 0.312576188949791 0.31458070521983672 0.3125761889497819 0.31578456131778371 0 0.1865278143482666 0.5003997205654479 0.21136633249797621 0.2258422409314382 0.31610726166346748 0.18804489794572149 0 0.49391845158624981 0 0.1323760430705655 0.50966790549376417 0.16275515618023731 0 0.5003997205654479 0.21136633249797621 0.2258422409314382 0.31610726166346748 0.18804489794572149 0 0.50966790549376417 0.16275515618023731 0 0.45812322962036273 0.31024977578535839 0 0.5003997205654479 0.21136633249797621 0.2258422409314382 0.49391845158624981 0 0.1323760430705655 0.3999999999989749 0 0 0.31610726166346748 0.18804489794572149 0 0.50966790549376417 0.16275515618023731 0 0.49391845158624981 0 0.1323760430705655 0.3999999999989749 0 0 0.31578456131778371 0 0.1865278143482666 0.31610726166346748 0.18804489794572149 0 0.31578456131778371 0 0.1865278143482666 0.47688326899416439 0 0.31741132792405607 0.49391845158624981 0 0.1323760430705655 0.5003997205654479 0.21136633249797621 0.2258422409314382 0.31610726166346748 0.18804489794572149 0 0.31578456131778371 0 0.1865278143482666 0.49391845158624981 0 0.1323760430705655 0.5003997205654479 0.21136633249797621 0.2258422409314382 0.31030302876556398 0 0.54179813558513157 0.50073570207385831 0.24848280280289631 0.52886631355986169 0.32146143392436449 0 0.38738071487621961 0.22088738526309029 0.22111069116742441 0.50004796911802929 0.32146143392436449 0 0.38738071487621961 0.312576188949791 0.31458070521983672 0.3125761889497819 0.16938214347656569 0 0.30011357660650623 0.22088738526309029 0.22111069116742441 0.50004796911802929 0.32146143392436449 0 0.38738071487621961 0.50073570207385831 0.24848280280289631 0.52886631355986169 0.312576188949791 0.31458070521983672 0.3125761889497819 0.22088738526309029 0.22111069116742441 0.50004796911802929 0.32146143392436449 0 0.38738071487621961 0.50073570207385831 0.24848280280289631 0.52886631355986169 0.47688326899416439 0 0.31741132792405607 0.5003997205654479 0.21136633249797621 0.2258422409314382 0.32146143392436449 0 0.38738071487621961 0.312576188949791 0.31458070521983672 0.3125761889497819 0.50073570207385831 0.24848280280289631 0.52886631355986169 0.5003997205654479 0.21136633249797621 0.2258422409314382 0.32146143392436449 0 0.38738071487621961 0.31578456131778371 0 0.1865278143482666 0.16938214347656569 0 0.30011357660650623 0.312576188949791 0.31458070521983672 0.3125761889497819 0.31578456131778371 0 0.1865278143482666 0.312576188949791 0.31458070521983672 0.3125761889497819 0.32146143392436449 0 0.38738071487621961 0.5003997205654479 0.21136633249797621 0.2258422409314382 0.31578456131778371 0 0.1865278143482666 0.32146143392436449 0 0.38738071487621961 0.47688326899416439 0 0.31741132792405607 0.5003997205654479 0.21136633249797621 0.2258422409314382 0.31030302876556398 0 0.54179813558513157 0.50000000000250922 0 0.48038475773043671 0.32146143392436449 0 0.38738071487621961 0.50073570207385831 0.24848280280289631 0.52886631355986169 0.32146143392436449 0 0.38738071487621961 0.50000000000250922 0 0.48038475773043671 0.47688326899416439 0 0.31741132792405607 0.50073570207385831 0.24848280280289631 0.52886631355986169 0.16370661204827031 0 0.4886650857430957 0.31030302876556398 0 0.54179813558513157 0.32146143392436449 0 0.38738071487621961 0.22088738526309029 0.22111069116742441 0.50004796911802929 0.16370661204827031 0 0.4886650857430957 0.32146143392436449 0 0.38738071487621961 0.16938214347656569 0 0.30011357660650623 0.22088738526309029 0.22111069116742441 0.50004796911802929 0.16938214347656569 0 0.30011357660650623 0 0.14641016151432179 0.14641016151432179 0 0.18804489794560331 0.31610726166461361 0.312576188949791 0.31458070521983672 0.3125761889497819 0 0.18804489794560331 0.31610726166461361 0.16370661204827031 0 0.4886650857430957 0.16938214347656569 0 0.30011357660650623 0.22088738526309029 0.22111069116742441 0.50004796911802929 0 0.18804489794560331 0.31610726166461361 0.16938214347656569 0 0.30011357660650623 0.312576188949791 0.31458070521983672 0.3125761889497819 0.22088738526309029 0.22111069116742441 0.50004796911802929 0 0 0.40000000000166441 0 0 0.60000000000138687 0.16370661204827031 0 0.4886650857430957 0 0.16275515618034081 0.50966790549591257 0 0 0.40000000000166441 0 0.18804489794560331 0.31610726166461361 0.16370661204827031 0 0.4886650857430957 0.16938214347656569 0 0.30011357660650623 0.16370661204827031 0 0.4886650857430957 0 0.18804489794560331 0.31610726166461361 0 0 0.40000000000166441 0 0.16275515618034081 0.50966790549591257 0 0.18804489794560331 0.31610726166461361 0 0 0.40000000000166441 0 0 0.20000000000083221 0.16938214347656569 0 0.30011357660650623 0 0.18804489794560331 0.31610726166461361 0 0.16275515618034081 0.50966790549591257 0.16370661204827031 0 0.4886650857430957 0.22088738526309029 0.22111069116742441 0.50004796911802929 0 0.18804489794560331 0.31610726166461361 0 0.31024977578556651 0.45812322962166352 0 0.16275515618034081 0.50966790549591257 0.22088738526309029 0.22111069116742441 0.50004796911802929 0 0.30074819035869899 0.1692970876565193 0 0.39615100178029522 0.32925244736138171 0 0.18804489794560331 0.31610726166461361 0.312576188949791 0.31458070521983672 0.3125761889497819 0 0.31024977578556651 0.45812322962166352 0.312576188949791 0.31458070521983672 0.3125761889497819 0.24769234054476261 0.52242103280823293 0.45098450226372488 0.22088738526309029 0.22111069116742441 0.50004796911802929 0 0.18804489794560331 0.31610726166461361 0 0.39615100178029522 0.32925244736138171 0 0.31024977578556651 0.45812322962166352 0.312576188949791 0.31458070521983672 0.3125761889497819 0 0.39615100178029522 0.32925244736138171 0.24769234054476261 0.52242103280823293 0.45098450226372488 0.312576188949791 0.31458070521983672 0.3125761889497819 0.22345881830598399 0.5062398304147856 0.22345881830602041 0 0.31024977578556651 0.45812322962166352 0.312576188949791 0.31458070521983672 0.3125761889497819 0 0.39615100178029522 0.32925244736138171 0.24769234054476261 0.52242103280823293 0.45098450226372488 0 0.30074819035869899 0.1692970876565193 0 0.39615100178029522 0.32925244736138171 0.312576188949791 0.31458070521983672 0.3125761889497819 0.22345881830598399 0.5062398304147856 0.22345881830602041 0 0.18804489794560331 0.31610726166461361 0.312576188949791 0.31458070521983672 0.3125761889497819 0 0.31024977578556651 0.45812322962166352 0.22088738526309029 0.22111069116742441 0.50004796911802929 0 0.31024977578556651 0.45812322962166352 0 0.39615100178029522 0.32925244736138171 0 0.50000000000237477 0.51961524226909872 0.24769234054476261 0.52242103280823293 0.45098450226372488 0.50000000000001332 0.49999999999999561 0.49999999999999561 0.50073570207385831 0.24848280280289631 0.52886631355986169 0.312576188949791 0.31458070521983672 0.3125761889497819 0.5004045312576143 0.47050700646456922 0.24963111222780321 0.24769234054476261 0.52242103280823293 0.45098450226372488 0.5004045312576143 0.47050700646456922 0.24963111222780321 0.312576188949791 0.31458070521983672 0.3125761889497819 0.22345881830598399 0.5062398304147856 0.22345881830602041 0.312576188949791 0.31458070521983672 0.3125761889497819 0.5004045312576143 0.47050700646456922 0.24963111222780321 0.50073570207385831 0.24848280280289631 0.52886631355986169 0.5003997205654479 0.21136633249797621 0.2258422409314382 0.50000000000001332 0.49999999999999561 0.49999999999999561 0.24769234054476261 0.52242103280823293 0.45098450226372488 0.312576188949791 0.31458070521983672 0.3125761889497819 0.50073570207385831 0.24848280280289631 0.52886631355986169 0.312576188949791 0.31458070521983672 0.3125761889497819 0.24769234054476261 0.52242103280823293 0.45098450226372488 0.50000000000001332 0.49999999999999561 0.49999999999999561 0.5004045312576143 0.47050700646456922 0.24963111222780321 0.312576188949791 0.31458070521983672 0.3125761889497819 0.50073570207385831 0.24848280280289631 0.52886631355986169 0.24769234054476261 0.52242103280823293 0.45098450226372488 0.22088738526309029 0.22111069116742441 0.50004796911802929 0.32925244736090059 0.39615100178043078 0 0.312576188949791 0.31458070521983672 0.3125761889497819 0.45812322962036273 0.31024977578535839 0 0.5004045312576143 0.47050700646456922 0.24963111222780321 0.32925244736090059 0.39615100178043078 0 0.5004045312576143 0.47050700646456922 0.24963111222780321 0.32446581821364329 0.60020898676454815 0 0.22345881830598399 0.5062398304147856 0.22345881830602041 0.45812322962036273 0.31024977578535839 0 0.5004045312576143 0.47050700646456922 0.24963111222780321 0.312576188949791 0.31458070521983672 0.3125761889497819 0.5003997205654479 0.21136633249797621 0.2258422409314382 0.45812322962036273 0.31024977578535839 0 0.32925244736090059 0.39615100178043078 0 0.31610726166346748 0.18804489794572149 0 0.312576188949791 0.31458070521983672 0.3125761889497819 0.16929708765618309 0.30074819035915368 0 0.312576188949791 0.31458070521983672 0.3125761889497819 0.32925244736090059 0.39615100178043078 0 0.22345881830598399 0.5062398304147856 0.22345881830602041 0.31610726166346748 0.18804489794572149 0 0.45812322962036273 0.31024977578535839 0 0.312576188949791 0.31458070521983672 0.3125761889497819 0.5003997205654479 0.21136633249797621 0.2258422409314382 0.32925244736090059 0.39615100178043078 0 0.312576188949791 0.31458070521983672 0.3125761889497819 0.5004045312576143 0.47050700646456922 0.24963111222780321 0.22345881830598399 0.5062398304147856 0.22345881830602041 0.32925244736090059 0.39615100178043078 0 0.16929708765618309 0.30074819035915368 0 0.31610726166346748 0.18804489794572149 0 0.312576188949791 0.31458070521983672 0.3125761889497819 0.32446581821364329 0.60020898676454815 0 0.32925244736090059 0.39615100178043078 0 0.51961524226956368 0.5000000000025091 0 0.5004045312576143 0.47050700646456922 0.24963111222780321 0.51961524226956368 0.5000000000025091 0 0.32925244736090059 0.39615100178043078 0 0.45812322962036273 0.31024977578535839 0 0.5004045312576143 0.47050700646456922 0.24963111222780321 0 0.30074819035869899 0.1692970876565193 0.14641016151452901 0.14641016151487049 0 0.16929708765618309 0.30074819035915368 0 0.312576188949791 0.31458070521983672 0.3125761889497819 0 0.30074819035869899 0.1692970876565193 0.312576188949791 0.31458070521983672 0.3125761889497819 0.16929708765618309 0.30074819035915368 0 0.22345881830598399 0.5062398304147856 0.22345881830602041 0.17226134197279269 0.49836539647922029 0 0 0.49836539647891548 0.17226134197271731 0.16929708765618309 0.30074819035915368 0 0.22345881830598399 0.5062398304147856 0.22345881830602041 0.17226134197279269 0.49836539647922029 0 0.16929708765618309 0.30074819035915368 0 0.32925244736090059 0.39615100178043078 0 0.22345881830598399 0.5062398304147856 0.22345881830602041 0 0.30074819035869899 0.1692970876565193 0 0.20000000000083221 0 0 0.40000000000166441 0 0.16929708765618309 0.30074819035915368 0 0 0.30074819035869899 0.1692970876565193 0 0.40000000000166441 0 0 0.49836539647891548 0.17226134197271731 0.16929708765618309 0.30074819035915368 0 0 0.30074819035869899 0.1692970876565193 0.16929708765618309 0.30074819035915368 0 0 0.49836539647891548 0.17226134197271731 0.22345881830598399 0.5062398304147856 0.22345881830602041 0 0.30074819035869899 0.1692970876565193 0 0.49836539647891548 0.17226134197271731 0 0.39615100178029522 0.32925244736138171 0.22345881830598399 0.5062398304147856 0.22345881830602041 0 0.49836539647891548 0.17226134197271731 0 0.40000000000166441 0 0 0.60000000000138687 0 0.17226134197279269 0.49836539647922029 0 0.16929708765618309 0.30074819035915368 0 0 0.40000000000166441 0 0 0.49836539647891548 0.17226134197271731 0.17226134197279269 0.49836539647922029 0 0 0.69449451837103049 0.15896804272139439 0 0.60020898676435996 0.32446581821286191 0.22345881830598399 0.5062398304147856 0.22345881830602041 0.19259015428765269 0.77719169076434647 0.19259015428773721 0.1589680427220837 0.69449451837091269 0 0 0.69449451837103049 0.15896804272139439 0.22345881830598399 0.5062398304147856 0.22345881830602041 0.19259015428765269 0.77719169076434647 0.19259015428773721 0 0.69449451837103049 0.15896804272139439 0.17226134197279269 0.49836539647922029 0 0 0.60000000000138687 0 0.1589680427220837 0.69449451837091269 0 0.32446581821364329 0.60020898676454815 0 0.1589680427220837 0.69449451837091269 0 0.22345881830598399 0.5062398304147856 0.22345881830602041 0.19259015428765269 0.77719169076434647 0.19259015428773721 0 0.60000000000138687 0 0 0.49836539647891548 0.17226134197271731 0.17226134197279269 0.49836539647922029 0 0 0.69449451837103049 0.15896804272139439 0 0.69449451837103049 0.15896804272139439 0 0.60000000000138687 0 0 0.79999999999999982 0 0.1589680427220837 0.69449451837091269 0 0.31067093463127438 0.81480288849489035 0 0.1589680427220837 0.69449451837091269 0 0.32446581821364329 0.60020898676454815 0 0.19259015428765269 0.77719169076434647 0.19259015428773721 0.32446581821364329 0.60020898676454815 0 0.1589680427220837 0.69449451837091269 0 0.17226134197279269 0.49836539647922029 0 0.22345881830598399 0.5062398304147856 0.22345881830602041 0.1589680427220837 0.69449451837091269 0 0 0.69449451837103049 0.15896804272139439 0.17226134197279269 0.49836539647922029 0 0.22345881830598399 0.5062398304147856 0.22345881830602041 0 0.69449451837103049 0.15896804272139439 0 0.81480288849496429 0.31067093462946233 0 0.60020898676435996 0.32446581821286191 0.19259015428765269 0.77719169076434647 0.19259015428773721 0 0.49836539647891548 0.17226134197271731 0 0.69449451837103049 0.15896804272139439 0 0.60020898676435996 0.32446581821286191 0.22345881830598399 0.5062398304147856 0.22345881830602041 0 0.49836539647891548 0.17226134197271731 0.17226134197279269 0.49836539647922029 0 0 0.69449451837103049 0.15896804272139439 0.22345881830598399 0.5062398304147856 0.22345881830602041 0 0.60020898676435996 0.32446581821286191 0.22516916914780419 0.77057994845201627 0.48187244075707292 0.35848654557803328 0.70013656506632282 0.30029870175293161 0.19259015428765269 0.77719169076434647 0.19259015428773721 0 0.60020898676435996 0.32446581821286191 0.24769234054476261 0.52242103280823293 0.45098450226372488 0 0.39615100178029522 0.32925244736138171 0.22345881830598399 0.5062398304147856 0.22345881830602041 0 0.60020898676435996 0.32446581821286191 0 0.81480288849496429 0.31067093462946233 0.22516916914780419 0.77057994845201627 0.48187244075707292 0.19259015428765269 0.77719169076434647 0.19259015428773721 0.35848654557803328 0.70013656506632282 0.30029870175293161 0.22345881830598399 0.5062398304147856 0.22345881830602041 0 0.60020898676435996 0.32446581821286191 0.19259015428765269 0.77719169076434647 0.19259015428773721 0 0.49836539647891548 0.17226134197271731 0 0.60020898676435996 0.32446581821286191 0 0.39615100178029522 0.32925244736138171 0.22345881830598399 0.5062398304147856 0.22345881830602041 0 0.60020898676435996 0.32446581821286191 0.24769234054476261 0.52242103280823293 0.45098450226372488 0.35848654557803328 0.70013656506632282 0.30029870175293161 0.22516916914780419 0.77057994845201627 0.48187244075707292 0.35848654557803328 0.70013656506632282 0.30029870175293161 0.24769234054476261 0.52242103280823293 0.45098450226372488 0 0.60020898676435996 0.32446581821286191 0.22345881830598399 0.5062398304147856 0.22345881830602041 0 0.39615100178029522 0.32925244736138171 0 0.60020898676435996 0.32446581821286191 0 0.50000000000237477 0.51961524226909872 0.24769234054476261 0.52242103280823293 0.45098450226372488 0 0.68801781652248195 0.45664527743358641 0 0.50000000000237477 0.51961524226909872 0 0.60020898676435996 0.32446581821286191 0.24769234054476261 0.52242103280823293 0.45098450226372488 0 0.66416205381430016 0.59944234540882957 0.24769234054476261 0.52242103280823293 0.45098450226372488 0 0.68801781652248195 0.45664527743358641 0.22516916914780419 0.77057994845201627 0.48187244075707292 0 0.60020898676435996 0.32446581821286191 0 0.81480288849496429 0.31067093462946233 0 0.68801781652248195 0.45664527743358641 0.22516916914780419 0.77057994845201627 0.48187244075707292 0 0.68801781652248195 0.45664527743358641 0.24769234054476261 0.52242103280823293 0.45098450226372488 0 0.60020898676435996 0.32446581821286191 0.22516916914780419 0.77057994845201627 0.48187244075707292 0.16929708765615539 1 0.30074819035677097 0.32926555316115258 1 0.39615987727515128 0.22516916914780419 0.77057994845201627 0.48187244075707292 0.19259015428765269 0.77719169076434647 0.19259015428773721 0 0.81480288849496429 0.31067093462946233 0.16929708765615539 1 0.30074819035677097 0.22516916914780419 0.77057994845201627 0.48187244075707292 0.19259015428765269 0.77719169076434647 0.19259015428773721 0.17226134197293 1 0.49836539647645101 0 0.83630110503664845 0.50803330197135654 0 0.81480288849496429 0.31067093462946233 0.22516916914780419 0.77057994845201627 0.48187244075707292 0 0.68801781652248195 0.45664527743358641 0 0.81480288849496429 0.31067093462946233 0 0.83630110503664845 0.50803330197135654 0.22516916914780419 0.77057994845201627 0.48187244075707292 0.17226134197293 1 0.49836539647645101 0 1 0.3999999999989749 0 0.81480288849496429 0.31067093462946233 0 0.83630110503664845 0.50803330197135654 0 0.81480288849496429 0.31067093462946233 0.16929708765615539 1 0.30074819035677097 0 1 0.3999999999989749 0.17226134197293 1 0.49836539647645101 0.17226134197293 1 0.49836539647645101 0 0.81480288849496429 0.31067093462946233 0.16929708765615539 1 0.30074819035677097 0.22516916914780419 0.77057994845201627 0.48187244075707292 0.17226134197293 1 0.49836539647645101 0.16929708765615539 1 0.30074819035677097 0.32926555316115258 1 0.39615987727515128 0.22516916914780419 0.77057994845201627 0.48187244075707292 0 1 0.3999999999989749 0 1 0.19999999999955789 0.16929708765615539 1 0.30074819035677097 0 0.81480288849496429 0.31067093462946233 0.16929708765615539 1 0.30074819035677097 0 1 0.19999999999955789 0 0.85358983848655678 0.14641016151332509 0 0.81480288849496429 0.31067093462946233 0.14641016151352521 1 0.1464101615131837 0 1 0.19999999999955789 0 0.85358983848655678 0.14641016151332509 0.16929708765615539 1 0.30074819035677097 0.20000000000083221 1 0 0 1 0 0.14641016151479211 0.85358983848543113 0 0.14641016151352521 1 0.1464101615131837 0 0.85358983848655678 0.14641016151332509 0 1 0 0 1 0.19999999999955789 0.14641016151352521 1 0.1464101615131837 0 0.85358983848655678 0.14641016151332509 0.14641016151479211 0.85358983848543113 0 0 1 0 0.14641016151352521 1 0.1464101615131837 0.14641016151479211 0.85358983848543113 0 0 1 0 0 0.79999999999999982 0 0 0.85358983848655678 0.14641016151332509 0 0.85358983848655678 0.14641016151332509 0 0.69449451837103049 0.15896804272139439 0.1589680427220837 0.69449451837091269 0 0.19259015428765269 0.77719169076434647 0.19259015428773721 0 0.79999999999999982 0 0.1589680427220837 0.69449451837091269 0 0.14641016151479211 0.85358983848543113 0 0 0.85358983848655678 0.14641016151332509 0.14641016151352521 1 0.1464101615131837 0 0.85358983848655678 0.14641016151332509 0.14641016151479211 0.85358983848543113 0 0.19259015428765269 0.77719169076434647 0.19259015428773721 0.1589680427220837 0.69449451837091269 0 0 0.79999999999999982 0 0 0.69449451837103049 0.15896804272139439 0 0.85358983848655678 0.14641016151332509 0.1589680427220837 0.69449451837091269 0 0.14641016151479211 0.85358983848543113 0 0 0.85358983848655678 0.14641016151332509 0.19259015428765269 0.77719169076434647 0.19259015428773721 0.16929708765615539 1 0.30074819035677097 0 0.81480288849496429 0.31067093462946233 0 0.85358983848655678 0.14641016151332509 0.19259015428765269 0.77719169076434647 0.19259015428773721 0 0.85358983848655678 0.14641016151332509 0 0.81480288849496429 0.31067093462946233 0 0.69449451837103049 0.15896804272139439 0.19259015428765269 0.77719169076434647 0.19259015428773721 0.14641016151352521 1 0.1464101615131837 0.14641016151479211 0.85358983848543113 0 0.31067093463127438 0.81480288849489035 0 0.19259015428765269 0.77719169076434647 0.19259015428773721 0.1589680427220837 0.69449451837091269 0 0.31067093463127438 0.81480288849489035 0 0.14641016151479211 0.85358983848543113 0 0.19259015428765269 0.77719169076434647 0.19259015428773721 0.14641016151479211 0.85358983848543113 0 0.31067093463127438 0.81480288849489035 0 0.20000000000083221 1 0 0.14641016151352521 1 0.1464101615131837 0.31635851157303152 1 0.18818969570840721 0.20000000000083221 1 0 0.31067093463127438 0.81480288849489035 0 0.14641016151352521 1 0.1464101615131837 0.31067093463127438 0.81480288849489035 0 0.31635851157303152 1 0.18818969570840721 0.14641016151352521 1 0.1464101615131837 0.19259015428765269 0.77719169076434647 0.19259015428773721 0.31635851157303152 1 0.18818969570840721 0.16929708765615539 1 0.30074819035677097 0.14641016151352521 1 0.1464101615131837 0.19259015428765269 0.77719169076434647 0.19259015428773721 0.14641016151352521 1 0.1464101615131837 0.16929708765615539 1 0.30074819035677097 0 0.85358983848655678 0.14641016151332509 0.19259015428765269 0.77719169076434647 0.19259015428773721 0.35848654557803328 0.70013656506632282 0.30029870175293161 0.19259015428765269 0.77719169076434647 0.19259015428773721 0.31635851157303152 1 0.18818969570840721 0.52894546611500048 0.79133000140429866 0.2082794184507949 0.31067093463127438 0.81480288849489035 0 0.19259015428765269 0.77719169076434647 0.19259015428773721 0.35848654557803328 0.70013656506632282 0.30029870175293161 0.52894546611500048 0.79133000140429866 0.2082794184507949 0.31067093463127438 0.81480288849489035 0 0.31635851157303152 1 0.18818969570840721 0.19259015428765269 0.77719169076434647 0.19259015428773721 0.52894546611500048 0.79133000140429866 0.2082794184507949 0.31067093463127438 0.81480288849489035 0 0.40000000000166441 1 0 0.20000000000083221 1 0 0.31635851157303152 1 0.18818969570840721 0.31067093463127438 0.81480288849489035 0 0.50803330197353713 0.83630110503668265 0 0.31635851157303152 1 0.18818969570840721 0.52894546611500048 0.79133000140429866 0.2082794184507949 0.45664527743509797 0.68801781652245086 0 0.50803330197353713 0.83630110503668265 0 0.31067093463127438 0.81480288849489035 0 0.52894546611500048 0.79133000140429866 0.2082794184507949 0.51133491425992716 1 0.16370661204795281 0.31635851157303152 1 0.18818969570840721 0.40000000000166441 1 0 0.50803330197353713 0.83630110503668265 0 0.31635851157303152 1 0.18818969570840721 0.31067093463127438 0.81480288849489035 0 0.40000000000166441 1 0 0.50803330197353713 0.83630110503668265 0 0.51133491425992716 1 0.16370661204795281 0.45820186441796368 1 0.31030302876579191 0.31635851157303152 1 0.18818969570840721 0.52894546611500048 0.79133000140429866 0.2082794184507949 0.51133491425992716 1 0.16370661204795281 0.31635851157303152 1 0.18818969570840721 0.50803330197353713 0.83630110503668265 0 0.52894546611500048 0.79133000140429866 0.2082794184507949 0.32926555316115258 1 0.39615987727515128 0.35848654557803328 0.70013656506632282 0.30029870175293161 0.49983993748706529 0.75039103705932653 0.52967335724801234 0.22516916914780419 0.77057994845201627 0.48187244075707292 0.35848654557803328 0.70013656506632282 0.30029870175293161 0.22516916914780419 0.77057994845201627 0.48187244075707292 0.32926555316115258 1 0.39615987727515128 0.19259015428765269 0.77719169076434647 0.19259015428773721 0.31635851157303152 1 0.18818969570840721 0.45820186441796368 1 0.31030302876579191 0.32926555316115258 1 0.39615987727515128 0.35848654557803328 0.70013656506632282 0.30029870175293161 0.45820186441796368 1 0.31030302876579191 0.35848654557803328 0.70013656506632282 0.30029870175293161 0.31635851157303152 1 0.18818969570840721 0.52894546611500048 0.79133000140429866 0.2082794184507949 0.31635851157303152 1 0.18818969570840721 0.35848654557803328 0.70013656506632282 0.30029870175293161 0.32926555316115258 1 0.39615987727515128 0.19259015428765269 0.77719169076434647 0.19259015428773721 0.45820186441796368 1 0.31030302876579191 0.49983993748706529 0.75039103705932653 0.52967335724801234 0.35848654557803328 0.70013656506632282 0.30029870175293161 0.52894546611500048 0.79133000140429866 0.2082794184507949 0.45820186441796368 1 0.31030302876579191 0.32926555316115258 1 0.39615987727515128 0.35848654557803328 0.70013656506632282 0.30029870175293161 0.49983993748706529 0.75039103705932653 0.52967335724801234 0.31635851157303152 1 0.18818969570840721 0.32926555316115258 1 0.39615987727515128 0.16929708765615539 1 0.30074819035677097 0.19259015428765269 0.77719169076434647 0.19259015428773721 0.32926555316115258 1 0.39615987727515128 0.32448110831226962 1 0.6002015905153204 0.17226134197293 1 0.49836539647645101 0.22516916914780419 0.77057994845201627 0.48187244075707292 0.45820186441796368 1 0.31030302876579191 0.51961524227008238 1 0.49999999999872219 0.32926555316115258 1 0.39615987727515128 0.49983993748706529 0.75039103705932653 0.52967335724801234 0.24769234054476261 0.52242103280823293 0.45098450226372488 0.49983993748706529 0.75039103705932653 0.52967335724801234 0.35848654557803328 0.70013656506632282 0.30029870175293161 0.22516916914780419 0.77057994845201627 0.48187244075707292 0.35848654557803328 0.70013656506632282 0.30029870175293161 0.50000000000001332 0.49999999999999561 0.49999999999999561 0.24769234054476261 0.52242103280823293 0.45098450226372488 0.5004045312576143 0.47050700646456922 0.24963111222780321 0.35848654557803328 0.70013656506632282 0.30029870175293161 0.24769234054476261 0.52242103280823293 0.45098450226372488 0.50000000000001332 0.49999999999999561 0.49999999999999561 0.49983993748706529 0.75039103705932653 0.52967335724801234 0.35848654557803328 0.70013656506632282 0.30029870175293161 0.5004045312576143 0.47050700646456922 0.24963111222780321 0.24769234054476261 0.52242103280823293 0.45098450226372488 0.22345881830598399 0.5062398304147856 0.22345881830602041 0.35848654557803328 0.70013656506632282 0.30029870175293161 0.32446581821364329 0.60020898676454815 0 0.5004045312576143 0.47050700646456922 0.24963111222780321 0.22345881830598399 0.5062398304147856 0.22345881830602041 0.31067093463127438 0.81480288849489035 0 0.32446581821364329 0.60020898676454815 0 0.45664527743509797 0.68801781652245086 0 0.35848654557803328 0.70013656506632282 0.30029870175293161 0.32446581821364329 0.60020898676454815 0 0.22345881830598399 0.5062398304147856 0.22345881830602041 0.35848654557803328 0.70013656506632282 0.30029870175293161 0.19259015428765269 0.77719169076434647 0.19259015428773721 0.32446581821364329 0.60020898676454815 0 0.45664527743509797 0.68801781652245086 0 0.35848654557803328 0.70013656506632282 0.30029870175293161 0.5004045312576143 0.47050700646456922 0.24963111222780321 0.31067093463127438 0.81480288849489035 0 0.32446581821364329 0.60020898676454815 0 0.35848654557803328 0.70013656506632282 0.30029870175293161 0.19259015428765269 0.77719169076434647 0.19259015428773721 0.45664527743509797 0.68801781652245086 0 0.31067093463127438 0.81480288849489035 0 0.35848654557803328 0.70013656506632282 0.30029870175293161 0.52894546611500048 0.79133000140429866 0.2082794184507949 0.35848654557803328 0.70013656506632282 0.30029870175293161 0.5004045312576143 0.47050700646456922 0.24963111222780321 0.45664527743509797 0.68801781652245086 0 0.52894546611500048 0.79133000140429866 0.2082794184507949 0.17226134197279269 0.49836539647922029 0 0.32925244736090059 0.39615100178043078 0 0.32446581821364329 0.60020898676454815 0 0.22345881830598399 0.5062398304147856 0.22345881830602041 0.32446581821364329 0.60020898676454815 0 0.51961524226956368 0.5000000000025091 0 0.45664527743509797 0.68801781652245086 0 0.5004045312576143 0.47050700646456922 0.24963111222780321 0.72722573386132172 0.60922248848163563 0 0.68456408135056701 0.68607101396845627 0.31096060989957619 0.59944234541082553 0.66416205381394655 0 0.77713227489941183 0.50036915849493024 0.21774643624003751 0.68456408135056701 0.68607101396845627 0.31096060989957619 0.5004045312576143 0.47050700646456922 0.24963111222780321 0.59944234541082553 0.66416205381394655 0 0.77713227489941183 0.50036915849493024 0.21774643624003751 0.59944234541082553 0.66416205381394655 0 0.45664527743509797 0.68801781652245086 0 0.5004045312576143 0.47050700646456922 0.24963111222780321 0.52894546611500048 0.79133000140429866 0.2082794184507949 0.51961524226956368 0.5000000000025091 0 0.67320508075660079 0.46954769941202479 0 0.59944234541082553 0.66416205381394655 0 0.5004045312576143 0.47050700646456922 0.24963111222780321 0.59944234541082553 0.66416205381394655 0 0.5004045312576143 0.47050700646456922 0.24963111222780321 0.68456408135056701 0.68607101396845627 0.31096060989957619 0.52894546611500048 0.79133000140429866 0.2082794184507949 0.59944234541082553 0.66416205381394655 0 0.5004045312576143 0.47050700646456922 0.24963111222780321 0.67320508075660079 0.46954769941202479 0 0.77713227489941183 0.50036915849493024 0.21774643624003751 0.59944234541082553 0.66416205381394655 0 0.52894546611500048 0.79133000140429866 0.2082794184507949 0.68456408135056701 0.68607101396845627 0.31096060989957619 0.81582077266975173 0.77657922508894406 0.18483084990574741 0.59944234541082553 0.66416205381394655 0 0.45664527743509797 0.68801781652245086 0 0.51961524226956368 0.5000000000025091 0 0.5004045312576143 0.47050700646456922 0.24963111222780321 0.59944234541082553 0.66416205381394655 0 0.68456408135056701 0.68607101396845627 0.31096060989957619 0.72722573386132172 0.60922248848163563 0 0.81582077266975173 0.77657922508894406 0.18483084990574741 0.45664527743509797 0.68801781652245086 0 0.59944234541082553 0.66416205381394655 0 0.50803330197353713 0.83630110503668265 0 0.52894546611500048 0.79133000140429866 0.2082794184507949 0.59944234541082553 0.66416205381394655 0 0.72722573386132172 0.60922248848163563 0 0.7054234997318658 0.80860557108880304 0 0.81582077266975173 0.77657922508894406 0.18483084990574741 0.72722573386132172 0.60922248848163563 0 0.59944234541082553 0.66416205381394655 0 0.67320508075660079 0.46954769941202479 0 0.77713227489941183 0.50036915849493024 0.21774643624003751 0.68456408135056701 0.68607101396845627 0.31096060989957619 0.5004045312576143 0.47050700646456922 0.24963111222780321 0.35848654557803328 0.70013656506632282 0.30029870175293161 0.52894546611500048 0.79133000140429866 0.2082794184507949 0.68456408135056701 0.68607101396845627 0.31096060989957619 0.35848654557803328 0.70013656506632282 0.30029870175293161 0.50000000000001332 0.49999999999999561 0.49999999999999561 0.49983993748706529 0.75039103705932653 0.52967335724801234 0.50000000000001332 0.49999999999999561 0.49999999999999561 0.35848654557803328 0.70013656506632282 0.30029870175293161 0.68456408135056701 0.68607101396845627 0.31096060989957619 0.5004045312576143 0.47050700646456922 0.24963111222780321 0.50000000000001332 0.49999999999999561 0.49999999999999561 0.68456408135056701 0.68607101396845627 0.31096060989957619 0.7504488434426726 0.53051757989633308 0.49836643074154852 0.5004045312576143 0.47050700646456922 0.24963111222780321 0.68456408135056701 0.68607101396845627 0.31096060989957619 0.49983993748706529 0.75039103705932653 0.52967335724801234 0.7504488434426726 0.53051757989633308 0.49836643074154852 0.77374673111774417 0.78860835645735528 0.49829081152968557 0.7504488434426726 0.53051757989633308 0.49836643074154852 0.5004045312576143 0.47050700646456922 0.24963111222780321 0.68456408135056701 0.68607101396845627 0.31096060989957619 0.77713227489941183 0.50036915849493024 0.21774643624003751 0.35848654557803328 0.70013656506632282 0.30029870175293161 0.49983993748706529 0.75039103705932653 0.52967335724801234 0.68456408135056701 0.68607101396845627 0.31096060989957619 0.52894546611500048 0.79133000140429866 0.2082794184507949 0.50000000000001332 0.49999999999999561 0.49999999999999561 0.7504488434426726 0.53051757989633308 0.49836643074154852 0.68456408135056701 0.68607101396845627 0.31096060989957619 0.49983993748706529 0.75039103705932653 0.52967335724801234 0.68456408135056701 0.68607101396845627 0.31096060989957619 0.52894546611500048 0.79133000140429866 0.2082794184507949 0.61068558124908323 1 0.33127740899601937 0.81582077266975173 0.77657922508894406 0.18483084990574741 0.61068558124908323 1 0.33127740899601937 0.49983993748706529 0.75039103705932653 0.52967335724801234 0.68456408135056701 0.68607101396845627 0.31096060989957619 0.77374673111774417 0.78860835645735528 0.49829081152968557 0.61068558124908323 1 0.33127740899601937 0.68240285647621723 1 0.52310058211166854 0.49983993748706529 0.75039103705932653 0.52967335724801234 0.77374673111774417 0.78860835645735528 0.49829081152968557 0.82751535738810444 1 0.31407731390515509 0.68456408135056701 0.68607101396845627 0.31096060989957619 0.61068558124908323 1 0.33127740899601937 0.81582077266975173 0.77657922508894406 0.18483084990574741 0.45820186441796368 1 0.31030302876579191 0.61068558124908323 1 0.33127740899601937 0.49983993748706529 0.75039103705932653 0.52967335724801234 0.52894546611500048 0.79133000140429866 0.2082794184507949 0.61068558124908323 1 0.33127740899601937 0.68456408135056701 0.68607101396845627 0.31096060989957619 0.82751535738810444 1 0.31407731390515509 0.77374673111774417 0.78860835645735528 0.49829081152968557 0.68456408135056701 0.68607101396845627 0.31096060989957619 0.49983993748706529 0.75039103705932653 0.52967335724801234 0.61068558124908323 1 0.33127740899601937 0.52894546611500048 0.79133000140429866 0.2082794184507949 0.61068558124908323 1 0.33127740899601937 0.68240285647621723 1 0.52310058211166854 0.51961524227008238 1 0.49999999999872219 0.49983993748706529 0.75039103705932653 0.52967335724801234 0.51961524227008238 1 0.49999999999872219 0.45820186441796368 1 0.31030302876579191 0.61068558124908323 1 0.33127740899601937 0.49983993748706529 0.75039103705932653 0.52967335724801234 0.68240285647621723 1 0.52310058211166854 0.61068558124908323 1 0.33127740899601937 0.82751535738810444 1 0.31407731390515509 0.77374673111774417 0.78860835645735528 0.49829081152968557 0.51133491425992716 1 0.16370661204795281 0.61068558124908323 1 0.33127740899601937 0.45820186441796368 1 0.31030302876579191 0.52894546611500048 0.79133000140429866 0.2082794184507949 0.51133491425992716 1 0.16370661204795281 0.69988642339594154 1 0.16938214347578889 0.61068558124908323 1 0.33127740899601937 0.52894546611500048 0.79133000140429866 0.2082794184507949 0.69988642339594154 1 0.16938214347578889 0.61068558124908323 1 0.33127740899601937 0.52894546611500048 0.79133000140429866 0.2082794184507949 0.81582077266975173 0.77657922508894406 0.18483084990574741 0.69988642339594154 1 0.16938214347578889 0.52894546611500048 0.79133000140429866 0.2082794184507949 0.7054234997318658 0.80860557108880304 0 0.81582077266975173 0.77657922508894406 0.18483084990574741 0.69988642339594154 1 0.16938214347578889 0.51133491425992716 1 0.16370661204795281 0.50803330197353713 0.83630110503668265 0 0.52894546611500048 0.79133000140429866 0.2082794184507949 0.59944234541082553 0.66416205381394655 0 0.7054234997318658 0.80860557108880304 0 0.52894546611500048 0.79133000140429866 0.2082794184507949 0.81582077266975173 0.77657922508894406 0.18483084990574741 0.60000000000138687 1 0 0.69988642339594154 1 0.16938214347578889 0.51133491425992716 1 0.16370661204795281 0.50803330197353713 0.83630110503668265 0 0.51133491425992716 1 0.16370661204795281 0.40000000000166441 1 0 0.60000000000138687 1 0 0.50803330197353713 0.83630110503668265 0 0.50803330197353713 0.83630110503668265 0 0.59944234541082553 0.66416205381394655 0 0.7054234997318658 0.80860557108880304 0 0.52894546611500048 0.79133000140429866 0.2082794184507949 0.69988642339594154 1 0.16938214347578889 0.50803330197353713 0.83630110503668265 0 0.7054234997318658 0.80860557108880304 0 0.52894546611500048 0.79133000140429866 0.2082794184507949 0.60000000000138687 1 0 0.79999999999999982 1 0 0.69988642339594154 1 0.16938214347578889 0.7054234997318658 0.80860557108880304 0 0.50803330197353713 0.83630110503668265 0 0.60000000000138687 1 0 0.69988642339594154 1 0.16938214347578889 0.7054234997318658 0.80860557108880304 0 0.69988642339594154 1 0.16938214347578889 0.82751535738810444 1 0.31407731390515509 0.61068558124908323 1 0.33127740899601937 0.81582077266975173 0.77657922508894406 0.18483084990574741 0.82751535738810444 1 0.31407731390515509 0.69988642339594154 1 0.16938214347578889 0.85358983848665693 1 0.14641016151322461 0.81582077266975173 0.77657922508894406 0.18483084990574741 0.69988642339594154 1 0.16938214347578889 0.85358983848666903 0.85358983848666903 0 0.85358983848665693 1 0.14641016151322461 0.81582077266975173 0.77657922508894406 0.18483084990574741 0.85358983848665693 1 0.14641016151322461 1 0.85358983848655678 0.14641016151332509 0.82751535738810444 1 0.31407731390515509 0.81582077266975173 0.77657922508894406 0.18483084990574741 0.85358983848666903 0.85358983848666903 0 0.85358983848665693 1 0.14641016151322461 0.79999999999999982 1 0 0.69988642339594154 1 0.16938214347578889 0.69988642339594154 1 0.16938214347578889 0.79999999999999982 1 0 0.85358983848666903 0.85358983848666903 0 0.7054234997318658 0.80860557108880304 0 0.85358983848666903 0.85358983848666903 0 0.7054234997318658 0.80860557108880304 0 0.85173693729186062 0.69992182039541118 0 0.81582077266975173 0.77657922508894406 0.18483084990574741 0.69988642339594154 1 0.16938214347578889 0.7054234997318658 0.80860557108880304 0 0.85358983848666903 0.85358983848666903 0 0.81582077266975173 0.77657922508894406 0.18483084990574741 1 0.85358983848655678 0.14641016151332509 1 0.69449451837101916 0.15896804272136739 1 0.8148028884949543 0.31067093462944562 0.81582077266975173 0.77657922508894406 0.18483084990574741 0.82751535738810444 1 0.31407731390515509 1 0.85358983848655678 0.14641016151332509 1 0.8148028884949543 0.31067093462944562 0.81582077266975173 0.77657922508894406 0.18483084990574741 1 0.85358983848655678 0.14641016151332509 0.85358983848666903 0.85358983848666903 0 1 0.79999999999999982 0 0.81582077266975173 0.77657922508894406 0.18483084990574741 1 0.79999999999999982 0 0.81582077266975173 0.77657922508894406 0.18483084990574741 1 0.69449451837101916 0.15896804272136739 1 0.85358983848655678 0.14641016151332509 0.85358983848666903 0.85358983848666903 0 1 0.85358983848655678 0.14641016151332509 0.85358983848665693 1 0.14641016151322461 0.81582077266975173 0.77657922508894406 0.18483084990574741 0.85358983848666903 0.85358983848666903 0 0.85173693729186062 0.69992182039541118 0 1 0.79999999999999982 0 0.81582077266975173 0.77657922508894406 0.18483084990574741 1 0.85358983848655678 0.14641016151332509 0.85358983848665693 1 0.14641016151322461 1 1 0 0.85358983848666903 0.85358983848666903 0 1 1 0.19999999999955789 0.85358983848665693 1 0.14641016151322461 1 1 0 1 0.85358983848655678 0.14641016151332509 1 1 0 1 0.85358983848655678 0.14641016151332509 0.85358983848666903 0.85358983848666903 0 1 0.79999999999999982 0 0.79999999999999982 1 0 1 1 0 0.85358983848665693 1 0.14641016151322461 0.85358983848666903 0.85358983848666903 0 0.82751535738810444 1 0.31407731390515509 0.85358983848665693 1 0.14641016151322461 1 1 0.19999999999955789 1 0.85358983848655678 0.14641016151332509 1 1 0.19999999999955789 1 0.8148028884949543 0.31067093462944562 0.82751535738810444 1 0.31407731390515509 1 0.85358983848655678 0.14641016151332509 1 1 0.3999999999989749 1 0.8148028884949543 0.31067093462944562 0.82751535738810444 1 0.31407731390515509 1 1 0.19999999999955789 0.82751535738810444 1 0.31407731390515509 0.77374673111774417 0.78860835645735528 0.49829081152968557 0.68456408135056701 0.68607101396845627 0.31096060989957619 0.81582077266975173 0.77657922508894406 0.18483084990574741 1 0.8148028884949543 0.31067093462944562 0.77374673111774417 0.78860835645735528 0.49829081152968557 0.82751535738810444 1 0.31407731390515509 0.81582077266975173 0.77657922508894406 0.18483084990574741 1 0.8148028884949543 0.31067093462944562 0.68456408135056701 0.68607101396845627 0.31096060989957619 0.77374673111774417 0.78860835645735528 0.49829081152968557 0.81582077266975173 0.77657922508894406 0.18483084990574741 1 0.8148028884949543 0.31067093462944562 0.86762395692956074 1 0.5060815484123421 0.82751535738810444 1 0.31407731390515509 0.77374673111774417 0.78860835645735528 0.49829081152968557 0.68240285647621723 1 0.52310058211166854 0.82751535738810444 1 0.31407731390515509 0.86762395692956074 1 0.5060815484123421 0.77374673111774417 0.78860835645735528 0.49829081152968557 0.86762395692956074 1 0.5060815484123421 1 1 0.3999999999989749 1 0.8148028884949543 0.31067093462944562 0.82751535738810444 1 0.31407731390515509 1 1 0.3999999999989749 1 0.83630110503662825 0.50803330197135588 0.86762395692956074 1 0.5060815484123421 1 0.8148028884949543 0.31067093462944562 1 0.8148028884949543 0.31067093462944562 1 0.83630110503662825 0.50803330197135588 0.86762395692956074 1 0.5060815484123421 0.77374673111774417 0.78860835645735528 0.49829081152968557 1 0.8148028884949543 0.31067093462944562 1 0.68975022421527898 0.45812322962078778 1 0.83630110503662825 0.50803330197135588 0.77374673111774417 0.78860835645735528 0.49829081152968557 1 0.39615100178016449 0.32925244736082498 0.7504488434426726 0.53051757989633308 0.49836643074154852 1 0.60020898676431722 0.32446581821274012 0.77713227489941183 0.50036915849493024 0.21774643624003751 1 0.68975022421527898 0.45812322962078778 0.68456408135056701 0.68607101396845627 0.31096060989957619 1 0.60020898676431722 0.32446581821274012 0.7504488434426726 0.53051757989633308 0.49836643074154852 1 0.8148028884949543 0.31067093462944562 0.68456408135056701 0.68607101396845627 0.31096060989957619 1 0.68975022421527898 0.45812322962078778 0.77374673111774417 0.78860835645735528 0.49829081152968557 1 0.68975022421527898 0.45812322962078778 0.68456408135056701 0.68607101396845627 0.31096060989957619 0.7504488434426726 0.53051757989633308 0.49836643074154852 0.77374673111774417 0.78860835645735528 0.49829081152968557 1 0.68975022421527898 0.45812322962078778 1 0.8148028884949543 0.31067093462944562 1 0.60020898676431722 0.32446581821274012 0.68456408135056701 0.68607101396845627 0.31096060989957619 0.68456408135056701 0.68607101396845627 0.31096060989957619 1 0.60020898676431722 0.32446581821274012 0.7504488434426726 0.53051757989633308 0.49836643074154852 0.77713227489941183 0.50036915849493024 0.21774643624003751 1 0.8148028884949543 0.31067093462944562 1 0.60020898676431722 0.32446581821274012 0.68456408135056701 0.68607101396845627 0.31096060989957619 0.81582077266975173 0.77657922508894406 0.18483084990574741 1 0.60020898676431722 0.32446581821274012 0.77713227489941183 0.50036915849493024 0.21774643624003751 0.68456408135056701 0.68607101396845627 0.31096060989957619 0.81582077266975173 0.77657922508894406 0.18483084990574741 1 0.50000000000229983 0.51961524226898759 1 0.68975022421527898 0.45812322962078778 1 0.60020898676431722 0.32446581821274012 0.7504488434426726 0.53051757989633308 0.49836643074154852 1 0.39615100178016449 0.32925244736082498 1 0.50000000000229983 0.51961524226898759 1 0.60020898676431722 0.32446581821274012 0.7504488434426726 0.53051757989633308 0.49836643074154852 0.84191918937744659 0.51186163305076127 0 1 0.49836539647890021 0.17226134197269399 1 0.69449451837101916 0.15896804272136739 0.77713227489941183 0.50036915849493024 0.21774643624003751 1 0.69449451837101916 0.15896804272136739 0.85173693729186062 0.69992182039541118 0 0.77713227489941183 0.50036915849493024 0.21774643624003751 0.81582077266975173 0.77657922508894406 0.18483084990574741 1 0.69449451837101916 0.15896804272136739 0.77713227489941183 0.50036915849493024 0.21774643624003751 1 0.60020898676431722 0.32446581821274012 0.81582077266975173 0.77657922508894406 0.18483084990574741 1 0.69449451837101916 0.15896804272136739 1 0.49836539647890021 0.17226134197269399 1 0.60020898676431722 0.32446581821274012 0.77713227489941183 0.50036915849493024 0.21774643624003751 0.72722573386132172 0.60922248848163563 0 0.77713227489941183 0.50036915849493024 0.21774643624003751 0.85173693729186062 0.69992182039541118 0 0.81582077266975173 0.77657922508894406 0.18483084990574741 0.72722573386132172 0.60922248848163563 0 0.68456408135056701 0.68607101396845627 0.31096060989957619 0.77713227489941183 0.50036915849493024 0.21774643624003751 0.81582077266975173 0.77657922508894406 0.18483084990574741 1 0.8148028884949543 0.31067093462944562 1 0.69449451837101916 0.15896804272136739 1 0.60020898676431722 0.32446581821274012 0.81582077266975173 0.77657922508894406 0.18483084990574741 0.72722573386132172 0.60922248848163563 0 0.67320508075660079 0.46954769941202479 0 0.84191918937744659 0.51186163305076127 0 0.77713227489941183 0.50036915849493024 0.21774643624003751 0.84191918937744659 0.51186163305076127 0 1 0.69449451837101916 0.15896804272136739 0.85173693729186062 0.69992182039541118 0 0.77713227489941183 0.50036915849493024 0.21774643624003751 0.72722573386132172 0.60922248848163563 0 0.84191918937744659 0.51186163305076127 0 0.85173693729186062 0.69992182039541118 0 0.77713227489941183 0.50036915849493024 0.21774643624003751 0.7054234997318658 0.80860557108880304 0 0.72722573386132172 0.60922248848163563 0 0.85173693729186062 0.69992182039541118 0 0.81582077266975173 0.77657922508894406 0.18483084990574741 1 0.69449451837101916 0.15896804272136739 0.85173693729186062 0.69992182039541118 0 1 0.79999999999999982 0 1 0.60000000000138687 0 1 0.69449451837101916 0.15896804272136739 0.81582077266975173 0.77657922508894406 0.18483084990574741 1 0.79999999999999982 0 0.85173693729186062 0.69992182039541118 0 0.84191918937744659 0.51186163305076127 0 0.85173693729186062 0.69992182039541118 0 1 0.69449451837101916 0.15896804272136739 1 0.60000000000138687 0 1 0.60000000000138687 0 1 0.69449451837101916 0.15896804272136739 0.84191918937744659 0.51186163305076127 0 1 0.49836539647890021 0.17226134197269399 1 0.40000000000166441 0 1 0.60000000000138687 0 0.84191918937744659 0.51186163305076127 0 1 0.49836539647890021 0.17226134197269399 0.80839867011859301 0.31807971531731721 0 0.85358983848570813 0.1464101615143738 0 1 0.30074819035868428 0.16929708765640439 0.68777432594363841 0.31447353261427252 0.31366778418247038 0.80839867011859301 0.31807971531731721 0 1 0.40000000000166441 0 0.84191918937744659 0.51186163305076127 0 1 0.49836539647890021 0.17226134197269399 1 0.40000000000166441 0 0.80839867011859301 0.31807971531731721 0 1 0.30074819035868428 0.16929708765640439 1 0.49836539647890021 0.17226134197269399 0.80839867011859301 0.31807971531731721 0 0.68777432594363841 0.31447353261427252 0.31366778418247038 1 0.30074819035868428 0.16929708765640439 0.77713227489941183 0.50036915849493024 0.21774643624003751 0.84191918937744659 0.51186163305076127 0 0.67320508075660079 0.46954769941202479 0 0.80839867011859301 0.31807971531731721 0 0.77713227489941183 0.50036915849493024 0.21774643624003751 0.84191918937744659 0.51186163305076127 0 0.80839867011859301 0.31807971531731721 0 1 0.49836539647890021 0.17226134197269399 0.77713227489941183 0.50036915849493024 0.21774643624003751 0.80839867011859301 0.31807971531731721 0 1 0.30074819035868428 0.16929708765640439 1 0.49836539647890021 0.17226134197269399 0.77713227489941183 0.50036915849493024 0.21774643624003751 1 0.30074819035868428 0.16929708765640439 1 0.39615100178016449 0.32925244736082498 1 0.49836539647890021 0.17226134197269399 0.77713227489941183 0.50036915849493024 0.21774643624003751 1 0.30074819035868428 0.16929708765640439 0.80839867011859301 0.31807971531731721 0 1 0.40000000000166441 0 1 0.20000000000083221 0 1 0.30074819035868428 0.16929708765640439 0.80839867011859301 0.31807971531731721 0 1 0.20000000000083221 0 0.85358983848570813 0.1464101615143738 0 1 0.20000000000083221 0 1 0.14641016151453831 0.14641016151419689 1 0.30074819035868428 0.16929708765640439 0.85358983848570813 0.1464101615143738 0 0.83057691269884504 0 0.30018449338884379 0.85358983848650494 0 0.1464101615132356 0.68592116352011878 0 0.1724872797865501 0.68777432594363841 0.31447353261427252 0.31366778418247038 0.80839867011859301 0.31807971531731721 0 0.69380980079964416 0.1619694349440581 0 0.85358983848570813 0.1464101615143738 0 0.68777432594363841 0.31447353261427252 0.31366778418247038 1 0.18804489794556911 0.3161072616634244 1 0.30074819035868428 0.16929708765640439 1 0.14641016151453831 0.14641016151419689 0.68777432594363841 0.31447353261427252 0.31366778418247038 1 0.14641016151453831 0.14641016151419689 1 0.30074819035868428 0.16929708765640439 0.85358983848570813 0.1464101615143738 0 0.68777432594363841 0.31447353261427252 0.31366778418247038 1 0.14641016151453831 0.14641016151419689 0.85358983848650494 0 0.1464101615132356 0.83057691269884504 0 0.30018449338884379 0.68777432594363841 0.31447353261427252 0.31366778418247038 1 0.14641016151453831 0.14641016151419689 0.85358983848570813 0.1464101615143738 0 0.85358983848650494 0 0.1464101615132356 0.68777432594363841 0.31447353261427252 0.31366778418247038 0.69380980079964416 0.1619694349440581 0 0.85358983848650494 0 0.1464101615132356 0.85358983848570813 0.1464101615143738 0 0.68777432594363841 0.31447353261427252 0.31366778418247038 0.85358983848650494 0 0.1464101615132356 0.83057691269884504 0 0.30018449338884379 1 0 0.19999999999955789 1 0.14641016151453831 0.14641016151419689 0.83057691269884504 0 0.30018449338884379 1 0.18804489794556911 0.3161072616634244 1 0 0.19999999999955789 1 0.14641016151453831 0.14641016151419689 0.85358983848570813 0.1464101615143738 0 1 0 0 0.85358983848650494 0 0.1464101615132356 0.79999999999947335 0 0 0.85358983848650494 0 0.1464101615132356 1 0 0.19999999999955789 1 0 0 1 0.14641016151453831 0.14641016151419689 1 0 0 1 0.14641016151453831 0.14641016151419689 1 0.20000000000083221 0 0.85358983848570813 0.1464101615143738 0 1 0.14641016151453831 0.14641016151419689 1 0 0 0.85358983848650494 0 0.1464101615132356 0.85358983848570813 0.1464101615143738 0 0.68592116352011878 0 0.1724872797865501 0.69380980079964416 0.1619694349440581 0 0.85358983848650494 0 0.1464101615132356 0.79999999999947335 0 0 0.85358983848570813 0.1464101615143738 0 0.85358983848650494 0 0.1464101615132356 0.69380980079964416 0.1619694349440581 0 0.79999999999947335 0 0 0.68592116352011878 0 0.1724872797865501 0.68777432594363841 0.31447353261427252 0.31366778418247038 0.69380980079964416 0.1619694349440581 0 0.5003997205654479 0.21136633249797621 0.2258422409314382 0.68592116352011878 0 0.1724872797865501 0.85358983848650494 0 0.1464101615132356 0.69380980079964416 0.1619694349440581 0 0.68777432594363841 0.31447353261427252 0.31366778418247038 0.69380980079964416 0.1619694349440581 0 0.68592116352011878 0 0.1724872797865501 0.59999999999894682 0 0 0.79999999999947335 0 0 0.49391845158624981 0 0.1323760430705655 0.3999999999989749 0 0 0.50966790549376417 0.16275515618023731 0 0.59999999999894682 0 0 0.50966790549376417 0.16275515618023731 0 0.69380980079964416 0.1619694349440581 0 0.68592116352011878 0 0.1724872797865501 0.59999999999894682 0 0 0.68592116352011878 0 0.1724872797865501 0.49391845158624981 0 0.1323760430705655 0.50966790549376417 0.16275515618023731 0 0.59999999999894682 0 0 0.47688326899416439 0 0.31741132792405607 0.68592116352011878 0 0.1724872797865501 0.49391845158624981 0 0.1323760430705655 0.5003997205654479 0.21136633249797621 0.2258422409314382 0.49391845158624981 0 0.1323760430705655 0.68592116352011878 0 0.1724872797865501 0.50966790549376417 0.16275515618023731 0 0.5003997205654479 0.21136633249797621 0.2258422409314382 0.50966790549376417 0.16275515618023731 0 0.68592116352011878 0 0.1724872797865501 0.69380980079964416 0.1619694349440581 0 0.5003997205654479 0.21136633249797621 0.2258422409314382 0.6104699881764214 0.32043363027358418 0 0.50966790549376417 0.16275515618023731 0 0.69380980079964416 0.1619694349440581 0 0.5003997205654479 0.21136633249797621 0.2258422409314382 0.6104699881764214 0.32043363027358418 0 0.68777432594363841 0.31447353261427252 0.31366778418247038 0.80839867011859301 0.31807971531731721 0 0.77713227489941183 0.50036915849493024 0.21774643624003751 0.6104699881764214 0.32043363027358418 0 0.69380980079964416 0.1619694349440581 0 0.68777432594363841 0.31447353261427252 0.31366778418247038 0.5003997205654479 0.21136633249797621 0.2258422409314382 0.80839867011859301 0.31807971531731721 0 0.6104699881764214 0.32043363027358418 0 0.69380980079964416 0.1619694349440581 0 0.68777432594363841 0.31447353261427252 0.31366778418247038 0.6104699881764214 0.32043363027358418 0 0.45812322962036273 0.31024977578535839 0 0.50966790549376417 0.16275515618023731 0 0.5003997205654479 0.21136633249797621 0.2258422409314382 0.45812322962036273 0.31024977578535839 0 0.6104699881764214 0.32043363027358418 0 0.5004045312576143 0.47050700646456922 0.24963111222780321 0.5003997205654479 0.21136633249797621 0.2258422409314382 0.77713227489941183 0.50036915849493024 0.21774643624003751 0.6104699881764214 0.32043363027358418 0 0.5004045312576143 0.47050700646456922 0.24963111222780321 0.67320508075660079 0.46954769941202479 0 0.68777432594363841 0.31447353261427252 0.31366778418247038 0.5004045312576143 0.47050700646456922 0.24963111222780321 0.6104699881764214 0.32043363027358418 0 0.5003997205654479 0.21136633249797621 0.2258422409314382 0.77713227489941183 0.50036915849493024 0.21774643624003751 0.5004045312576143 0.47050700646456922 0.24963111222780321 0.6104699881764214 0.32043363027358418 0 0.68777432594363841 0.31447353261427252 0.31366778418247038 0.51961524226956368 0.5000000000025091 0 0.6104699881764214 0.32043363027358418 0 0.67320508075660079 0.46954769941202479 0 0.5004045312576143 0.47050700646456922 0.24963111222780321 0.45812322962036273 0.31024977578535839 0 0.6104699881764214 0.32043363027358418 0 0.51961524226956368 0.5000000000025091 0 0.5004045312576143 0.47050700646456922 0.24963111222780321 0.6104699881764214 0.32043363027358418 0 0.80839867011859301 0.31807971531731721 0 0.67320508075660079 0.46954769941202479 0 0.77713227489941183 0.50036915849493024 0.21774643624003751 0.68777432594363841 0.31447353261427252 0.31366778418247038 0.7504488434426726 0.53051757989633308 0.49836643074154852 0.50000000000001332 0.49999999999999561 0.49999999999999561 0.50073570207385831 0.24848280280289631 0.52886631355986169 0.7504488434426726 0.53051757989633308 0.49836643074154852 0.50073570207385831 0.24848280280289631 0.52886631355986169 0.68777432594363841 0.31447353261427252 0.31366778418247038 0.77973766487723961 0.22090161127815711 0.50014622462635805 0.50000000000001332 0.49999999999999561 0.49999999999999561 0.7504488434426726 0.53051757989633308 0.49836643074154852 0.68777432594363841 0.31447353261427252 0.31366778418247038 0.5004045312576143 0.47050700646456922 0.24963111222780321 0.68777432594363841 0.31447353261427252 0.31366778418247038 0.5004045312576143 0.47050700646456922 0.24963111222780321 0.7504488434426726 0.53051757989633308 0.49836643074154852 0.77713227489941183 0.50036915849493024 0.21774643624003751 0.50073570207385831 0.24848280280289631 0.52886631355986169 0.5004045312576143 0.47050700646456922 0.24963111222780321 0.68777432594363841 0.31447353261427252 0.31366778418247038 0.5003997205654479 0.21136633249797621 0.2258422409314382 0.50000000000001332 0.49999999999999561 0.49999999999999561 0.68777432594363841 0.31447353261427252 0.31366778418247038 0.50073570207385831 0.24848280280289631 0.52886631355986169 0.5004045312576143 0.47050700646456922 0.24963111222780321 0.83057691269884504 0 0.30018449338884379 0.68777432594363841 0.31447353261427252 0.31366778418247038 0.66852282575985944 0 0.3853248791658106 0.77973766487723961 0.22090161127815711 0.50014622462635805 0.68592116352011878 0 0.1724872797865501 0.66852282575985944 0 0.3853248791658106 0.83057691269884504 0 0.30018449338884379 0.68777432594363841 0.31447353261427252 0.31366778418247038 0.66852282575985944 0 0.3853248791658106 0.47688326899416439 0 0.31741132792405607 0.50073570207385831 0.24848280280289631 0.52886631355986169 0.5003997205654479 0.21136633249797621 0.2258422409314382 0.68969697123394857 0 0.54179813558228873 0.66852282575985944 0 0.3853248791658106 0.50073570207385831 0.24848280280289631 0.52886631355986169 0.77973766487723961 0.22090161127815711 0.50014622462635805 0.68592116352011878 0 0.1724872797865501 0.66852282575985944 0 0.3853248791658106 0.68777432594363841 0.31447353261427252 0.31366778418247038 0.5003997205654479 0.21136633249797621 0.2258422409314382 0.66852282575985944 0 0.3853248791658106 0.50073570207385831 0.24848280280289631 0.52886631355986169 0.68777432594363841 0.31447353261427252 0.31366778418247038 0.5003997205654479 0.21136633249797621 0.2258422409314382 0.68777432594363841 0.31447353261427252 0.31366778418247038 0.50073570207385831 0.24848280280289631 0.52886631355986169 0.66852282575985944 0 0.3853248791658106 0.77973766487723961 0.22090161127815711 0.50014622462635805 0.68592116352011878 0 0.1724872797865501 0.47688326899416439 0 0.31741132792405607 0.66852282575985944 0 0.3853248791658106 0.5003997205654479 0.21136633249797621 0.2258422409314382 0.50000000000250922 0 0.48038475773043671 0.66852282575985944 0 0.3853248791658106 0.47688326899416439 0 0.31741132792405607 0.50073570207385831 0.24848280280289631 0.52886631355986169 0.50000000000250922 0 0.48038475773043671 0.68969697123394857 0 0.54179813558228873 0.66852282575985944 0 0.3853248791658106 0.50073570207385831 0.24848280280289631 0.52886631355986169 0.66852282575985944 0 0.3853248791658106 0.68969697123394857 0 0.54179813558228873 0.83534964916824084 0 0.4902996892628636 0.77973766487723961 0.22090161127815711 0.50014622462635805 1 0.18804489794556911 0.3161072616634244 0.68777432594363841 0.31447353261427252 0.31366778418247038 0.83057691269884504 0 0.30018449338884379 0.77973766487723961 0.22090161127815711 0.50014622462635805 1 0.18804489794556911 0.3161072616634244 1 0.14641016151453831 0.14641016151419689 0.83057691269884504 0 0.30018449338884379 0.68777432594363841 0.31447353261427252 0.31366778418247038 0.83534964916824084 0 0.4902996892628636 0.83057691269884504 0 0.30018449338884379 0.66852282575985944 0 0.3853248791658106 0.77973766487723961 0.22090161127815711 0.50014622462635805 0.83534964916824084 0 0.4902996892628636 1 0.18804489794556911 0.3161072616634244 0.83057691269884504 0 0.30018449338884379 0.77973766487723961 0.22090161127815711 0.50014622462635805 0.83057691269884504 0 0.30018449338884379 0.83534964916824084 0 0.4902996892628636 1 0 0.3999999999989749 1 0.18804489794556911 0.3161072616634244 0.83534964916824084 0 0.4902996892628636 1 0.162755156180173 0.50966790549372887 1 0 0.59999999999894682 1 0 0.3999999999989749 1 0 0.3999999999989749 0.83534964916824084 0 0.4902996892628636 1 0.162755156180173 0.50966790549372887 1 0.18804489794556911 0.3161072616634244 1 0.18804489794556911 0.3161072616634244 1 0 0.3999999999989749 0.83057691269884504 0 0.30018449338884379 1 0 0.19999999999955789 1 0.31024977578542368 0.45812322962028301 1 0.18804489794556911 0.3161072616634244 1 0.162755156180173 0.50966790549372887 0.77973766487723961 0.22090161127815711 0.50014622462635805 0.83534964916824084 0 0.4902996892628636 1 0.162755156180173 0.50966790549372887 1 0.18804489794556911 0.3161072616634244 0.77973766487723961 0.22090161127815711 0.50014622462635805 1 0.39615100178016449 0.32925244736082498 0.68777432594363841 0.31447353261427252 0.31366778418247038 0.7504488434426726 0.53051757989633308 0.49836643074154852 0.77713227489941183 0.50036915849493024 0.21774643624003751 1 0.39615100178016449 0.32925244736082498 1 0.18804489794556911 0.3161072616634244 1 0.31024977578542368 0.45812322962028301 0.68777432594363841 0.31447353261427252 0.31366778418247038 1 0.31024977578542368 0.45812322962028301 0.7504488434426726 0.53051757989633308 0.49836643074154852 0.68777432594363841 0.31447353261427252 0.31366778418247038 0.77973766487723961 0.22090161127815711 0.50014622462635805 1 0.30074819035868428 0.16929708765640439 1 0.18804489794556911 0.3161072616634244 1 0.39615100178016449 0.32925244736082498 0.68777432594363841 0.31447353261427252 0.31366778418247038 1 0.31024977578542368 0.45812322962028301 0.68777432594363841 0.31447353261427252 0.31366778418247038 1 0.18804489794556911 0.3161072616634244 0.77973766487723961 0.22090161127815711 0.50014622462635805 1 0.30074819035868428 0.16929708765640439 0.68777432594363841 0.31447353261427252 0.31366778418247038 1 0.39615100178016449 0.32925244736082498 0.77713227489941183 0.50036915849493024 0.21774643624003751 1 0.39615100178016449 0.32925244736082498 0.68777432594363841 0.31447353261427252 0.31366778418247038 1 0.31024977578542368 0.45812322962028301 0.7504488434426726 0.53051757989633308 0.49836643074154852 1 0.60020898676431722 0.32446581821274012 1 0.49836539647890021 0.17226134197269399 1 0.39615100178016449 0.32925244736082498 0.77713227489941183 0.50036915849493024 0.21774643624003751 1 0.39615100178016449 0.32925244736082498 1 0.31024977578542368 0.45812322962028301 1 0.50000000000229983 0.51961524226898759 0.7504488434426726 0.53051757989633308 0.49836643074154852 1 0.33579115324550912 0.59952339316293046 0.7504488434426726 0.53051757989633308 0.49836643074154852 0.68742751001967084 0.31250796680084852 0.687427510020161 0.78019141325921404 0.49972466465542442 0.78019141325930785 1 0.33579115324550912 0.59952339316293046 1 0.39076805646076263 0.7272421105028648 0.68742751001967084 0.31250796680084852 0.687427510020161 0.81599560342209843 0.22280203704001911 0.81599560342233202 1 0.33579115324550912 0.59952339316293046 1 0.53045230059030524 0.6732050807565132 1 0.50000000000229983 0.51961524226898759 0.7504488434426726 0.53051757989633308 0.49836643074154852 1 0.33579115324550912 0.59952339316293046 0.7504488434426726 0.53051757989633308 0.49836643074154852 1 0.31024977578542368 0.45812322962028301 0.77973766487723961 0.22090161127815711 0.50014622462635805 0.68742751001967084 0.31250796680084852 0.687427510020161 0.77973766487723961 0.22090161127815711 0.50014622462635805 1 0.33579115324550912 0.59952339316293046 0.81599560342209843 0.22280203704001911 0.81599560342233202 1 0.33579115324550912 0.59952339316293046 0.68742751001967084 0.31250796680084852 0.687427510020161 0.7504488434426726 0.53051757989633308 0.49836643074154852 0.77973766487723961 0.22090161127815711 0.50014622462635805 1 0.53045230059030524 0.6732050807565132 0.7504488434426726 0.53051757989633308 0.49836643074154852 1 0.33579115324550912 0.59952339316293046 0.78019141325921404 0.49972466465542442 0.78019141325930785 1 0.39076805646076263 0.7272421105028648 1 0.33579115324550912 0.59952339316293046 0.68742751001967084 0.31250796680084852 0.687427510020161 0.78019141325921404 0.49972466465542442 0.78019141325930785 1 0.33579115324550912 0.59952339316293046 1 0.50000000000229983 0.51961524226898759 1 0.31024977578542368 0.45812322962028301 0.7504488434426726 0.53051757989633308 0.49836643074154852 1 0.39076805646076263 0.7272421105028648 1 0.53045230059030524 0.6732050807565132 1 0.33579115324550912 0.59952339316293046 0.78019141325921404 0.49972466465542442 0.78019141325930785 1 0.33579115324550912 0.59952339316293046 1 0.1912596090855686 0.70565701451953711 1 0.39076805646076263 0.7272421105028648 0.81599560342209843 0.22280203704001911 0.81599560342233202 1 0.33579115324550912 0.59952339316293046 1 0.31024977578542368 0.45812322962028301 1 0.162755156180173 0.50966790549372887 0.77973766487723961 0.22090161127815711 0.50014622462635805 1 0.162755156180173 0.50966790549372887 0.81469961246449951 0 0.68914937826112133 1 0.1912596090855686 0.70565701451953711 0.77973766487723961 0.22090161127815711 0.50014622462635805 0.81469961246449951 0 0.68914937826112133 0.77973766487723961 0.22090161127815711 0.50014622462635805 0.68742751001967084 0.31250796680084852 0.687427510020161 0.81599560342209843 0.22280203704001911 0.81599560342233202 0.81469961246449951 0 0.68914937826112133 1 0.1912596090855686 0.70565701451953711 0.77973766487723961 0.22090161127815711 0.50014622462635805 0.81599560342209843 0.22280203704001911 0.81599560342233202 1 0.1912596090855686 0.70565701451953711 1 0.33579115324550912 0.59952339316293046 0.77973766487723961 0.22090161127815711 0.50014622462635805 0.81599560342209843 0.22280203704001911 0.81599560342233202 1 0.162755156180173 0.50966790549372887 1 0.1912596090855686 0.70565701451953711 1 0.33579115324550912 0.59952339316293046 0.77973766487723961 0.22090161127815711 0.50014622462635805 1 0.1912596090855686 0.70565701451953711 0.81469961246449951 0 0.68914937826112133 1 0 0.59999999999894682 1 0 0.79999999999947335 0.81469961246449951 0 0.68914937826112133 1 0 0.59999999999894682 1 0.162755156180173 0.50966790549372887 1 0.1912596090855686 0.70565701451953711 1 0.162755156180173 0.50966790549372887 1 0 0.59999999999894682 0.81469961246449951 0 0.68914937826112133 0.83534964916824084 0 0.4902996892628636 0.81469961246449951 0 0.68914937826112133 0.83534964916824084 0 0.4902996892628636 0.68969697123394857 0 0.54179813558228873 0.77973766487723961 0.22090161127815711 0.50014622462635805 0.81469961246449951 0 0.68914937826112133 1 0.162755156180173 0.50966790549372887 0.83534964916824084 0 0.4902996892628636 0.77973766487723961 0.22090161127815711 0.50014622462635805 0.68969697123394857 0 0.54179813558228873 0.6002015905170176 0 0.67551889168744117 0.68742751001967084 0.31250796680084852 0.687427510020161 0.50073570207385831 0.24848280280289631 0.52886631355986169 0.6002015905170176 0 0.67551889168744117 0.81469961246449951 0 0.68914937826112133 0.68969697123394857 0 0.54179813558228873 0.68742751001967084 0.31250796680084852 0.687427510020161 0.81469961246449951 0 0.68914937826112133 0.68969697123394857 0 0.54179813558228873 0.68742751001967084 0.31250796680084852 0.687427510020161 0.77973766487723961 0.22090161127815711 0.50014622462635805 0.69447607299129699 0 0.84099946107689361 0.68742751001967084 0.31250796680084852 0.687427510020161 0.6002015905170176 0 0.67551889168744117 0.50084626324420545 0.22238844715913 0.78084811589659187 0.68742751001967084 0.31250796680084852 0.687427510020161 0.68969697123394857 0 0.54179813558228873 0.50073570207385831 0.24848280280289631 0.52886631355986169 0.77973766487723961 0.22090161127815711 0.50014622462635805 0.68742751001967084 0.31250796680084852 0.687427510020161 0.50073570207385831 0.24848280280289631 0.52886631355986169 0.6002015905170176 0 0.67551889168744117 0.50084626324420545 0.22238844715913 0.78084811589659187 0.6002015905170176 0 0.67551889168744117 0.81469961246449951 0 0.68914937826112133 0.68742751001967084 0.31250796680084852 0.687427510020161 0.81599560342209843 0.22280203704001911 0.81599560342233202 0.68969697123394857 0 0.54179813558228873 0.50000000000250922 0 0.48038475773043671 0.6002015905170176 0 0.67551889168744117 0.50073570207385831 0.24848280280289631 0.52886631355986169 0.50000000000001332 0.49999999999999561 0.49999999999999561 0.68742751001967084 0.31250796680084852 0.687427510020161 0.49816183246753282 0.5307146639261795 0.75045686993209071 0.50073570207385831 0.24848280280289631 0.52886631355986169 0.68742751001967084 0.31250796680084852 0.687427510020161 0.50000000000001332 0.49999999999999561 0.49999999999999561 0.7504488434426726 0.53051757989633308 0.49836643074154852 0.50073570207385831 0.24848280280289631 0.52886631355986169 0.68742751001967084 0.31250796680084852 0.687427510020161 0.7504488434426726 0.53051757989633308 0.49836643074154852 0.50000000000001332 0.49999999999999561 0.49999999999999561 0.49816183246753282 0.5307146639261795 0.75045686993209071 0.7504488434426726 0.53051757989633308 0.49836643074154852 0.49816183246753282 0.5307146639261795 0.75045686993209071 0.68742751001967084 0.31250796680084852 0.687427510020161 0.78019141325921404 0.49972466465542442 0.78019141325930785 0.49816183246753282 0.5307146639261795 0.75045686993209071 0.50073570207385831 0.24848280280289631 0.52886631355986169 0.68742751001967084 0.31250796680084852 0.687427510020161 0.50084626324420545 0.22238844715913 0.78084811589659187 0.68742751001967084 0.31250796680084852 0.687427510020161 0.50073570207385831 0.24848280280289631 0.52886631355986169 0.7504488434426726 0.53051757989633308 0.49836643074154852 0.77973766487723961 0.22090161127815711 0.50014622462635805 0.45812322962173568 0.31024977578554058 1 0.49816183246753282 0.5307146639261795 0.75045686993209071 0.59952339316492498 0.33579115324593939 1 0.50084626324420545 0.22238844715913 0.78084811589659187 0.59952339316492498 0.33579115324593939 1 0.68742751001967084 0.31250796680084852 0.687427510020161 0.72724211050425436 0.39076805646176382 1 0.81599560342209843 0.22280203704001911 0.81599560342233202 0.59952339316492498 0.33579115324593939 1 0.68742751001967084 0.31250796680084852 0.687427510020161 0.49816183246753282 0.5307146639261795 0.75045686993209071 0.78019141325921404 0.49972466465542442 0.78019141325930785 0.59952339316492498 0.33579115324593939 1 0.50084626324420545 0.22238844715913 0.78084811589659187 0.68742751001967084 0.31250796680084852 0.687427510020161 0.81599560342209843 0.22280203704001911 0.81599560342233202 0.59952339316492498 0.33579115324593939 1 0.49816183246753282 0.5307146639261795 0.75045686993209071 0.68742751001967084 0.31250796680084852 0.687427510020161 0.50084626324420545 0.22238844715913 0.78084811589659187 0.59952339316492498 0.33579115324593939 1 0.72724211050425436 0.39076805646176382 1 0.68742751001967084 0.31250796680084852 0.687427510020161 0.78019141325921404 0.49972466465542442 0.78019141325930785 0.59952339316492498 0.33579115324593939 1 0.49816183246753282 0.5307146639261795 0.75045686993209071 0.67320508075671459 0.53045230059073867 1 0.78019141325921404 0.49972466465542442 0.78019141325930785 0.70565701452089868 0.1912596090858541 1 0.59952339316492498 0.33579115324593939 1 0.72724211050425436 0.39076805646176382 1 0.81599560342209843 0.22280203704001911 0.81599560342233202 0.59952339316492498 0.33579115324593939 1 0.67320508075671459 0.53045230059073867 1 0.72724211050425436 0.39076805646176382 1 0.78019141325921404 0.49972466465542442 0.78019141325930785 0.45812322962173568 0.31024977578554058 1 0.51961524226934941 0.50000000000250611 1 0.59952339316492498 0.33579115324593939 1 0.49816183246753282 0.5307146639261795 0.75045686993209071 0.67320508075671459 0.53045230059073867 1 0.59952339316492498 0.33579115324593939 1 0.51961524226934941 0.50000000000250611 1 0.49816183246753282 0.5307146639261795 0.75045686993209071 0.59952339316492498 0.33579115324593939 1 0.50966790549576724 0.1627551561802443 1 0.45812322962173568 0.31024977578554058 1 0.50084626324420545 0.22238844715913 0.78084811589659187 0.50966790549576724 0.1627551561802443 1 0.70565701452089868 0.1912596090858541 1 0.69447607299129699 0 0.84099946107689361 0.50084626324420545 0.22238844715913 0.78084811589659187 0.68742751001967084 0.31250796680084852 0.687427510020161 0.50084626324420545 0.22238844715913 0.78084811589659187 0.69447607299129699 0 0.84099946107689361 0.81599560342209843 0.22280203704001911 0.81599560342233202 0.70565701452089868 0.1912596090858541 1 0.69447607299129699 0 0.84099946107689361 0.50084626324420545 0.22238844715913 0.78084811589659187 0.81599560342209843 0.22280203704001911 0.81599560342233202 0.70565701452089868 0.1912596090858541 1 0.50084626324420545 0.22238844715913 0.78084811589659187 0.59952339316492498 0.33579115324593939 1 0.81599560342209843 0.22280203704001911 0.81599560342233202 0.70565701452089868 0.1912596090858541 1 0.50966790549576724 0.1627551561802443 1 0.59952339316492498 0.33579115324593939 1 0.50084626324420545 0.22238844715913 0.78084811589659187 0.6002015905170176 0 0.67551889168744117 0.68742751001967084 0.31250796680084852 0.687427510020161 0.69447607299129699 0 0.84099946107689361 0.81599560342209843 0.22280203704001911 0.81599560342233202 0.69447607299129699 0 0.84099946107689361 0.6002015905170176 0 0.67551889168744117 0.49836539647917322 0 0.82773865802723501 0.50084626324420545 0.22238844715913 0.78084811589659187 0.69447607299129699 0 0.84099946107689361 0.49836539647917322 0 0.82773865802723501 0.50966790549576724 0.1627551561802443 1 0.50084626324420545 0.22238844715913 0.78084811589659187 0.60000000000138687 0 1 0.49836539647917322 0 0.82773865802723501 0.50966790549576724 0.1627551561802443 1 0.69447607299129699 0 0.84099946107689361 0.50966790549576724 0.1627551561802443 1 0.40000000000166441 0 1 0.49836539647917322 0 0.82773865802723501 0.60000000000138687 0 1 0.50966790549576724 0.1627551561802443 1 0.70565701452089868 0.1912596090858541 1 0.60000000000138687 0 1 0.69447607299129699 0 0.84099946107689361 0.70565701452089868 0.1912596090858541 1 0.60000000000138687 0 1 0.69447607299129699 0 0.84099946107689361 0.79999999999999982 0 1 0.6002015905170176 0 0.67551889168744117 0.69447607299129699 0 0.84099946107689361 0.81469961246449951 0 0.68914937826112133 0.81599560342209843 0.22280203704001911 0.81599560342233202 0.70565701452089868 0.1912596090858541 1 0.85358983848646974 0.14641016151341191 1 0.69447607299129699 0 0.84099946107689361 0.81599560342209843 0.22280203704001911 0.81599560342233202 0.85358983848646974 0.14641016151341191 1 0.70565701452089868 0.1912596090858541 1 0.85173693729199718 0.30007817960516198 1 0.81599560342209843 0.22280203704001911 0.81599560342233202 1 0.1912596090855686 0.70565701451953711 0.81469961246449951 0 0.68914937826112133 0.85358983848570524 0 0.85358983848556425 0.81599560342209843 0.22280203704001911 0.81599560342233202 0.69447607299129699 0 0.84099946107689361 0.85358983848570524 0 0.85358983848556425 0.81469961246449951 0 0.68914937826112133 0.81599560342209843 0.22280203704001911 0.81599560342233202 0.85358983848570524 0 0.85358983848556425 0.69447607299129699 0 0.84099946107689361 0.85358983848646974 0.14641016151341191 1 0.81599560342209843 0.22280203704001911 0.81599560342233202 0.79999999999999982 0 1 0.69447607299129699 0 0.84099946107689361 0.70565701452089868 0.1912596090858541 1 0.85358983848646974 0.14641016151341191 1 0.79999999999999982 0 1 0.85358983848570524 0 0.85358983848556425 0.69447607299129699 0 0.84099946107689361 0.85358983848646974 0.14641016151341191 1 1 0 1 1 0.14641016151333891 0.85358983848640169 0.85358983848570524 0 0.85358983848556425 0.85358983848646974 0.14641016151341191 1 0.79999999999999982 0 1 1 0 1 0.85358983848570524 0 0.85358983848556425 0.85358983848646974 0.14641016151341191 1 0.85358983848646974 0.14641016151341191 1 1 0 1 1 0.14641016151333891 0.85358983848640169 1 0.19999999999955789 1 0.85358983848570524 0 0.85358983848556425 1 0.14641016151333891 0.85358983848640169 1 0 1 1 0 0.79999999999947335 0.85358983848570524 0 0.85358983848556425 0.81469961246449951 0 0.68914937826112133 1 0.1912596090855686 0.70565701451953711 1 0 0.79999999999947335 1 0.1912596090855686 0.70565701451953711 1 0.14641016151333891 0.85358983848640169 0.85358983848570524 0 0.85358983848556425 1 0 0.79999999999947335 1 0.14641016151333891 0.85358983848640169 1 0.30007817960499339 0.85173693729139244 1 0.1912596090855686 0.70565701451953711 0.81599560342209843 0.22280203704001911 0.81599560342233202 1 0.1912596090855686 0.70565701451953711 0.85358983848570524 0 0.85358983848556425 1 0.14641016151333891 0.85358983848640169 0.81599560342209843 0.22280203704001911 0.81599560342233202 0.85358983848646974 0.14641016151341191 1 0.85173693729199718 0.30007817960516198 1 1 0.19999999999955789 1 0.81599560342209843 0.22280203704001911 0.81599560342233202 1 0.14641016151333891 0.85358983848640169 0.85358983848646974 0.14641016151341191 1 1 0.19999999999955789 1 0.81599560342209843 0.22280203704001911 0.81599560342233202 1 0.14641016151333891 0.85358983848640169 1 0.19999999999955789 1 1 0.30007817960499339 0.85173693729139244 0.81599560342209843 0.22280203704001911 0.81599560342233202 0.85358983848570524 0 0.85358983848556425 0.85358983848646974 0.14641016151341191 1 1 0.14641016151333891 0.85358983848640169 0.81599560342209843 0.22280203704001911 0.81599560342233202 1 0.19999999999955789 1 1 0.30007817960499339 0.85173693729139244 0.85173693729199718 0.30007817960516198 1 1 0.3999999999989749 1 1 0.19999999999955789 1 0.85173693729199718 0.30007817960516198 1 1 0.30007817960499339 0.85173693729139244 0.81599560342209843 0.22280203704001911 0.81599560342233202 1 0.30007817960499339 0.85173693729139244 0.85173693729199718 0.30007817960516198 1 0.78019141325921404 0.49972466465542442 0.78019141325930785 0.81599560342209843 0.22280203704001911 0.81599560342233202 0.68742751001967084 0.31250796680084852 0.687427510020161 0.78019141325921404 0.49972466465542442 0.78019141325930785 0.72724211050425436 0.39076805646176382 1 0.81599560342209843 0.22280203704001911 0.81599560342233202 1 0.39076805646076263 0.7272421105028648 1 0.30007817960499339 0.85173693729139244 0.78019141325921404 0.49972466465542442 0.78019141325930785 0.81599560342209843 0.22280203704001911 0.81599560342233202 0.85173693729199718 0.30007817960516198 1 0.72724211050425436 0.39076805646176382 1 0.78019141325921404 0.49972466465542442 0.78019141325930785 0.81599560342209843 0.22280203704001911 0.81599560342233202 1 0.39076805646076263 0.7272421105028648 0.78019141325921404 0.49972466465542442 0.78019141325930785 0.68742751001967084 0.31250796680084852 0.687427510020161 0.81599560342209843 0.22280203704001911 0.81599560342233202 0.85173693729199718 0.30007817960516198 1 1 0.30007817960499339 0.85173693729139244 1 0.48813836695007229 0.84191918937727617 1 0.3999999999989749 1 0.72724211050425436 0.39076805646176382 1 0.85173693729199718 0.30007817960516198 1 0.70565701452089868 0.1912596090858541 1 0.81599560342209843 0.22280203704001911 0.81599560342233202 1 0.1912596090855686 0.70565701451953711 1 0.30007817960499339 0.85173693729139244 1 0.39076805646076263 0.7272421105028648 0.81599560342209843 0.22280203704001911 0.81599560342233202 0.85173693729199718 0.30007817960516198 1 1 0.48813836695007229 0.84191918937727617 1 0.30007817960499339 0.85173693729139244 0.78019141325921404 0.49972466465542442 0.78019141325930785 1 0.30007817960499339 0.85173693729139244 1 0.48813836695007229 0.84191918937727617 1 0.39076805646076263 0.7272421105028648 0.78019141325921404 0.49972466465542442 0.78019141325930785 1 0.39076805646076263 0.7272421105028648 1 0.48813836695007229 0.84191918937727617 1 0.53045230059030524 0.6732050807565132 0.78019141325921404 0.49972466465542442 0.78019141325930785 0.72724211050425436 0.39076805646176382 1 0.67320508075671459 0.53045230059073867 1 0.84191918937756771 0.48813836695034618 1 0.78019141325921404 0.49972466465542442 0.78019141325930785 0.84191918937756771 0.48813836695034618 1 0.85173693729199718 0.30007817960516198 1 0.72724211050425436 0.39076805646176382 1 0.78019141325921404 0.49972466465542442 0.78019141325930785 0.84191918937756771 0.48813836695034618 1 1 0.48813836695007229 0.84191918937727617 0.85173693729199718 0.30007817960516198 1 0.78019141325921404 0.49972466465542442 0.78019141325930785 1 0.3999999999989749 1 1 0.48813836695007229 0.84191918937727617 0.84191918937756771 0.48813836695034618 1 1 0.59999999999894682 1 1 0.48813836695007229 0.84191918937727617 0.84191918937756771 0.48813836695034618 1 0.85173693729199718 0.30007817960516198 1 1 0.3999999999989749 1 0.80839867011861499 0.68192028468377774 1 0.78019141325921404 0.49972466465542442 0.78019141325930785 0.68649174659499257 0.68600703198516766 0.6864917465949647 0.77683220420328725 0.81278569633583353 0.81664766512111064 0.80839867011861499 0.68192028468377774 1 1 0.68192028468364885 0.80839867011854549 0.78019141325921404 0.49972466465542442 0.78019141325930785 0.77683220420328725 0.81278569633583353 0.81664766512111064 1 0.59999999999894682 1 1 0.48813836695007229 0.84191918937727617 0.84191918937756771 0.48813836695034618 1 1 0.68192028468364885 0.80839867011854549 0.68649174659499257 0.68600703198516766 0.6864917465949647 0.78019141325921404 0.49972466465542442 0.78019141325930785 1 0.68192028468364885 0.80839867011854549 0.77683220420328725 0.81278569633583353 0.81664766512111064 0.84191918937756771 0.48813836695034618 1 1 0.59999999999894682 1 1 0.68192028468364885 0.80839867011854549 0.80839867011861499 0.68192028468377774 1 1 0.59999999999894682 1 1 0.68192028468364885 0.80839867011854549 0.80839867011861499 0.68192028468377774 1 1 0.79999999999947335 1 0.84191918937756771 0.48813836695034618 1 0.67320508075671459 0.53045230059073867 1 0.80839867011861499 0.68192028468377774 1 0.78019141325921404 0.49972466465542442 0.78019141325930785 0.84191918937756771 0.48813836695034618 1 0.80839867011861499 0.68192028468377774 1 1 0.68192028468364885 0.80839867011854549 0.78019141325921404 0.49972466465542442 0.78019141325930785 1 0.68192028468364885 0.80839867011854549 1 0.53045230059030524 0.6732050807565132 1 0.48813836695007229 0.84191918937727617 0.78019141325921404 0.49972466465542442 0.78019141325930785 1 0.68192028468364885 0.80839867011854549 1 0.48813836695007229 0.84191918937727617 0.84191918937756771 0.48813836695034618 1 0.78019141325921404 0.49972466465542442 0.78019141325930785 1 0.67939035495490308 0.61016512164639347 0.78019141325921404 0.49972466465542442 0.78019141325930785 0.7504488434426726 0.53051757989633308 0.49836643074154852 1 0.53045230059030524 0.6732050807565132 1 0.67939035495490308 0.61016512164639347 0.7504488434426726 0.53051757989633308 0.49836643074154852 0.68649174659499257 0.68600703198516766 0.6864917465949647 0.77374673111774417 0.78860835645735528 0.49829081152968557 1 0.67939035495490308 0.61016512164639347 0.68649174659499257 0.68600703198516766 0.6864917465949647 1 0.83791821520125753 0.69361520514217179 0.77374673111774417 0.78860835645735528 0.49829081152968557 1 0.68192028468364885 0.80839867011854549 1 0.67939035495490308 0.61016512164639347 0.68649174659499257 0.68600703198516766 0.6864917465949647 0.77683220420328725 0.81278569633583353 0.81664766512111064 1 0.67939035495490308 0.61016512164639347 1 0.68975022421527898 0.45812322962078778 0.7504488434426726 0.53051757989633308 0.49836643074154852 0.77374673111774417 0.78860835645735528 0.49829081152968557 0.7504488434426726 0.53051757989633308 0.49836643074154852 0.78019141325921404 0.49972466465542442 0.78019141325930785 1 0.67939035495490308 0.61016512164639347 0.68649174659499257 0.68600703198516766 0.6864917465949647 1 0.68192028468364885 0.80839867011854549 0.68649174659499257 0.68600703198516766 0.6864917465949647 1 0.67939035495490308 0.61016512164639347 0.78019141325921404 0.49972466465542442 0.78019141325930785 1 0.53045230059030524 0.6732050807565132 1 0.68192028468364885 0.80839867011854549 1 0.67939035495490308 0.61016512164639347 0.78019141325921404 0.49972466465542442 0.78019141325930785 1 0.67939035495490308 0.61016512164639347 1 0.50000000000229983 0.51961524226898759 1 0.53045230059030524 0.6732050807565132 0.7504488434426726 0.53051757989633308 0.49836643074154852 1 0.67939035495490308 0.61016512164639347 1 0.68975022421527898 0.45812322962078778 1 0.50000000000229983 0.51961524226898759 0.7504488434426726 0.53051757989633308 0.49836643074154852 1 0.67939035495490308 0.61016512164639347 1 0.83630110503662825 0.50803330197135588 1 0.68975022421527898 0.45812322962078778 0.77374673111774417 0.78860835645735528 0.49829081152968557 1 0.83791821520125753 0.69361520514217179 0.77374673111774417 0.78860835645735528 0.49829081152968557 0.68649174659499257 0.68600703198516766 0.6864917465949647 0.77683220420328725 0.81278569633583353 0.81664766512111064 0.68649174659499257 0.68600703198516766 0.6864917465949647 0.77374673111774417 0.78860835645735528 0.49829081152968557 0.81346205468287114 1 0.68420958956387889 0.77683220420328725 0.81278569633583353 0.81664766512111064 1 0.83791821520125753 0.69361520514217179 0.68649174659499257 0.68600703198516766 0.6864917465949647 1 0.67939035495490308 0.61016512164639347 0.77683220420328725 0.81278569633583353 0.81664766512111064 1 0.68192028468364885 0.80839867011854549 1 0.83791821520125753 0.69361520514217179 1 0.67939035495490308 0.61016512164639347 0.77683220420328725 0.81278569633583353 0.81664766512111064 1 0.83791821520125753 0.69361520514217179 0.81346205468287114 1 0.68420958956387889 0.77374673111774417 0.78860835645735528 0.49829081152968557 0.77683220420328725 0.81278569633583353 0.81664766512111064 1 0.83630110503662825 0.50803330197135588 1 0.67939035495490308 0.61016512164639347 1 0.83791821520125753 0.69361520514217179 0.77374673111774417 0.78860835645735528 0.49829081152968557 1 0.83791821520125753 0.69361520514217179 0.86762395692956074 1 0.5060815484123421 1 0.83630110503662825 0.50803330197135588 0.77374673111774417 0.78860835645735528 0.49829081152968557 1 1 0.59999999999894682 1 0.83630110503662825 0.50803330197135588 1 0.83791821520125753 0.69361520514217179 0.86762395692956074 1 0.5060815484123421 0.86762395692956074 1 0.5060815484123421 1 1 0.59999999999894682 1 0.83630110503662825 0.50803330197135588 1 1 0.3999999999989749 1 0.83791821520125753 0.69361520514217179 0.81346205468287114 1 0.68420958956387889 1 1 0.59999999999894682 0.86762395692956074 1 0.5060815484123421 0.86762395692956074 1 0.5060815484123421 0.81346205468287114 1 0.68420958956387889 0.68240285647621723 1 0.52310058211166854 0.77374673111774417 0.78860835645735528 0.49829081152968557 0.81346205468287114 1 0.68420958956387889 0.86762395692956074 1 0.5060815484123421 1 0.83791821520125753 0.69361520514217179 0.77374673111774417 0.78860835645735528 0.49829081152968557 1 0.83791821520125753 0.69361520514217179 0.81346205468287114 1 0.68420958956387889 1 1 0.79999999999947335 1 1 0.59999999999894682 1 1 0.79999999999947335 0.85358983848569092 1 0.85358983848569092 0.81346205468287114 1 0.68420958956387889 1 0.83791821520125753 0.69361520514217179 0.85358983848569092 1 0.85358983848569092 1 0.83791821520125753 0.69361520514217179 1 0.85358983848587056 0.85358983848587056 0.77683220420328725 0.81278569633583353 0.81664766512111064 0.85358983848569092 1 0.85358983848569092 1 1 0.79999999999947335 1 0.85358983848587056 0.85358983848587056 1 0.83791821520125753 0.69361520514217179 0.85358983848587056 0.85358983848587056 1 1 1 1 1 0.79999999999947335 1 1 0.85358983848587056 0.85358983848587056 0.85358983848587056 0.85358983848587056 1 0.79999999999947335 1 1 1 1 1 0.85358983848569092 1 0.85358983848569092 1 1 0.79999999999947335 1 0.85358983848587056 0.85358983848587056 1 1 1 0.85358983848569092 1 0.85358983848569092 1 0.85358983848587056 0.85358983848587056 0.85358983848587056 0.85358983848587056 1 1 1 1 0.85358983848569092 1 0.85358983848569092 0.85358983848587056 0.85358983848587056 1 1 0.79999999999947335 1 1 0.68192028468364885 0.80839867011854549 1 0.85358983848587056 0.85358983848587056 1 0.79999999999947335 1 1 0.68192028468364885 0.80839867011854549 0.80839867011861499 0.68192028468377774 1 0.85358983848587056 0.85358983848587056 1 0.85358983848587056 0.85358983848587056 1 1 0.85358983848587056 0.85358983848587056 1 0.68192028468364885 0.80839867011854549 0.77683220420328725 0.81278569633583353 0.81664766512111064 1 0.68192028468364885 0.80839867011854549 1 0.85358983848587056 0.85358983848587056 1 0.83791821520125753 0.69361520514217179 0.77683220420328725 0.81278569633583353 0.81664766512111064 0.69361520514218133 0.83791821520130205 1 0.85358983848587056 0.85358983848587056 1 0.80839867011861499 0.68192028468377774 1 0.77683220420328725 0.81278569633583353 0.81664766512111064 0.80839867011861499 0.68192028468377774 1 0.85358983848587056 0.85358983848587056 1 1 0.68192028468364885 0.80839867011854549 0.77683220420328725 0.81278569633583353 0.81664766512111064 0.85358983848587056 0.85358983848587056 1 0.79999999999947335 1 1 0.85358983848569092 1 0.85358983848569092 0.77683220420328725 0.81278569633583353 0.81664766512111064 0.69981550660938663 1 0.83057691269844081 0.85358983848569092 1 0.85358983848569092 0.79999999999947335 1 1 0.77683220420328725 0.81278569633583353 0.81664766512111064 0.85358983848587056 0.85358983848587056 1 0.69361520514218133 0.83791821520130205 1 0.79999999999947335 1 1 0.77683220420328725 0.81278569633583353 0.81664766512111064 1 0.85358983848587056 0.85358983848587056 0.85358983848587056 0.85358983848587056 1 0.85358983848569092 1 0.85358983848569092 0.77683220420328725 0.81278569633583353 0.81664766512111064 0.85358983848569092 1 0.85358983848569092 0.69981550660938663 1 0.83057691269844081 0.81346205468287114 1 0.68420958956387889 0.77683220420328725 0.81278569633583353 0.81664766512111064 0.81346205468287114 1 0.68420958956387889 1 0.83791821520125753 0.69361520514217179 0.85358983848569092 1 0.85358983848569092 0.77683220420328725 0.81278569633583353 0.81664766512111064 0.69361520514218133 0.83791821520130205 1 0.49911199724958061 0.77872228561593948 0.77895350115271889 0.69981550660938663 1 0.83057691269844081 0.77683220420328725 0.81278569633583353 0.81664766512111064 0.69361520514218133 0.83791821520130205 1 0.61016512164652226 0.67939035495506384 1 0.49911199724958061 0.77872228561593948 0.77895350115271889 0.77683220420328725 0.81278569633583353 0.81664766512111064 0.81346205468287114 1 0.68420958956387889 0.69981550660938663 1 0.83057691269844081 0.6123333432449789 1 0.67837347745467769 0.77683220420328725 0.81278569633583353 0.81664766512111064 0.6123333432449789 1 0.67837347745467769 0.69981550660938663 1 0.83057691269844081 0.49911199724958061 0.77872228561593948 0.77895350115271889 0.77683220420328725 0.81278569633583353 0.81664766512111064 0.69361520514218133 0.83791821520130205 1 0.69981550660938663 1 0.83057691269844081 0.79999999999947335 1 1 0.77683220420328725 0.81278569633583353 0.81664766512111064 0.50970031073508926 1 0.83534964916803001 0.59999999999894682 1 1 0.69361520514218133 0.83791821520130205 1 0.69981550660938663 1 0.83057691269844081 0.69981550660938663 1 0.83057691269844081 0.59999999999894682 1 1 0.69361520514218133 0.83791821520130205 1 0.79999999999947335 1 1 0.80839867011861499 0.68192028468377774 1 0.61016512164652226 0.67939035495506384 1 0.69361520514218133 0.83791821520130205 1 0.77683220420328725 0.81278569633583353 0.81664766512111064 0.50803330197137353 0.83630110503667787 1 0.69361520514218133 0.83791821520130205 1 0.61016512164652226 0.67939035495506384 1 0.49911199724958061 0.77872228561593948 0.77895350115271889 0.50803330197137353 0.83630110503667787 1 0.50970031073508926 1 0.83534964916803001 0.69361520514218133 0.83791821520130205 1 0.49911199724958061 0.77872228561593948 0.77895350115271889 0.59999999999894682 1 1 0.50803330197137353 0.83630110503667787 1 0.3999999999989749 1 1 0.50970031073508926 1 0.83534964916803001 0.69361520514218133 0.83791821520130205 1 0.50803330197137353 0.83630110503667787 1 0.59999999999894682 1 1 0.50970031073508926 1 0.83534964916803001 0.69361520514218133 0.83791821520130205 1 0.50970031073508926 1 0.83534964916803001 0.69981550660938663 1 0.83057691269844081 0.49911199724958061 0.77872228561593948 0.77895350115271889 0.50970031073508926 1 0.83534964916803001 0.6123333432449789 1 0.67837347745467769 0.69981550660938663 1 0.83057691269844081 0.49911199724958061 0.77872228561593948 0.77895350115271889 0.6123333432449789 1 0.67837347745467769 0.49983993748706529 0.75039103705932653 0.52967335724801234 0.68649174659499257 0.68600703198516766 0.6864917465949647 0.49911199724958061 0.77872228561593948 0.77895350115271889 0.6123333432449789 1 0.67837347745467769 0.49983993748706529 0.75039103705932653 0.52967335724801234 0.68240285647621723 1 0.52310058211166854 0.77374673111774417 0.78860835645735528 0.49829081152968557 0.6123333432449789 1 0.67837347745467769 0.45820186441573879 1 0.68969697123405882 0.49983993748706529 0.75039103705932653 0.52967335724801234 0.49911199724958061 0.77872228561593948 0.77895350115271889 0.45820186441573879 1 0.68969697123405882 0.6123333432449789 1 0.67837347745467769 0.50970031073508926 1 0.83534964916803001 0.49911199724958061 0.77872228561593948 0.77895350115271889 0.6123333432449789 1 0.67837347745467769 0.68649174659499257 0.68600703198516766 0.6864917465949647 0.49983993748706529 0.75039103705932653 0.52967335724801234 0.77374673111774417 0.78860835645735528 0.49829081152968557 0.81346205468287114 1 0.68420958956387889 0.6123333432449789 1 0.67837347745467769 0.68649174659499257 0.68600703198516766 0.6864917465949647 0.77683220420328725 0.81278569633583353 0.81664766512111064 0.6123333432449789 1 0.67837347745467769 0.49911199724958061 0.77872228561593948 0.77895350115271889 0.68649174659499257 0.68600703198516766 0.6864917465949647 0.77683220420328725 0.81278569633583353 0.81664766512111064 0.81346205468287114 1 0.68420958956387889 0.68649174659499257 0.68600703198516766 0.6864917465949647 0.6123333432449789 1 0.67837347745467769 0.77374673111774417 0.78860835645735528 0.49829081152968557 0.81346205468287114 1 0.68420958956387889 0.6123333432449789 1 0.67837347745467769 0.68240285647621723 1 0.52310058211166854 0.77374673111774417 0.78860835645735528 0.49829081152968557 0.6123333432449789 1 0.67837347745467769 0.45820186441573879 1 0.68969697123405882 0.51961524227008238 1 0.49999999999872219 0.49983993748706529 0.75039103705932653 0.52967335724801234 0.6123333432449789 1 0.67837347745467769 0.51961524227008238 1 0.49999999999872219 0.68240285647621723 1 0.52310058211166854 0.49983993748706529 0.75039103705932653 0.52967335724801234 0.68649174659499257 0.68600703198516766 0.6864917465949647 0.49983993748706529 0.75039103705932653 0.52967335724801234 0.49816183246753282 0.5307146639261795 0.75045686993209071 0.49911199724958061 0.77872228561593948 0.77895350115271889 0.68649174659499257 0.68600703198516766 0.6864917465949647 0.50000000000001332 0.49999999999999561 0.49999999999999561 0.7504488434426726 0.53051757989633308 0.49836643074154852 0.49816183246753282 0.5307146639261795 0.75045686993209071 0.68649174659499257 0.68600703198516766 0.6864917465949647 0.49816183246753282 0.5307146639261795 0.75045686993209071 0.7504488434426726 0.53051757989633308 0.49836643074154852 0.78019141325921404 0.49972466465542442 0.78019141325930785 0.50000000000001332 0.49999999999999561 0.49999999999999561 0.68649174659499257 0.68600703198516766 0.6864917465949647 0.7504488434426726 0.53051757989633308 0.49836643074154852 0.49983993748706529 0.75039103705932653 0.52967335724801234 0.7504488434426726 0.53051757989633308 0.49836643074154852 0.49983993748706529 0.75039103705932653 0.52967335724801234 0.68649174659499257 0.68600703198516766 0.6864917465949647 0.77374673111774417 0.78860835645735528 0.49829081152968557 0.68649174659499257 0.68600703198516766 0.6864917465949647 0.50000000000001332 0.49999999999999561 0.49999999999999561 0.49816183246753282 0.5307146639261795 0.75045686993209071 0.49983993748706529 0.75039103705932653 0.52967335724801234 0.78019141325921404 0.49972466465542442 0.78019141325930785 0.61016512164652226 0.67939035495506384 1 0.49816183246753282 0.5307146639261795 0.75045686993209071 0.67320508075671459 0.53045230059073867 1 0.78019141325921404 0.49972466465542442 0.78019141325930785 0.49816183246753282 0.5307146639261795 0.75045686993209071 0.61016512164652226 0.67939035495506384 1 0.68649174659499257 0.68600703198516766 0.6864917465949647 0.61016512164652226 0.67939035495506384 1 0.68649174659499257 0.68600703198516766 0.6864917465949647 0.80839867011861499 0.68192028468377774 1 0.78019141325921404 0.49972466465542442 0.78019141325930785 0.68649174659499257 0.68600703198516766 0.6864917465949647 0.49911199724958061 0.77872228561593948 0.77895350115271889 0.61016512164652226 0.67939035495506384 1 0.77683220420328725 0.81278569633583353 0.81664766512111064 0.68649174659499257 0.68600703198516766 0.6864917465949647 0.49816183246753282 0.5307146639261795 0.75045686993209071 0.61016512164652226 0.67939035495506384 1 0.49911199724958061 0.77872228561593948 0.77895350115271889 0.80839867011861499 0.68192028468377774 1 0.68649174659499257 0.68600703198516766 0.6864917465949647 0.61016512164652226 0.67939035495506384 1 0.77683220420328725 0.81278569633583353 0.81664766512111064 0.67320508075671459 0.53045230059073867 1 0.61016512164652226 0.67939035495506384 1 0.80839867011861499 0.68192028468377774 1 0.78019141325921404 0.49972466465542442 0.78019141325930785 0.45812322962090041 0.68975022421538157 1 0.61016512164652226 0.67939035495506384 1 0.49816183246753282 0.5307146639261795 0.75045686993209071 0.49911199724958061 0.77872228561593948 0.77895350115271889 0.50803330197137353 0.83630110503667787 1 0.61016512164652226 0.67939035495506384 1 0.45812322962090041 0.68975022421538157 1 0.49911199724958061 0.77872228561593948 0.77895350115271889 0.51961524226934941 0.50000000000250611 1 0.45812322962090041 0.68975022421538157 1 0.61016512164652226 0.67939035495506384 1 0.49816183246753282 0.5307146639261795 0.75045686993209071 0.67320508075671459 0.53045230059073867 1 0.51961524226934941 0.50000000000250611 1 0.61016512164652226 0.67939035495506384 1 0.49816183246753282 0.5307146639261795 0.75045686993209071 0.3115891413135391 0.68758981780459771 0.68521708032990558 0.2184393375098648 0.50004596894495223 0.77634962490704662 0.32446581821293602 0.60020898676440626 1 0.18453958615733529 0.77655623474864555 0.81613222483915937 0.32925244736146098 0.39615100178034629 1 0.32446581821293602 0.60020898676440626 1 0.51961524226934941 0.50000000000250611 1 0.49816183246753282 0.5307146639261795 0.75045686993209071 0.45812322962090041 0.68975022421538157 1 0.3115891413135391 0.68758981780459771 0.68521708032990558 0.31067093462947892 0.81480288849497895 1 0.49911199724958061 0.77872228561593948 0.77895350115271889 0.32925244736146098 0.39615100178034629 1 0.32446581821293602 0.60020898676440626 1 0.49816183246753282 0.5307146639261795 0.75045686993209071 0.2184393375098648 0.50004596894495223 0.77634962490704662 0.45812322962090041 0.68975022421538157 1 0.49816183246753282 0.5307146639261795 0.75045686993209071 0.3115891413135391 0.68758981780459771 0.68521708032990558 0.49911199724958061 0.77872228561593948 0.77895350115271889 0.32446581821293602 0.60020898676440626 1 0.3115891413135391 0.68758981780459771 0.68521708032990558 0.49816183246753282 0.5307146639261795 0.75045686993209071 0.2184393375098648 0.50004596894495223 0.77634962490704662 0.45812322962090041 0.68975022421538157 1 0.51961524226934941 0.50000000000250611 1 0.32446581821293602 0.60020898676440626 1 0.49816183246753282 0.5307146639261795 0.75045686993209071 0.31067093462947892 0.81480288849497895 1 0.45812322962090041 0.68975022421538157 1 0.32446581821293602 0.60020898676440626 1 0.3115891413135391 0.68758981780459771 0.68521708032990558 0.45812322962090041 0.68975022421538157 1 0.32446581821293602 0.60020898676440626 1 0.3115891413135391 0.68758981780459771 0.68521708032990558 0.49816183246753282 0.5307146639261795 0.75045686993209071 0.32446581821293602 0.60020898676440626 1 0.31067093462947892 0.81480288849497895 1 0.3115891413135391 0.68758981780459771 0.68521708032990558 0.18453958615733529 0.77655623474864555 0.81613222483915937 0.3115891413135391 0.68758981780459771 0.68521708032990558 0.50000000000001332 0.49999999999999561 0.49999999999999561 0.24769234054476261 0.52242103280823293 0.45098450226372488 0.49983993748706529 0.75039103705932653 0.52967335724801234 0.3115891413135391 0.68758981780459771 0.68521708032990558 0.49816183246753282 0.5307146639261795 0.75045686993209071 0.50000000000001332 0.49999999999999561 0.49999999999999561 0.49983993748706529 0.75039103705932653 0.52967335724801234 0.3115891413135391 0.68758981780459771 0.68521708032990558 0.49983993748706529 0.75039103705932653 0.52967335724801234 0.24769234054476261 0.52242103280823293 0.45098450226372488 0.22516916914780419 0.77057994845201627 0.48187244075707292 0.50000000000001332 0.49999999999999561 0.49999999999999561 0.3115891413135391 0.68758981780459771 0.68521708032990558 0.24769234054476261 0.52242103280823293 0.45098450226372488 0.2184393375098648 0.50004596894495223 0.77634962490704662 0.3115891413135391 0.68758981780459771 0.68521708032990558 0.50000000000001332 0.49999999999999561 0.49999999999999561 0.49816183246753282 0.5307146639261795 0.75045686993209071 0.2184393375098648 0.50004596894495223 0.77634962490704662 0.49816183246753282 0.5307146639261795 0.75045686993209071 0.49983993748706529 0.75039103705932653 0.52967335724801234 0.3115891413135391 0.68758981780459771 0.68521708032990558 0.49911199724958061 0.77872228561593948 0.77895350115271889 0.32448110831226962 1 0.6002015905153204 0.45820186441573879 1 0.68969697123405882 0.3115891413135391 0.68758981780459771 0.68521708032990558 0.49983993748706529 0.75039103705932653 0.52967335724801234 0.45820186441573879 1 0.68969697123405882 0.31085062173747541 1 0.81469961246428202 0.32448110831226962 1 0.6002015905153204 0.3115891413135391 0.68758981780459771 0.68521708032990558 0.45820186441573879 1 0.68969697123405882 0.3115891413135391 0.68758981780459771 0.68521708032990558 0.49983993748706529 0.75039103705932653 0.52967335724801234 0.49911199724958061 0.77872228561593948 0.77895350115271889 0.32448110831226962 1 0.6002015905153204 0.3115891413135391 0.68758981780459771 0.68521708032990558 0.31085062173747541 1 0.81469961246428202 0.18453958615733529 0.77655623474864555 0.81613222483915937 0.32448110831226962 1 0.6002015905153204 0.49983993748706529 0.75039103705932653 0.52967335724801234 0.3115891413135391 0.68758981780459771 0.68521708032990558 0.22516916914780419 0.77057994845201627 0.48187244075707292 0.45820186441573879 1 0.68969697123405882 0.31085062173747541 1 0.81469961246428202 0.3115891413135391 0.68758981780459771 0.68521708032990558 0.49911199724958061 0.77872228561593948 0.77895350115271889 0.32926555316115258 1 0.39615987727515128 0.49983993748706529 0.75039103705932653 0.52967335724801234 0.32448110831226962 1 0.6002015905153204 0.22516916914780419 0.77057994845201627 0.48187244075707292 0.32448110831226962 1 0.6002015905153204 0.3115891413135391 0.68758981780459771 0.68521708032990558 0.15900053892265181 1 0.69447607299016312 0.22516916914780419 0.77057994845201627 0.48187244075707292 0.32926555316115258 1 0.39615987727515128 0.51961524227008238 1 0.49999999999872219 0.32448110831226962 1 0.6002015905153204 0.49983993748706529 0.75039103705932653 0.52967335724801234 0.32448110831226962 1 0.6002015905153204 0.51961524227008238 1 0.49999999999872219 0.45820186441573879 1 0.68969697123405882 0.49983993748706529 0.75039103705932653 0.52967335724801234 0.45820186441573879 1 0.68969697123405882 0.50970031073508926 1 0.83534964916803001 0.31085062173747541 1 0.81469961246428202 0.49911199724958061 0.77872228561593948 0.77895350115271889 0.31085062173747541 1 0.81469961246428202 0.49911199724958061 0.77872228561593948 0.77895350115271889 0.31067093462947892 0.81480288849497895 1 0.18453958615733529 0.77655623474864555 0.81613222483915937 0.31085062173747541 1 0.81469961246428202 0.3115891413135391 0.68758981780459771 0.68521708032990558 0.49911199724958061 0.77872228561593948 0.77895350115271889 0.18453958615733529 0.77655623474864555 0.81613222483915937 0.50803330197137353 0.83630110503667787 1 0.31085062173747541 1 0.81469961246428202 0.50970031073508926 1 0.83534964916803001 0.49911199724958061 0.77872228561593948 0.77895350115271889 0.31067093462947892 0.81480288849497895 1 0.49911199724958061 0.77872228561593948 0.77895350115271889 0.3115891413135391 0.68758981780459771 0.68521708032990558 0.18453958615733529 0.77655623474864555 0.81613222483915937 0.31085062173747541 1 0.81469961246428202 0.3999999999989749 1 1 0.50803330197137353 0.83630110503667787 1 0.50970031073508926 1 0.83534964916803001 0.31085062173747541 1 0.81469961246428202 0.3999999999989749 1 1 0.31067093462947892 0.81480288849497895 1 0.50803330197137353 0.83630110503667787 1 0.31085062173747541 1 0.81469961246428202 0.50803330197137353 0.83630110503667787 1 0.31067093462947892 0.81480288849497895 1 0.49911199724958061 0.77872228561593948 0.77895350115271889 0.45812322962090041 0.68975022421538157 1 0.31067093462947892 0.81480288849497895 1 0.50803330197137353 0.83630110503667787 1 0.49911199724958061 0.77872228561593948 0.77895350115271889 0.3999999999989749 1 1 0.19999999999955789 1 1 0.31085062173747541 1 0.81469961246428202 0.31067093462947892 0.81480288849497895 1 0.15900053892265181 1 0.69447607299016312 0.31085062173747541 1 0.81469961246428202 0.1464101615132356 1 0.85358983848650494 0.18453958615733529 0.77655623474864555 0.81613222483915937 0.31085062173747541 1 0.81469961246428202 0.31067093462947892 0.81480288849497895 1 0.1464101615132356 1 0.85358983848650494 0.18453958615733529 0.77655623474864555 0.81613222483915937 0.31085062173747541 1 0.81469961246428202 0.19999999999955789 1 1 0.1464101615132356 1 0.85358983848650494 0.31067093462947892 0.81480288849497895 1 0.14641016151332509 0.85358983848655678 1 0.1464101615132356 1 0.85358983848650494 0.19999999999955789 1 1 0.31067093462947892 0.81480288849497895 1 0.31067093462947892 0.81480288849497895 1 0.15896804272141651 0.69449451837104537 1 0.14641016151332509 0.85358983848655678 1 0.18453958615733529 0.77655623474864555 0.81613222483915937 0.14641016151332509 0.85358983848655678 1 0.1464101615132356 1 0.85358983848650494 0.31067093462947892 0.81480288849497895 1 0.18453958615733529 0.77655623474864555 0.81613222483915937 0 0.85358983848682146 0.85358983848668035 0 0.69992182039579531 0.85173693729137989 0 0.80860557108920617 0.70542349973054763 0.18453958615733529 0.77655623474864555 0.81613222483915937 0.15900053892265181 1 0.69447607299016312 0 0.85358983848682146 0.85358983848668035 0 0.80860557108920617 0.70542349973054763 0.18453958615733529 0.77655623474864555 0.81613222483915937 0.18453958615733529 0.77655623474864555 0.81613222483915937 0 0.79999999999999982 1 0.15896804272141651 0.69449451837104537 1 0.14641016151332509 0.85358983848655678 1 0.1464101615132356 1 0.85358983848650494 0.14641016151332509 0.85358983848655678 1 0 0.85358983848682146 0.85358983848668035 0.18453958615733529 0.77655623474864555 0.81613222483915937 0 0.85358983848682146 0.85358983848668035 0 0.79999999999999982 1 0 0.69992182039579531 0.85173693729137989 0.18453958615733529 0.77655623474864555 0.81613222483915937 0 0.85358983848682146 0.85358983848668035 0.14641016151332509 0.85358983848655678 1 0 0.79999999999999982 1 0.18453958615733529 0.77655623474864555 0.81613222483915937 0 1 1 0 0.85358983848682146 0.85358983848668035 0.14641016151332509 0.85358983848655678 1 0 0.79999999999999982 1 0 0.85358983848682146 0.85358983848668035 0.1464101615132356 1 0.85358983848650494 0 1 1 0.14641016151332509 0.85358983848655678 1 0.19999999999955789 1 1 0 1 1 0.1464101615132356 1 0.85358983848650494 0.14641016151332509 0.85358983848655678 1 0.1464101615132356 1 0.85358983848650494 0 1 1 0 1 0.79999999999947335 0 0.85358983848682146 0.85358983848668035 0.1464101615132356 1 0.85358983848650494 0 0.85358983848682146 0.85358983848668035 0.15900053892265181 1 0.69447607299016312 0.18453958615733529 0.77655623474864555 0.81613222483915937 0.15900053892265181 1 0.69447607299016312 0 1 0.79999999999947335 0 0.80860557108920617 0.70542349973054763 0 0.85358983848682146 0.85358983848668035 0 1 0.79999999999947335 0.15900053892265181 1 0.69447607299016312 0.1464101615132356 1 0.85358983848650494 0 0.85358983848682146 0.85358983848668035 0 0.80860557108920617 0.70542349973054763 0 1 0.59999999999894682 0 1 0.79999999999947335 0.15900053892265181 1 0.69447607299016312 0.3115891413135391 0.68758981780459771 0.68521708032990558 0.22516916914780419 0.77057994845201627 0.48187244075707292 0 0.80860557108920617 0.70542349973054763 0.18453958615733529 0.77655623474864555 0.81613222483915937 0 0.80860557108920617 0.70542349973054763 0 0.83630110503664845 0.50803330197135654 0 1 0.59999999999894682 0.15900053892265181 1 0.69447607299016312 0.15900053892265181 1 0.69447607299016312 0.3115891413135391 0.68758981780459771 0.68521708032990558 0.32448110831226962 1 0.6002015905153204 0.18453958615733529 0.77655623474864555 0.81613222483915937 0.15900053892265181 1 0.69447607299016312 0.22516916914780419 0.77057994845201627 0.48187244075707292 0.3115891413135391 0.68758981780459771 0.68521708032990558 0.18453958615733529 0.77655623474864555 0.81613222483915937 0.15900053892265181 1 0.69447607299016312 0 0.80860557108920617 0.70542349973054763 0.22516916914780419 0.77057994845201627 0.48187244075707292 0.18453958615733529 0.77655623474864555 0.81613222483915937 0.15900053892265181 1 0.69447607299016312 0.32448110831226962 1 0.6002015905153204 0.31085062173747541 1 0.81469961246428202 0.18453958615733529 0.77655623474864555 0.81613222483915937 0.32448110831226962 1 0.6002015905153204 0.15900053892265181 1 0.69447607299016312 0.17226134197293 1 0.49836539647645101 0.22516916914780419 0.77057994845201627 0.48187244075707292 0 0.83630110503664845 0.50803330197135654 0.17226134197293 1 0.49836539647645101 0.15900053892265181 1 0.69447607299016312 0.22516916914780419 0.77057994845201627 0.48187244075707292 0 1 0.59999999999894682 0 1 0.3999999999989749 0.17226134197293 1 0.49836539647645101 0 0.83630110503664845 0.50803330197135654 0 0.83630110503664845 0.50803330197135654 0.17226134197293 1 0.49836539647645101 0 1 0.59999999999894682 0.15900053892265181 1 0.69447607299016312 0 0.83630110503664845 0.50803330197135654 0.15900053892265181 1 0.69447607299016312 0 0.80860557108920617 0.70542349973054763 0.22516916914780419 0.77057994845201627 0.48187244075707292 0 0.66416205381430016 0.59944234540882957 0 0.83630110503664845 0.50803330197135654 0 0.80860557108920617 0.70542349973054763 0.22516916914780419 0.77057994845201627 0.48187244075707292 0 0.66416205381430016 0.59944234540882957 0 0.80860557108920617 0.70542349973054763 0.3115891413135391 0.68758981780459771 0.68521708032990558 0.22516916914780419 0.77057994845201627 0.48187244075707292 0 0.66416205381430016 0.59944234540882957 0.3115891413135391 0.68758981780459771 0.68521708032990558 0 0.80860557108920617 0.70542349973054763 0.18453958615733529 0.77655623474864555 0.81613222483915937 0 0.66416205381430016 0.59944234540882957 0 0.80860557108920617 0.70542349973054763 0 0.60922248848335758 0.72722573386012812 0.18453958615733529 0.77655623474864555 0.81613222483915937 0 0.66416205381430016 0.59944234540882957 0.24769234054476261 0.52242103280823293 0.45098450226372488 0.3115891413135391 0.68758981780459771 0.68521708032990558 0.2184393375098648 0.50004596894495223 0.77634962490704662 0 0.66416205381430016 0.59944234540882957 0 0.60922248848335758 0.72722573386012812 0.3115891413135391 0.68758981780459771 0.68521708032990558 0.18453958615733529 0.77655623474864555 0.81613222483915937 0 0.66416205381430016 0.59944234540882957 0 0.46954769941369501 0.67320508075638175 0 0.50000000000237477 0.51961524226909872 0.2184393375098648 0.50004596894495223 0.77634962490704662 0 0.60922248848335758 0.72722573386012812 0 0.66416205381430016 0.59944234540882957 0.3115891413135391 0.68758981780459771 0.68521708032990558 0.2184393375098648 0.50004596894495223 0.77634962490704662 0 0.66416205381430016 0.59944234540882957 0.3115891413135391 0.68758981780459771 0.68521708032990558 0.24769234054476261 0.52242103280823293 0.45098450226372488 0.22516916914780419 0.77057994845201627 0.48187244075707292 0 0.66416205381430016 0.59944234540882957 0 0.50000000000237477 0.51961524226909872 0.24769234054476261 0.52242103280823293 0.45098450226372488 0.2184393375098648 0.50004596894495223 0.77634962490704662 0 0.68801781652248195 0.45664527743358641 0 0.83630110503664845 0.50803330197135654 0 0.66416205381430016 0.59944234540882957 0.22516916914780419 0.77057994845201627 0.48187244075707292 0 0.66416205381430016 0.59944234540882957 0 0.50000000000237477 0.51961524226909872 0 0.68801781652248195 0.45664527743358641 0.24769234054476261 0.52242103280823293 0.45098450226372488 0 0.60922248848335758 0.72722573386012812 0 0.46954769941369501 0.67320508075638175 0 0.66416205381430016 0.59944234540882957 0.2184393375098648 0.50004596894495223 0.77634962490704662 0 0.5118616330515301 0.84191918937737908 0 0.69992182039579531 0.85173693729137989 0.15896804272141651 0.69449451837104537 1 0.2184393375098648 0.50004596894495223 0.77634962490704662 0 0.60922248848335758 0.72722573386012812 0.2184393375098648 0.50004596894495223 0.77634962490704662 0.3115891413135391 0.68758981780459771 0.68521708032990558 0.18453958615733529 0.77655623474864555 0.81613222483915937 0.15896804272141651 0.69449451837104537 1 0.2184393375098648 0.50004596894495223 0.77634962490704662 0 0.69992182039579531 0.85173693729137989 0.18453958615733529 0.77655623474864555 0.81613222483915937 0 0.5118616330515301 0.84191918937737908 0 0.46954769941369501 0.67320508075638175 0 0.60922248848335758 0.72722573386012812 0.2184393375098648 0.50004596894495223 0.77634962490704662 0 0.5118616330515301 0.84191918937737908 0 0.60922248848335758 0.72722573386012812 0 0.69992182039579531 0.85173693729137989 0.2184393375098648 0.50004596894495223 0.77634962490704662 0.15896804272141651 0.69449451837104537 1 0.32446581821293602 0.60020898676440626 1 0.2184393375098648 0.50004596894495223 0.77634962490704662 0.18453958615733529 0.77655623474864555 0.81613222483915937 0 0.60922248848335758 0.72722573386012812 0 0.69992182039579531 0.85173693729137989 0.2184393375098648 0.50004596894495223 0.77634962490704662 0.18453958615733529 0.77655623474864555 0.81613222483915937 0 0.80860557108920617 0.70542349973054763 0 0.69992182039579531 0.85173693729137989 0 0.60922248848335758 0.72722573386012812 0.18453958615733529 0.77655623474864555 0.81613222483915937 0.15896804272141651 0.69449451837104537 1 0.32446581821293602 0.60020898676440626 1 0.17226134197275911 0.49836539647894412 1 0.2184393375098648 0.50004596894495223 0.77634962490704662 0.15896804272141651 0.69449451837104537 1 0.17226134197275911 0.49836539647894412 1 0 0.5118616330515301 0.84191918937737908 0.2184393375098648 0.50004596894495223 0.77634962490704662 0.32446581821293602 0.60020898676440626 1 0.15896804272141651 0.69449451837104537 1 0.31067093462947892 0.81480288849497895 1 0.18453958615733529 0.77655623474864555 0.81613222483915937 0.18453958615733529 0.77655623474864555 0.81613222483915937 0.15896804272141651 0.69449451837104537 1 0 0.79999999999999982 1 0 0.69992182039579531 0.85173693729137989 0 0.69992182039579531 0.85173693729137989 0 0.5118616330515301 0.84191918937737908 0.15896804272141651 0.69449451837104537 1 0 0.60000000000138687 1 0.15896804272141651 0.69449451837104537 1 0 0.79999999999999982 1 0 0.69992182039579531 0.85173693729137989 0 0.60000000000138687 1 0 0.60000000000138687 1 0 0.5118616330515301 0.84191918937737908 0.15896804272141651 0.69449451837104537 1 0.17226134197275911 0.49836539647894412 1 0 0.5118616330515301 0.84191918937737908 0 0.60000000000138687 1 0 0.40000000000166441 1 0.17226134197275911 0.49836539647894412 1 0.17226134197275911 0.49836539647894412 1 0 0.40000000000166441 1 0 0.5118616330515301 0.84191918937737908 0 0.31807971531776508 0.80839867011913336 0 0.40000000000166441 1 0.17226134197275911 0.49836539647894412 1 0.16929708765653109 0.30074819035870082 1 0 0.31807971531776508 0.80839867011913336 0 0.14641016151490169 0.85358983848532144 0 0.31807971531776508 0.80839867011913336 0.16929708765653109 0.30074819035870082 1 0.31426750628021272 0.31270343261798911 0.68761148188185484 0.16929708765653109 0.30074819035870082 1 0.31426750628021272 0.31270343261798911 0.68761148188185484 0 0.31807971531776508 0.80839867011913336 0.2184393375098648 0.50004596894495223 0.77634962490704662 0 0.5118616330515301 0.84191918937737908 0 0.31807971531776508 0.80839867011913336 0 0.46954769941369501 0.67320508075638175 0.2184393375098648 0.50004596894495223 0.77634962490704662 0 0.5118616330515301 0.84191918937737908 0.17226134197275911 0.49836539647894412 1 0 0.31807971531776508 0.80839867011913336 0.2184393375098648 0.50004596894495223 0.77634962490704662 0 0.31807971531776508 0.80839867011913336 0.16929708765653109 0.30074819035870082 1 0 0.40000000000166441 1 0 0.20000000000083221 1 0.17226134197275911 0.49836539647894412 1 0.32925244736146098 0.39615100178034629 1 0.16929708765653109 0.30074819035870082 1 0.2184393375098648 0.50004596894495223 0.77634962490704662 0.17226134197275911 0.49836539647894412 1 0.16929708765653109 0.30074819035870082 1 0 0.31807971531776508 0.80839867011913336 0.2184393375098648 0.50004596894495223 0.77634962490704662 0.31610726166461628 0.1880448979455934 1 0.16929708765653109 0.30074819035870082 1 0.32925244736146098 0.39615100178034629 1 0.31426750628021272 0.31270343261798911 0.68761148188185484 0.32446581821293602 0.60020898676440626 1 0.32925244736146098 0.39615100178034629 1 0.17226134197275911 0.49836539647894412 1 0.2184393375098648 0.50004596894495223 0.77634962490704662 0.45812322962173568 0.31024977578554058 1 0.31426750628021272 0.31270343261798911 0.68761148188185484 0.49816183246753282 0.5307146639261795 0.75045686993209071 0.50084626324420545 0.22238844715913 0.78084811589659187 0.32925244736146098 0.39615100178034629 1 0.49816183246753282 0.5307146639261795 0.75045686993209071 0.31426750628021272 0.31270343261798911 0.68761148188185484 0.2184393375098648 0.50004596894495223 0.77634962490704662 0.31610726166461628 0.1880448979455934 1 0.32925244736146098 0.39615100178034629 1 0.45812322962173568 0.31024977578554058 1 0.31426750628021272 0.31270343261798911 0.68761148188185484 0.45812322962173568 0.31024977578554058 1 0.31610726166461628 0.1880448979455934 1 0.31426750628021272 0.31270343261798911 0.68761148188185484 0.50084626324420545 0.22238844715913 0.78084811589659187 0.32925244736146098 0.39615100178034629 1 0.45812322962173568 0.31024977578554058 1 0.31426750628021272 0.31270343261798911 0.68761148188185484 0.49816183246753282 0.5307146639261795 0.75045686993209071 0.32925244736146098 0.39615100178034629 1 0.31426750628021272 0.31270343261798911 0.68761148188185484 0.16929708765653109 0.30074819035870082 1 0.2184393375098648 0.50004596894495223 0.77634962490704662 0.32925244736146098 0.39615100178034629 1 0.51961524226934941 0.50000000000250611 1 0.45812322962173568 0.31024977578554058 1 0.49816183246753282 0.5307146639261795 0.75045686993209071 0.31426750628021272 0.31270343261798911 0.68761148188185484 0.49816183246753282 0.5307146639261795 0.75045686993209071 0.50000000000001332 0.49999999999999561 0.49999999999999561 0.2184393375098648 0.50004596894495223 0.77634962490704662 0.24769234054476261 0.52242103280823293 0.45098450226372488 0.50073570207385831 0.24848280280289631 0.52886631355986169 0.31426750628021272 0.31270343261798911 0.68761148188185484 0.22088738526309029 0.22111069116742441 0.50004796911802929 0.31426750628021272 0.31270343261798911 0.68761148188185484 0.50073570207385831 0.24848280280289631 0.52886631355986169 0.49816183246753282 0.5307146639261795 0.75045686993209071 0.50084626324420545 0.22238844715913 0.78084811589659187 0.50000000000001332 0.49999999999999561 0.49999999999999561 0.31426750628021272 0.31270343261798911 0.68761148188185484 0.24769234054476261 0.52242103280823293 0.45098450226372488 0.50073570207385831 0.24848280280289631 0.52886631355986169 0.50000000000001332 0.49999999999999561 0.49999999999999561 0.49816183246753282 0.5307146639261795 0.75045686993209071 0.31426750628021272 0.31270343261798911 0.68761148188185484 0.50073570207385831 0.24848280280289631 0.52886631355986169 0.50000000000001332 0.49999999999999561 0.49999999999999561 0.24769234054476261 0.52242103280823293 0.45098450226372488 0.31426750628021272 0.31270343261798911 0.68761148188185484 0.2184393375098648 0.50004596894495223 0.77634962490704662 0.2184393375098648 0.50004596894495223 0.77634962490704662 0.31426750628021272 0.31270343261798911 0.68761148188185484 0 0.50000000000237477 0.51961524226909872 0.24769234054476261 0.52242103280823293 0.45098450226372488 0 0.31024977578556651 0.45812322962166352 0.24769234054476261 0.52242103280823293 0.45098450226372488 0 0.32043363027398297 0.61046998817722586 0.22088738526309029 0.22111069116742441 0.50004796911802929 0 0.32043363027398297 0.61046998817722586 0 0.50000000000237477 0.51961524226909872 0.31426750628021272 0.31270343261798911 0.68761148188185484 0.24769234054476261 0.52242103280823293 0.45098450226372488 0.2184393375098648 0.50004596894495223 0.77634962490704662 0 0.32043363027398297 0.61046998817722586 0 0.50000000000237477 0.51961524226909872 0.31426750628021272 0.31270343261798911 0.68761148188185484 0 0.32043363027398297 0.61046998817722586 0.24769234054476261 0.52242103280823293 0.45098450226372488 0.31426750628021272 0.31270343261798911 0.68761148188185484 0.22088738526309029 0.22111069116742441 0.50004796911802929 0.2184393375098648 0.50004596894495223 0.77634962490704662 0 0.50000000000237477 0.51961524226909872 0 0.32043363027398297 0.61046998817722586 0 0.46954769941369501 0.67320508075638175 0 0.16196943494415611 0.69380980080116506 0 0.32043363027398297 0.61046998817722586 0.31426750628021272 0.31270343261798911 0.68761148188185484 0.22088738526309029 0.22111069116742441 0.50004796911802929 0 0.32043363027398297 0.61046998817722586 0 0.31807971531776508 0.80839867011913336 0.31426750628021272 0.31270343261798911 0.68761148188185484 0.2184393375098648 0.50004596894495223 0.77634962490704662 0 0.16196943494415611 0.69380980080116506 0 0.32043363027398297 0.61046998817722586 0 0.31807971531776508 0.80839867011913336 0.31426750628021272 0.31270343261798911 0.68761148188185484 0 0.31024977578556651 0.45812322962166352 0 0.50000000000237477 0.51961524226909872 0 0.32043363027398297 0.61046998817722586 0.24769234054476261 0.52242103280823293 0.45098450226372488 0 0.32043363027398297 0.61046998817722586 0 0.46954769941369501 0.67320508075638175 0 0.31807971531776508 0.80839867011913336 0.2184393375098648 0.50004596894495223 0.77634962490704662 0 0.32043363027398297 0.61046998817722586 0 0.16275515618034081 0.50966790549591257 0 0.31024977578556651 0.45812322962166352 0.22088738526309029 0.22111069116742441 0.50004796911802929 0 0.16196943494415611 0.69380980080116506 0.14641016151479661 0 0.85358983848542624 0.18818969570926641 0 0.68364148842842287 0.31426750628021272 0.31270343261798911 0.68761148188185484 0 0.16196943494415611 0.69380980080116506 0.31426750628021272 0.31270343261798911 0.68761148188185484 0.18818969570926641 0 0.68364148842842287 0.22088738526309029 0.22111069116742441 0.50004796911802929 0 0.16196943494415611 0.69380980080116506 0.18818969570926641 0 0.68364148842842287 0 0.16275515618034081 0.50966790549591257 0.22088738526309029 0.22111069116742441 0.50004796911802929 0 0.16196943494415611 0.69380980080116506 0 0.16275515618034081 0.50966790549591257 0 0.32043363027398297 0.61046998817722586 0.22088738526309029 0.22111069116742441 0.50004796911802929 0 0 0.79999999999999982 0 0 0.60000000000138687 0 0.16196943494415611 0.69380980080116506 0.18818969570926641 0 0.68364148842842287 0 0 0.60000000000138687 0 0.16196943494415611 0.69380980080116506 0.18818969570926641 0 0.68364148842842287 0 0.16275515618034081 0.50966790549591257 0.18818969570926641 0 0.68364148842842287 0.16370661204827031 0 0.4886650857430957 0 0 0.60000000000138687 0 0.16275515618034081 0.50966790549591257 0.18818969570926641 0 0.68364148842842287 0.31030302876556398 0 0.54179813558513157 0.16370661204827031 0 0.4886650857430957 0.22088738526309029 0.22111069116742441 0.50004796911802929 0 0.16275515618034081 0.50966790549591257 0.18818969570926641 0 0.68364148842842287 0.16370661204827031 0 0.4886650857430957 0.22088738526309029 0.22111069116742441 0.50004796911802929 0.30074819035913852 0 0.83070291234383831 0.39615987727709562 0 0.67073444684008199 0.18818969570926641 0 0.68364148842842287 0.31426750628021272 0.31270343261798911 0.68761148188185484 0.31030302876556398 0 0.54179813558513157 0.31426750628021272 0.31270343261798911 0.68761148188185484 0.50073570207385831 0.24848280280289631 0.52886631355986169 0.22088738526309029 0.22111069116742441 0.50004796911802929 0.39615987727709562 0 0.67073444684008199 0.31030302876556398 0 0.54179813558513157 0.31426750628021272 0.31270343261798911 0.68761148188185484 0.50073570207385831 0.24848280280289631 0.52886631355986169 0.39615987727709562 0 0.67073444684008199 0.31426750628021272 0.31270343261798911 0.68761148188185484 0.30074819035913852 0 0.83070291234383831 0.50084626324420545 0.22238844715913 0.78084811589659187 0.18818969570926641 0 0.68364148842842287 0.31426750628021272 0.31270343261798911 0.68761148188185484 0.31030302876556398 0 0.54179813558513157 0.22088738526309029 0.22111069116742441 0.50004796911802929 0.6002015905170176 0 0.67551889168744117 0.50073570207385831 0.24848280280289631 0.52886631355986169 0.39615987727709562 0 0.67073444684008199 0.50084626324420545 0.22238844715913 0.78084811589659187 0.31030302876556398 0 0.54179813558513157 0.18818969570926641 0 0.68364148842842287 0.39615987727709562 0 0.67073444684008199 0.31426750628021272 0.31270343261798911 0.68761148188185484 0.39615987727709562 0 0.67073444684008199 0.50073570207385831 0.24848280280289631 0.52886631355986169 0.31426750628021272 0.31270343261798911 0.68761148188185484 0.50084626324420545 0.22238844715913 0.78084811589659187 0.39615987727709562 0 0.67073444684008199 0.6002015905170176 0 0.67551889168744117 0.50000000000250922 0 0.48038475773043671 0.50073570207385831 0.24848280280289631 0.52886631355986169 0.39615987727709562 0 0.67073444684008199 0.50000000000250922 0 0.48038475773043671 0.31030302876556398 0 0.54179813558513157 0.50073570207385831 0.24848280280289631 0.52886631355986169 0.49836539647917322 0 0.82773865802723501 0.6002015905170176 0 0.67551889168744117 0.39615987727709562 0 0.67073444684008199 0.50084626324420545 0.22238844715913 0.78084811589659187 0.30074819035913852 0 0.83070291234383831 0.14641016151432179 0.14641016151432179 1 0.31610726166461628 0.1880448979455934 1 0.31426750628021272 0.31270343261798911 0.68761148188185484 0.30074819035913852 0 0.83070291234383831 0.31426750628021272 0.31270343261798911 0.68761148188185484 0.31610726166461628 0.1880448979455934 1 0.50084626324420545 0.22238844715913 0.78084811589659187 0.30074819035913852 0 0.83070291234383831 0.31610726166461628 0.1880448979455934 1 0.49836539647917322 0 0.82773865802723501 0.50084626324420545 0.22238844715913 0.78084811589659187 0.39615987727709562 0 0.67073444684008199 0.30074819035913852 0 0.83070291234383831 0.49836539647917322 0 0.82773865802723501 0.50084626324420545 0.22238844715913 0.78084811589659187 0.31610726166461628 0.1880448979455934 1 0.40000000000166441 0 1 0.49836539647917322 0 0.82773865802723501 0.50966790549576724 0.1627551561802443 1 0.40000000000166441 0 1 0.49836539647917322 0 0.82773865802723501 0.30074819035913852 0 0.83070291234383831 0.31610726166461628 0.1880448979455934 1 0.31610726166461628 0.1880448979455934 1 0.50966790549576724 0.1627551561802443 1 0.49836539647917322 0 0.82773865802723501 0.50084626324420545 0.22238844715913 0.78084811589659187 0.45812322962173568 0.31024977578554058 1 0.50966790549576724 0.1627551561802443 1 0.31610726166461628 0.1880448979455934 1 0.50084626324420545 0.22238844715913 0.78084811589659187 0.40000000000166441 0 1 0.30074819035913852 0 0.83070291234383831 0.20000000000083221 0 1 0.31610726166461628 0.1880448979455934 1 0 0.14641016151490169 0.85358983848532144 0 0.16196943494415611 0.69380980080116506 0 0.31807971531776508 0.80839867011913336 0.31426750628021272 0.31270343261798911 0.68761148188185484 0.16929708765653109 0.30074819035870082 1 0.31610726166461628 0.1880448979455934 1 0.14641016151432179 0.14641016151432179 1 0.31426750628021272 0.31270343261798911 0.68761148188185484 0.14641016151432179 0.14641016151432179 1 0.20000000000083221 0 1 0.14641016151479661 0 0.85358983848542624 0.30074819035913852 0 0.83070291234383831 0.14641016151432179 0.14641016151432179 1 0.30074819035913852 0 0.83070291234383831 0.14641016151479661 0 0.85358983848542624 0.31426750628021272 0.31270343261798911 0.68761148188185484 0.14641016151432179 0.14641016151432179 1 0.20000000000083221 0 1 0.30074819035913852 0 0.83070291234383831 0.31610726166461628 0.1880448979455934 1 0.18818969570926641 0 0.68364148842842287 0.14641016151479661 0 0.85358983848542624 0.30074819035913852 0 0.83070291234383831 0.31426750628021272 0.31270343261798911 0.68761148188185484 0 0.14641016151490169 0.85358983848532144 0.16929708765653109 0.30074819035870082 1 0.14641016151432179 0.14641016151432179 1 0.31426750628021272 0.31270343261798911 0.68761148188185484 0.14641016151432179 0.14641016151432179 1 0.14641016151479661 0 0.85358983848542624 0 0.14641016151490169 0.85358983848532144 0.31426750628021272 0.31270343261798911 0.68761148188185484 0 0.16196943494415611 0.69380980080116506 0 0.14641016151490169 0.85358983848532144 0.14641016151479661 0 0.85358983848542624 0.31426750628021272 0.31270343261798911 0.68761148188185484 0 0.20000000000083221 1 0 0.31807971531776508 0.80839867011913336 0.16929708765653109 0.30074819035870082 1 0 0.14641016151490169 0.85358983848532144 0.14641016151432179 0.14641016151432179 1 0 0.20000000000083221 1 0.16929708765653109 0.30074819035870082 1 0 0.14641016151490169 0.85358983848532144 0 0.16196943494415611 0.69380980080116506 0.14641016151479661 0 0.85358983848542624 0 0 0.79999999999999982 0.18818969570926641 0 0.68364148842842287 0 0.14641016151490169 0.85358983848532144 0.14641016151479661 0 0.85358983848542624 0 0 0.79999999999999982 0 0.16196943494415611 0.69380980080116506 0 0 1 0 0.20000000000083221 1 0.14641016151432179 0.14641016151432179 1 0 0.14641016151490169 0.85358983848532144 0.14641016151479661 0 0.85358983848542624 0 0 0.79999999999999982 0 0 1 0 0.14641016151490169 0.85358983848532144 0 0 1 0.14641016151432179 0.14641016151432179 1 0.20000000000083221 0 1 0.14641016151479661 0 0.85358983848542624 0.14641016151479661 0 0.85358983848542624 0 0 1 0.14641016151432179 0.14641016151432179 1 0 0.14641016151490169 0.85358983848532144 
</DataArray>
</Points>
<Cells>
<DataArray type="UInt32" Name="connectivity" format="ascii">
0 1 2 3 4 5 6 7 8 9 10 11 12 13 14 15 16 17 18 19 20 21 22 23 24 25 26 27 28 29 30 31 32 33 34 35 36 37 38 39 40 41 42 43 44 45 46 47 48 49 50 51 52 53 54 55 56 57 58 59 60 61 62 63 64 65 66 67 68 69 70 71 72 73 74 75 76 77 78 79 80 81 82 83 84 85 86 87 88 89 90 91 92 93 94 95 96 97 98 99 100 101 102 103 104 105 106 107 108 109 110 111 112 113 114 115 116 117 118 119 120 121 122 123 124 125 126 127 128 129 130 131 132 133 134 135 136 137 138 139 140 141 142 143 144 145 146 147 148 149 150 151 152 153 154 155 156 157 158 159 160 161 162 163 164 165 166 167 168 169 170 171 172 173 174 175 176 177 178 179 180 181 182 183 184 185 186 187 188 189 190 191 192 193 194 195 196 197 198 199 200 201 202 203 204 205 206 207 208 209 210 211 212 213 214 215 216 217 218 219 220 221 222 223 224 225 226 227 228 229 230 231 232 233 234 235 236 237 238 239 240 241 242 243 244 245 246 247 248 249 250 251 252 253 254 255 256 257 258 259 260 261 262 263 264 265 266 267 268 269 270 271 272 273 274 275 276 277 278 279 280 281 282 283 284 285 286 287 288 289 290 291 292 293 294 295 296 297 298 299 300 301 302 303 304 305 306 307 308 309 310 311 312 313 314 315 316 317 318 319 320 321 322 323 324 325 326 327 328 329 330 331 332 333 334 335 336 337 338 339 340 341 342 343 344 345 346 347 348 349 350 351 352 353 354 355 356 357 358 359 360 361 362 363 364 365 366 367 368 369 370 371 372 373 374 375 376 377 378 379 380 381 382 383 384 385 386 387 388 389 390 391 392 393 394 395 396 397 398 399 400 401 402 403 404 405 406 407 408 409 410 411 412 413 414 415 416 417 418 419 420 421 422 423 424 425 426 427 428 429 430 431 432 433 434 435 436 437 438 439 440 441 442 443 444 445 446 447 448 449 450 451 452 453 454 455 456 457 458 459 460 461 462 463 464 465 466 467 468 469 470 471 472 473 474 475 476 477 478 479 480 481 482 483 484 485 486 487 488 489 490 491 492 493 494 495 496 497 498 499 500 501 502 503 504 505 506 507 508 509 510 511 512 513 514 515 516 517 518 519 520 521 522 523 524 525 526 527 528 529 530 531 532 533 534 535 536 537 538 539 540 541 542 543 544 545 546 547 548 549 550 551 552 553 554 555 556 557 558 559 560 561 562 563 564 565 566 567 568 569 570 571 572 573 574 575 576 577 578 579 580 581 582 583 584 585 586 587 588 589 590 591 592 593 594 595 596 597 598 599 600 601 602 603 604 605 606 607 608 609 610 611 612 613 614 615 616 617 618 619 620 621 622 623 624 625 626 627 628 629 630 631 632 633 634 635 636 637 638 639 640 641 642 643 644 645 646 647 648 649 650 651 652 653 654 655 656 657 658 659 660 661 662 663 664 665 666 667 668 669 670 671 672 673 674 675 676 677 678 679 680 681 682 683 684 685 686 687 688 689 690 691 692 693 694 695 696 697 698 699 700 701 702 703 704 705 706 707 708 709 710 711 712 713 714 715 716 717 718 719 720 721 722 723 724 725 726 727 728 729 730 731 732 733 734 735 736 737 738 739 740 741 742 743 744 745 746 747 748 749 750 751 752 753 754 755 756 757 758 759 760 761 762 763 764 765 766 767 768 769 770 771 772 773 774 775 776 777 778 779 780 781 782 783 784 785 786 787 788 789 790 791 792 793 794 795 796 797 798 799 800 801 802 803 804 805 806 807 808 809 810 811 812 813 814 815 816 817 818 819 820 821 822 823 824 825 826 827 828 829 830 831 832 833 834 835 836 837 838 839 840 841 842 843 844 845 846 847 848 849 850 851 852 853 854 855 856 857 858 859 860 861 862 863 864 865 866 867 868 869 870 871 872 873 874 875 876 877 878 879 880 881 882 883 884 885 886 887 888 889 890 891 892 893 894 895 896 897 898 899 900 901 902 903 904 905 906 907 908 909 910 911 912 913 914 915 916 917 918 919 920 921 922 923 924 925 926 927 928 929 930 931 932 933 934 935 936 937 938 939 940 941 942 943 944 945 946 947 948 949 950 951 952 953 954 955 956 957 958 959 960 961 962 963 964 965 966 967 968 969 970 971 972 973 974 975 976 977 978 979 980 981 982 983 984 985 986 987 988 989 990 991 992 993 994 995 996 997 998 999 1000 1001 1002 1003 1004 1005 1006 1007 1008 1009 1010 1011 1012 1013 1014 1015 1016 1017 1018 1019 1020 1021 1022 1023 1024 1025 1026 1027 1028 1029 1030 1031 1032 1033 1034 1035 1036 1037 1038 1039 1040 1041 1042 1043 1044 1045 1046 1047 1048 1049 1050 1051 1052 1053 1054 1055 1056 1057 1058 1059 1060 1061 1062 1063 1064 1065 1066 1067 1068 1069 1070 1071 1072 1073 1074 1075 1076 1077 1078 1079 1080 1081 1082 1083 1084 1085 1086 1087 1088 1089 1090 1091 1092 1093 1094 1095 1096 1097 1098 1099 1100 1101 1102 1103 1104 1105 1106 1107 1108 1109 1110 1111 1112 1113 1114 1115 1116 1117 1118 1119 1120 1121 1122 1123 1124 1125 1126 1127 1128 1129 1130 1131 1132 1133 1134 1135 1136 1137 1138 1139 1140 1141 1142 1143 1144 1145 1146 1147 1148 1149 1150 1151 1152 1153 1154 1155 1156 1157 1158 1159 1160 1161 1162 1163 1164 1165 1166 1167 1168 1169 1170 1171 1172 1173 1174 1175 1176 1177 1178 1179 1180 1181 1182 1183 1184 1185 1186 1187 1188 1189 1190 1191 1192 1193 1194 1195 1196 1197 1198 1199 1200 1201 1202 1203 1204 1205 1206 1207 1208 1209 1210 1211 1212 1213 1214 1215 1216 1217 1218 1219 1220 1221 1222 1223 1224 1225 1226 1227 1228 1229 1230 1231 1232 1233 1234 1235 1236 1237 1238 1239 1240 1241 1242 1243 1244 1245 1246 1247 1248 1249 1250 1251 1252 1253 1254 1255 1256 1257 1258 1259 1260 1261 1262 1263 1264 1265 1266 1267 1268 1269 1270 1271 1272 1273 1274 1275 1276 1277 1278 1279 1280 1281 1282 1283 1284 1285 1286 1287 1288 1289 1290 1291 1292 1293 1294 1295 1296 1297 1298 1299 1300 1301 1302 1303 1304 1305 1306 1307 1308 1309 1310 1311 1312 1313 1314 1315 1316 1317 1318 1319 1320 1321 1322 1323 1324 1325 1326 1327 1328 1329 1330 1331 1332 1333 1334 1335 1336 1337 1338 1339 1340 1341 1342 1343 1344 1345 1346 1347 1348 1349 1350 1351 1352 1353 1354 1355 1356 1357 1358 1359 1360 1361 1362 1363 1364 1365 1366 1367 1368 1369 1370 1371 1372 1373 1374 1375 1376 1377 1378 1379 1380 1381 1382 1383 1384 1385 1386 1387 1388 1389 1390 1391 1392 1393 1394 1395 1396 1397 1398 1399 1400 1401 1402 1403 1404 1405 1406 1407 1408 1409 1410 1411 1412 1413 1414 1415 1416 1417 1418 1419 1420 1421 1422 1423 1424 1425 1426 1427 1428 1429 1430 1431 1432 1433 1434 1435 1436 1437 1438 1439 1440 1441 1442 1443 1444 1445 1446 1447 1448 1449 1450 1451 1452 1453 1454 1455 1456 1457 1458 1459 1460 1461 1462 1463 1464 1465 1466 1467 1468 1469 1470 1471 1472 1473 1474 1475 1476 1477 1478 1479 1480 1481 1482 1483 1484 1485 1486 1487 1488 1489 1490 1491 1492 1493 1494 1495 1496 1497 1498 1499 1500 1501 1502 1503 1504 1505 1506 1507 1508 1509 1510 1511 1512 1513 1514 1515 1516 1517 1518 1519 1520 1521 1522 1523 1524 1525 1526 1527 1528 1529 1530 1531 1532 1533 1534 1535 1536 1537 1538 1539 1540 1541 1542 1543 1544 1545 1546 1547 1548 1549 1550 1551 1552 1553 1554 1555 1556 1557 1558 1559 1560 1561 1562 1563 1564 1565 1566 1567 1568 1569 1570 1571 1572 1573 1574 1575 1576 1577 1578 1579 1580 1581 1582 1583 1584 1585 1586 1587 1588 1589 1590 1591 1592 1593 1594 1595 1596 1597 1598 1599 1600 1601 1602 1603 1604 1605 1606 1607 1608 1609 1610 1611 1612 1613 1614 1615 1616 1617 1618 1619 1620 1621 1622 1623 1624 1625 1626 1627 1628 1629 1630 1631 1632 1633 1634 1635 1636 1637 1638 1639 1640 1641 1642 1643 1644 1645 1646 1647 1648 1649 1650 1651 1652 1653 1654 1655 1656 1657 1658 1659 1660 1661 1662 1663 1664 1665 1666 1667 1668 1669 1670 1671 1672 1673 1674 1675 1676 1677 1678 1679 1680 1681 1682 1683 1684 1685 1686 1687 1688 1689 1690 1691 1692 1693 1694 1695 1696 1697 1698 1699 1700 1701 1702 1703 1704 1705 1706 1707 1708 1709 1710 1711 1712 1713 1714 1715 1716 1717 1718 1719 1720 1721 1722 1723 1724 1725 1726 1727 1728 1729 1730 1731 1732 1733 1734 1735 1736 1737 1738 1739 1740 1741 1742 1743 1744 1745 1746 1747 1748 1749 1750 1751 1752 1753 1754 1755 1756 1757 1758 1759 1760 1761 1762 1763 1764 1765 1766 1767 1768 1769 1770 1771 1772 1773 1774 1775 1776 1777 1778 1779 1780 1781 1782 1783 1784 1785 1786 1787 1788 1789 1790 1791 1792 1793 1794 1795 1796 1797 1798 1799 1800 1801 1802 1803 1804 1805 1806 1807 1808 1809 1810 1811 1812 1813 1814 1815 1816 1817 1818 1819 1820 1821 1822 1823 1824 1825 1826 1827 1828 1829 1830 1831 1832 1833 1834 1835 1836 1837 1838 1839 1840 1841 1842 1843 1844 1845 1846 1847 1848 1849 1850 1851 1852 1853 1854 1855 1856 1857 1858 1859 1860 1861 1862 1863 1864 1865 1866 1867 1868 1869 1870 1871 1872 1873 1874 1875 1876 1877 1878 1879 1880 1881 1882 1883 1884 1885 1886 1887 1888 1889 1890 1891 1892 1893 1894 1895 1896 1897 1898 1899 1900 1901 1902 1903 1904 1905 1906 1907 1908 1909 1910 1911 1912 1913 1914 1915 1916 1917 1918 1919 1920 1921 1922 1923 1924 1925 1926 1927 1928 1929 1930 1931 1932 1933 1934 1935 1936 1937 1938 1939 1940 1941 1942 1943 1944 1945 1946 1947 1948 1949 1950 1951 1952 1953 1954 1955 1956 1957 1958 1959 1960 1961 1962 1963 1964 1965 1966 1967 1968 1969 1970 1971 1972 1973 1974 1975 1976 1977 1978 1979 1980 1981 1982 1983 1984 1985 1986 1987 1988 1989 1990 1991 1992 1993 1994 1995 1996 1997 1998 1999 2000 2001 2002 2003 2004 2005 2006 2007 2008 2009 2010 2011 2012 2013 2014 2015 2016 2017 2018 2019 2020 2021 2022 2023 2024 2025 2026 2027 2028 2029 2030 2031 2032 2033 2034 2035 2036 2037 2038 2039 2040 2041 2042 2043 2044 2045 2046 2047 2048 2049 2050 2051 2052 2053 2054 2055 2056 2057 2058 2059 2060 2061 2062 2063 2064 2065 2066 2067 2068 2069 2070 2071 2072 2073 2074 2075 2076 2077 2078 2079 2080 2081 2082 2083 2084 2085 2086 2087 2088 2089 2090 2091 2092 2093 2094 2095 2096 2097 2098 2099 2100 2101 2102 2103 2104 2105 2106 2107 2108 2109 2110 2111 2112 2113 2114 2115 2116 2117 2118 2119 2120 2121 2122 2123 2124 2125 2126 2127 2128 2129 2130 2131 2132 2133 2134 2135 2136 2137 2138 2139 2140 2141 2142 2143 2144 2145 2146 2147 2148 2149 2150 2151 2152 2153 2154 2155 2156 2157 2158 2159 2160 2161 2162 2163 2164 2165 2166 2167 2168 2169 2170 2171 2172 2173 2174 2175 2176 2177 2178 2179 2180 2181 2182 2183 2184 2185 2186 2187 2188 2189 2190 2191 2192 2193 2194 2195 2196 2197 2198 2199 2200 2201 2202 2203 2204 2205 2206 2207 2208 2209 2210 2211 2212 2213 2214 2215 2216 2217 2218 2219 2220 2221 2222 2223 2224 2225 2226 2227 2228 2229 2230 2231 2232 2233 2234 2235 2236 2237 2238 2239 2240 2241 2242 2243 2244 2245 2246 2247 2248 2249 2250 2251 2252 2253 2254 2255 2256 2257 2258 2259 2260 2261 2262 2263 2264 2265 2266 2267 2268 2269 2270 2271 2272 2273 2274 2275 2276 2277 2278 2279 2280 2281 2282 2283 2284 2285 2286 2287 2288 2289 2290 2291 2292 2293 2294 2295 2296 2297 2298 2299 2300 2301 2302 2303 2304 2305 2306 2307 2308 2309 2310 2311 2312 2313 2314 2315 2316 2317 2318 2319 2320 2321 2322 2323 2324 2325 2326 2327 2328 2329 2330 2331 2332 2333 2334 2335 2336 2337 2338 2339 2340 2341 2342 2343 2344 2345 2346 2347 2348 2349 2350 2351 2352 2353 2354 2355 2356 2357 2358 2359 2360 2361 2362 2363 2364 2365 2366 2367 2368 2369 2370 2371 2372 2373 2374 2375 2376 2377 2378 2379 2380 2381 2382 2383 2384 2385 2386 2387 2388 2389 2390 2391 2392 2393 2394 2395 2396 2397 2398 2399 2400 2401 2402 2403 2404 2405 2406 2407 2408 2409 2410 2411 2412 2413 2414 2415 2416 2417 2418 2419 2420 2421 2422 2423 2424 2425 2426 2427 2428 2429 2430 2431 2432 2433 2434 2435 2436 2437 2438 2439 2440 2441 2442 2443 2444 2445 2446 2447 2448 2449 2450 2451 2452 2453 2454 2455 2456 2457 2458 2459 2460 2461 2462 2463 2464 2465 2466 2467 2468 2469 2470 2471 2472 2473 2474 2475 2476 2477 2478 2479 2480 2481 2482 2483 2484 2485 2486 2487 2488 2489 2490 2491 2492 2493 2494 2495 2496 2497 2498 2499 2500 2501 2502 2503 2504 2505 2506 2507 2508 2509 2510 2511 2512 2513 2514 2515 2516 2517 2518 2519 2520 2521 2522 2523 2524 2525 2526 2527 2528 2529 2530 2531 2532 2533 2534 2535 2536 2537 2538 2539 2540 2541 2542 2543 2544 2545 2546 2547 2548 2549 2550 2551 2552 2553 2554 2555 2556 2557 2558 2559 2560 2561 2562 2563 2564 2565 2566 2567 2568 2569 2570 2571 2572 2573 2574 2575 2576 2577 2578 2579 2580 2581 2582 2583 2584 2585 2586 2587 2588 2589 2590 2591 2592 2593 2594 2595 2596 2597 2598 2599 2600 2601 2602 2603 2604 2605 2606 2607 2608 2609 2610 2611 2612 2613 2614 2615 2616 2617 2618 2619 2620 2621 2622 2623 2624 2625 2626 2627 2628 2629 2630 2631 2632 2633 2634 2635 2636 2637 2638 2639 2640 2641 2642 2643 2644 2645 2646 2647 2648 2649 2650 2651 2652 2653 2654 2655 2656 2657 2658 2659 2660 2661 2662 2663 2664 2665 2666 2667 2668 2669 2670 2671 2672 2673 2674 2675 2676 2677 2678 2679 2680 2681 2682 2683 2684 2685 2686 2687 2688 2689 2690 2691 2692 2693 2694 2695 2696 2697 2698 2699 2700 2701 2702 2703 2704 2705 2706 2707 2708 2709 2710 2711 2712 2713 2714 2715 2716 2717 2718 2719 2720 2721 2722 2723 2724 2725 2726 2727 2728 2729 2730 2731 2732 2733 2734 2735 2736 2737 2738 2739 2740 2741 2742 2743 2744 2745 2746 2747 2748 2749 2750 2751 2752 2753 2754 2755 2756 2757 2758 2759 2760 2761 2762 2763 2764 2765 2766 2767 2768 2769 2770 2771 2772 2773 2774 2775 2776 2777 2778 2779 2780 2781 2782 2783 2784 2785 2786 2787 2788 2789 2790 2791 2792 2793 2794 2795 2796 2797 2798 2799 2800 2801 2802 2803 2804 2805 2806 2807 2808 2809 2810 2811 2812 2813 2814 2815 2816 2817 2818 2819 2820 2821 2822 2823 2824 2825 2826 2827 2828 2829 2830 2831 2832 2833 2834 2835 2836 2837 2838 2839 2840 2841 2842 2843 2844 2845 2846 2847 2848 2849 2850 2851 2852 2853 2854 2855 2856 2857 2858 2859 2860 2861 2862 2863 2864 2865 2866 2867 2868 2869 2870 2871 2872 2873 2874 2875 
</DataArray>
<DataArray type="UInt32" Name="offsets" format="ascii">
4 8 12 16 20 24 28 32 36 40 44 48 52 56 60 64 68 72 76 80 84 88 92 96 100 104 108 112 116 120 124 128 132 136 140 144 148 152 156 160 164 168 172 176 180 184 188 192 196 200 204 208 212 216 220 224 228 232 236 240 244 248 252 256 260 264 268 272 276 280 284 288 292 296 300 304 308 312 316 320 324 328 332 336 340 344 348 352 356 360 364 368 372 376 380 384 388 392 396 400 404 408 412 416 420 424 428 432 436 440 444 448 452 456 460 464 468 472 476 480 484 488 492 496 500 504 508 512 516 520 524 528 532 536 540 544 548 552 556 560 564 568 572 576 580 584 588 592 596 600 604 608 612 616 620 624 628 632 636 640 644 648 652 656 660 664 668 672 676 680 684 688 692 696 700 704 708 712 716 720 724 728 732 736 740 744 748 752 756 760 764 768 772 776 780 784 788 792 796 800 804 808 812 816 820 824 828 832 836 840 844 848 852 856 860 864 868 872 876 880 884 888 892 896 900 904 908 912 916 920 924 928 932 936 940 944 948 952 956 960 964 968 972 976 980 984 988 992 996 1000 1004 1008 1012 1016 1020 1024 1028 1032 1036 1040 1044 1048 1052 1056 1060 1064 1068 1072 1076 1080 1084 1088 1092 1096 1100 1104 1108 1112 1116 1120 1124 1128 1132 1136 1140 1144 1148 1152 1156 1160 1164 1168 1172 1176 1180 1184 1188 1192 1196 1200 1204 1208 1212 1216 1220 1224 1228 1232 1236 1240 1244 1248 1252 1256 1260 1264 1268 1272 1276 1280 1284 1288 1292 1296 1300 1304 1308 1312 1316 1320 1324 1328 1332 1336 1340 1344 1348 1352 1356 1360 1364 1368 1372 1376 1380 1384 1388 1392 1396 1400 1404 1408 1412 1416 1420 1424 1428 1432 1436 1440 1444 1448 1452 1456 1460 1464 1468 1472 1476 1480 1484 1488 1492 1496 1500 1504 1508 1512 1516 1520 1524 1528 1532 1536 1540 1544 1548 1552 1556 1560 1564 1568 1572 1576 1580 1584 1588 1592 1596 1600 1604 1608 1612 1616 1620 1624 1628 1632 1636 1640 1644 1648 1652 1656 1660 1664 1668 1672 1676 1680 1684 1688 1692 1696 1700 1704 1708 1712 1716 1720 1724 1728 1732 1736 1740 1744 1748 1752 1756 1760 1764 1768 1772 1776 1780 1784 1788 1792 1796 1800 1804 1808 1812 1816 1820 1824 1828 1832 1836 1840 1844 1848 1852 1856 1860 1864 1868 1872 1876 1880 1884 1888 1892 1896 1900 1904 1908 1912 1916 1920 1924 1928 1932 1936 1940 1944 1948 1952 1956 1960 1964 1968 1972 1976 1980 1984 1988 1992 1996 2000 2004 2008 2012 2016 2020 2024 2028 2032 2036 2040 2044 2048 2052 2056 2060 2064 2068 2072 2076 2080 2084 2088 2092 2096 2100 2104 2108 2112 2116 2120 2124 2128 2132 2136 2140 2144 2148 2152 2156 2160 2164 2168 2172 2176 2180 2184 2188 2192 2196 2200 2204 2208 2212 2216 2220 2224 2228 2232 2236 2240 2244 2248 2252 2256 2260 2264 2268 2272 2276 2280 2284 2288 2292 2296 2300 2304 2308 2312 2316 2320 2324 2328 2332 2336 2340 2344 2348 2352 2356 2360 2364 2368 2372 2376 2380 2384 2388 2392 2396 2400 2404 2408 2412 2416 2420 2424 2428 2432 2436 2440 2444 2448 2452 2456 2460 2464 2468 2472 2476 2480 2484 2488 2492 2496 2500 2504 2508 2512 2516 2520 2524 2528 2532 2536 2540 2544 2548 2552 2556 2560 2564 2568 2572 2576 2580 2584 2588 2592 2596 2600 2604 2608 2612 2616 2620 2624 2628 2632 2636 2640 2644 2648 2652 2656 2660 2664 2668 2672 2676 2680 2684 2688 2692 2696 2700 2704 2708 2712 2716 2720 2724 2728 2732 2736 2740 2744 2748 2752 2756 2760 2764 2768 2772 2776 2780 2784 2788 2792 2796 2800 2804 2808 2812 2816 2820 2824 2828 2832 2836 2840 2844 2848 2852 2856 2860 2864 2868 2872 2876 
</DataArray>
<DataArray type="UInt32" Name="types" format="ascii">
10 10 10 10 10 10 10 10 10 10 10 10 10 10 10 10 10 10 10 10 10 10 10 10 10 10 10 10 10 10 10 10 10 10 10 10 10 10 10 10 10 10 10 10 10 10 10 10 10 10 10 10 10 10 10 10 10 10 10 10 10 10 10 10 10 10 10 10 10 10 10 10 10 10 10 10 10 10 10 10 10 10 10 10 10 10 10 10 10 10 10 10 10 10 10 10 10 10 10 10 10 10 10 10 10 10 10 10 10 10 10 10 10 10 10 10 10 10 10 10 10 10 10 10 10 10 10 10 10 10 10 10 10 10 10 10 10 10 10 10 10 10 10 10 10 10 10 10 10 10 10 10 10 10 10 10 10 10 10 10 10 10 10 10 10 10 10 10 10 10 10 10 10 10 10 10 10 10 10 10 10 10 10 10 10 10 10 10 10 10 10 10 10 10 10 10 10 10 10 10 10 10 10 10 10 10 10 10 10 10 10 10 10 10 10 10 10 10 10 10 10 10 10 10 10 10 10 10 10 10 10 10 10 10 10 10 10 10 10 10 10 10 10 10 10 10 10 10 10 10 10 10 10 10 10 10 10 10 10 10 10 10 10 10 10 10 10 10 10 10 10 10 10 10 10 10 10 10 10 10 10 10 10 10 10 10 10 10 10 10 10 10 10 10 10 10 10 10 10 10 10 10 10 10 10 10 10 10 10 10 10 10 10 10 10 10 10 10 10 10 10 10 10 10 10 10 10 10 10 10 10 10 10 10 10 10 10 10 10 10 10 10 10 10 10 10 10 10 10 10 10 10 10 10 10 10 10 10 10 10 10 10 10 10 10 10 10 10 10 10 10 10 10 10 10 10 10 10 10 10 10 10 10 10 10 10 10 10 10 10 10 10 10 10 10 10 10 10 10 10 10 10 10 10 10 10 10 10 10 10 10 10 10 10 10 10 10 10 10 10 10 10 10 10 10 10 10 10 10 10 10 10 10 10 10 10 10 10 10 10 10 10 10 10 10 10 10 10 10 10 10 10 10 10 10 10 10 10 10 10 10 10 10 10 10 10 10 10 10 10 10 10 10 10 10 10 10 10 10 10 10 10 10 10 10 10 10 10 10 10 10 10 10 10 10 10 10 10 10 10 10 10 10 10 10 10 10 10 10 10 10 10 10 10 10 10 10 10 10 10 10 10 10 10 10 10 10 10 10 10 10 10 10 10 10 10 10 10 10 10 10 10 10 10 10 10 10 10 10 10 10 10 10 10 10 10 10 10 10 10 10 10 10 10 10 10 10 10 10 10 10 10 10 10 10 10 10 10 10 10 10 10 10 10 10 10 10 10 10 10 10 10 10 10 10 10 10 10 10 10 10 10 10 10 10 10 10 10 10 10 10 10 10 10 10 10 10 10 10 10 10 10 10 10 10 10 10 10 10 10 10 10 10 10 10 10 10 10 10 10 10 10 10 10 10 10 10 10 10 10 10 10 10 10 10 10 10 10 10 10 10 10 10 10 10 10 10 10 10 10 10 10 10 10 10 10 10 10 10 10 10 10 10 10 10 10 10 10 10 10 10 10 10 10 10 10 10 10 10 10 10 10 10 10 10 10 10 10 10 10 10 10 10 10 10 10 10 10 10 
</DataArray>
</Cells>
<PointData Scalars="" Vectors="displacement," Tensors="">
<DataArray type="Float64" Name="displacement" NumberOfComponents="3" format="ascii">
0.07594832025058644 -1.6601592839536001e-06 -1.3621265305922516e-05 0.040676842976157396 -1.2736602406880283e-06 -1.3119162761027975e-05 0.035177991836780352 -1.8842962537450216e-06 -1.0485144516751744e-05 0.075102502349290806 -1.0053227371540888e-06 -0.30001271443275135 -3.1860553905360346e-10 -2.2450366479909491e-06 -1.3084798831366212e-05 -4.307678341437816e-10 -2.8117569938499871e-06 -1.4124178965399072e-05 0.035177991836780352 -1.8842962537450216e-06 -1.0485144516746418e-05 -6.547882965426715e-10 -1.8386360481136697e-06 -0.14052806360467182 -4.3076783414378155e-10 -2.8117569938499871e-06 -1.4124178965387701e-05 0.048052834905327045 -3.0711904998232841e-06 -1.4867704995843313e-05 0.035177991836780352 -1.8842962537450216e-06 -1.0485144516746418e-05 0.035178159262654426 -2.0563752283509324e-06 -0.14052995131524296 -6.547882965426715e-10 -1.8386360481136697e-06 -0.14052806360467182 -5.5456798828319235e-10 -2.6787451292189364e-06 -0.19196197673455584 -4.3076783414378155e-10 -2.8117569938499871e-06 -1.4124178965387701e-05 0.035178159262654426 -2.0563752283509324e-06 -0.14052995131524296 -6.547882965426715e-10 -1.8386360481136697e-06 -0.14052806360467182 -6.6855078463729931e-10 -7.0740958680914743e-07 -0.16249521719413496 -4.8545131430016372e-10 -1.7607125128512707e-06 -0.30339414410681909 0.075102502349290834 -1.0053227371540884e-06 -0.30001271443275124 0.075871606618763451 -2.7723669158612138e-06 -0.179037450760791 0.03517815926265442 -2.0563752283509324e-06 -0.14052995131524293 0.040698508726101902 -2.6014451145598377e-06 -0.28804743455111514 0.075102502349290806 -1.0053227371540888e-06 -0.30001271443275135 -6.547882965426715e-10 -1.8386360481136697e-06 -0.14052806360467182 -4.3076783699061441e-10 -2.8117569938499866e-06 -1.4124178965382014e-05 0.035177991836780352 -1.8842962537450216e-06 -1.0485144516746418e-05 0.035178159262654426 -2.0563752283509324e-06 -0.14052995131524296 0.035177991836780352 -1.8842962537450216e-06 -1.0485144516746418e-05 0.03517815926265442 -2.0563752283509324e-06 -0.14052995131524298 0.075871606618763451 -2.7723669158612138e-06 -0.179037450760791 0.075102502349290806 -1.0053227371540888e-06 -0.30001271443275135 0.035177991836780352 -1.8842962537450216e-06 -1.0485144516746418e-05 -6.6855078327845735e-10 -7.074095868091469e-07 -0.16249521719413493 -6.5478829382265122e-10 -1.8386360481136701e-06 -0.14052806360467182 0.075102502349290806 -1.0053227371540888e-06 -0.30001271443275135 0.035177991836780352 -1.8842962537450216e-06 -1.0485144516746418e-05 -6.5478829622076806e-10 -1.8386360481136697e-06 -0.14052806360467179 0.035178159262654426 -2.0563752283509324e-06 -0.14052995131524296 0.075102502349290806 -1.0053227371540888e-06 -0.30001271443275135 -6.547882965426715e-10 -1.8386360481136697e-06 -0.14052806360467182 0.040698508726101909 -2.6014451145598377e-06 -0.28804743455111514 0.035178159262654426 -2.0563752283509324e-06 -0.14052995131524296 0.07510250234929082 -1.0053227371540888e-06 -0.3000127144327514 0.035178159262654426 -2.0563752283509324e-06 -0.14052995131524296 -6.547882960721114e-10 -1.8386360481136697e-06 -0.14052806360467182 -5.5456799321403976e-10 -2.6787451292189364e-06 -0.19196197673455584 0.040698508726101902 -2.6014451145598377e-06 -0.28804743455111514 -4.8545131430016372e-10 -1.7607125128512707e-06 -0.30339414410681909 -5.5456799321403976e-10 -2.6787451292189364e-06 -0.19196197673455584 -6.547882965426715e-10 -1.8386360481136697e-06 -0.14052806360467182 0.040698508726101902 -2.6014451145598377e-06 -0.28804743455111514 -6.547882965426715e-10 -1.8386360481136697e-06 -0.14052806360467182 0.035177991836780352 -1.8842962537450216e-06 -1.0485144516746418e-05 -3.1860553905360346e-10 -2.2450366479909491e-06 -1.3084798831365301e-05 -6.6855078463729931e-10 -7.0740958680914743e-07 -0.16249521719413496 -6.6855078463729931e-10 -7.0740958680914743e-07 -0.16249521719413496 0.035177991836780359 -1.8842962537450211e-06 -1.0485144516786879e-05 -3.1860553905360346e-10 -2.2450366479909491e-06 -1.3084798831366212e-05 0.040676842976157396 -1.2736602406880283e-06 -1.3119162761027975e-05 0.048052834905327045 -3.0711904998232841e-06 -1.4867704995843313e-05 0.035177991836780345 -1.8842962537450216e-06 -1.0485144516762058e-05 0.075871606618763451 -2.7723669158612138e-06 -0.179037450760791 0.07594832025058644 -1.6601592839536001e-06 -1.3621265305922516e-05 0.048052834905327045 -3.0711904998232841e-06 -1.4867704995843313e-05 0.035177991836780359 -1.8842962537450216e-06 -1.0485144516746286e-05 0.03517815926265442 -2.0563752283509319e-06 -0.14052995131524296 0.075871606618763451 -2.7723669158612138e-06 -0.179037450760791 0.075871606618763451 -2.7723669158612138e-06 -0.179037450760791 0.096101621452558739 -2.815374192407163e-06 -1.7602884489383982e-05 0.048052834905327045 -3.0711904998232841e-06 -1.4867704995852097e-05 0.07594832025058644 -1.6601592839536001e-06 -1.3621265305922516e-05 0.075871606618763451 -2.7723669158612138e-06 -0.179037450760791 0.07594832025058644 -1.6601592839536003e-06 -1.3621265305923198e-05 0.035177991836780338 -1.8842962537450213e-06 -1.0485144516755319e-05 0.075102502349290792 -1.0053227371540886e-06 -0.30001271443275135 0.07594832025058644 -1.6601592839536001e-06 -1.3621265305922516e-05 0.075102502349290792 -1.0053227371540886e-06 -0.30001271443275129 0.075871606618763437 -2.7723669158612138e-06 -0.17903745076079103 0.12022126010811107 -1.9282272667265849e-06 -0.21677576632864878 0.07594832025058644 -1.6601592839536001e-06 -1.3621265305922516e-05 0.1186615913257463 -2.6079469445568442e-06 -0.12706868844380911 0.12244494910903074 -1.4193826823592946e-06 -1.2742234005569866e-05 0.12022126010811104 -1.9282272667265845e-06 -0.21677576632864881 0.07594832025058644 -1.6601592839536001e-06 -1.3621265305922516e-05 0.12244494910903074 -1.4193826823592948e-06 -1.2742234005599355e-05 0.11006383584176167 -8.7374364645066815e-07 -1.0992237134837006e-05 0.12022126010811104 -1.9282272667265849e-06 -0.21677576632864884 0.11866159132574632 -2.6079469445568446e-06 -0.1270686884438092 0.096101621452558739 -2.815374192407163e-06 -1.7602884489383982e-05 0.075948320250586454 -1.6601592839536005e-06 -1.3621265305860408e-05 0.12244494910903074 -1.4193826823592946e-06 -1.2742234005569866e-05 0.11866159132574632 -2.6079469445568446e-06 -0.1270686884438092 0.096101621452558739 -2.815374192407163e-06 -1.7602884489383982e-05 0.075871606618763451 -2.7723669158612138e-06 -0.179037450760791 0.075948320250586454 -1.6601592839536009e-06 -1.3621265305905321e-05 0.075871606618763451 -2.7723669158612138e-06 -0.179037450760791 0.11457189091605374 -3.1928393875566057e-06 -0.30466277050141577 0.11866159132574632 -2.6079469445568446e-06 -0.1270686884438092 0.12022126010811104 -1.9282272667265849e-06 -0.21677576632864878 0.07594832025058644 -1.6601592839536001e-06 -1.3621265305922516e-05 0.075871606618763451 -2.7723669158612138e-06 -0.17903745076079097 0.1186615913257463 -2.6079469445568442e-06 -0.12706868844380925 0.12022126010811104 -1.9282272667265845e-06 -0.21677576632864884 0.074560778036686037 -2.2262383406168586e-06 -0.52001109796547262 0.12030957620839408 -1.4513883802881354e-06 -0.50761674916761834 0.077237816825989639 -2.4035673057815984e-06 -0.37180863909628736 0.05307606517052281 -1.573016154801958e-06 -0.47993533983535147 0.077237816825989639 -2.4035673057815984e-06 -0.37180863909628736 0.075102502349290806 -1.0053227371540888e-06 -0.30001271443275135 0.040698508726101902 -2.6014451145598377e-06 -0.28804743455111514 0.053076065170522803 -1.5730161548019583e-06 -0.47993533983535147 0.077237816825989639 -2.4035673057815984e-06 -0.37180863909628736 0.12030957620839407 -1.4513883802881352e-06 -0.50761674916761834 0.07510250234929082 -1.0053227371540888e-06 -0.30001271443275135 0.05307606517052281 -1.5730161548019585e-06 -0.47993533983535153 0.077237816825989639 -2.4035673057815984e-06 -0.37180863909628736 0.12030957620839408 -1.4513883802881354e-06 -0.50761674916761812 0.11457189091605376 -3.1928393875566061e-06 -0.30466277050141582 0.12022126010811104 -1.9282272667265849e-06 -0.21677576632864878 0.077237816825989639 -2.4035673057815984e-06 -0.37180863909628736 0.07510250234929082 -1.0053227371540892e-06 -0.30001271443275129 0.12030957620839408 -1.4513883802881354e-06 -0.50761674916761834 0.12022126010811102 -1.9282272667265845e-06 -0.21677576632864881 0.077237816825989639 -2.4035673057815984e-06 -0.37180863909628736 0.075871606618763437 -2.7723669158612138e-06 -0.179037450760791 0.040698508726101902 -2.6014451145598377e-06 -0.28804743455111514 0.075102502349290806 -1.0053227371540888e-06 -0.30001271443275135 0.075871606618763451 -2.7723669158612138e-06 -0.179037450760791 0.075102502349290806 -1.0053227371540888e-06 -0.30001271443275135 0.077237816825989639 -2.4035673057815984e-06 -0.37180863909628736 0.12022126010811104 -1.9282272667265849e-06 -0.21677576632864878 0.075871606618763451 -2.7723669158612138e-06 -0.179037450760791 0.077237816825989639 -2.4035673057815984e-06 -0.37180863909628736 0.11457189091605376 -3.1928393875566065e-06 -0.30466277050141577 0.12022126010811104 -1.9282272667265849e-06 -0.21677576632864878 0.074560778036686037 -2.2262383406168586e-06 -0.52001109796547262 0.12012896741157128 -2.7593903300781537e-06 -0.46108458660242141 0.077237816825989639 -2.4035673057815984e-06 -0.37180863909628736 0.12030957620839408 -1.4513883802881356e-06 -0.50761674916761834 0.077237816825989639 -2.4035673057815984e-06 -0.37180863909628736 0.12012896741157128 -2.7593903300781537e-06 -0.46108458660242141 0.11457189091605374 -3.1928393875566057e-06 -0.30466277050141577 0.12030957620839408 -1.4513883802881354e-06 -0.50761674916761834 0.039336684175947087 -2.5928738652808348e-06 -0.4690078846569567 0.074560778036686037 -2.2262383406168586e-06 -0.52001109796547262 0.077237816825989639 -2.4035673057815984e-06 -0.37180863909628736 0.05307606517052281 -1.5730161548019583e-06 -0.47993533983535147 0.039336684175947087 -2.5928738652808348e-06 -0.4690078846569567 0.077237816825989639 -2.4035673057815984e-06 -0.37180863909628736 0.040698508726101902 -2.6014451145598377e-06 -0.28804743455111514 0.05307606517052281 -1.5730161548019583e-06 -0.47993533983535147 0.040698508726101902 -2.6014451145598377e-06 -0.28804743455111514 -6.547882965426715e-10 -1.8386360481136697e-06 -0.14052806360467182 -4.8545131675223011e-10 -1.7607125128512709e-06 -0.30339414410681909 0.075102502349290806 -1.0053227371540886e-06 -0.30001271443275129 -4.8545131430016372e-10 -1.7607125128512707e-06 -0.30339414410681909 0.03933668417594708 -2.5928738652808348e-06 -0.46900788465695675 0.040698508726101902 -2.6014451145598377e-06 -0.28804743455111514 0.053076065170522824 -1.5730161548019578e-06 -0.47993533983535147 -4.8545131430016372e-10 -1.7607125128512707e-06 -0.30339414410681909 0.040698508726101895 -2.6014451145598377e-06 -0.28804743455111514 0.075102502349290806 -1.0053227371540886e-06 -0.30001271443275135 0.053076065170522803 -1.573016154801958e-06 -0.47993533983535153 -3.975823305926784e-10 -3.1226660980784833e-06 -0.38391018219809836 1.4960012008564966e-10 -3.5173731841769559e-06 -0.57585603950293807 0.039336684175947087 -2.5928738652808348e-06 -0.4690078846569567 -5.1593901211453877e-10 -2.2570712989991993e-06 -0.48916097258311281 -3.975823305926784e-10 -3.1226660980784833e-06 -0.38391018219809836 -4.8545131430016372e-10 -1.7607125128512707e-06 -0.30339414410681909 0.039336684175947087 -2.5928738652808348e-06 -0.4690078846569567 0.040698508726101902 -2.6014451145598377e-06 -0.28804743455111514 0.039336684175947087 -2.5928738652808348e-06 -0.4690078846569567 -4.8545131102179507e-10 -1.7607125128512707e-06 -0.30339414410681903 -3.9758233049689574e-10 -3.1226660980784833e-06 -0.38391018219809836 -5.1593901211453877e-10 -2.2570712989991993e-06 -0.48916097258311281 -4.8545131430016372e-10 -1.7607125128512707e-06 -0.30339414410681909 -3.9758232320753126e-10 -3.1226660980784833e-06 -0.38391018219809836 -5.5456799321403976e-10 -2.6787451292189364e-06 -0.19196197673455584 0.040698508726101902 -2.6014451145598377e-06 -0.28804743455111514 -4.8545131430016372e-10 -1.7607125128512707e-06 -0.30339414410681909 -5.1593901211453877e-10 -2.2570712989991993e-06 -0.48916097258311281 0.039336684175947087 -2.5928738652808348e-06 -0.4690078846569567 0.053076065170522824 -1.5730161548019578e-06 -0.47993533983535147 -4.8545131430016372e-10 -1.7607125128512707e-06 -0.30339414410681909 -1.9891471800148843e-11 -9.3731369585258623e-07 -0.4396920476366083 -5.1593901022747251e-10 -2.2570712989991993e-06 -0.48916097258311281 0.053076065170522824 -1.5730161548019583e-06 -0.47993533983535147 -6.6855078463729931e-10 -7.0740958680914743e-07 -0.16249521719413496 -5.0102540983712648e-10 -4.5324760873939223e-07 -0.31601054982632937 -4.8545131430016372e-10 -1.7607125128512707e-06 -0.30339414410681909 0.075102502349290806 -1.0053227371540888e-06 -0.30001271443275135 -1.9891473110991307e-11 -9.3731369585258602e-07 -0.43969204763660835 0.07510250234929082 -1.0053227371540886e-06 -0.30001271443275124 0.059515889118506006 2.4475665358179851e-07 -0.43284827305995055 0.05307606517052281 -1.5730161548019583e-06 -0.47993533983535147 -4.8545131430016372e-10 -1.7607125128512707e-06 -0.30339414410681909 -5.0102540717025018e-10 -4.5324760873939223e-07 -0.31601054982632937 -1.9891473277671076e-11 -9.3731369585258602e-07 -0.43969204763660835 0.075102502349290806 -1.0053227371540888e-06 -0.30001271443275135 -5.0102540983712648e-10 -4.5324760873939223e-07 -0.31601054982632937 0.059515889118506013 2.4475665358179851e-07 -0.43284827305995061 0.075102502349290806 -1.0053227371540888e-06 -0.30001271443275129 0.053690843160526053 6.0369111123271029e-08 -0.21447990115305474 -1.9891473110991307e-11 -9.3731369585258602e-07 -0.43969204763660835 0.075102502349290806 -1.0053227371540892e-06 -0.30001271443275129 -5.0102540983712648e-10 -4.5324760873939223e-07 -0.31601054982632937 0.059515889118506006 2.4475665358179851e-07 -0.43284827305995055 -6.6855078463729931e-10 -7.0740958680914743e-07 -0.16249521719413496 -5.0102540983712648e-10 -4.5324760873939223e-07 -0.31601054982632937 0.075102502349290792 -1.005322737154089e-06 -0.3000127144327514 0.053690843160526039 6.0369111123270725e-08 -0.21447990115305485 -4.8545131430016372e-10 -1.7607125128512707e-06 -0.30339414410681909 0.075102502349290806 -1.0053227371540888e-06 -0.3000127144327514 -1.9891473730900055e-11 -9.3731369585258591e-07 -0.43969204763660835 0.053076065170522824 -1.5730161548019587e-06 -0.47993533983535153 -1.9891473110991307e-11 -9.3731369585258602e-07 -0.43969204763660835 -5.0102541169006927e-10 -4.5324760873939228e-07 -0.31601054982632937 -7.3645340373339069e-10 2.7082474166427535e-07 -0.49870605196678319 0.059515889118506006 2.4475665358179851e-07 -0.43284827305995055 0.12013141914810645 3.5903710729336126e-08 -0.47991124307827232 0.12030957620839408 -1.4513883802881352e-06 -0.50761674916761845 0.075102502349290765 -1.0053227371540888e-06 -0.30001271443275124 0.1202218845834658 -1.8453593784859338e-07 -0.23960786948024257 0.059515889118506006 2.4475665358179851e-07 -0.43284827305995055 0.12022188458346579 -1.8453593784859367e-07 -0.23960786948024262 0.075102502349290806 -1.0053227371540886e-06 -0.30001271443275129 0.053690843160526053 6.0369111123271135e-08 -0.21447990115305479 0.075102502349290806 -1.0053227371540888e-06 -0.30001271443275135 0.1202218845834658 -1.8453593784859333e-07 -0.2396078694802426 0.12030957620839408 -1.4513883802881356e-06 -0.50761674916761823 0.12022126010811104 -1.9282272667265849e-06 -0.21677576632864881 0.12013141914810645 3.5903710729336126e-08 -0.47991124307827232 0.059515889118506006 2.4475665358179851e-07 -0.43284827305995055 0.075102502349290834 -1.0053227371540888e-06 -0.30001271443275124 0.12030957620839408 -1.4513883802881354e-06 -0.50761674916761834 0.075102502349290806 -1.0053227371540888e-06 -0.30001271443275135 0.059515889118506006 2.4475665358179851e-07 -0.43284827305995055 0.12013141914810645 3.5903710729335954e-08 -0.47991124307827243 0.1202218845834658 -1.8453593784859333e-07 -0.23960786948024262 0.075102502349290806 -1.0053227371540888e-06 -0.30001271443275135 0.12030957620839408 -1.4513883802881356e-06 -0.50761674916761834 0.059515889118506006 2.4475665358179862e-07 -0.43284827305995055 0.05307606517052281 -1.5730161548019583e-06 -0.47993533983535147 0.07910651017974106 -8.9151534899229575e-07 -1.5131776290445415e-05 0.075102502349290792 -1.005322737154089e-06 -0.30001271443275135 0.11006383584176167 -8.7374364645066804e-07 -1.0992237134838791e-05 0.1202218845834658 -1.8453593784859333e-07 -0.23960786948024262 0.07910651017974106 -8.9151534899229575e-07 -1.5131776290445415e-05 0.1202218845834658 -1.8453593784859333e-07 -0.23960786948024262 0.077956710555825343 5.6123171086423689e-07 -1.5869871181511011e-05 0.053690843160526053 6.0369111123271135e-08 -0.21447990115305479 0.11006383584176167 -8.7374364645066815e-07 -1.0992237134837006e-05 0.1202218845834658 -1.8453593784859333e-07 -0.23960786948024262 0.075102502349290806 -1.0053227371540881e-06 -0.30001271443275135 0.12022126010811107 -1.9282272667265849e-06 -0.21677576632864878 0.11006383584176167 -8.7374364645066815e-07 -1.0992237134837006e-05 0.07910651017974106 -8.9151534899229575e-07 -1.5131776290445415e-05 0.07594832025058644 -1.6601592839536001e-06 -1.3621265305922516e-05 0.075102502349290806 -1.0053227371540888e-06 -0.30001271443275135 0.040676842976157396 -1.2736602406880283e-06 -1.3119162761027975e-05 0.075102502349290792 -1.0053227371540888e-06 -0.30001271443275135 0.07910651017974106 -8.9151534899229575e-07 -1.5131776290445415e-05 0.053690843160526053 6.0369111123271135e-08 -0.21447990115305479 0.07594832025058644 -1.6601592839536001e-06 -1.3621265305922516e-05 0.11006383584176167 -8.7374364645066815e-07 -1.0992237134837006e-05 0.075102502349290792 -1.0053227371540886e-06 -0.30001271443275135 0.12022126010811104 -1.9282272667265853e-06 -0.21677576632864878 0.07910651017974106 -8.9151534899229575e-07 -1.5131776290445415e-05 0.07510250234929082 -1.0053227371540896e-06 -0.30001271443275135 0.1202218845834658 -1.8453593784859333e-07 -0.23960786948024262 0.053690843160526067 6.0369111123271532e-08 -0.21447990115305479 0.07910651017974106 -8.9151534899229575e-07 -1.5131776290445415e-05 0.040676842976157396 -1.2736602406880285e-06 -1.3119162761024165e-05 0.07594832025058644 -1.6601592839536001e-06 -1.3621265305922516e-05 0.075102502349290792 -1.0053227371540888e-06 -0.3000127144327514 0.077956710555825343 5.6123171086423689e-07 -1.5869871181511011e-05 0.07910651017974106 -8.9151534899229575e-07 -1.5131776290445415e-05 0.1248352051965604 1.9388147493418762e-07 -1.4051072624594337e-05 0.1202218845834658 -1.8453593784859333e-07 -0.23960786948024262 0.1248352051965604 1.9388147493418762e-07 -1.4051072624594337e-05 0.07910651017974106 -8.9151534899229575e-07 -1.5131776290445415e-05 0.11006383584176167 -8.7374364645066815e-07 -1.0992237134837006e-05 0.1202218845834658 -1.8453593784859333e-07 -0.23960786948024262 -6.6855078463729931e-10 -7.0740958680914743e-07 -0.16249521719413496 0.035177991836780352 -1.8842962537450216e-06 -1.0485144516746418e-05 0.040676842976157396 -1.2736602406880283e-06 -1.3119162761025634e-05 0.075102502349290806 -1.0053227371540888e-06 -0.30001271443275135 -6.6855078463729931e-10 -7.0740958680914743e-07 -0.16249521719413496 0.075102502349290792 -1.0053227371540894e-06 -0.30001271443275135 0.040676842976157396 -1.2736602406880283e-06 -1.3119162761019187e-05 0.053690843160526046 6.0369111123271095e-08 -0.21447990115305479 0.041389197283021512 -9.6960534969633761e-08 -1.4298080167570689e-05 -7.731092408869757e-10 -3.2663223312598291e-08 -0.16534169646805474 0.040676842976157396 -1.2736602406880283e-06 -1.3119162761027975e-05 0.053690843160526053 6.0369111123271135e-08 -0.21447990115305479 0.041389197283021512 -9.6960534969633761e-08 -1.4298080167570689e-05 0.040676842976157396 -1.2736602406880283e-06 -1.3119162761027975e-05 0.07910651017974106 -8.9151534899229575e-07 -1.5131776290445415e-05 0.053690843160526053 6.0369111123271135e-08 -0.21447990115305479 -6.6855078463729931e-10 -7.0740958680914743e-07 -0.16249521719413496 -3.1860553905360346e-10 -2.2450366479909491e-06 -1.3084798831366212e-05 -3.9802807005134481e-10 -1.0306998360693502e-06 -1.6701124997322217e-05 0.040676842976157396 -1.2736602406880283e-06 -1.3119162761027975e-05 -6.6855078463729931e-10 -7.0740958680914743e-07 -0.16249521719413496 -3.9802807005134481e-10 -1.0306998360693502e-06 -1.6701124997322217e-05 -7.7310924334892173e-10 -3.2663223312598271e-08 -0.16534169646805474 0.040676842976157396 -1.2736602406880283e-06 -1.3119162761027975e-05 -6.6855078463729931e-10 -7.0740958680914743e-07 -0.16249521719413496 0.040676842976157396 -1.2736602406880283e-06 -1.3119162761027975e-05 -7.731092408869757e-10 -3.2663223312598291e-08 -0.16534169646805474 0.053690843160526039 6.0369111123271016e-08 -0.21447990115305474 -6.6855078463729931e-10 -7.0740958680914743e-07 -0.16249521719413496 -7.731092408869757e-10 -3.2663223312598291e-08 -0.16534169646805474 -5.0102541066183558e-10 -4.5324760873939223e-07 -0.31601054982632937 0.053690843160526039 6.0369111123271122e-08 -0.21447990115305482 -7.731092408869757e-10 -3.2663223312598291e-08 -0.16534169646805474 -3.9802807243138316e-10 -1.0306998360693499e-06 -1.6701124997308035e-05 -4.5756613781652512e-10 8.6621472206622961e-07 -1.5591139582235334e-05 0.041389197283021512 -9.6960534969633761e-08 -1.4298080167570689e-05 0.040676842976157396 -1.2736602406880283e-06 -1.3119162761027975e-05 -3.9802807005134481e-10 -1.0306998360693502e-06 -1.6701124997322217e-05 -7.731092408869757e-10 -3.2663223312598291e-08 -0.16534169646805474 0.041389197283021512 -9.6960534969633761e-08 -1.4298080167570689e-05 -5.2059677169311425e-10 8.4500475462848272e-07 -0.15258181443910909 -3.9839000833758157e-10 2.7212702161818813e-07 -0.31141619318428032 0.05369084316052606 6.0369111123270963e-08 -0.21447990115305474 0.046274589563746894 1.2438957467379568e-06 -0.18485238618669284 0.038195021239491561 9.3770127061349727e-07 -1.3051559747001775e-05 -5.2059677226773212e-10 8.4500475462848272e-07 -0.15258181443910909 0.053690843160526053 6.0369111123271109e-08 -0.21447990115305482 0.046274589563746894 1.2438957467379568e-06 -0.18485238618669286 -5.2059677169311425e-10 8.4500475462848272e-07 -0.15258181443910909 0.041389197283021512 -9.6960534969633761e-08 -1.4298080167570689e-05 -4.5756613761777916e-10 8.6621472206622961e-07 -1.5591139582234541e-05 0.038195021239491561 9.3770127061349727e-07 -1.3051559747001775e-05 0.077956710555825343 5.6123171086423689e-07 -1.5869871181511011e-05 0.038195021239491561 9.3770127061349727e-07 -1.3051559747001775e-05 0.05369084316052606 6.0369111123271162e-08 -0.21447990115305482 0.046274589563746894 1.243895746737957e-06 -0.18485238618669286 -4.5756613781652512e-10 8.6621472206622961e-07 -1.5591139582235334e-05 -7.731092408869757e-10 -3.2663223312598291e-08 -0.16534169646805474 0.041389197283021512 -9.6960534969633761e-08 -1.4298080167576183e-05 -5.2059677169311425e-10 8.4500475462848272e-07 -0.15258181443910909 -5.2059677169311425e-10 8.4500475462848272e-07 -0.15258181443910909 -4.5756613781652512e-10 8.6621472206622961e-07 -1.5591139582235334e-05 -5.4494016046830869e-10 1.805543830959242e-06 -1.2684027126328408e-05 0.038195021239491561 9.3770127061349727e-07 -1.3051559747001775e-05 0.074641830424585442 1.752611120591625e-06 -1.4130285642754775e-05 0.038195021239491568 9.3770127061349737e-07 -1.3051559746997479e-05 0.077956710555825343 5.6123171086423689e-07 -1.5869871181515335e-05 0.046274589563746894 1.243895746737957e-06 -0.18485238618669286 0.077956710555825343 5.6123171086423689e-07 -1.5869871181511011e-05 0.038195021239491561 9.3770127061349727e-07 -1.3051559747001775e-05 0.041389197283021512 -9.6960534969633761e-08 -1.4298080167570689e-05 0.053690843160526053 6.0369111123271135e-08 -0.21447990115305479 0.038195021239491561 9.3770127061349727e-07 -1.3051559747001775e-05 -5.20596772820731e-10 8.4500475462848272e-07 -0.15258181443910906 0.041389197283021512 -9.6960534969633761e-08 -1.4298080167570689e-05 0.053690843160526053 6.0369111123271135e-08 -0.21447990115305479 -5.2059677169311425e-10 8.4500475462848272e-07 -0.15258181443910909 -5.8235169540074084e-10 1.8885763352277956e-06 -0.29817700546689635 -3.9839000833758157e-10 2.7212702161818813e-07 -0.31141619318428032 0.046274589563746887 1.2438957467379572e-06 -0.18485238618669289 -7.731092408869757e-10 -3.2663223312598291e-08 -0.16534169646805474 -5.2059677169311425e-10 8.4500475462848272e-07 -0.15258181443910909 -3.9839000833758157e-10 2.7212702161818813e-07 -0.31141619318428032 0.053690843160526053 6.0369111123271135e-08 -0.21447990115305479 -7.731092408869757e-10 -3.2663223312598291e-08 -0.16534169646805474 0.041389197283021519 -9.6960534969633761e-08 -1.4298080167575192e-05 -5.2059677169311425e-10 8.4500475462848272e-07 -0.15258181443910909 0.053690843160526053 6.0369111123271135e-08 -0.21447990115305479 -3.9839000833758157e-10 2.7212702161818813e-07 -0.31141619318428032 0.054103653249498007 1.7589876120044933e-06 -0.46249186479292942 0.086131655425357473 1.0434828426423913e-06 -0.28823138389370256 0.046274589563746894 1.2438957467379568e-06 -0.18485238618669281 -3.9839000833758157e-10 2.7212702161818813e-07 -0.31141619318428032 0.05951588911850602 2.4475665358179846e-07 -0.43284827305995049 -5.0102540983712648e-10 -4.5324760873939223e-07 -0.31601054982632937 0.053690843160526067 6.0369111123271188e-08 -0.21447990115305476 -3.9839000833758157e-10 2.7212702161818813e-07 -0.31141619318428032 -5.8235169323650456e-10 1.8885763352277956e-06 -0.29817700546689635 0.054103653249498007 1.7589876120044933e-06 -0.46249186479292936 0.046274589563746887 1.243895746737957e-06 -0.18485238618669284 0.086131655425357473 1.0434828426423913e-06 -0.28823138389370256 0.053690843160526067 6.0369111123271228e-08 -0.21447990115305474 -3.983900064574629e-10 2.721270216181884e-07 -0.31141619318428038 0.04627458956374688 1.243895746737957e-06 -0.18485238618669281 -7.731092408869757e-10 -3.2663223312598291e-08 -0.16534169646805474 -3.9839000810014785e-10 2.7212702161818819e-07 -0.31141619318428032 -5.0102540983712648e-10 -4.5324760873939223e-07 -0.31601054982632937 0.053690843160526053 6.0369111123271135e-08 -0.21447990115305479 -3.9839000833758157e-10 2.7212702161818813e-07 -0.31141619318428032 0.059515889118506006 2.4475665358179873e-07 -0.43284827305995055 0.086131655425357473 1.0434828426423913e-06 -0.28823138389370256 0.054103653249498014 1.7589876120044928e-06 -0.46249186479292936 0.086131655425357473 1.0434828426423913e-06 -0.28823138389370256 0.059515889118505999 2.4475665358179873e-07 -0.43284827305995055 -3.9839001561655186e-10 2.7212702161818834e-07 -0.31141619318428038 0.053690843160526074 6.0369111123271109e-08 -0.21447990115305482 -5.0102540983712648e-10 -4.5324760873939223e-07 -0.31601054982632937 -3.9839001170322444e-10 2.7212702161818813e-07 -0.31141619318428032 -7.3645340373339069e-10 2.7082474166427535e-07 -0.49870605196678319 0.059515889118506006 2.4475665358179851e-07 -0.43284827305995055 1.3770666979654499e-11 1.0468580317303762e-06 -0.43827345577213828 -7.3645340373339069e-10 2.7082474166427535e-07 -0.49870605196678319 -3.9839000833758157e-10 2.7212702161818813e-07 -0.31141619318428032 0.059515889118506006 2.4475665358179851e-07 -0.43284827305995055 -9.6006436323093943e-10 9.7491416217399359e-07 -0.57531886726571035 0.059515889118506013 2.4475665358179825e-07 -0.43284827305995055 1.3770666979654499e-11 1.0468580317303762e-06 -0.43827345577213828 0.054103653249498014 1.7589876120044933e-06 -0.46249186479292936 -3.9839000833758157e-10 2.7212702161818813e-07 -0.31141619318428032 -5.8235169323650456e-10 1.8885763352277956e-06 -0.29817700546689635 1.3770662457147339e-11 1.0468580317303762e-06 -0.43827345577213828 0.054103653249498014 1.7589876120044933e-06 -0.46249186479292936 1.3770666979654499e-11 1.0468580317303762e-06 -0.43827345577213828 0.059515889118506006 2.4475665358179857e-07 -0.43284827305995055 -3.9839000833758157e-10 2.7212702161818813e-07 -0.31141619318428032 0.054103653249498014 1.7589876120044933e-06 -0.46249186479292936 0.040678056382196189 2.6204358134907109e-06 -0.2886568094654765 0.079112711018657897 3.0560025278115711e-06 -0.38023464015410507 0.054103653249498014 1.7589876120044933e-06 -0.46249186479292936 0.046274589563746894 1.243895746737957e-06 -0.18485238618669286 -5.8235169323650456e-10 1.8885763352277956e-06 -0.29817700546689635 0.040678056382196189 2.6204358134907109e-06 -0.2886568094654765 0.054103653249498014 1.7589876120044933e-06 -0.46249186479292936 0.046274589563746894 1.243895746737957e-06 -0.18485238618669286 0.041391929461711656 2.8572471139294171e-06 -0.47831764597890858 -6.6383529173074728e-10 2.3563462065689363e-06 -0.48759199871979098 -5.8235169213886525e-10 1.8885763352277954e-06 -0.29817700546689629 0.054103653249498014 1.7589876120044933e-06 -0.46249186479292931 1.3770666979654499e-11 1.0468580317303762e-06 -0.43827345577213828 -5.8235169323650456e-10 1.8885763352277956e-06 -0.29817700546689635 -6.6383527900429573e-10 2.3563462065689367e-06 -0.48759199871979098 0.054103653249498014 1.7589876120044933e-06 -0.46249186479292936 0.041391929461711656 2.8572471139294171e-06 -0.47831764597890858 -3.2197223094279563e-10 3.347958646335135e-06 -0.38391030746329935 -5.8235168962393809e-10 1.8885763352277956e-06 -0.29817700546689629 -6.6383527900429573e-10 2.3563462065689363e-06 -0.48759199871979092 -5.8235169323650456e-10 1.8885763352277956e-06 -0.29817700546689635 0.040678056382196189 2.6204358134907109e-06 -0.2886568094654765 -3.2197223094279563e-10 3.347958646335135e-06 -0.38391030746329935 0.041391929461711663 2.8572471139294167e-06 -0.47831764597890863 0.041391929461711656 2.8572471139294171e-06 -0.47831764597890858 -5.8235170014229397e-10 1.8885763352277951e-06 -0.29817700546689629 0.040678056382196189 2.6204358134907109e-06 -0.2886568094654765 0.054103653249498 1.7589876120044933e-06 -0.46249186479292936 0.041391929461711656 2.8572471139294171e-06 -0.47831764597890858 0.040678056382196189 2.6204358134907109e-06 -0.2886568094654765 0.079112711018657897 3.0560025278115711e-06 -0.38023464015410507 0.054103653249498014 1.7589876120044933e-06 -0.46249186479292936 -3.2197223094279563e-10 3.347958646335135e-06 -0.38391030746329935 -5.1814940616732498e-10 2.6219863970979006e-06 -0.19196259932883086 0.040678056382196189 2.6204358134907109e-06 -0.2886568094654765 -5.8235169323650456e-10 1.8885763352277956e-06 -0.29817700546689635 0.040678056382196189 2.6204358134907109e-06 -0.2886568094654765 -5.1814941542972125e-10 2.6219863970979006e-06 -0.19196259932883089 -5.4625924049877839e-10 1.7421230234169325e-06 -0.14052890033018037 -5.8235169775267609e-10 1.8885763352277958e-06 -0.29817700546689635 0.035178309625351303 2.0996528726926634e-06 -0.14053085539338844 -5.1814940616732498e-10 2.6219863970979006e-06 -0.19196259932883086 -5.4625922708120523e-10 1.7421230234169327e-06 -0.14052890033018037 0.040678056382196189 2.6204358134907109e-06 -0.2886568094654765 0.048052601525778081 2.9759939857390829e-06 -1.4354016057406978e-05 -5.2154395462014499e-10 2.828148019370288e-06 -1.4365634395363423e-05 0.035177231718234787 1.7233911899105028e-06 -1.0459646301729394e-05 0.035178309625351303 2.0996528726926634e-06 -0.14053085539338844 -5.462592273096538e-10 1.7421230234169325e-06 -0.14052890033018037 -5.2154395357828072e-10 2.8281480193702884e-06 -1.4365634395352052e-05 -5.1814940616732498e-10 2.6219863970979006e-06 -0.19196259932883086 0.035178309625351303 2.0996528726926634e-06 -0.14053085539338844 -5.462592273096538e-10 1.7421230234169325e-06 -0.14052890033018037 0.035177231718234787 1.7233911899105028e-06 -1.0459646301729394e-05 -5.2154395357828072e-10 2.8281480193702884e-06 -1.4365634395352052e-05 0.035178309625351303 2.0996528726926634e-06 -0.14053085539338844 0.035177231718234787 1.7233911899105028e-06 -1.0459646301729394e-05 -5.2154395759659147e-10 2.8281480193702884e-06 -1.436563439536647e-05 -5.4494016309021625e-10 1.805543830959242e-06 -1.268402712633888e-05 -5.462592273096538e-10 1.7421230234169325e-06 -0.14052890033018037 -5.462592273096538e-10 1.7421230234169325e-06 -0.14052890033018037 -5.2059677169311425e-10 8.4500475462848272e-07 -0.15258181443910909 0.038195021239491568 9.3770127061349727e-07 -1.3051559747007472e-05 0.046274589563746894 1.243895746737957e-06 -0.18485238618669286 -5.4494016309021625e-10 1.805543830959242e-06 -1.268402712633888e-05 0.038195021239491561 9.3770127061349727e-07 -1.3051559747001775e-05 0.035177231718234787 1.7233911899105028e-06 -1.0459646301729394e-05 -5.462592273096538e-10 1.7421230234169325e-06 -0.14052890033018037 0.035178309625351303 2.0996528726926634e-06 -0.14053085539338844 -5.462592284724159e-10 1.7421230234169325e-06 -0.14052890033018034 0.035177231718234787 1.7233911899105026e-06 -1.0459646301724987e-05 0.046274589563746894 1.2438957467379568e-06 -0.18485238618669284 0.038195021239491561 9.3770127061349727e-07 -1.3051559747001775e-05 -5.4494016309021625e-10 1.805543830959242e-06 -1.268402712633888e-05 -5.2059677169311425e-10 8.4500475462848272e-07 -0.15258181443910909 -5.462592273096538e-10 1.7421230234169325e-06 -0.14052890033018037 0.038195021239491561 9.3770127061349727e-07 -1.3051559747001775e-05 0.035177231718234787 1.7233911899105028e-06 -1.0459646301718033e-05 -5.462592273096538e-10 1.7421230234169325e-06 -0.14052890033018037 0.046274589563746894 1.243895746737957e-06 -0.18485238618669286 0.040678056382196189 2.6204358134907109e-06 -0.2886568094654765 -5.8235170295406482e-10 1.8885763352277956e-06 -0.29817700546689635 -5.4625923182582534e-10 1.7421230234169325e-06 -0.1405289003301804 0.046274589563746894 1.243895746737957e-06 -0.18485238618669286 -5.462592273096538e-10 1.7421230234169325e-06 -0.14052890033018037 -5.8235169323650456e-10 1.8885763352277956e-06 -0.29817700546689635 -5.2059677169311425e-10 8.4500475462848272e-07 -0.15258181443910909 0.046274589563746894 1.243895746737957e-06 -0.18485238618669286 0.035178309625351303 2.0996528726926634e-06 -0.14053085539338844 0.035177231718234794 1.7233911899105028e-06 -1.0459646301781157e-05 0.074641830424585442 1.7526111205916248e-06 -1.4130285642779868e-05 0.046274589563746894 1.2438957467379568e-06 -0.18485238618669284 0.038195021239491561 9.3770127061349727e-07 -1.3051559747001775e-05 0.074641830424585442 1.752611120591625e-06 -1.4130285642754775e-05 0.035177231718234787 1.7233911899105028e-06 -1.0459646301729394e-05 0.046274589563746894 1.243895746737957e-06 -0.18485238618669286 0.035177231718234787 1.7233911899105028e-06 -1.0459646301729394e-05 0.074641830424585442 1.752611120591625e-06 -1.4130285642754775e-05 0.048052601525778081 2.9759939857390829e-06 -1.4354016057406978e-05 0.035178309625351303 2.0996528726926634e-06 -0.14053085539338844 0.076009353026546322 2.7485334704648234e-06 -0.18063340575471915 0.048052601525778088 2.9759939857390837e-06 -1.4354016057395222e-05 0.074641830424585442 1.752611120591625e-06 -1.4130285642754775e-05 0.035178309625351303 2.0996528726926634e-06 -0.14053085539338844 0.074641830424585442 1.752611120591625e-06 -1.4130285642754775e-05 0.076009353026546322 2.7485334704648234e-06 -0.18063340575471915 0.035178309625351296 2.099652872692663e-06 -0.14053085539338839 0.046274589563746894 1.2438957467379568e-06 -0.18485238618669286 0.076009353026546322 2.7485334704648234e-06 -0.18063340575471915 0.040678056382196189 2.6204358134907109e-06 -0.2886568094654765 0.035178309625351303 2.0996528726926634e-06 -0.14053085539338844 0.046274589563746894 1.243895746737957e-06 -0.18485238618669286 0.035178309625351303 2.0996528726926634e-06 -0.14053085539338844 0.040678056382196189 2.6204358134907109e-06 -0.2886568094654765 -5.462592273096538e-10 1.7421230234169325e-06 -0.14052890033018037 0.046274589563746894 1.243895746737957e-06 -0.18485238618669286 0.086131655425357473 1.0434828426423913e-06 -0.28823138389370256 0.046274589563746894 1.243895746737957e-06 -0.18485238618669281 0.076009353026546322 2.7485334704648234e-06 -0.18063340575471915 0.12707707889267453 1.8378995547053937e-06 -0.1999200979597017 0.074641830424585442 1.752611120591625e-06 -1.4130285642754775e-05 0.046274589563746894 1.243895746737957e-06 -0.18485238618669286 0.086131655425357501 1.0434828426423911e-06 -0.28823138389370256 0.12707707889267453 1.8378995547053935e-06 -0.19992009795970173 0.074641830424585442 1.752611120591625e-06 -1.4130285642754775e-05 0.076009353026546322 2.7485334704648238e-06 -0.18063340575471909 0.046274589563746887 1.2438957467379568e-06 -0.18485238618669286 0.12707707889267453 1.8378995547053935e-06 -0.19992009795970173 0.074641830424585442 1.752611120591625e-06 -1.4130285642754775e-05 0.096101785180924756 3.5136259127205092e-06 -1.6745314937337405e-05 0.048052601525778081 2.9759939857390829e-06 -1.4354016057406978e-05 0.076009353026546322 2.7485334704648234e-06 -0.18063340575471915 0.074641830424585442 1.752611120591625e-06 -1.4130285642754775e-05 0.12205253480502914 2.1197301647729751e-06 -1.3710510612304332e-05 0.076009353026546322 2.7485334704648234e-06 -0.18063340575471915 0.12707707889267453 1.8378995547053935e-06 -0.19992009795970175 0.10970879825802428 9.1598455587137348e-07 -1.0758748527473092e-05 0.12205253480502914 2.1197301647729755e-06 -1.3710510612275417e-05 0.074641830424585442 1.752611120591625e-06 -1.4130285642750777e-05 0.12707707889267453 1.8378995547053937e-06 -0.19992009795970167 0.12284483158967018 2.5876242395597651e-06 -0.15713998015667846 0.076009353026546322 2.7485334704648234e-06 -0.18063340575471915 0.096101785180924756 3.5136259127205092e-06 -1.6745314937306627e-05 0.12205253480502914 2.1197301647729755e-06 -1.3710510612275417e-05 0.076009353026546322 2.7485334704648234e-06 -0.18063340575471915 0.074641830424585442 1.7526111205916246e-06 -1.4130285642795887e-05 0.096101785180924756 3.5136259127205092e-06 -1.6745314937337405e-05 0.12205253480502914 2.1197301647729755e-06 -1.3710510612275417e-05 0.12284483158967018 2.5876242395597651e-06 -0.15713998015667846 0.11008495598650325 2.0960605465718255e-06 -0.29783948146510514 0.076009353026546322 2.7485334704648234e-06 -0.18063340575471915 0.12707707889267453 1.8378995547053939e-06 -0.1999200979597017 0.12284483158967018 2.5876242395597651e-06 -0.15713998015667846 0.076009353026546322 2.7485334704648234e-06 -0.18063340575471915 0.12205253480502914 2.1197301647729751e-06 -1.3710510612282024e-05 0.12707707889267453 1.8378995547053939e-06 -0.19992009795970167 0.079112711018657897 3.0560025278115711e-06 -0.38023464015410507 0.086131655425357473 1.0434828426423913e-06 -0.28823138389370262 0.12009391786498674 1.2900853145728205e-06 -0.50839101684826637 0.054103653249498014 1.7589876120044933e-06 -0.46249186479292936 0.086131655425357473 1.0434828426423913e-06 -0.28823138389370256 0.054103653249498014 1.7589876120044933e-06 -0.46249186479292936 0.079112711018657897 3.0560025278115711e-06 -0.38023464015410507 0.04627458956374688 1.2438957467379568e-06 -0.18485238618669281 0.076009353026546322 2.7485334704648234e-06 -0.18063340575471915 0.11008495598650324 2.0960605465718251e-06 -0.29783948146510514 0.079112711018657897 3.0560025278115711e-06 -0.38023464015410507 0.086131655425357459 1.0434828426423907e-06 -0.28823138389370256 0.11008495598650324 2.0960605465718251e-06 -0.29783948146510514 0.086131655425357445 1.0434828426423913e-06 -0.28823138389370262 0.076009353026546322 2.7485334704648234e-06 -0.18063340575471915 0.12707707889267453 1.8378995547053937e-06 -0.1999200979597017 0.076009353026546322 2.7485334704648234e-06 -0.18063340575471915 0.086131655425357501 1.0434828426423911e-06 -0.28823138389370256 0.079112711018657911 3.0560025278115715e-06 -0.38023464015410507 0.046274589563746894 1.243895746737957e-06 -0.18485238618669286 0.11008495598650324 2.0960605465718251e-06 -0.29783948146510514 0.12009391786498669 1.29008531457282e-06 -0.50839101684826637 0.086131655425357473 1.0434828426423911e-06 -0.28823138389370262 0.12707707889267453 1.8378995547053937e-06 -0.1999200979597017 0.11008495598650324 2.0960605465718251e-06 -0.29783948146510514 0.079112711018657897 3.0560025278115711e-06 -0.38023464015410507 0.086131655425357473 1.0434828426423909e-06 -0.28823138389370256 0.12009391786498669 1.29008531457282e-06 -0.50839101684826615 0.076009353026546322 2.7485334704648234e-06 -0.18063340575471915 0.079112711018657897 3.0560025278115711e-06 -0.38023464015410507 0.040678056382196189 2.6204358134907109e-06 -0.2886568094654765 0.046274589563746894 1.243895746737957e-06 -0.18485238618669286 0.079112711018657897 3.0560025278115711e-06 -0.38023464015410507 0.077969439627130807 3.1864177312610824e-06 -0.57606571738929713 0.041391929461711656 2.8572471139294171e-06 -0.47831764597890858 0.054103653249498014 1.7589876120044933e-06 -0.46249186479292936 0.11008495598650324 2.0960605465718251e-06 -0.29783948146510514 0.1248416234501436 2.7359273514483105e-06 -0.47991353614516757 0.079112711018657897 3.0560025278115711e-06 -0.38023464015410507 0.1200939178649867 1.2900853145728202e-06 -0.50839101684826626 0.059515889118506006 2.4475665358179851e-07 -0.43284827305995055 0.12009391786498669 1.29008531457282e-06 -0.50839101684826615 0.086131655425357473 1.0434828426423915e-06 -0.28823138389370256 0.054103653249498021 1.7589876120044931e-06 -0.46249186479292931 0.086131655425357473 1.0434828426423913e-06 -0.28823138389370256 0.12013141914810646 3.5903710729336351e-08 -0.47991124307827238 0.059515889118506006 2.4475665358179851e-07 -0.43284827305995055 0.12022188458346579 -1.8453593784859359e-07 -0.23960786948024254 0.086131655425357473 1.0434828426423913e-06 -0.28823138389370256 0.059515889118506006 2.4475665358179851e-07 -0.43284827305995055 0.12013141914810645 3.5903710729336034e-08 -0.47991124307827226 0.1200939178649867 1.2900853145728205e-06 -0.50839101684826626 0.086131655425357473 1.0434828426423913e-06 -0.28823138389370256 0.1202218845834658 -1.8453593784859333e-07 -0.23960786948024262 0.059515889118505999 2.4475665358179841e-07 -0.43284827305995049 0.053690843160526053 6.0369111123271135e-08 -0.21447990115305479 0.086131655425357473 1.0434828426423913e-06 -0.28823138389370256 0.077956710555825343 5.6123171086423689e-07 -1.5869871181511011e-05 0.1202218845834658 -1.8453593784859333e-07 -0.23960786948024262 0.053690843160526053 6.0369111123271135e-08 -0.21447990115305479 0.074641830424585442 1.752611120591625e-06 -1.4130285642754775e-05 0.077956710555825343 5.6123171086423689e-07 -1.5869871181511011e-05 0.10970879825802428 9.1598455587137348e-07 -1.0758748527473092e-05 0.086131655425357473 1.0434828426423913e-06 -0.28823138389370262 0.077956710555825343 5.6123171086423689e-07 -1.5869871181511011e-05 0.053690843160526067 6.0369111123271268e-08 -0.21447990115305479 0.086131655425357473 1.0434828426423913e-06 -0.28823138389370262 0.046274589563746894 1.243895746737957e-06 -0.18485238618669286 0.077956710555825343 5.6123171086423689e-07 -1.5869871181511011e-05 0.10970879825802428 9.1598455587137348e-07 -1.075874852747749e-05 0.086131655425357473 1.0434828426423913e-06 -0.28823138389370256 0.1202218845834658 -1.8453593784859333e-07 -0.23960786948024262 0.074641830424585442 1.752611120591625e-06 -1.4130285642754775e-05 0.077956710555825343 5.6123171086423689e-07 -1.5869871181511011e-05 0.086131655425357473 1.0434828426423913e-06 -0.28823138389370256 0.046274589563746894 1.243895746737957e-06 -0.18485238618669286 0.10970879825802428 9.1598455587137348e-07 -1.0758748527473092e-05 0.074641830424585442 1.752611120591625e-06 -1.4130285642755243e-05 0.086131655425357473 1.0434828426423913e-06 -0.28823138389370256 0.12707707889267453 1.8378995547053935e-06 -0.1999200979597017 0.086131655425357473 1.0434828426423913e-06 -0.28823138389370256 0.1202218845834658 -1.8453593784859333e-07 -0.23960786948024262 0.10970879825802428 9.1598455587137348e-07 -1.0758748527473092e-05 0.12707707889267453 1.8378995547053937e-06 -0.1999200979597017 0.041389197283021512 -9.6960534969633761e-08 -1.4298080167570689e-05 0.07910651017974106 -8.9151534899229575e-07 -1.5131776290445415e-05 0.077956710555825343 5.6123171086423689e-07 -1.5869871181511011e-05 0.053690843160526053 6.0369111123271135e-08 -0.21447990115305479 0.077956710555825343 5.6123171086423689e-07 -1.5869871181511011e-05 0.1248352051965604 1.9388147493418762e-07 -1.4051072624594337e-05 0.10970879825802428 9.1598455587137348e-07 -1.0758748527473092e-05 0.1202218845834658 -1.8453593784859333e-07 -0.23960786948024262 0.17468983098431071 9.3274803699879177e-07 -9.0115463994265153e-06 0.16445332866658088 1.0478232338569424e-06 -0.29848335836007117 0.14400624871670251 9.0516822657619011e-07 -1.0730552397852755e-05 0.1866766088047607 -2.6138914409701408e-07 -0.20901675989814827 0.16445332866658091 1.0478232338569433e-06 -0.29848335836007117 0.12022188458346579 -1.8453593784859349e-07 -0.23960786948024265 0.14400624871670251 9.0516822657619e-07 -1.0730552397845064e-05 0.18667660880476067 -2.6138914409701487e-07 -0.20901675989814825 0.14400624871670251 9.0516822657619011e-07 -1.0730552397852755e-05 0.10970879825802428 9.1598455587137348e-07 -1.0758748527480561e-05 0.12022188458346579 -1.8453593784859328e-07 -0.23960786948024265 0.12707707889267453 1.8378995547053939e-06 -0.19992009795970175 0.1248352051965604 1.9388147493418762e-07 -1.4051072624594337e-05 0.16171970025476476 -1.4087527997710412e-07 -1.1064353367557901e-05 0.14400624871670251 9.0516822657619011e-07 -1.0730552397852755e-05 0.1202218845834658 -1.8453593784859333e-07 -0.23960786948024262 0.14400624871670251 9.0516822657619011e-07 -1.0730552397852755e-05 0.12022188458346579 -1.8453593784859336e-07 -0.23960786948024262 0.16445332866658091 1.0478232338569431e-06 -0.29848335836007117 0.12707707889267447 1.8378995547053939e-06 -0.19992009795970173 0.14400624871670251 9.0516822657619011e-07 -1.0730552397852755e-05 0.12022188458346579 -1.8453593784859336e-07 -0.23960786948024262 0.16171970025476476 -1.4087527997710412e-07 -1.1064353367557901e-05 0.18667660880476064 -2.6138914409701498e-07 -0.20901675989814822 0.14400624871670251 9.0516822657619011e-07 -1.0730552397852755e-05 0.12707707889267453 1.8378995547053952e-06 -0.19992009795970167 0.16445332866658091 1.0478232338569429e-06 -0.29848335836007117 0.19596355264392193 2.1104606334526563e-06 -0.17742343925238843 0.14400624871670251 9.0516822657619011e-07 -1.0730552397852755e-05 0.10970879825802428 9.1598455587137348e-07 -1.0758748527479762e-05 0.1248352051965604 1.9388147493418762e-07 -1.4051072624594337e-05 0.1202218845834658 -1.8453593784859333e-07 -0.23960786948024262 0.14400624871670251 9.0516822657619011e-07 -1.0730552397852755e-05 0.16445332866658091 1.0478232338569433e-06 -0.29848335836007117 0.17468983098431071 9.3274803699879177e-07 -9.0115463994265153e-06 0.19596355264392193 2.1104606334526559e-06 -0.17742343925238843 0.10970879825802428 9.1598455587137348e-07 -1.0758748527473092e-05 0.14400624871670251 9.0516822657619011e-07 -1.0730552397851284e-05 0.12205253480502914 2.1197301647729755e-06 -1.3710510612291404e-05 0.1270770788926745 1.8378995547053937e-06 -0.19992009795970167 0.14400624871670251 9.0516822657619011e-07 -1.0730552397852755e-05 0.17468983098431071 9.3274803699879177e-07 -9.0115463994216448e-06 0.16945575908411714 1.8512971778131925e-06 -1.375916071394108e-05 0.19596355264392193 2.1104606334526559e-06 -0.17742343925238843 0.17468983098431071 9.3274803699879177e-07 -9.0115463994265153e-06 0.14400624871670251 9.0516822657619011e-07 -1.0730552397852499e-05 0.16171970025476476 -1.408752799771041e-07 -1.1064353367550254e-05 0.18667660880476067 -2.6138914409701492e-07 -0.20901675989814825 0.16445332866658091 1.0478232338569433e-06 -0.29848335836007117 0.1202218845834658 -1.8453593784859325e-07 -0.23960786948024254 0.086131655425357473 1.0434828426423913e-06 -0.28823138389370256 0.1270770788926745 1.8378995547053932e-06 -0.1999200979597017 0.16445332866658091 1.0478232338569433e-06 -0.29848335836007117 0.086131655425357459 1.0434828426423911e-06 -0.28823138389370251 0.12013141914810645 3.5903710729336126e-08 -0.47991124307827232 0.1200939178649867 1.2900853145728202e-06 -0.50839101684826626 0.12013141914810645 3.5903710729336126e-08 -0.47991124307827232 0.086131655425357473 1.0434828426423913e-06 -0.28823138389370262 0.16445332866658091 1.0478232338569433e-06 -0.29848335836007117 0.12022188458346583 -1.845359378485937e-07 -0.23960786948024265 0.12013141914810645 3.5903710729336126e-08 -0.47991124307827232 0.16445332866658091 1.0478232338569433e-06 -0.29848335836007117 0.18028007518887382 5.6328337840788063e-08 -0.47837062057135399 0.12022188458346583 -1.8453593784859375e-07 -0.23960786948024265 0.16445332866658091 1.0478232338569433e-06 -0.29848335836007117 0.1200939178649867 1.2900853145728202e-06 -0.50839101684826626 0.18028007518887382 5.6328337840788063e-08 -0.47837062057135399 0.18587063090307859 1.9700372361995806e-06 -0.47829937074081064 0.18028007518887382 5.6328337840788063e-08 -0.47837062057135399 0.1202218845834658 -1.8453593784859351e-07 -0.23960786948024274 0.16445332866658091 1.0478232338569433e-06 -0.29848335836007112 0.18667660880476067 -2.6138914409701492e-07 -0.20901675989814825 0.086131655425357473 1.0434828426423913e-06 -0.28823138389370256 0.1200939178649867 1.2900853145728202e-06 -0.50839101684826626 0.16445332866658091 1.0478232338569433e-06 -0.29848335836007117 0.12707707889267453 1.8378995547053937e-06 -0.1999200979597017 0.12013141914810645 3.5903710729336126e-08 -0.47991124307827232 0.18028007518887379 5.6328337840788003e-08 -0.47837062057135404 0.16445332866658091 1.0478232338569433e-06 -0.29848335836007117 0.1200939178649867 1.2900853145728202e-06 -0.50839101684826626 0.16445332866658091 1.0478232338569433e-06 -0.29848335836007117 0.12707707889267453 1.8378995547053937e-06 -0.1999200979597017 0.14671038542845152 2.9038142610382253e-06 -0.31798028457624233 0.19596355264392193 2.1104606334526559e-06 -0.17742343925238843 0.14671038542845152 2.9038142610382253e-06 -0.31798028457624233 0.1200939178649867 1.2900853145728205e-06 -0.50839101684826615 0.16445332866658091 1.0478232338569433e-06 -0.29848335836007117 0.18587063090307859 1.9700372361995806e-06 -0.47829937074081064 0.14671038542845152 2.9038142610382253e-06 -0.31798028457624233 0.16394052185312719 3.2151876697070415e-06 -0.50210392743344112 0.12009391786498673 1.2900853145728207e-06 -0.50839101684826626 0.18587063090307859 1.9700372361995806e-06 -0.47829937074081064 0.19877403336872923 3.2011135256372995e-06 -0.30148390138146991 0.16445332866658088 1.0478232338569431e-06 -0.29848335836007117 0.14671038542845152 2.9038142610382249e-06 -0.31798028457624233 0.19596355264392193 2.1104606334526559e-06 -0.17742343925238857 0.11008495598650324 2.0960605465718251e-06 -0.29783948146510514 0.14671038542845152 2.9038142610382253e-06 -0.31798028457624233 0.1200939178649867 1.2900853145728202e-06 -0.50839101684826626 0.12707707889267453 1.8378995547053937e-06 -0.1999200979597017 0.14671038542845152 2.9038142610382253e-06 -0.31798028457624233 0.16445332866658094 1.0478232338569433e-06 -0.29848335836007123 0.19877403336872923 3.2011135256372995e-06 -0.30148390138146991 0.18587063090307859 1.9700372361995806e-06 -0.47829937074081064 0.16445332866658091 1.0478232338569433e-06 -0.29848335836007117 0.12009391786498672 1.2900853145728205e-06 -0.50839101684826626 0.14671038542845152 2.9038142610382253e-06 -0.31798028457624233 0.12707707889267453 1.8378995547053937e-06 -0.19992009795970173 0.14671038542845152 2.9038142610382253e-06 -0.31798028457624233 0.16394052185312719 3.2151876697070415e-06 -0.50210392743344123 0.1248416234501436 2.7359273514483105e-06 -0.47991353614516757 0.1200939178649867 1.2900853145728202e-06 -0.50839101684826626 0.1248416234501436 2.7359273514483105e-06 -0.47991353614516757 0.11008495598650324 2.0960605465718251e-06 -0.29783948146510514 0.14671038542845152 2.9038142610382253e-06 -0.31798028457624233 0.1200939178649867 1.29008531457282e-06 -0.50839101684826626 0.16394052185312719 3.2151876697070415e-06 -0.50210392743344123 0.1467103854284515 2.9038142610382249e-06 -0.31798028457624233 0.19877403336872923 3.2011135256372995e-06 -0.30148390138146991 0.18587063090307859 1.9700372361995806e-06 -0.47829937074081064 0.12284483158967018 2.5876242395597651e-06 -0.15713998015667846 0.14671038542845152 2.9038142610382253e-06 -0.31798028457624233 0.11008495598650324 2.0960605465718251e-06 -0.29783948146510514 0.12707707889267453 1.8378995547053939e-06 -0.1999200979597017 0.12284483158967018 2.5876242395597651e-06 -0.15713998015667846 0.16812781510233324 2.6235048241821736e-06 -0.16259312518341978 0.14671038542845152 2.9038142610382253e-06 -0.31798028457624233 0.12707707889267453 1.8378995547053939e-06 -0.1999200979597017 0.16812781510233324 2.6235048241821736e-06 -0.16259312518341978 0.14671038542845152 2.9038142610382253e-06 -0.31798028457624233 0.12707707889267453 1.8378995547053939e-06 -0.19992009795970173 0.19596355264392193 2.1104606334526554e-06 -0.1774234392523884 0.16812781510233324 2.6235048241821736e-06 -0.16259312518341978 0.12707707889267456 1.8378995547053939e-06 -0.1999200979597017 0.16945575908411714 1.8512971778131927e-06 -1.3759160713942593e-05 0.1959635526439219 2.1104606334526559e-06 -0.17742343925238835 0.16812781510233324 2.6235048241821736e-06 -0.16259312518341978 0.12284483158967018 2.5876242395597651e-06 -0.15713998015667846 0.12205253480502917 2.119730164772976e-06 -1.3710510612204522e-05 0.12707707889267453 1.8378995547053939e-06 -0.19992009795970164 0.14400624871670251 9.0516822657619011e-07 -1.0730552397852755e-05 0.16945575908411714 1.8512971778131925e-06 -1.375916071394108e-05 0.12707707889267453 1.8378995547053939e-06 -0.19992009795970175 0.19596355264392193 2.1104606334526559e-06 -0.17742343925238846 0.14414023058499573 3.11443498418788e-06 -1.7430431586672346e-05 0.16812781510233324 2.6235048241821736e-06 -0.16259312518341978 0.12284483158967018 2.5876242395597651e-06 -0.15713998015667846 0.12205253480502914 2.1197301647729755e-06 -1.3710510612275417e-05 0.12284483158967018 2.5876242395597651e-06 -0.15713998015667846 0.096101785180924756 3.5136259127205092e-06 -1.6745314937352283e-05 0.14414023058499573 3.11443498418788e-06 -1.7430431586672346e-05 0.12205253480502914 2.1197301647729755e-06 -1.3710510612275417e-05 0.12205253480502914 2.1197301647729755e-06 -1.3710510612275417e-05 0.14400624871670251 9.0516822657619e-07 -1.0730552397853014e-05 0.16945575908411714 1.8512971778131925e-06 -1.375916071394108e-05 0.12707707889267453 1.8378995547053937e-06 -0.1999200979597017 0.16812781510233324 2.6235048241821736e-06 -0.16259312518341978 0.12205253480502914 2.1197301647729755e-06 -1.3710510612207323e-05 0.16945575908411714 1.8512971778131927e-06 -1.3759160713915283e-05 0.12707707889267453 1.8378995547053939e-06 -0.19992009795970164 0.14414023058499573 3.11443498418788e-06 -1.7430431586672346e-05 0.19216435630921749 2.6764381920005548e-06 -1.4308143626757818e-05 0.16812781510233324 2.6235048241821736e-06 -0.16259312518341978 0.16945575908411714 1.8512971778131925e-06 -1.375916071394108e-05 0.12205253480502914 2.1197301647729755e-06 -1.3710510612275417e-05 0.14414023058499573 3.11443498418788e-06 -1.7430431586672346e-05 0.16812781510233324 2.6235048241821732e-06 -0.1625931251834199 0.16945575908411714 1.8512971778131925e-06 -1.375916071394108e-05 0.16812781510233324 2.6235048241821736e-06 -0.16259312518341978 0.19877403336872923 3.2011135256372995e-06 -0.30148390138146991 0.14671038542845152 2.9038142610382253e-06 -0.31798028457624233 0.19596355264392196 2.1104606334526563e-06 -0.17742343925238846 0.19877403336872923 3.2011135256372995e-06 -0.30148390138146991 0.16812781510233324 2.6235048241821736e-06 -0.16259312518341978 0.20502924590246333 1.9693600726412037e-06 -0.14054662459441256 0.19596355264392193 2.1104606334526554e-06 -0.1774234392523884 0.16812781510233324 2.6235048241821736e-06 -0.16259312518341978 0.2050282055728293 2.2219190123536331e-06 -9.7309538063407614e-06 0.20502924590246333 1.9693600726412037e-06 -0.14054662459441256 0.19596355264392193 2.1104606334526563e-06 -0.17742343925238835 0.20502924590246333 1.9693600726412037e-06 -0.14054662459441256 0.24017091190065376 1.7770751925248632e-06 -0.14055043807527992 0.19877403336872923 3.2011135256372995e-06 -0.30148390138146991 0.19596355264392193 2.1104606334526559e-06 -0.1774234392523884 0.2050282055728293 2.2219190123536331e-06 -9.7309538063016285e-06 0.20502924590246333 1.9693600726412037e-06 -0.14054662459441256 0.19216435630921749 2.6764381920005548e-06 -1.4308143626757818e-05 0.16812781510233324 2.6235048241821736e-06 -0.16259312518341978 0.16812781510233324 2.6235048241821736e-06 -0.16259312518341978 0.19216435630921749 2.6764381920005548e-06 -1.4308143626756897e-05 0.2050282055728293 2.2219190123536331e-06 -9.7309538063016285e-06 0.16945575908411714 1.8512971778131925e-06 -1.375916071394108e-05 0.2050282055728293 2.2219190123536331e-06 -9.7309538063016285e-06 0.16945575908411714 1.8512971778131925e-06 -1.3759160713943008e-05 0.20458230883345108 1.7325390632045939e-06 -1.0969221661213664e-05 0.19596355264392193 2.1104606334526559e-06 -0.1774234392523884 0.16812781510233324 2.6235048241821736e-06 -0.16259312518341978 0.16945575908411717 1.8512971778131925e-06 -1.3759160713998795e-05 0.2050282055728293 2.2219190123536327e-06 -9.7309538063229025e-06 0.19596355264392193 2.1104606334526563e-06 -0.17742343925238835 0.24017091190065376 1.7770751925248634e-06 -0.14055043807527989 0.24017073052129501 7.2058399231665891e-07 -0.15260444749675031 0.24017577696576903 9.8966095926931494e-07 -0.29822385224017062 0.19596355264392193 2.1104606334526559e-06 -0.17742343925238843 0.19877403336872923 3.2011135256372995e-06 -0.30148390138146991 0.24017091190065376 1.7770751925248634e-06 -0.14055043807527989 0.24017577696576903 9.8966095926931494e-07 -0.29822385224017062 0.19596355264392196 2.1104606334526563e-06 -0.17742343925238846 0.24017091190065376 1.7770751925248634e-06 -0.14055043807527989 0.2050282055728293 2.2219190123536331e-06 -9.7309538063016285e-06 0.24016827220855805 1.2835660815213653e-06 -1.2736806753616951e-05 0.19596355264392193 2.1104606334526559e-06 -0.17742343925238843 0.24016827220855805 1.2835660815213653e-06 -1.2736806753616951e-05 0.19596355264392196 2.1104606334526554e-06 -0.1774234392523884 0.24017073052129501 7.2058399231665891e-07 -0.15260444749675031 0.24017091190065376 1.7770751925248634e-06 -0.14055043807527989 0.2050282055728293 2.2219190123536331e-06 -9.7309538063016285e-06 0.24017091190065376 1.7770751925248634e-06 -0.14055043807527992 0.20502924590246333 1.9693600726412037e-06 -0.14054662459441256 0.19596355264392193 2.1104606334526559e-06 -0.1774234392523884 0.2050282055728293 2.2219190123536331e-06 -9.7309538063016285e-06 0.2045823088334511 1.7325390632045939e-06 -1.0969221661204656e-05 0.24016827220855805 1.2835660815213653e-06 -1.2736806753612446e-05 0.19596355264392193 2.1104606334526559e-06 -0.1774234392523884 0.24017091190065376 1.7770751925248634e-06 -0.14055043807527989 0.20502924590246333 1.9693600726412032e-06 -0.14054662459441256 0.24016769915193786 2.9315184176208281e-06 -1.4724277825926329e-05 0.2050282055728293 2.2219190123536331e-06 -9.7309538063016285e-06 0.24016896992568942 2.7414970706314339e-06 -0.19198991052003717 0.20502924590246333 1.9693600726412037e-06 -0.14054662459441256 0.24016769915193786 2.9315184176208281e-06 -1.4724277825926329e-05 0.24017091190065376 1.7770751925248634e-06 -0.14055043807527989 0.24016769915193786 2.9315184176208281e-06 -1.4724277825926329e-05 0.24017091190065376 1.7770751925248634e-06 -0.14055043807527989 0.2050282055728293 2.2219190123536331e-06 -9.7309538063016285e-06 0.24016827220855805 1.2835660815213653e-06 -1.2736806753616951e-05 0.19216435630921749 2.6764381920005548e-06 -1.4308143626757818e-05 0.24016769915193786 2.9315184176208281e-06 -1.4724277825926329e-05 0.20502924590246333 1.9693600726412037e-06 -0.14054662459441256 0.2050282055728293 2.2219190123536331e-06 -9.7309538063016285e-06 0.19877403336872923 3.2011135256372995e-06 -0.30148390138146991 0.20502924590246333 1.9693600726412037e-06 -0.14054662459441256 0.24016896992568942 2.7414970706314339e-06 -0.19198991052003717 0.24017091190065376 1.7770751925248634e-06 -0.14055043807527989 0.24016896992568942 2.7414970706314339e-06 -0.19198991052003717 0.24017577696576903 9.8966095926931494e-07 -0.29822385224017062 0.1987740333687292 3.2011135256372995e-06 -0.30148390138146985 0.24017091190065376 1.7770751925248634e-06 -0.14055043807527989 0.24017593453590225 2.5795732724916097e-06 -0.3839692531031515 0.24017577696576903 9.8966095926931494e-07 -0.29822385224017062 0.19877403336872923 3.2011135256372995e-06 -0.30148390138146985 0.24016896992568942 2.7414970706314339e-06 -0.19198991052003717 0.19877403336872923 3.2011135256372995e-06 -0.30148390138146991 0.18587063090307857 1.9700372361995806e-06 -0.47829937074081064 0.16445332866658091 1.0478232338569433e-06 -0.29848335836007117 0.19596355264392187 2.1104606334526554e-06 -0.17742343925238843 0.24017577696576903 9.8966095926931494e-07 -0.29822385224017062 0.18587063090307857 1.9700372361995806e-06 -0.47829937074081064 0.19877403336872923 3.2011135256372995e-06 -0.30148390138146991 0.19596355264392193 2.1104606334526559e-06 -0.17742343925238835 0.24017577696576903 9.8966095926931494e-07 -0.29822385224017062 0.16445332866658091 1.0478232338569405e-06 -0.29848335836007112 0.18587063090307859 1.9700372361995798e-06 -0.47829937074081069 0.19596355264392193 2.110460633452655e-06 -0.1774234392523884 0.24017577696576903 9.8966095926931494e-07 -0.29822385224017062 0.20840999908385008 2.5971596312501069e-06 -0.48578786551136066 0.19877403336872923 3.2011135256372999e-06 -0.30148390138146991 0.18587063090307859 1.9700372361995806e-06 -0.47829937074081064 0.16394052185312719 3.2151876697070415e-06 -0.50210392743344123 0.19877403336872923 3.2011135256372995e-06 -0.30148390138146991 0.20840999908385005 2.5971596312501077e-06 -0.48578786551136061 0.18587063090307859 1.9700372361995806e-06 -0.47829937074081064 0.20840999908385005 2.5971596312501077e-06 -0.48578786551136061 0.24017593453590225 2.5795732724916097e-06 -0.3839692531031515 0.24017577696576903 9.8966095926931494e-07 -0.29822385224017062 0.19877403336872923 3.2011135256372995e-06 -0.30148390138146991 0.24017593453590225 2.5795732724916097e-06 -0.3839692531031515 0.2401827958698067 1.1861463772214563e-06 -0.4876737804023426 0.20840999908385005 2.5971596312501077e-06 -0.48578786551136061 0.24017577696576903 9.8966095926931494e-07 -0.29822385224017062 0.24017577696576903 9.8966095926931494e-07 -0.29822385224017062 0.2401827958698067 1.1861463772214563e-06 -0.4876737804023426 0.20840999908385005 2.5971596312501077e-06 -0.48578786551136061 0.18587063090307859 1.9700372361995806e-06 -0.47829937074081064 0.24017577696576903 9.8966095926931494e-07 -0.29822385224017062 0.24018134900558441 1.448261130687755e-06 -0.4397641170135968 0.2401827958698067 1.1861463772214563e-06 -0.4876737804023426 0.18587063090307859 1.9700372361995806e-06 -0.47829937074081064 0.24017552260051306 -5.3346944347383422e-07 -0.31606063318844668 0.18028007518887382 5.6328337840788096e-08 -0.47837062057135393 0.2401754076147273 4.4933055852508089e-07 -0.3114648550250142 0.18667660880476067 -2.6138914409701492e-07 -0.20901675989814825 0.24018134900558438 1.4482611306877548e-06 -0.43976411701359674 0.16445332866658091 1.0478232338569433e-06 -0.29848335836007117 0.24017540761472733 4.4933055852508089e-07 -0.3114648550250142 0.18028007518887382 5.6328337840788063e-08 -0.47837062057135399 0.24017577696576903 9.8966095926931494e-07 -0.29822385224017062 0.16445332866658094 1.0478232338569429e-06 -0.29848335836007112 0.24018134900558438 1.4482611306877548e-06 -0.43976411701359674 0.18587063090307859 1.9700372361995806e-06 -0.47829937074081064 0.24018134900558438 1.4482611306877548e-06 -0.43976411701359674 0.16445332866658091 1.0478232338569433e-06 -0.29848335836007117 0.18028007518887385 5.6328337840788393e-08 -0.47837062057135404 0.18587063090307854 1.9700372361995806e-06 -0.47829937074081064 0.24018134900558438 1.4482611306877548e-06 -0.43976411701359674 0.24017577696576903 9.8966095926931494e-07 -0.29822385224017062 0.24017540761472733 4.4933055852508089e-07 -0.3114648550250142 0.16445332866658091 1.0478232338569433e-06 -0.29848335836007117 0.16445332866658091 1.0478232338569433e-06 -0.29848335836007117 0.2401754076147273 4.4933055852508067e-07 -0.3114648550250142 0.18028007518887382 5.6328337840788063e-08 -0.47837062057135399 0.18667660880476067 -2.6138914409701503e-07 -0.20901675989814822 0.24017577696576903 9.8966095926931494e-07 -0.29822385224017062 0.24017540761472733 4.4933055852508094e-07 -0.3114648550250142 0.16445332866658088 1.0478232338569426e-06 -0.29848335836007123 0.19596355264392193 2.1104606334526559e-06 -0.17742343925238843 0.24017540761472733 4.4933055852508089e-07 -0.3114648550250142 0.18667660880476067 -2.6138914409701492e-07 -0.20901675989814825 0.16445332866658094 1.0478232338569431e-06 -0.29848335836007128 0.19596355264392193 2.1104606334526554e-06 -0.17742343925238849 0.24018176300117761 2.6760462634660656e-07 -0.49879070615236676 0.24018134900558438 1.4482611306877548e-06 -0.43976411701359674 0.24017540761472733 4.4933055852508089e-07 -0.3114648550250142 0.18028007518887382 5.6328337840788063e-08 -0.47837062057135399 0.24017552260051306 -5.3346944347383422e-07 -0.31606063318844668 0.24018176300117761 2.6760462634660645e-07 -0.49879070615236676 0.24017540761472733 4.4933055852508089e-07 -0.3114648550250142 0.18028007518887385 5.6328337840788049e-08 -0.47837062057135399 0.20222573443620365 9.3413879563950849e-07 -1.2553990020614481e-05 0.24016931122883459 -2.2083802024683694e-07 -0.16536481046217097 0.24017073052129501 7.2058399231665891e-07 -0.15260444749675031 0.18667660880476067 -2.6138914409701492e-07 -0.20901675989814825 0.24017073052129501 7.2058399231665891e-07 -0.15260444749675031 0.20458230883345113 1.7325390632045937e-06 -1.0969221661261238e-05 0.18667660880476064 -2.6138914409701524e-07 -0.20901675989814827 0.19596355264392193 2.1104606334526559e-06 -0.17742343925238843 0.24017073052129501 7.2058399231665891e-07 -0.15260444749675031 0.18667660880476064 -2.6138914409701535e-07 -0.20901675989814825 0.24017540761472733 4.4933055852508089e-07 -0.3114648550250142 0.19596355264392193 2.1104606334526559e-06 -0.17742343925238843 0.24017073052129501 7.2058399231665891e-07 -0.15260444749675031 0.24016931122883459 -2.2083802024683684e-07 -0.16536481046217091 0.24017540761472733 4.4933055852508089e-07 -0.3114648550250142 0.18667660880476064 -2.6138914409701461e-07 -0.20901675989814827 0.17468983098431071 9.3274803699879177e-07 -9.0115463994265153e-06 0.18667660880476067 -2.6138914409701492e-07 -0.20901675989814825 0.20458230883345108 1.7325390632045939e-06 -1.0969221661213679e-05 0.19596355264392193 2.1104606334526559e-06 -0.17742343925238843 0.17468983098431071 9.3274803699879177e-07 -9.0115463994265153e-06 0.16445332866658091 1.0478232338569431e-06 -0.29848335836007117 0.18667660880476064 -2.6138914409701498e-07 -0.20901675989814825 0.19596355264392193 2.1104606334526559e-06 -0.17742343925238843 0.24017577696576903 9.8966095926931494e-07 -0.29822385224017062 0.24017073052129501 7.2058399231665891e-07 -0.15260444749675031 0.24017540761472733 4.4933055852508089e-07 -0.3114648550250142 0.19596355264392193 2.1104606334526559e-06 -0.17742343925238843 0.17468983098431071 9.3274803699879177e-07 -9.0115463994265153e-06 0.16171970025476476 -1.408752799771041e-07 -1.1064353367552563e-05 0.20222573443620365 9.3413879563950849e-07 -1.2553990020622128e-05 0.18667660880476067 -2.6138914409701492e-07 -0.20901675989814825 0.20222573443620365 9.3413879563950849e-07 -1.2553990020614481e-05 0.24017073052129503 7.2058399231665881e-07 -0.15260444749675028 0.2045823088334511 1.7325390632045939e-06 -1.0969221661204656e-05 0.18667660880476067 -2.6138914409701492e-07 -0.20901675989814825 0.17468983098431071 9.3274803699879177e-07 -9.0115463994265153e-06 0.20222573443620365 9.341387956395086e-07 -1.2553990020615775e-05 0.2045823088334511 1.7325390632045939e-06 -1.0969221661200833e-05 0.18667660880476067 -2.6138914409701492e-07 -0.20901675989814825 0.16945575908411714 1.8512971778131925e-06 -1.375916071394108e-05 0.17468983098431071 9.3274803699879177e-07 -9.0115463994265153e-06 0.2045823088334511 1.7325390632045941e-06 -1.0969221661213665e-05 0.19596355264392193 2.1104606334526554e-06 -0.17742343925238846 0.24017073052129501 7.2058399231665891e-07 -0.15260444749675031 0.20458230883345113 1.7325390632045937e-06 -1.0969221661187346e-05 0.24016827220855805 1.2835660815213653e-06 -1.273680675361852e-05 0.24016594518077053 8.1877426364718878e-07 -1.4198860548564852e-05 0.24017073052129501 7.2058399231665891e-07 -0.15260444749675031 0.1959635526439219 2.1104606334526559e-06 -0.17742343925238843 0.24016827220855805 1.2835660815213653e-06 -1.2736806753616951e-05 0.20458230883345113 1.7325390632045939e-06 -1.0969221661230669e-05 0.20222573443620365 9.3413879563950849e-07 -1.2553990020614481e-05 0.2045823088334511 1.7325390632045939e-06 -1.0969221661204656e-05 0.24017073052129501 7.2058399231665891e-07 -0.15260444749675031 0.24016594518077053 8.1877426364718878e-07 -1.4198860548564852e-05 0.24016594518077053 8.1877426364718878e-07 -1.4198860548564852e-05 0.24017073052129501 7.2058399231665891e-07 -0.15260444749675031 0.20222573443620365 9.3413879563950849e-07 -1.2553990020614481e-05 0.24016931122883459 -2.2083802024683665e-07 -0.16536481046217097 0.24016526946553657 1.8502375145407634e-07 -1.7246193625877058e-05 0.24016594518077053 8.1877426364718868e-07 -1.4198860548564852e-05 0.20222573443620365 9.3413879563950849e-07 -1.2553990020614481e-05 0.24016931122883459 -2.2083802024683665e-07 -0.16536481046217097 0.19417964311473482 -1.2138014386181564e-06 -1.5123014055143247e-05 0.20502794840850025 -1.5436545781013091e-06 -1.0685296611416221e-05 0.24017119623486155 -6.5521700782775687e-07 -0.16252096384789261 0.16522359696245775 -1.0888194315983563e-06 -0.30108319598196293 0.19417964311473482 -1.2138014386181564e-06 -1.5123014055143247e-05 0.24016526946553654 1.850237514540757e-07 -1.7246193625922608e-05 0.20222573443620365 9.3413879563950828e-07 -1.2553990020623221e-05 0.24016931122883459 -2.2083802024683665e-07 -0.16536481046217097 0.24016526946553657 1.8502375145407634e-07 -1.7246193625877058e-05 0.19417964311473482 -1.2138014386181564e-06 -1.5123014055143247e-05 0.24017119623486158 -6.5521700782775655e-07 -0.16252096384789261 0.24016931122883459 -2.2083802024683665e-07 -0.16536481046217097 0.19417964311473482 -1.2138014386181564e-06 -1.5123014055143247e-05 0.16522359696245778 -1.0888194315983567e-06 -0.30108319598196298 0.24017119623486155 -6.5521700782775666e-07 -0.16252096384789258 0.18667660880476067 -2.6138914409701471e-07 -0.20901675989814822 0.20222573443620365 9.3413879563950849e-07 -1.2553990020614481e-05 0.16171970025476476 -1.4087527997710402e-07 -1.1064353367557705e-05 0.19417964311473482 -1.2138014386181564e-06 -1.5123014055143247e-05 0.18667660880476067 -2.6138914409701492e-07 -0.20901675989814825 0.20222573443620365 9.3413879563950849e-07 -1.2553990020614481e-05 0.19417964311473482 -1.2138014386181564e-06 -1.5123014055143247e-05 0.24016931122883459 -2.2083802024683684e-07 -0.16536481046217097 0.18667660880476067 -2.6138914409701492e-07 -0.20901675989814825 0.19417964311473482 -1.2138014386181564e-06 -1.5123014055143247e-05 0.24017119623486158 -6.5521700782775655e-07 -0.16252096384789255 0.24016931122883459 -2.2083802024683665e-07 -0.16536481046217097 0.18667660880476067 -2.6138914409701492e-07 -0.20901675989814825 0.24017119623486158 -6.5521700782775655e-07 -0.16252096384789261 0.24017552260051306 -5.3346944347383422e-07 -0.31606063318844668 0.24016931122883461 -2.2083802024683665e-07 -0.16536481046217097 0.18667660880476064 -2.6138914409701503e-07 -0.20901675989814827 0.24017119623486158 -6.5521700782775655e-07 -0.16252096384789261 0.19417964311473485 -1.213801438618156e-06 -1.5123014055145356e-05 0.24016526946553657 1.8502375145407634e-07 -1.7246193625877058e-05 0.24016695043529199 -1.2643736956350548e-06 -1.4725099014242977e-05 0.24017119623486158 -6.5521700782775655e-07 -0.16252096384789261 0.19417964311473479 -1.2138014386181564e-06 -1.5123014055187446e-05 0.24016695043529199 -1.2643736956350548e-06 -1.4725099014242977e-05 0.20502794840850025 -1.5436545781013091e-06 -1.0685296611416221e-05 0.24016695043529199 -1.2643736956350548e-06 -1.4725099014242977e-05 0.24017278420362129 -8.8682630698366598e-07 -0.14055184931640521 0.24017119623486158 -6.5521700782775645e-07 -0.16252096384789261 0.20502794840850025 -1.5436545781013091e-06 -1.0685296611416221e-05 0.1995087128580838 -2.6217224528540065e-06 -0.28814865996973354 0.20503041431500024 -1.9777736516500124e-06 -0.14054661933492626 0.16477434209094075 -3.1666330573129425e-06 -0.16557234178168978 0.16522359696245778 -1.0888194315983567e-06 -0.30108319598196298 0.19417964311473482 -1.2138014386181564e-06 -1.5123014055143247e-05 0.16666745088166751 -2.0696881638031569e-06 -1.2945492985731236e-05 0.20502794840850025 -1.5436545781013091e-06 -1.0685296611416221e-05 0.16522359696245778 -1.0888194315983565e-06 -0.30108319598196293 0.24017491855495909 -7.863156358590937e-07 -0.30344251104114128 0.24017119623486158 -6.5521700782775655e-07 -0.16252096384789261 0.24017278420362129 -8.8682630698366598e-07 -0.14055184931640521 0.16522359696245778 -1.0888194315983565e-06 -0.30108319598196298 0.24017278420362129 -8.8682630698366598e-07 -0.14055184931640521 0.24017119623486158 -6.5521700782775655e-07 -0.16252096384789261 0.20502794840850028 -1.5436545781013091e-06 -1.06852966114356e-05 0.16522359696245781 -1.0888194315983565e-06 -0.30108319598196287 0.24017278420362129 -8.8682630698366598e-07 -0.14055184931640521 0.20503041431500024 -1.9777736516500128e-06 -0.14054661933492635 0.19950871285808378 -2.6217224528540065e-06 -0.28814865996973349 0.16522359696245781 -1.0888194315983573e-06 -0.30108319598196309 0.24017278420362129 -8.8682630698366598e-07 -0.14055184931640521 0.20502794840850025 -1.5436545781013091e-06 -1.0685296611420208e-05 0.20503041431500024 -1.9777736516500124e-06 -0.14054661933492626 0.16522359696245781 -1.0888194315983567e-06 -0.30108319598196293 0.16666745088166751 -2.0696881638031569e-06 -1.2945492985736545e-05 0.20503041431500024 -1.9777736516500124e-06 -0.14054661933492626 0.20502794840850025 -1.5436545781013091e-06 -1.0685296611416221e-05 0.16522359696245778 -1.0888194315983565e-06 -0.30108319598196298 0.20503041431500024 -1.9777736516500124e-06 -0.14054661933492626 0.1995087128580838 -2.6217224528540065e-06 -0.28814865996973354 0.24016973473635145 -2.670461915801649e-06 -0.19199004909445422 0.24017278420362129 -8.8682630698366598e-07 -0.14055184931640521 0.1995087128580838 -2.6217224528540065e-06 -0.28814865996973354 0.24017491855495909 -7.863156358590937e-07 -0.30344251104114128 0.24016973473635145 -2.670461915801649e-06 -0.19199004909445422 0.24017278420362129 -8.8682630698366598e-07 -0.14055184931640521 0.20502794840850025 -1.5436545781013091e-06 -1.0685296611416221e-05 0.24016812427421463 -2.9264168100075732e-06 -1.4055427146110244e-05 0.20503041431500024 -1.9777736516500124e-06 -0.14054661933492626 0.19216430436857387 -2.7511455610683422e-06 -1.3087661664125439e-05 0.20503041431500024 -1.9777736516500124e-06 -0.14054661933492626 0.24016973473635145 -2.670461915801649e-06 -0.19199004909445422 0.24016812427421463 -2.9264168100075727e-06 -1.4055427146096542e-05 0.24017278420362129 -8.8682630698366598e-07 -0.14055184931640521 0.24016812427421463 -2.9264168100075732e-06 -1.4055427146110244e-05 0.24017278420362129 -8.8682630698366598e-07 -0.14055184931640521 0.24016695043529199 -1.2643736956350548e-06 -1.4725099014231603e-05 0.20502794840850025 -1.5436545781013091e-06 -1.0685296611416221e-05 0.24017278420362129 -8.8682630698366598e-07 -0.14055184931640521 0.24016812427421466 -2.9264168100075732e-06 -1.4055427146098872e-05 0.20503041431500024 -1.9777736516500124e-06 -0.14054661933492626 0.20502794840850025 -1.5436545781013091e-06 -1.0685296611416221e-05 0.16477434209094075 -3.1666330573129425e-06 -0.16557234178168978 0.16666745088166751 -2.0696881638031569e-06 -1.2945492985736545e-05 0.20503041431500024 -1.9777736516500128e-06 -0.14054661933492626 0.19216430436857387 -2.7511455610683422e-06 -1.3087661664125439e-05 0.20502794840850025 -1.5436545781013091e-06 -1.0685296611416221e-05 0.20503041431500024 -1.9777736516500124e-06 -0.14054661933492626 0.16666745088166751 -2.0696881638031569e-06 -1.2945492985742231e-05 0.19216430436857387 -2.7511455610683422e-06 -1.3087661664125439e-05 0.16477434209094075 -3.1666330573129425e-06 -0.16557234178168978 0.16522359696245784 -1.0888194315983561e-06 -0.30108319598196304 0.16666745088166748 -2.0696881638031564e-06 -1.2945492985713948e-05 0.12022126010811103 -1.9282272667265853e-06 -0.21677576632864876 0.16477434209094075 -3.1666330573129425e-06 -0.16557234178168978 0.20503041431500024 -1.9777736516500124e-06 -0.14054661933492626 0.16666745088166751 -2.0696881638031569e-06 -1.2945492985732061e-05 0.16522359696245775 -1.0888194315983556e-06 -0.30108319598196304 0.16666745088166751 -2.0696881638031569e-06 -1.2945492985736545e-05 0.16477434209094075 -3.1666330573129425e-06 -0.16557234178168975 0.14414024200349165 -2.5898405616691618e-06 -1.4775238756521838e-05 0.19216430436857387 -2.7511455610683422e-06 -1.3087661664125439e-05 0.11866159132574632 -2.6079469445568446e-06 -0.1270686884438092 0.096101621452558753 -2.815374192407163e-06 -1.7602884489363287e-05 0.12244494910903074 -1.4193826823592946e-06 -1.2742234005569866e-05 0.14414024200349165 -2.5898405616691618e-06 -1.4775238756521838e-05 0.12244494910903074 -1.4193826823592946e-06 -1.2742234005569866e-05 0.16666745088166751 -2.0696881638031569e-06 -1.2945492985736545e-05 0.16477434209094075 -3.1666330573129425e-06 -0.16557234178168978 0.14414024200349165 -2.5898405616691618e-06 -1.4775238756521838e-05 0.16477434209094075 -3.1666330573129425e-06 -0.16557234178168978 0.11866159132574632 -2.6079469445568446e-06 -0.1270686884438092 0.12244494910903074 -1.4193826823592946e-06 -1.2742234005569866e-05 0.14414024200349165 -2.5898405616691618e-06 -1.4775238756521838e-05 0.11457189091605374 -3.1928393875566057e-06 -0.30466277050141577 0.16477434209094075 -3.1666330573129425e-06 -0.16557234178168981 0.11866159132574632 -2.6079469445568446e-06 -0.1270686884438092 0.12022126010811104 -1.9282272667265849e-06 -0.21677576632864878 0.11866159132574632 -2.6079469445568446e-06 -0.1270686884438092 0.16477434209094075 -3.1666330573129425e-06 -0.16557234178168978 0.12244494910903074 -1.4193826823592946e-06 -1.2742234005569866e-05 0.12022126010811104 -1.9282272667265849e-06 -0.21677576632864878 0.12244494910903074 -1.4193826823592946e-06 -1.2742234005569866e-05 0.16477434209094077 -3.1666330573129429e-06 -0.16557234178168975 0.16666745088166751 -2.0696881638031569e-06 -1.2945492985736545e-05 0.12022126010811104 -1.9282272667265849e-06 -0.21677576632864881 0.14665467919295158 -1.1194545513699775e-06 -1.2085056263171668e-05 0.12244494910903074 -1.4193826823592946e-06 -1.2742234005569866e-05 0.16666745088166751 -2.0696881638031569e-06 -1.2945492985736545e-05 0.12022126010811104 -1.9282272667265849e-06 -0.21677576632864878 0.14665467919295158 -1.1194545513699775e-06 -1.2085056263171668e-05 0.16522359696245775 -1.0888194315983563e-06 -0.30108319598196293 0.19417964311473482 -1.2138014386181564e-06 -1.5123014055143247e-05 0.18667660880476067 -2.6138914409701492e-07 -0.20901675989814825 0.14665467919295158 -1.1194545513699775e-06 -1.2085056263171668e-05 0.16666745088166751 -2.0696881638031569e-06 -1.2945492985736545e-05 0.16522359696245778 -1.0888194315983567e-06 -0.30108319598196298 0.12022126010811104 -1.9282272667265849e-06 -0.21677576632864878 0.19417964311473482 -1.2138014386181564e-06 -1.5123014055143247e-05 0.14665467919295158 -1.1194545513699775e-06 -1.2085056263182285e-05 0.16666745088166751 -2.0696881638031569e-06 -1.2945492985736545e-05 0.16522359696245775 -1.0888194315983563e-06 -0.30108319598196293 0.14665467919295158 -1.1194545513699775e-06 -1.2085056263171668e-05 0.11006383584176167 -8.7374364645066815e-07 -1.0992237134837006e-05 0.12244494910903074 -1.4193826823592946e-06 -1.2742234005562494e-05 0.12022126010811104 -1.9282272667265849e-06 -0.21677576632864878 0.11006383584176167 -8.7374364645066815e-07 -1.0992237134837006e-05 0.14665467919295158 -1.1194545513699775e-06 -1.2085056263171668e-05 0.1202218845834658 -1.8453593784859333e-07 -0.23960786948024262 0.12022126010811104 -1.9282272667265849e-06 -0.21677576632864878 0.18667660880476067 -2.6138914409701492e-07 -0.20901675989814825 0.14665467919295158 -1.1194545513699775e-06 -1.2085056263180186e-05 0.12022188458346579 -1.8453593784859325e-07 -0.2396078694802426 0.16171970025476476 -1.4087527997710412e-07 -1.1064353367557901e-05 0.16522359696245778 -1.0888194315983565e-06 -0.30108319598196298 0.1202218845834658 -1.8453593784859333e-07 -0.23960786948024262 0.14665467919295155 -1.1194545513699775e-06 -1.2085056263189436e-05 0.12022126010811106 -1.9282272667265845e-06 -0.21677576632864878 0.18667660880476067 -2.6138914409701492e-07 -0.20901675989814825 0.1202218845834658 -1.8453593784859333e-07 -0.23960786948024262 0.14665467919295158 -1.1194545513699775e-06 -1.2085056263162964e-05 0.16522359696245778 -1.0888194315983565e-06 -0.30108319598196298 0.1248352051965604 1.9388147493418762e-07 -1.4051072624594337e-05 0.14665467919295158 -1.1194545513699775e-06 -1.2085056263170001e-05 0.16171970025476476 -1.4087527997710412e-07 -1.1064353367559568e-05 0.1202218845834658 -1.8453593784859333e-07 -0.23960786948024262 0.11006383584176167 -8.7374364645066815e-07 -1.0992237134837006e-05 0.14665467919295158 -1.1194545513699775e-06 -1.2085056263171668e-05 0.1248352051965604 1.9388147493418762e-07 -1.4051072624594337e-05 0.1202218845834658 -1.8453593784859333e-07 -0.23960786948024262 0.14665467919295158 -1.1194545513699775e-06 -1.2085056263171668e-05 0.19417964311473482 -1.2138014386181564e-06 -1.5123014055143247e-05 0.16171970025476479 -1.4087527997710428e-07 -1.1064353367576468e-05 0.18667660880476067 -2.6138914409701492e-07 -0.20901675989814825 0.16522359696245778 -1.0888194315983565e-06 -0.30108319598196298 0.18028007518887382 5.6328337840787996e-08 -0.47837062057135399 0.12013141914810646 3.590371072933606e-08 -0.47991124307827238 0.1203095762083941 -1.4513883802881352e-06 -0.50761674916761834 0.18028007518887382 5.6328337840788063e-08 -0.47837062057135399 0.12030957620839408 -1.4513883802881354e-06 -0.50761674916761834 0.16522359696245778 -1.0888194315983563e-06 -0.30108319598196293 0.18730965776366157 -1.1412732120263834e-06 -0.48008133212750081 0.12013141914810645 3.5903710729336126e-08 -0.47991124307827232 0.18028007518887382 5.6328337840788063e-08 -0.47837062057135399 0.16522359696245778 -1.0888194315983556e-06 -0.30108319598196293 0.12022188458346579 -1.8453593784859312e-07 -0.23960786948024251 0.16522359696245778 -1.0888194315983565e-06 -0.30108319598196298 0.1202218845834658 -1.8453593784859338e-07 -0.23960786948024262 0.18028007518887382 5.6328337840788063e-08 -0.47837062057135399 0.18667660880476067 -2.6138914409701492e-07 -0.20901675989814825 0.12030957620839408 -1.4513883802881354e-06 -0.50761674916761834 0.12022188458346578 -1.8453593784859349e-07 -0.23960786948024262 0.16522359696245775 -1.0888194315983565e-06 -0.30108319598196298 0.12022126010811106 -1.9282272667265857e-06 -0.21677576632864878 0.12013141914810645 3.5903710729336126e-08 -0.47991124307827232 0.16522359696245775 -1.0888194315983565e-06 -0.30108319598196298 0.12030957620839408 -1.4513883802881354e-06 -0.50761674916761834 0.12022188458346579 -1.8453593784859344e-07 -0.23960786948024254 0.1995087128580838 -2.6217224528540065e-06 -0.28814865996973354 0.16522359696245778 -1.0888194315983565e-06 -0.30108319598196298 0.16060127928864681 -2.8839825264686326e-06 -0.36985984422183432 0.18730965776366154 -1.1412732120263834e-06 -0.48008133212750087 0.16477434209094075 -3.1666330573129425e-06 -0.16557234178168978 0.16060127928864681 -2.8839825264686326e-06 -0.36985984422183432 0.1995087128580838 -2.6217224528540065e-06 -0.28814865996973354 0.16522359696245778 -1.0888194315983565e-06 -0.30108319598196298 0.16060127928864681 -2.8839825264686326e-06 -0.36985984422183432 0.11457189091605374 -3.1928393875566057e-06 -0.30466277050141577 0.12030957620839408 -1.4513883802881356e-06 -0.50761674916761823 0.12022126010811104 -1.9282272667265853e-06 -0.21677576632864887 0.16569366104533459 -2.2188298396741211e-06 -0.52005108385196064 0.16060127928864681 -2.8839825264686326e-06 -0.36985984422183432 0.1203095762083941 -1.4513883802881356e-06 -0.50761674916761834 0.18730965776366154 -1.1412732120263834e-06 -0.48008133212750081 0.16477434209094075 -3.1666330573129425e-06 -0.16557234178168978 0.16060127928864681 -2.8839825264686326e-06 -0.36985984422183432 0.16522359696245778 -1.0888194315983563e-06 -0.30108319598196293 0.12022126010811102 -1.9282272667265853e-06 -0.21677576632864876 0.16060127928864681 -2.8839825264686326e-06 -0.36985984422183432 0.12030957620839408 -1.4513883802881354e-06 -0.50761674916761834 0.16522359696245784 -1.0888194315983563e-06 -0.30108319598196298 0.12022126010811106 -1.9282272667265845e-06 -0.21677576632864884 0.16522359696245778 -1.0888194315983565e-06 -0.30108319598196298 0.12030957620839408 -1.4513883802881354e-06 -0.50761674916761823 0.16060127928864681 -2.8839825264686326e-06 -0.36985984422183432 0.18730965776366154 -1.1412732120263834e-06 -0.48008133212750087 0.16477434209094075 -3.1666330573129425e-06 -0.16557234178168978 0.11457189091605374 -3.1928393875566057e-06 -0.30466277050141577 0.16060127928864681 -2.8839825264686326e-06 -0.36985984422183432 0.12022126010811107 -1.9282272667265849e-06 -0.21677576632864881 0.12012896741157128 -2.7593903300781537e-06 -0.46108458660242141 0.16060127928864681 -2.8839825264686326e-06 -0.36985984422183432 0.11457189091605374 -3.1928393875566057e-06 -0.30466277050141577 0.12030957620839408 -1.4513883802881354e-06 -0.50761674916761834 0.12012896741157128 -2.7593903300781537e-06 -0.46108458660242141 0.16569366104533459 -2.2188298396741211e-06 -0.52005108385196064 0.16060127928864681 -2.8839825264686326e-06 -0.36985984422183432 0.12030957620839408 -1.4513883802881354e-06 -0.50761674916761834 0.16060127928864681 -2.8839825264686326e-06 -0.36985984422183432 0.16569366104533459 -2.2188298396741211e-06 -0.52005108385196064 0.20066182647440986 -2.6180296088751087e-06 -0.47063645732457698 0.18730965776366154 -1.1412732120263834e-06 -0.48008133212750087 0.24017491855495909 -7.863156358590937e-07 -0.30344251104114128 0.16522359696245778 -1.0888194315983565e-06 -0.30108319598196298 0.1995087128580838 -2.6217224528540065e-06 -0.28814865996973354 0.18730965776366154 -1.1412732120263832e-06 -0.48008133212750087 0.24017491855495909 -7.863156358590937e-07 -0.30344251104114128 0.24017278420362129 -8.8682630698366598e-07 -0.14055184931640521 0.1995087128580838 -2.6217224528540065e-06 -0.28814865996973354 0.16522359696245778 -1.0888194315983565e-06 -0.30108319598196298 0.20066182647440986 -2.6180296088751087e-06 -0.47063645732457698 0.1995087128580838 -2.6217224528540065e-06 -0.28814865996973354 0.16060127928864681 -2.8839825264686326e-06 -0.36985984422183432 0.18730965776366151 -1.1412732120263832e-06 -0.48008133212750081 0.20066182647440986 -2.6180296088751087e-06 -0.47063645732457698 0.24017491855495909 -7.8631563585909338e-07 -0.30344251104114128 0.1995087128580838 -2.6217224528540065e-06 -0.28814865996973354 0.18730965776366157 -1.1412732120263834e-06 -0.48008133212750087 0.1995087128580838 -2.6217224528540065e-06 -0.28814865996973354 0.20066182647440986 -2.6180296088751079e-06 -0.47063645732457704 0.24017513888662773 -3.1400994277618383e-06 -0.38396960717526402 0.24017491855495909 -7.863156358590937e-07 -0.30344251104114128 0.20066182647440986 -2.6180296088751087e-06 -0.47063645732457698 0.2401830763096158 -1.7540006964395739e-06 -0.48924322856260621 0.24018832513642943 -3.4864978578937453e-06 -0.57595376950204014 0.24017513888662775 -3.1400994277618379e-06 -0.38396960717526402 0.24017513888662775 -3.1400994277618379e-06 -0.38396960717526402 0.20066182647440986 -2.6180296088751087e-06 -0.47063645732457698 0.2401830763096158 -1.7540006964395744e-06 -0.48924322856260621 0.24017491855495909 -7.863156358590937e-07 -0.30344251104114128 0.24017491855495909 -7.863156358590937e-07 -0.30344251104114128 0.24017513888662775 -3.1400994277618375e-06 -0.38396960717526402 0.1995087128580838 -2.6217224528540065e-06 -0.28814865996973354 0.24016973473635145 -2.670461915801649e-06 -0.19199004909445422 0.24018192885392534 -1.2863005219824642e-06 -0.43976467266643599 0.24017491855495909 -7.863156358590937e-07 -0.30344251104114128 0.2401830763096158 -1.7540006964395744e-06 -0.48924322856260621 0.18730965776366154 -1.1412732120263834e-06 -0.48008133212750087 0.20066182647440986 -2.6180296088751087e-06 -0.47063645732457698 0.24018307630961583 -1.7540006964395748e-06 -0.48924322856260632 0.24017491855495909 -7.8631563585909349e-07 -0.30344251104114128 0.18730965776366154 -1.1412732120263832e-06 -0.48008133212750076 0.24017552260051306 -5.3346944347383422e-07 -0.31606063318844668 0.16522359696245775 -1.0888194315983565e-06 -0.30108319598196304 0.18028007518887382 5.6328337840787758e-08 -0.47837062057135393 0.18667660880476067 -2.6138914409701492e-07 -0.20901675989814825 0.24017552260051306 -5.3346944347383422e-07 -0.31606063318844668 0.24017491855495909 -7.863156358590937e-07 -0.30344251104114128 0.24018192885392534 -1.2863005219824642e-06 -0.43976467266643599 0.16522359696245778 -1.0888194315983565e-06 -0.30108319598196298 0.24018192885392534 -1.2863005219824642e-06 -0.43976467266643599 0.18028007518887382 5.6328337840788347e-08 -0.4783706205713541 0.16522359696245775 -1.0888194315983565e-06 -0.30108319598196293 0.18730965776366151 -1.141273212026383e-06 -0.48008133212750087 0.24017119623486158 -6.5521700782775655e-07 -0.16252096384789261 0.24017491855495907 -7.863156358590937e-07 -0.30344251104114128 0.24017552260051306 -5.3346944347383422e-07 -0.31606063318844668 0.16522359696245778 -1.0888194315983565e-06 -0.30108319598196298 0.24018192885392534 -1.2863005219824642e-06 -0.43976467266643599 0.16522359696245778 -1.0888194315983565e-06 -0.30108319598196298 0.24017491855495909 -7.863156358590937e-07 -0.30344251104114128 0.18730965776366157 -1.1412732120263834e-06 -0.48008133212750093 0.24017119623486158 -6.5521700782775655e-07 -0.16252096384789261 0.16522359696245778 -1.0888194315983565e-06 -0.30108319598196293 0.24017552260051306 -5.3346944347383422e-07 -0.31606063318844668 0.18667660880476067 -2.6138914409701461e-07 -0.20901675989814819 0.24017552260051306 -5.3346944347383422e-07 -0.31606063318844668 0.16522359696245778 -1.0888194315983565e-06 -0.30108319598196298 0.24018192885392534 -1.2863005219824642e-06 -0.43976467266643599 0.18028007518887385 5.6328337840787507e-08 -0.47837062057135393 0.24017540761472733 4.4933055852508089e-07 -0.3114648550250142 0.24016931122883459 -2.2083802024683665e-07 -0.16536481046217097 0.24017552260051306 -5.3346944347383422e-07 -0.31606063318844668 0.18667660880476067 -2.6138914409701492e-07 -0.20901675989814825 0.24017552260051306 -5.3346944347383422e-07 -0.31606063318844668 0.24018192885392534 -1.2863005219824642e-06 -0.43976467266643599 0.24018176300117761 2.6760462634660656e-07 -0.49879070615236676 0.18028007518887387 5.6328337840788288e-08 -0.47837062057135404 0.24019266359328573 -9.39864458809783e-07 -0.57549812766640096 0.18028007518887382 5.6328337840788063e-08 -0.47837062057135399 0.16516032720231219 -9.8004374240939834e-07 -0.65983309703976112 0.18744740066096216 -2.0859477302190998e-07 -0.74889124399661122 0.24019266359328573 -9.39864458809783e-07 -0.57549812766640096 0.24020735885296929 -1.1455707717604472e-06 -0.69809878653610014 0.16516032720231219 -9.8004374240939834e-07 -0.65983309703976112 0.19604853312843243 -1.55408404594591e-06 -0.78326535114328832 0.24019266359328573 -9.39864458809783e-07 -0.57549812766640096 0.24019686685932035 4.009688816228194e-07 -0.64622517453426309 0.24018176300117761 2.6760462634660656e-07 -0.49879070615236676 0.18028007518887382 5.6328337840788063e-08 -0.47837062057135399 0.24019266359328573 -9.39864458809783e-07 -0.57549812766640096 0.18028007518887382 5.6328337840788096e-08 -0.47837062057135399 0.24018192885392534 -1.2863005219824642e-06 -0.43976467266643599 0.18730965776366151 -1.1412732120263832e-06 -0.48008133212750081 0.16516032720231219 -9.8004374240939834e-07 -0.65983309703976112 0.18730965776366151 -1.1412732120263832e-06 -0.48008133212750087 0.24019266359328573 -9.398644588097829e-07 -0.57549812766640096 0.19604853312843243 -1.5540840459459102e-06 -0.78326535114328844 0.24019266359328573 -9.39864458809783e-07 -0.57549812766640096 0.16516032720231219 -9.8004374240939834e-07 -0.65983309703976112 0.18028007518887382 5.6328337840787943e-08 -0.47837062057135404 0.18730965776366151 -1.1412732120263832e-06 -0.48008133212750081 0.24019686685932035 4.009688816228194e-07 -0.64622517453426309 0.18028007518887379 5.632833784078793e-08 -0.47837062057135399 0.24019266359328573 -9.39864458809783e-07 -0.57549812766640096 0.18744740066096213 -2.0859477302191001e-07 -0.74889124399661122 0.24020735885296929 -1.1455707717604472e-06 -0.69809878653610014 0.24019266359328573 -9.39864458809783e-07 -0.57549812766640096 0.16516032720231216 -9.8004374240939919e-07 -0.65983309703976112 0.18744740066096213 -2.0859477302190882e-07 -0.74889124399661111 0.24019266359328573 -9.39864458809783e-07 -0.57549812766640096 0.24018176300117761 2.6760462634660656e-07 -0.49879070615236676 0.24018192885392534 -1.2863005219824642e-06 -0.43976467266643599 0.18028007518887382 5.6328337840788063e-08 -0.47837062057135399 0.24020735885296929 -1.1455707717604472e-06 -0.69809878653610014 0.24019686685932037 4.0096888162281934e-07 -0.64622517453426309 0.24019266359328573 -9.39864458809783e-07 -0.57549812766640096 0.18744740066096216 -2.0859477302190998e-07 -0.74889124399661122 0.24019266359328573 -9.39864458809783e-07 -0.57549812766640096 0.24020301298511521 -1.2519108143929399e-06 -0.67737797757531681 0.24020735885296929 -1.1455707717604472e-06 -0.69809878653610014 0.19604853312843243 -1.5540840459459102e-06 -0.78326535114328844 0.24019266359328573 -9.39864458809783e-07 -0.57549812766640096 0.24018192885392534 -1.2863005219824642e-06 -0.43976467266643599 0.2401830763096158 -1.7540006964395744e-06 -0.48924322856260621 0.18730965776366154 -1.1412732120263834e-06 -0.48008133212750087 0.2401830763096158 -1.7540006964395744e-06 -0.48924322856260621 0.19572197444003223 -2.8282794236472201e-06 -0.66150752886177644 0.24020301298511521 -1.2519108143929399e-06 -0.67737797757531681 0.18730965776366151 -1.1412732120263828e-06 -0.48008133212750087 0.19572197444003223 -2.8282794236472201e-06 -0.66150752886177644 0.18730965776366151 -1.1412732120263836e-06 -0.48008133212750081 0.16516032720231219 -9.8004374240939792e-07 -0.65983309703976101 0.19604853312843243 -1.5540840459459102e-06 -0.78326535114328844 0.19572197444003223 -2.8282794236472201e-06 -0.66150752886177644 0.24020301298511521 -1.2519108143929399e-06 -0.67737797757531693 0.18730965776366154 -1.1412732120263838e-06 -0.48008133212750087 0.19604853312843243 -1.5540840459459102e-06 -0.78326535114328844 0.24020301298511521 -1.2519108143929399e-06 -0.67737797757531681 0.24019266359328573 -9.39864458809783e-07 -0.57549812766640096 0.18730965776366154 -1.1412732120263834e-06 -0.48008133212750087 0.19604853312843243 -1.5540840459459102e-06 -0.78326535114328844 0.2401830763096158 -1.7540006964395744e-06 -0.48924322856260621 0.24020301298511521 -1.2519108143929399e-06 -0.67737797757531681 0.24019266359328573 -9.39864458809783e-07 -0.57549812766640096 0.18730965776366154 -1.1412732120263834e-06 -0.48008133212750087 0.24020301298511521 -1.2519108143929399e-06 -0.67737797757531681 0.19572197444003223 -2.8282794236472201e-06 -0.66150752886177644 0.24018832513642943 -3.4864978578937453e-06 -0.57595376950204014 0.24021236880039104 -2.8473864042866858e-06 -0.76794252656226991 0.19572197444003223 -2.8282794236472201e-06 -0.66150752886177644 0.24018832513642943 -3.4864978578937453e-06 -0.57595376950204014 0.2401830763096158 -1.7540006964395744e-06 -0.48924322856260621 0.24020301298511521 -1.2519108143929399e-06 -0.67737797757531681 0.2401830763096158 -1.7540006964395744e-06 -0.48924322856260621 0.24018832513642946 -3.4864978578937453e-06 -0.57595376950204014 0.19572197444003223 -2.8282794236472201e-06 -0.66150752886177644 0.20066182647440983 -2.6180296088751083e-06 -0.47063645732457687 0.19572197444003223 -2.8282794236472201e-06 -0.66150752886177644 0.20066182647440986 -2.6180296088751087e-06 -0.47063645732457698 0.16569366104533459 -2.2188298396741211e-06 -0.52005108385196064 0.18730965776366154 -1.1412732120263834e-06 -0.48008133212750087 0.19572197444003223 -2.8282794236472201e-06 -0.66150752886177644 0.2401830763096158 -1.7540006964395744e-06 -0.48924322856260621 0.20066182647440986 -2.6180296088751087e-06 -0.47063645732457698 0.18730965776366154 -1.1412732120263834e-06 -0.48008133212750087 0.16569366104533459 -2.2188298396741211e-06 -0.52005108385196064 0.14421096271666603 -3.1991198322285057e-06 -0.64838807588566183 0.16516032720231219 -9.8004374240939834e-07 -0.65983309703976112 0.1203095762083941 -1.4513883802881354e-06 -0.50761674916761834 0.14421096271666603 -3.1991198322285057e-06 -0.64838807588566183 0.19572197444003223 -2.8282794236472201e-06 -0.66150752886177644 0.16569366104533459 -2.2188298396741211e-06 -0.52005108385196064 0.16516032720231219 -9.8004374240939834e-07 -0.65983309703976112 0.19572197444003223 -2.8282794236472201e-06 -0.66150752886177644 0.16569366104533459 -2.2188298396741211e-06 -0.52005108385196064 0.16516032720231222 -9.8004374240939813e-07 -0.65983309703976112 0.18730965776366154 -1.1412732120263832e-06 -0.48008133212750087 0.16687152658656706 -2.607664672114633e-06 -0.80724191925340816 0.16516032720231219 -9.8004374240939813e-07 -0.65983309703976101 0.14421096271666603 -3.1991198322285057e-06 -0.64838807588566194 0.12035622442582095 -2.0814436635314376e-06 -0.74946757440466782 0.16516032720231219 -9.8004374240939834e-07 -0.65983309703976112 0.16569366104533459 -2.2188298396741215e-06 -0.52005108385196075 0.12030957620839405 -1.4513883802881354e-06 -0.50761674916761823 0.18730965776366154 -1.1412732120263834e-06 -0.48008133212750087 0.16516032720231219 -9.8004374240939834e-07 -0.65983309703976112 0.12030957620839407 -1.4513883802881352e-06 -0.50761674916761834 0.14421096271666603 -3.1991198322285057e-06 -0.64838807588566183 0.12035622442582095 -2.0814436635314376e-06 -0.74946757440466782 0.14421096271666603 -3.1991198322285057e-06 -0.64838807588566183 0.19572197444003223 -2.8282794236472201e-06 -0.66150752886177644 0.16516032720231219 -9.8004374240939834e-07 -0.65983309703976112 0.19604853312843243 -1.5540840459459102e-06 -0.78326535114328844 0.16569366104533459 -2.2188298396741211e-06 -0.52005108385196064 0.12012896741157128 -2.7593903300781537e-06 -0.46108458660242141 0.14421096271666603 -3.1991198322285057e-06 -0.64838807588566183 0.12030957620839408 -1.451388380288136e-06 -0.50761674916761834 0.12013141914810645 3.5903710729336126e-08 -0.47991124307827232 0.16516032720231219 -9.8004374240939834e-07 -0.65983309703976101 0.11970679745810602 1.9506261560692749e-07 -0.72029896309803909 0.12030957620839408 -1.4513883802881354e-06 -0.50761674916761834 0.16516032720231219 -9.8004374240939834e-07 -0.65983309703976112 0.12013141914810645 3.5903710729335948e-08 -0.47991124307827232 0.18028007518887379 5.6328337840787917e-08 -0.47837062057135393 0.12030957620839405 -1.4513883802881358e-06 -0.50761674916761812 0.16516032720231219 -9.8004374240939834e-07 -0.65983309703976112 0.18028007518887379 5.6328337840788347e-08 -0.47837062057135399 0.12013141914810645 3.5903710729336126e-08 -0.47991124307827232 0.11970679745810606 1.9506261560692744e-07 -0.72029896309803909 0.18028007518887382 5.6328337840788063e-08 -0.47837062057135399 0.11970679745810604 1.9506261560692712e-07 -0.72029896309803898 0.16516032720231219 -9.8004374240939834e-07 -0.65983309703976112 0.18744740066096216 -2.0859477302190998e-07 -0.74889124399661122 0.11970679745810603 1.9506261560692739e-07 -0.72029896309803898 0.12030957620839408 -1.4513883802881354e-06 -0.50761674916761834 0.16516032720231219 -9.8004374240939834e-07 -0.65983309703976112 0.12035622442582095 -2.0814436635314376e-06 -0.74946757440466782 0.16516032720231219 -9.8004374240939834e-07 -0.65983309703976112 0.12030957620839407 -1.4513883802881356e-06 -0.50761674916761834 0.18028007518887385 5.6328337840788049e-08 -0.47837062057135399 0.18730965776366154 -1.1412732120263834e-06 -0.48008133212750087 0.11012125001505656 -5.2176790995472829e-07 -0.9597996635730115 0.11970679745810603 1.9506261560692739e-07 -0.72029896309803898 0.14409443597152299 -9.5386769942097953e-07 -0.95983601531238982 0.12035622442582095 -2.0814436635314376e-06 -0.74946757440466782 0.14409443597152299 -9.5386769942097953e-07 -0.95983601531238982 0.16516032720231219 -9.8004374240939792e-07 -0.65983309703976112 0.17476839280755935 -5.9482781325287215e-07 -0.95986763603893954 0.19604853312843243 -1.5540840459459102e-06 -0.78326535114328844 0.14409443597152299 -9.5386769942097953e-07 -0.95983601531238982 0.16516032720231219 -9.8004374240939834e-07 -0.65983309703976112 0.11970679745810604 1.9506261560692691e-07 -0.72029896309803887 0.18744740066096216 -2.0859477302190998e-07 -0.74889124399661122 0.14409443597152299 -9.5386769942097953e-07 -0.95983601531238982 0.12035622442582095 -2.0814436635314376e-06 -0.74946757440466782 0.16516032720231219 -9.8004374240939877e-07 -0.65983309703976112 0.19604853312843243 -1.5540840459459102e-06 -0.78326535114328844 0.14409443597152299 -9.5386769942097953e-07 -0.95983601531238982 0.11970679745810606 1.9506261560692752e-07 -0.72029896309803898 0.16516032720231219 -9.8004374240939792e-07 -0.65983309703976112 0.12035622442582093 -2.0814436635314376e-06 -0.74946757440466782 0.14409443597152299 -9.5386769942097953e-07 -0.95983601531238982 0.17476839280755935 -5.9482781325287215e-07 -0.95986763603893954 0.16516032720231219 -9.8004374240939834e-07 -0.65983309703976112 0.18744740066096216 -2.0859477302190998e-07 -0.74889124399661122 0.14409443597152299 -9.5386769942097953e-07 -0.95983601531238982 0.11970679745810606 1.9506261560692733e-07 -0.72029896309803898 0.16179328069801061 1.8156628054939993e-07 -0.95985250179323056 0.18744740066096216 -2.0859477302190998e-07 -0.74889124399661122 0.16958643697471876 -2.606952841791314e-06 -0.95986116939814203 0.14409443597152299 -9.5386769942097953e-07 -0.95983601531238982 0.17476839280755935 -5.9482781325287215e-07 -0.95986763603893954 0.19604853312843246 -1.5540840459459102e-06 -0.78326535114328844 0.14409443597152299 -9.5386769942097953e-07 -0.95983601531238982 0.16179328069801063 1.8156628054939985e-07 -0.95985250179323067 0.17476839280755935 -5.9482781325287215e-07 -0.95986763603893954 0.18744740066096216 -2.0859477302190998e-07 -0.74889124399661122 0.11012125001505656 -5.2176790995472829e-07 -0.9597996635730115 0.12489996637755196 1.7580607972165548e-07 -0.95981556905208987 0.14409443597152299 -9.5386769942097953e-07 -0.95983601531238982 0.11970679745810603 1.9506261560692739e-07 -0.72029896309803898 0.16179328069801063 1.8156628054939985e-07 -0.95985250179323067 0.14409443597152297 -9.5386769942097931e-07 -0.95983601531238982 0.12489996637755196 1.7580607972165542e-07 -0.95981556905208987 0.11970679745810603 1.9506261560692739e-07 -0.72029896309803898 0.14409443597152299 -9.5386769942097953e-07 -0.95983601531238982 0.12250826401299242 -1.6815697608428636e-06 -0.95981321458203028 0.11012125001505656 -5.2176790995472829e-07 -0.9597996635730115 0.12035622442582095 -2.0814436635314376e-06 -0.74946757440466782 0.12250826401299242 -1.6815697608428638e-06 -0.95981321458203028 0.16958643697471876 -2.606952841791314e-06 -0.95986116939814203 0.16687152658656706 -2.607664672114633e-06 -0.80724191925340816 0.12035622442582093 -2.0814436635314371e-06 -0.74946757440466771 0.16516032720231219 -9.8004374240939834e-07 -0.65983309703976112 0.12035622442582095 -2.0814436635314376e-06 -0.74946757440466782 0.16687152658656706 -2.607664672114633e-06 -0.80724191925340816 0.19604853312843243 -1.5540840459459102e-06 -0.78326535114328844 0.16958643697471876 -2.606952841791314e-06 -0.95986116939814203 0.16687152658656706 -2.6076646721146334e-06 -0.80724191925340816 0.12035622442582096 -2.0814436635314376e-06 -0.74946757440466782 0.19604853312843243 -1.5540840459459098e-06 -0.78326535114328844 0.16958643697471876 -2.606952841791314e-06 -0.95986116939814203 0.12035622442582096 -2.0814436635314371e-06 -0.74946757440466782 0.14409443597152299 -9.5386769942097953e-07 -0.95983601531238982 0.19604853312843243 -1.5540840459459098e-06 -0.78326535114328844 0.16958643697471876 -2.606952841791314e-06 -0.95986116939814203 0.12250826401299242 -1.6815697608428638e-06 -0.95981321458203028 0.14409443597152299 -9.5386769942097953e-07 -0.95983601531238982 0.12035622442582096 -2.0814436635314371e-06 -0.74946757440466805 0.14421096271666603 -3.1991198322285057e-06 -0.64838807588566183 0.16516032720231216 -9.8004374240939622e-07 -0.65983309703976134 0.16687152658656706 -2.607664672114633e-06 -0.80724191925340816 0.19604853312843243 -1.5540840459459102e-06 -0.78326535114328844 0.16687152658656706 -2.607664672114633e-06 -0.80724191925340816 0.14421096271666603 -3.1991198322285057e-06 -0.64838807588566183 0.11976286674675059 -2.8580411381753074e-06 -0.79447309310373182 0.12035622442582095 -2.0814436635314376e-06 -0.74946757440466782 0.16687152658656706 -2.607664672114633e-06 -0.80724191925340816 0.11976286674675059 -2.8580411381753074e-06 -0.79447309310373182 0.1225082640129924 -1.6815697608428636e-06 -0.95981321458203028 0.12035622442582095 -2.0814436635314376e-06 -0.74946757440466782 0.14421119718985018 -3.1234164826970284e-06 -0.95983432239161226 0.11976286674675059 -2.8580411381753074e-06 -0.79447309310373182 0.12250826401299242 -1.6815697608428638e-06 -0.95981321458203028 0.16687152658656706 -2.607664672114633e-06 -0.80724191925340816 0.12250826401299242 -1.6815697608428638e-06 -0.95981321458203028 0.096155653389105533 -3.3436201087880517e-06 -0.95978665729634183 0.11976286674675059 -2.8580411381753078e-06 -0.79447309310373182 0.14421119718985018 -3.1234164826970284e-06 -0.95983432239161226 0.12250826401299242 -1.6815697608428638e-06 -0.95981321458203028 0.16958643697471876 -2.606952841791314e-06 -0.95986116939814203 0.14421119718985018 -3.123416482697028e-06 -0.95983432239161215 0.16687152658656706 -2.607664672114633e-06 -0.80724191925340816 0.16958643697471876 -2.606952841791314e-06 -0.95986116939814203 0.14421119718985018 -3.1234164826970284e-06 -0.95983432239161226 0.16687152658656706 -2.607664672114633e-06 -0.80724191925340816 0.19224470187534826 -2.536370363435708e-06 -0.95989077847161386 0.14421096271666603 -3.1991198322285057e-06 -0.64838807588566183 0.16687152658656709 -2.607664672114633e-06 -0.80724191925340816 0.19572197444003223 -2.8282794236472201e-06 -0.66150752886177644 0.19604853312843243 -1.5540840459459102e-06 -0.78326535114328844 0.16958643697471876 -2.606952841791314e-06 -0.95986116939814203 0.20510868268540033 -2.0993319456688914e-06 -0.95990237814974566 0.16687152658656706 -2.6076646721146326e-06 -0.80724191925340805 0.19604853312843246 -1.5540840459459102e-06 -0.78326535114328844 0.20510868268540033 -2.0993319456688914e-06 -0.95990237814974566 0.16958643697471876 -2.606952841791314e-06 -0.95986116939814203 0.20466188560536705 -1.534294787232737e-06 -0.95990097061387358 0.19604853312843243 -1.5540840459459102e-06 -0.78326535114328844 0.24020301298511521 -1.2519108143929399e-06 -0.67737797757531681 0.19572197444003225 -2.8282794236472201e-06 -0.66150752886177655 0.20507913815113718 -2.0995008821196027e-06 -0.81936158463914555 0.1960485331284324 -1.5540840459459102e-06 -0.78326535114328844 0.16687152658656706 -2.607664672114633e-06 -0.80724191925340816 0.20507913815113721 -2.0995008821196027e-06 -0.81936158463914555 0.19572197444003223 -2.8282794236472201e-06 -0.66150752886177644 0.19604853312843243 -1.5540840459459102e-06 -0.78326535114328844 0.20507913815113721 -2.0995008821196027e-06 -0.81936158463914555 0.16687152658656706 -2.607664672114633e-06 -0.80724191925340816 0.20510868268540033 -2.0993319456688914e-06 -0.95990237814974566 0.19604853312843243 -1.5540840459459102e-06 -0.78326535114328844 0.19224470187534826 -2.536370363435708e-06 -0.95989077847161386 0.16687152658656704 -2.607664672114633e-06 -0.80724191925340805 0.16958643697471876 -2.606952841791314e-06 -0.95986116939814203 0.20510868268540033 -2.0993319456688914e-06 -0.95990237814974566 0.19224470187534826 -2.536370363435708e-06 -0.95989077847161386 0.20507913815113724 -2.0995008821196027e-06 -0.81936158463914566 0.16687152658656706 -2.607664672114633e-06 -0.80724191925340816 0.20510868268540033 -2.0993319456688914e-06 -0.95990237814974566 0.24025217953407241 -2.8755808425389855e-06 -0.95993865604620732 0.24022375097364232 -1.3633270560530614e-06 -0.81938703883205388 0.20507913815113718 -2.0995008821196027e-06 -0.81936158463914555 0.20510868268540033 -2.0993319456688914e-06 -0.95990237814974566 0.19224470187534826 -2.536370363435708e-06 -0.95989077847161386 0.24025217953407241 -2.8755808425389855e-06 -0.95993865604620732 0.20507913815113721 -2.0995008821196027e-06 -0.81936158463914555 0.20510868268540033 -2.0993319456688914e-06 -0.95990237814974566 0.20510868268540033 -2.0993319456688914e-06 -0.95990237814974566 0.24025217953407241 -2.8755808425389855e-06 -0.95993865604620732 0.24022375097364232 -1.3633270560530614e-06 -0.81938703883205388 0.24025161543048298 -1.4237766257231644e-06 -0.9599342504872399 0.20507913815113721 -2.0995008821196027e-06 -0.81936158463914555 0.24022375097364232 -1.3633270560530614e-06 -0.81938703883205388 0.24025217953407241 -2.8755808425389855e-06 -0.95993865604620732 0.24021236880039104 -2.8473864042866858e-06 -0.76794252656226991 0.20507913815113721 -2.0995008821196027e-06 -0.81936158463914555 0.19572197444003223 -2.8282794236472201e-06 -0.66150752886177644 0.24020301298511521 -1.2519108143929406e-06 -0.67737797757531693 0.24021236880039104 -2.8473864042866858e-06 -0.76794252656226991 0.24020301298511521 -1.2519108143929399e-06 -0.67737797757531681 0.24022375097364232 -1.3633270560530611e-06 -0.81938703883205388 0.20507913815113721 -2.0995008821196027e-06 -0.81936158463914555 0.24021236880039104 -2.8473864042866858e-06 -0.76794252656226991 0.24022375097364232 -1.3633270560530614e-06 -0.81938703883205388 0.24022384489604931 -8.4312637088653991e-07 -0.81760666280984762 0.24020301298511521 -1.2519108143929399e-06 -0.67737797757531681 0.19604853312843243 -1.5540840459459102e-06 -0.78326535114328844 0.24020301298511521 -1.2519108143929399e-06 -0.67737797757531681 0.20507913815113721 -2.0995008821196027e-06 -0.81936158463914555 0.24022375097364232 -1.3633270560530614e-06 -0.81938703883205388 0.19604853312843243 -1.5540840459459102e-06 -0.78326535114328844 0.20510868268540033 -2.0993319456688914e-06 -0.95990237814974566 0.20466188560536705 -1.5342947872327368e-06 -0.95990097061387347 0.24025161543048298 -1.4237766257231644e-06 -0.9599342504872399 0.19604853312843243 -1.5540840459459102e-06 -0.78326535114328844 0.24022375097364232 -1.3633270560530614e-06 -0.81938703883205388 0.20510868268540031 -2.0993319456688914e-06 -0.95990237814974566 0.24025161543048298 -1.4237766257231644e-06 -0.9599342504872399 0.19604853312843243 -1.5540840459459102e-06 -0.78326535114328844 0.24022375097364232 -1.3633270560530614e-06 -0.81938703883205388 0.24025161543048298 -1.4237766257231644e-06 -0.9599342504872399 0.24022384489604931 -8.4312637088653991e-07 -0.81760666280984762 0.19604853312843243 -1.5540840459459102e-06 -0.78326535114328844 0.20507913815113721 -2.0995008821196027e-06 -0.81936158463914555 0.20510868268540033 -2.0993319456688914e-06 -0.95990237814974566 0.24022375097364232 -1.3633270560530614e-06 -0.81938703883205388 0.19604853312843246 -1.5540840459459106e-06 -0.78326535114328855 0.24025161543048298 -1.4237766257231644e-06 -0.9599342504872399 0.24022384489604934 -8.4312637088653991e-07 -0.81760666280984773 0.20466188560536705 -1.5342947872327372e-06 -0.95990097061387358 0.24025012128011985 -1.9567970541734235e-07 -0.95993513171937572 0.24025161543048298 -1.4237766257231644e-06 -0.9599342504872399 0.20466188560536705 -1.534294787232737e-06 -0.95990097061387358 0.24022384489604931 -8.4312637088653991e-07 -0.81760666280984762 0.1960485331284324 -1.5540840459459104e-06 -0.78326535114328832 0.24022384489604931 -8.4312637088653991e-07 -0.81760666280984762 0.20466188560536705 -1.534294787232737e-06 -0.95990097061387358 0.18744740066096216 -2.0859477302191001e-07 -0.74889124399661122 0.19604853312843248 -1.5540840459459102e-06 -0.78326535114328855 0.16516032720231219 -9.8004374240939834e-07 -0.65983309703976112 0.18744740066096216 -2.0859477302191004e-07 -0.74889124399661122 0.17476839280755935 -5.9482781325287236e-07 -0.95986763603893965 0.19604853312843243 -1.5540840459459102e-06 -0.78326535114328844 0.24020735885296929 -1.1455707717604472e-06 -0.69809878653610014 0.24022384489604931 -8.4312637088653991e-07 -0.81760666280984762 0.18744740066096216 -2.0859477302190974e-07 -0.74889124399661122 0.1960485331284324 -1.5540840459459104e-06 -0.78326535114328832 0.20466188560536705 -1.534294787232737e-06 -0.95990097061387358 0.17476839280755935 -5.9482781325287215e-07 -0.95986763603893954 0.18744740066096216 -2.0859477302190998e-07 -0.74889124399661122 0.1960485331284324 -1.55408404594591e-06 -0.78326535114328832 0.24020735885296929 -1.1455707717604472e-06 -0.69809878653610014 0.18744740066096216 -2.0859477302190998e-07 -0.74889124399661122 0.16516032720231222 -9.8004374240939855e-07 -0.65983309703976112 0.1960485331284324 -1.5540840459459102e-06 -0.78326535114328844 0.20466188560536705 -1.534294787232737e-06 -0.95990097061387358 0.24022384489604931 -8.431263708865398e-07 -0.81760666280984773 0.24022064252624153 -6.6004609436640216e-08 -0.80818388351034243 0.24025012128011985 -1.9567970541734235e-07 -0.95993513171937572 0.17476839280755935 -5.9482781325287215e-07 -0.95986763603893954 0.20466188560536702 -1.534294787232737e-06 -0.95990097061387369 0.16958643697471876 -2.606952841791314e-06 -0.95986116939814203 0.19604853312843243 -1.5540840459459102e-06 -0.78326535114328844 0.24020301298511521 -1.2519108143929399e-06 -0.67737797757531681 0.24022384489604931 -8.4312637088653991e-07 -0.81760666280984762 0.24020735885296929 -1.1455707717604472e-06 -0.69809878653610014 0.19604853312843243 -1.5540840459459102e-06 -0.78326535114328844 0.20466188560536705 -1.534294787232737e-06 -0.95990097061387358 0.24022064252624151 -6.6004609436640335e-08 -0.80818388351034254 0.24022384489604931 -8.4312637088653991e-07 -0.81760666280984762 0.18744740066096216 -2.0859477302190998e-07 -0.74889124399661122 0.24022384489604931 -8.4312637088653991e-07 -0.81760666280984762 0.24022064252624153 -6.6004609436640494e-08 -0.80818388351034243 0.24020735885296929 -1.1455707717604472e-06 -0.69809878653610014 0.18744740066096216 -2.0859477302190998e-07 -0.74889124399661122 0.24020735885296929 -1.1455707717604472e-06 -0.69809878653610014 0.24022064252624153 -6.6004609436640269e-08 -0.80818388351034243 0.24019686685932035 4.009688816228194e-07 -0.64622517453426309 0.18744740066096216 -2.0859477302190998e-07 -0.74889124399661122 0.17476839280755935 -5.9482781325287215e-07 -0.95986763603893954 0.16179328069801063 1.8156628054939982e-07 -0.95985250179323067 0.20230600460443549 -6.9176770575633636e-08 -0.9599001013587587 0.18744740066096216 -2.0859477302190998e-07 -0.74889124399661122 0.20230600460443549 -6.9176770575633636e-08 -0.95990010135875881 0.20466188560536705 -1.534294787232737e-06 -0.95990097061387358 0.17476839280755935 -5.9482781325287215e-07 -0.95986763603893954 0.18744740066096216 -2.0859477302190998e-07 -0.74889124399661122 0.20230600460443549 -6.9176770575633636e-08 -0.95990010135875881 0.24022064252624153 -6.6004609436640216e-08 -0.80818388351034243 0.20466188560536705 -1.534294787232737e-06 -0.95990097061387358 0.18744740066096216 -2.0859477302190998e-07 -0.74889124399661122 0.24025012128011985 -1.9567970541734235e-07 -0.95993513171937572 0.24022064252624153 -6.6004609436640216e-08 -0.80818388351034243 0.20230600460443549 -6.9176770575633636e-08 -0.95990010135875881 0.24025091222730971 5.2089844798214258e-07 -0.95993470687027682 0.24022064252624153 -6.6004609436640216e-08 -0.80818388351034243 0.20230600460443551 -6.9176770575633358e-08 -0.95990010135875881 0.20466188560536708 -1.5342947872327375e-06 -0.95990097061387358 0.24025012128011985 -1.9567970541734235e-07 -0.95993513171937572 0.19425539596042191 1.2162860645942503e-06 -0.95988773934757676 0.18744740066096222 -2.0859477302190903e-07 -0.74889124399661122 0.16493618438245472 5.4519167146192471e-07 -0.65893373193479099 0.18664439629002172 1.9076028800938343e-06 -0.78388367592182084 0.19425539596042191 1.2162860645942503e-06 -0.95988773934757676 0.24021634558606719 1.1952213806781509e-06 -0.77600447986564747 0.18744740066096216 -2.0859477302190998e-07 -0.74889124399661122 0.18664439629002172 1.9076028800938343e-06 -0.78388367592182084 0.24025091222730971 5.2089844798214258e-07 -0.95993470687027682 0.24022064252624153 -6.6004609436640216e-08 -0.80818388351034243 0.20230600460443549 -6.9176770575633636e-08 -0.95990010135875881 0.24021634558606719 1.1952213806781507e-06 -0.77600447986564747 0.16493618438245475 5.4519167146192524e-07 -0.65893373193479088 0.18744740066096216 -2.0859477302190985e-07 -0.74889124399661133 0.24021634558606719 1.1952213806781509e-06 -0.77600447986564758 0.18664439629002172 1.9076028800938348e-06 -0.78388367592182084 0.20230600460443549 -6.9176770575633636e-08 -0.95990010135875881 0.24025091222730971 5.2089844798214258e-07 -0.95993470687027693 0.24021634558606719 1.1952213806781507e-06 -0.77600447986564747 0.19425539596042191 1.2162860645942503e-06 -0.95988773934757676 0.24025091222730971 5.2089844798214258e-07 -0.95993470687027682 0.24021634558606719 1.1952213806781507e-06 -0.77600447986564747 0.19425539596042191 1.2162860645942503e-06 -0.95988773934757676 0.24025122186732703 1.4687102391182263e-06 -0.95993501877664278 0.20230600460443549 -6.9176770575633636e-08 -0.95990010135875881 0.16179328069801063 1.8156628054939985e-07 -0.95985250179323067 0.19425539596042191 1.2162860645942503e-06 -0.95988773934757676 0.18744740066096216 -2.0859477302190998e-07 -0.74889124399661122 0.20230600460443549 -6.9176770575633636e-08 -0.95990010135875881 0.19425539596042191 1.2162860645942503e-06 -0.95988773934757676 0.24021634558606719 1.1952213806781507e-06 -0.77600447986564747 0.18744740066096216 -2.0859477302190998e-07 -0.74889124399661122 0.24021634558606719 1.1952213806781507e-06 -0.77600447986564747 0.24019686685932032 4.009688816228194e-07 -0.64622517453426298 0.24022064252624153 -6.6004609436640216e-08 -0.80818388351034243 0.18744740066096216 -2.0859477302190998e-07 -0.74889124399661122 0.24021634558606719 1.1952213806781507e-06 -0.77600447986564747 0.24022064252624153 -6.6004609436640216e-08 -0.80818388351034243 0.20230600460443549 -6.917677057563357e-08 -0.95990010135875881 0.18744740066096216 -2.0859477302190998e-07 -0.74889124399661122 0.240191973454947 1.4047166202993224e-06 -0.58571350293395397 0.18744740066096216 -2.0859477302191043e-07 -0.74889124399661111 0.18028007518887382 5.6328337840788135e-08 -0.47837062057135399 0.24019686685932035 4.009688816228194e-07 -0.64622517453426309 0.240191973454947 1.4047166202993224e-06 -0.58571350293395397 0.18028007518887382 5.632833784078797e-08 -0.47837062057135393 0.16493618438245472 5.4519167146192555e-07 -0.65893373193479077 0.18587063090307854 1.9700372361995806e-06 -0.47829937074081058 0.240191973454947 1.4047166202993224e-06 -0.58571350293395397 0.16493618438245478 5.4519167146192577e-07 -0.65893373193479088 0.24020283441345217 9.1402492978198861e-07 -0.66581844472777507 0.18587063090307857 1.9700372361995806e-06 -0.47829937074081058 0.24021634558606719 1.1952213806781507e-06 -0.77600447986564747 0.240191973454947 1.4047166202993226e-06 -0.58571350293395386 0.16493618438245475 5.4519167146192629e-07 -0.65893373193479088 0.18664439629002172 1.9076028800938343e-06 -0.78388367592182084 0.240191973454947 1.4047166202993224e-06 -0.58571350293395397 0.24018134900558438 1.4482611306877548e-06 -0.43976411701359674 0.18028007518887382 5.6328337840788063e-08 -0.47837062057135399 0.18587063090307854 1.9700372361995806e-06 -0.47829937074081053 0.18028007518887382 5.6328337840788063e-08 -0.47837062057135399 0.18744740066096213 -2.0859477302191012e-07 -0.74889124399661122 0.24019197345494703 1.4047166202993224e-06 -0.58571350293395397 0.16493618438245475 5.4519167146192524e-07 -0.65893373193479088 0.24021634558606719 1.1952213806781507e-06 -0.77600447986564747 0.16493618438245475 5.4519167146192524e-07 -0.65893373193479088 0.24019197345494703 1.4047166202993224e-06 -0.58571350293395408 0.18744740066096216 -2.0859477302190998e-07 -0.74889124399661122 0.24019686685932035 4.009688816228194e-07 -0.64622517453426309 0.24021634558606719 1.1952213806781505e-06 -0.77600447986564747 0.240191973454947 1.4047166202993224e-06 -0.58571350293395397 0.18744740066096213 -2.0859477302191006e-07 -0.74889124399661111 0.240191973454947 1.4047166202993224e-06 -0.58571350293395397 0.24018176300117761 2.6760462634660656e-07 -0.49879070615236676 0.24019686685932035 4.009688816228194e-07 -0.64622517453426309 0.18028007518887382 5.6328337840788063e-08 -0.47837062057135399 0.240191973454947 1.4047166202993224e-06 -0.58571350293395397 0.24018134900558438 1.4482611306877548e-06 -0.43976411701359674 0.24018176300117761 2.676046263466065e-07 -0.4987907061523667 0.18028007518887382 5.6328337840788063e-08 -0.47837062057135399 0.240191973454947 1.4047166202993224e-06 -0.58571350293395397 0.2401827958698067 1.1861463772214561e-06 -0.4876737804023426 0.24018134900558438 1.4482611306877548e-06 -0.43976411701359674 0.18587063090307857 1.9700372361995806e-06 -0.47829937074081064 0.24020283441345217 9.1402492978198861e-07 -0.66581844472777507 0.18587063090307859 1.9700372361995806e-06 -0.47829937074081064 0.16493618438245478 5.4519167146192238e-07 -0.65893373193479088 0.18664439629002172 1.9076028800938343e-06 -0.78388367592182084 0.16493618438245475 5.4519167146192524e-07 -0.65893373193479088 0.18587063090307862 1.9700372361995802e-06 -0.47829937074081064 0.19542482743583792 2.7712293340655461e-06 -0.65676515126411239 0.18664439629002177 1.9076028800938356e-06 -0.78388367592182095 0.24020283441345217 9.1402492978198861e-07 -0.66581844472777507 0.16493618438245475 5.4519167146192005e-07 -0.65893373193479066 0.240191973454947 1.4047166202993224e-06 -0.58571350293395397 0.18664439629002172 1.9076028800938343e-06 -0.78388367592182084 0.24021634558606719 1.1952213806781507e-06 -0.77600447986564747 0.24020283441345217 9.1402492978198861e-07 -0.66581844472777507 0.240191973454947 1.4047166202993224e-06 -0.58571350293395397 0.18664439629002172 1.9076028800938343e-06 -0.78388367592182084 0.24020283441345217 9.1402492978198861e-07 -0.66581844472777507 0.19542482743583792 2.7712293340655448e-06 -0.65676515126411228 0.18587063090307859 1.9700372361995806e-06 -0.47829937074081064 0.18664439629002172 1.9076028800938343e-06 -0.78388367592182084 0.2401827958698067 1.1861463772214563e-06 -0.4876737804023426 0.240191973454947 1.4047166202993224e-06 -0.58571350293395397 0.24020283441345217 9.1402492978198861e-07 -0.66581844472777507 0.18587063090307859 1.9700372361995806e-06 -0.47829937074081064 0.24020283441345217 9.1402492978198861e-07 -0.66581844472777507 0.20840999908385002 2.5971596312501082e-06 -0.48578786551136061 0.2401827958698067 1.1861463772214563e-06 -0.4876737804023426 0.18587063090307859 1.9700372361995806e-06 -0.47829937074081064 0.24018990196802881 2.8165142286776225e-06 -0.57595512584324393 0.2401827958698067 1.1861463772214563e-06 -0.4876737804023426 0.24020283441345217 9.1402492978198861e-07 -0.66581844472777507 0.20840999908385005 2.5971596312501077e-06 -0.48578786551136061 0.20840999908385005 2.5971596312501077e-06 -0.48578786551136061 0.24018990196802881 2.8165142286776225e-06 -0.57595512584324393 0.2401827958698067 1.1861463772214563e-06 -0.4876737804023426 0.24017593453590225 2.5795732724916097e-06 -0.3839692531031515 0.24020283441345217 9.1402492978198861e-07 -0.66581844472777507 0.19542482743583792 2.7712293340655448e-06 -0.65676515126411228 0.24018990196802881 2.8165142286776225e-06 -0.57595512584324393 0.20840999908385002 2.5971596312501065e-06 -0.48578786551136044 0.20840999908385005 2.5971596312501077e-06 -0.48578786551136061 0.19542482743583792 2.7712293340655444e-06 -0.65676515126411228 0.16394052185312719 3.2151876697070415e-06 -0.50210392743344123 0.18587063090307859 1.9700372361995806e-06 -0.47829937074081064 0.19542482743583792 2.7712293340655448e-06 -0.65676515126411228 0.20840999908385005 2.5971596312501077e-06 -0.48578786551136061 0.24020283441345217 9.1402492978198893e-07 -0.66581844472777507 0.18587063090307859 1.9700372361995806e-06 -0.47829937074081064 0.24020283441345217 9.1402492978198861e-07 -0.66581844472777507 0.19542482743583792 2.7712293340655452e-06 -0.65676515126411239 0.24021315827696643 3.0664325698736127e-06 -0.76794186132397968 0.24018990196802881 2.8165142286776225e-06 -0.57595512584324393 0.24021315827696643 3.0664325698736127e-06 -0.76794186132397968 0.20507982444565331 2.0526653345230768e-06 -0.81936084247171403 0.19542482743583792 2.7712293340655448e-06 -0.65676515126411228 0.24020283441345217 9.1402492978198861e-07 -0.66581844472777507 0.20507982444565334 2.0526653345230768e-06 -0.81936084247171403 0.24020283441345217 9.1402492978198861e-07 -0.66581844472777507 0.24022378958591786 1.090231165344742e-06 -0.8193862100074496 0.18664439629002169 1.9076028800938343e-06 -0.78388367592182095 0.20507982444565334 2.0526653345230768e-06 -0.81936084247171403 0.24021315827696643 3.0664325698736127e-06 -0.76794186132397968 0.24022378958591786 1.0902311653447418e-06 -0.81938621000744949 0.24020283441345219 9.1402492978198925e-07 -0.66581844472777529 0.20510766509381823 2.0171742813007091e-06 -0.95990282945048278 0.24025134453862509 2.8114601234448435e-06 -0.95993737735827134 0.24025122186732703 1.4687102391182263e-06 -0.95993501877664278 0.24022378958591786 1.090231165344742e-06 -0.8193862100074496 0.20510766509381823 2.0171742813007091e-06 -0.95990282945048278 0.19224242229606145 2.6672588504004008e-06 -0.95988873092162741 0.24025134453862509 2.8114601234448439e-06 -0.95993737735827134 0.20507982444565334 2.0526653345230768e-06 -0.81936084247171403 0.24021315827696643 3.0664325698736127e-06 -0.76794186132397968 0.24022378958591786 1.090231165344742e-06 -0.8193862100074496 0.24025134453862509 2.8114601234448439e-06 -0.95993737735827134 0.20507982444565334 2.0526653345230768e-06 -0.81936084247171403 0.24022378958591786 1.090231165344742e-06 -0.8193862100074496 0.20510766509381823 2.0171742813007095e-06 -0.95990282945048278 0.24025134453862509 2.8114601234448439e-06 -0.95993737735827134 0.20507982444565334 2.0526653345230768e-06 -0.81936084247171403 0.20510766509381823 2.0171742813007091e-06 -0.95990282945048278 0.24025122186732703 1.4687102391182263e-06 -0.95993501877664278 0.24021634558606719 1.1952213806781507e-06 -0.77600447986564747 0.24022378958591786 1.090231165344742e-06 -0.8193862100074496 0.24025122186732703 1.4687102391182263e-06 -0.95993501877664278 0.24021634558606719 1.1952213806781507e-06 -0.77600447986564747 0.19425539596042188 1.2162860645942503e-06 -0.95988773934757676 0.20510766509381823 2.0171742813007091e-06 -0.95990282945048278 0.20510766509381823 2.0171742813007091e-06 -0.95990282945048278 0.24022378958591786 1.0902311653447422e-06 -0.8193862100074496 0.24021634558606719 1.1952213806781507e-06 -0.77600447986564747 0.18664439629002172 1.9076028800938343e-06 -0.78388367592182084 0.24021634558606719 1.1952213806781507e-06 -0.77600447986564747 0.24022378958591786 1.090231165344742e-06 -0.8193862100074496 0.24020283441345217 9.1402492978198861e-07 -0.66581844472777507 0.18664439629002172 1.9076028800938343e-06 -0.78388367592182084 0.16669513386335608 2.6261239816627866e-06 -0.95985744324247546 0.20510766509381823 2.0171742813007091e-06 -0.95990282945048278 0.19425539596042191 1.2162860645942503e-06 -0.95988773934757676 0.18664439629002172 1.9076028800938343e-06 -0.78388367592182084 0.19425539596042191 1.2162860645942503e-06 -0.95988773934757676 0.20510766509381823 2.0171742813007091e-06 -0.95990282945048278 0.24021634558606719 1.1952213806781507e-06 -0.77600447986564747 0.18664439629002172 1.9076028800938343e-06 -0.78388367592182084 0.20510766509381823 2.0171742813007091e-06 -0.95990282945048278 0.19224242229606145 2.6672588504004008e-06 -0.95988873092162741 0.20507982444565334 2.0526653345230768e-06 -0.81936084247171403 0.18664439629002172 1.9076028800938343e-06 -0.78388367592182084 0.1681529640555095 2.6162341301241648e-06 -0.79723959298496594 0.20507982444565334 2.0526653345230768e-06 -0.81936084247171403 0.19224242229606145 2.6672588504004008e-06 -0.95988873092162741 0.18664439629002172 1.9076028800938343e-06 -0.78388367592182084 0.20510766509381823 2.0171742813007091e-06 -0.95990282945048278 0.16669513386335608 2.6261239816627866e-06 -0.95985744324247546 0.19224242229606145 2.6672588504004008e-06 -0.95988873092162741 0.18664439629002172 1.9076028800938343e-06 -0.78388367592182084 0.24022378958591786 1.090231165344742e-06 -0.8193862100074496 0.20510766509381823 2.0171742813007095e-06 -0.95990282945048278 0.20507982444565331 2.0526653345230768e-06 -0.81936084247171392 0.18664439629002169 1.9076028800938343e-06 -0.78388367592182084 0.20507982444565334 2.0526653345230768e-06 -0.81936084247171403 0.1681529640555095 2.6162341301241648e-06 -0.79723959298496594 0.19542482743583792 2.7712293340655448e-06 -0.65676515126411228 0.18664439629002172 1.9076028800938343e-06 -0.78388367592182095 0.19542482743583792 2.7712293340655448e-06 -0.65676515126411228 0.24020283441345217 9.1402492978198883e-07 -0.66581844472777507 0.20507982444565334 2.0526653345230768e-06 -0.81936084247171403 0.18664439629002172 1.9076028800938343e-06 -0.78388367592182084 0.16669513386335608 2.6261239816627866e-06 -0.95985744324247546 0.11993957769783463 1.6590762122371443e-06 -0.74764855584430134 0.16815296405550953 2.6162341301241653e-06 -0.79723959298496605 0.18664439629002172 1.9076028800938343e-06 -0.78388367592182084 0.16669513386335608 2.6261239816627866e-06 -0.95985744324247546 0.14665049012080711 1.0882011018129099e-06 -0.95983856868984707 0.11993957769783463 1.6590762122371443e-06 -0.74764855584430145 0.18664439629002172 1.9076028800938343e-06 -0.78388367592182084 0.19542482743583792 2.7712293340655448e-06 -0.65676515126411228 0.1681529640555095 2.6162341301241648e-06 -0.79723959298496594 0.14712464219030918 2.3817297617107774e-06 -0.65113125680315143 0.18664439629002172 1.9076028800938343e-06 -0.78388367592182084 0.14712464219030918 2.3817297617107774e-06 -0.65113125680315143 0.1681529640555095 2.6162341301241648e-06 -0.79723959298496594 0.11993957769783463 1.6590762122371443e-06 -0.74764855584430145 0.18664439629002172 1.9076028800938343e-06 -0.78388367592182084 0.16669513386335608 2.6261239816627866e-06 -0.95985744324247546 0.1681529640555095 2.6162341301241648e-06 -0.79723959298496583 0.19224242229606145 2.6672588504004008e-06 -0.95988873092162741 0.18664439629002172 1.9076028800938343e-06 -0.78388367592182084 0.12248772919013831 2.6084255912068807e-06 -0.80178091635955118 0.14421173245599037 3.1482603622886815e-06 -0.95983661128415221 0.1666951338633561 2.6261239816627866e-06 -0.95985744324247546 0.1681529640555095 2.6162341301241648e-06 -0.79723959298496594 0.1681529640555095 2.6162341301241648e-06 -0.79723959298496594 0.14421173245599039 3.1482603622886815e-06 -0.9598366112841521 0.16669513386335608 2.6261239816627866e-06 -0.95985744324247546 0.19224242229606145 2.6672588504004008e-06 -0.95988873092162741 0.19425539596042191 1.2162860645942503e-06 -0.95988773934757676 0.14665049012080711 1.0882011018129099e-06 -0.95983856868984707 0.16669513386335608 2.6261239816627866e-06 -0.95985744324247546 0.18664439629002172 1.9076028800938343e-06 -0.78388367592182084 0.12211462162886899 1.6744300401920409e-06 -0.95981111266437624 0.16669513386335608 2.6261239816627866e-06 -0.95985744324247546 0.14665049012080711 1.0882011018129099e-06 -0.95983856868984707 0.11993957769783463 1.6590762122371443e-06 -0.74764855584430145 0.12211462162886899 1.6744300401920409e-06 -0.95981111266437624 0.12248772919013831 2.6084255912068807e-06 -0.80178091635955118 0.16669513386335608 2.6261239816627866e-06 -0.95985744324247546 0.11993957769783463 1.6590762122371443e-06 -0.74764855584430145 0.14421173245599037 3.1482603622886815e-06 -0.95983661128415221 0.12211462162886899 1.6744300401920409e-06 -0.95981111266437624 0.096156973136977422 3.4958646041782663e-06 -0.9597897298936271 0.12248772919013831 2.6084255912068807e-06 -0.80178091635955118 0.16669513386335608 2.6261239816627866e-06 -0.95985744324247546 0.12211462162886899 1.6744300401920409e-06 -0.95981111266437624 0.14421173245599037 3.1482603622886815e-06 -0.95983661128415221 0.1224877291901383 2.6084255912068807e-06 -0.80178091635955095 0.16669513386335608 2.6261239816627866e-06 -0.95985744324247546 0.12248772919013831 2.6084255912068807e-06 -0.80178091635955118 0.1681529640555095 2.6162341301241648e-06 -0.79723959298496594 0.11993957769783462 1.6590762122371441e-06 -0.74764855584430145 0.12248772919013831 2.6084255912068807e-06 -0.80178091635955118 0.14712464219030918 2.3817297617107774e-06 -0.65113125680315143 0.1681529640555095 2.6162341301241648e-06 -0.79723959298496594 0.11993957769783463 1.6590762122371443e-06 -0.74764855584430145 0.14712464219030918 2.3817297617107774e-06 -0.65113125680315143 0.12009391786498669 1.2900853145728202e-06 -0.50839101684826626 0.16493618438245475 5.4519167146192502e-07 -0.65893373193479088 0.11993957769783462 1.6590762122371447e-06 -0.74764855584430145 0.14712464219030918 2.3817297617107774e-06 -0.65113125680315143 0.12009391786498669 1.29008531457282e-06 -0.50839101684826626 0.16394052185312719 3.2151876697070415e-06 -0.50210392743344123 0.18587063090307859 1.9700372361995806e-06 -0.47829937074081064 0.14712464219030918 2.3817297617107774e-06 -0.65113125680315143 0.11010143810795218 2.3069241617455298e-06 -0.66197583843628383 0.12009391786498672 1.29008531457282e-06 -0.50839101684826626 0.11993957769783463 1.6590762122371443e-06 -0.74764855584430145 0.11010143810795218 2.3069241617455298e-06 -0.66197583843628383 0.14712464219030918 2.3817297617107774e-06 -0.65113125680315143 0.12248772919013831 2.6084255912068807e-06 -0.80178091635955118 0.11993957769783463 1.6590762122371443e-06 -0.74764855584430145 0.14712464219030918 2.3817297617107774e-06 -0.65113125680315143 0.16493618438245472 5.4519167146192513e-07 -0.65893373193479077 0.1200939178649867 1.2900853145728205e-06 -0.50839101684826637 0.18587063090307859 1.9700372361995806e-06 -0.47829937074081064 0.19542482743583792 2.7712293340655448e-06 -0.65676515126411228 0.14712464219030918 2.381729761710777e-06 -0.65113125680315143 0.16493618438245472 5.4519167146192492e-07 -0.65893373193479077 0.18664439629002172 1.9076028800938343e-06 -0.78388367592182084 0.14712464219030918 2.3817297617107774e-06 -0.65113125680315143 0.11993957769783463 1.6590762122371443e-06 -0.74764855584430145 0.16493618438245475 5.4519167146192481e-07 -0.65893373193479077 0.18664439629002172 1.9076028800938343e-06 -0.78388367592182084 0.19542482743583792 2.7712293340655448e-06 -0.65676515126411228 0.16493618438245475 5.4519167146192534e-07 -0.65893373193479088 0.14712464219030918 2.3817297617107774e-06 -0.65113125680315143 0.18587063090307859 1.9700372361995802e-06 -0.47829937074081069 0.19542482743583792 2.7712293340655448e-06 -0.65676515126411228 0.14712464219030918 2.3817297617107774e-06 -0.65113125680315143 0.16394052185312719 3.2151876697070406e-06 -0.50210392743344112 0.18587063090307859 1.9700372361995806e-06 -0.47829937074081064 0.14712464219030918 2.3817297617107774e-06 -0.65113125680315143 0.11010143810795218 2.3069241617455298e-06 -0.66197583843628383 0.1248416234501436 2.7359273514483105e-06 -0.47991353614516757 0.1200939178649867 1.2900853145728198e-06 -0.50839101684826626 0.14712464219030918 2.3817297617107774e-06 -0.65113125680315143 0.1248416234501436 2.7359273514483105e-06 -0.47991353614516757 0.16394052185312719 3.2151876697070415e-06 -0.50210392743344123 0.12009391786498673 1.29008531457282e-06 -0.50839101684826637 0.16493618438245475 5.4519167146192524e-07 -0.65893373193479088 0.12009391786498669 1.2900853145728202e-06 -0.50839101684826615 0.11970679745810603 1.9506261560692741e-07 -0.72029896309803898 0.11993957769783463 1.6590762122371443e-06 -0.74764855584430145 0.16493618438245475 5.4519167146192524e-07 -0.65893373193479088 0.12013141914810646 3.5903710729335981e-08 -0.47991124307827232 0.18028007518887379 5.6328337840788122e-08 -0.47837062057135388 0.11970679745810603 1.9506261560692739e-07 -0.72029896309803898 0.16493618438245475 5.4519167146192524e-07 -0.65893373193479088 0.11970679745810603 1.9506261560692739e-07 -0.72029896309803898 0.18028007518887382 5.6328337840788063e-08 -0.47837062057135399 0.18744740066096216 -2.0859477302190998e-07 -0.74889124399661122 0.12013141914810645 3.5903710729336126e-08 -0.47991124307827232 0.16493618438245475 5.4519167146192545e-07 -0.65893373193479088 0.18028007518887382 5.6328337840788063e-08 -0.47837062057135399 0.1200939178649867 1.2900853145728202e-06 -0.50839101684826626 0.18028007518887382 5.6328337840788063e-08 -0.47837062057135399 0.1200939178649867 1.29008531457282e-06 -0.50839101684826626 0.16493618438245475 5.4519167146192524e-07 -0.65893373193479088 0.18587063090307865 1.970037236199581e-06 -0.47829937074081069 0.16493618438245475 5.4519167146192524e-07 -0.65893373193479088 0.12013141914810645 3.5903710729336312e-08 -0.47991124307827232 0.11970679745810602 1.9506261560692741e-07 -0.72029896309803898 0.12009391786498667 1.2900853145728207e-06 -0.50839101684826615 0.18744740066096216 -2.0859477302190998e-07 -0.74889124399661122 0.14665049012080711 1.088201101812909e-06 -0.95983856868984718 0.11970679745810602 1.9506261560692747e-07 -0.72029896309803887 0.16179328069801066 1.8156628054940024e-07 -0.95985250179323067 0.18744740066096216 -2.0859477302190998e-07 -0.74889124399661122 0.11970679745810606 1.9506261560692731e-07 -0.72029896309803898 0.14665049012080711 1.0882011018129099e-06 -0.95983856868984707 0.16493618438245475 5.4519167146192513e-07 -0.65893373193479088 0.14665049012080711 1.0882011018129099e-06 -0.95983856868984707 0.16493618438245475 5.4519167146192492e-07 -0.65893373193479088 0.19425539596042191 1.2162860645942503e-06 -0.95988773934757676 0.18744740066096219 -2.085947730219098e-07 -0.74889124399661133 0.16493618438245475 5.4519167146192524e-07 -0.65893373193479088 0.11993957769783463 1.6590762122371443e-06 -0.74764855584430145 0.14665049012080711 1.0882011018129099e-06 -0.95983856868984696 0.18664439629002172 1.9076028800938348e-06 -0.78388367592182073 0.16493618438245475 5.4519167146192524e-07 -0.65893373193479088 0.11970679745810603 1.9506261560692736e-07 -0.72029896309803909 0.14665049012080708 1.0882011018129101e-06 -0.95983856868984696 0.11993957769783462 1.6590762122371443e-06 -0.74764855584430145 0.19425539596042191 1.2162860645942503e-06 -0.95988773934757676 0.16493618438245475 5.451916714619246e-07 -0.65893373193479088 0.14665049012080711 1.0882011018129099e-06 -0.95983856868984707 0.18664439629002172 1.9076028800938343e-06 -0.78388367592182084 0.16179328069801063 1.8156628054939985e-07 -0.95985250179323067 0.14665049012080711 1.0882011018129099e-06 -0.95983856868984707 0.19425539596042191 1.2162860645942503e-06 -0.95988773934757676 0.18744740066096216 -2.0859477302190998e-07 -0.74889124399661122 0.11012060522602803 6.0643645781315696e-07 -0.9597994171481411 0.14665049012080711 1.0882011018129099e-06 -0.95983856868984707 0.11970679745810603 1.9506261560692739e-07 -0.72029896309803898 0.11993957769783463 1.6590762122371443e-06 -0.74764855584430145 0.12211462162886899 1.6744300401920409e-06 -0.95981111266437624 0.14665049012080711 1.0882011018129099e-06 -0.95983856868984707 0.11012060522602803 6.0643645781315696e-07 -0.9597994171481411 0.11993957769783463 1.6590762122371443e-06 -0.74764855584430145 0.12489996637755196 1.7580607972165542e-07 -0.95981556905208987 0.11012060522602803 6.0643645781315696e-07 -0.9597994171481411 0.14665049012080711 1.0882011018129099e-06 -0.95983856868984707 0.11970679745810603 1.9506261560692739e-07 -0.72029896309803898 0.16179328069801063 1.8156628054939985e-07 -0.95985250179323067 0.12489996637755196 1.758060797216554e-07 -0.95981556905208987 0.14665049012080711 1.0882011018129099e-06 -0.95983856868984707 0.11970679745810603 1.9506261560692739e-07 -0.72029896309803898 0.074875268548409063 1.3671132379081803e-06 -0.65765682942690362 0.05249726663092024 -1.5150959621487085e-07 -0.74511216772548061 0.078000261656274675 7.2497984099787424e-07 -0.95977339995170929 0.044352039209981715 9.0324885585920997e-07 -0.78328940990799967 0.079151415879733941 -8.4192157393807485e-07 -0.95977478994956744 0.078000261656274675 7.2497984099787424e-07 -0.95977339995170929 0.12489996637755196 1.7580607972165542e-07 -0.95981556905208987 0.11970679745810603 1.9506261560692736e-07 -0.72029896309803887 0.11012060522602803 6.0643645781315696e-07 -0.9597994171481411 0.074875268548409063 1.3671132379081803e-06 -0.65765682942690362 0.074684143006260417 1.7825320386744924e-06 -0.95977255653373728 0.11993957769783463 1.6590762122371443e-06 -0.74764855584430145 0.079151415879733941 -8.4192157393807485e-07 -0.95977478994956744 0.078000261656274675 7.2497984099787424e-07 -0.95977339995170929 0.11970679745810603 1.9506261560692747e-07 -0.72029896309803887 0.052497266630920261 -1.515095962148705e-07 -0.74511216772548072 0.11012060522602803 6.0643645781315696e-07 -0.9597994171481411 0.11970679745810603 1.9506261560692718e-07 -0.72029896309803898 0.074875268548409063 1.3671132379081803e-06 -0.65765682942690362 0.11993957769783463 1.6590762122371443e-06 -0.74764855584430145 0.078000261656274675 7.2497984099787424e-07 -0.95977339995170929 0.074875268548409063 1.3671132379081801e-06 -0.65765682942690362 0.11970679745810602 1.9506261560692784e-07 -0.72029896309803887 0.052497266630920247 -1.5150959621487053e-07 -0.74511216772548061 0.11012060522602803 6.0643645781315696e-07 -0.9597994171481411 0.12489996637755196 1.7580607972165542e-07 -0.95981556905208987 0.078000261656274675 7.2497984099787424e-07 -0.95977339995170929 0.11970679745810603 1.9506261560692739e-07 -0.72029896309803898 0.074684143006260417 1.7825320386744924e-06 -0.95977255653373728 0.11012060522602803 6.0643645781315696e-07 -0.9597994171481411 0.078000261656274675 7.2497984099787424e-07 -0.95977339995170929 0.074875268548409063 1.3671132379081803e-06 -0.65765682942690362 0.11012060522602803 6.0643645781315696e-07 -0.9597994171481411 0.078000261656274675 7.2497984099787414e-07 -0.95977339995170929 0.074875268548409063 1.3671132379081803e-06 -0.65765682942690362 0.11970679745810603 1.9506261560692739e-07 -0.72029896309803898 0.078000261656274675 7.2497984099787424e-07 -0.95977339995170929 0.074684143006260403 1.7825320386744922e-06 -0.95977255653373728 0.074875268548409077 1.3671132379081805e-06 -0.65765682942690362 0.044352039209981722 9.0324885585921018e-07 -0.78328940990799978 0.074875268548409063 1.3671132379081803e-06 -0.65765682942690362 0.12013141914810645 3.5903710729336126e-08 -0.47991124307827226 0.059515889118506013 2.447566535817983e-07 -0.43284827305995055 0.1200939178649867 1.2900853145728202e-06 -0.50839101684826615 0.074875268548409063 1.3671132379081803e-06 -0.65765682942690362 0.11970679745810603 1.9506261560692741e-07 -0.72029896309803898 0.12013141914810646 3.5903710729336265e-08 -0.47991124307827232 0.1200939178649867 1.2900853145728202e-06 -0.50839101684826626 0.074875268548409063 1.3671132379081803e-06 -0.65765682942690362 0.12009391786498672 1.2900853145728202e-06 -0.50839101684826626 0.059515889118506006 2.4475665358179883e-07 -0.43284827305995055 0.054103653249498007 1.7589876120044931e-06 -0.46249186479292931 0.12013141914810645 3.5903710729336126e-08 -0.47991124307827232 0.074875268548409063 1.3671132379081803e-06 -0.65765682942690362 0.059515889118506006 2.4475665358179851e-07 -0.43284827305995055 0.052497266630920247 -1.5150959621487053e-07 -0.74511216772548061 0.074875268548409063 1.3671132379081803e-06 -0.65765682942690362 0.12013141914810645 3.5903710729335895e-08 -0.47991124307827232 0.11970679745810603 1.9506261560692739e-07 -0.72029896309803898 0.05249726663092024 -1.515095962148709e-07 -0.7451121677254805 0.11970679745810603 1.9506261560692739e-07 -0.72029896309803898 0.12009391786498672 1.2900853145728205e-06 -0.50839101684826626 0.074875268548409063 1.3671132379081803e-06 -0.65765682942690362 0.11993957769783463 1.6590762122371443e-06 -0.74764855584430145 0.077969439627130807 3.1864177312610824e-06 -0.57606571738929713 0.11010143810795218 2.3069241617455298e-06 -0.66197583843628383 0.074875268548409063 1.3671132379081803e-06 -0.65765682942690362 0.12009391786498669 1.2900853145728202e-06 -0.50839101684826626 0.11010143810795218 2.3069241617455298e-06 -0.66197583843628383 0.074706058757483124 2.8198130042796982e-06 -0.78192875647078308 0.077969439627130807 3.1864177312610824e-06 -0.57606571738929713 0.074875268548409063 1.3671132379081803e-06 -0.65765682942690362 0.11010143810795218 2.3069241617455298e-06 -0.66197583843628383 0.074875268548409063 1.3671132379081803e-06 -0.65765682942690362 0.1200939178649867 1.2900853145728202e-06 -0.50839101684826626 0.11993957769783463 1.6590762122371443e-06 -0.74764855584430145 0.077969439627130807 3.1864177312610824e-06 -0.57606571738929713 0.074875268548409063 1.3671132379081803e-06 -0.65765682942690362 0.074706058757483138 2.8198130042796986e-06 -0.78192875647078319 0.044352039209981722 9.0324885585921018e-07 -0.78328940990799978 0.077969439627130807 3.1864177312610824e-06 -0.57606571738929713 0.12009391786498667 1.2900853145728205e-06 -0.50839101684826626 0.074875268548409077 1.3671132379081803e-06 -0.65765682942690362 0.054103653249498021 1.7589876120044939e-06 -0.46249186479292936 0.11010143810795218 2.3069241617455298e-06 -0.66197583843628383 0.074706058757483138 2.8198130042796982e-06 -0.78192875647078319 0.074875268548409049 1.3671132379081799e-06 -0.65765682942690351 0.11993957769783463 1.6590762122371443e-06 -0.74764855584430145 0.079112711018657897 3.0560025278115711e-06 -0.38023464015410507 0.12009391786498672 1.2900853145728202e-06 -0.50839101684826626 0.077969439627130807 3.1864177312610824e-06 -0.57606571738929713 0.054103653249498007 1.7589876120044933e-06 -0.46249186479292936 0.077969439627130807 3.1864177312610824e-06 -0.57606571738929713 0.074875268548409077 1.3671132379081803e-06 -0.65765682942690373 0.038209995735980273 2.6141442678208332e-06 -0.66653000521140793 0.054103653249498007 1.7589876120044935e-06 -0.46249186479292931 0.079112711018657897 3.0560025278115711e-06 -0.38023464015410507 0.1248416234501436 2.7359273514483105e-06 -0.47991353614516757 0.077969439627130807 3.1864177312610824e-06 -0.57606571738929713 0.1200939178649867 1.2900853145728202e-06 -0.50839101684826626 0.077969439627130807 3.1864177312610824e-06 -0.57606571738929713 0.1248416234501436 2.7359273514483105e-06 -0.47991353614516757 0.11010143810795218 2.3069241617455298e-06 -0.66197583843628383 0.1200939178649867 1.2900853145728209e-06 -0.50839101684826626 0.11010143810795218 2.3069241617455298e-06 -0.66197583843628383 0.12248772919013831 2.6084255912068807e-06 -0.80178091635955118 0.074706058757483124 2.8198130042796982e-06 -0.78192875647078308 0.11993957769783463 1.6590762122371443e-06 -0.74764855584430145 0.074706058757483124 2.8198130042796982e-06 -0.78192875647078308 0.11993957769783463 1.6590762122371443e-06 -0.74764855584430134 0.074684143006260417 1.7825320386744924e-06 -0.95977255653373728 0.044352039209981722 9.0324885585921018e-07 -0.78328940990799978 0.074706058757483124 2.8198130042796982e-06 -0.78192875647078308 0.074875268548409063 1.367113237908181e-06 -0.65765682942690351 0.11993957769783462 1.6590762122371417e-06 -0.74764855584430157 0.044352039209981722 9.0324885585921018e-07 -0.78328940990799978 0.12211462162886899 1.6744300401920409e-06 -0.95981111266437624 0.074706058757483124 2.8198130042796982e-06 -0.78192875647078319 0.12248772919013831 2.6084255912068807e-06 -0.80178091635955118 0.11993957769783463 1.6590762122371443e-06 -0.74764855584430145 0.074684143006260417 1.7825320386744924e-06 -0.95977255653373728 0.11993957769783462 1.6590762122371426e-06 -0.74764855584430145 0.074875268548409049 1.3671132379081824e-06 -0.65765682942690373 0.044352039209981722 9.0324885585921018e-07 -0.78328940990799978 0.074706058757483124 2.8198130042796982e-06 -0.78192875647078308 0.096156973136977422 3.4958646041782663e-06 -0.9597897298936271 0.12211462162886899 1.6744300401920409e-06 -0.95981111266437624 0.12248772919013831 2.6084255912068807e-06 -0.80178091635955118 0.074706058757483124 2.8198130042796982e-06 -0.78192875647078308 0.096156973136977422 3.4958646041782663e-06 -0.9597897298936271 0.074684143006260417 1.7825320386744924e-06 -0.95977255653373728 0.12211462162886899 1.6744300401920409e-06 -0.95981111266437624 0.074706058757483124 2.8198130042796982e-06 -0.78192875647078308 0.12211462162886899 1.6744300401920409e-06 -0.95981111266437624 0.074684143006260417 1.7825320386744924e-06 -0.95977255653373728 0.11993957769783463 1.6590762122371438e-06 -0.74764855584430134 0.11012060522602803 6.0643645781315696e-07 -0.9597994171481411 0.074684143006260417 1.7825320386744924e-06 -0.95977255653373728 0.12211462162886899 1.6744300401920409e-06 -0.95981111266437624 0.11993957769783463 1.6590762122371443e-06 -0.74764855584430145 0.096156973136977422 3.4958646041782663e-06 -0.9597897298936271 0.048084490694415276 2.8528617233419281e-06 -0.95975570217434869 0.074706058757483124 2.8198130042796982e-06 -0.78192875647078308 0.074684143006260417 1.7825320386744924e-06 -0.95977255653373728 0.038209995735980273 2.6141442678208332e-06 -0.66653000521140793 0.074706058757483124 2.8198130042796982e-06 -0.78192875647078308 0.035189212830587652 2.1028187361257694e-06 -0.81923439191053427 0.044352039209981722 9.0324885585921018e-07 -0.78328940990799978 0.074706058757483124 2.8198130042796982e-06 -0.78192875647078308 0.074684143006260417 1.7825320386744924e-06 -0.95977255653373728 0.035189212830587652 2.1028187361257694e-06 -0.81923439191053427 0.044352039209981722 9.0324885585921018e-07 -0.78328940990799978 0.074706058757483124 2.8198130042796982e-06 -0.78192875647078308 0.048084490694415269 2.8528617233419273e-06 -0.95975570217434869 0.035189212830587652 2.1028187361257694e-06 -0.81923439191053427 0.074684143006260417 1.7825320386744924e-06 -0.95977255653373728 0.035198956574934048 1.5676424748641421e-06 -0.95974995964465182 0.035189212830587652 2.1028187361257694e-06 -0.81923439191053427 0.048084490694415276 2.8528617233419281e-06 -0.95975570217434869 0.074684143006260417 1.7825320386744924e-06 -0.95977255653373728 0.074684143006260417 1.7825320386744924e-06 -0.95977255653373728 0.038218304269686823 1.0096283001443539e-06 -0.9597514123170009 0.035198956574934048 1.5676424748641421e-06 -0.95974995964465182 0.044352039209981722 9.0324885585921018e-07 -0.78328940990799978 0.035198956574934048 1.5676424748641421e-06 -0.95974995964465182 0.035189212830587645 2.1028187361257694e-06 -0.81923439191053427 0.074684143006260417 1.7825320386744922e-06 -0.95977255653373716 0.044352039209981715 9.0324885585920997e-07 -0.78328940990799978 -1.6989057225526702e-10 1.6019737436713776e-06 -0.81922894710769434 2.4605058311591538e-10 2.9396335723865881e-07 -0.81745163575116409 1.0577591871465131e-09 1.7146066557069718e-06 -0.67703059209097849 0.044352039209981722 9.0324885585921018e-07 -0.78328940990799978 0.038209995735980273 2.6141442678208332e-06 -0.66653000521140793 -1.6989057059691341e-10 1.6019737436713774e-06 -0.81922894710769434 1.0577591884451382e-09 1.7146066557069714e-06 -0.67703059209097838 0.044352039209981715 9.0324885585921007e-07 -0.78328940990799967 0.044352039209981722 9.0324885585921018e-07 -0.78328940990799978 2.9223249784562168e-09 1.3164189197682474e-06 -0.95974219786701387 0.038218304269686802 1.0096283001443541e-06 -0.9597514123170009 0.035198956574934048 1.5676424748641421e-06 -0.95974995964465171 0.035189212830587652 2.1028187361257694e-06 -0.81923439191053427 0.035198956574934048 1.5676424748641421e-06 -0.95974995964465182 -1.6989057225526702e-10 1.6019737436713776e-06 -0.81922894710769434 0.044352039209981722 9.0324885585921018e-07 -0.78328940990799978 -1.6989057225526702e-10 1.6019737436713776e-06 -0.81922894710769434 2.9223249707460184e-09 1.3164189197682476e-06 -0.95974219786701387 2.4605058311591538e-10 2.9396335723865881e-07 -0.81745163575116409 0.044352039209981722 9.0324885585921018e-07 -0.78328940990799978 -1.6989057225526702e-10 1.6019737436713776e-06 -0.81922894710769434 0.035198956574934048 1.5676424748641421e-06 -0.95974995964465182 2.9223249722671535e-09 1.3164189197682478e-06 -0.95974219786701387 0.044352039209981722 9.0324885585921018e-07 -0.78328940990799978 2.2663465330474357e-09 2.8778381548448204e-06 -0.95974106415072202 -1.6989057378177895e-10 1.6019737436713776e-06 -0.81922894710769445 0.035198956574934048 1.5676424748641421e-06 -0.95974995964465182 2.9223249704636119e-09 1.3164189197682476e-06 -0.95974219786701387 -1.6989057225526702e-10 1.6019737436713776e-06 -0.81922894710769434 0.035189212830587652 2.1028187361257689e-06 -0.81923439191053427 2.2663465330474357e-09 2.8778381548448204e-06 -0.95974106415072202 0.035198956574934048 1.5676424748641421e-06 -0.95974995964465182 0.048084490694415276 2.8528617233419281e-06 -0.95975570217434869 2.2663465340902098e-09 2.8778381548448208e-06 -0.95974106415072202 0.035189212830587652 2.1028187361257694e-06 -0.81923439191053427 0.035198956574934048 1.5676424748641421e-06 -0.95974995964465182 0.035189212830587652 2.1028187361257694e-06 -0.81923439191053427 2.2663465330474357e-09 2.8778381548448204e-06 -0.95974106415072202 -1.4227576010004567e-10 2.5368873367479894e-06 -0.76779911607048823 -1.6989057225526702e-10 1.6019737436713776e-06 -0.81922894710769434 0.035189212830587652 2.1028187361257694e-06 -0.81923439191053427 -1.6989057224556427e-10 1.6019737436713776e-06 -0.81922894710769434 0.038209995735980273 2.6141442678208332e-06 -0.66653000521140793 0.044352039209981722 9.0324885585921018e-07 -0.78328940990799978 0.038209995735980273 2.6141442678208332e-06 -0.66653000521140793 -1.4227576929135623e-10 2.5368873367479903e-06 -0.76779911607048823 1.0577591871465131e-09 1.7146066557069718e-06 -0.67703059209097849 -1.6989057225526702e-10 1.6019737436713776e-06 -0.81922894710769434 -1.4227575725232501e-10 2.5368873367479898e-06 -0.76779911607048823 0.038209995735980273 2.6141442678208332e-06 -0.66653000521140793 0.035189212830587652 2.1028187361257694e-06 -0.81923439191053427 -1.6989057225526702e-10 1.6019737436713776e-06 -0.81922894710769434 1.0577591871465131e-09 1.7146066557069718e-06 -0.67703059209097849 -7.0216716818349563e-11 3.1239867685808312e-06 -0.57585558417460647 -1.4227575725232501e-10 2.5368873367479898e-06 -0.76779911607048823 0.038209995735980273 2.6141442678208332e-06 -0.66653000521140793 0.074875268548409063 1.3671132379081803e-06 -0.65765682942690362 0.054103653249498021 1.7589876120044928e-06 -0.46249186479292942 1.0577591781390928e-09 1.7146066557069726e-06 -0.67703059209097849 0.044352039209981729 9.0324885585921028e-07 -0.78328940990799978 1.0577591871465131e-09 1.7146066557069718e-06 -0.67703059209097849 -6.6383527336697486e-10 2.3563462065689367e-06 -0.48759199871979098 -7.0216716818349563e-11 3.1239867685808312e-06 -0.57585558417460647 0.038209995735980273 2.6141442678208332e-06 -0.66653000521140793 0.038209995735980273 2.6141442678208332e-06 -0.66653000521140793 0.074875268548409077 1.3671132379081803e-06 -0.65765682942690373 0.077969439627130807 3.1864177312610824e-06 -0.57606571738929713 0.044352039209981722 9.0324885585921018e-07 -0.78328940990799978 0.038209995735980273 2.6141442678208332e-06 -0.66653000521140793 0.054103653249498042 1.7589876120044945e-06 -0.46249186479292942 0.074875268548409035 1.3671132379081793e-06 -0.65765682942690362 0.044352039209981722 9.0324885585921018e-07 -0.78328940990799978 0.038209995735980273 2.6141442678208332e-06 -0.66653000521140793 1.0577591979596385e-09 1.7146066557069711e-06 -0.67703059209097849 0.054103653249498014 1.7589876120044933e-06 -0.46249186479292936 0.044352039209981715 9.0324885585921007e-07 -0.78328940990799978 0.038209995735980273 2.6141442678208332e-06 -0.66653000521140793 0.077969439627130807 3.1864177312610824e-06 -0.57606571738929713 0.074706058757483124 2.8198130042796982e-06 -0.78192875647078308 0.044352039209981722 9.0324885585921018e-07 -0.78328940990799978 0.077969439627130807 3.1864177312610824e-06 -0.57606571738929713 0.038209995735980273 2.6141442678208332e-06 -0.66653000521140793 0.041391929461711656 2.8572471139294171e-06 -0.47831764597890858 0.054103653249498014 1.7589876120044933e-06 -0.46249186479292936 -6.6383527900429573e-10 2.3563462065689367e-06 -0.48759199871979098 0.041391929461711663 2.8572471139294171e-06 -0.47831764597890858 0.038209995735980273 2.6141442678208332e-06 -0.66653000521140793 0.054103653249498014 1.7589876120044933e-06 -0.46249186479292936 -7.0216716818349563e-11 3.1239867685808312e-06 -0.57585558417460647 -3.2197222610329811e-10 3.347958646335135e-06 -0.38391030746329935 0.041391929461711656 2.8572471139294171e-06 -0.47831764597890858 -6.6383527900429573e-10 2.3563462065689367e-06 -0.48759199871979098 -6.6383527900429573e-10 2.3563462065689367e-06 -0.48759199871979098 0.04139192946171167 2.8572471139294167e-06 -0.47831764597890858 -7.0216716818349563e-11 3.1239867685808312e-06 -0.57585558417460647 0.038209995735980273 2.6141442678208332e-06 -0.66653000521140793 -6.6383527900429573e-10 2.3563462065689367e-06 -0.48759199871979098 0.038209995735980273 2.6141442678208332e-06 -0.66653000521140793 1.0577591871465131e-09 1.7146066557069718e-06 -0.67703059209097849 0.054103653249498014 1.7589876120044933e-06 -0.46249186479292936 -9.6006436323093943e-10 9.7491416217399359e-07 -0.57531886726571035 -6.6383527900429573e-10 2.3563462065689367e-06 -0.48759199871979098 1.0577591871465131e-09 1.7146066557069718e-06 -0.67703059209097849 0.054103653249498014 1.7589876120044933e-06 -0.46249186479292936 -9.6006436323093943e-10 9.7491416217399359e-07 -0.57531886726571035 1.0577591882140806e-09 1.7146066557069718e-06 -0.67703059209097849 0.074875268548409063 1.3671132379081799e-06 -0.65765682942690351 0.054103653249498014 1.7589876120044933e-06 -0.46249186479292936 -9.6006436323093943e-10 9.7491416217399359e-07 -0.57531886726571035 0.074875268548409035 1.3671132379081748e-06 -0.65765682942690384 1.0577591889689363e-09 1.7146066557069722e-06 -0.67703059209097849 0.044352039209981729 9.0324885585920859e-07 -0.78328940990799978 -9.6006436323093943e-10 9.7491416217399359e-07 -0.57531886726571035 1.0577591871465131e-09 1.7146066557069718e-06 -0.67703059209097849 7.5867352959682259e-10 1.3536006556176439e-07 -0.69795585069084387 0.044352039209981743 9.0324885585921018e-07 -0.78328940990799978 -9.6006436323093943e-10 9.7491416217399359e-07 -0.57531886726571035 0.059515889118506013 2.4475665358179814e-07 -0.43284827305995049 0.074875268548409063 1.3671132379081803e-06 -0.65765682942690362 0.052497266630920247 -1.5150959621487085e-07 -0.74511216772548061 -9.6006436323093943e-10 9.7491416217399359e-07 -0.57531886726571035 7.5867352959682259e-10 1.3536006556176439e-07 -0.69795585069084387 0.074875268548409049 1.3671132379081805e-06 -0.65765682942690373 0.044352039209981729 9.0324885585921018e-07 -0.78328940990799989 -9.6006436323093943e-10 9.7491416217399359e-07 -0.57531886726571035 6.0066878393615807e-10 -3.4713806197719701e-07 -0.64611283316610657 -7.3645340664286698e-10 2.708247416642753e-07 -0.49870605196678319 0.052497266630920261 -1.5150959621487045e-07 -0.7451121677254805 7.5867352959682259e-10 1.3536006556176439e-07 -0.69795585069084387 -9.6006436323093943e-10 9.7491416217399359e-07 -0.57531886726571035 0.074875268548409063 1.3671132379081803e-06 -0.65765682942690362 0.052497266630920247 -1.5150959621487053e-07 -0.74511216772548061 -9.6006436323093943e-10 9.7491416217399359e-07 -0.57531886726571035 0.074875268548409063 1.3671132379081803e-06 -0.65765682942690362 0.059515889118505999 2.4475665358179809e-07 -0.43284827305995049 0.054103653249498014 1.7589876120044933e-06 -0.46249186479292936 -9.6006436323093943e-10 9.7491416217399359e-07 -0.57531886726571035 -7.3645340373339069e-10 2.7082474166427535e-07 -0.49870605196678319 0.059515889118506006 2.4475665358179851e-07 -0.43284827305995055 0.052497266630920254 -1.5150959621487108e-07 -0.74511216772548061 1.3770666979654499e-11 1.0468580317303762e-06 -0.43827345577213828 -6.6383527901466568e-10 2.3563462065689367e-06 -0.48759199871979098 -9.6006436323093943e-10 9.7491416217399359e-07 -0.57531886726571035 0.054103653249498014 1.7589876120044933e-06 -0.46249186479292936 -9.6006436323093943e-10 9.7491416217399359e-07 -0.57531886726571035 -7.3645340373339069e-10 2.7082474166427535e-07 -0.49870605196678319 1.3770666979654499e-11 1.0468580317303762e-06 -0.43827345577213828 0.059515889118506006 2.4475665358179851e-07 -0.43284827305995055 7.5867352959682259e-10 1.3536006556176439e-07 -0.69795585069084387 6.0066878393615807e-10 -3.4713806197719701e-07 -0.64611283316610657 -9.6006436132238188e-10 9.7491416217399359e-07 -0.57531886726571035 0.052497266630920247 -1.5150959621487053e-07 -0.74511216772548061 -1.3837881452765814e-10 -5.609074339554868e-07 -0.8080295597858772 2.4605058311591538e-10 2.9396335723865881e-07 -0.81745163575116409 0.038218304269686823 1.0096283001443539e-06 -0.9597514123170009 0.052497266630920254 -1.5150959621487034e-07 -0.7451121677254805 7.5867352959682259e-10 1.3536006556176439e-07 -0.69795585069084387 0.052497266630920247 -1.515095962148705e-07 -0.74511216772548061 0.074875268548409063 1.3671132379081803e-06 -0.65765682942690362 0.044352039209981722 9.0324885585921039e-07 -0.78328940990799989 0.038218304269686823 1.0096283001443539e-06 -0.9597514123170009 0.05249726663092024 -1.5150959621487056e-07 -0.74511216772548061 2.4605057276412323e-10 2.9396335723865854e-07 -0.81745163575116409 0.044352039209981722 9.0324885585921018e-07 -0.78328940990799978 -1.3837881452765814e-10 -5.609074339554868e-07 -0.8080295597858772 6.0066878393615807e-10 -3.4713806197719701e-07 -0.64611283316610657 7.5867352959682259e-10 1.3536006556176439e-07 -0.69795585069084387 0.052497266630920261 -1.5150959621487042e-07 -0.7451121677254805 -1.3837881452765814e-10 -5.609074339554868e-07 -0.8080295597858772 7.5867352959682259e-10 1.3536006556176439e-07 -0.69795585069084387 2.4605058311591538e-10 2.9396335723865881e-07 -0.81745163575116409 0.052497266630920261 -1.5150959621487056e-07 -0.74511216772548072 0.038218304269686823 1.0096283001443539e-06 -0.9597514123170009 0.078000261656274675 7.2497984099787424e-07 -0.95977339995170929 0.052497266630920247 -1.5150959621487056e-07 -0.74511216772548061 0.044352039209981722 9.0324885585921007e-07 -0.78328940990799978 7.5867352959682259e-10 1.3536006556176439e-07 -0.69795585069084387 2.4605058289845146e-10 2.9396335723865881e-07 -0.81745163575116409 0.05249726663092024 -1.5150959621487058e-07 -0.74511216772548072 0.044352039209981729 9.0324885585921071e-07 -0.78328940990799978 1.0577591871465131e-09 1.7146066557069718e-06 -0.67703059209097849 2.4605058311591538e-10 2.9396335723865881e-07 -0.81745163575116409 7.5867352846719631e-10 1.3536006556176441e-07 -0.69795585069084387 0.044352039209981722 9.0324885585921018e-07 -0.78328940990799978 0.038218304269686823 1.0096283001443539e-06 -0.9597514123170009 0.078000261656274675 7.2497984099787424e-07 -0.95977339995170918 0.041413772745213413 -8.9919670910619454e-08 -0.95975162137406145 0.052497266630920247 -1.5150959621487053e-07 -0.74511216772548061 0.038218304269686823 1.0096283001443539e-06 -0.9597514123170009 0.041413772745213413 -8.9919670910619295e-08 -0.95975162137406156 -1.3837881452765814e-10 -5.609074339554868e-07 -0.8080295597858772 0.052497266630920247 -1.5150959621487053e-07 -0.74511216772548061 0.078000261656274675 7.2497984099787424e-07 -0.95977339995170929 0.038218304269686823 1.0096283001443539e-06 -0.9597514123170009 0.074684143006260431 1.7825320386744924e-06 -0.95977255653373728 0.044352039209981722 9.0324885585921018e-07 -0.78328940990799978 0.044352039209981722 9.0324885585921018e-07 -0.78328940990799978 0.038218304269686816 1.0096283001443543e-06 -0.9597514123170009 2.9223249784144219e-09 1.3164189197682476e-06 -0.95974219786701387 2.4605058311591538e-10 2.9396335723865881e-07 -0.81745163575116409 2.4605058311591538e-10 2.9396335723865881e-07 -0.81745163575116409 -1.383788146096427e-10 -5.609074339554868e-07 -0.8080295597858772 0.038218304269686823 1.0096283001443539e-06 -0.9597514123170009 2.4400066698258359e-09 1.7912321542258876e-07 -0.95974535842338493 0.038218304269686823 1.0096283001443539e-06 -0.9597514123170009 2.9223249704636119e-09 1.3164189197682476e-06 -0.95974219786701387 2.4605057997319107e-10 2.939633572386587e-07 -0.81745163575116409 2.4400066698258359e-09 1.7912321542258876e-07 -0.95974535842338493 2.4400066698258359e-09 1.7912321542258876e-07 -0.95974535842338493 -1.3837881452765814e-10 -5.609074339554868e-07 -0.8080295597858772 0.038218304269686823 1.0096283001443539e-06 -0.9597514123170009 0.041413772745213413 -8.9919670910619295e-08 -0.95975162137406156 -1.3837881452765814e-10 -5.609074339554868e-07 -0.8080295597858772 2.4400066698258359e-09 1.7912321542258876e-07 -0.95974535842338493 3.0847334526582345e-09 -8.7030556518736551e-07 -0.95974527111104946 0.041413772745213413 -8.9919670910619295e-08 -0.95975162137406156 0.041413772745213413 -8.9919670910619295e-08 -0.95975162137406156 3.0847334550792602e-09 -8.7030556518736551e-07 -0.95974527111104946 -1.3837880741995291e-10 -5.609074339554868e-07 -0.80802955978587732 1.6142273965528644e-10 -8.3058542192929783e-07 -0.77585855754193378 3.0847334550792602e-09 -8.7030556518736551e-07 -0.95974527111104946 0.041413772745213413 -8.9919670910619295e-08 -0.95975162137406156 0.040702571127872601 -8.3144279096778384e-07 -0.95975208826416902 1.6142275344884312e-10 -8.3058542192929773e-07 -0.77585855754193389 7.94102238400232e-10 -1.9965919128665231e-06 -0.81922818359899108 1.6142275344884312e-10 -8.3058542192929773e-07 -0.77585855754193389 0.040702571127872601 -8.3144279096778384e-07 -0.95975208826416902 0.075519619660110324 -1.2427625002502319e-06 -0.65995465516434315 0.040702571127872601 -8.3144279096778384e-07 -0.95975208826416902 0.075519619660110296 -1.2427625002502308e-06 -0.65995465516434304 1.6142275539397472e-10 -8.3058542192929762e-07 -0.775858557541934 0.05249726663092024 -1.515095962148705e-07 -0.74511216772548061 -1.3837881452765814e-10 -5.609074339554868e-07 -0.8080295597858772 1.614227542000603e-10 -8.3058542192929773e-07 -0.77585855754193389 6.0066878393615807e-10 -3.4713806197719701e-07 -0.64611283316610657 0.052497266630920261 -1.515095962148704e-07 -0.7451121677254805 -1.3837881452765814e-10 -5.609074339554868e-07 -0.8080295597858772 0.041413772745213406 -8.9919670910619335e-08 -0.95975162137406156 1.6142275433362207e-10 -8.3058542192929773e-07 -0.77585855754193389 0.052497266630920254 -1.5150959621487053e-07 -0.74511216772548061 1.6142275344884312e-10 -8.3058542192929773e-07 -0.77585855754193389 0.040702571127872601 -8.3144279096778384e-07 -0.95975208826416902 3.0847334550792602e-09 -8.7030556518736551e-07 -0.95974527111104946 2.7581869576584767e-09 -1.3183632055353583e-06 -0.9597447348564575 0.041413772745213413 -8.9919670910619295e-08 -0.95975162137406156 0.079151415879733941 -8.4192157393807485e-07 -0.95977478994956744 0.040702571127872601 -8.3144279096778384e-07 -0.95975208826416902 0.052497266630920247 -1.5150959621487053e-07 -0.74511216772548061 0.041413772745213413 -8.9919670910619295e-08 -0.95975162137406156 0.040702571127872601 -8.3144279096778384e-07 -0.95975208826416902 1.6142276298163248e-10 -8.3058542192929762e-07 -0.77585855754193378 0.05249726663092024 -1.5150959621487053e-07 -0.7451121677254805 0.075992302236806489 -1.3602931893241424e-06 -0.95977230906561883 0.040702571127872601 -8.3144279096778384e-07 -0.95975208826416902 0.079151415879733941 -8.4192157393807485e-07 -0.95977478994956744 0.075519619660110296 -1.2427625002502308e-06 -0.65995465516434304 0.078000261656274675 7.2497984099787424e-07 -0.95977339995170929 0.079151415879733941 -8.4192157393807485e-07 -0.95977478994956744 0.041413772745213413 -8.9919670910619295e-08 -0.95975162137406156 0.052497266630920247 -1.5150959621487053e-07 -0.74511216772548061 0.11012125001505656 -5.2176790995472829e-07 -0.9597996635730115 0.075519619660110282 -1.2427625002502304e-06 -0.65995465516434304 0.11970679745810603 1.9506261560692739e-07 -0.72029896309803898 0.12035622442582097 -2.0814436635314376e-06 -0.74946757440466805 0.079151415879733941 -8.4192157393807485e-07 -0.95977478994956744 0.11970679745810604 1.9506261560692752e-07 -0.72029896309803898 0.075519619660110296 -1.242762500250231e-06 -0.65995465516434304 0.052497266630920261 -1.5150959621487079e-07 -0.74511216772548061 0.075992302236806489 -1.3602931893241424e-06 -0.95977230906561883 0.079151415879733941 -8.4192157393807485e-07 -0.95977478994956744 0.11012125001505656 -5.2176790995472829e-07 -0.9597996635730115 0.075519619660110282 -1.2427625002502308e-06 -0.65995465516434304 0.11012125001505656 -5.2176790995472829e-07 -0.9597996635730115 0.075992302236806503 -1.3602931893241427e-06 -0.95977230906561894 0.075519619660110296 -1.242762500250231e-06 -0.65995465516434304 0.12035622442582095 -2.0814436635314376e-06 -0.74946757440466771 0.079151415879733941 -8.4192157393807485e-07 -0.95977478994956744 0.11012125001505656 -5.2176790995472829e-07 -0.9597996635730115 0.075519619660110296 -1.242762500250231e-06 -0.65995465516434304 0.11970679745810604 1.9506261560692789e-07 -0.72029896309803898 0.079151415879733941 -8.4192157393807485e-07 -0.95977478994956744 0.075519619660110296 -1.242762500250231e-06 -0.65995465516434304 0.040702571127872601 -8.3144279096778384e-07 -0.95975208826416902 0.052497266630920268 -1.5150959621487098e-07 -0.74511216772548072 0.079151415879733941 -8.4192157393807485e-07 -0.95977478994956744 0.12489996637755196 1.758060797216554e-07 -0.95981556905208987 0.11012125001505656 -5.2176790995472829e-07 -0.9597996635730115 0.11970679745810603 1.9506261560692739e-07 -0.72029896309803898 0.075519619660110296 -1.242762500250231e-06 -0.65995465516434304 0.11970679745810603 1.950626156069276e-07 -0.72029896309803898 0.12013141914810643 3.5903710729336239e-08 -0.47991124307827232 0.05249726663092024 -1.515095962148704e-07 -0.7451121677254805 0.059515889118506006 2.4475665358179851e-07 -0.43284827305995055 0.12030957620839407 -1.4513883802881356e-06 -0.50761674916761823 0.075519619660110268 -1.242762500250231e-06 -0.65995465516434293 0.053076065170522824 -1.573016154801958e-06 -0.47993533983535147 0.075519619660110296 -1.242762500250231e-06 -0.65995465516434304 0.12030957620839408 -1.4513883802881354e-06 -0.50761674916761834 0.11970679745810603 1.9506261560692712e-07 -0.72029896309803898 0.12035622442582095 -2.0814436635314376e-06 -0.74946757440466782 0.12013141914810645 3.5903710729336126e-08 -0.47991124307827232 0.075519619660110296 -1.242762500250231e-06 -0.65995465516434304 0.059515889118506006 2.4475665358179851e-07 -0.43284827305995055 0.12030957620839408 -1.4513883802881354e-06 -0.50761674916761834 0.12013141914810645 3.5903710729336126e-08 -0.47991124307827232 0.11970679745810606 1.9506261560692747e-07 -0.72029896309803909 0.07551961966011031 -1.2427625002502312e-06 -0.65995465516434304 0.12030957620839408 -1.4513883802881354e-06 -0.50761674916761834 0.12013141914810645 3.5903710729336126e-08 -0.47991124307827232 0.059515889118506006 2.4475665358179851e-07 -0.43284827305995055 0.075519619660110296 -1.2427625002502312e-06 -0.65995465516434293 0.052497266630920247 -1.5150959621487053e-07 -0.74511216772548061 0.052497266630920247 -1.5150959621487053e-07 -0.74511216772548061 0.075519619660110296 -1.242762500250231e-06 -0.65995465516434304 -7.3645340247745786e-10 2.7082474166427535e-07 -0.49870605196678319 0.059515889118505985 2.447566535817983e-07 -0.43284827305995055 -1.9891473110991307e-11 -9.3731369585258602e-07 -0.43969204763660835 0.059515889118505999 2.4475665358179862e-07 -0.43284827305995055 -5.0669761801687496e-11 -1.0199213456811339e-06 -0.58590353705363141 0.05307606517052281 -1.5730161548019583e-06 -0.47993533983535147 -5.0669762449065785e-11 -1.0199213456811339e-06 -0.58590353705363141 -7.3645340373339069e-10 2.7082474166427535e-07 -0.49870605196678319 0.075519619660110296 -1.2427625002502302e-06 -0.65995465516434304 0.059515889118506006 2.4475665358179851e-07 -0.43284827305995055 0.052497266630920247 -1.5150959621487053e-07 -0.74511216772548061 -5.0669743131597034e-11 -1.0199213456811333e-06 -0.58590353705363141 -7.3645340373339069e-10 2.7082474166427535e-07 -0.49870605196678319 0.075519619660110296 -1.242762500250231e-06 -0.65995465516434304 -5.0669762449065785e-11 -1.0199213456811339e-06 -0.58590353705363141 0.059515889118506013 2.4475665358179841e-07 -0.43284827305995055 0.075519619660110296 -1.242762500250231e-06 -0.65995465516434304 0.053076065170522817 -1.5730161548019587e-06 -0.47993533983535142 0.052497266630920247 -1.5150959621487053e-07 -0.74511216772548061 -7.3645340373339069e-10 2.7082474166427535e-07 -0.49870605196678319 -5.0669764295274783e-11 -1.0199213456811335e-06 -0.58590353705363141 6.0066878393615807e-10 -3.4713806197719701e-07 -0.64611283316610657 -2.5442783685033281e-10 -2.4271502617353776e-06 -0.66588552185851069 -5.0669762449065785e-11 -1.0199213456811339e-06 -0.58590353705363141 0.075519619660110296 -1.2427625002502308e-06 -0.65995465516434293 0.05307606517052281 -1.5730161548019583e-06 -0.47993533983535147 -5.0669762449065785e-11 -1.0199213456811339e-06 -0.58590353705363141 1.6142275344884312e-10 -8.3058542192929773e-07 -0.77585855754193389 0.075519619660110296 -1.242762500250231e-06 -0.65995465516434304 0.052497266630920247 -1.515095962148709e-07 -0.74511216772548061 -2.5442783685033281e-10 -2.4271502617353776e-06 -0.66588552185851069 -5.0669762449065785e-11 -1.0199213456811339e-06 -0.58590353705363141 1.6142275477529374e-10 -8.3058542192929773e-07 -0.77585855754193389 0.075519619660110296 -1.242762500250231e-06 -0.65995465516434304 -1.9891473110991307e-11 -9.3731369585258602e-07 -0.43969204763660835 -7.3645340373339069e-10 2.7082474166427535e-07 -0.49870605196678319 -5.0669762449065785e-11 -1.0199213456811339e-06 -0.58590353705363141 0.059515889118506006 2.4475665358179851e-07 -0.43284827305995055 -5.0669762449065785e-11 -1.0199213456811339e-06 -0.58590353705363141 6.006687848026826e-10 -3.4713806197719701e-07 -0.64611283316610657 1.6142275576143631e-10 -8.3058542192929783e-07 -0.77585855754193389 0.05249726663092022 -1.5150959621487026e-07 -0.7451121677254805 -5.0669762449065785e-11 -1.0199213456811339e-06 -0.58590353705363141 -5.1593901211453877e-10 -2.2570712989991993e-06 -0.48916097258311281 -1.9891474054524427e-11 -9.3731369585258602e-07 -0.43969204763660835 0.053076065170522824 -1.5730161548019583e-06 -0.47993533983535147 -2.5442783685033281e-10 -2.4271502617353776e-06 -0.66588552185851069 0.035189515202098939 -2.1010947687226747e-06 -0.81923580288886078 0.045223717612238284 -2.7307527600008262e-06 -0.65613394423612859 0.075519619660110296 -1.242762500250231e-06 -0.65995465516434304 -2.5442783685033281e-10 -2.4271502617353776e-06 -0.66588552185851069 0.075519619660110296 -1.242762500250231e-06 -0.65995465516434304 0.045223717612238284 -2.7307527600008262e-06 -0.65613394423612836 0.05307606517052281 -1.5730161548019583e-06 -0.47993533983535147 -2.5442783685033281e-10 -2.4271502617353776e-06 -0.66588552185851069 0.045223717612238278 -2.7307527600008266e-06 -0.65613394423612847 -5.1593901211453877e-10 -2.2570712989991993e-06 -0.48916097258311281 0.05307606517052281 -1.5730161548019583e-06 -0.47993533983535147 -2.5442783685033281e-10 -2.4271502617353776e-06 -0.66588552185851069 -5.1593901211453877e-10 -2.2570712989991993e-06 -0.48916097258311281 -5.0669764119717944e-11 -1.0199213456811339e-06 -0.58590353705363141 0.05307606517052281 -1.5730161548019583e-06 -0.47993533983535147 4.9176481487650618e-10 -2.9813662627955403e-06 -0.76779933358900532 1.4960012008564966e-10 -3.5173731841769559e-06 -0.57585603950293807 -2.5442783685033281e-10 -2.4271502617353776e-06 -0.66588552185851069 0.045223717612238284 -2.7307527600008266e-06 -0.65613394423612847 1.4960012008564966e-10 -3.5173731841769559e-06 -0.57585603950293807 -2.5442783685033281e-10 -2.4271502617353776e-06 -0.66588552185851069 0.045223717612238284 -2.7307527600008266e-06 -0.65613394423612847 -5.1593901211453877e-10 -2.2570712989991993e-06 -0.48916097258311281 0.045223717612238284 -2.7307527600008266e-06 -0.65613394423612847 0.039336684175947087 -2.5928738652808348e-06 -0.4690078846569567 1.4960012008564966e-10 -3.5173731841769559e-06 -0.57585603950293807 -5.1593901211453877e-10 -2.2570712989991993e-06 -0.48916097258311281 0.045223717612238284 -2.7307527600008266e-06 -0.65613394423612847 0.074560778036686037 -2.2262383406168586e-06 -0.52001109796547262 0.039336684175947087 -2.5928738652808348e-06 -0.4690078846569567 0.05307606517052281 -1.5730161548019583e-06 -0.47993533983535147 -5.1593901211453877e-10 -2.2570712989991993e-06 -0.48916097258311281 0.045223717612238278 -2.7307527600008266e-06 -0.65613394423612847 0.039336684175947087 -2.5928738652808348e-06 -0.4690078846569567 0.053076065170522817 -1.5730161548019578e-06 -0.47993533983535142 0.072279887858392913 -2.6276707587960817e-06 -0.79728625077803661 0.095194619227391447 -3.0291877666882617e-06 -0.64376761184791231 0.045223717612238284 -2.7307527600008266e-06 -0.65613394423612847 0.075519619660110296 -1.242762500250231e-06 -0.65995465516434304 0.074560778036686037 -2.2262383406168586e-06 -0.52001109796547262 0.07551961966011031 -1.2427625002502312e-06 -0.65995465516434315 0.12030957620839407 -1.4513883802881356e-06 -0.50761674916761845 0.05307606517052281 -1.573016154801958e-06 -0.47993533983535142 0.095194619227391447 -3.0291877666882617e-06 -0.64376761184791231 0.074560778036686037 -2.2262383406168586e-06 -0.52001109796547262 0.075519619660110282 -1.2427625002502306e-06 -0.65995465516434293 0.12030957620839408 -1.451388380288135e-06 -0.50761674916761823 0.095194619227391447 -3.0291877666882617e-06 -0.64376761184791231 0.075519619660110296 -1.242762500250231e-06 -0.65995465516434304 0.072279887858392913 -2.6276707587960817e-06 -0.79728625077803661 0.12035622442582095 -2.0814436635314376e-06 -0.74946757440466782 0.045223717612238284 -2.7307527600008266e-06 -0.65613394423612847 0.075519619660110296 -1.2427625002502306e-06 -0.65995465516434304 0.074560778036686037 -2.2262383406168586e-06 -0.52001109796547262 0.05307606517052281 -1.5730161548019583e-06 -0.47993533983535147 0.14421096271666603 -3.1991198322285057e-06 -0.64838807588566183 0.12030957620839408 -1.4513883802881354e-06 -0.50761674916761823 0.095194619227391447 -3.0291877666882617e-06 -0.64376761184791231 0.12035622442582095 -2.0814436635314376e-06 -0.74946757440466782 0.074560778036686037 -2.2262383406168586e-06 -0.52001109796547262 0.045223717612238291 -2.7307527600008266e-06 -0.65613394423612847 0.095194619227391447 -3.0291877666882617e-06 -0.64376761184791231 0.075519619660110296 -1.242762500250231e-06 -0.65995465516434304 0.095194619227391447 -3.0291877666882617e-06 -0.64376761184791231 0.12030957620839408 -1.4513883802881352e-06 -0.50761674916761834 0.075519619660110296 -1.2427625002502306e-06 -0.65995465516434293 0.12035622442582095 -2.0814436635314376e-06 -0.74946757440466782 0.095194619227391447 -3.0291877666882617e-06 -0.64376761184791231 0.14421096271666603 -3.1991198322285057e-06 -0.64838807588566183 0.12012896741157128 -2.7593903300781537e-06 -0.46108458660242141 0.12030957620839408 -1.4513883802881354e-06 -0.50761674916761834 0.095194619227391447 -3.0291877666882617e-06 -0.64376761184791231 0.12012896741157128 -2.7593903300781537e-06 -0.46108458660242141 0.074560778036686037 -2.2262383406168586e-06 -0.52001109796547262 0.1203095762083941 -1.4513883802881354e-06 -0.50761674916761845 0.11976286674675059 -2.8580411381753074e-06 -0.79447309310373182 0.14421096271666603 -3.1991198322285057e-06 -0.64838807588566183 0.095194619227391447 -3.0291877666882617e-06 -0.64376761184791231 0.12035622442582095 -2.0814436635314376e-06 -0.74946757440466782 0.072279887858392913 -2.6276707587960817e-06 -0.79728625077803661 0.035201866431277463 -1.5332584949059121e-06 -0.959750004452953 0.075992302236806489 -1.3602931893241424e-06 -0.95977230906561883 0.075519619660110296 -1.242762500250231e-06 -0.65995465516434304 0.072279887858392913 -2.6276707587960817e-06 -0.79728625077803661 0.075519619660110296 -1.242762500250231e-06 -0.65995465516434304 0.075992302236806475 -1.3602931893241424e-06 -0.95977230906561883 0.12035622442582092 -2.0814436635314376e-06 -0.74946757440466782 0.072279887858392913 -2.6276707587960817e-06 -0.79728625077803661 0.075992302236806489 -1.3602931893241422e-06 -0.95977230906561883 0.11976286674675059 -2.8580411381753074e-06 -0.79447309310373182 0.12035622442582095 -2.081443663531438e-06 -0.74946757440466782 0.095194619227391447 -3.0291877666882617e-06 -0.64376761184791231 0.072279887858392913 -2.6276707587960817e-06 -0.79728625077803661 0.11976286674675059 -2.8580411381753074e-06 -0.79447309310373182 0.12035622442582095 -2.0814436635314376e-06 -0.74946757440466782 0.075992302236806489 -1.3602931893241424e-06 -0.95977230906561883 0.096155653389105533 -3.3436201087880517e-06 -0.95978665729634183 0.11976286674675059 -2.8580411381753074e-06 -0.79447309310373182 0.12250826401299242 -1.6815697608428638e-06 -0.95981321458203028 0.096155653389105533 -3.3436201087880517e-06 -0.95978665729634183 0.11976286674675059 -2.8580411381753074e-06 -0.79447309310373182 0.072279887858392913 -2.6276707587960817e-06 -0.79728625077803661 0.075992302236806489 -1.3602931893241424e-06 -0.95977230906561883 0.075992302236806489 -1.3602931893241424e-06 -0.95977230906561883 0.12250826401299242 -1.6815697608428638e-06 -0.95981321458203028 0.11976286674675059 -2.8580411381753074e-06 -0.79447309310373182 0.12035622442582095 -2.0814436635314376e-06 -0.74946757440466782 0.11012125001505656 -5.2176790995472829e-07 -0.9597996635730115 0.12250826401299242 -1.6815697608428638e-06 -0.95981321458203028 0.075992302236806489 -1.3602931893241424e-06 -0.95977230906561883 0.12035622442582095 -2.0814436635314376e-06 -0.74946757440466782 0.096155653389105533 -3.3436201087880517e-06 -0.95978665729634183 0.072279887858392913 -2.6276707587960817e-06 -0.79728625077803661 0.048083427541838433 -2.6190442212021838e-06 -0.95975480378773204 0.075992302236806489 -1.3602931893241424e-06 -0.95977230906561883 7.94102238400232e-10 -1.9965919128665231e-06 -0.81922818359899108 -2.5442783476796844e-10 -2.4271502617353772e-06 -0.66588552185851058 1.6142275344884312e-10 -8.3058542192929773e-07 -0.77585855754193389 0.07551961966011031 -1.2427625002502308e-06 -0.65995465516434293 0.040702571127872601 -8.3144279096778384e-07 -0.95975208826416902 0.075992302236806489 -1.3602931893241424e-06 -0.95977230906561872 0.035201866431277463 -1.5332584949059121e-06 -0.959750004452953 0.075519619660110296 -1.242762500250231e-06 -0.65995465516434304 0.035201866431277463 -1.5332584949059121e-06 -0.959750004452953 0.048083427541838426 -2.6190442212021838e-06 -0.95975480378773204 0.035189515202098932 -2.1010947687226743e-06 -0.81923580288886078 0.072279887858392913 -2.6276707587960817e-06 -0.79728625077803661 0.035201866431277463 -1.5332584949059121e-06 -0.959750004452953 0.072279887858392927 -2.6276707587960821e-06 -0.7972862507780365 0.035189515202098932 -2.1010947687226743e-06 -0.81923580288886078 0.075519619660110324 -1.2427625002502316e-06 -0.65995465516434315 0.035201866431277463 -1.5332584949059121e-06 -0.959750004452953 0.048083427541838433 -2.6190442212021838e-06 -0.95975480378773204 0.072279887858392913 -2.6276707587960817e-06 -0.79728625077803661 0.075992302236806489 -1.3602931893241424e-06 -0.95977230906561883 0.045223717612238284 -2.7307527600008266e-06 -0.65613394423612847 0.035189515202098932 -2.1010947687226743e-06 -0.81923580288886078 0.072279887858392913 -2.6276707587960817e-06 -0.79728625077803661 0.075519619660110296 -1.2427625002502304e-06 -0.65995465516434304 7.94102238400232e-10 -1.9965919128665231e-06 -0.81922818359899108 0.040702571127872587 -8.3144279096778352e-07 -0.95975208826416902 0.035201866431277463 -1.5332584949059123e-06 -0.959750004452953 0.07551961966011031 -1.2427625002502308e-06 -0.65995465516434293 0.035201866431277463 -1.5332584949059121e-06 -0.959750004452953 0.035189515202098932 -2.1010947687226743e-06 -0.81923580288886078 7.94102238400232e-10 -1.9965919128665231e-06 -0.81922818359899108 0.075519619660110296 -1.242762500250231e-06 -0.65995465516434304 -2.5442783685033281e-10 -2.4271502617353776e-06 -0.66588552185851069 7.94102238400232e-10 -1.9965919128665231e-06 -0.81922818359899108 0.035189515202098932 -2.1010947687226743e-06 -0.81923580288886078 0.075519619660110282 -1.242762500250231e-06 -0.65995465516434293 2.7581869576584767e-09 -1.3183632055353583e-06 -0.9597447348564575 1.6142275344884312e-10 -8.3058542192929773e-07 -0.77585855754193389 0.040702571127872601 -8.3144279096778384e-07 -0.95975208826416902 7.94102238400232e-10 -1.9965919128665231e-06 -0.81922818359899108 0.035201866431277463 -1.5332584949059121e-06 -0.959750004452953 2.7581869561623974e-09 -1.3183632055353583e-06 -0.95974473485645739 0.040702571127872601 -8.3144279096778384e-07 -0.95975208826416902 7.94102238400232e-10 -1.9965919128665231e-06 -0.81922818359899108 -2.5442783685033281e-10 -2.4271502617353776e-06 -0.66588552185851069 0.035189515202098939 -2.1010947687226747e-06 -0.81923580288886078 4.9176481487650618e-10 -2.9813662627955403e-06 -0.76779933358900532 0.045223717612238284 -2.7307527600008258e-06 -0.65613394423612859 7.94102238400232e-10 -1.9965919128665231e-06 -0.81922818359899108 0.035189515202098939 -2.1010947687226743e-06 -0.81923580288886089 4.9176481487650618e-10 -2.9813662627955403e-06 -0.76779933358900532 -2.5442783685033281e-10 -2.4271502617353776e-06 -0.66588552185851069 1.9051188057461579e-09 -2.825929442370381e-06 -0.95974131656624706 2.7581869576584772e-09 -1.3183632055353578e-06 -0.9597447348564575 0.035201866431277463 -1.5332584949059121e-06 -0.959750004452953 7.94102238400232e-10 -1.9965919128665231e-06 -0.81922818359899108 0.035189515202098932 -2.1010947687226743e-06 -0.81923580288886078 4.91764814613939e-10 -2.9813662627955403e-06 -0.76779933358900532 1.9051188057461579e-09 -2.825929442370381e-06 -0.95974131656624706 7.94102238400232e-10 -1.9965919128665231e-06 -0.81922818359899108 1.9051188057461579e-09 -2.825929442370381e-06 -0.95974131656624706 0.035201866431277463 -1.5332584949059121e-06 -0.95975000445295311 0.048083427541838433 -2.6190442212021838e-06 -0.95975480378773204 0.035189515202098932 -2.1010947687226743e-06 -0.81923580288886078 0.035189515202098932 -2.1010947687226743e-06 -0.81923580288886078 1.9051188057461579e-09 -2.825929442370381e-06 -0.95974131656624706 0.035201866431277463 -1.5332584949059121e-06 -0.959750004452953 7.94102238400232e-10 -1.9965919128665231e-06 -0.81922818359899108 
</DataArray>
</PointData>
<CellData Scalars="" Vectors="" Tensors="stress,">
<DataArray type="Float64" Name="stress" NumberOfComponents="9" format="ascii">
0.00034987960227073067 6.7303928036528416e-07 -3.0141781231899059e-06 6.7303928036528416e-07 -0.19985789251379021 -5.9782092861760454e-06 -3.0141781231899059e-06 -5.9782092861760454e-06 -0.99965885521467346 0.00037505613383376213 1.4590140592222235e-06 8.1900316418913008e-06 1.4590140592222235e-06 -0.19984771161136583 3.7540994187209821e-06 8.1900316418913008e-06 3.7540994187209821e-06 -0.99962778219930937 0.0003686413038390679 1.9506701020108573e-06 1.4186190069193229e-06 1.9506701020108573e-06 -0.19984514606184073 1.4595507749378887e-05 1.4186190069193229e-06 1.4595507749378887e-05 -0.99963253082399151 0.00037553254707873652 1.8722429148075638e-06 -7.0222816078713279e-07 1.8722429148075638e-06 -0.19984556589911656 4.9473458955179168e-06 -7.0222816078713279e-07 4.9473458955179168e-06 -0.99963326944436648 0.00037276672973052261 -2.7075888846566712e-07 -8.2623589205965686e-06 -2.7075888846566712e-07 -0.19984547891224735 -4.8435717549671908e-06 -8.2623589205965686e-06 -4.8435717549671908e-06 -0.99963783934393069 0.00035521562380891325 -4.8654729506818727e-07 -8.001763913856319e-06 -4.8654729506818727e-07 -0.1998520506309136 -1.8087705108693619e-06 -8.001763913856319e-06 -1.8087705108693619e-06 -0.99964942860470885 0.00037219291976434143 7.7133714988770207e-07 2.7299537510572236e-06 7.7133714988770207e-07 -0.19985015463137112 9.0040802774027373e-06 2.7299537510572236e-06 9.0040802774027373e-06 -0.9996425207289148 0.00035196407724713552 -5.7376162581954698e-07 -8.092662420189356e-06 -5.7376162581954698e-07 -0.19985798174550964 2.7986461505480342e-06 -8.092662420189356e-06 2.7986461505480342e-06 -0.99966342433841548 0.00036735513041027956 -3.7619574131341797e-07 -4.6533001089588133e-06 -3.7619574131341797e-07 -0.19985116876345055 -3.2886024769612776e-06 -4.6533001089588133e-06 -3.2886024769612776e-06 -0.99966033976718083 0.00036574658347321432 -1.5654808890628063e-07 -5.4911600598506194e-06 -1.5654808890628063e-07 -0.1998574157273659 3.7558661458714226e-07 -5.4911600598506194e-06 3.7558661458714226e-07 -0.99966436828205374 0.00036799103640162978 -2.9397278199729565e-07 -5.0934904423094451e-06 -2.9397278199729565e-07 -0.19985197927073728 -3.8442500450153183e-06 -5.0934904423094451e-06 -3.8442500450153183e-06 -0.99964818191478111 0.00037333108474291166 1.9579128475915581e-06 -6.485667840561149e-07 1.9579128475915581e-06 -0.19985076303645161 9.0883912134964717e-07 -6.485667840561149e-07 9.0883912134964717e-07 -0.99964858066330464 0.00037852677631777798 4.0439790144402547e-07 -4.1167598445746023e-06 4.0439790144402547e-07 -0.19984717973029043 3.0067431165403669e-06 -4.1167598445746023e-06 3.0067431165403669e-06 -0.99964152264460826 0.00037445970342607493 2.0274627667666473e-06 5.7421357684550589e-06 2.0274627667666473e-06 -0.19984520114786913 -2.3649590876195781e-06 5.7421357684550589e-06 -2.3649590876195781e-06 -0.99963327422477355 0.00037439247762948379 1.0489622488317325e-06 4.8435912604948686e-06 1.0489622488317325e-06 -0.19984753397086477 -4.8458368015267378e-06 4.8435912604948686e-06 -4.8458368015267378e-06 -0.99962909346265605 0.00035316287525516025 5.4138076496820494e-07 -7.2472875404738939e-06 5.4138076496820494e-07 -0.19985115785994012 9.6843450618977385e-06 -7.2472875404738939e-06 9.6843450618977385e-06 -0.99964836335363016 0.00035707031636687814 -9.5160078539639799e-07 -9.8810501852897303e-06 -9.5160078539639799e-07 -0.19985145317353789 1.0270157126568424e-05 -9.8810501852897303e-06 1.0270157126568424e-05 -0.99964498525789924 0.00034096117263404294 3.6797696310310314e-06 -7.0941861750887836e-07 3.6797696310310314e-06 -0.19985672116517639 6.6169088525854917e-06 -7.0941861750887836e-07 6.6169088525854917e-06 -0.99965813665594738 0.00034776843748871022 1.0664993471256456e-06 -5.2659986806147252e-06 1.0664993471256456e-06 -0.19985822068429449 1.9349999548778918e-06 -5.2659986806147252e-06 1.9349999548778918e-06 -0.99966738282261713 0.00031490194019296409 2.2698785780839893e-07 -1.2275666657513007e-05 2.2698785780839893e-07 -0.1998664796442586 1.8817830566182636e-06 -1.2275666657513007e-05 1.8817830566182636e-06 -0.99967574968748818 0.00029959515146396609 4.3189188907156369e-06 6.5571335850014845e-06 4.3189188907156369e-06 -0.19987867841843895 2.1098212923398307e-06 6.5571335850014845e-06 2.1098212923398307e-06 -0.9997157673975291 0.00029879140152028194 3.1613770420061392e-06 7.1172789969828785e-06 3.1613770420061392e-06 -0.19987936966137687 4.5767697923876078e-06 7.1172789969828785e-06 4.5767697923876078e-06 -0.99971729916651098 0.00030408170592978267 -9.9613727683012891e-07 6.5997133210028469e-07 -9.9613727683012891e-07 -0.19987063592257112 1.0275370209653586e-05 6.5997133210028469e-07 1.0275370209653586e-05 -0.99969282559648975 0.00030412720007597094 -2.3647385229200804e-06 -1.0118024291849714e-05 -2.3647385229200804e-06 -0.19986674435918142 5.1003144123113976e-06 -1.0118024291849714e-05 5.1003144123113976e-06 -0.99967113315479794 0.00030077015681104213 3.0059406816682912e-06 -7.2622684288980999e-06 3.0059406816682912e-06 -0.19987578342167947 3.2458660786938154e-07 -7.2622684288980999e-06 3.2458660786938154e-07 -0.99970276929046997 0.0003043703174030743 3.3634490886216354e-06 -5.8211756611414867e-06 3.3634490886216354e-06 -0.19987239946545282 -1.9287873225248831e-06 -5.8211756611414867e-06 -1.9287873225248831e-06 -0.99968656957432078 0.00034377528601798463 -3.3146606035438889e-06 -2.3515239943150412e-05 -3.3146606035438889e-06 -0.19986033977841339 -2.3769232155856912e-06 -2.3515239943150412e-05 -2.3769232155856912e-06 -0.99966134209369684 0.00035623523626426845 1.1757810618108859e-06 -1.2299783057723168e-05 1.1757810618108859e-06 -0.19985420250140423 2.4647802367161464e-06 -1.2299783057723168e-05 2.4647802367161464e-06 -0.99964950643495687 0.00034134821710385399 9.3480034972878569e-08 -2.9559959751401799e-05 9.3480034972878569e-08 -0.19986251816741596 -3.5207116019786433e-07 -2.9559959751401799e-05 -3.5207116019786433e-07 -0.99967515624424608 0.00030530566840636375 2.7033051171240986e-06 -1.8082728399787529e-05 2.7033051171240986e-06 -0.19987394716573159 2.2555061600648685e-06 -1.8082728399787529e-05 2.2555061600648685e-06 -0.99970920310604638 0.00031632093815459061 6.0144119495441471e-07 -1.2571549502349288e-05 6.0144119495441471e-07 -0.19987324672216333 -1.5957892126675088e-06 -1.2571549502349288e-05 -1.5957892126675088e-06 -0.99970570876788334 0.00035446321049818763 4.9407621746059754e-07 -1.036677739352232e-05 4.9407621746059754e-07 -0.19985671117196979 2.1666377565954242e-06 -1.036677739352232e-05 2.1666377565954242e-06 -0.99966245320906943 0.00031712448533554281 -4.8766052568407594e-07 -9.6011417737296156e-06 -4.8766052568407594e-07 -0.19986608770008168 2.1938363008212891e-06 -9.6011417737296156e-06 2.1938363008212891e-06 -0.99967182136222799 0.00030928630848785742 1.1537732774032379e-06 -1.6359891624295742e-05 1.1537732774032379e-06 -0.19986540321860297 8.1743799529854222e-06 -1.6359891624295742e-05 8.1743799529854222e-06 -0.9996727874172 0.00031634187991680385 3.6344841174896545e-06 -2.4637413901240635e-05 3.6344841174896545e-06 -0.19986522286357644 -2.174014811839875e-06 -2.4637413901240635e-05 -2.174014811839875e-06 -0.99966786867400526 0.00030632148015685701 3.0221720761322849e-06 -1.6959125619830928e-05 3.0221720761322849e-06 -0.1998748847497458 1.3446675917183626e-06 -1.6959125619830928e-05 1.3446675917183626e-06 -0.99970401960426525 0.00036879257969923973 1.3413289472978958e-06 -1.3194126610271972e-05 1.3413289472978958e-06 -0.19985285427430777 1.7232214446494254e-06 -1.3194126610271972e-05 1.7232214446494254e-06 -0.99965316584946962 0.0003612495984660069 2.5061960466172122e-06 -1.6087026862954268e-05 2.5061960466172122e-06 -0.1998513869144225 -1.2101553392707132e-07 -1.6087026862954268e-05 -1.2101553392707132e-07 -0.99963960420265385 0.00037365522725278655 -1.7312593536771818e-06 -8.9271821243075422e-06 -1.7312593536771818e-06 -0.1998483301899549 -1.7969641773474265e-06 -8.9271821243075422e-06 -1.7969641773474265e-06 -0.99963986793719561 0.00038139003656608231 9.7094199897072388e-08 -6.3568608634767543e-06 9.7094199897072388e-08 -0.19984590253188003 -2.608209772381187e-06 -6.3568608634767543e-06 -2.608209772381187e-06 -0.99963379251642503 0.0003743560412399205 -2.101534952040859e-06 -2.0803833951504869e-06 -2.101534952040859e-06 -0.19984810475014969 -1.6513327344147566e-06 -2.0803833951504869e-06 -1.6513327344147566e-06 -0.99963934051279835 0.00039670510765266176 1.79272711245919e-06 -8.2020017964090641e-06 1.79272711245919e-06 -0.1998374998776512 9.9614525139735122e-07 -8.2020017964090641e-06 9.9614525139735122e-07 -0.99961744547952991 0.00038768394750682278 3.1943690568789748e-06 -1.4542920162563533e-06 3.1943690568789748e-06 -0.19984141509173131 1.7781859024679214e-06 -1.4542920162563533e-06 1.7781859024679214e-06 -0.99963128651178379 0.00039547268602635466 1.7359417038902218e-06 -7.2393748924426404e-06 1.7359417038902218e-06 -0.19983887700673231 2.3016806199871453e-06 -7.2393748924426404e-06 2.3016806199871453e-06 -0.9996222384960749 0.00038063745379335323 7.3672848627504628e-07 -5.7828410409133113e-06 7.3672848627504628e-07 -0.19984437500524649 7.0424260847912201e-07 -5.7828410409133113e-06 7.0424260847912201e-07 -0.99963377482401006 0.00039256802810722774 1.1207387320315168e-07 -1.2627388641606174e-05 1.1207387320315168e-07 -0.19984228895030412 -3.0630350579263776e-06 -1.2627388641606174e-05 -3.0630350579263776e-06 -0.99962514564380045 0.00039339207296995582 3.3655203553911323e-07 -1.2900402135085365e-05 3.3655203553911323e-07 -0.19983760579707388 -1.4349966095394961e-06 -1.2900402135085365e-05 -1.4349966095394961e-06 -0.99962360556920071 0.0003741468655422131 -8.7292680084942281e-08 -9.5695752649338495e-06 -8.7292680084942281e-08 -0.19984502479507432 -1.8990927829198867e-06 -9.5695752649338495e-06 -1.8990927829198867e-06 -0.99963139258478795 0.0003844795862060213 3.0830311268307335e-07 -1.3755600234421905e-06 3.0830311268307335e-07 -0.19984487877079626 -1.0247094446302896e-06 -1.3755600234421905e-06 -1.0247094446302896e-06 -0.99963904034199169 0.00037490544542384541 -4.6541827830961028e-08 -9.524052571041608e-06 -4.6541827830961028e-08 -0.19984440614495957 -8.6831971360390448e-07 -9.524052571041608e-06 -8.6831971360390448e-07 -0.99962821877790731 0.00037337247101809634 3.4863574985147889e-06 -5.2516512456177167e-06 3.4863574985147889e-06 -0.1998487755999146 9.9733558867054484e-07 -5.2516512456177167e-06 9.9733558867054484e-07 -0.99964544006723588 0.00037743474024193313 4.3411690311505466e-06 -7.1439089888714058e-06 4.3411690311505466e-06 -0.19984484964701948 -2.9319390009163726e-06 -7.1439089888714058e-06 -2.9319390009163726e-06 -0.99963092126075437 0.00037282044462333408 7.163655215640565e-07 -9.3154773436882055e-06 7.163655215640565e-07 -0.19984822093632912 2.152498722873819e-06 -9.3154773436882055e-06 2.152498722873819e-06 -0.99963748776130068 0.000380555875746591 -6.9815299859638962e-06 -5.0820627189862577e-06 -6.9815299859638962e-06 -0.19984418657981762 2.5778089119965486e-06 -5.0820627189862577e-06 2.5778089119965486e-06 -0.99963440342466514 0.00039030132002193518 -2.3448277560951101e-07 -1.5463036623697413e-05 -2.3448277560951101e-07 -0.19983909424975443 3.5767319952473287e-06 -1.5463036623697413e-05 3.5767319952473287e-06 -0.999616957507514 0.00031047762195723916 -1.2640377437820821e-06 -9.6727613659308709e-06 -1.2640377437820821e-06 -0.19987394826191429 -4.8379117099928148e-07 -9.6727613659308709e-06 -4.8379117099928148e-07 -0.99970988186727094 0.00032544188012312292 -3.7714845158526518e-06 -7.2795704904593528e-06 -3.7714845158526518e-06 -0.19986042298622114 -8.0762285722957294e-07 -7.2795704904593528e-06 -8.0762285722957294e-07 -0.99965590385727299 0.00031243177618159312 -2.2111222482575667e-06 -1.0912630712872629e-05 -2.2111222482575667e-06 -0.19987226377646464 8.6085007278136061e-07 -1.0912630712872629e-05 8.6085007278136061e-07 -0.99970704610852834 0.00033253620219519942 -1.7755040700747434e-06 -2.5593350941099935e-05 -1.7755040700747434e-06 -0.1998636698344825 5.1172724546688642e-07 -2.5593350941099935e-05 5.1172724546688642e-07 -0.99968045269515771 0.00032130500719806943 -6.2001642944392101e-06 -1.6926017308002694e-05 -6.2001642944392101e-06 -0.19987194745597475 8.544628231077489e-06 -1.6926017308002694e-05 8.544628231077489e-06 -0.99970989686896861 0.00034142338544485007 5.5281532568948782e-07 -2.9214551609868522e-05 5.5281532568948782e-07 -0.19986079306087554 -7.5720376446763993e-07 -2.9214551609868522e-05 -7.5720376446763993e-07 -0.99967554258734603 0.00030772034808020099 3.5521271054521483e-07 1.9410515711970611e-06 3.5521271054521483e-07 -0.19987237945191036 -2.0642848938601244e-05 1.9410515711970611e-06 -2.0642848938601244e-05 -0.99968433268049006 0.00032505009546945907 1.9052469250459229e-07 -1.4767467069076723e-05 1.9052469250459229e-07 -0.19986211853849195 -1.5146574048260919e-06 -1.4767467069076723e-05 -1.5146574048260919e-06 -0.99967123506251832 0.00030357295188321309 -1.8414620687226505e-06 -1.8978556080573306e-05 -1.8414620687226505e-06 -0.1998744284442831 1.4564480343981501e-08 -1.8978556080573306e-05 1.4564480343981501e-08 -0.99970997341184031 0.00031375109560760617 1.9133465234307915e-06 1.3782190954419504e-05 1.9133465234307915e-06 -0.19986771228003719 -3.42515404116161e-06 1.3782190954419504e-05 -3.42515404116161e-06 -0.99966999214899921 0.00034998220729250129 -9.1445194264929103e-07 -2.5753243878823273e-06 -9.1445194264929103e-07 -0.19985634041095057 1.362271133453774e-06 -2.5753243878823273e-06 1.362271133453774e-06 -0.99965970476183463 0.00031009597416342682 -2.5776293186583813e-07 -5.6734151413495582e-06 -2.5776293186583813e-07 -0.19986897911227519 1.8771605398870683e-05 -5.6734151413495582e-06 1.8771605398870683e-05 -0.99969378548970167 0.00032237230054177335 -6.1862839794606792e-06 -1.2441515222560984e-05 -6.1862839794606792e-06 -0.19986360086179744 -2.9679618088751525e-06 -1.2441515222560984e-05 -2.9679618088751525e-06 -0.99967043747293971 0.00034796770739564664 1.3644975553676249e-07 -2.2264510686574235e-07 1.3644975553676249e-07 -0.19985927365856365 -2.5457242714918582e-06 -2.2264510686574235e-07 -2.5457242714918582e-06 -0.999662742510118 0.00030279714096714816 8.2451890756937701e-07 5.5744187907628185e-06 8.2451890756937701e-07 -0.19987336595937721 -1.654824019606771e-06 5.5744187907628185e-06 -1.654824019606771e-06 -0.99970543388920163 0.00030242400665309033 9.0723623388781865e-07 9.7134418421126139e-06 9.0723623388781865e-07 -0.19987642913302994 -9.3935985280973706e-06 9.7134418421126139e-06 -9.3935985280973706e-06 -0.99970752083638836 0.00036760721431958188 -1.2371586666948264e-06 -5.1956933870278554e-06 -1.2371586666948264e-06 -0.19985331339319368 -5.6907896925917356e-06 -5.1956933870278554e-06 -5.6907896925917356e-06 -0.9996553157644531 0.00036764910383629834 3.5212617150988763e-07 -5.4660650285805884e-06 3.5212617150988763e-07 -0.19985221575871776 1.6010338806382585e-06 -5.4660650285805884e-06 1.6010338806382585e-06 -0.99965561995165642 0.00037178911337348852 3.1268373079499484e-07 -1.6281701162856876e-06 3.1268373079499484e-07 -0.19984939772509328 -2.2548545381816804e-06 -1.6281701162856876e-06 -2.2548545381816804e-06 -0.99964854255101199 0.00035036929071802225 -9.5225714705505868e-08 -1.2803211832635667e-06 -9.5225714705505868e-08 -0.19985456041700145 -2.1111427250971486e-06 -1.2803211832635667e-06 -2.1111427250971486e-06 -0.99965303153712137 0.00037424440155496108 8.8502702762284185e-07 4.3981306840777163e-06 8.8502702762284185e-07 -0.19984486932467224 -5.2551887467770813e-06 4.3981306840777163e-06 -5.2551887467770813e-06 -0.99962894944521408 0.0003751173279085418 2.2167384122727949e-07 6.8390259292659976e-06 2.2167384122727949e-07 -0.19984625920727192 -1.7549400055938413e-06 6.8390259292659976e-06 -1.7549400055938413e-06 -0.99962319462713201 0.0003714315940911983 -1.7312220418621575e-07 -1.4973103628079798e-06 -1.7312220418621575e-07 -0.19985180153338167 -1.9966709636550645e-06 -1.4973103628079798e-06 -1.9966709636550645e-06 -0.99964728906524625 0.00037684724443742823 1.6611575834638753e-07 -4.0870565621298205e-06 1.6611575834638753e-07 -0.19984676957517122 -3.5282874699046896e-06 -4.0870565621298205e-06 -3.5282874699046896e-06 -0.99962780104189575 0.00037553309019206795 1.7760262243697009e-09 4.4911852938399249e-06 1.7760262243697009e-09 -0.19984139414331292 2.4698923642116918e-06 4.4911852938399249e-06 2.4698923642116918e-06 -0.99962992667071005 0.00037597965233565422 1.1330466697613928e-06 7.1313114954879288e-06 1.1330466697613928e-06 -0.19984359039285188 -1.5904991482783538e-06 7.1313114954879288e-06 -1.5904991482783538e-06 -0.99962355097901789 0.00037892788766416552 1.2694580114687681e-06 -5.1969602089807498e-06 1.2694580114687681e-06 -0.19984545118157357 1.6780002484173551e-06 -5.1969602089807498e-06 1.6780002484173551e-06 -0.99962767624102511 0.00037265909482964155 1.3161155893370197e-06 -2.2063002808880849e-06 1.3161155893370197e-06 -0.19985115760546768 1.2100377633217363e-06 -2.2063002808880849e-06 1.2100377633217363e-06 -0.99965024692730076 0.00037463076519232545 -1.5134355122464509e-06 5.1453811573528782e-06 -1.5134355122464509e-06 -0.19984543377429556 1.6604546864001822e-06 5.1453811573528782e-06 1.6604546864001822e-06 -0.99962730163776292 0.00035408182962951007 6.5941589015343571e-07 -3.1128482048947692e-06 6.5941589015343571e-07 -0.19985554891012597 9.976316459603396e-07 -3.1128482048947692e-06 9.976316459603396e-07 -0.99965360398577785 0.00037472358561763119 -1.2738747037544923e-06 5.4389923205833135e-06 -1.2738747037544923e-06 -0.19984653074431136 2.7994298176237109e-06 5.4389923205833135e-06 2.7994298176237109e-06 -0.99962884204555402 0.00037260587989728353 -9.7606137305104202e-07 3.0562409212556483e-06 -9.7606137305104202e-07 -0.19984727515075743 4.837640707858531e-06 3.0562409212556483e-06 4.837640707858531e-06 -0.99963246486140689 0.00035108631887398323 -8.0218764841530894e-07 -1.0980285171179361e-06 -8.0218764841530894e-07 -0.19985549318454926 2.6240966042031329e-06 -1.0980285171179361e-06 2.6240966042031329e-06 -0.99965660748452601 0.00035267066239980105 -5.5115622355918207e-07 -3.4491941559681417e-06 -5.5115622355918207e-07 -0.19985450848861944 2.396885709859705e-06 -3.4491941559681417e-06 2.396885709859705e-06 -0.99965184772833859 0.00037058866382588818 -3.0138186343252559e-08 -2.5567018290262311e-06 -3.0138186343252559e-08 -0.19985030669356679 2.5520980533322302e-06 -2.5567018290262311e-06 2.5520980533322302e-06 -0.99964880224499097 0.0003803873511982192 -5.576096071990326e-07 -4.4203485395910569e-06 -5.576096071990326e-07 -0.19984241630136085 -1.9698931530420793e-07 -4.4203485395910569e-06 -1.9698931530420793e-07 -0.99963040870784492 0.000377687383876113 1.9986166761442764e-07 -4.5397698558158339e-06 1.9986166761442764e-07 -0.199845104798893 3.5992061734324565e-06 -4.5397698558158339e-06 3.5992061734324565e-06 -0.99962526460048018 0.00037129397977520018 1.0380894836260355e-07 -1.7889708165963469e-06 1.0380894836260355e-07 -0.1998511085201895 3.5971492413078288e-06 -1.7889708165963469e-06 3.5971492413078288e-06 -0.9996493852170627 0.00035915460294452806 9.4119940829765224e-06 -9.8099352861258371e-06 9.4119940829765224e-06 -0.19985137036980807 5.4570395124353688e-06 -9.8099352861258371e-06 5.4570395124353688e-06 -0.99964761031250127 0.00037747452996117481 4.183716691986193e-07 -5.1778699119708893e-06 4.183716691986193e-07 -0.1998499082394844 9.8942134329517428e-07 -5.1778699119708893e-06 9.8942134329517428e-07 -0.99964484519334595 0.00037943897580500208 -1.5547201057008487e-07 -6.2008858358886254e-06 -1.5547201057008487e-07 -0.19984522844934821 -5.3484485802030024e-08 -6.2008858358886254e-06 -5.3484485802030024e-08 -0.99964389488334371 0.00036082606215542823 1.183245598159077e-07 -1.8685689849445852e-05 1.183245598159077e-07 -0.199855195136245 2.0223031185762075e-07 -1.8685689849445852e-05 2.0223031185762075e-07 -0.99965912328584339 0.00037877412483949824 1.5697944122480377e-07 -4.8907619497051691e-06 1.5697944122480377e-07 -0.19984473846022455 8.654372234406793e-07 -4.8907619497051691e-06 8.654372234406793e-07 -0.99962019673892843 0.00037061104364044528 -2.024388680690323e-06 -1.2988654187195969e-06 -2.024388680690323e-06 -0.19984764177099323 1.3739529806100492e-06 -1.2988654187195969e-06 1.3739529806100492e-06 -0.99963829824100547 0.00037089925718158945 -6.5427187056172283e-06 -5.5142614041187032e-06 -6.5427187056172283e-06 -0.19985071430400514 -2.0552798606909839e-06 -5.5142614041187032e-06 -2.0552798606909839e-06 -0.99964552127373474 0.00039042589156246255 3.3169583658980775e-08 -1.4893343218691513e-05 3.3169583658980775e-08 -0.19984116797377516 1.8150456511135948e-06 -1.4893343218691513e-05 1.8150456511135948e-06 -0.99961425540536419 0.00038928050572151207 6.4540995690438238e-08 -1.5123908422065568e-05 6.4540995690438238e-08 -0.19984116011771558 -2.3583405073801522e-06 -1.5123908422065568e-05 -2.3583405073801522e-06 -0.99961999113533384 0.00039071743168289652 -2.2517826726030468e-07 -1.3405027834867411e-05 -2.2517826726030468e-07 -0.19983799013433451 -5.9559963883071276e-07 -1.3405027834867411e-05 -5.9559963883071276e-07 -0.99961124638985477 0.00038703834657372038 1.2024041358648274e-07 -1.284693144609772e-05 1.2024041358648274e-07 -0.1998399931610727 -1.1526821704077594e-07 -1.284693144609772e-05 -1.1526821704077594e-07 -0.99962493136708686 0.00038693016237856259 -3.3261696173802278e-07 -1.2517266645417635e-05 -3.3261696173802278e-07 -0.19984186068957899 7.0089502757220146e-07 -1.2517266645417635e-05 7.0089502757220146e-07 -0.99962589850840766 0.00036111676052949515 -6.3517982110704446e-07 -1.4999276691352037e-05 -6.3517982110704446e-07 -0.19985150952463901 -9.8500908771170792e-07 -1.4999276691352037e-05 -9.8500908771170792e-07 -0.99964627997905564 0.00037853142273794327 -7.309942105071716e-07 -6.0597599501610588e-06 -7.309942105071716e-07 -0.19984814556906746 6.6796823244841264e-07 -6.0597599501610588e-06 6.6796823244841264e-07 -0.99964465842019468 0.00038800947618274073 1.4189891086800363e-06 -1.2960257386840368e-05 1.4189891086800363e-06 -0.19984275230147325 3.38409778710691e-06 -1.2960257386840368e-05 3.38409778710691e-06 -0.99962369663013129 0.00038783555152133165 -2.416320982630263e-08 -1.3321173311320322e-05 -2.416320982630263e-08 -0.19983858216024269 1.1709823928285346e-06 -1.3321173311320322e-05 1.1709823928285346e-06 -0.99962236555388984 0.00039402756869522104 -1.5658592108115543e-06 -7.2431145616835835e-06 -1.5658592108115543e-06 -0.19983809501791749 -2.5010724328256018e-06 -7.2431145616835835e-06 -2.5010724328256018e-06 -0.99962005535407128 0.00038692060602141254 -3.1308659980885735e-06 -2.1551291002896988e-06 -3.1308659980885735e-06 -0.19984116466466334 -1.230426449283506e-06 -2.1551291002896988e-06 -1.230426449283506e-06 -0.99962912574745122 0.00037865193069405896 7.0184638393019804e-07 -7.4934550298166869e-06 7.0184638393019804e-07 -0.19984601835879409 3.6742847363546716e-06 -7.4934550298166869e-06 3.6742847363546716e-06 -0.99963155650920654 0.00036190295268152817 3.1734334188925236e-07 -1.6326348525108614e-05 3.1734334188925236e-07 -0.19984950544083663 1.5891949892710144e-06 -1.6326348525108614e-05 1.5891949892710144e-06 -0.99963528229352416 0.00038119221148946725 -9.0347736904226385e-07 -5.6330499719203786e-06 -9.0347736904226385e-07 -0.19984384655826953 -1.8655567879388713e-07 -5.6330499719203786e-06 -1.8655567879388713e-07 -0.99963107154449604 0.00037923324838179395 -5.3107039230903155e-07 -4.1069067291399364e-06 -5.3107039230903155e-07 -0.19984655458553097 -2.3458255178909759e-06 -4.1069067291399364e-06 -2.3458255178909759e-06 -0.99963816172900177 0.00037519323775858648 -1.5326576988985747e-06 -1.3388668654856772e-06 -1.5326576988985747e-06 -0.19984908868988066 -1.0133812400892062e-06 -1.3388668654856772e-06 -1.0133812400892062e-06 -0.99964390874502929 0.00036522066643673856 -5.0621029292209953e-07 3.9060295100173405e-06 -5.0621029292209953e-07 -0.19984705048048687 -1.3473019725129158e-05 3.9060295100173405e-06 -1.3473019725129158e-05 -0.99964189736538134 0.00037625688815151603 -1.6436335383030321e-06 -1.7936748373803546e-06 -1.6436335383030321e-06 -0.19984535954286117 -4.1997093737644597e-06 -1.7936748373803546e-06 -4.1997093737644597e-06 -0.99963498900524106 0.00036873340735266158 4.7057462944925438e-07 4.3098207576641734e-06 4.7057462944925438e-07 -0.19985097640512428 -9.3498957009219286e-06 4.3098207576641734e-06 -9.3498957009219286e-06 -0.9996485844423586 0.00036790082033022475 -1.0135381446186297e-06 7.6126277671758866e-06 -1.0135381446186297e-06 -0.19984864206815667 -4.4636266962979999e-06 7.6126277671758866e-06 -4.4636266962979999e-06 -0.99963667626582386 0.00037405854869743127 9.5257401407638116e-08 -1.75007552405404e-06 9.5257401407638116e-08 -0.1998495001702415 8.1188160859849146e-07 -1.75007552405404e-06 8.1188160859849146e-07 -0.99964944898928476 0.0003666363744186385 -2.4117762688362602e-06 4.2693653089540218e-06 -2.4117762688362602e-06 -0.19985126674978757 6.1772399467281381e-06 4.2693653089540218e-06 6.1772399467281381e-06 -0.99964675394810276 0.00036861458806061731 -6.3882347916964193e-07 -4.8343319658528117e-07 -6.3882347916964193e-07 -0.19985588768201429 -2.1604129477326151e-06 -4.8343319658528117e-07 -2.1604129477326151e-06 -0.9996653010233747 0.00037077447081956816 -7.6836076056040725e-07 -3.8773699806426976e-09 -7.6836076056040725e-07 -0.19984848116861581 4.3434316693291564e-07 -3.8773699806426976e-09 4.3434316693291564e-07 -0.99964041681613214 0.00036993972881149695 -1.4884803722901797e-06 1.9024477458384759e-06 -1.4884803722901797e-06 -0.19985269058201816 6.5314530106365398e-06 1.9024477458384759e-06 6.5314530106365398e-06 -0.99965786997130046 0.00037843153055086565 -9.1725678665452887e-08 -5.9587848338371607e-06 -9.1725678665452887e-08 -0.19984672887061503 -5.7024908445280076e-07 -5.9587848338371607e-06 -5.7024908445280076e-07 -0.99963734075528354 0.00037878706919006189 -3.4272859208555591e-07 -5.0304760642605473e-06 -3.4272859208555591e-07 -0.19984549166407242 2.4842915741229987e-06 -5.0304760642605473e-06 2.4842915741229987e-06 -0.99963533379719272 0.00034950075178111217 -1.0530062009929339e-06 -5.4172711239086624e-06 -1.0530062009929339e-06 -0.19985975971425951 -3.3767973623421987e-06 -5.4172711239086624e-06 -3.3767973623421987e-06 -0.99966733675602559 0.00035168468240465156 -1.2603334953728708e-06 -3.3971388868845623e-06 -1.2603334953728708e-06 -0.19985638771277239 5.8280950978271036e-06 -3.3971388868845623e-06 5.8280950978271036e-06 -0.99965885618324524 0.00035452961691390117 1.10977379965507e-06 -8.1782661642387784e-06 1.10977379965507e-06 -0.1998522265427515 -9.2497078201658547e-06 -8.1782661642387784e-06 -9.2497078201658547e-06 -0.9996547367635934 0.00035301878905044659 1.8384763944172281e-06 -8.3352422383664582e-06 1.8384763944172281e-06 -0.1998508210734157 -8.7471283893580942e-06 -8.3352422383664582e-06 -8.7471283893580942e-06 -0.99965465342768378 0.00034790409863755256 -2.1637916652719995e-07 -5.7606250215558319e-06 -2.1637916652719995e-07 -0.19985916236710222 -2.585590465065124e-06 -5.7606250215558319e-06 -2.585590465065124e-06 -0.99966729808135413 0.0003540714669627576 -6.4434881962740924e-07 -8.8927650148118431e-06 -6.4434881962740924e-07 -0.19985326656487995 -3.5574245121905435e-07 -8.8927650148118431e-06 -3.5574245121905435e-07 -0.99964584266371781 0.00037497491166489996 -1.2367723728681473e-06 -3.4774286713501468e-06 -1.2367723728681473e-06 -0.19984943037570102 1.1160340029903182e-06 -3.4774286713501468e-06 1.1160340029903182e-06 -0.99964325345690175 0.00032000632931344919 5.289132940861056e-06 7.9263846818333761e-06 5.289132940861056e-06 -0.19986411611160726 -1.5505519318503858e-06 7.9263846818333761e-06 -1.5505519318503858e-06 -0.99967014501879969 0.00032428917385005085 -2.5400813723727405e-05 -1.7584076010351835e-05 -2.5400813723727405e-05 -0.19986553316091785 -5.6600241928883577e-06 -1.7584076010351835e-05 -5.6600241928883577e-06 -0.99967726099536536 0.00032098001378666474 4.3228623673328747e-06 -1.2866100406849768e-05 4.3228623673328747e-06 -0.1998651987059874 -1.9132022128498516e-06 -1.2866100406849768e-05 -1.9132022128498516e-06 -0.99967639629952632 0.00034113035288763083 -1.1041001803560795e-06 -3.4550691487525672e-07 -1.1041001803560795e-06 -0.19985695800544256 -4.6766085544596633e-06 -3.4550691487525672e-07 -4.6766085544596633e-06 -0.99966698160378842 0.0003047582071090682 1.1598867689654608e-06 2.0055954219264094e-06 1.1598867689654608e-06 -0.19987509660147632 9.1349387215111655e-06 2.0055954219264094e-06 9.1349387215111655e-06 -0.99970829465608424 0.00030345171592921494 -1.8467475158420563e-06 3.3265784861015454e-06 -1.8467475158420563e-06 -0.19987524034437992 -8.8463443669589935e-06 3.3265784861015454e-06 -8.8463443669589935e-06 -0.99971848554459153 0.00030002998622718184 -6.5085926311589647e-07 -1.1945028078859731e-05 -6.5085926311589647e-07 -0.19986900737500343 -1.6285752237596788e-05 -1.1945028078859731e-05 -1.6285752237596788e-05 -0.9996829735559557 0.00031549511383807644 3.1727022034126327e-06 1.6092894313157174e-06 3.1727022034126327e-06 -0.19986098804098229 -8.1937170010850092e-06 1.6092894313157174e-06 -8.1937170010850092e-06 -0.99966588130164713 0.00029849134374232422 -2.3535664285867736e-06 -1.0458580307348697e-06 -2.3535664285867736e-06 -0.19987757289576619 -2.7887234352874657e-06 -1.0458580307348697e-06 -2.7887234352874657e-06 -0.99969968246943708 0.00029217719528462638 -3.99937145054818e-06 -9.8726781206440184e-06 -3.99937145054818e-06 -0.19988123404059799 -2.693785836505036e-06 -9.8726781206440184e-06 -2.693785836505036e-06 -0.99971537109729069 0.00034211647665793876 3.523549587191569e-07 -2.8239519163975046e-05 3.523549587191569e-07 -0.1998616711045802 2.5690308164127984e-07 -2.8239519163975046e-05 2.5690308164127984e-07 -0.9996826225226767 0.00034865948395759738 1.1849683330967327e-06 -1.2990183821337542e-05 1.1849683330967327e-06 -0.19985405376041793 -1.6332379392663965e-06 -1.2990183821337542e-05 -1.6332379392663965e-06 -0.99964970510260931 0.00031655478408798565 -3.5499712768534182e-06 -1.5240584064213358e-05 -3.5499712768534182e-06 -0.19986424627638083 -1.166759494075631e-06 -1.5240584064213358e-05 -1.166759494075631e-06 -0.99966534189588385 0.00030537143904979525 -4.387658559096929e-07 -5.9596339072598425e-06 -4.387658559096929e-07 -0.19987295340589833 -6.1551033066487015e-06 -5.9596339072598425e-06 -6.1551033066487015e-06 -0.99968877784916943 0.00034159625188833267 4.7678668042636229e-07 -7.9312048517632405e-06 4.7678668042636229e-07 -0.19985737437627465 -4.2212091652671369e-07 -7.9312048517632405e-06 -4.2212091652671369e-07 -0.99966013509251961 0.00030516651276865647 -1.092044580675022e-07 -8.5277015417495328e-06 -1.092044580675022e-07 -0.1998783221186762 -2.2764396290508859e-06 -8.5277015417495328e-06 -2.2764396290508859e-06 -0.99971015858281664 0.00031593024307990936 -4.212049083758025e-06 -1.8915841427380453e-05 -4.212049083758025e-06 -0.19987057453205676 2.3581701157071588e-06 -1.8915841427380453e-05 2.3581701157071588e-06 -0.99969463976624962 0.00035497639357275068 -1.8723142702576557e-06 -1.0480797453027435e-05 -1.8723142702576557e-06 -0.19985460105718161 7.9431789878903203e-07 -1.0480797453027435e-05 7.9431789878903203e-07 -0.99965657129615004 0.00037147927081894114 9.1393723288510306e-07 -1.3443160258086451e-05 9.1393723288510306e-07 -0.1998520952650823 6.119610632682182e-07 -1.3443160258086451e-05 6.119610632682182e-07 -0.99965761655493157 0.00031097876055183327 -5.5863974368926093e-06 -2.2876855613862546e-05 -5.5863974368926093e-06 -0.19987182579993182 -1.7896379422843722e-07 -2.2876855613862546e-05 -1.7896379422843722e-07 -0.99970359210966919 0.00034081666376648001 -2.8680236759090776e-06 -2.7238813962826569e-05 -2.8680236759090776e-06 -0.19986261674692102 7.6424254447093887e-07 -2.7238813962826569e-05 7.6424254447093887e-07 -0.99968338545619462 0.00032564347785496439 5.2070799064444511e-06 -1.9896371874002228e-05 5.2070799064444511e-06 -0.19987079713638445 -5.9600237704571235e-06 -1.9896371874002228e-05 -5.9600237704571235e-06 -0.99970469421848374 0.00033162353252191856 7.3187777583124371e-07 -2.553712796114771e-05 7.3187777583124371e-07 -0.19986594447411782 2.5561506178384263e-07 -2.553712796114771e-05 2.5561506178384263e-07 -0.99968623970012205 0.00032801801208864889 3.8407815818606419e-06 -7.8054921461290228e-06 3.8407815818606419e-06 -0.19986044165962819 1.5848151402320099e-07 -7.8054921461290228e-06 1.5848151402320099e-07 -0.99965558673841959 0.00032670633078840661 5.3619617660722367e-06 -1.2088476946836568e-05 5.3619617660722367e-06 -0.19986291319904453 1.3236341732669743e-06 -1.2088476946836568e-05 1.3236341732669743e-06 -0.99966754131461266 0.00031296345461517827 -2.4117859115601596e-06 1.7288709696075847e-05 -2.4117859115601596e-06 -0.19986807533867967 4.1860536899367554e-06 1.7288709696075847e-05 4.1860536899367554e-06 -0.99968078950914196 0.00034550595591353872 4.8519732306965211e-07 -9.6043019117697526e-06 4.8519732306965211e-07 -0.19985892855125065 2.4380858668071603e-07 -9.6043019117697526e-06 2.4380858668071603e-07 -0.99966248733031438 0.00030548834202154262 8.4444791592493052e-07 9.4502654665873376e-06 8.4444791592493052e-07 -0.19987185638604096 1.4836121297046034e-05 9.4502654665873376e-06 1.4836121297046034e-05 -0.99968958759349469 0.00034222924895574436 -6.3505188408588916e-07 -7.1378618766715363e-06 -6.3505188408588916e-07 -0.19985902596193983 2.5528105704539228e-06 -7.1378618766715363e-06 2.5528105704539228e-06 -0.99966567416921681 0.00030359544213299366 -4.2855683275257475e-06 -4.0576839138162235e-06 -4.2855683275257475e-06 -0.19987117011123984 -1.9446744562667817e-05 -4.0576839138162235e-06 -1.9446744562667817e-05 -0.99969721810904366 0.0002924389335708516 1.7503110407423755e-07 -1.8381592024163673e-05 1.7503110407423755e-07 -0.19987788419432886 3.0100030218305207e-07 -1.8381592024163673e-05 3.0100030218305207e-07 -0.99971308907229561 0.00035059693250283352 2.2231724272977505e-07 -7.3144862410703414e-07 2.2231724272977505e-07 -0.19985339698620053 -1.3529354780897367e-06 -7.3144862410703414e-07 -1.3529354780897367e-06 -0.9996531275651962 0.00030353929651838474 4.2308980406462659e-07 1.168918296509382e-05 4.2308980406462659e-07 -0.19987567031759768 9.9449353754231315e-06 1.168918296509382e-05 9.9449353754231315e-06 -0.99970127542924248 0.00018696719034665132 8.7707716062780145e-06 2.2362524906172077e-05 8.7707716062780145e-06 -0.19991209258778164 1.8013433180974481e-05 2.2362524906172077e-05 1.8013433180974481e-05 -0.99979775296891049 0.00020941499009829306 1.0571130017889471e-05 -1.2050042657252291e-05 1.0571130017889471e-05 -0.19990505646953841 -2.6308654702544843e-06 -1.2050042657252291e-05 -2.6308654702544843e-06 -0.99976693748489465 0.00025846869527249017 1.2904654830282191e-06 5.1547837693552423e-06 1.2904654830282191e-06 -0.19988917416227425 -2.1654903233914169e-06 5.1547837693552423e-06 -2.1654903233914169e-06 -0.99973602841539977 0.00022673134710898823 9.3135507678142535e-07 9.3031690617113624e-06 9.3135507678142535e-07 -0.19989417040777335 3.6651679129115241e-06 9.3031690617113624e-06 3.6651679129115241e-06 -0.99972217577711997 0.00024295932332321635 6.733426843426691e-07 -1.6054424753109142e-05 6.733426843426691e-07 -0.1998965633929142 -1.622089702779661e-06 -1.6054424753109142e-05 -1.622089702779661e-06 -0.99975786178670922 0.00020769284088392737 1.5134052399148533e-07 -1.9991092689741752e-05 1.5134052399148533e-07 -0.19990836712336291 -6.7329712246377849e-06 -1.9991092689741752e-05 -6.7329712246377849e-06 -0.9997746678883439 0.00018961226736549652 -2.0781763089234532e-05 -3.2967061601163472e-06 -2.0781763089234532e-05 -0.19990823778950678 4.5827917502516691e-06 -3.2967061601163472e-06 4.5827917502516691e-06 -0.99977576221487352 0.00026105174429558176 -4.6377418662280515e-06 2.0208820478174827e-06 -4.6377418662280515e-06 -0.19988657746805813 7.3442732147650882e-06 2.0208820478174827e-06 7.3442732147650882e-06 -0.99971414588352614 0.00017033045269924246 -9.3552779762228634e-06 1.0519603209330208e-05 -9.3552779762228634e-06 -0.19991680516422927 -1.6882514908833635e-05 1.0519603209330208e-05 -1.6882514908833635e-05 -0.99978613413354744 0.00026183364306653356 3.6880685030334151e-06 2.9919203089082341e-06 3.6880685030334151e-06 -0.19988544478982895 -7.7891470199431213e-06 2.9919203089082341e-06 -7.7891470199431213e-06 -0.99972754971606159 0.00017984026796225017 3.4178513424982106e-06 -1.0599732081687106e-06 3.4178513424982106e-06 -0.19991975646514634 -9.4063474066118749e-06 -1.0599732081687106e-06 -9.4063474066118749e-06 -0.99980291757428286 0.0001698892065132851 -2.3432271743619748e-06 1.1602589383476165e-05 -2.3432271743619748e-06 -0.19992311451817618 2.176468318578664e-06 1.1602589383476165e-05 2.176468318578664e-06 -0.99981805725701955 0.00026989871760130235 -1.5783771991590643e-06 -3.5358272963689069e-05 -1.5783771991590643e-06 -0.19988687469812039 -1.3859971813856564e-06 -3.5358272963689069e-05 -1.3859971813856564e-06 -0.99973432049992361 0.00027279254436007871 -5.7121202092361289e-07 -5.0533280917825635e-06 -5.7121202092361289e-07 -0.19988289170565732 6.2684598600704078e-07 -5.0533280917825635e-06 6.2684598600704078e-07 -0.99971239830829273 0.00027092970957931506 -7.4751954339094092e-06 -1.1950785656252016e-05 -7.4751954339094092e-06 -0.19988426295362818 -1.8895242079874919e-06 -1.1950785656252016e-05 -1.8895242079874919e-06 -0.99971946175611814 0.00023729249401699404 2.8177251951953645e-06 -3.6936091399264459e-05 2.8177251951953645e-06 -0.19989307858260086 1.9037753301309746e-05 -3.6936091399264459e-05 1.9037753301309746e-05 -0.99973397219647486 0.00020980048439017684 -6.3942934902929174e-06 -4.1912465054028125e-05 -6.3942934902929174e-06 -0.19990608677531491 2.1572547741488535e-06 -4.1912465054028125e-05 2.1572547741488535e-06 -0.99977663530255456 0.0002050345218749805 6.5894247891437398e-06 -4.6268265525561958e-06 6.5894247891437398e-06 -0.19991250876294753 2.7366958253172147e-06 -4.6268265525561958e-06 2.7366958253172147e-06 -0.99979962293585989 0.00027565428133201342 2.2858003077976293e-05 -1.0617467174976747e-05 2.2858003077976293e-05 -0.19988053557438462 6.1950314609315882e-06 -1.0617467174976747e-05 6.1950314609315882e-06 -0.99971484831681634 0.00022845930995130104 3.2364395187453922e-07 -3.7294751880981303e-05 3.2364395187453922e-07 -0.19990346020777738 2.5956262443838085e-06 -3.7294751880981303e-05 2.5956262443838085e-06 -0.99977131079282455 0.00019245403522952231 -4.378858396894133e-06 1.0269723063838221e-05 -4.378858396894133e-06 -0.19991158564759795 5.7876137037060627e-07 1.0269723063838221e-05 5.7876137037060627e-07 -0.99978207781893225 0.00020936110847280531 -1.3960653414957536e-06 -4.2667980001853678e-05 -1.3960653414957536e-06 -0.19990548651941259 -5.4032884210519772e-06 -4.2667980001853678e-05 -5.4032884210519772e-06 -0.99976811652462017 0.00021182849502143775 9.7799947347998771e-06 -2.856352276492391e-05 9.7799947347998771e-06 -0.19990293039044271 -2.5965245474823817e-06 -2.856352276492391e-05 -2.5965245474823817e-06 -0.99975899804579216 0.00016741208227283311 -5.3215711542358438e-06 -8.0296656347275674e-06 -5.3215711542358438e-06 -0.19992428600201301 -1.1613032492793773e-06 -8.0296656347275674e-06 -1.1613032492793773e-06 -0.99982062758357126 0.00026754974745746285 -2.826746922480616e-06 -1.7047462733378593e-05 -2.826746922480616e-06 -0.19988734743115774 -4.0061932428114844e-06 -1.7047462733378593e-05 -4.0061932428114844e-06 -0.9997215297757106 0.00016872320333005675 -4.8514040900350096e-06 -1.5370709636197688e-05 -4.8514040900350096e-06 -0.19992188829624935 9.1936447337015448e-08 -1.5370709636197688e-05 9.1936447337015448e-08 -0.99980914374148599 0.00023940210061759726 -7.9999990297500886e-07 -1.9898013922381441e-05 -7.9999990297500886e-07 -0.19989190686805786 -3.0871289417588876e-06 -1.9898013922381441e-05 -3.0871289417588876e-06 -0.99972829292603049 0.00025125800456587966 -6.9645113832726179e-07 -3.496813586600922e-05 -6.9645113832726179e-07 -0.19989381870061801 -2.1327592063524747e-06 -3.496813586600922e-05 -2.1327592063524747e-06 -0.99974850642688984 0.00026760244415929835 1.6456569604406366e-07 -1.354932757791083e-05 1.6456569604406366e-07 -0.19988449586137313 -1.9336980797701742e-06 -1.354932757791083e-05 -1.9336980797701742e-06 -0.9997180715685916 0.00017646403217089213 4.2800909108773645e-06 -4.0078469000226491e-06 4.2800909108773645e-06 -0.19991568348886399 7.1076571186434734e-06 -4.0078469000226491e-06 7.1076571186434734e-06 -0.99978684700048814 0.0002688285385996636 -1.1140237513178027e-06 -2.019092579563786e-05 -1.1140237513178027e-06 -0.19988666807066691 -4.2848403997708395e-06 -2.019092579563786e-05 -4.2848403997708395e-06 -0.99972098980819712 0.00023129480911820988 -2.8337580643701163e-06 7.7772248591179149e-07 -2.8337580643701163e-06 -0.19989991430684828 -3.5474782525968251e-06 7.7772248591179149e-07 -3.5474782525968251e-06 -0.99975081724607917 0.00019422903441786155 7.379199578635187e-06 -8.4551939660282294e-06 7.379199578635187e-06 -0.19991054272643122 -2.0190828111943393e-06 -8.4551939660282294e-06 -2.0190828111943393e-06 -0.99976267834815824 0.00018947899530480372 6.37169812732893e-06 -1.7208240958466181e-05 6.37169812732893e-06 -0.19991394145997066 -3.0127917457489772e-06 -1.7208240958466181e-05 -3.0127917457489772e-06 -0.9997742053264711 0.00023744892862206934 -4.8974240472064139e-06 -9.39243297864642e-06 -4.8974240472064139e-06 -0.19989478483195686 -2.818492270295625e-06 -9.39243297864642e-06 -2.818492270295625e-06 -0.99972875996672816 0.00018998822448104691 2.375824203765318e-06 -1.7429793748802158e-05 2.375824203765318e-06 -0.19991080183005333 2.4187459762570196e-06 -1.7429793748802158e-05 2.4187459762570196e-06 -0.99977175072161462 0.00023849732719968819 1.974918767606276e-06 -1.622990580035788e-05 1.974918767606276e-06 -0.19989211495017259 -3.5675865680561591e-06 -1.622990580035788e-05 -3.5675865680561591e-06 -0.99972866052627829 0.00027581145217313698 -5.8974299828742576e-06 1.7933944438319548e-06 -5.8974299828742576e-06 -0.19987837959423058 -1.0457794205422908e-05 1.7933944438319548e-06 -1.0457794205422908e-05 -0.9997036982483446 0.00022135229179548466 -4.9966868719667978e-06 2.8043917701374584e-06 -4.9966868719667978e-06 -0.19989645553457031 -7.7840777576554733e-06 2.8043917701374584e-06 -7.7840777576554733e-06 -0.99973784719290271 0.00022171295631004395 -7.626592608837291e-07 3.0867439390347418e-06 -7.626592608837291e-07 -0.19989942881212353 -1.2286956269313976e-05 3.0867439390347418e-06 -1.2286956269313976e-05 -0.99974044800287398 0.0001840783279324909 -3.4627944426222406e-06 1.3377148216694063e-05 -3.4627944426222406e-06 -0.19991195104475626 -5.0789756209669907e-06 1.3377148216694063e-05 -5.0789756209669907e-06 -0.99977080042945232 0.00022156097497645755 4.3057443434689587e-06 -2.0041590583903803e-06 4.3057443434689587e-06 -0.19989928453721914 -9.8152011145675892e-06 -2.0041590583903803e-06 -9.8152011145675892e-06 -0.99974968679649712 0.00017330578354224357 3.9068313999856411e-06 -2.2376745575258816e-05 3.9068313999856411e-06 -0.19991847878583444 -7.7386370617715805e-06 -2.2376745575258816e-05 -7.7386370617715805e-06 -0.99978217299897609 0.00013377123810268121 -3.2499870709483543e-06 2.712763838230714e-06 -3.2499870709483543e-06 -0.19993734501129801 9.734417399376305e-07 2.712763838230714e-06 9.734417399376305e-07 -0.99982595564443899 0.00012721727077927292 -4.7155070343705387e-06 -4.520203259208988e-06 -4.7155070343705387e-06 -0.19994301175442328 -3.3409874657386318e-06 -4.520203259208988e-06 -3.3409874657386318e-06 -0.99984155592697621 6.6301528947456528e-05 1.4278455899671429e-06 -4.0223876959233351e-06 1.4278455899671429e-06 -0.199954822806758 1.5460952763057811e-06 -4.0223876959233351e-06 1.5460952763057811e-06 -0.99984399901676946 0.00013310419038453647 3.8776470315900372e-06 -1.1206781237393937e-05 3.8776470315900372e-06 -0.19993326042460335 -1.7365204054653471e-05 -1.1206781237393937e-05 -1.7365204054653471e-05 -0.99980629114722608 0.00014168782735221651 6.3273471201057142e-06 1.0707223430848832e-05 6.3273471201057142e-06 -0.19992225565941654 -7.7764463987192586e-06 1.0707223430848832e-05 -7.7764463987192586e-06 -0.99977105583680326 0.00013074459649364822 3.4824116967771565e-06 1.837747452643983e-05 3.4824116967771565e-06 -0.19993533762790872 3.6622968757074854e-06 1.837747452643983e-05 3.6622968757074854e-06 -0.99982326316767967 0.00013605445657363657 -1.7167733269616558e-06 1.5120617433458938e-05 -1.7167733269616558e-06 -0.19993318422031553 8.3170273109112181e-06 1.5120617433458938e-05 8.3170273109112181e-06 -0.99981780906907847 6.1911927540014844e-05 -6.7498847495677179e-07 -2.6624841270028732e-06 -6.7498847495677179e-07 -0.19995648767302154 -2.0697458826338111e-06 -2.6624841270028732e-06 -2.0697458826338111e-06 -0.99987625615751607 6.5148628232522543e-05 -2.904664053923015e-06 -5.4337663257242319e-06 -2.904664053923015e-06 -0.19995432634542631 4.1342037585545555e-06 -5.4337663257242319e-06 4.1342037585545555e-06 -0.99987169423821887 5.4033619542301348e-05 6.1289349874915822e-06 -6.6764268688290773e-06 6.1289349874915822e-06 -0.19995585087771472 -7.068963386314131e-06 -6.6764268688290773e-06 -7.068963386314131e-06 -0.99986409598193049 6.1455100232837845e-05 -8.0628759282526346e-07 -7.6787995252070029e-06 -8.0628759282526346e-07 -0.19995471651278035 -7.6387326797267008e-08 -7.6787995252070029e-06 -7.6387326797267008e-08 -0.99986860135722266 5.9923249340593232e-05 9.2914951711495939e-09 -1.0945544714591193e-05 9.2914951711495939e-09 -0.19996043612095743 -2.7768845817510712e-06 -1.0945544714591193e-05 -2.7768845817510712e-06 -0.99985947087981308 5.2258603212562704e-05 1.0099249546231752e-06 -4.9550906145981097e-06 1.0099249546231752e-06 -0.19995663217882337 3.3135320375160792e-06 -4.9550906145981097e-06 3.3135320375160792e-06 -0.99985165751402116 5.0213533635063616e-05 -2.3551196524751387e-06 -6.479693745626638e-06 -2.3551196524751387e-06 -0.19995940603607479 -3.680933906879873e-06 -6.479693745626638e-06 -3.680933906879873e-06 -0.999862643674573 4.3559700360674831e-05 -4.1533566990901976e-06 -7.8533200043608233e-06 -4.1533566990901976e-06 -0.19995603857022959 -4.3910605596053642e-08 -7.8533200043608233e-06 -4.3910605596053642e-08 -0.99985842698715177 4.4946030785446308e-05 -2.6076627961970124e-06 -2.1206180127758697e-06 -2.6076627961970124e-06 -0.19995657900926586 -3.9927448102528389e-06 -2.1206180127758697e-06 -3.9927448102528389e-06 -0.99986903988551712 6.0449461095402057e-05 -3.4309524301921997e-06 6.0560831360525916e-06 -3.4309524301921997e-06 -0.19995050300612066 -1.5550262035575809e-05 6.0560831360525916e-06 -1.5550262035575809e-05 -0.99983082075641094 4.1336879106207425e-05 -6.9963850313345933e-06 -5.1903488547111465e-06 -6.9963850313345933e-06 -0.19995786858210532 2.0824729536905728e-06 -5.1903488547111465e-06 2.0824729536905728e-06 -0.99984947448341888 4.0315224700493424e-05 -1.1176345604470717e-05 -9.8016842025594464e-06 -1.1176345604470717e-05 -0.19996006668316901 2.0317856126716993e-06 -9.8016842025594464e-06 2.0317856126716993e-06 -0.99987903922416388 4.7899546986585051e-05 -7.9775313061884641e-06 -5.8974660792909805e-06 -7.9775313061884641e-06 -0.19995715750250476 2.5320188870303628e-06 -5.8974660792909805e-06 2.5320188870303628e-06 -0.99987856450947343 0.00014692028798697632 1.3128839809089804e-07 -9.0939690868818701e-06 1.3128839809089804e-07 -0.19992951834772479 -2.286198220180502e-06 -9.0939690868818701e-06 -2.286198220180502e-06 -0.99981749817130494 7.943512312272305e-05 -1.1994956432204944e-06 -1.6716116075066179e-05 -1.1994956432204944e-06 -0.19994511381376809 -2.3962940370880759e-06 -1.6716116075066179e-05 -2.3962940370880759e-06 -0.99983548337743666 6.8454749794749636e-05 3.146858044595514e-05 -1.96662414977955e-05 3.146858044595514e-05 -0.19993239285682443 2.6747639449986593e-06 -1.96662414977955e-05 2.6747639449986593e-06 -0.99983592885305972 9.1818100846130513e-05 4.6115197951686143e-06 -1.3567597863417546e-05 4.6115197951686143e-06 -0.19994587243750672 -7.5003735942047456e-06 -1.3567597863417546e-05 -7.5003735942047456e-06 -0.99985077749496787 0.00013841886440968398 -1.5164332631441469e-06 -3.1574622420649234e-05 -1.5164332631441469e-06 -0.19993404710997392 -1.4346976521251165e-06 -3.1574622420649234e-05 -1.4346976521251165e-06 -0.99983182945910132 4.3350937689312641e-05 -1.064317047367614e-05 -2.2655148830263983e-06 -1.064317047367614e-05 -0.19995465423609732 -8.5324184445623175e-07 -2.2655148830263983e-06 -8.5324184445623175e-07 -0.99986598798161963 2.4339241742943329e-05 -7.2037221064533283e-06 -1.6461392068789493e-05 -7.2037221064533283e-06 -0.19996637036656789 5.6780627812891282e-06 -1.6461392068789493e-05 5.6780627812891282e-06 -0.99989896215606389 7.6175547694214141e-05 6.7831409400224423e-06 -2.7230259223021136e-05 6.7831409400224423e-06 -0.19995675575447847 -1.4624068238600074e-06 -2.7230259223021136e-05 -1.4624068238600074e-06 -0.99988476263921777 7.9475566585052171e-05 -2.2405405001198928e-06 -2.6197086637980149e-05 -2.2405405001198928e-06 -0.1999634052429049 -1.0552335862890061e-06 -2.6197086637980149e-05 -1.0552335862890061e-06 -0.9998854538904931 7.7150910341938772e-05 3.4778268847028314e-07 -1.2194072529114752e-05 3.4778268847028314e-07 -0.19994630387690124 2.9153277155266263e-06 -1.2194072529114752e-05 2.9153277155266263e-06 -0.99983283138144941 8.9835168065155457e-05 -3.915660869422876e-06 -6.6361677618365089e-06 -3.915660869422876e-06 -0.19994508893337626 -1.4279257760430042e-05 -6.6361677618365089e-06 -1.4279257760430042e-05 -0.99985826156273161 9.5747715358585062e-05 2.1436758077957751e-06 -1.3078113493103505e-05 2.1436758077957751e-06 -0.1999480358481795 1.7624775181968033e-05 -1.3078113493103505e-05 1.7624775181968033e-05 -0.99984383017509759 9.9277219697047059e-05 -2.9704075064810561e-06 -1.3603365814573998e-05 -2.9704075064810561e-06 -0.1999360434272946 1.2429444764538999e-06 -1.3603365814573998e-05 1.2429444764538999e-06 -0.99981612934719588 8.6998699506735111e-05 1.2655227292668427e-06 -6.5592325882990465e-06 1.2655227292668427e-06 -0.19995624308345383 7.0689743469909416e-07 -6.5592325882990465e-06 7.0689743469909416e-07 -0.99988258696485888 9.1393736284278715e-05 -1.3354999042252108e-05 -9.68120282454632e-06 -1.3354999042252108e-05 -0.19994055619496945 1.2360538139133403e-06 -9.68120282454632e-06 1.2360538139133403e-06 -0.99982829596423517 0.00010003645784856241 5.082414612953776e-08 -2.8134738242873922e-05 5.082414612953776e-08 -0.19994500278066302 -3.8110792673559657e-06 -2.8134738242873922e-05 -3.8110792673559657e-06 -0.99983505627335467 0.00010208427849744961 -1.1162444103168593e-06 -2.9327989408106658e-05 -1.1162444103168593e-06 -0.19993689948772761 8.8135608944384103e-07 -2.9327989408106658e-05 8.8135608944384103e-07 -0.99982800386152026 6.6534297389231334e-05 4.8030333527335605e-06 -2.2962853915231562e-05 4.8030333527335605e-06 -0.19995731775706527 6.0874834717505877e-07 -2.2962853915231562e-05 6.0874834717505877e-07 -0.99988863439250908 6.596933737004762e-05 6.2919320451082118e-07 -2.485741298563493e-05 6.2919320451082118e-07 -0.19995911291803528 2.811714601924642e-06 -2.485741298563493e-05 2.811714601924642e-06 -0.99988579837071578 6.3319719307924904e-05 2.792138769646563e-06 -1.1582542603971735e-05 2.792138769646563e-06 -0.19995061298476063 -9.3722730117040687e-07 -1.1582542603971735e-05 -9.3722730117040687e-07 -0.99983851181484329 6.6986568988069983e-05 -9.0851026194320647e-08 -9.557780095537094e-06 -9.0851026194320647e-08 -0.199946966618678 -1.1639151702436124e-06 -9.557780095537094e-06 -1.1639151702436124e-06 -0.99984608681220166 6.4373013956287028e-05 1.2342309560493939e-06 -2.3488387210779393e-06 1.2342309560493939e-06 -0.19995244886220126 3.712652160703378e-07 -2.3488387210779393e-06 3.712652160703378e-07 -0.99987375202161377 6.0732393262763473e-05 4.1574823690955761e-06 -2.6301481975132823e-06 4.1574823690955761e-06 -0.19995763657296095 9.121042749207775e-07 -2.6301481975132823e-06 9.121042749207775e-07 -0.99987330151467768 0.00012893388637952308 -8.5928737098363194e-07 3.646789356714919e-06 -8.5928737098363194e-07 -0.19993104565248029 -1.5970848848412267e-06 3.646789356714919e-06 -1.5970848848412267e-06 -0.9998260585347406 0.00014033095760208544 -1.1664990263126892e-06 -1.2499065500770623e-05 -1.1664990263126892e-06 -0.19992589070253683 1.025745866023442e-06 -1.2499065500770623e-05 1.025745866023442e-06 -0.99981116683400406 6.1184197421182418e-05 -1.1615326531633249e-06 -2.895556082738171e-06 -1.1615326531633249e-06 -0.1999604819268847 -1.3589121304891094e-06 -2.895556082738171e-06 -1.3589121304891094e-06 -0.99987611519452579 0.00013745296866690682 3.6488291197998926e-06 4.4444053875135767e-06 3.6488291197998926e-06 -0.19992927774491853 6.8068836042498241e-06 4.4444053875135767e-06 6.8068836042498241e-06 -0.99981275771661482 7.0473875426219079e-05 -2.3541265437274046e-07 -1.3697427655168237e-05 -2.3541265437274046e-07 -0.199949307412778 2.0916225605509264e-06 -1.3697427655168237e-05 2.0916225605509264e-06 -0.99983844087111096 0.00013008929874530617 3.9024169065975176e-07 -5.9091105053033811e-08 3.9024169065975176e-07 -0.1999335731839138 2.2365079492320062e-06 -5.9091105053033811e-08 2.2365079492320062e-06 -0.99981827865323569 0.00012864704305182162 1.5291059572747747e-06 9.3319355884569568e-06 1.5291059572747747e-06 -0.19993226828156022 -9.6208178350171946e-06 9.3319355884569568e-06 -9.6208178350171946e-06 -0.99981457665026208 4.5234790283610329e-05 2.9325992654694886e-06 2.6374603946323794e-06 2.9325992654694886e-06 -0.19996218076956021 2.2129906060640304e-06 2.6374603946323794e-06 2.2129906060640304e-06 -0.99986775843353148 6.0135560401782324e-05 -4.3802887098000572e-06 -5.1593656893098824e-06 -4.3802887098000572e-06 -0.19995495959785503 7.573289694313636e-06 -5.1593656893098824e-06 7.573289694313636e-06 -0.99985559215259612 3.7867123692328835e-05 -7.2610837152255379e-07 5.702447231831288e-06 -7.2610837152255379e-07 -0.19996208653314887 2.4994990888587987e-06 5.702447231831288e-06 2.4994990888587987e-06 -0.99987035963694992 3.4493550839842513e-05 2.3489936977714571e-06 5.5538286245770951e-06 2.3489936977714571e-06 -0.19996185418620016 -5.9260782625525366e-07 5.5538286245770951e-06 -5.9260782625525366e-07 -0.99986663382922281 3.971805167712894e-05 3.6751997056302375e-07 1.0971796663828657e-06 3.6751997056302375e-07 -0.19996037416905835 4.612978917049749e-06 1.0971796663828657e-06 4.612978917049749e-06 -0.99985743265977367 8.9011408466149744e-05 -5.2715197522233066e-07 -1.7581243449527051e-05 -5.2715197522233066e-07 -0.1999431217071771 -1.4448025263444353e-05 -1.7581243449527051e-05 -1.4448025263444353e-05 -0.99981693971141206 4.3055022240057195e-05 3.3305226950113981e-06 9.9623945629832486e-07 3.3305226950113981e-06 -0.19995192970075804 3.32239931213707e-06 9.9623945629832486e-07 3.32239931213707e-06 -0.99985573268509531 4.9393588742202565e-05 -1.5160511186314725e-06 6.2267621693257169e-06 -1.5160511186314725e-06 -0.19995796890987477 1.5365798786137752e-06 6.2267621693257169e-06 1.5365798786137752e-06 -0.9998505017348287 9.1104561078070995e-05 7.6475987813261017e-06 -1.6398713632945205e-05 7.6475987813261017e-06 -0.1999406636495191 6.1733430384292021e-07 -1.6398713632945205e-05 6.1733430384292021e-07 -0.9998147823619058 0.00014246308153575971 -2.3546653428778191e-06 5.0458746669500555e-06 -2.3546653428778191e-06 -0.19992315883849299 4.8468945256697647e-06 5.0458746669500555e-06 4.8468945256697647e-06 -0.99981043138290415 6.5341044405115012e-05 6.7449862715399213e-07 -1.1573637652528834e-05 6.7449862715399213e-07 -0.19994284094687625 5.7622816020466705e-06 -1.1573637652528834e-05 5.7622816020466705e-06 -0.99983562753029243 6.7925428051673897e-05 -3.7607823906383786e-06 -6.385009559184418e-06 -3.7607823906383786e-06 -0.19994949431230602 4.0505018039276378e-06 -6.385009559184418e-06 4.0505018039276378e-06 -0.99982618680312862 5.9249034166208858e-05 -4.1440008914380198e-06 -2.998753935778975e-06 -4.1440008914380198e-06 -0.19996108822660014 2.9891269964776868e-06 -2.998753935778975e-06 2.9891269964776868e-06 -0.99987572219430088 4.6787939937753056e-05 -1.7510975153720169e-06 1.0162081945963246e-05 -1.7510975153720169e-06 -0.19995585284930353 -5.5499922015654938e-06 1.0162081945963246e-05 -5.5499922015654938e-06 -0.99986228712263248 4.5863496054745814e-05 -4.5257327117915619e-06 6.5247400366049606e-06 -4.5257327117915619e-06 -0.19995914841283058 -1.1633753891382144e-05 6.5247400366049606e-06 -1.1633753891382144e-05 -0.99985265850355232 4.2204876407062053e-05 -5.7685045908282591e-06 3.0108438991694609e-06 -5.7685045908282591e-06 -0.19996480343193396 5.5718091457324093e-07 3.0108438991694609e-06 5.5718091457324093e-07 -0.9998715254998376 0.00014692780706551667 4.0570210995151458e-06 -2.1258746958352503e-06 4.0570210995151458e-06 -0.19992694145687281 3.3260810067270441e-06 -2.1258746958352503e-06 3.3260810067270441e-06 -0.99982166255090177 0.00014220354235011667 4.809725401758579e-06 1.0220825009703884e-05 4.809725401758579e-06 -0.19992536499267921 -8.7100513564980164e-06 1.0220825009703884e-05 -8.7100513564980164e-06 -0.9997833358043724 8.6111437993252604e-05 -4.6050715526680408e-06 -1.7259933453639409e-05 -4.6050715526680408e-06 -0.19995410834136168 -3.7336589964187539e-07 -1.7259933453639409e-05 -3.7336589964187539e-07 -0.9998639840155128 8.4869846850493813e-05 -3.3323755783601891e-06 -1.9105115215634072e-05 -3.3323755783601891e-06 -0.19994991369280207 -1.0235176234815735e-06 -1.9105115215634072e-05 -1.0235176234815735e-06 -0.99984039772337074 8.9806205038883008e-05 -7.3986730845936873e-06 -1.0514628357050082e-05 -7.3986730845936873e-06 -0.19994391666308262 6.6928863878823464e-07 -1.0514628357050082e-05 6.6928863878823464e-07 -0.99983836644115276 8.2912357974807005e-05 -4.6679843013784879e-06 -1.6822220369389074e-05 -4.6679843013784879e-06 -0.19994826359747711 3.3200839243130442e-06 -1.6822220369389074e-05 3.3200839243130442e-06 -0.99984446387137083 0.00013493694741742446 1.431801453778002e-06 1.3912722152936013e-05 1.431801453778002e-06 -0.19993089223977814 1.1883295856218723e-05 1.3912722152936013e-05 1.1883295856218723e-05 -0.99981013329855317 4.3010067517688932e-05 8.8623683079517444e-06 -8.4948277287999474e-06 8.8623683079517444e-06 -0.19995037705396937 -4.3687125323987885e-06 -8.4948277287999474e-06 -4.3687125323987885e-06 -0.99984731324961318 3.5563542098271395e-05 9.0617231851733687e-06 -1.4881805152466843e-05 9.0617231851733687e-06 -0.19995577849854468 -6.6240949294638085e-06 -1.4881805152466843e-05 -6.6240949294638085e-06 -0.99987134360271646 6.2462661065328481e-05 2.6493925333930414e-06 8.0160517586167297e-06 2.6493925333930414e-06 -0.19994631354071443 9.9094121811866018e-06 8.0160517586167297e-06 9.9094121811866018e-06 -0.99983687079181804 4.0272359880711857e-05 7.7400084442207242e-06 -6.9392664582877827e-06 7.7400084442207242e-06 -0.1999517473058646 -4.0562945209932089e-06 -6.9392664582877827e-06 -4.0562945209932089e-06 -0.99986226332785932 4.0182525962013488e-05 -2.9180919676136172e-06 4.7209689152226843e-06 -2.9180919676136172e-06 -0.19995788848992288 9.4670303737645075e-07 4.7209689152226843e-06 9.4670303737645075e-07 -0.99987117605343556 5.590155309298428e-05 2.7067341030492982e-06 -2.0978100157420153e-06 2.7067341030492982e-06 -0.19995318968203982 -3.6196626971226113e-07 -2.0978100157420153e-06 -3.6196626971226113e-07 -0.99986408933983162 0.00014643161547182521 -4.2630034990236129e-07 -1.2241245302565595e-05 -4.2630034990236129e-07 -0.19992309401524697 -5.8341081310411952e-06 -1.2241245302565595e-05 -5.8341081310411952e-06 -0.99980747780991108 0.0001294262483587153 -4.8762757942362361e-06 6.8277775753714779e-06 -4.8762757942362361e-06 -0.19993294269466366 6.116280165530424e-06 6.8277775753714779e-06 6.116280165530424e-06 -0.99982813924026914 0.0002272560238230515 3.1673325208627098e-06 -1.388856288225826e-05 3.1673325208627098e-06 -0.19990261343818214 -4.172490645371757e-07 -1.388856288225826e-05 -4.172490645371757e-07 -0.99977352419371512 0.00015239822655230273 6.2898831348207391e-06 -4.8084751983548668e-06 6.2898831348207391e-06 -0.19992130906090699 -5.2730644206633315e-07 -4.8084751983548668e-06 -5.2730644206633315e-07 -0.99979156461772933 0.00018220441728951852 3.7034386931842572e-06 9.998172795296265e-06 3.7034386931842572e-06 -0.19991498997999441 1.4448206032955997e-06 9.998172795296265e-06 1.4448206032955997e-06 -0.99977554705745308 0.00027671904278150721 5.2141125250071974e-06 1.0315132096721852e-05 5.2141125250071974e-06 -0.19987768541768722 8.7937729125437735e-06 1.0315132096721852e-05 8.7937729125437735e-06 -0.9997042331418966 0.00022187334603707886 -5.6588211741540997e-06 -1.0399441499144031e-06 -5.6588211741540997e-06 -0.19990245726367639 4.296165554919621e-06 -1.0399441499144031e-06 4.296165554919621e-06 -0.99976037902364201 0.00024119901407317795 -1.8577400333969364e-06 -1.305551860731562e-05 -1.8577400333969364e-06 -0.19989478396350063 -9.1145154740614062e-07 -1.305551860731562e-05 -9.1145154740614062e-07 -0.99974422745638658 0.00024414504473682652 3.6210799897653249e-06 -8.1771575064504276e-06 3.6210799897653249e-06 -0.19988973046789926 1.6692581233934689e-07 -8.1771575064504276e-06 1.6692581233934689e-07 -0.99971665310214664 0.00024050267959410676 3.8211676214466016e-06 -7.4133167726753157e-06 3.8211676214466016e-06 -0.19989356151114487 2.7122087120634575e-06 -7.4133167726753157e-06 2.7122087120634575e-06 -0.99973218135466646 0.00022671587119413306 -9.9105965340318958e-07 3.3826942004602616e-06 -9.9105965340318958e-07 -0.19989904786335216 1.2032584531918022e-05 3.3826942004602616e-06 1.2032584531918022e-05 -0.99973981495472397 0.00022854436924280019 2.9051882996383119e-06 2.4966226079383646e-06 2.9051882996383119e-06 -0.1998967721416598 6.5416363486100267e-07 2.4966226079383646e-06 6.5416363486100267e-07 -0.99973314763405952 0.00017051089377945455 -1.6273992051130097e-06 3.1879403425087022e-06 -1.6273992051130097e-06 -0.19991841544007313 -2.2263680005685238e-06 3.1879403425087022e-06 -2.2263680005685238e-06 -0.9997866059105871 0.00022701495331463317 6.0191129878672138e-06 -1.3125750297826588e-05 6.0191129878672138e-06 -0.1999011803622352 -7.1330524605839329e-06 -1.3125750297826588e-05 -7.1330524605839329e-06 -0.99976531112193623 0.00017068095755667922 -5.2490074126571047e-06 3.1444120261987039e-06 -5.2490074126571047e-06 -0.19991734376211767 -9.7956866934040948e-07 3.1444120261987039e-06 -9.7956866934040948e-07 -0.99978630972745441 0.00025817755883261739 -3.6440651043540344e-06 1.7319592120715624e-06 -3.6440651043540344e-06 -0.19989074277799879 2.5654778454352041e-06 1.7319592120715624e-06 2.5654778454352041e-06 -0.99972721227539407 0.00025807878416783669 -2.2357638972781644e-06 2.6094904042213429e-06 -2.2357638972781644e-06 -0.19988748713192894 3.4543870092162976e-07 2.6094904042213429e-06 3.4543870092162976e-07 -0.99972974760492139 0.00020782379725356513 -1.8426197682047068e-06 -2.1950740752679172e-05 -1.8426197682047068e-06 -0.19990699900691777 1.1211760706322266e-05 -2.1950740752679172e-05 1.1211760706322266e-05 -0.99977805855360091 0.00023960993459452851 -8.6167637413625986e-07 -1.9935615671262674e-05 -8.6167637413625986e-07 -0.19989699819991258 1.7717695778296516e-06 -1.9935615671262674e-05 1.7717695778296516e-06 -0.99975822723019736 0.00021473510368860693 -1.1413066430975798e-05 -1.4223682876138288e-05 -1.1413066430975798e-05 -0.19990540769803258 6.0129051843160752e-06 -1.4223682876138288e-05 6.0129051843160752e-06 -0.99976688363320976 0.00022506711067032947 -2.3203300660219056e-06 7.9340341371221136e-06 -2.3203300660219056e-06 -0.1998928258169457 -8.3165999991966207e-07 7.9340341371221136e-06 -8.3165999991966207e-07 -0.99972371478976374 0.00025966329998972082 3.9504799881156576e-06 -8.3042497896215859e-07 3.9504799881156576e-06 -0.19988554542196468 -6.2628970722101609e-06 -8.3042497896215859e-07 -6.2628970722101609e-06 -0.99971881692876463 0.00016685340318123298 4.2842357331876114e-06 -1.6494815071107256e-06 4.2842357331876114e-06 -0.19992060837129444 4.9665421363033989e-06 -1.6494815071107256e-06 4.9665421363033989e-06 -0.99980354273702665 0.00023077575222940627 -1.4230462490930641e-06 -3.4094813123330958e-05 -1.4230462490930641e-06 -0.19990096801174528 -2.4245310439319212e-06 -3.4094813123330958e-05 -2.4245310439319212e-06 -0.99976492050567423 0.00020840738229233047 6.0539078112072057e-06 -4.0355587706986107e-05 6.0539078112072057e-06 -0.19990888003968171 -7.6647250046857351e-07 -4.0355587706986107e-05 -7.6647250046857351e-07 -0.99977293491162667 0.00024123459139996362 -1.5588054279646504e-06 -3.2084107001999207e-05 -1.5588054279646504e-06 -0.19989107292664293 -1.6219338753287182e-05 -3.2084107001999207e-05 -1.6219338753287182e-05 -0.99972278394467917 0.0002088199210342756 -5.5289040248519956e-06 -2.8683128792672541e-06 -5.5289040248519956e-06 -0.19991279104208962 2.6625969246074632e-07 -2.8683128792672541e-06 2.6625969246074632e-07 -0.99979819800217873 0.00024040149919177245 -1.6449430243308408e-06 -1.829059725780291e-05 -1.6449430243308408e-06 -0.19989026708095275 8.5959041801197955e-07 -1.829059725780291e-05 8.5959041801197955e-07 -0.99972503292810977 0.00024064709513743621 -1.1160375317530418e-06 -1.8369771241422139e-05 -1.1160375317530418e-06 -0.19989140957491563 -5.1009511130295504e-07 -1.8369771241422139e-05 -5.1009511130295504e-07 -0.99972736631545578 0.00015887627331045984 3.8551941974865526e-06 -1.6170996303799257e-05 3.8551941974865526e-06 -0.19992413546793603 -2.6889799507046064e-06 -1.6170996303799257e-05 -2.6889799507046064e-06 -0.9998090632827592 0.00015890394015542764 2.9644822669356224e-06 -1.5673075733690922e-05 2.9644822669356224e-06 -0.19991928382742929 -7.8229724970180214e-07 -1.5673075733690922e-05 -7.8229724970180214e-07 -0.99978486310315406 0.00025748675552594857 7.1262687439876375e-06 -2.0657459055981042e-05 7.1262687439876375e-06 -0.19988658656337435 2.5362354383884345e-06 -2.0657459055981042e-05 2.5362354383884345e-06 -0.9997213621722375 0.00020736886990083137 -8.2270486618789978e-06 -2.6426381331989823e-05 -8.2270486618789978e-06 -0.19990926140918042 3.0352879951678347e-06 -2.6426381331989823e-05 3.0352879951678347e-06 -0.99977774832091937 0.00022628753885218025 1.1089173037109256e-06 -1.0179163309309569e-05 1.1089173037109256e-06 -0.19990221420417792 -9.9256716452195137e-07 -1.0179163309309569e-05 -9.9256716452195137e-07 -0.99976729860717062 0.00023645912371936251 1.2292287305999628e-06 -1.9571695194064986e-05 1.2292287305999628e-06 -0.19989221219333764 2.8289433021203014e-06 -1.9571695194064986e-05 2.8289433021203014e-06 -0.99972677475066174 0.00020717670217340611 5.9203832331841938e-07 -4.2586180646009275e-05 5.9203832331841938e-07 -0.19990686460224405 8.1143320548870967e-07 -4.2586180646009275e-05 8.1143320548870967e-07 -0.99977151274799059 0.00024589665030683161 7.6780671886904634e-06 -1.3779312114325926e-05 7.6780671886904634e-06 -0.19989697725245875 -4.5765651527918116e-06 -1.3779312114325926e-05 -4.5765651527918116e-06 -0.99976315419180506 0.00025605860512512013 4.3658254338216584e-06 -1.8584352692696537e-05 4.3658254338216584e-06 -0.19988703188533158 9.8060929698551291e-07 -1.8584352692696537e-05 9.8060929698551291e-07 -0.99971503025559749 0.00024987670872878009 3.7078702100264196e-06 -2.5141270389550385e-05 3.7078702100264196e-06 -0.19989922687667983 5.6700188602043511e-06 -2.5141270389550385e-05 5.6700188602043511e-06 -0.99976836449203743 0.00015596848046492418 -1.1701324515679315e-06 -2.1808421195146366e-05 -1.1701324515679315e-06 -0.19992081276048693 2.3485328937145056e-06 -2.1808421195146366e-05 2.3485328937145056e-06 -0.99979098800686794 9.2243201270436614e-05 -7.1587207564838245e-06 -4.7235126820269202e-06 -7.1587207564838245e-06 -0.19994088197531401 -4.758082125036478e-07 -4.7235126820269202e-06 -4.758082125036478e-07 -0.99982887324922487 8.4562985760781861e-05 -6.4374734846020843e-06 -1.6499840252315323e-05 -6.4374734846020843e-06 -0.19994920875266761 -6.536069031559677e-07 -1.6499840252315323e-05 -6.536069031559677e-07 -0.99986345599022453 0.00015684600314785913 1.4137404757017737e-06 -1.8311269074477998e-05 1.4137404757017737e-06 -0.1999280015043019 3.8899173111506258e-06 -1.8311269074477998e-05 3.8899173111506258e-06 -0.99983230710513071 8.133179462415166e-05 -5.3050073439319955e-06 -1.3537911279559722e-05 -5.3050073439319955e-06 -0.1999466512604467 4.9060596922778643e-06 -1.3537911279559722e-05 4.9060596922778643e-06 -0.99985138465990198 4.2965645227120708e-05 5.6753900745552056e-06 -8.3018099531484424e-06 5.6753900745552056e-06 -0.19995088569985439 5.963302370792789e-07 -8.3018099531484424e-06 5.963302370792789e-07 -0.99986019772123902 4.6158289226272409e-05 9.273204469223319e-08 -7.2002475856036696e-06 9.273204469223319e-08 -0.19996187585226044 -3.5800843972699781e-06 -7.2002475856036696e-06 -3.5800843972699781e-06 -0.999903955146622 3.613618909686922e-05 5.6634425068083461e-06 -1.3922292198487174e-05 5.6634425068083461e-06 -0.19996111197558336 -7.0121695314728782e-06 -1.3922292198487174e-05 -7.0121695314728782e-06 -0.99989631344771301 4.592679576187475e-05 3.8362011807443931e-06 -9.0626742592081477e-06 3.8362011807443931e-06 -0.19995527720148459 -3.9875008169820703e-06 -9.0626742592081477e-06 -3.9875008169820703e-06 -0.99987966048799182 7.8435400157839119e-05 2.1254822272254224e-06 -2.3303034402233358e-05 2.1254822272254224e-06 -0.1999599375011954 -1.0326890624856588e-06 -2.3303034402233358e-05 -1.0326890624856588e-06 -0.99988558270351935 7.355831175426264e-05 -6.7048021057066517e-06 -2.4070933213993229e-05 -6.7048021057066517e-06 -0.19995566142691867 1.0230744517114587e-06 -2.4070933213993229e-05 1.0230744517114587e-06 -0.99988514643236659 9.347449798066676e-05 1.2624830833521193e-05 -1.3311871974897027e-05 1.2624830833521193e-05 -0.19994250079785669 2.1666198306014017e-06 -1.3311871974897027e-05 2.1666198306014017e-06 -0.99982869699362764 8.6665799591822967e-05 5.809320905860197e-07 -2.8624660023401916e-06 5.809320905860197e-07 -0.19995746770848244 -1.9329100916509745e-06 -2.8624660023401916e-06 -1.9329100916509745e-06 -0.99988160428033757 0.00010123818779428362 1.0902072275198934e-06 -1.2088354520212174e-05 1.0902072275198934e-06 -0.19993841700142168 8.4975690395339143e-07 -1.2088354520212174e-05 8.4975690395339143e-07 -0.999811926709268 9.2230698475359585e-05 1.125185588714538e-06 -1.2790413613184004e-05 1.125185588714538e-06 -0.19995280596099924 -3.5883279159154569e-07 -1.2790413613184004e-05 -3.5883279159154569e-07 -0.99986232346712467 9.4421972507197083e-05 -1.2164085400969581e-06 -9.1213189635785952e-06 -1.2164085400969581e-06 -0.19995202316640492 -1.8104559907028417e-05 -9.1213189635785952e-06 -1.8104559907028417e-05 -0.99984268571080448 8.9347221904845231e-05 9.2734943145959365e-06 -1.6789371932474095e-05 9.2734943145959365e-06 -0.19995003499867819 -5.134780422577645e-06 -1.6789371932474095e-05 -5.134780422577645e-06 -0.99985626964456109 9.1524812934673516e-05 2.6617477530846095e-06 -4.7725760950745322e-06 2.6617477530846095e-06 -0.19994684259840839 1.2032224942948311e-05 -4.7725760950745322e-06 1.2032224942948311e-05 -0.99985839300361667 6.1205809039954762e-05 3.4705378817160104e-07 -3.1211627055105495e-07 3.4705378817160104e-07 -0.19995816390578128 2.7464870857585311e-06 -3.1211627055105495e-07 2.7464870857585311e-06 -0.99987624303289735 6.4650001068977669e-05 -5.0330478196088158e-06 -2.1813927078562223e-05 -5.0330478196088158e-06 -0.1999555744182781 9.7924149289330131e-07 -2.1813927078562223e-05 9.7924149289330131e-07 -0.9998839786137308 0.0001164179145873856 1.6984614470911662e-05 -1.3862708331924267e-05 1.6984614470911662e-05 -0.1999405759692231 -8.7388805132260217e-06 -1.3862708331924267e-05 -8.7388805132260217e-06 -0.99984173010664357 0.00012051130681511868 -1.6854940651956539e-05 -5.625393216357466e-06 -1.6854940651956539e-05 -0.19995116659981454 -8.1170210382008889e-06 -5.625393216357466e-06 -8.1170210382008889e-06 -0.99988590006804845 5.2723107685004322e-05 -6.3076224361264561e-06 4.7641814686638639e-06 -6.3076224361264561e-06 -0.19996385354361923 3.7647100894488972e-06 4.7641814686638639e-06 3.7647100894488972e-06 -0.99990744871139636 8.2904324401805729e-05 1.2181155169694368e-06 -1.0382101130024246e-05 1.2181155169694368e-06 -0.19995956264417405 -1.7772363980483874e-07 -1.0382101130024246e-05 -1.7772363980483874e-07 -0.99989924706169397 0.00012650782998391286 -3.3573212195084961e-05 -1.3450368739009733e-05 -3.3573212195084961e-05 -0.19994037165960665 1.65478071192382e-05 -1.3450368739009733e-05 1.65478071192382e-05 -0.99984756403845609 0.00011084130441152418 2.0495543522958083e-06 -3.0523507854651744e-05 2.0495543522958083e-06 -0.19993852330348738 -2.4239069501552635e-06 -3.0523507854651744e-05 -2.4239069501552635e-06 -0.99982252146249806 6.8709967860680621e-05 -5.8591486947013121e-06 -1.0774652537737239e-05 -5.8591486947013121e-06 -0.19994979683814995 -3.8281289710395683e-06 -1.0774652537737239e-05 -3.8281289710395683e-06 -0.9998527865114224 9.978833579804558e-05 1.7423127172014712e-05 -2.3386948217740677e-05 1.7423127172014712e-05 -0.19995376659753994 5.3020429717776096e-06 -2.3386948217740677e-05 5.3020429717776096e-06 -0.99990543795672515 5.3320570083781327e-05 -1.0558798412064625e-05 -3.9293567634102189e-06 -1.0558798412064625e-05 -0.19996306605499015 4.2654677903097848e-06 -3.9293567634102189e-06 4.2654677903097848e-06 -0.99990792606925627 7.0447662381845078e-05 -1.1405190935958108e-05 -1.1717687792733855e-05 -1.1405190935958108e-05 -0.19995897381134875 2.8426464210307145e-06 -1.1717687792733855e-05 2.8426464210307145e-06 -0.9999101020674388 5.6901566286127192e-05 4.3343555477490119e-06 -2.0776190777116454e-05 4.3343555477490119e-06 -0.19996949048270485 -2.3160421183110458e-06 -2.0776190777116454e-05 -2.3160421183110458e-06 -0.99990806304289448 7.6650150950929863e-05 6.5748176842165308e-06 -1.1252260673000336e-05 6.5748176842165308e-06 -0.19996102006105954 -4.1147154816734144e-07 -1.1252260673000336e-05 -4.1147154816734144e-07 -0.99990069072658949 7.1363763303813887e-05 -1.4798207362502536e-06 -1.5138784089652191e-06 -1.4798207362502536e-06 -0.19995664323076306 -9.960584715140719e-06 -1.5138784089652191e-06 -9.960584715140719e-06 -0.99989789756686576 0.00021014197826213499 5.8829905763468049e-06 -3.131225928587611e-05 5.8829905763468049e-06 -0.19991574001626128 -1.3142290664625023e-06 -3.131225928587611e-05 -1.3142290664625023e-06 -0.99982176656668564 7.0450040572822559e-05 2.8520258049912208e-06 -9.36051683608774e-06 2.8520258049912208e-06 -0.19995157199817348 -3.681983801184785e-07 -9.36051683608774e-06 -3.681983801184785e-07 -0.99986128561734233 6.9880280915368687e-05 5.1688382225542945e-06 -7.790344745073341e-06 5.1688382225542945e-06 -0.1999575512299181 1.0097091831862137e-05 -7.790344745073341e-06 1.0097091831862137e-05 -0.99986319606239382 7.0797496693336681e-05 3.6983961100294265e-07 6.8201295511105542e-07 3.6983961100294265e-07 -0.19996269212257881 -2.3299085505357198e-07 6.8201295511105542e-07 -2.3299085505357198e-07 -0.99990251000873986 4.8202154519616514e-05 3.4869642588399665e-06 -5.2971759716413658e-06 3.4869642588399665e-06 -0.19996590659086044 2.6089538928131262e-06 -5.2971759716413658e-06 2.6089538928131262e-06 -0.99992732618588986 4.2608325496740207e-05 8.041419640253239e-06 -1.0256039992273536e-05 8.041419640253239e-06 -0.19996173991445898 -3.045028784121051e-06 -1.0256039992273536e-05 -3.045028784121051e-06 -0.99990713481067495 4.3558325772852236e-05 3.776310545223954e-06 -9.8035236202331788e-06 3.776310545223954e-06 -0.19995537148994447 4.3095638198042963e-06 -9.8035236202331788e-06 4.3095638198042963e-06 -0.99986947379180124 0.00015684384620696934 -1.311879560186756e-06 -1.3281166276080114e-05 -1.311879560186756e-06 -0.19993150300624984 -1.0153980887217529e-06 -1.3281166276080114e-05 -1.0153980887217529e-06 -0.99984402507187997 7.6743263502931924e-05 -7.8952646137081203e-06 -5.8038698443896308e-06 -7.8952646137081203e-06 -0.19995040661836483 1.7075309117764448e-06 -5.8038698443896308e-06 1.7075309117764448e-06 -0.99986117625159299 0.00023717409866141903 1.0236525800644981e-06 -1.9404756456009586e-05 1.0236525800644981e-06 -0.19989819118506247 -6.4007728289294796e-06 -1.9404756456009586e-05 -6.4007728289294796e-06 -0.99975855987170892 0.00020143483233736603 3.4287649558000634e-06 -4.2446233878085105e-05 3.4287649558000634e-06 -0.19991173138533447 -2.1870715872784885e-06 -4.2446233878085105e-05 -2.1870715872784885e-06 -0.99979378643484385 0.00016853724661058944 -2.2646136099923749e-06 -2.3920953214684459e-05 -2.2646136099923749e-06 -0.19992585522953377 3.2360896586869359e-06 -2.3920953214684459e-05 3.2360896586869359e-06 -0.99982354962924225 0.00025234184214228961 -1.6565026523295204e-06 -3.640805616478282e-05 -1.6565026523295204e-06 -0.19989861783665341 3.3062742862410843e-06 -3.640805616478282e-05 3.3062742862410843e-06 -0.9997754554381113 0.00021097035168660128 -4.890656887388642e-06 -1.9314237976741921e-06 -4.890656887388642e-06 -0.19991207398285682 3.2253865273057514e-07 -1.9314237976741921e-06 3.2253865273057514e-07 -0.99979228430945888 0.00025100975824676741 -4.5444252397534026e-07 -3.3457810487247386e-05 -4.5444252397534026e-07 -0.19988761767095753 -2.4245992847893305e-06 -3.3457810487247386e-05 -2.4245992847893305e-06 -0.99972247324561714 0.00018873227092575107 2.9351664601166112e-06 -2.2850618050851423e-05 2.9351664601166112e-06 -0.19992213111064538 -1.1970089704854692e-07 -2.2850618050851423e-05 -1.1970089704854692e-07 -0.99983264819323647 0.00024213493454783297 1.4349452780533802e-06 -1.0930365856642865e-05 1.4349452780533802e-06 -0.19989418929664104 8.8143170429155759e-08 -1.0930365856642865e-05 8.8143170429155759e-08 -0.99974368647837242 0.00025985461572319846 1.0383457742545263e-06 -3.7970993465474834e-05 1.0383457742545263e-06 -0.19988676422956819 -7.56132130685927e-07 -3.7970993465474834e-05 -7.56132130685927e-07 -0.9997232020272655 0.00022387069987073183 1.4962216128898016e-06 -8.5348435222426522e-06 1.4962216128898016e-06 -0.19990732745832029 -2.8147425232827317e-06 -8.5348435222426522e-06 -2.8147425232827317e-06 -0.99979080480177807 0.00024008762812866014 -5.5453068402842282e-06 -1.8660010588603115e-05 -5.5453068402842282e-06 -0.19989367977388417 1.5983622319803992e-05 -1.8660010588603115e-05 1.5983622319803992e-05 -0.99973312391208724 0.0002379739006372894 -2.08615842637627e-06 -4.0449556458321823e-05 -2.08615842637627e-06 -0.19990844432856825 -3.7946363995455812e-07 -4.0449556458321823e-05 -3.7946363995455812e-07 -0.99980379477505954 0.00025335833295725418 -2.4595907037523283e-06 -3.3683782924787131e-05 -2.4595907037523283e-06 -0.19988645526873483 -2.3355014673320795e-06 -3.3683782924787131e-05 -2.3355014673320795e-06 -0.9997217547747046 0.00021302792735999887 6.5245733977098874e-06 -7.3206649451318384e-06 6.5245733977098874e-06 -0.199911336716113 -1.4287998267858981e-06 -7.3206649451318384e-06 -1.4287998267858981e-06 -0.99978973565115692 0.00034905444299093702 -2.2752466809745137e-06 -4.9909602433867439e-05 -2.2752466809745137e-06 -0.19986363922261341 -9.3654536170717506e-07 -4.9909602433867439e-05 -9.3654536170717506e-07 -0.99970554226557029 0.00020622165008626903 2.1149775055121699e-05 -3.9311999152968902e-05 2.1149775055121699e-05 -0.19991054886407292 -1.5988866594263129e-05 -3.9311999152968902e-05 -1.5988866594263129e-05 -0.99978975165531547 0.00023571584762030473 -1.3633302592460176e-05 -1.4963018623470603e-05 -1.3633302592460176e-05 -0.19990230087310054 -6.0278055578066869e-06 -1.4963018623470603e-05 -6.0278055578066869e-06 -0.99977119967510297 0.00022760652903658363 3.3686672324445563e-05 -2.3426603148579694e-05 3.3686672324445563e-05 -0.19990142766040137 8.589607313869152e-06 -2.3426603148579694e-05 8.589607313869152e-06 -0.9997780684540174 0.0002819949870033478 1.3177274199509103e-06 -8.1661206305927436e-06 1.3177274199509103e-06 -0.19988765406600015 -3.2731115169326586e-06 -8.1661206305927436e-06 -3.2731115169326586e-06 -0.99975739241294626 0.00024577882672127682 -1.706203874459176e-05 -4.5284091043207297e-05 -1.706203874459176e-05 -0.19990668470372663 1.5705113317387998e-05 -4.5284091043207297e-05 1.5705113317387998e-05 -0.99979583332643207 0.0002374371926671115 5.2002472583060321e-06 -4.8946823216766688e-07 5.2002472583060321e-06 -0.19990054174872529 -5.7824323881350281e-06 -4.8946823216766688e-07 -5.7824323881350281e-06 -0.99977084626219215 0.00022682481676294941 -5.2573951642133656e-06 -1.6312898224679628e-05 -5.2573951642133656e-06 -0.19990862816353339 -4.5113692959120044e-06 -1.6312898224679628e-05 -4.5113692959120044e-06 -0.99982126085791379 0.00021490114520594794 7.4541724791140381e-06 -3.0719484254149165e-05 7.4541724791140381e-06 -0.19991411445443785 4.9700508235606122e-06 -3.0719484254149165e-05 4.9700508235606122e-06 -0.99981395860433775 0.00034422682037349439 8.8004666559879137e-06 -4.0987022219329816e-05 8.8004666559879137e-06 -0.19986679038581612 1.3767772344408513e-07 -4.0987022219329816e-05 1.3767772344408513e-07 -0.99970296243058465 0.00028732600111036621 -4.8835746890224863e-07 -3.4108540677646459e-05 -4.8835746890224863e-07 -0.19987970834471469 3.183142341489642e-06 -3.4108540677646459e-05 3.183142341489642e-06 -0.99971732166610616 0.00035112916266988314 -9.063528124204404e-06 -4.745990373766773e-05 -9.063528124204404e-06 -0.19986510663864554 2.3519416731954124e-06 -4.745990373766773e-05 2.3519416731954124e-06 -0.9997086220130833 0.00027874969785546266 7.3824976795158403e-06 -3.4872570537747283e-05 7.3824976795158403e-06 -0.19989292460005326 -1.1243023433138433e-05 -3.4872570537747283e-05 -1.1243023433138433e-05 -0.99973766694219046 0.00023262076893493244 -1.312271443252529e-05 -5.9641015344613635e-05 -1.312271443252529e-05 -0.19990947889271582 -2.0041125803338389e-06 -5.9641015344613635e-05 -2.0041125803338389e-06 -0.99979519560112795 0.00021624474366166435 -2.6003341246497776e-06 9.8766736100763808e-07 -2.6003341246497776e-06 -0.19991215186473699 -1.2996259767250606e-06 9.8766736100763808e-07 -1.2996259767250606e-06 -0.99979270346312754 0.00022056565602213141 -8.4760235472855659e-06 -1.7822845688186817e-07 -8.4760235472855659e-06 -0.19989996302236923 1.1803514611385957e-05 -1.7822845688186817e-07 1.1803514611385957e-05 -0.99978462016156922 0.00028431034340503647 3.2102269643440069e-06 -3.7321164403469886e-05 3.2102269643440069e-06 -0.19988147853277982 -4.4880450422724039e-07 -3.7321164403469886e-05 -4.4880450422724039e-07 -0.99972770919882237 0.00016931956119847769 3.0050416929139317e-06 -2.6347374838309179e-05 3.0050416929139317e-06 -0.19991455384117973 7.6174752647872879e-06 -2.6347374838309179e-05 7.6174752647872879e-06 -0.99978362175177971 0.00027820348059715005 3.6172157336226265e-06 -4.8461984984760065e-05 3.6172157336226265e-06 -0.19989214310425296 -1.0679008504155263e-06 -4.8461984984760065e-05 -1.0679008504155263e-06 -0.99975944084822466 0.00028117021930540442 9.4223442949361081e-06 -2.1839848728638644e-05 9.4223442949361081e-06 -0.19988547923335076 1.4168262965075229e-06 -2.1839848728638644e-05 1.4168262965075229e-06 -0.9997290175957696 0.00027535071654771759 -1.2464920206553226e-05 -5.6237411216741862e-07 -1.2464920206553226e-05 -0.19988383134995946 4.8975372991533206e-06 -5.6237411216741862e-07 4.8975372991533206e-06 -0.99974279373140851 0.0003658418080690895 5.2114073191789719e-06 -3.2060127677979722e-05 5.2114073191789719e-06 -0.19985769896378947 -1.9894066474179795e-06 -3.2060127677979722e-05 -1.9894066474179795e-06 -0.99970168701614881 0.00028071292323272878 -1.2815272395257973e-05 -1.2678520246500735e-05 -1.2815272395257973e-05 -0.19989095325464046 -5.0847676105192363e-06 -1.2678520246500735e-05 -5.0847676105192363e-06 -0.99976434147364301 0.00022390259604332385 9.0990168084046476e-07 -3.9642578282705898e-05 9.0990168084046476e-07 -0.19991480123948369 5.8626209440415522e-06 -3.9642578282705898e-05 5.8626209440415522e-06 -0.99980330292607977 0.00019426947437939379 -1.6709533753328964e-06 -1.5677746286080207e-05 -1.6709533753328964e-06 -0.19991765040370379 -4.7627271613226441e-06 -1.5677746286080207e-05 -4.7627271613226441e-06 -0.99980342359229812 0.00017107826126439019 4.5231520627540771e-06 -3.6059709966729248e-05 4.5231520627540771e-06 -0.19993229044150629 1.3937684660181304e-05 -3.6059709966729248e-05 1.3937684660181304e-05 -0.99984339465411454 0.00016212139650861879 -3.1898427060681608e-06 -4.2709707384069873e-05 -3.1898427060681608e-06 -0.19993515179752985 1.4482968362372617e-06 -4.2709707384069873e-05 1.4482968362372617e-06 -0.99985654047142081 7.3280034740663691e-05 -7.8413735665231344e-07 -6.6885262595128836e-06 -7.8413735665231344e-07 -0.19995930318718608 7.9711155280826063e-06 -6.6885262595128836e-06 7.9711155280826063e-06 -0.99988856359539846 0.00016166742206258355 2.6817459039260605e-06 -4.1712159923240621e-05 2.6817459039260605e-06 -0.1999341388646021 4.5609921368594541e-06 -4.1712159923240621e-05 4.5609921368594541e-06 -0.99985020695352134 0.00014953413270091254 7.5594478876011229e-06 -1.100871398328207e-05 7.5594478876011229e-06 -0.19994233657109084 6.3666632899028741e-07 -1.100871398328207e-05 6.3666632899028741e-07 -0.99987414368570349 0.00016526014089035534 -9.2204904037232451e-06 -2.133649531677051e-05 -9.2204904037232451e-06 -0.19993033609570943 7.633875259926981e-06 -2.133649531677051e-05 7.633875259926981e-06 -0.99982472228164276 0.00014733462151628185 -8.4696345822237874e-06 4.8265657675017337e-06 -8.4696345822237874e-06 -0.19994268730703391 -1.1289122694435605e-06 4.8265657675017337e-06 -1.1289122694435605e-06 -0.99986959596955893 5.8378976646289438e-05 1.5309424897854612e-06 -5.3488347642183243e-06 1.5309424897854612e-06 -0.19996928224598676 1.3249904997403306e-05 -5.3488347642183243e-06 1.3249904997403306e-05 -0.99993061530483995 6.4803672117363931e-05 4.7703137543353162e-07 -1.6848283410864084e-05 4.7703137543353162e-07 -0.19996334838409302 1.9958731392044626e-06 -1.6848283410864084e-05 1.9958731392044626e-06 -0.99989957472342361 4.7443310852157694e-05 -3.5973976126674534e-07 -1.4335285507982576e-05 -3.5973976126674534e-07 -0.19997294654489184 7.8991376977199934e-06 -1.4335285507982576e-05 7.8991376977199934e-06 -0.9999484711407316 4.9635268910774855e-05 -1.1531783810162119e-07 8.5197631529698725e-06 -1.1531783810162119e-07 -0.19997294698503953 1.9207914203622778e-06 8.5197631529698725e-06 1.9207914203622778e-06 -0.99996530976038489 4.5050412282310326e-05 6.9154526287784959e-06 -5.6576716112033409e-06 6.9154526287784959e-06 -0.19995871618126781 1.0299897702292782e-05 -5.6576716112033409e-06 1.0299897702292782e-05 -0.99989314294197262 3.4822999198103055e-05 8.1027200806324689e-06 -9.4772879106752583e-06 8.1027200806324689e-06 -0.19997268306292615 -6.7661854141753963e-07 -9.4772879106752583e-06 -6.7661854141753963e-07 -0.99994509822807087 6.8575683936034082e-05 1.9572717577812721e-06 -1.4102759821277289e-05 1.9572717577812721e-06 -0.19996955358117652 4.6635251239983411e-06 -1.4102759821277289e-05 4.6635251239983411e-06 -0.99993328623948052 6.5104659278669708e-05 -9.8267945188762152e-07 -1.6061531091571268e-05 -9.8267945188762152e-07 -0.19997146569254609 1.501850105833924e-06 -1.6061531091571268e-05 1.501850105833924e-06 -0.99993661256434452 6.4622856804197326e-05 -4.1618917576790218e-06 -1.2022165852609845e-05 -4.1618917576790218e-06 -0.19996189822625721 1.8419940529465495e-06 -1.2022165852609845e-05 1.8419940529465495e-06 -0.99989269515764878 5.5782734765363884e-05 -2.297371119583727e-06 -3.1618159803681323e-06 -2.297371119583727e-06 -0.19996902889023271 -1.9720301390080408e-05 -3.1618159803681323e-06 -1.9720301390080408e-05 -0.9999213313287294 5.613857815001122e-05 2.3596532690647314e-06 6.5664972304091407e-06 2.3596532690647314e-06 -0.19997397574511766 3.8329207456833103e-06 6.5664972304091407e-06 3.8329207456833103e-06 -0.9999428442671392 6.5333825157942726e-05 2.7221662584203653e-06 6.4069348502115986e-06 2.7221662584203653e-06 -0.19996444529885782 2.5530860743305794e-06 6.4069348502115986e-06 2.5530860743305794e-06 -0.99989988437094546 5.3977693191487042e-05 -1.0751999846081597e-06 -1.8823408070023362e-05 -1.0751999846081597e-06 -0.19997376977140258 -1.7406915109319243e-06 -1.8823408070023362e-05 -1.7406915109319243e-06 -0.99995352897321199 6.6218439178422628e-05 5.068105885255105e-08 -3.1972608992569818e-06 5.068105885255105e-08 -0.19996665975531314 1.8608744206893846e-05 -3.1972608992569818e-06 1.8608744206893846e-05 -0.99991533626964113 7.0618355910712083e-05 9.1121407621696503e-07 3.8691070314289533e-06 9.1121407621696503e-07 -0.19996007770438995 -2.8395194779928801e-06 3.8691070314289533e-06 -2.8395194779928801e-06 -0.99989524605712177 0.00014413233566864039 6.4489707861261081e-07 -1.4072295325462392e-05 6.4489707861261081e-07 -0.19993071791971931 3.7453004619880659e-07 -1.4072295325462392e-05 3.7453004619880659e-07 -0.99982125181576686 7.7089174712496877e-05 -2.2849657309673384e-06 -1.6544832316944813e-05 -2.2849657309673384e-06 -0.19996390893141125 -3.5728795277911729e-07 -1.6544832316944813e-05 -3.5728795277911729e-07 -0.99992530985156325 0.00016889772684003379 1.4792489196952187e-06 -4.7238184437858877e-05 1.4792489196952187e-06 -0.19993113859276901 -6.4213133181834081e-06 -4.7238184437858877e-05 -6.4213133181834081e-06 -0.99984547391636758 0.00010818075824037265 4.912316973960284e-07 1.0844007890095132e-05 4.912316973960284e-07 -0.19994732878852961 5.2819542739612757e-07 1.0844007890095132e-05 5.2819542739612757e-07 -0.99986835458239032 5.4560745643916775e-05 -5.5081645395079952e-07 -1.7179974141079413e-05 -5.5081645395079952e-07 -0.19997481681951501 -3.620547999849677e-06 -1.7179974141079413e-05 -3.620547999849677e-06 -0.99994970524793025 0.00015839754492619207 -2.0552363399014083e-06 -4.0768738413188288e-05 -2.0552363399014083e-06 -0.19992892686535035 -3.0385878624361595e-06 -4.0768738413188288e-05 -3.0385878624361595e-06 -0.99985355891312278 6.8899918709508512e-05 4.2343397738274568e-06 -1.4087920197747295e-05 4.2343397738274568e-06 -0.19997078895122378 3.956197769383607e-07 -1.4087920197747295e-05 3.956197769383607e-07 -0.99992409685131722 6.3974504080688277e-05 -2.4893522084052084e-06 7.4567672259107098e-07 -2.4893522084052084e-06 -0.19996312727651611 -4.4942458205382563e-06 7.4567672259107098e-07 -4.4942458205382563e-06 -0.99989949728228211 7.271750767645635e-05 -4.6754116902453465e-06 -1.8551273023970083e-05 -4.6754116902453465e-06 -0.19996665246388967 -1.5460968557368115e-06 -1.8551273023970083e-05 -1.5460968557368115e-06 -0.99992811735873843 6.7905619329011735e-05 -8.9913937198422419e-06 -1.2822663453482264e-05 -8.9913937198422419e-06 -0.19996294146838534 8.3893671476431564e-07 -1.2822663453482264e-05 8.3893671476431564e-07 -0.99993799058505184 0.00017475134962652294 1.9701526158564155e-06 -4.9193622684295946e-05 1.9701526158564155e-06 -0.19992705375216624 2.9750909735781761e-08 -4.9193622684295946e-05 2.9750909735781761e-08 -0.99983761367610047 0.00017116277882245345 2.7375728617230984e-06 -4.5617865847891181e-05 2.7375728617230984e-06 -0.19992622645641178 -3.3918047541436902e-06 -4.5617865847891181e-05 -3.3918047541436902e-06 -0.99984074080496343 6.3065909136295062e-05 1.9242676662235707e-06 5.134585279176207e-06 1.9242676662235707e-06 -0.19995869642086883 -1.6122116346245496e-06 5.134585279176207e-06 -1.6122116346245496e-06 -0.99989571895527973 4.808785869847565e-05 2.1467265902223875e-06 -1.3220599065721927e-05 2.1467265902223875e-06 -0.19997565687442453 1.375661106806092e-06 -1.3220599065721927e-05 1.375661106806092e-06 -0.99994428668465529 4.7701846409120563e-05 3.0537093448649109e-06 -1.5440218759099622e-05 3.0537093448649109e-06 -0.19997224958719428 -1.4687429023274579e-06 -1.5440218759099622e-05 -1.4687429023274579e-06 -0.99994885588783067 9.2688168068955079e-05 -1.7673783202472832e-06 4.8616483567798241e-06 -1.7673783202472832e-06 -0.1999472662864703 1.5174819707475251e-06 4.8616483567798241e-06 1.5174819707475251e-06 -0.99986300438060649 9.1313774267742787e-05 -3.6817824963420278e-06 1.0659320370809411e-06 -3.6817824963420278e-06 -0.19994744883372961 1.6947716687809589e-06 1.0659320370809411e-06 1.6947716687809589e-06 -0.99986189620361809 4.3691699662007366e-05 3.741334098147149e-06 -1.584631863904562e-05 3.741334098147149e-06 -0.19997430959381801 1.8476373302434013e-06 -1.584631863904562e-05 1.8476373302434013e-06 -0.9999470940440367 9.2892213737760798e-05 -3.771221603015519e-06 1.4134216256289633e-06 -3.771221603015519e-06 -0.19994613536551431 2.6449298917707864e-06 1.4134216256289633e-06 2.6449298917707864e-06 -0.99985515541645231 6.9836548284518685e-05 -9.0062037792305078e-06 -2.6550699411709289e-05 -9.0062037792305078e-06 -0.19996606242318393 9.3134336798250672e-06 -2.6550699411709289e-05 9.3134336798250672e-06 -0.9999325756667079 7.7019924211829682e-05 -2.2889025026866957e-08 -2.6969649612462732e-05 -2.2889025026866957e-08 -0.19996828210281226 -1.2719689170825887e-06 -2.6969649612462732e-05 -1.2719689170825887e-06 -0.99994212573305141 0.00017147077738532968 -3.1696382261486738e-06 -4.7370674682856162e-05 -3.1696382261486738e-06 -0.19992674027519253 6.9181122825945351e-06 -4.7370674682856162e-05 6.9181122825945351e-06 -0.99983850041706646 9.34115641515465e-05 -7.6067114028837942e-06 -4.415426374526632e-06 -7.6067114028837942e-06 -0.19995100886802564 1.3029358607696828e-05 -4.415426374526632e-06 1.3029358607696828e-05 -0.99988221808588484 6.6345509850407325e-05 1.5070830276424892e-06 -1.0226011528002843e-05 1.5070830276424892e-06 -0.19996810771856766 1.8951944347200822e-06 -1.0226011528002843e-05 1.8951944347200822e-06 -0.99993839987649746 6.3259423706440998e-05 4.842849321331301e-06 5.5593037275869506e-06 4.842849321331301e-06 -0.19995973942387713 5.7485417655211979e-06 5.5593037275869506e-06 5.7485417655211979e-06 -0.99989515981600929 6.6781442126684354e-05 4.9085921849048247e-06 -1.0090699535725278e-05 4.9085921849048247e-06 -0.19995032653786604 3.2433577743518072e-06 -1.0090699535725278e-05 3.2433577743518072e-06 -0.99985127002454188 0.00010702917312083171 -2.7431740695388393e-06 -3.1850352013113037e-05 -2.7431740695388393e-06 -0.19993526003179057 1.8208108366613018e-06 -3.1850352013113037e-05 1.8208108366613018e-06 -0.99981937848283375 0.00010686586715957791 1.1462967587747231e-05 -2.4775369071139419e-05 1.1462967587747231e-05 -0.19994612387976596 -1.2134366310145861e-05 -2.4775369071139419e-05 -1.2134366310145861e-05 -0.99983990340781848 0.00010399390013756185 1.3658126891301781e-05 -1.2748730047647261e-05 1.3658126891301781e-05 -0.19994971861220037 1.5784150062980729e-05 -1.2748730047647261e-05 1.5784150062980729e-05 -0.99990290608233523 8.0292239890734918e-05 -3.0921928735206162e-06 -1.234255611670676e-05 -3.0921928735206162e-06 -0.19995739758594416 1.6478031524824743e-06 -1.234255611670676e-05 1.6478031524824743e-06 -0.99990393296208002 0.00010973386294521603 -1.8159139434597179e-05 -1.9525961974631301e-05 -1.8159139434597179e-05 -0.19994047066348297 1.0786908713589227e-05 -1.9525961974631301e-05 1.0786908713589227e-05 -0.99983738626468854 0.00010158467430490363 -9.7938448449055153e-06 -1.2837015307100991e-05 -9.7938448449055153e-06 -0.19995569068475391 -5.694503292907882e-06 -1.2837015307100991e-05 -5.694503292907882e-06 -0.99990392359651181 6.0504813232720167e-05 8.510582936853834e-06 -1.1689362869660158e-05 8.510582936853834e-06 -0.19996440708096119 -7.3799663651286096e-06 -1.1689362869660158e-05 -7.3799663651286096e-06 -0.9999138314640108 5.7598663717239873e-05 4.0726139755866942e-06 1.4783042111554678e-06 4.0726139755866942e-06 -0.19996232167377093 -4.9689610591707734e-06 1.4783042111554678e-06 -4.9689610591707734e-06 -0.99990199029185778 5.9384837330749007e-05 9.3861598121474781e-06 -8.6147263472780011e-06 9.3861598121474781e-06 -0.19996388889318201 -3.0013372196435739e-06 -8.6147263472780011e-06 -3.0013372196435739e-06 -0.99991016805196042 7.5161817968960598e-05 -6.9619371843260818e-06 -1.262927023315541e-05 -6.9619371843260818e-06 -0.19996804815788816 1.0864160654433519e-06 -1.262927023315541e-05 1.0864160654433519e-06 -0.99990713925797126 7.9749963787456579e-05 3.144844652810462e-05 -1.4871771389035615e-05 3.144844652810462e-05 -0.19993611558248781 -1.4921643523013728e-05 -1.4871771389035615e-05 -1.4921643523013728e-05 -0.99984714478613457 0.00021892024468050941 -1.1839970042270918e-06 -3.352557818026014e-05 -1.1839970042270918e-06 -0.19991817843441395 1.6923969090587576e-06 -3.352557818026014e-05 1.6923969090587576e-06 -0.9998181816343783 0.00011962697326373117 -4.2196436910594088e-06 7.855720829397228e-06 -4.2196436910594088e-06 -0.19996016572588848 2.0363586967775404e-06 7.855720829397228e-06 2.0363586967775404e-06 -0.99985779953184206 8.3471444092930724e-05 -3.799075642203576e-07 -1.9713803043996947e-05 -3.799075642203576e-07 -0.19996791766919975 3.7253362545897062e-06 -1.9713803043996947e-05 3.7253362545897062e-06 -0.99991027897174423 8.878453881089321e-05 4.6706000486940406e-07 -1.4425700969766808e-05 4.6706000486940406e-07 -0.19994691508880713 -2.0630160613155368e-06 -1.4425700969766808e-05 -2.0630160613155368e-06 -0.99984972848231779 6.8218630470240349e-05 3.6729463229814585e-06 3.307059325385886e-06 3.6729463229814585e-06 -0.19996971214140091 1.667743095290497e-06 3.307059325385886e-06 1.667743095290497e-06 -0.9999051086788473 6.8494867803262516e-05 6.2076512691844372e-06 4.0770983662508087e-06 6.2076512691844372e-06 -0.19996198673442642 -2.150040783077678e-06 4.0770983662508087e-06 -2.150040783077678e-06 -0.99990342906575769 1.9693801126319244e-05 -6.0719761241142688e-06 5.3489190265931796e-06 -6.0719761241142688e-06 -0.19996811155603711 -1.2505806322726798e-06 5.3489190265931796e-06 -1.2505806322726798e-06 -0.99991443349691966 4.8168860634079103e-05 2.079707975732589e-06 -9.2416446001442054e-06 2.079707975732589e-06 -0.19996356065863718 9.7336543969372968e-07 -9.2416446001442054e-06 9.7336543969372968e-07 -0.99991244206019747 5.0252164482178507e-05 -1.3318366917423763e-05 -1.542400742204908e-05 -1.3318366917423763e-05 -0.19995199985946854 7.7625785374069167e-06 -1.542400742204908e-05 7.7625785374069167e-06 -0.99987245883590958 0.00014129875386900692 -3.8306431362568619e-06 -1.2516653125071997e-06 -3.8306431362568619e-06 -0.19993701059325555 9.2701537002248813e-08 -1.2516653125071997e-06 9.2701537002248813e-08 -0.9998486088362416 9.1945980210894618e-05 3.584216810232982e-06 -1.3752134770617097e-05 3.584216810232982e-06 -0.19994949097153916 3.0363828822377315e-06 -1.3752134770617097e-05 3.0363828822377315e-06 -0.99986608881043149 5.6191387792448033e-05 -4.9253562808373294e-06 -8.7217335493772197e-06 -4.9253562808373294e-06 -0.19995915622145666 -2.2280758215087459e-06 -8.7217335493772197e-06 -2.2280758215087459e-06 -0.99991427036788494 4.8163318540517253e-05 -9.6270940675943286e-06 -5.4137953219290935e-06 -9.6270940675943286e-06 -0.19995138741261786 -1.1857148046079402e-05 -5.4137953219290935e-06 -1.1857148046079402e-05 -0.99988926468949435 8.1409486020256328e-05 7.6131700059344507e-06 -2.0454668592462255e-05 7.6131700059344507e-06 -0.19996685150801036 -1.5588291357726547e-06 -2.0454668592462255e-05 -1.5588291357726547e-06 -0.99992736157233586 3.2762071046077423e-05 -7.0697056835911128e-06 -1.4596629592023014e-05 -7.0697056835911128e-06 -0.1999676652193163 1.9562390803917751e-06 -1.4596629592023014e-05 1.9562390803917751e-06 -0.99993818657075995 4.9140458045826563e-05 -2.8138322502286734e-07 -1.5243008246068612e-05 -2.8138322502286734e-07 -0.19997458238680732 -2.8126854800802903e-06 -1.5243008246068612e-05 -2.8126854800802903e-06 -0.99995562113919068 7.5219985320895688e-05 -3.3732025356246027e-06 -2.5789046962376716e-05 -3.3732025356246027e-06 -0.19995803596914574 4.8863513373298417e-06 -2.5789046962376716e-05 4.8863513373298417e-06 -0.99988892016517994 4.8756778701308789e-05 1.5541857163647923e-06 5.3843023288813185e-06 1.5541857163647923e-06 -0.19996956597109716 -2.5084812012021729e-06 5.3843023288813185e-06 -2.5084812012021729e-06 -0.99996174200741006 5.6140542749494315e-05 -6.4579383365429547e-07 -6.4314788617014784e-06 -6.4579383365429547e-07 -0.19996950185501183 -1.0664438410135091e-05 -6.4314788617014784e-06 -1.0664438410135091e-05 -0.99993364636984339 4.5829597280278023e-05 -4.0059896831637698e-06 -1.4152653828980455e-05 -4.0059896831637698e-06 -0.19998262468430339 1.4835120443201788e-06 -1.4152653828980455e-05 1.4835120443201788e-06 -0.99995306036392373 6.5120649098693306e-05 9.8715858912231282e-06 -2.6501172088577718e-05 9.8715858912231282e-06 -0.19996750791167384 -1.214009761429935e-05 -2.6501172088577718e-05 -1.214009761429935e-05 -0.99992843392979935 7.9371623886381748e-05 -6.1269422453500986e-06 1.0437613805702739e-05 -6.1269422453500986e-06 -0.19996632902859934 -2.5900054215766133e-06 1.0437613805702739e-05 -2.5900054215766133e-06 -0.99990468375977404 8.2927283296063692e-05 2.2600313662790411e-06 -2.004765506691264e-05 2.2600313662790411e-06 -0.19996991342057058 -5.8778292705286006e-07 -2.004765506691264e-05 -5.8778292705286006e-07 -0.9999278673727483 0.00016249598293760492 9.8923921801450772e-07 -4.430634441771053e-05 9.8923921801450772e-07 -0.19992909564574801 -5.1799410720754224e-06 -4.430634441771053e-05 -5.1799410720754224e-06 -0.99983706102465053 0.00010325500529739795 7.6162271482372148e-06 -1.7492170756305825e-06 7.6162271482372148e-06 -0.19995143203899635 -1.5188493923012913e-05 -1.7492170756305825e-06 -1.5188493923012913e-05 -0.99988427448462058 0.00011134513140542701 -9.6073153240475766e-07 -1.7216925833007934e-05 -9.6073153240475766e-07 -0.19995063106275968 5.305156863921745e-06 -1.7216925833007934e-05 5.305156863921745e-06 -0.99987700608194441 0.00014696477472786462 -6.3395201027854752e-06 4.1589166843714054e-07 -6.3395201027854752e-06 -0.19993993387625442 -8.5468050770032278e-07 4.1589166843714054e-07 -8.5468050770032278e-07 -0.99985618044998592 0.00016028105354415345 5.3153063251663045e-06 -4.5326635774278756e-05 5.3153063251663045e-06 -0.19993288261979436 -2.3463951079882861e-06 -4.5326635774278756e-05 -2.3463951079882861e-06 -0.9998394011541949 7.6271114964665543e-05 3.2600865897998848e-06 8.8711652608264302e-06 3.2600865897998848e-06 -0.19996353418950474 -2.4432476419811167e-06 8.8711652608264302e-06 -2.4432476419811167e-06 -0.99990488517693965 0.00016216297046733885 -9.3656784260487415e-07 -3.6529210159841341e-05 -9.3656784260487415e-07 -0.19993507422529566 -3.4897883425255571e-06 -3.6529210159841341e-05 -3.4897883425255571e-06 -0.99985129950324314 9.3763291448889508e-05 6.6185182318458657e-06 -9.8061249136360829e-06 6.6185182318458657e-06 -0.19995341865394262 -1.0764053843592691e-05 -9.8061249136360829e-06 -1.0764053843592691e-05 -0.99988053772793584 0.00022084217156126407 4.7196782094176422e-06 -2.2638170782407485e-07 4.7196782094176422e-06 -0.1999089239252656 -9.3913648080423684e-07 -2.2638170782407485e-07 -9.3913648080423684e-07 -0.99978310223560118 0.00022208703152326592 8.7166424885514825e-06 -5.5466626158739984e-07 8.7166424885514825e-06 -0.19990141747709922 -5.9787644687281372e-06 -5.5466626158739984e-07 -5.9787644687281372e-06 -0.99977937065756972 0.00019694729221797491 4.4688152578529843e-06 -1.1057936800673573e-05 4.4688152578529843e-06 -0.19991743243537285 4.597668400663224e-06 -1.1057936800673573e-05 4.597668400663224e-06 -0.99980683074739973 0.00023245125432547198 8.8454713359979422e-06 -3.288130609058193e-05 8.8454713359979422e-06 -0.199904927826698 -1.9916523523733076e-06 -3.288130609058193e-05 -1.9916523523733076e-06 -0.99977598999137829 0.000188812445137021 -2.2282238113625582e-07 -2.7688608041032126e-05 -2.2282238113625582e-07 -0.19992293114629833 -1.0486261545983311e-05 -2.7688608041032126e-05 -1.0486261545983311e-05 -0.99981509537250446 0.0002727094845269562 8.3758616935648655e-06 -1.5897359966210445e-06 8.3758616935648655e-06 -0.19989359602650791 4.6287798713962047e-06 -1.5897359966210445e-06 4.6287798713962047e-06 -0.99975714828145268 0.00020893709197156163 -4.5676595670780362e-06 -3.5278428998530842e-05 -4.5676595670780362e-06 -0.19991741027998944 -8.4439794736379525e-06 -3.5278428998530842e-05 -8.4439794736379525e-06 -0.99980515025876837 0.00019959080819531572 1.2065792275249423e-05 -2.572735498602291e-05 1.2065792275249423e-05 -0.19991355027438562 6.0225242544120761e-06 -2.572735498602291e-05 6.0225242544120761e-06 -0.99981446450903633 0.00030145419699567633 -2.503434450172662e-06 -4.2609082676798443e-05 -2.503434450172662e-06 -0.19987622113499959 4.352396856255325e-06 -4.2609082676798443e-05 4.352396856255325e-06 -0.9997177301023914 0.00030192172305010256 -5.0023219228272633e-06 -4.1898806940750613e-05 -5.0023219228272633e-06 -0.19987801601313626 -1.9833671138780318e-06 -4.1898806940750613e-05 -1.9833671138780318e-06 -0.99971385990025619 0.00035728023290615418 -9.1983015044879232e-07 -2.8446877132548565e-05 -9.1983015044879232e-07 -0.19986256715660633 -8.2678099135868877e-06 -2.8446877132548565e-05 -8.2678099135868877e-06 -0.999720014654355 0.00029862030591654154 1.4537905976612094e-05 -2.2422853298915274e-05 1.4537905976612094e-05 -0.19987949280207928 -6.2881308067197494e-06 -2.2422853298915274e-05 -6.2881308067197494e-06 -0.99972684630222464 0.00027068581577038842 -8.5237022963738906e-06 -1.7810100308761345e-05 -8.5237022963738906e-06 -0.19989469059871734 3.1508027045212827e-06 -1.7810100308761345e-05 3.1508027045212827e-06 -0.99976129672131453 0.00026958462959447704 -1.3877403953948846e-06 -4.5729201478827974e-05 -1.3877403953948846e-06 -0.19989399395843199 2.1348435144119549e-06 -4.5729201478827974e-05 2.1348435144119549e-06 -0.99975908133400582 0.00025518367112808971 -8.8974294164795432e-07 -3.1919662431212359e-05 -8.8974294164795432e-07 -0.19988786552277593 -1.1722065959007821e-06 -3.1919662431212359e-05 -1.1722065959007821e-06 -0.99972038942758124 0.00021488092729504693 8.6168804783949056e-06 -1.5427800122203017e-05 8.6168804783949056e-06 -0.19990287362717596 -4.9255096474798421e-06 -1.5427800122203017e-05 -4.9255096474798421e-06 -0.99976366352478951 0.00029333617939386603 -6.4392817505590481e-06 -2.883527097759242e-05 -6.4392817505590481e-06 -0.19988003798205345 -2.1767005005113305e-06 -2.883527097759242e-05 -2.1767005005113305e-06 -0.99971088050612877 0.00029407812874193695 -2.3278052942252323e-06 -1.9170131297097104e-05 -2.3278052942252323e-06 -0.19988047159018985 -2.6513993964805138e-06 -1.9170131297097104e-05 -2.6513993964805138e-06 -0.99971538103229207 0.00021747501784030732 -1.0161456355845149e-06 -2.9429093292288044e-06 -1.0161456355845149e-06 -0.19990693127164438 8.7162900547221867e-07 -2.9429093292288044e-06 8.7162900547221867e-07 -0.99978232961773328 0.00019166464470021793 -1.9641000711740436e-06 -1.9753698210070447e-05 -1.9641000711740436e-06 -0.19992172041290113 -1.2735736578534107e-06 -1.9753698210070447e-05 -1.2735736578534107e-06 -0.99983208213269315 0.00023767827160736665 3.4426466980038841e-08 -4.6963310854519769e-05 3.4426466980038841e-08 -0.19990417655542325 -3.4848090166295087e-06 -4.6963310854519769e-05 -3.4848090166295087e-06 -0.9997878553313484 0.00019592825229053368 -1.9903312508626801e-06 -2.5254804371949852e-05 -1.9903312508626801e-06 -0.19991786458705962 -3.7506021964388292e-06 -2.5254804371949852e-05 -3.7506021964388292e-06 -0.99981647655355399 0.0002035825784029166 8.3571241418007733e-06 -3.7357153605740989e-05 8.3571241418007733e-06 -0.19991001449369972 -1.2705740388807563e-05 -3.7357153605740989e-05 -1.2705740388807563e-05 -0.99979017138698012 0.00028947604747353584 -9.5713237686079536e-07 -3.8007178652627038e-05 -9.5713237686079536e-07 -0.1998808944984235 -9.9269556352865607e-07 -3.8007178652627038e-05 -9.9269556352865607e-07 -0.9997214998410513 0.00024050173503642469 2.6018455911225649e-06 -1.1222547555478357e-05 2.6018455911225649e-06 -0.19989841313941081 -4.2868520906402807e-06 -1.1222547555478357e-05 -4.2868520906402807e-06 -0.9997578936063336 0.00025910466512413244 2.6792208924509371e-06 -3.0540923547150989e-05 2.6792208924509371e-06 -0.19988643982880916 2.8183776896728574e-06 -3.0540923547150989e-05 2.8183776896728574e-06 -0.99972040443364563 0.00023740777711722671 1.0739573827913124e-05 -1.583967460935809e-05 1.0739573827913124e-05 -0.19989427046573827 -2.3179438422671339e-05 -1.583967460935809e-05 -2.3179438422671339e-05 -0.99972213243966879 0.0002392444471454036 3.3948978749262229e-06 -3.9605552724641946e-05 3.3948978749262229e-06 -0.19990946227371725 2.5461876889121271e-06 -3.9605552724641946e-05 2.5461876889121271e-06 -0.99980303688323402 0.00022731084612848118 -3.2634986211615268e-06 -7.1909930653424325e-06 -3.2634986211615268e-06 -0.19990576922531533 2.6618206299122704e-06 -7.1909930653424325e-06 2.6618206299122704e-06 -0.99978233897909474 0.00021899159488392161 -6.9238787501212393e-06 -5.8922796244420539e-06 -6.9238787501212393e-06 -0.19990530755721914 8.154306433416636e-07 -5.8922796244420539e-06 8.154306433416636e-07 -0.99978209806636231 0.00026519449526911376 -2.7289312818840912e-06 -3.537500543704386e-05 -2.7289312818840912e-06 -0.19988646625312573 1.0666419506533131e-06 -3.537500543704386e-05 1.0666419506533131e-06 -0.99972256011820981 0.00023256193076393039 -7.6480091354636515e-06 2.0895684670341197e-06 -7.6480091354636515e-06 -0.19990272353828442 7.1047007668134654e-06 2.0895684670341197e-06 7.1047007668134654e-06 -0.99977479406267733 0.00024310850539488449 1.594033479142684e-05 -1.3756429579014906e-05 1.594033479142684e-05 -0.19990198950242632 8.6314072527127195e-06 -1.3756429579014906e-05 8.6314072527127195e-06 -0.99977434752960592 0.0002019581558385837 7.9436969920587646e-06 -4.487288961630212e-05 7.9436969920587646e-06 -0.19991469586313035 -8.6211219529896965e-06 -4.487288961630212e-05 -8.6211219529896965e-06 -0.99980211680421294 0.00024011579804184002 -2.7461644218282761e-05 -2.0001550191661721e-05 -2.7461644218282761e-05 -0.19989834686799846 -8.3400627242102843e-06 -2.0001550191661721e-05 -8.3400627242102843e-06 -0.99977801614903328 0.0002825999913306787 -8.8368203819511358e-07 -7.6602403786818485e-06 -8.8368203819511358e-07 -0.19989022336252021 5.2411466333612822e-06 -7.6602403786818485e-06 5.2411466333612822e-06 -0.99976256045976908 0.000203833050758849 -1.5513898315425087e-05 -4.5573924453340409e-05 -1.5513898315425087e-05 -0.19991097530301269 1.3271593299890583e-05 -4.5573924453340409e-05 1.3271593299890583e-05 -0.99980005299516617 0.00020028016076445443 -1.0962824565903307e-05 -2.929700207499053e-05 -1.0962824565903307e-05 -0.19991603066625907 -4.2545759695311602e-06 -2.929700207499053e-05 -4.2545759695311602e-06 -0.99981206667367761 0.00034812085807178761 2.6859290759667726e-06 -5.1801234195250623e-05 2.6859290759667726e-06 -0.19986528634052347 2.2711862170954333e-06 -5.1801234195250623e-05 2.2711862170954333e-06 -0.99970494786122455 0.00034924570866745608 8.505809002333173e-06 -4.9367686744794526e-05 8.505809002333173e-06 -0.1998649641958693 2.5239038978774886e-06 -4.9367686744794526e-05 2.5239038978774886e-06 -0.99970440469647004 0.00034598086534831651 -1.0190541664752859e-05 -4.3936967711211139e-05 -1.0190541664752859e-05 -0.19986793898262223 7.3170259207167021e-07 -4.3936967711211139e-05 7.3170259207167021e-07 -0.99970252949090943 0.00028681785887418876 -8.8196252188045992e-07 -3.2979166877888932e-05 -8.8196252188045992e-07 -0.19988094428787673 -2.8682579191752211e-06 -3.2979166877888932e-05 -2.8682579191752211e-06 -0.99971969266555716 0.00044686882835598407 1.837137200375704e-07 -6.1197023379921944e-06 1.837137200375704e-07 -0.19983267805172733 5.9570367416661441e-07 -6.1197023379921944e-06 5.9570367416661441e-07 -0.99963366545142796 0.00041844962334758318 -1.1717263620534087e-06 -2.745443496587896e-05 -1.1717263620534087e-06 -0.19984606100444091 1.057196684361994e-06 -2.745443496587896e-05 1.057196684361994e-06 -0.99968728219593173 0.00037806666572420822 -2.1933289243448154e-05 -1.681515818874324e-05 -2.1933289243448154e-05 -0.19984990875305075 1.2664302300624541e-05 -1.681515818874324e-05 1.2664302300624541e-05 -0.99966681032666393 0.00038827512125372277 -1.8750724847293964e-06 -5.2935441543500161e-06 -1.8750724847293964e-06 -0.19984189909677641 1.6476505660459329e-06 -5.2935441543500161e-06 1.6476505660459329e-06 -0.99963621357932952 0.00033726870787614827 1.2279505257849011e-06 -2.975224693280154e-06 1.2279505257849011e-06 -0.19986351503259592 7.8883873166901708e-07 -2.975224693280154e-06 7.8883873166901708e-07 -0.99968570298579751 0.00038100822444944726 1.3169900720165387e-05 -1.1885413583323512e-05 1.3169900720165387e-05 -0.19984455559726064 7.6759320366548422e-06 -1.1885413583323512e-05 7.6759320366548422e-06 -0.99964372811607694 0.0004151882724849898 -3.882625205359971e-06 -2.4068768579077471e-05 -3.882625205359971e-06 -0.1998529377845083 7.6675042294249707e-06 -2.4068768579077471e-05 7.6675042294249707e-06 -0.99968801962900988 0.00042604124757039674 -3.4479477929287219e-06 -3.8992628201395263e-05 -3.4479477929287219e-06 -0.19983783023355295 -3.6699316077193345e-06 -3.8992628201395263e-05 -3.6699316077193345e-06 -0.99963854253506801 0.0003874014094130962 1.7230690226488353e-05 -2.623919838040667e-05 1.7230690226488353e-05 -0.19985036526524344 -1.3629812066096036e-05 -2.623919838040667e-05 -1.3629812066096036e-05 -0.99965594462201268 0.00044938243807426254 1.5234731265513236e-06 -8.1709817401076634e-06 1.5234731265513236e-06 -0.19983164528708472 -1.7769805783773851e-06 -8.1709817401076634e-06 -1.7769805783773851e-06 -0.99963435455784733 0.00033649219159076482 -6.4015774109550936e-07 -1.8220275733088487e-05 -6.4015774109550936e-07 -0.19985686334620612 -1.0938186820741436e-06 -1.8220275733088487e-05 -1.0938186820741436e-06 -0.99964491171062875 0.00034891849039646317 -2.6556601328645615e-06 -2.6634588011664739e-05 -2.6556601328645615e-06 -0.1998655039538127 1.0652454985882187e-06 -2.6634588011664739e-05 1.0652454985882187e-06 -0.99970147239050178 0.00034456634927931828 -4.8655007773319844e-06 -1.6266380620244547e-05 -4.8655007773319844e-06 -0.199853790151091 -1.2983842604397111e-06 -1.6266380620244547e-05 -1.2983842604397111e-06 -0.99964269093210478 0.00034065047205233956 5.1630683338761522e-06 -2.2387916092603266e-05 5.1630683338761522e-06 -0.19985287784261069 -1.718644398573943e-06 -2.2387916092603266e-05 -1.718644398573943e-06 -0.9996438760078834 0.00036616898901137285 5.289763668147546e-06 -2.9607921371521684e-05 5.289763668147546e-06 -0.19985817360864638 -1.5280423613095451e-06 -2.9607921371521684e-05 -1.5280423613095451e-06 -0.99969587046371955 0.0003571720543575907 2.9356674513300247e-06 -2.0539428254195968e-05 2.9356674513300247e-06 -0.1998619105365701 2.77808024384818e-06 -2.0539428254195968e-05 2.77808024384818e-06 -0.99969580450538365 0.00034343663289881921 6.8056968821121173e-07 -2.0650926830678706e-05 6.8056968821121173e-07 -0.19986197293745966 -5.5984786548890497e-06 -2.0650926830678706e-05 -5.5984786548890497e-06 -0.99967933522111174 0.00035519353571511481 -4.0285431625330507e-07 -3.0194523301885212e-05 -4.0285431625330507e-07 -0.1998536749975397 -2.1742803533175703e-06 -3.0194523301885212e-05 -2.1742803533175703e-06 -0.99965098495638305 0.00036315023241739741 -2.2484912081854177e-06 -1.853894385450694e-05 -2.2484912081854177e-06 -0.19986289041883831 -2.55884591404687e-07 -1.853894385450694e-05 -2.55884591404687e-07 -0.99969393451247823 0.00041196814378574587 3.7317762512882575e-06 -2.093827556448602e-05 3.7317762512882575e-06 -0.19983950829013652 -2.0688754675535215e-06 -2.093827556448602e-05 -2.0688754675535215e-06 -0.9996355904065739 0.00034497966774671429 9.328930197792002e-07 -1.3904059888214526e-05 9.328930197792002e-07 -0.19985308712654293 -2.5617372645392322e-07 -1.3904059888214526e-05 -2.5617372645392322e-07 -0.99964151340714924 0.00037296228850902668 -3.1478116659419722e-06 -2.6622846177826176e-05 -3.1478116659419722e-06 -0.19985522293004709 3.0449381313024659e-06 -2.6622846177826176e-05 3.0449381313024659e-06 -0.99966728718924136 0.00034332265673888036 4.3902474457154413e-06 -1.9998954083444431e-05 4.3902474457154413e-06 -0.19985779730805861 3.3881377566880033e-06 -1.9998954083444431e-05 3.3881377566880033e-06 -0.99966474315018405 0.00038939939909599097 -1.522675028940029e-07 -2.404960048174587e-05 -1.522675028940029e-07 -0.19984230467526243 -8.2058475531221475e-07 -2.404960048174587e-05 -8.2058475531221475e-07 -0.99962815119969495 0.00031238155255397526 -3.9096653705094043e-06 -2.5035458197986138e-05 -3.9096653705094043e-06 -0.19986607300239723 6.4748896466682027e-08 -2.5035458197986138e-05 6.4748896466682027e-08 -0.99967285473440404 0.00033050951580704258 -3.3823230458094872e-06 -1.2000327092143159e-05 -3.3823230458094872e-06 -0.19986694964378882 -2.4780414681346841e-06 -1.2000327092143159e-05 -2.4780414681346841e-06 -0.99969372336187146 0.0003710344878049554 -1.9335848214879286e-06 -3.3033997399511961e-05 -1.9335848214879286e-06 -0.19986065084631677 -2.5239688647982206e-06 -3.3033997399511961e-05 -2.5239688647982206e-06 -0.9996928220372947 0.00040604292326640312 3.916999803702265e-06 -4.1877914287447027e-06 3.916999803702265e-06 -0.19983877637695335 5.0018388881856168e-06 -4.1877914287447027e-06 5.0018388881856168e-06 -0.99963569055453272 0.00038328126037234789 5.6814901952971551e-06 -4.2560256200974145e-05 5.6814901952971551e-06 -0.19985246854822258 2.3383123517461968e-06 -4.2560256200974145e-05 2.3383123517461968e-06 -0.99968408338247894 0.00036213918708571935 -8.4373032828694627e-06 -6.1041484850365979e-06 -8.4373032828694627e-06 -0.19986325345761158 -3.3758475741496596e-06 -6.1041484850365979e-06 -3.3758475741496596e-06 -0.99970147960196609 0.00041010085393766715 -5.4895891630032863e-05 7.7136295875135374e-06 -5.4895891630032863e-05 -0.199850170503304 -2.166631978361977e-05 7.7136295875135374e-06 -2.166631978361977e-05 -0.99962461246133838 0.00036947978791068703 -9.9616199085054164e-07 2.8745376301486658e-07 -9.9616199085054164e-07 -0.19984973701174691 1.0868600260449668e-05 2.8745376301486658e-07 1.0868600260449668e-05 -0.99966879029590894 0.00042402044922085214 1.1447138247198351e-05 -2.1526506332580908e-05 1.1447138247198351e-05 -0.1998331308109097 2.5087120665290286e-06 -2.1526506332580908e-05 2.5087120665290286e-06 -0.99963989089870742 0.00041378587050200366 8.1099829727109587e-06 -2.3517978628068148e-05 8.1099829727109587e-06 -0.1998487393963434 -1.4414347716318332e-05 -2.3517978628068148e-05 -1.4414347716318332e-05 -0.99968014425451068 0.00041615665668082169 -1.9441626497431184e-06 -2.1876740388115934e-05 -1.9441626497431184e-06 -0.19984583558035063 -6.5337399681730801e-06 -2.1876740388115934e-05 -6.5337399681730801e-06 -0.99968414462403876 0.00046862915363332647 4.6704947023288352e-06 -1.9724672322141146e-05 4.6704947023288352e-06 -0.19982696381507337 -3.5678653911297431e-06 -1.9724672322141146e-05 -3.5678653911297431e-06 -0.99964195148431756 0.00043124146759998538 6.3052882163131185e-08 -3.3672562091746627e-05 6.3052882163131185e-08 -0.19982858105814238 -1.5055204634073505e-06 -3.3672562091746627e-05 -1.5055204634073505e-06 -0.99960657012762955 0.00044168762439200648 -3.3855010267134861e-06 -6.8601500953224814e-06 -3.3855010267134861e-06 -0.19983254709369103 1.4634213822972697e-06 -6.8601500953224814e-06 1.4634213822972697e-06 -0.99963469493636747 0.0004492854415607539 -1.0301214421921572e-06 -2.8251132575540794e-06 -1.0301214421921572e-06 -0.19982360859631321 1.0894874824085576e-05 -2.8251132575540794e-06 1.0894874824085576e-05 -0.99961154716024136 0.00050672557419417785 1.0594380642351999e-05 -1.928435411002738e-05 1.0594380642351999e-05 -0.19980888835417454 5.9288190991102496e-06 -1.928435411002738e-05 5.9288190991102496e-06 -0.9995893629514101 0.00049494006245875966 -8.8178613933802245e-07 -2.8480328690072554e-05 -8.8178613933802245e-07 -0.19981873800325856 3.1784779785937189e-07 -2.8480328690072554e-05 3.1784779785937189e-07 -0.99960702636982557 0.00049695854386522242 1.5399354437620391e-06 -2.9405484360867096e-05 1.5399354437620391e-06 -0.19981625806209791 -3.6805265524186837e-07 -2.9405484360867096e-05 -3.6805265524186837e-07 -0.99960576737391538 0.00045587518195766563 -3.7508039034554352e-07 -2.0127331460617626e-05 -3.7508039034554352e-07 -0.19981940434468437 1.2055923068465813e-06 -2.0127331460617626e-05 1.2055923068465813e-06 -0.99959565889695767 0.00044866416751571103 -7.4091249111215553e-06 -1.7766589319956338e-05 -7.4091249111215553e-06 -0.19982396861582968 2.4740815838253383e-06 -1.7766589319956338e-05 2.4740815838253383e-06 -0.9995987066498222 0.00053651438164337151 -5.0140922790927514e-07 8.6468752145130168e-06 -5.0140922790927514e-07 -0.19980546727993032 2.9268920007652355e-06 8.6468752145130168e-06 2.9268920007652355e-06 -0.99958155362342094 0.00046590010449720776 -2.0597396881038809e-06 6.4189909143586021e-06 -2.0597396881038809e-06 -0.19982188948754864 4.8951645035266722e-06 6.4189909143586021e-06 4.8951645035266722e-06 -0.99959987551667195 0.00045638887170096343 -2.6832870971991818e-09 -1.9960641916894062e-05 -2.6832870971991818e-09 -0.19981894058242078 3.0781485746977921e-06 -1.9960641916894062e-05 3.0781485746977921e-06 -0.99959358145995081 0.00050247639400058386 3.582141789668163e-05 -8.48638848327532e-06 3.582141789668163e-05 -0.19980976303819242 -7.4817028927753881e-07 -8.48638848327532e-06 -7.4817028927753881e-07 -0.99958567244330432 0.00053884270476167728 -4.7707776280692431e-07 -2.2945355115266963e-05 -4.7707776280692431e-07 -0.19979908936654112 2.7399171962372293e-06 -2.2945355115266963e-05 2.7399171962372293e-06 -0.99957332501834451 0.00049973335808894959 -1.5012987410163983e-05 -6.5371663309221617e-06 -1.5012987410163983e-05 -0.19981183068935371 5.9640940504035456e-06 -6.5371663309221617e-06 5.9640940504035456e-06 -0.99958981089942966 0.00054082887714845818 3.7451654528315642e-06 1.0309052040913258e-06 3.7451654528315642e-06 -0.19980385297295089 -3.0267357424840213e-06 1.0309052040913258e-06 -3.0267357424840213e-06 -0.99960421334568306 0.00046789687130788238 -1.493387618385182e-06 -1.3045811308787236e-05 -1.493387618385182e-06 -0.19981525340491424 -1.7341465818887514e-06 -1.3045811308787236e-05 -1.7341465818887514e-06 -0.99957921170536235 0.00046317481745920819 -5.4543406025568366e-07 -5.6856606107658081e-06 -5.4543406025568366e-07 -0.199820480207686 2.5636073688328764e-06 -5.6856606107658081e-06 2.5636073688328764e-06 -0.99959342169725507 0.00042823767213384656 -4.702898406995128e-07 -1.0839498848280726e-05 -4.702898406995128e-07 -0.19982853187218241 -4.7651262147230256e-06 -1.0839498848280726e-05 -4.7651262147230256e-06 -0.99959837962495257 0.00045131702086798064 4.1886381719549023e-06 2.0017622994750184e-06 4.1886381719549023e-06 -0.19982355350161773 -5.4713662502869909e-06 2.0017622994750184e-06 -5.4713662502869909e-06 -0.99959487944490721 0.00042849616877527197 -6.1183460178210984e-07 -1.0653649401781706e-05 -6.1183460178210984e-07 -0.19982806874249626 -5.112343388735674e-06 -1.0653649401781706e-05 -5.112343388735674e-06 -0.9995975739916263 0.00043652348348943715 2.3512537475736909e-05 2.1395077256514128e-06 2.3512537475736909e-05 -0.19984126718598738 2.9711594659254104e-05 2.1395077256514128e-06 2.9711594659254104e-05 -0.9996113866924381 0.00042858188783195805 -7.4145116628000252e-07 -1.0659058336415228e-05 -7.4145116628000252e-07 -0.19982773450239782 -4.8823002369857704e-06 -1.0659058336415228e-05 -4.8823002369857704e-06 -0.99959745314629722 0.00039947234003667731 -1.0229735214493325e-07 -1.6771343899879554e-05 -1.0229735214493325e-07 -0.19983974481747735 -2.4191486922564565e-06 -1.6771343899879554e-05 -2.4191486922564565e-06 -0.99961843306732057 0.00037959591292652251 -4.501273086886993e-07 -2.531073358413849e-05 -4.501273086886993e-07 -0.19984243049661418 -2.2625179609825352e-06 -2.531073358413849e-05 -2.2625179609825352e-06 -0.99962898443427528 0.00042828713269815744 -8.5445397378152452e-07 -2.8832177009219251e-06 -8.5445397378152452e-07 -0.19983065906208197 9.4438008269026597e-07 -2.8832177009219251e-06 9.4438008269026597e-07 -0.99961112034764255 0.00040319857286430505 4.3509811745908978e-06 -1.5909383790368992e-05 4.3509811745908978e-06 -0.19983956071297371 -5.1265264979782899e-06 -1.5909383790368992e-05 -5.1265264979782899e-06 -0.99963655325491851 0.00038652874472233645 2.210323558025679e-06 -2.5587371451529783e-05 2.210323558025679e-06 -0.19984154476497995 -2.9936302844424389e-06 -2.5587371451529783e-05 -2.9936302844424389e-06 -0.99962186459653912 0.00039219656194007524 8.1740217700097553e-07 -3.1268879465695676e-06 8.1740217700097553e-07 -0.19984039452711438 1.9262523127672182e-06 -3.1268879465695676e-06 1.9262523127672182e-06 -0.99961687627540452 0.00039487812842453618 -9.1927491227121516e-07 -8.3982625000977862e-06 -9.1927491227121516e-07 -0.19983873695229126 -2.2965663384333368e-06 -8.3982625000977862e-06 -2.2965663384333368e-06 -0.99961515532144363 0.00041035090350638459 -6.516607648564164e-06 1.3949691711756529e-06 -6.516607648564164e-06 -0.19983474474419594 -2.3683837612198388e-06 1.3949691711756529e-06 -2.3683837612198388e-06 -0.99961145450148958 0.00039900366867942627 8.7774569583004131e-06 -1.1933958977139447e-05 8.7774569583004131e-06 -0.19983539959725125 -2.7434960808703224e-06 -1.1933958977139447e-05 -2.7434960808703224e-06 -0.99960417360694087 0.00039186450570127818 -3.8600902956273716e-07 -1.2616023686295996e-05 -3.8600902956273716e-07 -0.19983582198973482 -6.4775867736344139e-07 -1.2616023686295996e-05 -6.4775867736344139e-07 -0.99960500325846535 0.0004027873255155745 -5.5819397799522838e-06 -1.4236870228584442e-05 -5.5819397799522838e-06 -0.19984032477808045 8.470234768354068e-06 -1.4236870228584442e-05 8.470234768354068e-06 -0.9996306502498884 0.00040209394464696402 -2.1504541987342829e-05 4.9100686210223898e-06 -2.1504541987342829e-05 -0.19982582362286072 -7.0974496328979342e-06 4.9100686210223898e-06 -7.0974496328979342e-06 -0.99958850273870858 0.00045555199991698103 -4.5366092458805529e-07 -2.0122642860664897e-05 -4.5366092458805529e-07 -0.19982054626750034 1.0226638509358565e-06 -2.0122642860664897e-05 1.0226638509358565e-06 -0.99959607102655701 0.00040039752302323262 -4.9019284127088232e-06 -8.2505658723364128e-06 -4.9019284127088232e-06 -0.19983800234036164 -7.721112677883113e-06 -8.2505658723364128e-06 -7.721112677883113e-06 -0.99962717222076591 0.00040544656392205169 1.7928443962929748e-05 -1.7744723814550056e-05 1.7928443962929748e-05 -0.19983517108498489 4.9332854747952126e-06 -1.7744723814550056e-05 4.9332854747952126e-06 -0.99960444025958028 0.00043850832062997114 6.0904233242856389e-07 -1.3865018792413863e-05 6.0904233242856389e-07 -0.19983075063500078 3.9781172778141638e-07 -1.3865018792413863e-05 3.9781172778141638e-07 -0.99962074291509406 0.00042080754027062905 -1.8339358577126933e-05 -3.1024566083115435e-05 -1.8339358577126933e-05 -0.19983364319952701 -6.9335395540548461e-06 -3.1024566083115435e-05 -6.9335395540548461e-06 -0.99961335140507446 0.0003976418678196536 -1.0609483745938364e-06 -1.0163264623996859e-05 -1.0609483745938364e-06 -0.19984277799562034 2.6708464662128506e-07 -1.0163264623996859e-05 2.6708464662128506e-07 -0.99964220215575983 0.00039839012771170079 -6.7404994781626008e-06 -3.1888446331840292e-06 -6.7404994781626008e-06 -0.19984069756867501 1.7078590985875053e-07 -3.1888446331840292e-06 1.7078590985875053e-07 -0.99962566413965148 0.00039076960003692207 -2.6529720964670898e-08 -1.3259215454697326e-05 -2.6529720964670898e-08 -0.19983549060320571 -5.5412807131727249e-07 -1.3259215454697326e-05 -5.5412807131727249e-07 -0.99961078632292155 0.00039105356202340236 -1.7854493465820375e-07 -1.4388702374246165e-05 -1.7854493465820375e-07 -0.19984004287400026 -2.3377892105491682e-06 -1.4388702374246165e-05 -2.3377892105491682e-06 -0.99961223458396464 0.000444455675870703 9.3043978591911389e-07 -1.8671258396052437e-05 9.3043978591911389e-07 -0.19982526441400394 3.2574347827996064e-06 -1.8671258396052437e-05 3.2574347827996064e-06 -0.99959648118619349 0.00046644871119794207 -3.8279855046257909e-07 7.683781568124104e-06 -3.8279855046257909e-07 -0.19982120412801907 1.4109353096286581e-06 7.683781568124104e-06 1.4109353096286581e-06 -0.99959466037635147 0.00043000846685536942 -1.1717095472194505e-06 5.0058091207068334e-06 -1.1717095472194505e-06 -0.19982556936280105 -1.3907334712737196e-06 5.0058091207068334e-06 -1.3907334712737196e-06 -0.99958161969880166 0.00046807746587329557 8.7222850896054453e-07 7.8625169251944627e-06 8.7222850896054453e-07 -0.19982214432683898 3.3636440939233125e-06 7.8625169251944627e-06 3.3636440939233125e-06 -0.99959741349831743 0.00044628441937666352 5.8517275275736918e-07 -1.9955145247996242e-05 5.8517275275736918e-07 -0.19982408537313279 2.9088530779652899e-06 -1.9955145247996242e-05 2.9088530779652899e-06 -0.99958855229595045 0.00044442760465623898 6.2192872459040255e-07 -2.1012482462889892e-05 6.2192872459040255e-07 -0.19982570190290028 -4.112441787107457e-07 -2.1012482462889892e-05 -4.112441787107457e-07 -0.99959621863428039 0.00049369069567750667 1.1424026813888783e-06 -2.5806290264274168e-05 1.1424026813888783e-06 -0.19981918935507303 -2.2779475750134281e-07 -2.5806290264274168e-05 -2.2779475750134281e-07 -0.9996073098064655 0.00044959709164604789 3.9438338467591207e-06 -2.2425108017087858e-05 3.9438338467591207e-06 -0.19982546397282164 1.3707762851478122e-06 -2.2425108017087858e-05 1.3707762851478122e-06 -0.99959802156634936 0.00045546839086241242 -2.5040156831968796e-07 -2.0069250512788628e-05 -2.5040156831968796e-07 -0.19982071622862352 6.5964935069828812e-07 -2.0069250512788628e-05 6.5964935069828812e-07 -0.99959637608847363 0.00049365317427263466 5.1251008952524315e-07 -2.629223916983392e-05 5.1251008952524315e-07 -0.19981610761987212 -3.176232934443135e-06 -2.629223916983392e-05 -3.176232934443135e-06 -0.9996027420804019 0.0004674131719216712 9.3068196865642995e-08 7.4719501694797685e-06 9.3068196865642995e-08 -0.19981885875685601 -6.4575897784635572e-07 7.4719501694797685e-06 -6.4575897784635572e-07 -0.99959056264642454 0.00049182859812768598 1.9289134148564308e-07 -2.6972934909386126e-05 1.9289134148564308e-07 -0.19981835108900259 -7.5753528538946568e-07 -2.6972934909386126e-05 -7.5753528538946568e-07 -0.99960858770633632 0.00049276613288851134 -2.5527505359911261e-05 -3.3701560253618368e-06 -2.5527505359911261e-05 -0.19981373214365183 5.9768228273249235e-06 -3.3701560253618368e-06 5.9768228273249235e-06 -0.99958856090255077 0.00053544283582618313 1.0800442533519087e-06 -1.6359386513009611e-05 1.0800442533519087e-06 -0.19980669713394295 1.7594759219308198e-06 -1.6359386513009611e-05 1.7594759219308198e-06 -0.99959107996598551 0.00053837283254887236 7.6940883983060197e-07 -1.9774831815810856e-05 7.6940883983060197e-07 -0.1998027197291149 7.8585879996762031e-06 -1.9774831815810856e-05 7.8585879996762031e-06 -0.99958040387073144 0.00053491716795073252 1.656406452640955e-06 -1.6001186594394312e-05 1.656406452640955e-06 -0.19980507236107248 1.2615648303793137e-08 -1.6001186594394312e-05 1.2615648303793137e-08 -0.99958892650556264 0.00053320919466914862 6.3782253114459059e-07 -1.5248635896636387e-05 6.3782253114459059e-07 -0.19980612029571543 5.4967648588366558e-07 -1.5248635896636387e-05 5.4967648588366558e-07 -0.9995900463927625 0.0005321024741679059 1.518947573331151e-06 -1.5154355360702532e-05 1.518947573331151e-06 -0.19981031564774432 -7.0867613244374184e-07 -1.5154355360702532e-05 -7.0867613244374184e-07 -0.99959138834641026 0.0005369250068367748 -2.0632329889334886e-06 -1.4742210866725003e-05 -2.0632329889334886e-06 -0.19980718100297024 4.7689983473375719e-07 -1.4742210866725003e-05 4.7689983473375719e-07 -0.99959141100970328 0.00045070505176492137 8.3228671428041722e-06 8.6435970357845449e-06 8.3228671428041722e-06 -0.19982183441708579 -2.6283196585263902e-06 8.6435970357845449e-06 -2.6283196585263902e-06 -0.99959549956451221 0.00044971728341357264 2.9504608002166232e-06 8.5357850754530507e-06 2.9504608002166232e-06 -0.19982427772226469 2.2851742784713025e-06 8.5357850754530507e-06 2.2851742784713025e-06 -0.99959551547346837 0.00044656676377385907 6.0722866938329978e-07 -1.9824446205962687e-05 6.0722866938329978e-07 -0.19982604002862892 -2.9582650013515455e-06 -1.9824446205962687e-05 -2.9582650013515455e-06 -0.99958518633746163 0.00046551233284719551 -4.0331108321906924e-06 7.3635812745109774e-06 -4.0331108321906924e-06 -0.19982403241481861 -1.1564925480600508e-06 7.3635812745109774e-06 -1.1564925480600508e-06 -0.99959200017200045 0.00054197806410383187 6.4357242456091283e-07 -1.7426981924639762e-05 6.4357242456091283e-07 -0.19980695436751961 -1.6026781926026246e-06 -1.7426981924639762e-05 -1.6026781926026246e-06 -0.99958795134271039 0.00049157418957435084 -3.7834303594862585e-06 -2.934692974787545e-05 -3.7834303594862585e-06 -0.19981891439294741 1.814979251779647e-06 -2.934692974787545e-05 1.814979251779647e-06 -0.99960508208100851 0.00046057491107609483 -2.6002704418189988e-06 4.5684631779785434e-06 -2.6002704418189988e-06 -0.19982291380596895 1.4667405920688881e-06 4.5684631779785434e-06 1.4667405920688881e-06 -0.99959390338853682 0.00048337224222250175 -1.9729258490527306e-06 -1.827300588108649e-05 -1.9729258490527306e-06 -0.19982630613118135 -1.0017880274215685e-06 -1.827300588108649e-05 -1.0017880274215685e-06 -0.99962786648421975 0.00049555309877136189 -1.0324002751201714e-06 -2.9413049043025552e-05 -1.0324002751201714e-06 -0.19981389422045592 1.5745724762719626e-06 -2.9413049043025552e-05 1.5745724762719626e-06 -0.99960344267398415 0.00033205050575063622 -1.7098239435992041e-06 -3.6000065430918937e-06 -1.7098239435992041e-06 -0.19986342649617278 4.9646032351802205e-07 -3.6000065430918937e-06 4.9646032351802205e-07 -0.99968773129268418 0.00038684721744905448 -1.2699786312697259e-05 -1.0126757924888707e-05 -1.2699786312697259e-05 -0.1998458805285748 -7.3612830078229052e-06 -1.0126757924888707e-05 -7.3612830078229052e-06 -0.99964767672974564 0.00042046852258836864 1.8543435453193001e-06 -3.9512954809861611e-05 1.8543435453193001e-06 -0.19984205810676758 3.140310873006591e-07 -3.9512954809861611e-05 3.140310873006591e-07 -0.99964195744488515 0.00037080693881275106 2.0152851367465363e-05 -1.8274621018221637e-05 2.0152851367465363e-05 -0.1998505363642879 -1.3523511805946242e-05 -1.8274621018221637e-05 -1.3523511805946242e-05 -0.99966809744788931 0.00039093514613747216 -1.3609483008208607e-05 -2.8419022626513524e-05 -1.3609483008208607e-05 -0.19985027621575929 9.8735272033856347e-06 -2.8419022626513524e-05 9.8735272033856347e-06 -0.99965642199896299 0.00047198514627461163 5.6362499268969981e-06 -1.6736121279170568e-05 5.6362499268969981e-06 -0.19982663449859828 -6.9702236547009022e-06 -1.6736121279170568e-05 -6.9702236547009022e-06 -0.99962689280147288 0.00041065574074150568 3.7550205461351444e-06 -2.2445742723364859e-05 3.7550205461351444e-06 -0.19985425854708228 -7.3460106455591756e-06 -2.2445742723364859e-05 -7.3460106455591756e-06 -0.99969375423268803 0.00036938815922488155 -6.3043607613570214e-06 -2.8319710177360236e-05 -6.3043607613570214e-06 -0.19985911826108022 -1.7413287611844908e-07 -2.8319710177360236e-05 -1.7413287611844908e-07 -0.99969579245900042 0.00034572250270403782 3.2916759203620575e-06 -1.5389543266186578e-05 3.2916759203620575e-06 -0.19985291948785122 1.2501232373729465e-06 -1.5389543266186578e-05 1.2501232373729465e-06 -0.99963961130492018 0.00035510176211828171 -2.8193914034401826e-06 -2.3309906515001089e-05 -2.8193914034401826e-06 -0.19986103217024931 -2.2451841075188383e-06 -2.3309906515001089e-05 -2.2451841075188383e-06 -0.99969630984678171 0.00033725704168363624 -4.0895123439866325e-07 -1.7230462283843173e-05 -4.0895123439866325e-07 -0.19985493564251866 1.7918411703288228e-06 -1.7230462283843173e-05 1.7918411703288228e-06 -0.99964084902551997 0.00034668538345797306 1.2732757457097642e-06 -2.8656014509742533e-05 1.2732757457097642e-06 -0.19986502418916693 -7.2157361885594185e-07 -2.8656014509742533e-05 -7.2157361885594185e-07 -0.99970133767610425 0.00033788218841401818 -7.0993251025039521e-06 -2.3162339614912764e-05 -7.0993251025039521e-06 -0.19985518719600737 2.0953134494128278e-07 -2.3162339614912764e-05 2.0953134494128278e-07 -0.99964453317861723 0.00039719966421652986 2.4660391598983632e-06 -3.1895319898556096e-06 2.4660391598983632e-06 -0.19983966438505713 8.0450072983406784e-06 -3.1895319898556096e-06 8.0450072983406784e-06 -0.99962452455066786 0.00039297983198618991 -1.4798303147460451e-06 -1.2819783816953034e-05 -1.4798303147460451e-06 -0.19983900165550758 2.2140852151686374e-08 -1.2819783816953034e-05 2.2140852151686374e-08 -0.9996175299860427 0.0003942030414187947 9.7689024291307582e-06 1.3196476131849266e-06 9.7689024291307582e-06 -0.19984337436950961 -2.3992278737061667e-06 1.3196476131849266e-06 -2.3992278737061667e-06 -0.9996482340808015 0.00040820509268546523 5.5574388979494904e-06 -1.0482953606061329e-05 5.5574388979494904e-06 -0.19983425826021395 3.513243985897585e-06 -1.0482953606061329e-05 3.513243985897585e-06 -0.99961167164871956 0.00040055744335332211 -3.3783104931642615e-07 -8.720020217178881e-06 -3.3783104931642615e-07 -0.19984253587625234 -1.2223304346470343e-06 -8.720020217178881e-06 -1.2223304346470343e-06 -0.99964276582593214 0.00043839658468258769 6.0846462659237194e-07 -1.3655003212154071e-05 6.0846462659237194e-07 -0.19983083573862559 -4.9804808910369758e-07 -1.3655003212154071e-05 -4.9804808910369758e-07 -0.99962120978028945 0.0004056135204675293 4.06216241406466e-06 -1.2303984351286212e-05 4.06216241406466e-06 -0.19983730186232007 -8.6559128608110214e-06 -1.2303984351286212e-05 -8.6559128608110214e-06 -0.99963115181435835 0.0004187552236553857 1.1956964863082294e-05 -2.2779957596370803e-05 1.1956964863082294e-05 -0.19983069905897549 1.5169235849654683e-06 -2.2779957596370803e-05 1.5169235849654683e-06 -0.9995968295659583 0.0004192834243395005 -3.072206300350069e-07 -2.2975222055743316e-05 -3.072206300350069e-07 -0.19982586505098099 -7.174390149744525e-07 -2.2975222055743316e-05 -7.174390149744525e-07 -0.99959582153895576 0.00038996974708260801 -4.1187682703516985e-07 -1.5673211192335224e-05 -4.1187682703516985e-07 -0.19983905008149427 3.2192452317225673e-06 -1.5673211192335224e-05 3.2192452317225673e-06 -0.99961865808701322 0.00044575884288367007 -6.0864954559027294e-08 -1.8504057230472881e-05 -6.0864954559027294e-08 -0.19982484109226051 -3.8069344007185535e-06 -1.8504057230472881e-05 -3.8069344007185535e-06 -0.99959040908848129 0.00039522708894335068 3.2938228561590622e-07 -1.3032477255259245e-05 3.2938228561590622e-07 -0.19983566955262999 -3.4591683828466557e-07 -1.3032477255259245e-05 -3.4591683828466557e-07 -0.99961636690753153 0.00041780028830253058 -1.2725398471678287e-06 -6.9247476065514846e-06 -1.2725398471678287e-06 -0.19983452292603188 -3.955460170956826e-06 -6.9247476065514846e-06 -3.955460170956826e-06 -0.99960995601800473 0.00041199599588159774 -1.2218126014207951e-06 -1.1930579917607265e-05 -1.2218126014207951e-06 -0.19983991038246873 -5.9569899600216136e-06 -1.1930579917607265e-05 -5.9569899600216136e-06 -0.99963176795843234 0.00040263856914310708 -7.9215879057446192e-06 -1.3577974741108001e-05 -7.9215879057446192e-06 -0.19983650578178672 2.2793662830533634e-06 -1.3577974741108001e-05 2.2793662830533634e-06 -0.99960614622578758 0.00039764714001115382 3.4894915476923886e-07 -1.2247839413004336e-05 3.4894915476923886e-07 -0.19983337054991054 -2.6103356529638688e-06 -1.2247839413004336e-05 -2.6103356529638688e-06 -0.99960656761571121 0.00042376469836713504 1.2438744139267696e-06 -1.2820299746474362e-05 1.2438744139267696e-06 -0.19982959556960833 4.5344051060602908e-06 -1.2820299746474362e-05 4.5344051060602908e-06 -0.99959763661124068 0.00042353758443136602 1.9055788554243716e-06 -1.2285709383330623e-05 1.9055788554243716e-06 -0.19982809840838445 3.7425731207463286e-06 -1.2285709383330623e-05 3.7425731207463286e-06 -0.99960027001944729 0.00040993595402631644 6.4069987324445744e-06 -1.5870659115790886e-06 6.4069987324445744e-06 -0.19983480352237221 1.670004710074835e-07 -1.5870659115790886e-06 1.670004710074835e-07 -0.99961905020636244 0.0003777153076954809 1.6458583679082015e-06 -1.8651442804218377e-05 1.6458583679082015e-06 -0.19984491797404913 1.228696144051078e-06 -1.8651442804218377e-05 1.228696144051078e-06 -0.99962190745203161 0.00039453882107735178 -4.5085822513038756e-07 -3.8150672108105965e-06 -4.5085822513038756e-07 -0.19984145244859061 -2.6780306072726745e-06 -3.8150672108105965e-06 -2.6780306072726745e-06 -0.99962257728590787 0.0003883557258882453 1.0601586229719759e-06 -1.3279680285860351e-05 1.0601586229719759e-06 -0.19984348378238248 3.697740949992756e-06 -1.3279680285860351e-05 3.697740949992756e-06 -0.99963213589741118 0.00034658470255399809 -1.6097857012458974e-06 -1.2931789361236845e-05 -1.6097857012458974e-06 -0.19985490124322458 -1.3847223219176641e-06 -1.2931789361236845e-05 -1.3847223219176641e-06 -0.99963630012897875 0.00034193390086750819 -3.3355607946940264e-06 -1.9171858115618612e-05 -3.3355607946940264e-06 -0.19985906654680391 1.7068392685892775e-06 -1.9171858115618612e-05 1.7068392685892775e-06 -0.99966310074254516 0.00037392800577384921 -2.7467223765079497e-08 -3.4188658840639263e-05 -2.7467223765079497e-08 -0.19985318132290109 -1.073064180956429e-06 -3.4188658840639263e-05 -1.073064180956429e-06 -0.99966477059061321 0.0003845889807880809 3.5362423263045491e-06 -2.0096999322372078e-05 3.5362423263045491e-06 -0.19984533282003469 -1.4472647587027154e-06 -2.0096999322372078e-05 -1.4472647587027154e-06 -0.99962995063392235 0.00030887781508082135 7.7330961997548546e-06 -2.3904115595344e-05 7.7330961997548546e-06 -0.19987409914418852 1.1951127590892341e-06 -2.3904115595344e-05 1.1951127590892341e-06 -0.9997072937795366 0.00038098383818663262 1.4823238403410954e-06 -2.9569650190408581e-05 1.4823238403410954e-06 -0.19984867628347358 1.1453481627565765e-06 -2.9569650190408581e-05 1.1453481627565765e-06 -0.99965200523963782 0.00035781166055248725 -5.0868842946069418e-07 -2.2048726567636123e-05 -5.0868842946069418e-07 -0.19986191204222881 -1.9481765450857225e-08 -2.2048726567636123e-05 -1.9481765450857225e-08 -0.99969537449779633 0.00030820836779976712 1.587678355071911e-06 -3.4436490164112959e-05 1.587678355071911e-06 -0.19987522905782895 5.590780660646999e-08 -3.4436490164112959e-05 5.590780660646999e-08 -0.99971248799627244 0.00032746473025735412 -1.9061172232009405e-07 -9.8449170022885113e-06 -1.9061172232009405e-07 -0.19986396069258361 -3.1104333539921925e-06 -9.8449170022885113e-06 -3.1104333539921925e-06 -0.99967714260482143 0.00030872950118232545 3.6806513887557148e-06 -1.5635281474635221e-05 3.6806513887557148e-06 -0.19987530223714067 2.0678668111173693e-06 -1.5635281474635221e-05 2.0678668111173693e-06 -0.99970449713688314 0.00047775544035816297 6.5312358679767916e-06 -1.1568838398839931e-05 6.5312358679767916e-06 -0.19982465606897709 1.0633745174404297e-06 -1.1568838398839931e-05 1.0633745174404297e-06 -0.99962714730515301 0.00036493186600217858 7.8599620469836355e-06 -1.8519506031156041e-05 7.8599620469836355e-06 -0.19985259872044037 1.5511456424033288e-06 -1.8519506031156041e-05 1.5511456424033288e-06 -0.99965474674126131 0.00037692720264481672 4.5966733611651399e-06 -1.8716035998341679e-05 4.5966733611651399e-06 -0.19985237289671443 5.0810182554705818e-06 -1.8716035998341679e-05 5.0810182554705818e-06 -0.999659470950514 0.00037258066800438527 2.3874386663510406e-07 -3.9444049425130245e-05 2.3874386663510406e-07 -0.19985630408812716 3.5054222704555826e-06 -3.9444049425130245e-05 3.5054222704555826e-06 -0.99967355537709679 0.00041188183821250224 -5.9574116614873851e-06 -1.2881654857022085e-05 -5.9574116614873851e-06 -0.19984229162275957 -9.2009194780917625e-06 -1.2881654857022085e-05 -9.2009194780917625e-06 -0.99967540793152532 0.00038078611203495871 -1.2926007725420856e-05 7.0821965736378445e-07 -1.2926007725420856e-05 -0.19984420602791919 4.0376962839872022e-07 7.0821965736378445e-07 4.0376962839872022e-07 -0.99965183374788769 0.00040974382291425471 7.5010803684724614e-06 -2.4969190786483519e-05 7.5010803684724614e-06 -0.19985326703894879 1.4780158743565863e-06 -2.4969190786483519e-05 1.4780158743565863e-06 -0.99969675949714709 0.00040936033706817643 -9.6152215685551634e-08 -2.6049360236868324e-05 -9.6152215685551634e-08 -0.19984870250430764 9.5046067779547272e-06 -2.6049360236868324e-05 9.5046067779547272e-06 -0.99969103165875062 0.00047035936641071086 1.1542124821463004e-06 -1.8397256845936738e-05 1.1542124821463004e-06 -0.19982313931965057 1.3095367181747974e-06 -1.8397256845936738e-05 1.3095367181747974e-06 -0.99963071002497239 0.0004196362707148682 5.9162553701837741e-08 -2.2507345500244469e-05 5.9162553701837741e-08 -0.19982696691525867 -6.4703479552008503e-07 -2.2507345500244469e-05 -6.4703479552008503e-07 -0.99959296524491881 0.00048374629314396067 -1.9247000423418103e-06 -1.5531669258495029e-05 -1.9247000423418103e-06 -0.19982339778825575 3.1918434015842934e-06 -1.5531669258495029e-05 3.1918434015842934e-06 -0.99962354572751 0.0004487163388391946 -7.5758179602546082e-06 -9.8977159002089365e-07 -7.5758179602546082e-06 -0.19982435044973829 -2.6778709009134261e-06 -9.8977159002089365e-07 -2.6778709009134261e-06 -0.99960071557573538 0.00044134918407046086 1.0134913542230747e-06 -1.0262616431444549e-05 1.0134913542230747e-06 -0.19983060952674236 3.3399367019848469e-06 -1.0262616431444549e-05 3.3399367019848469e-06 -0.99961619349892405 0.00048725029082485882 -4.7060633325304833e-07 -2.6375355588470484e-06 -4.7060633325304833e-07 -0.1998168962773208 -6.0218055312200036e-06 -2.6375355588470484e-06 -6.0218055312200036e-06 -0.99960746807427681 0.00043474339532728612 -6.3831555322756865e-06 -2.7211785937009125e-05 -6.3831555322756865e-06 -0.19983091356859833 4.5301142929110583e-06 -2.7211785937009125e-05 4.5301142929110583e-06 -0.99961890353041172 0.00046588135648290008 1.0383330763590319e-07 1.0287286825727548e-05 1.0383330763590319e-07 -0.19982107027890378 -1.0900838777194721e-06 1.0287286825727548e-05 -1.0900838777194721e-06 -0.99959311804744799 0.00046492013570542667 6.1001596427079546e-07 1.0704792996862889e-05 6.1001596427079546e-07 -0.19982342474271575 -2.3288066464677293e-06 1.0704792996862889e-05 -2.3288066464677293e-06 -0.99959458657708899 0.00043465149983763079 -1.1772255356490751e-05 -2.4155202655418151e-05 -1.1772255356490751e-05 -0.19982799414532121 1.4974650075494367e-08 -2.4155202655418151e-05 1.4974650075494367e-08 -0.99958996902611053 0.00054165176631049139 -6.1361757370954134e-07 -1.4914341499583372e-05 -6.1361757370954134e-07 -0.19980305886791705 -4.524508292025331e-06 -1.4914341499583372e-05 -4.524508292025331e-06 -0.9995934836074869 0.00054878222206578009 -5.2285811022509044e-06 -1.4229881819094459e-05 -5.2285811022509044e-06 -0.1998045671175841 -1.9857870250383769e-06 -1.4229881819094459e-05 -1.9857870250383769e-06 -0.99959421582643504 0.00045005059050784446 1.2780466543143919e-05 2.3276627455492971e-06 1.2780466543143919e-05 -0.19982292753829056 3.6673875721815463e-06 2.3276627455492971e-06 3.6673875721815463e-06 -0.99959738484808458 0.00046976846819957174 2.0117373321273053e-06 -1.6437451303530359e-05 2.0117373321273053e-06 -0.19981632365763069 6.5911246823757708e-06 -1.6437451303530359e-05 6.5911246823757708e-06 -0.99957909807013756 0.00055575205396052318 5.3980871726486262e-07 -1.7598360396053891e-05 5.3980871726486262e-07 -0.19979896787865026 -6.3408752233318211e-06 -1.7598360396053891e-05 -6.3408752233318211e-06 -0.99958828060313198 0.00046998256906660707 2.3864064068759306e-06 -1.6417728838535872e-05 2.3864064068759306e-06 -0.19981535989155774 5.5867854311664189e-06 -1.6417728838535872e-05 5.5867854311664189e-06 -0.99957899035070685 0.00053843500927786003 7.1301079857799905e-06 3.5271850995499676e-07 7.1301079857799905e-06 -0.19980267624233772 1.7418545477099201e-06 3.5271850995499676e-07 1.7418545477099201e-06 -0.99959078962426151 0.00051185956480759298 1.9264211564493823e-05 -5.6275069484357232e-06 1.9264211564493823e-05 -0.19981002221862865 -1.8926540843455797e-06 -5.6275069484357232e-06 -1.8926540843455797e-06 -0.99958582784431149 
</DataArray>
</CellData>
</Piece>
</UnstructuredGrid>
</VTKFile>
