<?xml version="1.0"?>
<VTKFile type="UnstructuredGrid" version="0.1" byte_order="LittleEndian">
<UnstructuredGrid>
<Piece NumberOfPoints="2876" NumberOfCells="719">
<Points>
<DataArray type="Float64" NumberOfComponents="3" format="ascii">
0.31610726166346748 0.18804489794572149 0 0.16929708765618309 0.30074819035915368 0 0.14641016151452901 0.14641016151487049 0 0.312576188949791 0.31458070521983672 0.3125761889497819 0 0.20000000000083221 0 0 0 0 0.14641016151452901 0.14641016151487049 0 0 0.14641016151432179 0.14641016151432179 0 0 0 0.19999999999955789 0 0 0.14641016151452901 0.14641016151487049 0 0.1464101615145241 0 0.14641016151486561 0 0.14641016151432179 0.14641016151432179 0 0 0.20000000000083221 0 0 0 0.1464101615145241 0 0.14641016151486561 0 0.14641016151432179 0.14641016151432179 0 0.30074819035869899 0.1692970876565193 0 0.18804489794560331 0.31610726166461361 0.312576188949791 0.31458070521983672 0.3125761889497819 0.31578456131778371 0 0.1865278143482666 0.1464101615145241 0 0.14641016151486561 0.16938214347656569 0 0.30011357660650623 0.312576188949791 0.31458070521983672 0.3125761889497819 0 0.14641016151432179 0.14641016151432179 0 0 0 0.14641016151452901 0.14641016151487049 0 0.1464101615145241 0 0.14641016151486561 0.14641016151452901 0.14641016151487049 0 0.1464101615145241 0 0.14641016151486561 0.31578456131778371 0 0.1865278143482666 0.312576188949791 0.31458070521983672 0.3125761889497819 0.14641016151452901 0.14641016151487049 0 0 0.30074819035869899 0.1692970876565193 0 0.14641016151432179 0.14641016151432179 0.312576188949791 0.31458070521983672 0.3125761889497819 0.14641016151452901 0.14641016151487049 0 0 0.14641016151432179 0.14641016151432179 0.1464101615145241 0 0.14641016151486561 0.312576188949791 0.31458070521983672 0.3125761889497819 0 0.14641016151432179 0.14641016151432179 0.16938214347656569 0 0.30011357660650623 0.1464101615145241 0 0.14641016151486561 0.312576188949791 0.31458070521983672 0.3125761889497819 0.1464101615145241 0 0.14641016151486561 0 0.14641016151432179 0.14641016151432179 0 0 0.20000000000083221 0.16938214347656569 0 0.30011357660650623 0 0.18804489794560331 0.31610726166461361 0 0 0.20000000000083221 0 0.14641016151432179 0.14641016151432179 0.16938214347656569 0 0.30011357660650623 0 0.14641016151432179 0.14641016151432179 0.14641016151452901 0.14641016151487049 0 0 0.20000000000083221 0 0 0.30074819035869899 0.1692970876565193 0 0.30074819035869899 0.1692970876565193 0.14641016151452901 0.14641016151487049 0 0 0.20000000000083221 0 0.16929708765618309 0.30074819035915368 0 0.19999999999955789 0 0 0.14641016151452901 0.14641016151487049 0 0.31578456131778371 0 0.1865278143482666 0.31610726166346748 0.18804489794572149 0 0.19999999999955789 0 0 0.14641016151452901 0.14641016151487049 0 0.1464101615145241 0 0.14641016151486561 0.31578456131778371 0 0.1865278143482666 0.31578456131778371 0 0.1865278143482666 0.3999999999989749 0 0 0.19999999999955789 0 0 0.31610726166346748 0.18804489794572149 0 0.31578456131778371 0 0.1865278143482666 0.31610726166346748 0.18804489794572149 0 0.14641016151452901 0.14641016151487049 0 0.312576188949791 0.31458070521983672 0.3125761889497819 0.31610726166346748 0.18804489794572149 0 0.312576188949791 0.31458070521983672 0.3125761889497819 0.31578456131778371 0 0.1865278143482666 0.5003997205654479 0.21136633249797621 0.2258422409314382 0.31610726166346748 0.18804489794572149 0 0.49391845158624981 0 0.1323760430705655 0.50966790549376417 0.16275515618023731 0 0.5003997205654479 0.21136633249797621 0.2258422409314382 0.31610726166346748 0.18804489794572149 0 0.50966790549376417 0.16275515618023731 0 0.45812322962036273 0.31024977578535839 0 0.5003997205654479 0.21136633249797621 0.2258422409314382 0.49391845158624981 0 0.1323760430705655 0.3999999999989749 0 0 0.31610726166346748 0.18804489794572149 0 0.50966790549376417 0.16275515618023731 0 0.49391845158624981 0 0.1323760430705655 0.3999999999989749 0 0 0.31578456131778371 0 0.1865278143482666 0.31610726166346748 0.18804489794572149 0 0.31578456131778371 0 0.1865278143482666 0.47688326899416439 0 0.31741132792405607 0.49391845158624981 0 0.1323760430705655 0.5003997205654479 0.21136633249797621 0.2258422409314382 0.31610726166346748 0.18804489794572149 0 0.31578456131778371 0 0.1865278143482666 0.49391845158624981 0 0.1323760430705655 0.5003997205654479 0.21136633249797621 0.2258422409314382 0.31030302876556398 0 0.54179813558513157 0.50073570207385831 0.24848280280289631 0.52886631355986169 0.32146143392436449 0 0.38738071487621961 0.22088738526309029 0.22111069116742441 0.50004796911802929 0.32146143392436449 0 0.38738071487621961 0.312576188949791 0.31458070521983672 0.3125761889497819 0.16938214347656569 0 0.30011357660650623 0.22088738526309029 0.22111069116742441 0.50004796911802929 0.32146143392436449 0 0.38738071487621961 0.50073570207385831 0.24848280280289631 0.52886631355986169 0.312576188949791 0.31458070521983672 0.3125761889497819 0.22088738526309029 0.22111069116742441 0.50004796911802929 0.32146143392436449 0 0.38738071487621961 0.50073570207385831 0.24848280280289631 0.52886631355986169 0.47688326899416439 0 0.31741132792405607 0.5003997205654479 0.21136633249797621 0.2258422409314382 0.32146143392436449 0 0.38738071487621961 0.312576188949791 0.31458070521983672 0.3125761889497819 0.50073570207385831 0.24848280280289631 0.52886631355986169 0.5003997205654479 0.21136633249797621 0.2258422409314382 0.32146143392436449 0 0.38738071487621961 0.31578456131778371 0 0.1865278143482666 0.16938214347656569 0 0.30011357660650623 0.312576188949791 0.31458070521983672 0.3125761889497819 0.31578456131778371 0 0.1865278143482666 0.312576188949791 0.31458070521983672 0.3125761889497819 0.32146143392436449 0 0.38738071487621961 0.5003997205654479 0.21136633249797621 0.2258422409314382 0.31578456131778371 0 0.1865278143482666 0.32146143392436449 0 0.38738071487621961 0.47688326899416439 0 0.31741132792405607 0.5003997205654479 0.21136633249797621 0.2258422409314382 0.31030302876556398 0 0.54179813558513157 0.50000000000250922 0 0.48038475773043671 0.32146143392436449 0 0.38738071487621961 0.50073570207385831 0.24848280280289631 0.52886631355986169 0.32146143392436449 0 0.38738071487621961 0.50000000000250922 0 0.48038475773043671 0.47688326899416439 0 0.31741132792405607 0.50073570207385831 0.24848280280289631 0.52886631355986169 0.16370661204827031 0 0.4886650857430957 0.31030302876556398 0 0.54179813558513157 0.32146143392436449 0 0.38738071487621961 0.22088738526309029 0.22111069116742441 0.50004796911802929 0.16370661204827031 0 0.4886650857430957 0.32146143392436449 0 0.38738071487621961 0.16938214347656569 0 0.30011357660650623 0.22088738526309029 0.22111069116742441 0.50004796911802929 0.16938214347656569 0 0.30011357660650623 0 0.14641016151432179 0.14641016151432179 0 0.18804489794560331 0.31610726166461361 0.312576188949791 0.31458070521983672 0.3125761889497819 0 0.18804489794560331 0.31610726166461361 0.16370661204827031 0 0.4886650857430957 0.16938214347656569 0 0.30011357660650623 0.22088738526309029 0.22111069116742441 0.50004796911802929 0 0.18804489794560331 0.31610726166461361 0.16938214347656569 0 0.30011357660650623 0.312576188949791 0.31458070521983672 0.3125761889497819 0.22088738526309029 0.22111069116742441 0.50004796911802929 0 0 0.40000000000166441 0 0 0.60000000000138687 0.16370661204827031 0 0.4886650857430957 0 0.16275515618034081 0.50966790549591257 0 0 0.40000000000166441 0 0.18804489794560331 0.31610726166461361 0.16370661204827031 0 0.4886650857430957 0.16938214347656569 0 0.30011357660650623 0.16370661204827031 0 0.4886650857430957 0 0.18804489794560331 0.31610726166461361 0 0 0.40000000000166441 0 0.16275515618034081 0.50966790549591257 0 0.18804489794560331 0.31610726166461361 0 0 0.40000000000166441 0 0 0.20000000000083221 0.16938214347656569 0 0.30011357660650623 0 0.18804489794560331 0.31610726166461361 0 0.16275515618034081 0.50966790549591257 0.16370661204827031 0 0.4886650857430957 0.22088738526309029 0.22111069116742441 0.50004796911802929 0 0.18804489794560331 0.31610726166461361 0 0.31024977578556651 0.45812322962166352 0 0.16275515618034081 0.50966790549591257 0.22088738526309029 0.22111069116742441 0.50004796911802929 0 0.30074819035869899 0.1692970876565193 0 0.39615100178029522 0.32925244736138171 0 0.18804489794560331 0.31610726166461361 0.312576188949791 0.31458070521983672 0.3125761889497819 0 0.31024977578556651 0.45812322962166352 0.312576188949791 0.31458070521983672 0.3125761889497819 0.24769234054476261 0.52242103280823293 0.45098450226372488 0.22088738526309029 0.22111069116742441 0.50004796911802929 0 0.18804489794560331 0.31610726166461361 0 0.39615100178029522 0.32925244736138171 0 0.31024977578556651 0.45812322962166352 0.312576188949791 0.31458070521983672 0.3125761889497819 0 0.39615100178029522 0.32925244736138171 0.24769234054476261 0.52242103280823293 0.45098450226372488 0.312576188949791 0.31458070521983672 0.3125761889497819 0.22345881830598399 0.5062398304147856 0.22345881830602041 0 0.31024977578556651 0.45812322962166352 0.312576188949791 0.31458070521983672 0.3125761889497819 0 0.39615100178029522 0.32925244736138171 0.24769234054476261 0.52242103280823293 0.45098450226372488 0 0.30074819035869899 0.1692970876565193 0 0.39615100178029522 0.32925244736138171 0.312576188949791 0.31458070521983672 0.3125761889497819 0.22345881830598399 0.5062398304147856 0.22345881830602041 0 0.18804489794560331 0.31610726166461361 0.312576188949791 0.31458070521983672 0.3125761889497819 0 0.31024977578556651 0.45812322962166352 0.22088738526309029 0.22111069116742441 0.50004796911802929 0 0.31024977578556651 0.45812322962166352 0 0.39615100178029522 0.32925244736138171 0 0.50000000000237477 0.51961524226909872 0.24769234054476261 0.52242103280823293 0.45098450226372488 0.50000000000001332 0.49999999999999561 0.49999999999999561 0.50073570207385831 0.24848280280289631 0.52886631355986169 0.312576188949791 0.31458070521983672 0.3125761889497819 0.5004045312576143 0.47050700646456922 0.24963111222780321 0.24769234054476261 0.52242103280823293 0.45098450226372488 0.5004045312576143 0.47050700646456922 0.24963111222780321 0.312576188949791 0.31458070521983672 0.3125761889497819 0.22345881830598399 0.5062398304147856 0.22345881830602041 0.312576188949791 0.31458070521983672 0.3125761889497819 0.5004045312576143 0.47050700646456922 0.24963111222780321 0.50073570207385831 0.24848280280289631 0.52886631355986169 0.5003997205654479 0.21136633249797621 0.2258422409314382 0.50000000000001332 0.49999999999999561 0.49999999999999561 0.24769234054476261 0.52242103280823293 0.45098450226372488 0.312576188949791 0.31458070521983672 0.3125761889497819 0.50073570207385831 0.24848280280289631 0.52886631355986169 0.312576188949791 0.31458070521983672 0.3125761889497819 0.24769234054476261 0.52242103280823293 0.45098450226372488 0.50000000000001332 0.49999999999999561 0.49999999999999561 0.5004045312576143 0.47050700646456922 0.24963111222780321 0.312576188949791 0.31458070521983672 0.3125761889497819 0.50073570207385831 0.24848280280289631 0.52886631355986169 0.24769234054476261 0.52242103280823293 0.45098450226372488 0.22088738526309029 0.22111069116742441 0.50004796911802929 0.32925244736090059 0.39615100178043078 0 0.312576188949791 0.31458070521983672 0.3125761889497819 0.45812322962036273 0.31024977578535839 0 0.5004045312576143 0.47050700646456922 0.24963111222780321 0.32925244736090059 0.39615100178043078 0 0.5004045312576143 0.47050700646456922 0.24963111222780321 0.32446581821364329 0.60020898676454815 0 0.22345881830598399 0.5062398304147856 0.22345881830602041 0.45812322962036273 0.31024977578535839 0 0.5004045312576143 0.47050700646456922 0.24963111222780321 0.312576188949791 0.31458070521983672 0.3125761889497819 0.5003997205654479 0.21136633249797621 0.2258422409314382 0.45812322962036273 0.31024977578535839 0 0.32925244736090059 0.39615100178043078 0 0.31610726166346748 0.18804489794572149 0 0.312576188949791 0.31458070521983672 0.3125761889497819 0.16929708765618309 0.30074819035915368 0 0.312576188949791 0.31458070521983672 0.3125761889497819 0.32925244736090059 0.39615100178043078 0 0.22345881830598399 0.5062398304147856 0.22345881830602041 0.31610726166346748 0.18804489794572149 0 0.45812322962036273 0.31024977578535839 0 0.312576188949791 0.31458070521983672 0.3125761889497819 0.5003997205654479 0.21136633249797621 0.2258422409314382 0.32925244736090059 0.39615100178043078 0 0.312576188949791 0.31458070521983672 0.3125761889497819 0.5004045312576143 0.47050700646456922 0.24963111222780321 0.22345881830598399 0.5062398304147856 0.22345881830602041 0.32925244736090059 0.39615100178043078 0 0.16929708765618309 0.30074819035915368 0 0.31610726166346748 0.18804489794572149 0 0.312576188949791 0.31458070521983672 0.3125761889497819 0.32446581821364329 0.60020898676454815 0 0.32925244736090059 0.39615100178043078 0 0.51961524226956368 0.5000000000025091 0 0.5004045312576143 0.47050700646456922 0.24963111222780321 0.51961524226956368 0.5000000000025091 0 0.32925244736090059 0.39615100178043078 0 0.45812322962036273 0.31024977578535839 0 0.5004045312576143 0.47050700646456922 0.24963111222780321 0 0.30074819035869899 0.1692970876565193 0.14641016151452901 0.14641016151487049 0 0.16929708765618309 0.30074819035915368 0 0.312576188949791 0.31458070521983672 0.3125761889497819 0 0.30074819035869899 0.1692970876565193 0.312576188949791 0.31458070521983672 0.3125761889497819 0.16929708765618309 0.30074819035915368 0 0.22345881830598399 0.5062398304147856 0.22345881830602041 0.17226134197279269 0.49836539647922029 0 0 0.49836539647891548 0.17226134197271731 0.16929708765618309 0.30074819035915368 0 0.22345881830598399 0.5062398304147856 0.22345881830602041 0.17226134197279269 0.49836539647922029 0 0.16929708765618309 0.30074819035915368 0 0.32925244736090059 0.39615100178043078 0 0.22345881830598399 0.5062398304147856 0.22345881830602041 0 0.30074819035869899 0.1692970876565193 0 0.20000000000083221 0 0 0.40000000000166441 0 0.16929708765618309 0.30074819035915368 0 0 0.30074819035869899 0.1692970876565193 0 0.40000000000166441 0 0 0.49836539647891548 0.17226134197271731 0.16929708765618309 0.30074819035915368 0 0 0.30074819035869899 0.1692970876565193 0.16929708765618309 0.30074819035915368 0 0 0.49836539647891548 0.17226134197271731 0.22345881830598399 0.5062398304147856 0.22345881830602041 0 0.30074819035869899 0.1692970876565193 0 0.49836539647891548 0.17226134197271731 0 0.39615100178029522 0.32925244736138171 0.22345881830598399 0.5062398304147856 0.22345881830602041 0 0.49836539647891548 0.17226134197271731 0 0.40000000000166441 0 0 0.60000000000138687 0 0.17226134197279269 0.49836539647922029 0 0.16929708765618309 0.30074819035915368 0 0 0.40000000000166441 0 0 0.49836539647891548 0.17226134197271731 0.17226134197279269 0.49836539647922029 0 0 0.69449451837103049 0.15896804272139439 0 0.60020898676435996 0.32446581821286191 0.22345881830598399 0.5062398304147856 0.22345881830602041 0.19259015428765269 0.77719169076434647 0.19259015428773721 0.1589680427220837 0.69449451837091269 0 0 0.69449451837103049 0.15896804272139439 0.22345881830598399 0.5062398304147856 0.22345881830602041 0.19259015428765269 0.77719169076434647 0.19259015428773721 0 0.69449451837103049 0.15896804272139439 0.17226134197279269 0.49836539647922029 0 0 0.60000000000138687 0 0.1589680427220837 0.69449451837091269 0 0.32446581821364329 0.60020898676454815 0 0.1589680427220837 0.69449451837091269 0 0.22345881830598399 0.5062398304147856 0.22345881830602041 0.19259015428765269 0.77719169076434647 0.19259015428773721 0 0.60000000000138687 0 0 0.49836539647891548 0.17226134197271731 0.17226134197279269 0.49836539647922029 0 0 0.69449451837103049 0.15896804272139439 0 0.69449451837103049 0.15896804272139439 0 0.60000000000138687 0 0 0.79999999999999982 0 0.1589680427220837 0.69449451837091269 0 0.31067093463127438 0.81480288849489035 0 0.1589680427220837 0.69449451837091269 0 0.32446581821364329 0.60020898676454815 0 0.19259015428765269 0.77719169076434647 0.19259015428773721 0.32446581821364329 0.60020898676454815 0 0.1589680427220837 0.69449451837091269 0 0.17226134197279269 0.49836539647922029 0 0.22345881830598399 0.5062398304147856 0.22345881830602041 0.1589680427220837 0.69449451837091269 0 0 0.69449451837103049 0.15896804272139439 0.17226134197279269 0.49836539647922029 0 0.22345881830598399 0.5062398304147856 0.22345881830602041 0 0.69449451837103049 0.15896804272139439 0 0.81480288849496429 0.31067093462946233 0 0.60020898676435996 0.32446581821286191 0.19259015428765269 0.77719169076434647 0.19259015428773721 0 0.49836539647891548 0.17226134197271731 0 0.69449451837103049 0.15896804272139439 0 0.60020898676435996 0.32446581821286191 0.22345881830598399 0.5062398304147856 0.22345881830602041 0 0.49836539647891548 0.17226134197271731 0.17226134197279269 0.49836539647922029 0 0 0.69449451837103049 0.15896804272139439 0.22345881830598399 0.5062398304147856 0.22345881830602041 0 0.60020898676435996 0.32446581821286191 0.22516916914780419 0.77057994845201627 0.48187244075707292 0.35848654557803328 0.70013656506632282 0.30029870175293161 0.19259015428765269 0.77719169076434647 0.19259015428773721 0 0.60020898676435996 0.32446581821286191 0.24769234054476261 0.52242103280823293 0.45098450226372488 0 0.39615100178029522 0.32925244736138171 0.22345881830598399 0.5062398304147856 0.22345881830602041 0 0.60020898676435996 0.32446581821286191 0 0.81480288849496429 0.31067093462946233 0.22516916914780419 0.77057994845201627 0.48187244075707292 0.19259015428765269 0.77719169076434647 0.19259015428773721 0.35848654557803328 0.70013656506632282 0.30029870175293161 0.22345881830598399 0.5062398304147856 0.22345881830602041 0 0.60020898676435996 0.32446581821286191 0.19259015428765269 0.77719169076434647 0.19259015428773721 0 0.49836539647891548 0.17226134197271731 0 0.60020898676435996 0.32446581821286191 0 0.39615100178029522 0.32925244736138171 0.22345881830598399 0.5062398304147856 0.22345881830602041 0 0.60020898676435996 0.32446581821286191 0.24769234054476261 0.52242103280823293 0.45098450226372488 0.35848654557803328 0.70013656506632282 0.30029870175293161 0.22516916914780419 0.77057994845201627 0.48187244075707292 0.35848654557803328 0.70013656506632282 0.30029870175293161 0.24769234054476261 0.52242103280823293 0.45098450226372488 0 0.60020898676435996 0.32446581821286191 0.22345881830598399 0.5062398304147856 0.22345881830602041 0 0.39615100178029522 0.32925244736138171 0 0.60020898676435996 0.32446581821286191 0 0.50000000000237477 0.51961524226909872 0.24769234054476261 0.52242103280823293 0.45098450226372488 0 0.68801781652248195 0.45664527743358641 0 0.50000000000237477 0.51961524226909872 0 0.60020898676435996 0.32446581821286191 0.24769234054476261 0.52242103280823293 0.45098450226372488 0 0.66416205381430016 0.59944234540882957 0.24769234054476261 0.52242103280823293 0.45098450226372488 0 0.68801781652248195 0.45664527743358641 0.22516916914780419 0.77057994845201627 0.48187244075707292 0 0.60020898676435996 0.32446581821286191 0 0.81480288849496429 0.31067093462946233 0 0.68801781652248195 0.45664527743358641 0.22516916914780419 0.77057994845201627 0.48187244075707292 0 0.68801781652248195 0.45664527743358641 0.24769234054476261 0.52242103280823293 0.45098450226372488 0 0.60020898676435996 0.32446581821286191 0.22516916914780419 0.77057994845201627 0.48187244075707292 0.16929708765615539 1 0.30074819035677097 0.32926555316115258 1 0.39615987727515128 0.22516916914780419 0.77057994845201627 0.48187244075707292 0.19259015428765269 0.77719169076434647 0.19259015428773721 0 0.81480288849496429 0.31067093462946233 0.16929708765615539 1 0.30074819035677097 0.22516916914780419 0.77057994845201627 0.48187244075707292 0.19259015428765269 0.77719169076434647 0.19259015428773721 0.17226134197293 1 0.49836539647645101 0 0.83630110503664845 0.50803330197135654 0 0.81480288849496429 0.31067093462946233 0.22516916914780419 0.77057994845201627 0.48187244075707292 0 0.68801781652248195 0.45664527743358641 0 0.81480288849496429 0.31067093462946233 0 0.83630110503664845 0.50803330197135654 0.22516916914780419 0.77057994845201627 0.48187244075707292 0.17226134197293 1 0.49836539647645101 0 1 0.3999999999989749 0 0.81480288849496429 0.31067093462946233 0 0.83630110503664845 0.50803330197135654 0 0.81480288849496429 0.31067093462946233 0.16929708765615539 1 0.30074819035677097 0 1 0.3999999999989749 0.17226134197293 1 0.49836539647645101 0.17226134197293 1 0.49836539647645101 0 0.81480288849496429 0.31067093462946233 0.16929708765615539 1 0.30074819035677097 0.22516916914780419 0.77057994845201627 0.48187244075707292 0.17226134197293 1 0.49836539647645101 0.16929708765615539 1 0.30074819035677097 0.32926555316115258 1 0.39615987727515128 0.22516916914780419 0.77057994845201627 0.48187244075707292 0 1 0.3999999999989749 0 1 0.19999999999955789 0.16929708765615539 1 0.30074819035677097 0 0.81480288849496429 0.31067093462946233 0.16929708765615539 1 0.30074819035677097 0 1 0.19999999999955789 0 0.85358983848655678 0.14641016151332509 0 0.81480288849496429 0.31067093462946233 0.14641016151352521 1 0.1464101615131837 0 1 0.19999999999955789 0 0.85358983848655678 0.14641016151332509 0.16929708765615539 1 0.30074819035677097 0.20000000000083221 1 0 0 1 0 0.14641016151479211 0.85358983848543113 0 0.14641016151352521 1 0.1464101615131837 0 0.85358983848655678 0.14641016151332509 0 1 0 0 1 0.19999999999955789 0.14641016151352521 1 0.1464101615131837 0 0.85358983848655678 0.14641016151332509 0.14641016151479211 0.85358983848543113 0 0 1 0 0.14641016151352521 1 0.1464101615131837 0.14641016151479211 0.85358983848543113 0 0 1 0 0 0.79999999999999982 0 0 0.85358983848655678 0.14641016151332509 0 0.85358983848655678 0.14641016151332509 0 0.69449451837103049 0.15896804272139439 0.1589680427220837 0.69449451837091269 0 0.19259015428765269 0.77719169076434647 0.19259015428773721 0 0.79999999999999982 0 0.1589680427220837 0.69449451837091269 0 0.14641016151479211 0.85358983848543113 0 0 0.85358983848655678 0.14641016151332509 0.14641016151352521 1 0.1464101615131837 0 0.85358983848655678 0.14641016151332509 0.14641016151479211 0.85358983848543113 0 0.19259015428765269 0.77719169076434647 0.19259015428773721 0.1589680427220837 0.69449451837091269 0 0 0.79999999999999982 0 0 0.69449451837103049 0.15896804272139439 0 0.85358983848655678 0.14641016151332509 0.1589680427220837 0.69449451837091269 0 0.14641016151479211 0.85358983848543113 0 0 0.85358983848655678 0.14641016151332509 0.19259015428765269 0.77719169076434647 0.19259015428773721 0.16929708765615539 1 0.30074819035677097 0 0.81480288849496429 0.31067093462946233 0 0.85358983848655678 0.14641016151332509 0.19259015428765269 0.77719169076434647 0.19259015428773721 0 0.85358983848655678 0.14641016151332509 0 0.81480288849496429 0.31067093462946233 0 0.69449451837103049 0.15896804272139439 0.19259015428765269 0.77719169076434647 0.19259015428773721 0.14641016151352521 1 0.1464101615131837 0.14641016151479211 0.85358983848543113 0 0.31067093463127438 0.81480288849489035 0 0.19259015428765269 0.77719169076434647 0.19259015428773721 0.1589680427220837 0.69449451837091269 0 0.31067093463127438 0.81480288849489035 0 0.14641016151479211 0.85358983848543113 0 0.19259015428765269 0.77719169076434647 0.19259015428773721 0.14641016151479211 0.85358983848543113 0 0.31067093463127438 0.81480288849489035 0 0.20000000000083221 1 0 0.14641016151352521 1 0.1464101615131837 0.31635851157303152 1 0.18818969570840721 0.20000000000083221 1 0 0.31067093463127438 0.81480288849489035 0 0.14641016151352521 1 0.1464101615131837 0.31067093463127438 0.81480288849489035 0 0.31635851157303152 1 0.18818969570840721 0.14641016151352521 1 0.1464101615131837 0.19259015428765269 0.77719169076434647 0.19259015428773721 0.31635851157303152 1 0.18818969570840721 0.16929708765615539 1 0.30074819035677097 0.14641016151352521 1 0.1464101615131837 0.19259015428765269 0.77719169076434647 0.19259015428773721 0.14641016151352521 1 0.1464101615131837 0.16929708765615539 1 0.30074819035677097 0 0.85358983848655678 0.14641016151332509 0.19259015428765269 0.77719169076434647 0.19259015428773721 0.35848654557803328 0.70013656506632282 0.30029870175293161 0.19259015428765269 0.77719169076434647 0.19259015428773721 0.31635851157303152 1 0.18818969570840721 0.52894546611500048 0.79133000140429866 0.2082794184507949 0.31067093463127438 0.81480288849489035 0 0.19259015428765269 0.77719169076434647 0.19259015428773721 0.35848654557803328 0.70013656506632282 0.30029870175293161 0.52894546611500048 0.79133000140429866 0.2082794184507949 0.31067093463127438 0.81480288849489035 0 0.31635851157303152 1 0.18818969570840721 0.19259015428765269 0.77719169076434647 0.19259015428773721 0.52894546611500048 0.79133000140429866 0.2082794184507949 0.31067093463127438 0.81480288849489035 0 0.40000000000166441 1 0 0.20000000000083221 1 0 0.31635851157303152 1 0.18818969570840721 0.31067093463127438 0.81480288849489035 0 0.50803330197353713 0.83630110503668265 0 0.31635851157303152 1 0.18818969570840721 0.52894546611500048 0.79133000140429866 0.2082794184507949 0.45664527743509797 0.68801781652245086 0 0.50803330197353713 0.83630110503668265 0 0.31067093463127438 0.81480288849489035 0 0.52894546611500048 0.79133000140429866 0.2082794184507949 0.51133491425992716 1 0.16370661204795281 0.31635851157303152 1 0.18818969570840721 0.40000000000166441 1 0 0.50803330197353713 0.83630110503668265 0 0.31635851157303152 1 0.18818969570840721 0.31067093463127438 0.81480288849489035 0 0.40000000000166441 1 0 0.50803330197353713 0.83630110503668265 0 0.51133491425992716 1 0.16370661204795281 0.45820186441796368 1 0.31030302876579191 0.31635851157303152 1 0.18818969570840721 0.52894546611500048 0.79133000140429866 0.2082794184507949 0.51133491425992716 1 0.16370661204795281 0.31635851157303152 1 0.18818969570840721 0.50803330197353713 0.83630110503668265 0 0.52894546611500048 0.79133000140429866 0.2082794184507949 0.32926555316115258 1 0.39615987727515128 0.35848654557803328 0.70013656506632282 0.30029870175293161 0.49983993748706529 0.75039103705932653 0.52967335724801234 0.22516916914780419 0.77057994845201627 0.48187244075707292 0.35848654557803328 0.70013656506632282 0.30029870175293161 0.22516916914780419 0.77057994845201627 0.48187244075707292 0.32926555316115258 1 0.39615987727515128 0.19259015428765269 0.77719169076434647 0.19259015428773721 0.31635851157303152 1 0.18818969570840721 0.45820186441796368 1 0.31030302876579191 0.32926555316115258 1 0.39615987727515128 0.35848654557803328 0.70013656506632282 0.30029870175293161 0.45820186441796368 1 0.31030302876579191 0.35848654557803328 0.70013656506632282 0.30029870175293161 0.31635851157303152 1 0.18818969570840721 0.52894546611500048 0.79133000140429866 0.2082794184507949 0.31635851157303152 1 0.18818969570840721 0.35848654557803328 0.70013656506632282 0.30029870175293161 0.32926555316115258 1 0.39615987727515128 0.19259015428765269 0.77719169076434647 0.19259015428773721 0.45820186441796368 1 0.31030302876579191 0.49983993748706529 0.75039103705932653 0.52967335724801234 0.35848654557803328 0.70013656506632282 0.30029870175293161 0.52894546611500048 0.79133000140429866 0.2082794184507949 0.45820186441796368 1 0.31030302876579191 0.32926555316115258 1 0.39615987727515128 0.35848654557803328 0.70013656506632282 0.30029870175293161 0.49983993748706529 0.75039103705932653 0.52967335724801234 0.31635851157303152 1 0.18818969570840721 0.32926555316115258 1 0.39615987727515128 0.16929708765615539 1 0.30074819035677097 0.19259015428765269 0.77719169076434647 0.19259015428773721 0.32926555316115258 1 0.39615987727515128 0.32448110831226962 1 0.6002015905153204 0.17226134197293 1 0.49836539647645101 0.22516916914780419 0.77057994845201627 0.48187244075707292 0.45820186441796368 1 0.31030302876579191 0.51961524227008238 1 0.49999999999872219 0.32926555316115258 1 0.39615987727515128 0.49983993748706529 0.75039103705932653 0.52967335724801234 0.24769234054476261 0.52242103280823293 0.45098450226372488 0.49983993748706529 0.75039103705932653 0.52967335724801234 0.35848654557803328 0.70013656506632282 0.30029870175293161 0.22516916914780419 0.77057994845201627 0.48187244075707292 0.35848654557803328 0.70013656506632282 0.30029870175293161 0.50000000000001332 0.49999999999999561 0.49999999999999561 0.24769234054476261 0.52242103280823293 0.45098450226372488 0.5004045312576143 0.47050700646456922 0.24963111222780321 0.35848654557803328 0.70013656506632282 0.30029870175293161 0.24769234054476261 0.52242103280823293 0.45098450226372488 0.50000000000001332 0.49999999999999561 0.49999999999999561 0.49983993748706529 0.75039103705932653 0.52967335724801234 0.35848654557803328 0.70013656506632282 0.30029870175293161 0.5004045312576143 0.47050700646456922 0.24963111222780321 0.24769234054476261 0.52242103280823293 0.45098450226372488 0.22345881830598399 0.5062398304147856 0.22345881830602041 0.35848654557803328 0.70013656506632282 0.30029870175293161 0.32446581821364329 0.60020898676454815 0 0.5004045312576143 0.47050700646456922 0.24963111222780321 0.22345881830598399 0.5062398304147856 0.22345881830602041 0.31067093463127438 0.81480288849489035 0 0.32446581821364329 0.60020898676454815 0 0.45664527743509797 0.68801781652245086 0 0.35848654557803328 0.70013656506632282 0.30029870175293161 0.32446581821364329 0.60020898676454815 0 0.22345881830598399 0.5062398304147856 0.22345881830602041 0.35848654557803328 0.70013656506632282 0.30029870175293161 0.19259015428765269 0.77719169076434647 0.19259015428773721 0.32446581821364329 0.60020898676454815 0 0.45664527743509797 0.68801781652245086 0 0.35848654557803328 0.70013656506632282 0.30029870175293161 0.5004045312576143 0.47050700646456922 0.24963111222780321 0.31067093463127438 0.81480288849489035 0 0.32446581821364329 0.60020898676454815 0 0.35848654557803328 0.70013656506632282 0.30029870175293161 0.19259015428765269 0.77719169076434647 0.19259015428773721 0.45664527743509797 0.68801781652245086 0 0.31067093463127438 0.81480288849489035 0 0.35848654557803328 0.70013656506632282 0.30029870175293161 0.52894546611500048 0.79133000140429866 0.2082794184507949 0.35848654557803328 0.70013656506632282 0.30029870175293161 0.5004045312576143 0.47050700646456922 0.24963111222780321 0.45664527743509797 0.68801781652245086 0 0.52894546611500048 0.79133000140429866 0.2082794184507949 0.17226134197279269 0.49836539647922029 0 0.32925244736090059 0.39615100178043078 0 0.32446581821364329 0.60020898676454815 0 0.22345881830598399 0.5062398304147856 0.22345881830602041 0.32446581821364329 0.60020898676454815 0 0.51961524226956368 0.5000000000025091 0 0.45664527743509797 0.68801781652245086 0 0.5004045312576143 0.47050700646456922 0.24963111222780321 0.72722573386132172 0.60922248848163563 0 0.68456408135056701 0.68607101396845627 0.31096060989957619 0.59944234541082553 0.66416205381394655 0 0.77713227489941183 0.50036915849493024 0.21774643624003751 0.68456408135056701 0.68607101396845627 0.31096060989957619 0.5004045312576143 0.47050700646456922 0.24963111222780321 0.59944234541082553 0.66416205381394655 0 0.77713227489941183 0.50036915849493024 0.21774643624003751 0.59944234541082553 0.66416205381394655 0 0.45664527743509797 0.68801781652245086 0 0.5004045312576143 0.47050700646456922 0.24963111222780321 0.52894546611500048 0.79133000140429866 0.2082794184507949 0.51961524226956368 0.5000000000025091 0 0.67320508075660079 0.46954769941202479 0 0.59944234541082553 0.66416205381394655 0 0.5004045312576143 0.47050700646456922 0.24963111222780321 0.59944234541082553 0.66416205381394655 0 0.5004045312576143 0.47050700646456922 0.24963111222780321 0.68456408135056701 0.68607101396845627 0.31096060989957619 0.52894546611500048 0.79133000140429866 0.2082794184507949 0.59944234541082553 0.66416205381394655 0 0.5004045312576143 0.47050700646456922 0.24963111222780321 0.67320508075660079 0.46954769941202479 0 0.77713227489941183 0.50036915849493024 0.21774643624003751 0.59944234541082553 0.66416205381394655 0 0.52894546611500048 0.79133000140429866 0.2082794184507949 0.68456408135056701 0.68607101396845627 0.31096060989957619 0.81582077266975173 0.77657922508894406 0.18483084990574741 0.59944234541082553 0.66416205381394655 0 0.45664527743509797 0.68801781652245086 0 0.51961524226956368 0.5000000000025091 0 0.5004045312576143 0.47050700646456922 0.24963111222780321 0.59944234541082553 0.66416205381394655 0 0.68456408135056701 0.68607101396845627 0.31096060989957619 0.72722573386132172 0.60922248848163563 0 0.81582077266975173 0.77657922508894406 0.18483084990574741 0.45664527743509797 0.68801781652245086 0 0.59944234541082553 0.66416205381394655 0 0.50803330197353713 0.83630110503668265 0 0.52894546611500048 0.79133000140429866 0.2082794184507949 0.59944234541082553 0.66416205381394655 0 0.72722573386132172 0.60922248848163563 0 0.7054234997318658 0.80860557108880304 0 0.81582077266975173 0.77657922508894406 0.18483084990574741 0.72722573386132172 0.60922248848163563 0 0.59944234541082553 0.66416205381394655 0 0.67320508075660079 0.46954769941202479 0 0.77713227489941183 0.50036915849493024 0.21774643624003751 0.68456408135056701 0.68607101396845627 0.31096060989957619 0.5004045312576143 0.47050700646456922 0.24963111222780321 0.35848654557803328 0.70013656506632282 0.30029870175293161 0.52894546611500048 0.79133000140429866 0.2082794184507949 0.68456408135056701 0.68607101396845627 0.31096060989957619 0.35848654557803328 0.70013656506632282 0.30029870175293161 0.50000000000001332 0.49999999999999561 0.49999999999999561 0.49983993748706529 0.75039103705932653 0.52967335724801234 0.50000000000001332 0.49999999999999561 0.49999999999999561 0.35848654557803328 0.70013656506632282 0.30029870175293161 0.68456408135056701 0.68607101396845627 0.31096060989957619 0.5004045312576143 0.47050700646456922 0.24963111222780321 0.50000000000001332 0.49999999999999561 0.49999999999999561 0.68456408135056701 0.68607101396845627 0.31096060989957619 0.7504488434426726 0.53051757989633308 0.49836643074154852 0.5004045312576143 0.47050700646456922 0.24963111222780321 0.68456408135056701 0.68607101396845627 0.31096060989957619 0.49983993748706529 0.75039103705932653 0.52967335724801234 0.7504488434426726 0.53051757989633308 0.49836643074154852 0.77374673111774417 0.78860835645735528 0.49829081152968557 0.7504488434426726 0.53051757989633308 0.49836643074154852 0.5004045312576143 0.47050700646456922 0.24963111222780321 0.68456408135056701 0.68607101396845627 0.31096060989957619 0.77713227489941183 0.50036915849493024 0.21774643624003751 0.35848654557803328 0.70013656506632282 0.30029870175293161 0.49983993748706529 0.75039103705932653 0.52967335724801234 0.68456408135056701 0.68607101396845627 0.31096060989957619 0.52894546611500048 0.79133000140429866 0.2082794184507949 0.50000000000001332 0.49999999999999561 0.49999999999999561 0.7504488434426726 0.53051757989633308 0.49836643074154852 0.68456408135056701 0.68607101396845627 0.31096060989957619 0.49983993748706529 0.75039103705932653 0.52967335724801234 0.68456408135056701 0.68607101396845627 0.31096060989957619 0.52894546611500048 0.79133000140429866 0.2082794184507949 0.61068558124908323 1 0.33127740899601937 0.81582077266975173 0.77657922508894406 0.18483084990574741 0.61068558124908323 1 0.33127740899601937 0.49983993748706529 0.75039103705932653 0.52967335724801234 0.68456408135056701 0.68607101396845627 0.31096060989957619 0.77374673111774417 0.78860835645735528 0.49829081152968557 0.61068558124908323 1 0.33127740899601937 0.68240285647621723 1 0.52310058211166854 0.49983993748706529 0.75039103705932653 0.52967335724801234 0.77374673111774417 0.78860835645735528 0.49829081152968557 0.82751535738810444 1 0.31407731390515509 0.68456408135056701 0.68607101396845627 0.31096060989957619 0.61068558124908323 1 0.33127740899601937 0.81582077266975173 0.77657922508894406 0.18483084990574741 0.45820186441796368 1 0.31030302876579191 0.61068558124908323 1 0.33127740899601937 0.49983993748706529 0.75039103705932653 0.52967335724801234 0.52894546611500048 0.79133000140429866 0.2082794184507949 0.61068558124908323 1 0.33127740899601937 0.68456408135056701 0.68607101396845627 0.31096060989957619 0.82751535738810444 1 0.31407731390515509 0.77374673111774417 0.78860835645735528 0.49829081152968557 0.68456408135056701 0.68607101396845627 0.31096060989957619 0.49983993748706529 0.75039103705932653 0.52967335724801234 0.61068558124908323 1 0.33127740899601937 0.52894546611500048 0.79133000140429866 0.2082794184507949 0.61068558124908323 1 0.33127740899601937 0.68240285647621723 1 0.52310058211166854 0.51961524227008238 1 0.49999999999872219 0.49983993748706529 0.75039103705932653 0.52967335724801234 0.51961524227008238 1 0.49999999999872219 0.45820186441796368 1 0.31030302876579191 0.61068558124908323 1 0.33127740899601937 0.49983993748706529 0.75039103705932653 0.52967335724801234 0.68240285647621723 1 0.52310058211166854 0.61068558124908323 1 0.33127740899601937 0.82751535738810444 1 0.31407731390515509 0.77374673111774417 0.78860835645735528 0.49829081152968557 0.51133491425992716 1 0.16370661204795281 0.61068558124908323 1 0.33127740899601937 0.45820186441796368 1 0.31030302876579191 0.52894546611500048 0.79133000140429866 0.2082794184507949 0.51133491425992716 1 0.16370661204795281 0.69988642339594154 1 0.16938214347578889 0.61068558124908323 1 0.33127740899601937 0.52894546611500048 0.79133000140429866 0.2082794184507949 0.69988642339594154 1 0.16938214347578889 0.61068558124908323 1 0.33127740899601937 0.52894546611500048 0.79133000140429866 0.2082794184507949 0.81582077266975173 0.77657922508894406 0.18483084990574741 0.69988642339594154 1 0.16938214347578889 0.52894546611500048 0.79133000140429866 0.2082794184507949 0.7054234997318658 0.80860557108880304 0 0.81582077266975173 0.77657922508894406 0.18483084990574741 0.69988642339594154 1 0.16938214347578889 0.51133491425992716 1 0.16370661204795281 0.50803330197353713 0.83630110503668265 0 0.52894546611500048 0.79133000140429866 0.2082794184507949 0.59944234541082553 0.66416205381394655 0 0.7054234997318658 0.80860557108880304 0 0.52894546611500048 0.79133000140429866 0.2082794184507949 0.81582077266975173 0.77657922508894406 0.18483084990574741 0.60000000000138687 1 0 0.69988642339594154 1 0.16938214347578889 0.51133491425992716 1 0.16370661204795281 0.50803330197353713 0.83630110503668265 0 0.51133491425992716 1 0.16370661204795281 0.40000000000166441 1 0 0.60000000000138687 1 0 0.50803330197353713 0.83630110503668265 0 0.50803330197353713 0.83630110503668265 0 0.59944234541082553 0.66416205381394655 0 0.7054234997318658 0.80860557108880304 0 0.52894546611500048 0.79133000140429866 0.2082794184507949 0.69988642339594154 1 0.16938214347578889 0.50803330197353713 0.83630110503668265 0 0.7054234997318658 0.80860557108880304 0 0.52894546611500048 0.79133000140429866 0.2082794184507949 0.60000000000138687 1 0 0.79999999999999982 1 0 0.69988642339594154 1 0.16938214347578889 0.7054234997318658 0.80860557108880304 0 0.50803330197353713 0.83630110503668265 0 0.60000000000138687 1 0 0.69988642339594154 1 0.16938214347578889 0.7054234997318658 0.80860557108880304 0 0.69988642339594154 1 0.16938214347578889 0.82751535738810444 1 0.31407731390515509 0.61068558124908323 1 0.33127740899601937 0.81582077266975173 0.77657922508894406 0.18483084990574741 0.82751535738810444 1 0.31407731390515509 0.69988642339594154 1 0.16938214347578889 0.85358983848665693 1 0.14641016151322461 0.81582077266975173 0.77657922508894406 0.18483084990574741 0.69988642339594154 1 0.16938214347578889 0.85358983848666903 0.85358983848666903 0 0.85358983848665693 1 0.14641016151322461 0.81582077266975173 0.77657922508894406 0.18483084990574741 0.85358983848665693 1 0.14641016151322461 1 0.85358983848655678 0.14641016151332509 0.82751535738810444 1 0.31407731390515509 0.81582077266975173 0.77657922508894406 0.18483084990574741 0.85358983848666903 0.85358983848666903 0 0.85358983848665693 1 0.14641016151322461 0.79999999999999982 1 0 0.69988642339594154 1 0.16938214347578889 0.69988642339594154 1 0.16938214347578889 0.79999999999999982 1 0 0.85358983848666903 0.85358983848666903 0 0.7054234997318658 0.80860557108880304 0 0.85358983848666903 0.85358983848666903 0 0.7054234997318658 0.80860557108880304 0 0.85173693729186062 0.69992182039541118 0 0.81582077266975173 0.77657922508894406 0.18483084990574741 0.69988642339594154 1 0.16938214347578889 0.7054234997318658 0.80860557108880304 0 0.85358983848666903 0.85358983848666903 0 0.81582077266975173 0.77657922508894406 0.18483084990574741 1 0.85358983848655678 0.14641016151332509 1 0.69449451837101916 0.15896804272136739 1 0.8148028884949543 0.31067093462944562 0.81582077266975173 0.77657922508894406 0.18483084990574741 0.82751535738810444 1 0.31407731390515509 1 0.85358983848655678 0.14641016151332509 1 0.8148028884949543 0.31067093462944562 0.81582077266975173 0.77657922508894406 0.18483084990574741 1 0.85358983848655678 0.14641016151332509 0.85358983848666903 0.85358983848666903 0 1 0.79999999999999982 0 0.81582077266975173 0.77657922508894406 0.18483084990574741 1 0.79999999999999982 0 0.81582077266975173 0.77657922508894406 0.18483084990574741 1 0.69449451837101916 0.15896804272136739 1 0.85358983848655678 0.14641016151332509 0.85358983848666903 0.85358983848666903 0 1 0.85358983848655678 0.14641016151332509 0.85358983848665693 1 0.14641016151322461 0.81582077266975173 0.77657922508894406 0.18483084990574741 0.85358983848666903 0.85358983848666903 0 0.85173693729186062 0.69992182039541118 0 1 0.79999999999999982 0 0.81582077266975173 0.77657922508894406 0.18483084990574741 1 0.85358983848655678 0.14641016151332509 0.85358983848665693 1 0.14641016151322461 1 1 0 0.85358983848666903 0.85358983848666903 0 1 1 0.19999999999955789 0.85358983848665693 1 0.14641016151322461 1 1 0 1 0.85358983848655678 0.14641016151332509 1 1 0 1 0.85358983848655678 0.14641016151332509 0.85358983848666903 0.85358983848666903 0 1 0.79999999999999982 0 0.79999999999999982 1 0 1 1 0 0.85358983848665693 1 0.14641016151322461 0.85358983848666903 0.85358983848666903 0 0.82751535738810444 1 0.31407731390515509 0.85358983848665693 1 0.14641016151322461 1 1 0.19999999999955789 1 0.85358983848655678 0.14641016151332509 1 1 0.19999999999955789 1 0.8148028884949543 0.31067093462944562 0.82751535738810444 1 0.31407731390515509 1 0.85358983848655678 0.14641016151332509 1 1 0.3999999999989749 1 0.8148028884949543 0.31067093462944562 0.82751535738810444 1 0.31407731390515509 1 1 0.19999999999955789 0.82751535738810444 1 0.31407731390515509 0.77374673111774417 0.78860835645735528 0.49829081152968557 0.68456408135056701 0.68607101396845627 0.31096060989957619 0.81582077266975173 0.77657922508894406 0.18483084990574741 1 0.8148028884949543 0.31067093462944562 0.77374673111774417 0.78860835645735528 0.49829081152968557 0.82751535738810444 1 0.31407731390515509 0.81582077266975173 0.77657922508894406 0.18483084990574741 1 0.8148028884949543 0.31067093462944562 0.68456408135056701 0.68607101396845627 0.31096060989957619 0.77374673111774417 0.78860835645735528 0.49829081152968557 0.81582077266975173 0.77657922508894406 0.18483084990574741 1 0.8148028884949543 0.31067093462944562 0.86762395692956074 1 0.5060815484123421 0.82751535738810444 1 0.31407731390515509 0.77374673111774417 0.78860835645735528 0.49829081152968557 0.68240285647621723 1 0.52310058211166854 0.82751535738810444 1 0.31407731390515509 0.86762395692956074 1 0.5060815484123421 0.77374673111774417 0.78860835645735528 0.49829081152968557 0.86762395692956074 1 0.5060815484123421 1 1 0.3999999999989749 1 0.8148028884949543 0.31067093462944562 0.82751535738810444 1 0.31407731390515509 1 1 0.3999999999989749 1 0.83630110503662825 0.50803330197135588 0.86762395692956074 1 0.5060815484123421 1 0.8148028884949543 0.31067093462944562 1 0.8148028884949543 0.31067093462944562 1 0.83630110503662825 0.50803330197135588 0.86762395692956074 1 0.5060815484123421 0.77374673111774417 0.78860835645735528 0.49829081152968557 1 0.8148028884949543 0.31067093462944562 1 0.68975022421527898 0.45812322962078778 1 0.83630110503662825 0.50803330197135588 0.77374673111774417 0.78860835645735528 0.49829081152968557 1 0.39615100178016449 0.32925244736082498 0.7504488434426726 0.53051757989633308 0.49836643074154852 1 0.60020898676431722 0.32446581821274012 0.77713227489941183 0.50036915849493024 0.21774643624003751 1 0.68975022421527898 0.45812322962078778 0.68456408135056701 0.68607101396845627 0.31096060989957619 1 0.60020898676431722 0.32446581821274012 0.7504488434426726 0.53051757989633308 0.49836643074154852 1 0.8148028884949543 0.31067093462944562 0.68456408135056701 0.68607101396845627 0.31096060989957619 1 0.68975022421527898 0.45812322962078778 0.77374673111774417 0.78860835645735528 0.49829081152968557 1 0.68975022421527898 0.45812322962078778 0.68456408135056701 0.68607101396845627 0.31096060989957619 0.7504488434426726 0.53051757989633308 0.49836643074154852 0.77374673111774417 0.78860835645735528 0.49829081152968557 1 0.68975022421527898 0.45812322962078778 1 0.8148028884949543 0.31067093462944562 1 0.60020898676431722 0.32446581821274012 0.68456408135056701 0.68607101396845627 0.31096060989957619 0.68456408135056701 0.68607101396845627 0.31096060989957619 1 0.60020898676431722 0.32446581821274012 0.7504488434426726 0.53051757989633308 0.49836643074154852 0.77713227489941183 0.50036915849493024 0.21774643624003751 1 0.8148028884949543 0.31067093462944562 1 0.60020898676431722 0.32446581821274012 0.68456408135056701 0.68607101396845627 0.31096060989957619 0.81582077266975173 0.77657922508894406 0.18483084990574741 1 0.60020898676431722 0.32446581821274012 0.77713227489941183 0.50036915849493024 0.21774643624003751 0.68456408135056701 0.68607101396845627 0.31096060989957619 0.81582077266975173 0.77657922508894406 0.18483084990574741 1 0.50000000000229983 0.51961524226898759 1 0.68975022421527898 0.45812322962078778 1 0.60020898676431722 0.32446581821274012 0.7504488434426726 0.53051757989633308 0.49836643074154852 1 0.39615100178016449 0.32925244736082498 1 0.50000000000229983 0.51961524226898759 1 0.60020898676431722 0.32446581821274012 0.7504488434426726 0.53051757989633308 0.49836643074154852 0.84191918937744659 0.51186163305076127 0 1 0.49836539647890021 0.17226134197269399 1 0.69449451837101916 0.15896804272136739 0.77713227489941183 0.50036915849493024 0.21774643624003751 1 0.69449451837101916 0.15896804272136739 0.85173693729186062 0.69992182039541118 0 0.77713227489941183 0.50036915849493024 0.21774643624003751 0.81582077266975173 0.77657922508894406 0.18483084990574741 1 0.69449451837101916 0.15896804272136739 0.77713227489941183 0.50036915849493024 0.21774643624003751 1 0.60020898676431722 0.32446581821274012 0.81582077266975173 0.77657922508894406 0.18483084990574741 1 0.69449451837101916 0.15896804272136739 1 0.49836539647890021 0.17226134197269399 1 0.60020898676431722 0.32446581821274012 0.77713227489941183 0.50036915849493024 0.21774643624003751 0.72722573386132172 0.60922248848163563 0 0.77713227489941183 0.50036915849493024 0.21774643624003751 0.85173693729186062 0.69992182039541118 0 0.81582077266975173 0.77657922508894406 0.18483084990574741 0.72722573386132172 0.60922248848163563 0 0.68456408135056701 0.68607101396845627 0.31096060989957619 0.77713227489941183 0.50036915849493024 0.21774643624003751 0.81582077266975173 0.77657922508894406 0.18483084990574741 1 0.8148028884949543 0.31067093462944562 1 0.69449451837101916 0.15896804272136739 1 0.60020898676431722 0.32446581821274012 0.81582077266975173 0.77657922508894406 0.18483084990574741 0.72722573386132172 0.60922248848163563 0 0.67320508075660079 0.46954769941202479 0 0.84191918937744659 0.51186163305076127 0 0.77713227489941183 0.50036915849493024 0.21774643624003751 0.84191918937744659 0.51186163305076127 0 1 0.69449451837101916 0.15896804272136739 0.85173693729186062 0.69992182039541118 0 0.77713227489941183 0.50036915849493024 0.21774643624003751 0.72722573386132172 0.60922248848163563 0 0.84191918937744659 0.51186163305076127 0 0.85173693729186062 0.69992182039541118 0 0.77713227489941183 0.50036915849493024 0.21774643624003751 0.7054234997318658 0.80860557108880304 0 0.72722573386132172 0.60922248848163563 0 0.85173693729186062 0.69992182039541118 0 0.81582077266975173 0.77657922508894406 0.18483084990574741 1 0.69449451837101916 0.15896804272136739 0.85173693729186062 0.69992182039541118 0 1 0.79999999999999982 0 1 0.60000000000138687 0 1 0.69449451837101916 0.15896804272136739 0.81582077266975173 0.77657922508894406 0.18483084990574741 1 0.79999999999999982 0 0.85173693729186062 0.69992182039541118 0 0.84191918937744659 0.51186163305076127 0 0.85173693729186062 0.69992182039541118 0 1 0.69449451837101916 0.15896804272136739 1 0.60000000000138687 0 1 0.60000000000138687 0 1 0.69449451837101916 0.15896804272136739 0.84191918937744659 0.51186163305076127 0 1 0.49836539647890021 0.17226134197269399 1 0.40000000000166441 0 1 0.60000000000138687 0 0.84191918937744659 0.51186163305076127 0 1 0.49836539647890021 0.17226134197269399 0.80839867011859301 0.31807971531731721 0 0.85358983848570813 0.1464101615143738 0 1 0.30074819035868428 0.16929708765640439 0.68777432594363841 0.31447353261427252 0.31366778418247038 0.80839867011859301 0.31807971531731721 0 1 0.40000000000166441 0 0.84191918937744659 0.51186163305076127 0 1 0.49836539647890021 0.17226134197269399 1 0.40000000000166441 0 0.80839867011859301 0.31807971531731721 0 1 0.30074819035868428 0.16929708765640439 1 0.49836539647890021 0.17226134197269399 0.80839867011859301 0.31807971531731721 0 0.68777432594363841 0.31447353261427252 0.31366778418247038 1 0.30074819035868428 0.16929708765640439 0.77713227489941183 0.50036915849493024 0.21774643624003751 0.84191918937744659 0.51186163305076127 0 0.67320508075660079 0.46954769941202479 0 0.80839867011859301 0.31807971531731721 0 0.77713227489941183 0.50036915849493024 0.21774643624003751 0.84191918937744659 0.51186163305076127 0 0.80839867011859301 0.31807971531731721 0 1 0.49836539647890021 0.17226134197269399 0.77713227489941183 0.50036915849493024 0.21774643624003751 0.80839867011859301 0.31807971531731721 0 1 0.30074819035868428 0.16929708765640439 1 0.49836539647890021 0.17226134197269399 0.77713227489941183 0.50036915849493024 0.21774643624003751 1 0.30074819035868428 0.16929708765640439 1 0.39615100178016449 0.32925244736082498 1 0.49836539647890021 0.17226134197269399 0.77713227489941183 0.50036915849493024 0.21774643624003751 1 0.30074819035868428 0.16929708765640439 0.80839867011859301 0.31807971531731721 0 1 0.40000000000166441 0 1 0.20000000000083221 0 1 0.30074819035868428 0.16929708765640439 0.80839867011859301 0.31807971531731721 0 1 0.20000000000083221 0 0.85358983848570813 0.1464101615143738 0 1 0.20000000000083221 0 1 0.14641016151453831 0.14641016151419689 1 0.30074819035868428 0.16929708765640439 0.85358983848570813 0.1464101615143738 0 0.83057691269884504 0 0.30018449338884379 0.85358983848650494 0 0.1464101615132356 0.68592116352011878 0 0.1724872797865501 0.68777432594363841 0.31447353261427252 0.31366778418247038 0.80839867011859301 0.31807971531731721 0 0.69380980079964416 0.1619694349440581 0 0.85358983848570813 0.1464101615143738 0 0.68777432594363841 0.31447353261427252 0.31366778418247038 1 0.18804489794556911 0.3161072616634244 1 0.30074819035868428 0.16929708765640439 1 0.14641016151453831 0.14641016151419689 0.68777432594363841 0.31447353261427252 0.31366778418247038 1 0.14641016151453831 0.14641016151419689 1 0.30074819035868428 0.16929708765640439 0.85358983848570813 0.1464101615143738 0 0.68777432594363841 0.31447353261427252 0.31366778418247038 1 0.14641016151453831 0.14641016151419689 0.85358983848650494 0 0.1464101615132356 0.83057691269884504 0 0.30018449338884379 0.68777432594363841 0.31447353261427252 0.31366778418247038 1 0.14641016151453831 0.14641016151419689 0.85358983848570813 0.1464101615143738 0 0.85358983848650494 0 0.1464101615132356 0.68777432594363841 0.31447353261427252 0.31366778418247038 0.69380980079964416 0.1619694349440581 0 0.85358983848650494 0 0.1464101615132356 0.85358983848570813 0.1464101615143738 0 0.68777432594363841 0.31447353261427252 0.31366778418247038 0.85358983848650494 0 0.1464101615132356 0.83057691269884504 0 0.30018449338884379 1 0 0.19999999999955789 1 0.14641016151453831 0.14641016151419689 0.83057691269884504 0 0.30018449338884379 1 0.18804489794556911 0.3161072616634244 1 0 0.19999999999955789 1 0.14641016151453831 0.14641016151419689 0.85358983848570813 0.1464101615143738 0 1 0 0 0.85358983848650494 0 0.1464101615132356 0.79999999999947335 0 0 0.85358983848650494 0 0.1464101615132356 1 0 0.19999999999955789 1 0 0 1 0.14641016151453831 0.14641016151419689 1 0 0 1 0.14641016151453831 0.14641016151419689 1 0.20000000000083221 0 0.85358983848570813 0.1464101615143738 0 1 0.14641016151453831 0.14641016151419689 1 0 0 0.85358983848650494 0 0.1464101615132356 0.85358983848570813 0.1464101615143738 0 0.68592116352011878 0 0.1724872797865501 0.69380980079964416 0.1619694349440581 0 0.85358983848650494 0 0.1464101615132356 0.79999999999947335 0 0 0.85358983848570813 0.1464101615143738 0 0.85358983848650494 0 0.1464101615132356 0.69380980079964416 0.1619694349440581 0 0.79999999999947335 0 0 0.68592116352011878 0 0.1724872797865501 0.68777432594363841 0.31447353261427252 0.31366778418247038 0.69380980079964416 0.1619694349440581 0 0.5003997205654479 0.21136633249797621 0.2258422409314382 0.68592116352011878 0 0.1724872797865501 0.85358983848650494 0 0.1464101615132356 0.69380980079964416 0.1619694349440581 0 0.68777432594363841 0.31447353261427252 0.31366778418247038 0.69380980079964416 0.1619694349440581 0 0.68592116352011878 0 0.1724872797865501 0.59999999999894682 0 0 0.79999999999947335 0 0 0.49391845158624981 0 0.1323760430705655 0.3999999999989749 0 0 0.50966790549376417 0.16275515618023731 0 0.59999999999894682 0 0 0.50966790549376417 0.16275515618023731 0 0.69380980079964416 0.1619694349440581 0 0.68592116352011878 0 0.1724872797865501 0.59999999999894682 0 0 0.68592116352011878 0 0.1724872797865501 0.49391845158624981 0 0.1323760430705655 0.50966790549376417 0.16275515618023731 0 0.59999999999894682 0 0 0.47688326899416439 0 0.31741132792405607 0.68592116352011878 0 0.1724872797865501 0.49391845158624981 0 0.1323760430705655 0.5003997205654479 0.21136633249797621 0.2258422409314382 0.49391845158624981 0 0.1323760430705655 0.68592116352011878 0 0.1724872797865501 0.50966790549376417 0.16275515618023731 0 0.5003997205654479 0.21136633249797621 0.2258422409314382 0.50966790549376417 0.16275515618023731 0 0.68592116352011878 0 0.1724872797865501 0.69380980079964416 0.1619694349440581 0 0.5003997205654479 0.21136633249797621 0.2258422409314382 0.6104699881764214 0.32043363027358418 0 0.50966790549376417 0.16275515618023731 0 0.69380980079964416 0.1619694349440581 0 0.5003997205654479 0.21136633249797621 0.2258422409314382 0.6104699881764214 0.32043363027358418 0 0.68777432594363841 0.31447353261427252 0.31366778418247038 0.80839867011859301 0.31807971531731721 0 0.77713227489941183 0.50036915849493024 0.21774643624003751 0.6104699881764214 0.32043363027358418 0 0.69380980079964416 0.1619694349440581 0 0.68777432594363841 0.31447353261427252 0.31366778418247038 0.5003997205654479 0.21136633249797621 0.2258422409314382 0.80839867011859301 0.31807971531731721 0 0.6104699881764214 0.32043363027358418 0 0.69380980079964416 0.1619694349440581 0 0.68777432594363841 0.31447353261427252 0.31366778418247038 0.6104699881764214 0.32043363027358418 0 0.45812322962036273 0.31024977578535839 0 0.50966790549376417 0.16275515618023731 0 0.5003997205654479 0.21136633249797621 0.2258422409314382 0.45812322962036273 0.31024977578535839 0 0.6104699881764214 0.32043363027358418 0 0.5004045312576143 0.47050700646456922 0.24963111222780321 0.5003997205654479 0.21136633249797621 0.2258422409314382 0.77713227489941183 0.50036915849493024 0.21774643624003751 0.6104699881764214 0.32043363027358418 0 0.5004045312576143 0.47050700646456922 0.24963111222780321 0.67320508075660079 0.46954769941202479 0 0.68777432594363841 0.31447353261427252 0.31366778418247038 0.5004045312576143 0.47050700646456922 0.24963111222780321 0.6104699881764214 0.32043363027358418 0 0.5003997205654479 0.21136633249797621 0.2258422409314382 0.77713227489941183 0.50036915849493024 0.21774643624003751 0.5004045312576143 0.47050700646456922 0.24963111222780321 0.6104699881764214 0.32043363027358418 0 0.68777432594363841 0.31447353261427252 0.31366778418247038 0.51961524226956368 0.5000000000025091 0 0.6104699881764214 0.32043363027358418 0 0.67320508075660079 0.46954769941202479 0 0.5004045312576143 0.47050700646456922 0.24963111222780321 0.45812322962036273 0.31024977578535839 0 0.6104699881764214 0.32043363027358418 0 0.51961524226956368 0.5000000000025091 0 0.5004045312576143 0.47050700646456922 0.24963111222780321 0.6104699881764214 0.32043363027358418 0 0.80839867011859301 0.31807971531731721 0 0.67320508075660079 0.46954769941202479 0 0.77713227489941183 0.50036915849493024 0.21774643624003751 0.68777432594363841 0.31447353261427252 0.31366778418247038 0.7504488434426726 0.53051757989633308 0.49836643074154852 0.50000000000001332 0.49999999999999561 0.49999999999999561 0.50073570207385831 0.24848280280289631 0.52886631355986169 0.7504488434426726 0.53051757989633308 0.49836643074154852 0.50073570207385831 0.24848280280289631 0.52886631355986169 0.68777432594363841 0.31447353261427252 0.31366778418247038 0.77973766487723961 0.22090161127815711 0.50014622462635805 0.50000000000001332 0.49999999999999561 0.49999999999999561 0.7504488434426726 0.53051757989633308 0.49836643074154852 0.68777432594363841 0.31447353261427252 0.31366778418247038 0.5004045312576143 0.47050700646456922 0.24963111222780321 0.68777432594363841 0.31447353261427252 0.31366778418247038 0.5004045312576143 0.47050700646456922 0.24963111222780321 0.7504488434426726 0.53051757989633308 0.49836643074154852 0.77713227489941183 0.50036915849493024 0.21774643624003751 0.50073570207385831 0.24848280280289631 0.52886631355986169 0.5004045312576143 0.47050700646456922 0.24963111222780321 0.68777432594363841 0.31447353261427252 0.31366778418247038 0.5003997205654479 0.21136633249797621 0.2258422409314382 0.50000000000001332 0.49999999999999561 0.49999999999999561 0.68777432594363841 0.31447353261427252 0.31366778418247038 0.50073570207385831 0.24848280280289631 0.52886631355986169 0.5004045312576143 0.47050700646456922 0.24963111222780321 0.83057691269884504 0 0.30018449338884379 0.68777432594363841 0.31447353261427252 0.31366778418247038 0.66852282575985944 0 0.3853248791658106 0.77973766487723961 0.22090161127815711 0.50014622462635805 0.68592116352011878 0 0.1724872797865501 0.66852282575985944 0 0.3853248791658106 0.83057691269884504 0 0.30018449338884379 0.68777432594363841 0.31447353261427252 0.31366778418247038 0.66852282575985944 0 0.3853248791658106 0.47688326899416439 0 0.31741132792405607 0.50073570207385831 0.24848280280289631 0.52886631355986169 0.5003997205654479 0.21136633249797621 0.2258422409314382 0.68969697123394857 0 0.54179813558228873 0.66852282575985944 0 0.3853248791658106 0.50073570207385831 0.24848280280289631 0.52886631355986169 0.77973766487723961 0.22090161127815711 0.50014622462635805 0.68592116352011878 0 0.1724872797865501 0.66852282575985944 0 0.3853248791658106 0.68777432594363841 0.31447353261427252 0.31366778418247038 0.5003997205654479 0.21136633249797621 0.2258422409314382 0.66852282575985944 0 0.3853248791658106 0.50073570207385831 0.24848280280289631 0.52886631355986169 0.68777432594363841 0.31447353261427252 0.31366778418247038 0.5003997205654479 0.21136633249797621 0.2258422409314382 0.68777432594363841 0.31447353261427252 0.31366778418247038 0.50073570207385831 0.24848280280289631 0.52886631355986169 0.66852282575985944 0 0.3853248791658106 0.77973766487723961 0.22090161127815711 0.50014622462635805 0.68592116352011878 0 0.1724872797865501 0.47688326899416439 0 0.31741132792405607 0.66852282575985944 0 0.3853248791658106 0.5003997205654479 0.21136633249797621 0.2258422409314382 0.50000000000250922 0 0.48038475773043671 0.66852282575985944 0 0.3853248791658106 0.47688326899416439 0 0.31741132792405607 0.50073570207385831 0.24848280280289631 0.52886631355986169 0.50000000000250922 0 0.48038475773043671 0.68969697123394857 0 0.54179813558228873 0.66852282575985944 0 0.3853248791658106 0.50073570207385831 0.24848280280289631 0.52886631355986169 0.66852282575985944 0 0.3853248791658106 0.68969697123394857 0 0.54179813558228873 0.83534964916824084 0 0.4902996892628636 0.77973766487723961 0.22090161127815711 0.50014622462635805 1 0.18804489794556911 0.3161072616634244 0.68777432594363841 0.31447353261427252 0.31366778418247038 0.83057691269884504 0 0.30018449338884379 0.77973766487723961 0.22090161127815711 0.50014622462635805 1 0.18804489794556911 0.3161072616634244 1 0.14641016151453831 0.14641016151419689 0.83057691269884504 0 0.30018449338884379 0.68777432594363841 0.31447353261427252 0.31366778418247038 0.83534964916824084 0 0.4902996892628636 0.83057691269884504 0 0.30018449338884379 0.66852282575985944 0 0.3853248791658106 0.77973766487723961 0.22090161127815711 0.50014622462635805 0.83534964916824084 0 0.4902996892628636 1 0.18804489794556911 0.3161072616634244 0.83057691269884504 0 0.30018449338884379 0.77973766487723961 0.22090161127815711 0.50014622462635805 0.83057691269884504 0 0.30018449338884379 0.83534964916824084 0 0.4902996892628636 1 0 0.3999999999989749 1 0.18804489794556911 0.3161072616634244 0.83534964916824084 0 0.4902996892628636 1 0.162755156180173 0.50966790549372887 1 0 0.59999999999894682 1 0 0.3999999999989749 1 0 0.3999999999989749 0.83534964916824084 0 0.4902996892628636 1 0.162755156180173 0.50966790549372887 1 0.18804489794556911 0.3161072616634244 1 0.18804489794556911 0.3161072616634244 1 0 0.3999999999989749 0.83057691269884504 0 0.30018449338884379 1 0 0.19999999999955789 1 0.31024977578542368 0.45812322962028301 1 0.18804489794556911 0.3161072616634244 1 0.162755156180173 0.50966790549372887 0.77973766487723961 0.22090161127815711 0.50014622462635805 0.83534964916824084 0 0.4902996892628636 1 0.162755156180173 0.50966790549372887 1 0.18804489794556911 0.3161072616634244 0.77973766487723961 0.22090161127815711 0.50014622462635805 1 0.39615100178016449 0.32925244736082498 0.68777432594363841 0.31447353261427252 0.31366778418247038 0.7504488434426726 0.53051757989633308 0.49836643074154852 0.77713227489941183 0.50036915849493024 0.21774643624003751 1 0.39615100178016449 0.32925244736082498 1 0.18804489794556911 0.3161072616634244 1 0.31024977578542368 0.45812322962028301 0.68777432594363841 0.31447353261427252 0.31366778418247038 1 0.31024977578542368 0.45812322962028301 0.7504488434426726 0.53051757989633308 0.49836643074154852 0.68777432594363841 0.31447353261427252 0.31366778418247038 0.77973766487723961 0.22090161127815711 0.50014622462635805 1 0.30074819035868428 0.16929708765640439 1 0.18804489794556911 0.3161072616634244 1 0.39615100178016449 0.32925244736082498 0.68777432594363841 0.31447353261427252 0.31366778418247038 1 0.31024977578542368 0.45812322962028301 0.68777432594363841 0.31447353261427252 0.31366778418247038 1 0.18804489794556911 0.3161072616634244 0.77973766487723961 0.22090161127815711 0.50014622462635805 1 0.30074819035868428 0.16929708765640439 0.68777432594363841 0.31447353261427252 0.31366778418247038 1 0.39615100178016449 0.32925244736082498 0.77713227489941183 0.50036915849493024 0.21774643624003751 1 0.39615100178016449 0.32925244736082498 0.68777432594363841 0.31447353261427252 0.31366778418247038 1 0.31024977578542368 0.45812322962028301 0.7504488434426726 0.53051757989633308 0.49836643074154852 1 0.60020898676431722 0.32446581821274012 1 0.49836539647890021 0.17226134197269399 1 0.39615100178016449 0.32925244736082498 0.77713227489941183 0.50036915849493024 0.21774643624003751 1 0.39615100178016449 0.32925244736082498 1 0.31024977578542368 0.45812322962028301 1 0.50000000000229983 0.51961524226898759 0.7504488434426726 0.53051757989633308 0.49836643074154852 1 0.33579115324550912 0.59952339316293046 0.7504488434426726 0.53051757989633308 0.49836643074154852 0.68742751001967084 0.31250796680084852 0.687427510020161 0.78019141325921404 0.49972466465542442 0.78019141325930785 1 0.33579115324550912 0.59952339316293046 1 0.39076805646076263 0.7272421105028648 0.68742751001967084 0.31250796680084852 0.687427510020161 0.81599560342209843 0.22280203704001911 0.81599560342233202 1 0.33579115324550912 0.59952339316293046 1 0.53045230059030524 0.6732050807565132 1 0.50000000000229983 0.51961524226898759 0.7504488434426726 0.53051757989633308 0.49836643074154852 1 0.33579115324550912 0.59952339316293046 0.7504488434426726 0.53051757989633308 0.49836643074154852 1 0.31024977578542368 0.45812322962028301 0.77973766487723961 0.22090161127815711 0.50014622462635805 0.68742751001967084 0.31250796680084852 0.687427510020161 0.77973766487723961 0.22090161127815711 0.50014622462635805 1 0.33579115324550912 0.59952339316293046 0.81599560342209843 0.22280203704001911 0.81599560342233202 1 0.33579115324550912 0.59952339316293046 0.68742751001967084 0.31250796680084852 0.687427510020161 0.7504488434426726 0.53051757989633308 0.49836643074154852 0.77973766487723961 0.22090161127815711 0.50014622462635805 1 0.53045230059030524 0.6732050807565132 0.7504488434426726 0.53051757989633308 0.49836643074154852 1 0.33579115324550912 0.59952339316293046 0.78019141325921404 0.49972466465542442 0.78019141325930785 1 0.39076805646076263 0.7272421105028648 1 0.33579115324550912 0.59952339316293046 0.68742751001967084 0.31250796680084852 0.687427510020161 0.78019141325921404 0.49972466465542442 0.78019141325930785 1 0.33579115324550912 0.59952339316293046 1 0.50000000000229983 0.51961524226898759 1 0.31024977578542368 0.45812322962028301 0.7504488434426726 0.53051757989633308 0.49836643074154852 1 0.39076805646076263 0.7272421105028648 1 0.53045230059030524 0.6732050807565132 1 0.33579115324550912 0.59952339316293046 0.78019141325921404 0.49972466465542442 0.78019141325930785 1 0.33579115324550912 0.59952339316293046 1 0.1912596090855686 0.70565701451953711 1 0.39076805646076263 0.7272421105028648 0.81599560342209843 0.22280203704001911 0.81599560342233202 1 0.33579115324550912 0.59952339316293046 1 0.31024977578542368 0.45812322962028301 1 0.162755156180173 0.50966790549372887 0.77973766487723961 0.22090161127815711 0.50014622462635805 1 0.162755156180173 0.50966790549372887 0.81469961246449951 0 0.68914937826112133 1 0.1912596090855686 0.70565701451953711 0.77973766487723961 0.22090161127815711 0.50014622462635805 0.81469961246449951 0 0.68914937826112133 0.77973766487723961 0.22090161127815711 0.50014622462635805 0.68742751001967084 0.31250796680084852 0.687427510020161 0.81599560342209843 0.22280203704001911 0.81599560342233202 0.81469961246449951 0 0.68914937826112133 1 0.1912596090855686 0.70565701451953711 0.77973766487723961 0.22090161127815711 0.50014622462635805 0.81599560342209843 0.22280203704001911 0.81599560342233202 1 0.1912596090855686 0.70565701451953711 1 0.33579115324550912 0.59952339316293046 0.77973766487723961 0.22090161127815711 0.50014622462635805 0.81599560342209843 0.22280203704001911 0.81599560342233202 1 0.162755156180173 0.50966790549372887 1 0.1912596090855686 0.70565701451953711 1 0.33579115324550912 0.59952339316293046 0.77973766487723961 0.22090161127815711 0.50014622462635805 1 0.1912596090855686 0.70565701451953711 0.81469961246449951 0 0.68914937826112133 1 0 0.59999999999894682 1 0 0.79999999999947335 0.81469961246449951 0 0.68914937826112133 1 0 0.59999999999894682 1 0.162755156180173 0.50966790549372887 1 0.1912596090855686 0.70565701451953711 1 0.162755156180173 0.50966790549372887 1 0 0.59999999999894682 0.81469961246449951 0 0.68914937826112133 0.83534964916824084 0 0.4902996892628636 0.81469961246449951 0 0.68914937826112133 0.83534964916824084 0 0.4902996892628636 0.68969697123394857 0 0.54179813558228873 0.77973766487723961 0.22090161127815711 0.50014622462635805 0.81469961246449951 0 0.68914937826112133 1 0.162755156180173 0.50966790549372887 0.83534964916824084 0 0.4902996892628636 0.77973766487723961 0.22090161127815711 0.50014622462635805 0.68969697123394857 0 0.54179813558228873 0.6002015905170176 0 0.67551889168744117 0.68742751001967084 0.31250796680084852 0.687427510020161 0.50073570207385831 0.24848280280289631 0.52886631355986169 0.6002015905170176 0 0.67551889168744117 0.81469961246449951 0 0.68914937826112133 0.68969697123394857 0 0.54179813558228873 0.68742751001967084 0.31250796680084852 0.687427510020161 0.81469961246449951 0 0.68914937826112133 0.68969697123394857 0 0.54179813558228873 0.68742751001967084 0.31250796680084852 0.687427510020161 0.77973766487723961 0.22090161127815711 0.50014622462635805 0.69447607299129699 0 0.84099946107689361 0.68742751001967084 0.31250796680084852 0.687427510020161 0.6002015905170176 0 0.67551889168744117 0.50084626324420545 0.22238844715913 0.78084811589659187 0.68742751001967084 0.31250796680084852 0.687427510020161 0.68969697123394857 0 0.54179813558228873 0.50073570207385831 0.24848280280289631 0.52886631355986169 0.77973766487723961 0.22090161127815711 0.50014622462635805 0.68742751001967084 0.31250796680084852 0.687427510020161 0.50073570207385831 0.24848280280289631 0.52886631355986169 0.6002015905170176 0 0.67551889168744117 0.50084626324420545 0.22238844715913 0.78084811589659187 0.6002015905170176 0 0.67551889168744117 0.81469961246449951 0 0.68914937826112133 0.68742751001967084 0.31250796680084852 0.687427510020161 0.81599560342209843 0.22280203704001911 0.81599560342233202 0.68969697123394857 0 0.54179813558228873 0.50000000000250922 0 0.48038475773043671 0.6002015905170176 0 0.67551889168744117 0.50073570207385831 0.24848280280289631 0.52886631355986169 0.50000000000001332 0.49999999999999561 0.49999999999999561 0.68742751001967084 0.31250796680084852 0.687427510020161 0.49816183246753282 0.5307146639261795 0.75045686993209071 0.50073570207385831 0.24848280280289631 0.52886631355986169 0.68742751001967084 0.31250796680084852 0.687427510020161 0.50000000000001332 0.49999999999999561 0.49999999999999561 0.7504488434426726 0.53051757989633308 0.49836643074154852 0.50073570207385831 0.24848280280289631 0.52886631355986169 0.68742751001967084 0.31250796680084852 0.687427510020161 0.7504488434426726 0.53051757989633308 0.49836643074154852 0.50000000000001332 0.49999999999999561 0.49999999999999561 0.49816183246753282 0.5307146639261795 0.75045686993209071 0.7504488434426726 0.53051757989633308 0.49836643074154852 0.49816183246753282 0.5307146639261795 0.75045686993209071 0.68742751001967084 0.31250796680084852 0.687427510020161 0.78019141325921404 0.49972466465542442 0.78019141325930785 0.49816183246753282 0.5307146639261795 0.75045686993209071 0.50073570207385831 0.24848280280289631 0.52886631355986169 0.68742751001967084 0.31250796680084852 0.687427510020161 0.50084626324420545 0.22238844715913 0.78084811589659187 0.68742751001967084 0.31250796680084852 0.687427510020161 0.50073570207385831 0.24848280280289631 0.52886631355986169 0.7504488434426726 0.53051757989633308 0.49836643074154852 0.77973766487723961 0.22090161127815711 0.50014622462635805 0.45812322962173568 0.31024977578554058 1 0.49816183246753282 0.5307146639261795 0.75045686993209071 0.59952339316492498 0.33579115324593939 1 0.50084626324420545 0.22238844715913 0.78084811589659187 0.59952339316492498 0.33579115324593939 1 0.68742751001967084 0.31250796680084852 0.687427510020161 0.72724211050425436 0.39076805646176382 1 0.81599560342209843 0.22280203704001911 0.81599560342233202 0.59952339316492498 0.33579115324593939 1 0.68742751001967084 0.31250796680084852 0.687427510020161 0.49816183246753282 0.5307146639261795 0.75045686993209071 0.78019141325921404 0.49972466465542442 0.78019141325930785 0.59952339316492498 0.33579115324593939 1 0.50084626324420545 0.22238844715913 0.78084811589659187 0.68742751001967084 0.31250796680084852 0.687427510020161 0.81599560342209843 0.22280203704001911 0.81599560342233202 0.59952339316492498 0.33579115324593939 1 0.49816183246753282 0.5307146639261795 0.75045686993209071 0.68742751001967084 0.31250796680084852 0.687427510020161 0.50084626324420545 0.22238844715913 0.78084811589659187 0.59952339316492498 0.33579115324593939 1 0.72724211050425436 0.39076805646176382 1 0.68742751001967084 0.31250796680084852 0.687427510020161 0.78019141325921404 0.49972466465542442 0.78019141325930785 0.59952339316492498 0.33579115324593939 1 0.49816183246753282 0.5307146639261795 0.75045686993209071 0.67320508075671459 0.53045230059073867 1 0.78019141325921404 0.49972466465542442 0.78019141325930785 0.70565701452089868 0.1912596090858541 1 0.59952339316492498 0.33579115324593939 1 0.72724211050425436 0.39076805646176382 1 0.81599560342209843 0.22280203704001911 0.81599560342233202 0.59952339316492498 0.33579115324593939 1 0.67320508075671459 0.53045230059073867 1 0.72724211050425436 0.39076805646176382 1 0.78019141325921404 0.49972466465542442 0.78019141325930785 0.45812322962173568 0.31024977578554058 1 0.51961524226934941 0.50000000000250611 1 0.59952339316492498 0.33579115324593939 1 0.49816183246753282 0.5307146639261795 0.75045686993209071 0.67320508075671459 0.53045230059073867 1 0.59952339316492498 0.33579115324593939 1 0.51961524226934941 0.50000000000250611 1 0.49816183246753282 0.5307146639261795 0.75045686993209071 0.59952339316492498 0.33579115324593939 1 0.50966790549576724 0.1627551561802443 1 0.45812322962173568 0.31024977578554058 1 0.50084626324420545 0.22238844715913 0.78084811589659187 0.50966790549576724 0.1627551561802443 1 0.70565701452089868 0.1912596090858541 1 0.69447607299129699 0 0.84099946107689361 0.50084626324420545 0.22238844715913 0.78084811589659187 0.68742751001967084 0.31250796680084852 0.687427510020161 0.50084626324420545 0.22238844715913 0.78084811589659187 0.69447607299129699 0 0.84099946107689361 0.81599560342209843 0.22280203704001911 0.81599560342233202 0.70565701452089868 0.1912596090858541 1 0.69447607299129699 0 0.84099946107689361 0.50084626324420545 0.22238844715913 0.78084811589659187 0.81599560342209843 0.22280203704001911 0.81599560342233202 0.70565701452089868 0.1912596090858541 1 0.50084626324420545 0.22238844715913 0.78084811589659187 0.59952339316492498 0.33579115324593939 1 0.81599560342209843 0.22280203704001911 0.81599560342233202 0.70565701452089868 0.1912596090858541 1 0.50966790549576724 0.1627551561802443 1 0.59952339316492498 0.33579115324593939 1 0.50084626324420545 0.22238844715913 0.78084811589659187 0.6002015905170176 0 0.67551889168744117 0.68742751001967084 0.31250796680084852 0.687427510020161 0.69447607299129699 0 0.84099946107689361 0.81599560342209843 0.22280203704001911 0.81599560342233202 0.69447607299129699 0 0.84099946107689361 0.6002015905170176 0 0.67551889168744117 0.49836539647917322 0 0.82773865802723501 0.50084626324420545 0.22238844715913 0.78084811589659187 0.69447607299129699 0 0.84099946107689361 0.49836539647917322 0 0.82773865802723501 0.50966790549576724 0.1627551561802443 1 0.50084626324420545 0.22238844715913 0.78084811589659187 0.60000000000138687 0 1 0.49836539647917322 0 0.82773865802723501 0.50966790549576724 0.1627551561802443 1 0.69447607299129699 0 0.84099946107689361 0.50966790549576724 0.1627551561802443 1 0.40000000000166441 0 1 0.49836539647917322 0 0.82773865802723501 0.60000000000138687 0 1 0.50966790549576724 0.1627551561802443 1 0.70565701452089868 0.1912596090858541 1 0.60000000000138687 0 1 0.69447607299129699 0 0.84099946107689361 0.70565701452089868 0.1912596090858541 1 0.60000000000138687 0 1 0.69447607299129699 0 0.84099946107689361 0.79999999999999982 0 1 0.6002015905170176 0 0.67551889168744117 0.69447607299129699 0 0.84099946107689361 0.81469961246449951 0 0.68914937826112133 0.81599560342209843 0.22280203704001911 0.81599560342233202 0.70565701452089868 0.1912596090858541 1 0.85358983848646974 0.14641016151341191 1 0.69447607299129699 0 0.84099946107689361 0.81599560342209843 0.22280203704001911 0.81599560342233202 0.85358983848646974 0.14641016151341191 1 0.70565701452089868 0.1912596090858541 1 0.85173693729199718 0.30007817960516198 1 0.81599560342209843 0.22280203704001911 0.81599560342233202 1 0.1912596090855686 0.70565701451953711 0.81469961246449951 0 0.68914937826112133 0.85358983848570524 0 0.85358983848556425 0.81599560342209843 0.22280203704001911 0.81599560342233202 0.69447607299129699 0 0.84099946107689361 0.85358983848570524 0 0.85358983848556425 0.81469961246449951 0 0.68914937826112133 0.81599560342209843 0.22280203704001911 0.81599560342233202 0.85358983848570524 0 0.85358983848556425 0.69447607299129699 0 0.84099946107689361 0.85358983848646974 0.14641016151341191 1 0.81599560342209843 0.22280203704001911 0.81599560342233202 0.79999999999999982 0 1 0.69447607299129699 0 0.84099946107689361 0.70565701452089868 0.1912596090858541 1 0.85358983848646974 0.14641016151341191 1 0.79999999999999982 0 1 0.85358983848570524 0 0.85358983848556425 0.69447607299129699 0 0.84099946107689361 0.85358983848646974 0.14641016151341191 1 1 0 1 1 0.14641016151333891 0.85358983848640169 0.85358983848570524 0 0.85358983848556425 0.85358983848646974 0.14641016151341191 1 0.79999999999999982 0 1 1 0 1 0.85358983848570524 0 0.85358983848556425 0.85358983848646974 0.14641016151341191 1 0.85358983848646974 0.14641016151341191 1 1 0 1 1 0.14641016151333891 0.85358983848640169 1 0.19999999999955789 1 0.85358983848570524 0 0.85358983848556425 1 0.14641016151333891 0.85358983848640169 1 0 1 1 0 0.79999999999947335 0.85358983848570524 0 0.85358983848556425 0.81469961246449951 0 0.68914937826112133 1 0.1912596090855686 0.70565701451953711 1 0 0.79999999999947335 1 0.1912596090855686 0.70565701451953711 1 0.14641016151333891 0.85358983848640169 0.85358983848570524 0 0.85358983848556425 1 0 0.79999999999947335 1 0.14641016151333891 0.85358983848640169 1 0.30007817960499339 0.85173693729139244 1 0.1912596090855686 0.70565701451953711 0.81599560342209843 0.22280203704001911 0.81599560342233202 1 0.1912596090855686 0.70565701451953711 0.85358983848570524 0 0.85358983848556425 1 0.14641016151333891 0.85358983848640169 0.81599560342209843 0.22280203704001911 0.81599560342233202 0.85358983848646974 0.14641016151341191 1 0.85173693729199718 0.30007817960516198 1 1 0.19999999999955789 1 0.81599560342209843 0.22280203704001911 0.81599560342233202 1 0.14641016151333891 0.85358983848640169 0.85358983848646974 0.14641016151341191 1 1 0.19999999999955789 1 0.81599560342209843 0.22280203704001911 0.81599560342233202 1 0.14641016151333891 0.85358983848640169 1 0.19999999999955789 1 1 0.30007817960499339 0.85173693729139244 0.81599560342209843 0.22280203704001911 0.81599560342233202 0.85358983848570524 0 0.85358983848556425 0.85358983848646974 0.14641016151341191 1 1 0.14641016151333891 0.85358983848640169 0.81599560342209843 0.22280203704001911 0.81599560342233202 1 0.19999999999955789 1 1 0.30007817960499339 0.85173693729139244 0.85173693729199718 0.30007817960516198 1 1 0.3999999999989749 1 1 0.19999999999955789 1 0.85173693729199718 0.30007817960516198 1 1 0.30007817960499339 0.85173693729139244 0.81599560342209843 0.22280203704001911 0.81599560342233202 1 0.30007817960499339 0.85173693729139244 0.85173693729199718 0.30007817960516198 1 0.78019141325921404 0.49972466465542442 0.78019141325930785 0.81599560342209843 0.22280203704001911 0.81599560342233202 0.68742751001967084 0.31250796680084852 0.687427510020161 0.78019141325921404 0.49972466465542442 0.78019141325930785 0.72724211050425436 0.39076805646176382 1 0.81599560342209843 0.22280203704001911 0.81599560342233202 1 0.39076805646076263 0.7272421105028648 1 0.30007817960499339 0.85173693729139244 0.78019141325921404 0.49972466465542442 0.78019141325930785 0.81599560342209843 0.22280203704001911 0.81599560342233202 0.85173693729199718 0.30007817960516198 1 0.72724211050425436 0.39076805646176382 1 0.78019141325921404 0.49972466465542442 0.78019141325930785 0.81599560342209843 0.22280203704001911 0.81599560342233202 1 0.39076805646076263 0.7272421105028648 0.78019141325921404 0.49972466465542442 0.78019141325930785 0.68742751001967084 0.31250796680084852 0.687427510020161 0.81599560342209843 0.22280203704001911 0.81599560342233202 0.85173693729199718 0.30007817960516198 1 1 0.30007817960499339 0.85173693729139244 1 0.48813836695007229 0.84191918937727617 1 0.3999999999989749 1 0.72724211050425436 0.39076805646176382 1 0.85173693729199718 0.30007817960516198 1 0.70565701452089868 0.1912596090858541 1 0.81599560342209843 0.22280203704001911 0.81599560342233202 1 0.1912596090855686 0.70565701451953711 1 0.30007817960499339 0.85173693729139244 1 0.39076805646076263 0.7272421105028648 0.81599560342209843 0.22280203704001911 0.81599560342233202 0.85173693729199718 0.30007817960516198 1 1 0.48813836695007229 0.84191918937727617 1 0.30007817960499339 0.85173693729139244 0.78019141325921404 0.49972466465542442 0.78019141325930785 1 0.30007817960499339 0.85173693729139244 1 0.48813836695007229 0.84191918937727617 1 0.39076805646076263 0.7272421105028648 0.78019141325921404 0.49972466465542442 0.78019141325930785 1 0.39076805646076263 0.7272421105028648 1 0.48813836695007229 0.84191918937727617 1 0.53045230059030524 0.6732050807565132 0.78019141325921404 0.49972466465542442 0.78019141325930785 0.72724211050425436 0.39076805646176382 1 0.67320508075671459 0.53045230059073867 1 0.84191918937756771 0.48813836695034618 1 0.78019141325921404 0.49972466465542442 0.78019141325930785 0.84191918937756771 0.48813836695034618 1 0.85173693729199718 0.30007817960516198 1 0.72724211050425436 0.39076805646176382 1 0.78019141325921404 0.49972466465542442 0.78019141325930785 0.84191918937756771 0.48813836695034618 1 1 0.48813836695007229 0.84191918937727617 0.85173693729199718 0.30007817960516198 1 0.78019141325921404 0.49972466465542442 0.78019141325930785 1 0.3999999999989749 1 1 0.48813836695007229 0.84191918937727617 0.84191918937756771 0.48813836695034618 1 1 0.59999999999894682 1 1 0.48813836695007229 0.84191918937727617 0.84191918937756771 0.48813836695034618 1 0.85173693729199718 0.30007817960516198 1 1 0.3999999999989749 1 0.80839867011861499 0.68192028468377774 1 0.78019141325921404 0.49972466465542442 0.78019141325930785 0.68649174659499257 0.68600703198516766 0.6864917465949647 0.77683220420328725 0.81278569633583353 0.81664766512111064 0.80839867011861499 0.68192028468377774 1 1 0.68192028468364885 0.80839867011854549 0.78019141325921404 0.49972466465542442 0.78019141325930785 0.77683220420328725 0.81278569633583353 0.81664766512111064 1 0.59999999999894682 1 1 0.48813836695007229 0.84191918937727617 0.84191918937756771 0.48813836695034618 1 1 0.68192028468364885 0.80839867011854549 0.68649174659499257 0.68600703198516766 0.6864917465949647 0.78019141325921404 0.49972466465542442 0.78019141325930785 1 0.68192028468364885 0.80839867011854549 0.77683220420328725 0.81278569633583353 0.81664766512111064 0.84191918937756771 0.48813836695034618 1 1 0.59999999999894682 1 1 0.68192028468364885 0.80839867011854549 0.80839867011861499 0.68192028468377774 1 1 0.59999999999894682 1 1 0.68192028468364885 0.80839867011854549 0.80839867011861499 0.68192028468377774 1 1 0.79999999999947335 1 0.84191918937756771 0.48813836695034618 1 0.67320508075671459 0.53045230059073867 1 0.80839867011861499 0.68192028468377774 1 0.78019141325921404 0.49972466465542442 0.78019141325930785 0.84191918937756771 0.48813836695034618 1 0.80839867011861499 0.68192028468377774 1 1 0.68192028468364885 0.80839867011854549 0.78019141325921404 0.49972466465542442 0.78019141325930785 1 0.68192028468364885 0.80839867011854549 1 0.53045230059030524 0.6732050807565132 1 0.48813836695007229 0.84191918937727617 0.78019141325921404 0.49972466465542442 0.78019141325930785 1 0.68192028468364885 0.80839867011854549 1 0.48813836695007229 0.84191918937727617 0.84191918937756771 0.48813836695034618 1 0.78019141325921404 0.49972466465542442 0.78019141325930785 1 0.67939035495490308 0.61016512164639347 0.78019141325921404 0.49972466465542442 0.78019141325930785 0.7504488434426726 0.53051757989633308 0.49836643074154852 1 0.53045230059030524 0.6732050807565132 1 0.67939035495490308 0.61016512164639347 0.7504488434426726 0.53051757989633308 0.49836643074154852 0.68649174659499257 0.68600703198516766 0.6864917465949647 0.77374673111774417 0.78860835645735528 0.49829081152968557 1 0.67939035495490308 0.61016512164639347 0.68649174659499257 0.68600703198516766 0.6864917465949647 1 0.83791821520125753 0.69361520514217179 0.77374673111774417 0.78860835645735528 0.49829081152968557 1 0.68192028468364885 0.80839867011854549 1 0.67939035495490308 0.61016512164639347 0.68649174659499257 0.68600703198516766 0.6864917465949647 0.77683220420328725 0.81278569633583353 0.81664766512111064 1 0.67939035495490308 0.61016512164639347 1 0.68975022421527898 0.45812322962078778 0.7504488434426726 0.53051757989633308 0.49836643074154852 0.77374673111774417 0.78860835645735528 0.49829081152968557 0.7504488434426726 0.53051757989633308 0.49836643074154852 0.78019141325921404 0.49972466465542442 0.78019141325930785 1 0.67939035495490308 0.61016512164639347 0.68649174659499257 0.68600703198516766 0.6864917465949647 1 0.68192028468364885 0.80839867011854549 0.68649174659499257 0.68600703198516766 0.6864917465949647 1 0.67939035495490308 0.61016512164639347 0.78019141325921404 0.49972466465542442 0.78019141325930785 1 0.53045230059030524 0.6732050807565132 1 0.68192028468364885 0.80839867011854549 1 0.67939035495490308 0.61016512164639347 0.78019141325921404 0.49972466465542442 0.78019141325930785 1 0.67939035495490308 0.61016512164639347 1 0.50000000000229983 0.51961524226898759 1 0.53045230059030524 0.6732050807565132 0.7504488434426726 0.53051757989633308 0.49836643074154852 1 0.67939035495490308 0.61016512164639347 1 0.68975022421527898 0.45812322962078778 1 0.50000000000229983 0.51961524226898759 0.7504488434426726 0.53051757989633308 0.49836643074154852 1 0.67939035495490308 0.61016512164639347 1 0.83630110503662825 0.50803330197135588 1 0.68975022421527898 0.45812322962078778 0.77374673111774417 0.78860835645735528 0.49829081152968557 1 0.83791821520125753 0.69361520514217179 0.77374673111774417 0.78860835645735528 0.49829081152968557 0.68649174659499257 0.68600703198516766 0.6864917465949647 0.77683220420328725 0.81278569633583353 0.81664766512111064 0.68649174659499257 0.68600703198516766 0.6864917465949647 0.77374673111774417 0.78860835645735528 0.49829081152968557 0.81346205468287114 1 0.68420958956387889 0.77683220420328725 0.81278569633583353 0.81664766512111064 1 0.83791821520125753 0.69361520514217179 0.68649174659499257 0.68600703198516766 0.6864917465949647 1 0.67939035495490308 0.61016512164639347 0.77683220420328725 0.81278569633583353 0.81664766512111064 1 0.68192028468364885 0.80839867011854549 1 0.83791821520125753 0.69361520514217179 1 0.67939035495490308 0.61016512164639347 0.77683220420328725 0.81278569633583353 0.81664766512111064 1 0.83791821520125753 0.69361520514217179 0.81346205468287114 1 0.68420958956387889 0.77374673111774417 0.78860835645735528 0.49829081152968557 0.77683220420328725 0.81278569633583353 0.81664766512111064 1 0.83630110503662825 0.50803330197135588 1 0.67939035495490308 0.61016512164639347 1 0.83791821520125753 0.69361520514217179 0.77374673111774417 0.78860835645735528 0.49829081152968557 1 0.83791821520125753 0.69361520514217179 0.86762395692956074 1 0.5060815484123421 1 0.83630110503662825 0.50803330197135588 0.77374673111774417 0.78860835645735528 0.49829081152968557 1 1 0.59999999999894682 1 0.83630110503662825 0.50803330197135588 1 0.83791821520125753 0.69361520514217179 0.86762395692956074 1 0.5060815484123421 0.86762395692956074 1 0.5060815484123421 1 1 0.59999999999894682 1 0.83630110503662825 0.50803330197135588 1 1 0.3999999999989749 1 0.83791821520125753 0.69361520514217179 0.81346205468287114 1 0.68420958956387889 1 1 0.59999999999894682 0.86762395692956074 1 0.5060815484123421 0.86762395692956074 1 0.5060815484123421 0.81346205468287114 1 0.68420958956387889 0.68240285647621723 1 0.52310058211166854 0.77374673111774417 0.78860835645735528 0.49829081152968557 0.81346205468287114 1 0.68420958956387889 0.86762395692956074 1 0.5060815484123421 1 0.83791821520125753 0.69361520514217179 0.77374673111774417 0.78860835645735528 0.49829081152968557 1 0.83791821520125753 0.69361520514217179 0.81346205468287114 1 0.68420958956387889 1 1 0.79999999999947335 1 1 0.59999999999894682 1 1 0.79999999999947335 0.85358983848569092 1 0.85358983848569092 0.81346205468287114 1 0.68420958956387889 1 0.83791821520125753 0.69361520514217179 0.85358983848569092 1 0.85358983848569092 1 0.83791821520125753 0.69361520514217179 1 0.85358983848587056 0.85358983848587056 0.77683220420328725 0.81278569633583353 0.81664766512111064 0.85358983848569092 1 0.85358983848569092 1 1 0.79999999999947335 1 0.85358983848587056 0.85358983848587056 1 0.83791821520125753 0.69361520514217179 0.85358983848587056 0.85358983848587056 1 1 1 1 1 0.79999999999947335 1 1 0.85358983848587056 0.85358983848587056 0.85358983848587056 0.85358983848587056 1 0.79999999999947335 1 1 1 1 1 0.85358983848569092 1 0.85358983848569092 1 1 0.79999999999947335 1 0.85358983848587056 0.85358983848587056 1 1 1 0.85358983848569092 1 0.85358983848569092 1 0.85358983848587056 0.85358983848587056 0.85358983848587056 0.85358983848587056 1 1 1 1 0.85358983848569092 1 0.85358983848569092 0.85358983848587056 0.85358983848587056 1 1 0.79999999999947335 1 1 0.68192028468364885 0.80839867011854549 1 0.85358983848587056 0.85358983848587056 1 0.79999999999947335 1 1 0.68192028468364885 0.80839867011854549 0.80839867011861499 0.68192028468377774 1 0.85358983848587056 0.85358983848587056 1 0.85358983848587056 0.85358983848587056 1 1 0.85358983848587056 0.85358983848587056 1 0.68192028468364885 0.80839867011854549 0.77683220420328725 0.81278569633583353 0.81664766512111064 1 0.68192028468364885 0.80839867011854549 1 0.85358983848587056 0.85358983848587056 1 0.83791821520125753 0.69361520514217179 0.77683220420328725 0.81278569633583353 0.81664766512111064 0.69361520514218133 0.83791821520130205 1 0.85358983848587056 0.85358983848587056 1 0.80839867011861499 0.68192028468377774 1 0.77683220420328725 0.81278569633583353 0.81664766512111064 0.80839867011861499 0.68192028468377774 1 0.85358983848587056 0.85358983848587056 1 1 0.68192028468364885 0.80839867011854549 0.77683220420328725 0.81278569633583353 0.81664766512111064 0.85358983848587056 0.85358983848587056 1 0.79999999999947335 1 1 0.85358983848569092 1 0.85358983848569092 0.77683220420328725 0.81278569633583353 0.81664766512111064 0.69981550660938663 1 0.83057691269844081 0.85358983848569092 1 0.85358983848569092 0.79999999999947335 1 1 0.77683220420328725 0.81278569633583353 0.81664766512111064 0.85358983848587056 0.85358983848587056 1 0.69361520514218133 0.83791821520130205 1 0.79999999999947335 1 1 0.77683220420328725 0.81278569633583353 0.81664766512111064 1 0.85358983848587056 0.85358983848587056 0.85358983848587056 0.85358983848587056 1 0.85358983848569092 1 0.85358983848569092 0.77683220420328725 0.81278569633583353 0.81664766512111064 0.85358983848569092 1 0.85358983848569092 0.69981550660938663 1 0.83057691269844081 0.81346205468287114 1 0.68420958956387889 0.77683220420328725 0.81278569633583353 0.81664766512111064 0.81346205468287114 1 0.68420958956387889 1 0.83791821520125753 0.69361520514217179 0.85358983848569092 1 0.85358983848569092 0.77683220420328725 0.81278569633583353 0.81664766512111064 0.69361520514218133 0.83791821520130205 1 0.49911199724958061 0.77872228561593948 0.77895350115271889 0.69981550660938663 1 0.83057691269844081 0.77683220420328725 0.81278569633583353 0.81664766512111064 0.69361520514218133 0.83791821520130205 1 0.61016512164652226 0.67939035495506384 1 0.49911199724958061 0.77872228561593948 0.77895350115271889 0.77683220420328725 0.81278569633583353 0.81664766512111064 0.81346205468287114 1 0.68420958956387889 0.69981550660938663 1 0.83057691269844081 0.6123333432449789 1 0.67837347745467769 0.77683220420328725 0.81278569633583353 0.81664766512111064 0.6123333432449789 1 0.67837347745467769 0.69981550660938663 1 0.83057691269844081 0.49911199724958061 0.77872228561593948 0.77895350115271889 0.77683220420328725 0.81278569633583353 0.81664766512111064 0.69361520514218133 0.83791821520130205 1 0.69981550660938663 1 0.83057691269844081 0.79999999999947335 1 1 0.77683220420328725 0.81278569633583353 0.81664766512111064 0.50970031073508926 1 0.83534964916803001 0.59999999999894682 1 1 0.69361520514218133 0.83791821520130205 1 0.69981550660938663 1 0.83057691269844081 0.69981550660938663 1 0.83057691269844081 0.59999999999894682 1 1 0.69361520514218133 0.83791821520130205 1 0.79999999999947335 1 1 0.80839867011861499 0.68192028468377774 1 0.61016512164652226 0.67939035495506384 1 0.69361520514218133 0.83791821520130205 1 0.77683220420328725 0.81278569633583353 0.81664766512111064 0.50803330197137353 0.83630110503667787 1 0.69361520514218133 0.83791821520130205 1 0.61016512164652226 0.67939035495506384 1 0.49911199724958061 0.77872228561593948 0.77895350115271889 0.50803330197137353 0.83630110503667787 1 0.50970031073508926 1 0.83534964916803001 0.69361520514218133 0.83791821520130205 1 0.49911199724958061 0.77872228561593948 0.77895350115271889 0.59999999999894682 1 1 0.50803330197137353 0.83630110503667787 1 0.3999999999989749 1 1 0.50970031073508926 1 0.83534964916803001 0.69361520514218133 0.83791821520130205 1 0.50803330197137353 0.83630110503667787 1 0.59999999999894682 1 1 0.50970031073508926 1 0.83534964916803001 0.69361520514218133 0.83791821520130205 1 0.50970031073508926 1 0.83534964916803001 0.69981550660938663 1 0.83057691269844081 0.49911199724958061 0.77872228561593948 0.77895350115271889 0.50970031073508926 1 0.83534964916803001 0.6123333432449789 1 0.67837347745467769 0.69981550660938663 1 0.83057691269844081 0.49911199724958061 0.77872228561593948 0.77895350115271889 0.6123333432449789 1 0.67837347745467769 0.49983993748706529 0.75039103705932653 0.52967335724801234 0.68649174659499257 0.68600703198516766 0.6864917465949647 0.49911199724958061 0.77872228561593948 0.77895350115271889 0.6123333432449789 1 0.67837347745467769 0.49983993748706529 0.75039103705932653 0.52967335724801234 0.68240285647621723 1 0.52310058211166854 0.77374673111774417 0.78860835645735528 0.49829081152968557 0.6123333432449789 1 0.67837347745467769 0.45820186441573879 1 0.68969697123405882 0.49983993748706529 0.75039103705932653 0.52967335724801234 0.49911199724958061 0.77872228561593948 0.77895350115271889 0.45820186441573879 1 0.68969697123405882 0.6123333432449789 1 0.67837347745467769 0.50970031073508926 1 0.83534964916803001 0.49911199724958061 0.77872228561593948 0.77895350115271889 0.6123333432449789 1 0.67837347745467769 0.68649174659499257 0.68600703198516766 0.6864917465949647 0.49983993748706529 0.75039103705932653 0.52967335724801234 0.77374673111774417 0.78860835645735528 0.49829081152968557 0.81346205468287114 1 0.68420958956387889 0.6123333432449789 1 0.67837347745467769 0.68649174659499257 0.68600703198516766 0.6864917465949647 0.77683220420328725 0.81278569633583353 0.81664766512111064 0.6123333432449789 1 0.67837347745467769 0.49911199724958061 0.77872228561593948 0.77895350115271889 0.68649174659499257 0.68600703198516766 0.6864917465949647 0.77683220420328725 0.81278569633583353 0.81664766512111064 0.81346205468287114 1 0.68420958956387889 0.68649174659499257 0.68600703198516766 0.6864917465949647 0.6123333432449789 1 0.67837347745467769 0.77374673111774417 0.78860835645735528 0.49829081152968557 0.81346205468287114 1 0.68420958956387889 0.6123333432449789 1 0.67837347745467769 0.68240285647621723 1 0.52310058211166854 0.77374673111774417 0.78860835645735528 0.49829081152968557 0.6123333432449789 1 0.67837347745467769 0.45820186441573879 1 0.68969697123405882 0.51961524227008238 1 0.49999999999872219 0.49983993748706529 0.75039103705932653 0.52967335724801234 0.6123333432449789 1 0.67837347745467769 0.51961524227008238 1 0.49999999999872219 0.68240285647621723 1 0.52310058211166854 0.49983993748706529 0.75039103705932653 0.52967335724801234 0.68649174659499257 0.68600703198516766 0.6864917465949647 0.49983993748706529 0.75039103705932653 0.52967335724801234 0.49816183246753282 0.5307146639261795 0.75045686993209071 0.49911199724958061 0.77872228561593948 0.77895350115271889 0.68649174659499257 0.68600703198516766 0.6864917465949647 0.50000000000001332 0.49999999999999561 0.49999999999999561 0.7504488434426726 0.53051757989633308 0.49836643074154852 0.49816183246753282 0.5307146639261795 0.75045686993209071 0.68649174659499257 0.68600703198516766 0.6864917465949647 0.49816183246753282 0.5307146639261795 0.75045686993209071 0.7504488434426726 0.53051757989633308 0.49836643074154852 0.78019141325921404 0.49972466465542442 0.78019141325930785 0.50000000000001332 0.49999999999999561 0.49999999999999561 0.68649174659499257 0.68600703198516766 0.6864917465949647 0.7504488434426726 0.53051757989633308 0.49836643074154852 0.49983993748706529 0.75039103705932653 0.52967335724801234 0.7504488434426726 0.53051757989633308 0.49836643074154852 0.49983993748706529 0.75039103705932653 0.52967335724801234 0.68649174659499257 0.68600703198516766 0.6864917465949647 0.77374673111774417 0.78860835645735528 0.49829081152968557 0.68649174659499257 0.68600703198516766 0.6864917465949647 0.50000000000001332 0.49999999999999561 0.49999999999999561 0.49816183246753282 0.5307146639261795 0.75045686993209071 0.49983993748706529 0.75039103705932653 0.52967335724801234 0.78019141325921404 0.49972466465542442 0.78019141325930785 0.61016512164652226 0.67939035495506384 1 0.49816183246753282 0.5307146639261795 0.75045686993209071 0.67320508075671459 0.53045230059073867 1 0.78019141325921404 0.49972466465542442 0.78019141325930785 0.49816183246753282 0.5307146639261795 0.75045686993209071 0.61016512164652226 0.67939035495506384 1 0.68649174659499257 0.68600703198516766 0.6864917465949647 0.61016512164652226 0.67939035495506384 1 0.68649174659499257 0.68600703198516766 0.6864917465949647 0.80839867011861499 0.68192028468377774 1 0.78019141325921404 0.49972466465542442 0.78019141325930785 0.68649174659499257 0.68600703198516766 0.6864917465949647 0.49911199724958061 0.77872228561593948 0.77895350115271889 0.61016512164652226 0.67939035495506384 1 0.77683220420328725 0.81278569633583353 0.81664766512111064 0.68649174659499257 0.68600703198516766 0.6864917465949647 0.49816183246753282 0.5307146639261795 0.75045686993209071 0.61016512164652226 0.67939035495506384 1 0.49911199724958061 0.77872228561593948 0.77895350115271889 0.80839867011861499 0.68192028468377774 1 0.68649174659499257 0.68600703198516766 0.6864917465949647 0.61016512164652226 0.67939035495506384 1 0.77683220420328725 0.81278569633583353 0.81664766512111064 0.67320508075671459 0.53045230059073867 1 0.61016512164652226 0.67939035495506384 1 0.80839867011861499 0.68192028468377774 1 0.78019141325921404 0.49972466465542442 0.78019141325930785 0.45812322962090041 0.68975022421538157 1 0.61016512164652226 0.67939035495506384 1 0.49816183246753282 0.5307146639261795 0.75045686993209071 0.49911199724958061 0.77872228561593948 0.77895350115271889 0.50803330197137353 0.83630110503667787 1 0.61016512164652226 0.67939035495506384 1 0.45812322962090041 0.68975022421538157 1 0.49911199724958061 0.77872228561593948 0.77895350115271889 0.51961524226934941 0.50000000000250611 1 0.45812322962090041 0.68975022421538157 1 0.61016512164652226 0.67939035495506384 1 0.49816183246753282 0.5307146639261795 0.75045686993209071 0.67320508075671459 0.53045230059073867 1 0.51961524226934941 0.50000000000250611 1 0.61016512164652226 0.67939035495506384 1 0.49816183246753282 0.5307146639261795 0.75045686993209071 0.3115891413135391 0.68758981780459771 0.68521708032990558 0.2184393375098648 0.50004596894495223 0.77634962490704662 0.32446581821293602 0.60020898676440626 1 0.18453958615733529 0.77655623474864555 0.81613222483915937 0.32925244736146098 0.39615100178034629 1 0.32446581821293602 0.60020898676440626 1 0.51961524226934941 0.50000000000250611 1 0.49816183246753282 0.5307146639261795 0.75045686993209071 0.45812322962090041 0.68975022421538157 1 0.3115891413135391 0.68758981780459771 0.68521708032990558 0.31067093462947892 0.81480288849497895 1 0.49911199724958061 0.77872228561593948 0.77895350115271889 0.32925244736146098 0.39615100178034629 1 0.32446581821293602 0.60020898676440626 1 0.49816183246753282 0.5307146639261795 0.75045686993209071 0.2184393375098648 0.50004596894495223 0.77634962490704662 0.45812322962090041 0.68975022421538157 1 0.49816183246753282 0.5307146639261795 0.75045686993209071 0.3115891413135391 0.68758981780459771 0.68521708032990558 0.49911199724958061 0.77872228561593948 0.77895350115271889 0.32446581821293602 0.60020898676440626 1 0.3115891413135391 0.68758981780459771 0.68521708032990558 0.49816183246753282 0.5307146639261795 0.75045686993209071 0.2184393375098648 0.50004596894495223 0.77634962490704662 0.45812322962090041 0.68975022421538157 1 0.51961524226934941 0.50000000000250611 1 0.32446581821293602 0.60020898676440626 1 0.49816183246753282 0.5307146639261795 0.75045686993209071 0.31067093462947892 0.81480288849497895 1 0.45812322962090041 0.68975022421538157 1 0.32446581821293602 0.60020898676440626 1 0.3115891413135391 0.68758981780459771 0.68521708032990558 0.45812322962090041 0.68975022421538157 1 0.32446581821293602 0.60020898676440626 1 0.3115891413135391 0.68758981780459771 0.68521708032990558 0.49816183246753282 0.5307146639261795 0.75045686993209071 0.32446581821293602 0.60020898676440626 1 0.31067093462947892 0.81480288849497895 1 0.3115891413135391 0.68758981780459771 0.68521708032990558 0.18453958615733529 0.77655623474864555 0.81613222483915937 0.3115891413135391 0.68758981780459771 0.68521708032990558 0.50000000000001332 0.49999999999999561 0.49999999999999561 0.24769234054476261 0.52242103280823293 0.45098450226372488 0.49983993748706529 0.75039103705932653 0.52967335724801234 0.3115891413135391 0.68758981780459771 0.68521708032990558 0.49816183246753282 0.5307146639261795 0.75045686993209071 0.50000000000001332 0.49999999999999561 0.49999999999999561 0.49983993748706529 0.75039103705932653 0.52967335724801234 0.3115891413135391 0.68758981780459771 0.68521708032990558 0.49983993748706529 0.75039103705932653 0.52967335724801234 0.24769234054476261 0.52242103280823293 0.45098450226372488 0.22516916914780419 0.77057994845201627 0.48187244075707292 0.50000000000001332 0.49999999999999561 0.49999999999999561 0.3115891413135391 0.68758981780459771 0.68521708032990558 0.24769234054476261 0.52242103280823293 0.45098450226372488 0.2184393375098648 0.50004596894495223 0.77634962490704662 0.3115891413135391 0.68758981780459771 0.68521708032990558 0.50000000000001332 0.49999999999999561 0.49999999999999561 0.49816183246753282 0.5307146639261795 0.75045686993209071 0.2184393375098648 0.50004596894495223 0.77634962490704662 0.49816183246753282 0.5307146639261795 0.75045686993209071 0.49983993748706529 0.75039103705932653 0.52967335724801234 0.3115891413135391 0.68758981780459771 0.68521708032990558 0.49911199724958061 0.77872228561593948 0.77895350115271889 0.32448110831226962 1 0.6002015905153204 0.45820186441573879 1 0.68969697123405882 0.3115891413135391 0.68758981780459771 0.68521708032990558 0.49983993748706529 0.75039103705932653 0.52967335724801234 0.45820186441573879 1 0.68969697123405882 0.31085062173747541 1 0.81469961246428202 0.32448110831226962 1 0.6002015905153204 0.3115891413135391 0.68758981780459771 0.68521708032990558 0.45820186441573879 1 0.68969697123405882 0.3115891413135391 0.68758981780459771 0.68521708032990558 0.49983993748706529 0.75039103705932653 0.52967335724801234 0.49911199724958061 0.77872228561593948 0.77895350115271889 0.32448110831226962 1 0.6002015905153204 0.3115891413135391 0.68758981780459771 0.68521708032990558 0.31085062173747541 1 0.81469961246428202 0.18453958615733529 0.77655623474864555 0.81613222483915937 0.32448110831226962 1 0.6002015905153204 0.49983993748706529 0.75039103705932653 0.52967335724801234 0.3115891413135391 0.68758981780459771 0.68521708032990558 0.22516916914780419 0.77057994845201627 0.48187244075707292 0.45820186441573879 1 0.68969697123405882 0.31085062173747541 1 0.81469961246428202 0.3115891413135391 0.68758981780459771 0.68521708032990558 0.49911199724958061 0.77872228561593948 0.77895350115271889 0.32926555316115258 1 0.39615987727515128 0.49983993748706529 0.75039103705932653 0.52967335724801234 0.32448110831226962 1 0.6002015905153204 0.22516916914780419 0.77057994845201627 0.48187244075707292 0.32448110831226962 1 0.6002015905153204 0.3115891413135391 0.68758981780459771 0.68521708032990558 0.15900053892265181 1 0.69447607299016312 0.22516916914780419 0.77057994845201627 0.48187244075707292 0.32926555316115258 1 0.39615987727515128 0.51961524227008238 1 0.49999999999872219 0.32448110831226962 1 0.6002015905153204 0.49983993748706529 0.75039103705932653 0.52967335724801234 0.32448110831226962 1 0.6002015905153204 0.51961524227008238 1 0.49999999999872219 0.45820186441573879 1 0.68969697123405882 0.49983993748706529 0.75039103705932653 0.52967335724801234 0.45820186441573879 1 0.68969697123405882 0.50970031073508926 1 0.83534964916803001 0.31085062173747541 1 0.81469961246428202 0.49911199724958061 0.77872228561593948 0.77895350115271889 0.31085062173747541 1 0.81469961246428202 0.49911199724958061 0.77872228561593948 0.77895350115271889 0.31067093462947892 0.81480288849497895 1 0.18453958615733529 0.77655623474864555 0.81613222483915937 0.31085062173747541 1 0.81469961246428202 0.3115891413135391 0.68758981780459771 0.68521708032990558 0.49911199724958061 0.77872228561593948 0.77895350115271889 0.18453958615733529 0.77655623474864555 0.81613222483915937 0.50803330197137353 0.83630110503667787 1 0.31085062173747541 1 0.81469961246428202 0.50970031073508926 1 0.83534964916803001 0.49911199724958061 0.77872228561593948 0.77895350115271889 0.31067093462947892 0.81480288849497895 1 0.49911199724958061 0.77872228561593948 0.77895350115271889 0.3115891413135391 0.68758981780459771 0.68521708032990558 0.18453958615733529 0.77655623474864555 0.81613222483915937 0.31085062173747541 1 0.81469961246428202 0.3999999999989749 1 1 0.50803330197137353 0.83630110503667787 1 0.50970031073508926 1 0.83534964916803001 0.31085062173747541 1 0.81469961246428202 0.3999999999989749 1 1 0.31067093462947892 0.81480288849497895 1 0.50803330197137353 0.83630110503667787 1 0.31085062173747541 1 0.81469961246428202 0.50803330197137353 0.83630110503667787 1 0.31067093462947892 0.81480288849497895 1 0.49911199724958061 0.77872228561593948 0.77895350115271889 0.45812322962090041 0.68975022421538157 1 0.31067093462947892 0.81480288849497895 1 0.50803330197137353 0.83630110503667787 1 0.49911199724958061 0.77872228561593948 0.77895350115271889 0.3999999999989749 1 1 0.19999999999955789 1 1 0.31085062173747541 1 0.81469961246428202 0.31067093462947892 0.81480288849497895 1 0.15900053892265181 1 0.69447607299016312 0.31085062173747541 1 0.81469961246428202 0.1464101615132356 1 0.85358983848650494 0.18453958615733529 0.77655623474864555 0.81613222483915937 0.31085062173747541 1 0.81469961246428202 0.31067093462947892 0.81480288849497895 1 0.1464101615132356 1 0.85358983848650494 0.18453958615733529 0.77655623474864555 0.81613222483915937 0.31085062173747541 1 0.81469961246428202 0.19999999999955789 1 1 0.1464101615132356 1 0.85358983848650494 0.31067093462947892 0.81480288849497895 1 0.14641016151332509 0.85358983848655678 1 0.1464101615132356 1 0.85358983848650494 0.19999999999955789 1 1 0.31067093462947892 0.81480288849497895 1 0.31067093462947892 0.81480288849497895 1 0.15896804272141651 0.69449451837104537 1 0.14641016151332509 0.85358983848655678 1 0.18453958615733529 0.77655623474864555 0.81613222483915937 0.14641016151332509 0.85358983848655678 1 0.1464101615132356 1 0.85358983848650494 0.31067093462947892 0.81480288849497895 1 0.18453958615733529 0.77655623474864555 0.81613222483915937 0 0.85358983848682146 0.85358983848668035 0 0.69992182039579531 0.85173693729137989 0 0.80860557108920617 0.70542349973054763 0.18453958615733529 0.77655623474864555 0.81613222483915937 0.15900053892265181 1 0.69447607299016312 0 0.85358983848682146 0.85358983848668035 0 0.80860557108920617 0.70542349973054763 0.18453958615733529 0.77655623474864555 0.81613222483915937 0.18453958615733529 0.77655623474864555 0.81613222483915937 0 0.79999999999999982 1 0.15896804272141651 0.69449451837104537 1 0.14641016151332509 0.85358983848655678 1 0.1464101615132356 1 0.85358983848650494 0.14641016151332509 0.85358983848655678 1 0 0.85358983848682146 0.85358983848668035 0.18453958615733529 0.77655623474864555 0.81613222483915937 0 0.85358983848682146 0.85358983848668035 0 0.79999999999999982 1 0 0.69992182039579531 0.85173693729137989 0.18453958615733529 0.77655623474864555 0.81613222483915937 0 0.85358983848682146 0.85358983848668035 0.14641016151332509 0.85358983848655678 1 0 0.79999999999999982 1 0.18453958615733529 0.77655623474864555 0.81613222483915937 0 1 1 0 0.85358983848682146 0.85358983848668035 0.14641016151332509 0.85358983848655678 1 0 0.79999999999999982 1 0 0.85358983848682146 0.85358983848668035 0.1464101615132356 1 0.85358983848650494 0 1 1 0.14641016151332509 0.85358983848655678 1 0.19999999999955789 1 1 0 1 1 0.1464101615132356 1 0.85358983848650494 0.14641016151332509 0.85358983848655678 1 0.1464101615132356 1 0.85358983848650494 0 1 1 0 1 0.79999999999947335 0 0.85358983848682146 0.85358983848668035 0.1464101615132356 1 0.85358983848650494 0 0.85358983848682146 0.85358983848668035 0.15900053892265181 1 0.69447607299016312 0.18453958615733529 0.77655623474864555 0.81613222483915937 0.15900053892265181 1 0.69447607299016312 0 1 0.79999999999947335 0 0.80860557108920617 0.70542349973054763 0 0.85358983848682146 0.85358983848668035 0 1 0.79999999999947335 0.15900053892265181 1 0.69447607299016312 0.1464101615132356 1 0.85358983848650494 0 0.85358983848682146 0.85358983848668035 0 0.80860557108920617 0.70542349973054763 0 1 0.59999999999894682 0 1 0.79999999999947335 0.15900053892265181 1 0.69447607299016312 0.3115891413135391 0.68758981780459771 0.68521708032990558 0.22516916914780419 0.77057994845201627 0.48187244075707292 0 0.80860557108920617 0.70542349973054763 0.18453958615733529 0.77655623474864555 0.81613222483915937 0 0.80860557108920617 0.70542349973054763 0 0.83630110503664845 0.50803330197135654 0 1 0.59999999999894682 0.15900053892265181 1 0.69447607299016312 0.15900053892265181 1 0.69447607299016312 0.3115891413135391 0.68758981780459771 0.68521708032990558 0.32448110831226962 1 0.6002015905153204 0.18453958615733529 0.77655623474864555 0.81613222483915937 0.15900053892265181 1 0.69447607299016312 0.22516916914780419 0.77057994845201627 0.48187244075707292 0.3115891413135391 0.68758981780459771 0.68521708032990558 0.18453958615733529 0.77655623474864555 0.81613222483915937 0.15900053892265181 1 0.69447607299016312 0 0.80860557108920617 0.70542349973054763 0.22516916914780419 0.77057994845201627 0.48187244075707292 0.18453958615733529 0.77655623474864555 0.81613222483915937 0.15900053892265181 1 0.69447607299016312 0.32448110831226962 1 0.6002015905153204 0.31085062173747541 1 0.81469961246428202 0.18453958615733529 0.77655623474864555 0.81613222483915937 0.32448110831226962 1 0.6002015905153204 0.15900053892265181 1 0.69447607299016312 0.17226134197293 1 0.49836539647645101 0.22516916914780419 0.77057994845201627 0.48187244075707292 0 0.83630110503664845 0.50803330197135654 0.17226134197293 1 0.49836539647645101 0.15900053892265181 1 0.69447607299016312 0.22516916914780419 0.77057994845201627 0.48187244075707292 0 1 0.59999999999894682 0 1 0.3999999999989749 0.17226134197293 1 0.49836539647645101 0 0.83630110503664845 0.50803330197135654 0 0.83630110503664845 0.50803330197135654 0.17226134197293 1 0.49836539647645101 0 1 0.59999999999894682 0.15900053892265181 1 0.69447607299016312 0 0.83630110503664845 0.50803330197135654 0.15900053892265181 1 0.69447607299016312 0 0.80860557108920617 0.70542349973054763 0.22516916914780419 0.77057994845201627 0.48187244075707292 0 0.66416205381430016 0.59944234540882957 0 0.83630110503664845 0.50803330197135654 0 0.80860557108920617 0.70542349973054763 0.22516916914780419 0.77057994845201627 0.48187244075707292 0 0.66416205381430016 0.59944234540882957 0 0.80860557108920617 0.70542349973054763 0.3115891413135391 0.68758981780459771 0.68521708032990558 0.22516916914780419 0.77057994845201627 0.48187244075707292 0 0.66416205381430016 0.59944234540882957 0.3115891413135391 0.68758981780459771 0.68521708032990558 0 0.80860557108920617 0.70542349973054763 0.18453958615733529 0.77655623474864555 0.81613222483915937 0 0.66416205381430016 0.59944234540882957 0 0.80860557108920617 0.70542349973054763 0 0.60922248848335758 0.72722573386012812 0.18453958615733529 0.77655623474864555 0.81613222483915937 0 0.66416205381430016 0.59944234540882957 0.24769234054476261 0.52242103280823293 0.45098450226372488 0.3115891413135391 0.68758981780459771 0.68521708032990558 0.2184393375098648 0.50004596894495223 0.77634962490704662 0 0.66416205381430016 0.59944234540882957 0 0.60922248848335758 0.72722573386012812 0.3115891413135391 0.68758981780459771 0.68521708032990558 0.18453958615733529 0.77655623474864555 0.81613222483915937 0 0.66416205381430016 0.59944234540882957 0 0.46954769941369501 0.67320508075638175 0 0.50000000000237477 0.51961524226909872 0.2184393375098648 0.50004596894495223 0.77634962490704662 0 0.60922248848335758 0.72722573386012812 0 0.66416205381430016 0.59944234540882957 0.3115891413135391 0.68758981780459771 0.68521708032990558 0.2184393375098648 0.50004596894495223 0.77634962490704662 0 0.66416205381430016 0.59944234540882957 0.3115891413135391 0.68758981780459771 0.68521708032990558 0.24769234054476261 0.52242103280823293 0.45098450226372488 0.22516916914780419 0.77057994845201627 0.48187244075707292 0 0.66416205381430016 0.59944234540882957 0 0.50000000000237477 0.51961524226909872 0.24769234054476261 0.52242103280823293 0.45098450226372488 0.2184393375098648 0.50004596894495223 0.77634962490704662 0 0.68801781652248195 0.45664527743358641 0 0.83630110503664845 0.50803330197135654 0 0.66416205381430016 0.59944234540882957 0.22516916914780419 0.77057994845201627 0.48187244075707292 0 0.66416205381430016 0.59944234540882957 0 0.50000000000237477 0.51961524226909872 0 0.68801781652248195 0.45664527743358641 0.24769234054476261 0.52242103280823293 0.45098450226372488 0 0.60922248848335758 0.72722573386012812 0 0.46954769941369501 0.67320508075638175 0 0.66416205381430016 0.59944234540882957 0.2184393375098648 0.50004596894495223 0.77634962490704662 0 0.5118616330515301 0.84191918937737908 0 0.69992182039579531 0.85173693729137989 0.15896804272141651 0.69449451837104537 1 0.2184393375098648 0.50004596894495223 0.77634962490704662 0 0.60922248848335758 0.72722573386012812 0.2184393375098648 0.50004596894495223 0.77634962490704662 0.3115891413135391 0.68758981780459771 0.68521708032990558 0.18453958615733529 0.77655623474864555 0.81613222483915937 0.15896804272141651 0.69449451837104537 1 0.2184393375098648 0.50004596894495223 0.77634962490704662 0 0.69992182039579531 0.85173693729137989 0.18453958615733529 0.77655623474864555 0.81613222483915937 0 0.5118616330515301 0.84191918937737908 0 0.46954769941369501 0.67320508075638175 0 0.60922248848335758 0.72722573386012812 0.2184393375098648 0.50004596894495223 0.77634962490704662 0 0.5118616330515301 0.84191918937737908 0 0.60922248848335758 0.72722573386012812 0 0.69992182039579531 0.85173693729137989 0.2184393375098648 0.50004596894495223 0.77634962490704662 0.15896804272141651 0.69449451837104537 1 0.32446581821293602 0.60020898676440626 1 0.2184393375098648 0.50004596894495223 0.77634962490704662 0.18453958615733529 0.77655623474864555 0.81613222483915937 0 0.60922248848335758 0.72722573386012812 0 0.69992182039579531 0.85173693729137989 0.2184393375098648 0.50004596894495223 0.77634962490704662 0.18453958615733529 0.77655623474864555 0.81613222483915937 0 0.80860557108920617 0.70542349973054763 0 0.69992182039579531 0.85173693729137989 0 0.60922248848335758 0.72722573386012812 0.18453958615733529 0.77655623474864555 0.81613222483915937 0.15896804272141651 0.69449451837104537 1 0.32446581821293602 0.60020898676440626 1 0.17226134197275911 0.49836539647894412 1 0.2184393375098648 0.50004596894495223 0.77634962490704662 0.15896804272141651 0.69449451837104537 1 0.17226134197275911 0.49836539647894412 1 0 0.5118616330515301 0.84191918937737908 0.2184393375098648 0.50004596894495223 0.77634962490704662 0.32446581821293602 0.60020898676440626 1 0.15896804272141651 0.69449451837104537 1 0.31067093462947892 0.81480288849497895 1 0.18453958615733529 0.77655623474864555 0.81613222483915937 0.18453958615733529 0.77655623474864555 0.81613222483915937 0.15896804272141651 0.69449451837104537 1 0 0.79999999999999982 1 0 0.69992182039579531 0.85173693729137989 0 0.69992182039579531 0.85173693729137989 0 0.5118616330515301 0.84191918937737908 0.15896804272141651 0.69449451837104537 1 0 0.60000000000138687 1 0.15896804272141651 0.69449451837104537 1 0 0.79999999999999982 1 0 0.69992182039579531 0.85173693729137989 0 0.60000000000138687 1 0 0.60000000000138687 1 0 0.5118616330515301 0.84191918937737908 0.15896804272141651 0.69449451837104537 1 0.17226134197275911 0.49836539647894412 1 0 0.5118616330515301 0.84191918937737908 0 0.60000000000138687 1 0 0.40000000000166441 1 0.17226134197275911 0.49836539647894412 1 0.17226134197275911 0.49836539647894412 1 0 0.40000000000166441 1 0 0.5118616330515301 0.84191918937737908 0 0.31807971531776508 0.80839867011913336 0 0.40000000000166441 1 0.17226134197275911 0.49836539647894412 1 0.16929708765653109 0.30074819035870082 1 0 0.31807971531776508 0.80839867011913336 0 0.14641016151490169 0.85358983848532144 0 0.31807971531776508 0.80839867011913336 0.16929708765653109 0.30074819035870082 1 0.31426750628021272 0.31270343261798911 0.68761148188185484 0.16929708765653109 0.30074819035870082 1 0.31426750628021272 0.31270343261798911 0.68761148188185484 0 0.31807971531776508 0.80839867011913336 0.2184393375098648 0.50004596894495223 0.77634962490704662 0 0.5118616330515301 0.84191918937737908 0 0.31807971531776508 0.80839867011913336 0 0.46954769941369501 0.67320508075638175 0.2184393375098648 0.50004596894495223 0.77634962490704662 0 0.5118616330515301 0.84191918937737908 0.17226134197275911 0.49836539647894412 1 0 0.31807971531776508 0.80839867011913336 0.2184393375098648 0.50004596894495223 0.77634962490704662 0 0.31807971531776508 0.80839867011913336 0.16929708765653109 0.30074819035870082 1 0 0.40000000000166441 1 0 0.20000000000083221 1 0.17226134197275911 0.49836539647894412 1 0.32925244736146098 0.39615100178034629 1 0.16929708765653109 0.30074819035870082 1 0.2184393375098648 0.50004596894495223 0.77634962490704662 0.17226134197275911 0.49836539647894412 1 0.16929708765653109 0.30074819035870082 1 0 0.31807971531776508 0.80839867011913336 0.2184393375098648 0.50004596894495223 0.77634962490704662 0.31610726166461628 0.1880448979455934 1 0.16929708765653109 0.30074819035870082 1 0.32925244736146098 0.39615100178034629 1 0.31426750628021272 0.31270343261798911 0.68761148188185484 0.32446581821293602 0.60020898676440626 1 0.32925244736146098 0.39615100178034629 1 0.17226134197275911 0.49836539647894412 1 0.2184393375098648 0.50004596894495223 0.77634962490704662 0.45812322962173568 0.31024977578554058 1 0.31426750628021272 0.31270343261798911 0.68761148188185484 0.49816183246753282 0.5307146639261795 0.75045686993209071 0.50084626324420545 0.22238844715913 0.78084811589659187 0.32925244736146098 0.39615100178034629 1 0.49816183246753282 0.5307146639261795 0.75045686993209071 0.31426750628021272 0.31270343261798911 0.68761148188185484 0.2184393375098648 0.50004596894495223 0.77634962490704662 0.31610726166461628 0.1880448979455934 1 0.32925244736146098 0.39615100178034629 1 0.45812322962173568 0.31024977578554058 1 0.31426750628021272 0.31270343261798911 0.68761148188185484 0.45812322962173568 0.31024977578554058 1 0.31610726166461628 0.1880448979455934 1 0.31426750628021272 0.31270343261798911 0.68761148188185484 0.50084626324420545 0.22238844715913 0.78084811589659187 0.32925244736146098 0.39615100178034629 1 0.45812322962173568 0.31024977578554058 1 0.31426750628021272 0.31270343261798911 0.68761148188185484 0.49816183246753282 0.5307146639261795 0.75045686993209071 0.32925244736146098 0.39615100178034629 1 0.31426750628021272 0.31270343261798911 0.68761148188185484 0.16929708765653109 0.30074819035870082 1 0.2184393375098648 0.50004596894495223 0.77634962490704662 0.32925244736146098 0.39615100178034629 1 0.51961524226934941 0.50000000000250611 1 0.45812322962173568 0.31024977578554058 1 0.49816183246753282 0.5307146639261795 0.75045686993209071 0.31426750628021272 0.31270343261798911 0.68761148188185484 0.49816183246753282 0.5307146639261795 0.75045686993209071 0.50000000000001332 0.49999999999999561 0.49999999999999561 0.2184393375098648 0.50004596894495223 0.77634962490704662 0.24769234054476261 0.52242103280823293 0.45098450226372488 0.50073570207385831 0.24848280280289631 0.52886631355986169 0.31426750628021272 0.31270343261798911 0.68761148188185484 0.22088738526309029 0.22111069116742441 0.50004796911802929 0.31426750628021272 0.31270343261798911 0.68761148188185484 0.50073570207385831 0.24848280280289631 0.52886631355986169 0.49816183246753282 0.5307146639261795 0.75045686993209071 0.50084626324420545 0.22238844715913 0.78084811589659187 0.50000000000001332 0.49999999999999561 0.49999999999999561 0.31426750628021272 0.31270343261798911 0.68761148188185484 0.24769234054476261 0.52242103280823293 0.45098450226372488 0.50073570207385831 0.24848280280289631 0.52886631355986169 0.50000000000001332 0.49999999999999561 0.49999999999999561 0.49816183246753282 0.5307146639261795 0.75045686993209071 0.31426750628021272 0.31270343261798911 0.68761148188185484 0.50073570207385831 0.24848280280289631 0.52886631355986169 0.50000000000001332 0.49999999999999561 0.49999999999999561 0.24769234054476261 0.52242103280823293 0.45098450226372488 0.31426750628021272 0.31270343261798911 0.68761148188185484 0.2184393375098648 0.50004596894495223 0.77634962490704662 0.2184393375098648 0.50004596894495223 0.77634962490704662 0.31426750628021272 0.31270343261798911 0.68761148188185484 0 0.50000000000237477 0.51961524226909872 0.24769234054476261 0.52242103280823293 0.45098450226372488 0 0.31024977578556651 0.45812322962166352 0.24769234054476261 0.52242103280823293 0.45098450226372488 0 0.32043363027398297 0.61046998817722586 0.22088738526309029 0.22111069116742441 0.50004796911802929 0 0.32043363027398297 0.61046998817722586 0 0.50000000000237477 0.51961524226909872 0.31426750628021272 0.31270343261798911 0.68761148188185484 0.24769234054476261 0.52242103280823293 0.45098450226372488 0.2184393375098648 0.50004596894495223 0.77634962490704662 0 0.32043363027398297 0.61046998817722586 0 0.50000000000237477 0.51961524226909872 0.31426750628021272 0.31270343261798911 0.68761148188185484 0 0.32043363027398297 0.61046998817722586 0.24769234054476261 0.52242103280823293 0.45098450226372488 0.31426750628021272 0.31270343261798911 0.68761148188185484 0.22088738526309029 0.22111069116742441 0.50004796911802929 0.2184393375098648 0.50004596894495223 0.77634962490704662 0 0.50000000000237477 0.51961524226909872 0 0.32043363027398297 0.61046998817722586 0 0.46954769941369501 0.67320508075638175 0 0.16196943494415611 0.69380980080116506 0 0.32043363027398297 0.61046998817722586 0.31426750628021272 0.31270343261798911 0.68761148188185484 0.22088738526309029 0.22111069116742441 0.50004796911802929 0 0.32043363027398297 0.61046998817722586 0 0.31807971531776508 0.80839867011913336 0.31426750628021272 0.31270343261798911 0.68761148188185484 0.2184393375098648 0.50004596894495223 0.77634962490704662 0 0.16196943494415611 0.69380980080116506 0 0.32043363027398297 0.61046998817722586 0 0.31807971531776508 0.80839867011913336 0.31426750628021272 0.31270343261798911 0.68761148188185484 0 0.31024977578556651 0.45812322962166352 0 0.50000000000237477 0.51961524226909872 0 0.32043363027398297 0.61046998817722586 0.24769234054476261 0.52242103280823293 0.45098450226372488 0 0.32043363027398297 0.61046998817722586 0 0.46954769941369501 0.67320508075638175 0 0.31807971531776508 0.80839867011913336 0.2184393375098648 0.50004596894495223 0.77634962490704662 0 0.32043363027398297 0.61046998817722586 0 0.16275515618034081 0.50966790549591257 0 0.31024977578556651 0.45812322962166352 0.22088738526309029 0.22111069116742441 0.50004796911802929 0 0.16196943494415611 0.69380980080116506 0.14641016151479661 0 0.85358983848542624 0.18818969570926641 0 0.68364148842842287 0.31426750628021272 0.31270343261798911 0.68761148188185484 0 0.16196943494415611 0.69380980080116506 0.31426750628021272 0.31270343261798911 0.68761148188185484 0.18818969570926641 0 0.68364148842842287 0.22088738526309029 0.22111069116742441 0.50004796911802929 0 0.16196943494415611 0.69380980080116506 0.18818969570926641 0 0.68364148842842287 0 0.16275515618034081 0.50966790549591257 0.22088738526309029 0.22111069116742441 0.50004796911802929 0 0.16196943494415611 0.69380980080116506 0 0.16275515618034081 0.50966790549591257 0 0.32043363027398297 0.61046998817722586 0.22088738526309029 0.22111069116742441 0.50004796911802929 0 0 0.79999999999999982 0 0 0.60000000000138687 0 0.16196943494415611 0.69380980080116506 0.18818969570926641 0 0.68364148842842287 0 0 0.60000000000138687 0 0.16196943494415611 0.69380980080116506 0.18818969570926641 0 0.68364148842842287 0 0.16275515618034081 0.50966790549591257 0.18818969570926641 0 0.68364148842842287 0.16370661204827031 0 0.4886650857430957 0 0 0.60000000000138687 0 0.16275515618034081 0.50966790549591257 0.18818969570926641 0 0.68364148842842287 0.31030302876556398 0 0.54179813558513157 0.16370661204827031 0 0.4886650857430957 0.22088738526309029 0.22111069116742441 0.50004796911802929 0 0.16275515618034081 0.50966790549591257 0.18818969570926641 0 0.68364148842842287 0.16370661204827031 0 0.4886650857430957 0.22088738526309029 0.22111069116742441 0.50004796911802929 0.30074819035913852 0 0.83070291234383831 0.39615987727709562 0 0.67073444684008199 0.18818969570926641 0 0.68364148842842287 0.31426750628021272 0.31270343261798911 0.68761148188185484 0.31030302876556398 0 0.54179813558513157 0.31426750628021272 0.31270343261798911 0.68761148188185484 0.50073570207385831 0.24848280280289631 0.52886631355986169 0.22088738526309029 0.22111069116742441 0.50004796911802929 0.39615987727709562 0 0.67073444684008199 0.31030302876556398 0 0.54179813558513157 0.31426750628021272 0.31270343261798911 0.68761148188185484 0.50073570207385831 0.24848280280289631 0.52886631355986169 0.39615987727709562 0 0.67073444684008199 0.31426750628021272 0.31270343261798911 0.68761148188185484 0.30074819035913852 0 0.83070291234383831 0.50084626324420545 0.22238844715913 0.78084811589659187 0.18818969570926641 0 0.68364148842842287 0.31426750628021272 0.31270343261798911 0.68761148188185484 0.31030302876556398 0 0.54179813558513157 0.22088738526309029 0.22111069116742441 0.50004796911802929 0.6002015905170176 0 0.67551889168744117 0.50073570207385831 0.24848280280289631 0.52886631355986169 0.39615987727709562 0 0.67073444684008199 0.50084626324420545 0.22238844715913 0.78084811589659187 0.31030302876556398 0 0.54179813558513157 0.18818969570926641 0 0.68364148842842287 0.39615987727709562 0 0.67073444684008199 0.31426750628021272 0.31270343261798911 0.68761148188185484 0.39615987727709562 0 0.67073444684008199 0.50073570207385831 0.24848280280289631 0.52886631355986169 0.31426750628021272 0.31270343261798911 0.68761148188185484 0.50084626324420545 0.22238844715913 0.78084811589659187 0.39615987727709562 0 0.67073444684008199 0.6002015905170176 0 0.67551889168744117 0.50000000000250922 0 0.48038475773043671 0.50073570207385831 0.24848280280289631 0.52886631355986169 0.39615987727709562 0 0.67073444684008199 0.50000000000250922 0 0.48038475773043671 0.31030302876556398 0 0.54179813558513157 0.50073570207385831 0.24848280280289631 0.52886631355986169 0.49836539647917322 0 0.82773865802723501 0.6002015905170176 0 0.67551889168744117 0.39615987727709562 0 0.67073444684008199 0.50084626324420545 0.22238844715913 0.78084811589659187 0.30074819035913852 0 0.83070291234383831 0.14641016151432179 0.14641016151432179 1 0.31610726166461628 0.1880448979455934 1 0.31426750628021272 0.31270343261798911 0.68761148188185484 0.30074819035913852 0 0.83070291234383831 0.31426750628021272 0.31270343261798911 0.68761148188185484 0.31610726166461628 0.1880448979455934 1 0.50084626324420545 0.22238844715913 0.78084811589659187 0.30074819035913852 0 0.83070291234383831 0.31610726166461628 0.1880448979455934 1 0.49836539647917322 0 0.82773865802723501 0.50084626324420545 0.22238844715913 0.78084811589659187 0.39615987727709562 0 0.67073444684008199 0.30074819035913852 0 0.83070291234383831 0.49836539647917322 0 0.82773865802723501 0.50084626324420545 0.22238844715913 0.78084811589659187 0.31610726166461628 0.1880448979455934 1 0.40000000000166441 0 1 0.49836539647917322 0 0.82773865802723501 0.50966790549576724 0.1627551561802443 1 0.40000000000166441 0 1 0.49836539647917322 0 0.82773865802723501 0.30074819035913852 0 0.83070291234383831 0.31610726166461628 0.1880448979455934 1 0.31610726166461628 0.1880448979455934 1 0.50966790549576724 0.1627551561802443 1 0.49836539647917322 0 0.82773865802723501 0.50084626324420545 0.22238844715913 0.78084811589659187 0.45812322962173568 0.31024977578554058 1 0.50966790549576724 0.1627551561802443 1 0.31610726166461628 0.1880448979455934 1 0.50084626324420545 0.22238844715913 0.78084811589659187 0.40000000000166441 0 1 0.30074819035913852 0 0.83070291234383831 0.20000000000083221 0 1 0.31610726166461628 0.1880448979455934 1 0 0.14641016151490169 0.85358983848532144 0 0.16196943494415611 0.69380980080116506 0 0.31807971531776508 0.80839867011913336 0.31426750628021272 0.31270343261798911 0.68761148188185484 0.16929708765653109 0.30074819035870082 1 0.31610726166461628 0.1880448979455934 1 0.14641016151432179 0.14641016151432179 1 0.31426750628021272 0.31270343261798911 0.68761148188185484 0.14641016151432179 0.14641016151432179 1 0.20000000000083221 0 1 0.14641016151479661 0 0.85358983848542624 0.30074819035913852 0 0.83070291234383831 0.14641016151432179 0.14641016151432179 1 0.30074819035913852 0 0.83070291234383831 0.14641016151479661 0 0.85358983848542624 0.31426750628021272 0.31270343261798911 0.68761148188185484 0.14641016151432179 0.14641016151432179 1 0.20000000000083221 0 1 0.30074819035913852 0 0.83070291234383831 0.31610726166461628 0.1880448979455934 1 0.18818969570926641 0 0.68364148842842287 0.14641016151479661 0 0.85358983848542624 0.30074819035913852 0 0.83070291234383831 0.31426750628021272 0.31270343261798911 0.68761148188185484 0 0.14641016151490169 0.85358983848532144 0.16929708765653109 0.30074819035870082 1 0.14641016151432179 0.14641016151432179 1 0.31426750628021272 0.31270343261798911 0.68761148188185484 0.14641016151432179 0.14641016151432179 1 0.14641016151479661 0 0.85358983848542624 0 0.14641016151490169 0.85358983848532144 0.31426750628021272 0.31270343261798911 0.68761148188185484 0 0.16196943494415611 0.69380980080116506 0 0.14641016151490169 0.85358983848532144 0.14641016151479661 0 0.85358983848542624 0.31426750628021272 0.31270343261798911 0.68761148188185484 0 0.20000000000083221 1 0 0.31807971531776508 0.80839867011913336 0.16929708765653109 0.30074819035870082 1 0 0.14641016151490169 0.85358983848532144 0.14641016151432179 0.14641016151432179 1 0 0.20000000000083221 1 0.16929708765653109 0.30074819035870082 1 0 0.14641016151490169 0.85358983848532144 0 0.16196943494415611 0.69380980080116506 0.14641016151479661 0 0.85358983848542624 0 0 0.79999999999999982 0.18818969570926641 0 0.68364148842842287 0 0.14641016151490169 0.85358983848532144 0.14641016151479661 0 0.85358983848542624 0 0 0.79999999999999982 0 0.16196943494415611 0.69380980080116506 0 0 1 0 0.20000000000083221 1 0.14641016151432179 0.14641016151432179 1 0 0.14641016151490169 0.85358983848532144 0.14641016151479661 0 0.85358983848542624 0 0 0.79999999999999982 0 0 1 0 0.14641016151490169 0.85358983848532144 0 0 1 0.14641016151432179 0.14641016151432179 1 0.20000000000083221 0 1 0.14641016151479661 0 0.85358983848542624 0.14641016151479661 0 0.85358983848542624 0 0 1 0.14641016151432179 0.14641016151432179 1 0 0.14641016151490169 0.85358983848532144 
</DataArray>
</Points>
<Cells>
<DataArray type="UInt32" Name="connectivity" format="ascii">
0 1 2 3 4 5 6 7 8 9 10 11 12 13 14 15 16 17 18 19 20 21 22 23 24 25 26 27 28 29 30 31 32 33 34 35 36 37 38 39 40 41 42 43 44 45 46 47 48 49 50 51 52 53 54 55 56 57 58 59 60 61 62 63 64 65 66 67 68 69 70 71 72 73 74 75 76 77 78 79 80 81 82 83 84 85 86 87 88 89 90 91 92 93 94 95 96 97 98 99 100 101 102 103 104 105 106 107 108 109 110 111 112 113 114 115 116 117 118 119 120 121 122 123 124 125 126 127 128 129 130 131 132 133 134 135 136 137 138 139 140 141 142 143 144 145 146 147 148 149 150 151 152 153 154 155 156 157 158 159 160 161 162 163 164 165 166 167 168 169 170 171 172 173 174 175 176 177 178 179 180 181 182 183 184 185 186 187 188 189 190 191 192 193 194 195 196 197 198 199 200 201 202 203 204 205 206 207 208 209 210 211 212 213 214 215 216 217 218 219 220 221 222 223 224 225 226 227 228 229 230 231 232 233 234 235 236 237 238 239 240 241 242 243 244 245 246 247 248 249 250 251 252 253 254 255 256 257 258 259 260 261 262 263 264 265 266 267 268 269 270 271 272 273 274 275 276 277 278 279 280 281 282 283 284 285 286 287 288 289 290 291 292 293 294 295 296 297 298 299 300 301 302 303 304 305 306 307 308 309 310 311 312 313 314 315 316 317 318 319 320 321 322 323 324 325 326 327 328 329 330 331 332 333 334 335 336 337 338 339 340 341 342 343 344 345 346 347 348 349 350 351 352 353 354 355 356 357 358 359 360 361 362 363 364 365 366 367 368 369 370 371 372 373 374 375 376 377 378 379 380 381 382 383 384 385 386 387 388 389 390 391 392 393 394 395 396 397 398 399 400 401 402 403 404 405 406 407 408 409 410 411 412 413 414 415 416 417 418 419 420 421 422 423 424 425 426 427 428 429 430 431 432 433 434 435 436 437 438 439 440 441 442 443 444 445 446 447 448 449 450 451 452 453 454 455 456 457 458 459 460 461 462 463 464 465 466 467 468 469 470 471 472 473 474 475 476 477 478 479 480 481 482 483 484 485 486 487 488 489 490 491 492 493 494 495 496 497 498 499 500 501 502 503 504 505 506 507 508 509 510 511 512 513 514 515 516 517 518 519 520 521 522 523 524 525 526 527 528 529 530 531 532 533 534 535 536 537 538 539 540 541 542 543 544 545 546 547 548 549 550 551 552 553 554 555 556 557 558 559 560 561 562 563 564 565 566 567 568 569 570 571 572 573 574 575 576 577 578 579 580 581 582 583 584 585 586 587 588 589 590 591 592 593 594 595 596 597 598 599 600 601 602 603 604 605 606 607 608 609 610 611 612 613 614 615 616 617 618 619 620 621 622 623 624 625 626 627 628 629 630 631 632 633 634 635 636 637 638 639 640 641 642 643 644 645 646 647 648 649 650 651 652 653 654 655 656 657 658 659 660 661 662 663 664 665 666 667 668 669 670 671 672 673 674 675 676 677 678 679 680 681 682 683 684 685 686 687 688 689 690 691 692 693 694 695 696 697 698 699 700 701 702 703 704 705 706 707 708 709 710 711 712 713 714 715 716 717 718 719 720 721 722 723 724 725 726 727 728 729 730 731 732 733 734 735 736 737 738 739 740 741 742 743 744 745 746 747 748 749 750 751 752 753 754 755 756 757 758 759 760 761 762 763 764 765 766 767 768 769 770 771 772 773 774 775 776 777 778 779 780 781 782 783 784 785 786 787 788 789 790 791 792 793 794 795 796 797 798 799 800 801 802 803 804 805 806 807 808 809 810 811 812 813 814 815 816 817 818 819 820 821 822 823 824 825 826 827 828 829 830 831 832 833 834 835 836 837 838 839 840 841 842 843 844 845 846 847 848 849 850 851 852 853 854 855 856 857 858 859 860 861 862 863 864 865 866 867 868 869 870 871 872 873 874 875 876 877 878 879 880 881 882 883 884 885 886 887 888 889 890 891 892 893 894 895 896 897 898 899 900 901 902 903 904 905 906 907 908 909 910 911 912 913 914 915 916 917 918 919 920 921 922 923 924 925 926 927 928 929 930 931 932 933 934 935 936 937 938 939 940 941 942 943 944 945 946 947 948 949 950 951 952 953 954 955 956 957 958 959 960 961 962 963 964 965 966 967 968 969 970 971 972 973 974 975 976 977 978 979 980 981 982 983 984 985 986 987 988 989 990 991 992 993 994 995 996 997 998 999 1000 1001 1002 1003 1004 1005 1006 1007 1008 1009 1010 1011 1012 1013 1014 1015 1016 1017 1018 1019 1020 1021 1022 1023 1024 1025 1026 1027 1028 1029 1030 1031 1032 1033 1034 1035 1036 1037 1038 1039 1040 1041 1042 1043 1044 1045 1046 1047 1048 1049 1050 1051 1052 1053 1054 1055 1056 1057 1058 1059 1060 1061 1062 1063 1064 1065 1066 1067 1068 1069 1070 1071 1072 1073 1074 1075 1076 1077 1078 1079 1080 1081 1082 1083 1084 1085 1086 1087 1088 1089 1090 1091 1092 1093 1094 1095 1096 1097 1098 1099 1100 1101 1102 1103 1104 1105 1106 1107 1108 1109 1110 1111 1112 1113 1114 1115 1116 1117 1118 1119 1120 1121 1122 1123 1124 1125 1126 1127 1128 1129 1130 1131 1132 1133 1134 1135 1136 1137 1138 1139 1140 1141 1142 1143 1144 1145 1146 1147 1148 1149 1150 1151 1152 1153 1154 1155 1156 1157 1158 1159 1160 1161 1162 1163 1164 1165 1166 1167 1168 1169 1170 1171 1172 1173 1174 1175 1176 1177 1178 1179 1180 1181 1182 1183 1184 1185 1186 1187 1188 1189 1190 1191 1192 1193 1194 1195 1196 1197 1198 1199 1200 1201 1202 1203 1204 1205 1206 1207 1208 1209 1210 1211 1212 1213 1214 1215 1216 1217 1218 1219 1220 1221 1222 1223 1224 1225 1226 1227 1228 1229 1230 1231 1232 1233 1234 1235 1236 1237 1238 1239 1240 1241 1242 1243 1244 1245 1246 1247 1248 1249 1250 1251 1252 1253 1254 1255 1256 1257 1258 1259 1260 1261 1262 1263 1264 1265 1266 1267 1268 1269 1270 1271 1272 1273 1274 1275 1276 1277 1278 1279 1280 1281 1282 1283 1284 1285 1286 1287 1288 1289 1290 1291 1292 1293 1294 1295 1296 1297 1298 1299 1300 1301 1302 1303 1304 1305 1306 1307 1308 1309 1310 1311 1312 1313 1314 1315 1316 1317 1318 1319 1320 1321 1322 1323 1324 1325 1326 1327 1328 1329 1330 1331 1332 1333 1334 1335 1336 1337 1338 1339 1340 1341 1342 1343 1344 1345 1346 1347 1348 1349 1350 1351 1352 1353 1354 1355 1356 1357 1358 1359 1360 1361 1362 1363 1364 1365 1366 1367 1368 1369 1370 1371 1372 1373 1374 1375 1376 1377 1378 1379 1380 1381 1382 1383 1384 1385 1386 1387 1388 1389 1390 1391 1392 1393 1394 1395 1396 1397 1398 1399 1400 1401 1402 1403 1404 1405 1406 1407 1408 1409 1410 1411 1412 1413 1414 1415 1416 1417 1418 1419 1420 1421 1422 1423 1424 1425 1426 1427 1428 1429 1430 1431 1432 1433 1434 1435 1436 1437 1438 1439 1440 1441 1442 1443 1444 1445 1446 1447 1448 1449 1450 1451 1452 1453 1454 1455 1456 1457 1458 1459 1460 1461 1462 1463 1464 1465 1466 1467 1468 1469 1470 1471 1472 1473 1474 1475 1476 1477 1478 1479 1480 1481 1482 1483 1484 1485 1486 1487 1488 1489 1490 1491 1492 1493 1494 1495 1496 1497 1498 1499 1500 1501 1502 1503 1504 1505 1506 1507 1508 1509 1510 1511 1512 1513 1514 1515 1516 1517 1518 1519 1520 1521 1522 1523 1524 1525 1526 1527 1528 1529 1530 1531 1532 1533 1534 1535 1536 1537 1538 1539 1540 1541 1542 1543 1544 1545 1546 1547 1548 1549 1550 1551 1552 1553 1554 1555 1556 1557 1558 1559 1560 1561 1562 1563 1564 1565 1566 1567 1568 1569 1570 1571 1572 1573 1574 1575 1576 1577 1578 1579 1580 1581 1582 1583 1584 1585 1586 1587 1588 1589 1590 1591 1592 1593 1594 1595 1596 1597 1598 1599 1600 1601 1602 1603 1604 1605 1606 1607 1608 1609 1610 1611 1612 1613 1614 1615 1616 1617 1618 1619 1620 1621 1622 1623 1624 1625 1626 1627 1628 1629 1630 1631 1632 1633 1634 1635 1636 1637 1638 1639 1640 1641 1642 1643 1644 1645 1646 1647 1648 1649 1650 1651 1652 1653 1654 1655 1656 1657 1658 1659 1660 1661 1662 1663 1664 1665 1666 1667 1668 1669 1670 1671 1672 1673 1674 1675 1676 1677 1678 1679 1680 1681 1682 1683 1684 1685 1686 1687 1688 1689 1690 1691 1692 1693 1694 1695 1696 1697 1698 1699 1700 1701 1702 1703 1704 1705 1706 1707 1708 1709 1710 1711 1712 1713 1714 1715 1716 1717 1718 1719 1720 1721 1722 1723 1724 1725 1726 1727 1728 1729 1730 1731 1732 1733 1734 1735 1736 1737 1738 1739 1740 1741 1742 1743 1744 1745 1746 1747 1748 1749 1750 1751 1752 1753 1754 1755 1756 1757 1758 1759 1760 1761 1762 1763 1764 1765 1766 1767 1768 1769 1770 1771 1772 1773 1774 1775 1776 1777 1778 1779 1780 1781 1782 1783 1784 1785 1786 1787 1788 1789 1790 1791 1792 1793 1794 1795 1796 1797 1798 1799 1800 1801 1802 1803 1804 1805 1806 1807 1808 1809 1810 1811 1812 1813 1814 1815 1816 1817 1818 1819 1820 1821 1822 1823 1824 1825 1826 1827 1828 1829 1830 1831 1832 1833 1834 1835 1836 1837 1838 1839 1840 1841 1842 1843 1844 1845 1846 1847 1848 1849 1850 1851 1852 1853 1854 1855 1856 1857 1858 1859 1860 1861 1862 1863 1864 1865 1866 1867 1868 1869 1870 1871 1872 1873 1874 1875 1876 1877 1878 1879 1880 1881 1882 1883 1884 1885 1886 1887 1888 1889 1890 1891 1892 1893 1894 1895 1896 1897 1898 1899 1900 1901 1902 1903 1904 1905 1906 1907 1908 1909 1910 1911 1912 1913 1914 1915 1916 1917 1918 1919 1920 1921 1922 1923 1924 1925 1926 1927 1928 1929 1930 1931 1932 1933 1934 1935 1936 1937 1938 1939 1940 1941 1942 1943 1944 1945 1946 1947 1948 1949 1950 1951 1952 1953 1954 1955 1956 1957 1958 1959 1960 1961 1962 1963 1964 1965 1966 1967 1968 1969 1970 1971 1972 1973 1974 1975 1976 1977 1978 1979 1980 1981 1982 1983 1984 1985 1986 1987 1988 1989 1990 1991 1992 1993 1994 1995 1996 1997 1998 1999 2000 2001 2002 2003 2004 2005 2006 2007 2008 2009 2010 2011 2012 2013 2014 2015 2016 2017 2018 2019 2020 2021 2022 2023 2024 2025 2026 2027 2028 2029 2030 2031 2032 2033 2034 2035 2036 2037 2038 2039 2040 2041 2042 2043 2044 2045 2046 2047 2048 2049 2050 2051 2052 2053 2054 2055 2056 2057 2058 2059 2060 2061 2062 2063 2064 2065 2066 2067 2068 2069 2070 2071 2072 2073 2074 2075 2076 2077 2078 2079 2080 2081 2082 2083 2084 2085 2086 2087 2088 2089 2090 2091 2092 2093 2094 2095 2096 2097 2098 2099 2100 2101 2102 2103 2104 2105 2106 2107 2108 2109 2110 2111 2112 2113 2114 2115 2116 2117 2118 2119 2120 2121 2122 2123 2124 2125 2126 2127 2128 2129 2130 2131 2132 2133 2134 2135 2136 2137 2138 2139 2140 2141 2142 2143 2144 2145 2146 2147 2148 2149 2150 2151 2152 2153 2154 2155 2156 2157 2158 2159 2160 2161 2162 2163 2164 2165 2166 2167 2168 2169 2170 2171 2172 2173 2174 2175 2176 2177 2178 2179 2180 2181 2182 2183 2184 2185 2186 2187 2188 2189 2190 2191 2192 2193 2194 2195 2196 2197 2198 2199 2200 2201 2202 2203 2204 2205 2206 2207 2208 2209 2210 2211 2212 2213 2214 2215 2216 2217 2218 2219 2220 2221 2222 2223 2224 2225 2226 2227 2228 2229 2230 2231 2232 2233 2234 2235 2236 2237 2238 2239 2240 2241 2242 2243 2244 2245 2246 2247 2248 2249 2250 2251 2252 2253 2254 2255 2256 2257 2258 2259 2260 2261 2262 2263 2264 2265 2266 2267 2268 2269 2270 2271 2272 2273 2274 2275 2276 2277 2278 2279 2280 2281 2282 2283 2284 2285 2286 2287 2288 2289 2290 2291 2292 2293 2294 2295 2296 2297 2298 2299 2300 2301 2302 2303 2304 2305 2306 2307 2308 2309 2310 2311 2312 2313 2314 2315 2316 2317 2318 2319 2320 2321 2322 2323 2324 2325 2326 2327 2328 2329 2330 2331 2332 2333 2334 2335 2336 2337 2338 2339 2340 2341 2342 2343 2344 2345 2346 2347 2348 2349 2350 2351 2352 2353 2354 2355 2356 2357 2358 2359 2360 2361 2362 2363 2364 2365 2366 2367 2368 2369 2370 2371 2372 2373 2374 2375 2376 2377 2378 2379 2380 2381 2382 2383 2384 2385 2386 2387 2388 2389 2390 2391 2392 2393 2394 2395 2396 2397 2398 2399 2400 2401 2402 2403 2404 2405 2406 2407 2408 2409 2410 2411 2412 2413 2414 2415 2416 2417 2418 2419 2420 2421 2422 2423 2424 2425 2426 2427 2428 2429 2430 2431 2432 2433 2434 2435 2436 2437 2438 2439 2440 2441 2442 2443 2444 2445 2446 2447 2448 2449 2450 2451 2452 2453 2454 2455 2456 2457 2458 2459 2460 2461 2462 2463 2464 2465 2466 2467 2468 2469 2470 2471 2472 2473 2474 2475 2476 2477 2478 2479 2480 2481 2482 2483 2484 2485 2486 2487 2488 2489 2490 2491 2492 2493 2494 2495 2496 2497 2498 2499 2500 2501 2502 2503 2504 2505 2506 2507 2508 2509 2510 2511 2512 2513 2514 2515 2516 2517 2518 2519 2520 2521 2522 2523 2524 2525 2526 2527 2528 2529 2530 2531 2532 2533 2534 2535 2536 2537 2538 2539 2540 2541 2542 2543 2544 2545 2546 2547 2548 2549 2550 2551 2552 2553 2554 2555 2556 2557 2558 2559 2560 2561 2562 2563 2564 2565 2566 2567 2568 2569 2570 2571 2572 2573 2574 2575 2576 2577 2578 2579 2580 2581 2582 2583 2584 2585 2586 2587 2588 2589 2590 2591 2592 2593 2594 2595 2596 2597 2598 2599 2600 2601 2602 2603 2604 2605 2606 2607 2608 2609 2610 2611 2612 2613 2614 2615 2616 2617 2618 2619 2620 2621 2622 2623 2624 2625 2626 2627 2628 2629 2630 2631 2632 2633 2634 2635 2636 2637 2638 2639 2640 2641 2642 2643 2644 2645 2646 2647 2648 2649 2650 2651 2652 2653 2654 2655 2656 2657 2658 2659 2660 2661 2662 2663 2664 2665 2666 2667 2668 2669 2670 2671 2672 2673 2674 2675 2676 2677 2678 2679 2680 2681 2682 2683 2684 2685 2686 2687 2688 2689 2690 2691 2692 2693 2694 2695 2696 2697 2698 2699 2700 2701 2702 2703 2704 2705 2706 2707 2708 2709 2710 2711 2712 2713 2714 2715 2716 2717 2718 2719 2720 2721 2722 2723 2724 2725 2726 2727 2728 2729 2730 2731 2732 2733 2734 2735 2736 2737 2738 2739 2740 2741 2742 2743 2744 2745 2746 2747 2748 2749 2750 2751 2752 2753 2754 2755 2756 2757 2758 2759 2760 2761 2762 2763 2764 2765 2766 2767 2768 2769 2770 2771 2772 2773 2774 2775 2776 2777 2778 2779 2780 2781 2782 2783 2784 2785 2786 2787 2788 2789 2790 2791 2792 2793 2794 2795 2796 2797 2798 2799 2800 2801 2802 2803 2804 2805 2806 2807 2808 2809 2810 2811 2812 2813 2814 2815 2816 2817 2818 2819 2820 2821 2822 2823 2824 2825 2826 2827 2828 2829 2830 2831 2832 2833 2834 2835 2836 2837 2838 2839 2840 2841 2842 2843 2844 2845 2846 2847 2848 2849 2850 2851 2852 2853 2854 2855 2856 2857 2858 2859 2860 2861 2862 2863 2864 2865 2866 2867 2868 2869 2870 2871 2872 2873 2874 2875 
</DataArray>
<DataArray type="UInt32" Name="offsets" format="ascii">
4 8 12 16 20 24 28 32 36 40 44 48 52 56 60 64 68 72 76 80 84 88 92 96 100 104 108 112 116 120 124 128 132 136 140 144 148 152 156 160 164 168 172 176 180 184 188 192 196 200 204 208 212 216 220 224 228 232 236 240 244 248 252 256 260 264 268 272 276 280 284 288 292 296 300 304 308 312 316 320 324 328 332 336 340 344 348 352 356 360 364 368 372 376 380 384 388 392 396 400 404 408 412 416 420 424 428 432 436 440 444 448 452 456 460 464 468 472 476 480 484 488 492 496 500 504 508 512 516 520 524 528 532 536 540 544 548 552 556 560 564 568 572 576 580 584 588 592 596 600 604 608 612 616 620 624 628 632 636 640 644 648 652 656 660 664 668 672 676 680 684 688 692 696 700 704 708 712 716 720 724 728 732 736 740 744 748 752 756 760 764 768 772 776 780 784 788 792 796 800 804 808 812 816 820 824 828 832 836 840 844 848 852 856 860 864 868 872 876 880 884 888 892 896 900 904 908 912 916 920 924 928 932 936 940 944 948 952 956 960 964 968 972 976 980 984 988 992 996 1000 1004 1008 1012 1016 1020 1024 1028 1032 1036 1040 1044 1048 1052 1056 1060 1064 1068 1072 1076 1080 1084 1088 1092 1096 1100 1104 1108 1112 1116 1120 1124 1128 1132 1136 1140 1144 1148 1152 1156 1160 1164 1168 1172 1176 1180 1184 1188 1192 1196 1200 1204 1208 1212 1216 1220 1224 1228 1232 1236 1240 1244 1248 1252 1256 1260 1264 1268 1272 1276 1280 1284 1288 1292 1296 1300 1304 1308 1312 1316 1320 1324 1328 1332 1336 1340 1344 1348 1352 1356 1360 1364 1368 1372 1376 1380 1384 1388 1392 1396 1400 1404 1408 1412 1416 1420 1424 1428 1432 1436 1440 1444 1448 1452 1456 1460 1464 1468 1472 1476 1480 1484 1488 1492 1496 1500 1504 1508 1512 1516 1520 1524 1528 1532 1536 1540 1544 1548 1552 1556 1560 1564 1568 1572 1576 1580 1584 1588 1592 1596 1600 1604 1608 1612 1616 1620 1624 1628 1632 1636 1640 1644 1648 1652 1656 1660 1664 1668 1672 1676 1680 1684 1688 1692 1696 1700 1704 1708 1712 1716 1720 1724 1728 1732 1736 1740 1744 1748 1752 1756 1760 1764 1768 1772 1776 1780 1784 1788 1792 1796 1800 1804 1808 1812 1816 1820 1824 1828 1832 1836 1840 1844 1848 1852 1856 1860 1864 1868 1872 1876 1880 1884 1888 1892 1896 1900 1904 1908 1912 1916 1920 1924 1928 1932 1936 1940 1944 1948 1952 1956 1960 1964 1968 1972 1976 1980 1984 1988 1992 1996 2000 2004 2008 2012 2016 2020 2024 2028 2032 2036 2040 2044 2048 2052 2056 2060 2064 2068 2072 2076 2080 2084 2088 2092 2096 2100 2104 2108 2112 2116 2120 2124 2128 2132 2136 2140 2144 2148 2152 2156 2160 2164 2168 2172 2176 2180 2184 2188 2192 2196 2200 2204 2208 2212 2216 2220 2224 2228 2232 2236 2240 2244 2248 2252 2256 2260 2264 2268 2272 2276 2280 2284 2288 2292 2296 2300 2304 2308 2312 2316 2320 2324 2328 2332 2336 2340 2344 2348 2352 2356 2360 2364 2368 2372 2376 2380 2384 2388 2392 2396 2400 2404 2408 2412 2416 2420 2424 2428 2432 2436 2440 2444 2448 2452 2456 2460 2464 2468 2472 2476 2480 2484 2488 2492 2496 2500 2504 2508 2512 2516 2520 2524 2528 2532 2536 2540 2544 2548 2552 2556 2560 2564 2568 2572 2576 2580 2584 2588 2592 2596 2600 2604 2608 2612 2616 2620 2624 2628 2632 2636 2640 2644 2648 2652 2656 2660 2664 2668 2672 2676 2680 2684 2688 2692 2696 2700 2704 2708 2712 2716 2720 2724 2728 2732 2736 2740 2744 2748 2752 2756 2760 2764 2768 2772 2776 2780 2784 2788 2792 2796 2800 2804 2808 2812 2816 2820 2824 2828 2832 2836 2840 2844 2848 2852 2856 2860 2864 2868 2872 2876 
</DataArray>
<DataArray type="UInt32" Name="types" format="ascii">
10 10 10 10 10 10 10 10 10 10 10 10 10 10 10 10 10 10 10 10 10 10 10 10 10 10 10 10 10 10 10 10 10 10 10 10 10 10 10 10 10 10 10 10 10 10 10 10 10 10 10 10 10 10 10 10 10 10 10 10 10 10 10 10 10 10 10 10 10 10 10 10 10 10 10 10 10 10 10 10 10 10 10 10 10 10 10 10 10 10 10 10 10 10 10 10 10 10 10 10 10 10 10 10 10 10 10 10 10 10 10 10 10 10 10 10 10 10 10 10 10 10 10 10 10 10 10 10 10 10 10 10 10 10 10 10 10 10 10 10 10 10 10 10 10 10 10 10 10 10 10 10 10 10 10 10 10 10 10 10 10 10 10 10 10 10 10 10 10 10 10 10 10 10 10 10 10 10 10 10 10 10 10 10 10 10 10 10 10 10 10 10 10 10 10 10 10 10 10 10 10 10 10 10 10 10 10 10 10 10 10 10 10 10 10 10 10 10 10 10 10 10 10 10 10 10 10 10 10 10 10 10 10 10 10 10 10 10 10 10 10 10 10 10 10 10 10 10 10 10 10 10 10 10 10 10 10 10 10 10 10 10 10 10 10 10 10 10 10 10 10 10 10 10 10 10 10 10 10 10 10 10 10 10 10 10 10 10 10 10 10 10 10 10 10 10 10 10 10 10 10 10 10 10 10 10 10 10 10 10 10 10 10 10 10 10 10 10 10 10 10 10 10 10 10 10 10 10 10 10 10 10 10 10 10 10 10 10 10 10 10 10 10 10 10 10 10 10 10 10 10 10 10 10 10 10 10 10 10 10 10 10 10 10 10 10 10 10 10 10 10 10 10 10 10 10 10 10 10 10 10 10 10 10 10 10 10 10 10 10 10 10 10 10 10 10 10 10 10 10 10 10 10 10 10 10 10 10 10 10 10 10 10 10 10 10 10 10 10 10 10 10 10 10 10 10 10 10 10 10 10 10 10 10 10 10 10 10 10 10 10 10 10 10 10 10 10 10 10 10 10 10 10 10 10 10 10 10 10 10 10 10 10 10 10 10 10 10 10 10 10 10 10 10 10 10 10 10 10 10 10 10 10 10 10 10 10 10 10 10 10 10 10 10 10 10 10 10 10 10 10 10 10 10 10 10 10 10 10 10 10 10 10 10 10 10 10 10 10 10 10 10 10 10 10 10 10 10 10 10 10 10 10 10 10 10 10 10 10 10 10 10 10 10 10 10 10 10 10 10 10 10 10 10 10 10 10 10 10 10 10 10 10 10 10 10 10 10 10 10 10 10 10 10 10 10 10 10 10 10 10 10 10 10 10 10 10 10 10 10 10 10 10 10 10 10 10 10 10 10 10 10 10 10 10 10 10 10 10 10 10 10 10 10 10 10 10 10 10 10 10 10 10 10 10 10 10 10 10 10 10 10 10 10 10 10 10 10 10 10 10 10 10 10 10 10 10 10 10 10 10 10 10 10 10 10 10 10 10 10 10 10 10 10 10 10 10 10 10 10 10 10 10 10 10 10 10 10 10 10 10 10 10 10 10 10 10 10 10 10 10 10 10 10 10 10 10 10 10 10 10 10 10 10 10 10 10 10 10 10 10 10 10 10 10 10 10 10 10 
</DataArray>
</Cells>
<PointData Scalars="" Vectors="displacement," Tensors="">
<DataArray type="Float64" Name="displacement" NumberOfComponents="3" format="ascii">
0.098693835770250204 3.3375163848387967e-05 -1.3723336505684354e-05 0.053036748509360972 1.8298093614190645e-05 -1.3293307168871291e-05 0.04585958313228175 1.6420111614922691e-06 -1.0568644645737603e-05 0.098082344568800731 -4.1896732754855321e-05 -0.27886922908183392 -1.4375652288971202e-07 -1.8990875889315595e-05 -1.3216637318080878e-05 -1.6158958647398581e-07 -3.8089387741272666e-06 -1.4294879376583022e-05 0.04585958313228175 1.6420111614922706e-06 -1.0568644645732651e-05 -1.1513473798151961e-07 -8.8445631643822971e-06 -0.12968891975851049 -1.6158958647398581e-07 -3.8089387741272675e-06 -1.4294879376572529e-05 0.062632856105659968 -4.1540108330445719e-06 -1.5077068490985874e-05 0.04585958313228175 1.6420111614922706e-06 -1.0568644645732651e-05 0.045928882156322841 -2.7983755491031939e-06 -0.1301070129811778 -1.1513473798151961e-07 -8.8445631643822971e-06 -0.12968891975851049 -1.6220375857486422e-07 -3.6561280054086263e-06 -0.17746667669438032 -1.6158958647398581e-07 -3.8089387741272675e-06 -1.4294879376572529e-05 0.045928882156322841 -2.7983755491031939e-06 -0.1301070129811778 -1.1513473798151961e-07 -8.8445631643822971e-06 -0.12968891975851049 -1.4908547768180869e-07 1.233724255312723e-05 -0.15009214828243608 -1.277445212311286e-07 -1.8229867154550285e-05 -0.28025888895018441 0.098082344568800772 -4.1896732754855328e-05 -0.27886922908183387 0.098651536731771461 -3.6585879116937652e-06 -0.16651094926926571 0.045928882156322834 -2.7983755491031948e-06 -0.13010701298117777 0.053302757292844762 -3.4912357498867424e-06 -0.2667904881252362 0.098082344568800731 -4.1896732754855321e-05 -0.27886922908183392 -1.1513473798151961e-07 -8.8445631643822971e-06 -0.12968891975851049 -1.6158958647770545e-07 -3.8089387741272679e-06 -1.429487937656723e-05 0.04585958313228175 1.6420111614922706e-06 -1.0568644645732651e-05 0.045928882156322841 -2.7983755491031939e-06 -0.1301070129811778 0.04585958313228175 1.6420111614922706e-06 -1.0568644645732651e-05 0.045928882156322841 -2.7983755491031965e-06 -0.13010701298117783 0.098651536731771461 -3.6585879116937635e-06 -0.16651094926926571 0.098082344568800731 -4.1896732754855321e-05 -0.27886922908183392 0.04585958313228175 1.6420111614922706e-06 -1.0568644645732651e-05 -1.490854776800481e-07 1.2337242553127244e-05 -0.15009214828243603 -1.1513473797796172e-07 -8.8445631643823089e-06 -0.12968891975851049 0.098082344568800731 -4.1896732754855321e-05 -0.27886922908183392 0.04585958313228175 1.6420111614922706e-06 -1.0568644645732651e-05 -1.1513473798110618e-07 -8.8445631643822971e-06 -0.12968891975851046 0.045928882156322841 -2.7983755491031948e-06 -0.1301070129811778 0.098082344568800731 -4.1896732754855321e-05 -0.27886922908183392 -1.1513473798151961e-07 -8.8445631643822971e-06 -0.12968891975851049 0.053302757292844768 -3.491235749886747e-06 -0.2667904881252362 0.045928882156322841 -2.7983755491031948e-06 -0.1301070129811778 0.098082344568800758 -4.1896732754855328e-05 -0.27886922908183398 0.045928882156322841 -2.7983755491031939e-06 -0.1301070129811778 -1.1513473798090176e-07 -8.8445631643822971e-06 -0.12968891975851049 -1.6220375858130199e-07 -3.6561280054086268e-06 -0.17746667669438032 0.053302757292844762 -3.4912357498867424e-06 -0.2667904881252362 -1.277445212311286e-07 -1.8229867154550285e-05 -0.28025888895018441 -1.6220375858130199e-07 -3.6561280054086268e-06 -0.17746667669438032 -1.1513473798151961e-07 -8.8445631643822971e-06 -0.12968891975851049 0.053302757292844762 -3.4912357498867424e-06 -0.2667904881252362 -1.1513473798151961e-07 -8.8445631643822971e-06 -0.12968891975851049 0.04585958313228175 1.6420111614922706e-06 -1.0568644645732651e-05 -1.4375652288971202e-07 -1.8990875889315595e-05 -1.3216637318080031e-05 -1.4908547768180869e-07 1.233724255312723e-05 -0.15009214828243608 -1.4908547768180869e-07 1.233724255312723e-05 -0.15009214828243608 0.045859583132281764 1.6420111614922837e-06 -1.0568644645770024e-05 -1.4375652288971202e-07 -1.8990875889315595e-05 -1.3216637318080878e-05 0.053036748509360972 1.8298093614190645e-05 -1.3293307168871291e-05 0.062632856105659968 -4.1540108330445719e-06 -1.5077068490985874e-05 0.045859583132281743 1.6420111614922655e-06 -1.0568644645747197e-05 0.098651536731771461 -3.6585879116937652e-06 -0.16651094926926571 0.098693835770250204 3.3375163848387967e-05 -1.3723336505684354e-05 0.062632856105659968 -4.1540108330445719e-06 -1.5077068490985874e-05 0.045859583132281757 1.6420111614922706e-06 -1.0568644645732563e-05 0.045928882156322827 -2.7983755491031935e-06 -0.1301070129811778 0.098651536731771461 -3.6585879116937652e-06 -0.16651094926926571 0.098651536731771461 -3.6585879116937652e-06 -0.16651094926926571 0.12428810156412735 -3.7288641638176008e-06 -1.7826828992698813e-05 0.062632856105659968 -4.1540108330445736e-06 -1.5077068490994043e-05 0.098693835770250204 3.3375163848387967e-05 -1.3723336505684354e-05 0.098651536731771461 -3.6585879116937652e-06 -0.16651094926926571 0.098693835770250218 3.3375163848387974e-05 -1.3723336505684993e-05 0.04585958313228173 1.6420111614922583e-06 -1.0568644645740918e-05 0.098082344568800717 -4.1896732754855321e-05 -0.27886922908183392 0.098693835770250204 3.3375163848387967e-05 -1.3723336505684354e-05 0.098082344568800731 -4.1896732754855328e-05 -0.27886922908183392 0.098651536731771447 -3.6585879116937737e-06 -0.16651094926926571 0.15523474403945894 -3.8961167365694886e-06 -0.20335778406386654 0.098693835770250204 3.3375163848387967e-05 -1.3723336505684354e-05 0.1526838186478027 -3.3304156329104065e-06 -0.11910352956445636 0.15748847631725554 4.5715219787366738e-05 -1.2764139190774112e-05 0.15523474403945892 -3.8961167365694954e-06 -0.20335778406386656 0.098693835770250204 3.3375163848387967e-05 -1.3723336505684354e-05 0.15748847631725554 4.5715219787366738e-05 -1.2764139190801776e-05 0.14199687937308383 4.085555391837259e-05 -1.115484675564043e-05 0.15523474403945892 -3.8961167365695056e-06 -0.20335778406386659 0.1526838186478027 -3.330415632910426e-06 -0.11910352956445641 0.12428810156412735 -3.7288641638176008e-06 -1.7826828992698813e-05 0.098693835770250232 3.337516384838796e-05 -1.3723336505626141e-05 0.15748847631725554 4.5715219787366738e-05 -1.2764139190774112e-05 0.1526838186478027 -3.330415632910426e-06 -0.11910352956445641 0.12428810156412735 -3.7288641638176008e-06 -1.7826828992698813e-05 0.098651536731771461 -3.6585879116937652e-06 -0.16651094926926571 0.098693835770250218 3.3375163848387953e-05 -1.3723336505668054e-05 0.098651536731771461 -3.6585879116937652e-06 -0.16651094926926571 0.1480079098391841 -4.088400799496815e-06 -0.28547446071010341 0.1526838186478027 -3.330415632910426e-06 -0.11910352956445641 0.15523474403945892 -3.8961167365694954e-06 -0.20335778406386654 0.098693835770250204 3.3375163848387967e-05 -1.3723336505684354e-05 0.098651536731771447 -3.6585879116937559e-06 -0.16651094926926568 0.15268381864780267 -3.3304156329104294e-06 -0.11910352956445644 0.15523474403945892 -3.8961167365694962e-06 -0.20335778406386662 0.09841250401050379 -2.9021446322761089e-06 -0.48338069427316815 0.15702982159805165 -1.5978354502824568e-05 -0.4760414550450508 0.10096632317074164 -3.2164697763190766e-06 -0.34588743941643885 0.070092584669108324 -4.5527030968749876e-05 -0.44478418306597356 0.10096632317074164 -3.2164697763190761e-06 -0.34588743941643885 0.098082344568800731 -4.1896732754855321e-05 -0.27886922908183392 0.053302757292844762 -3.4912357498867424e-06 -0.2667904881252362 0.070092584669108324 -4.5527030968749876e-05 -0.44478418306597356 0.10096632317074164 -3.2164697763190761e-06 -0.34588743941643885 0.15702982159805168 -1.5978354502824572e-05 -0.47604145504505074 0.098082344568800744 -4.1896732754855314e-05 -0.27886922908183392 0.070092584669108324 -4.5527030968749876e-05 -0.44478418306597362 0.10096632317074164 -3.2164697763190761e-06 -0.34588743941643885 0.15702982159805165 -1.5978354502824562e-05 -0.4760414550450508 0.1480079098391841 -4.0884007994968159e-06 -0.28547446071010346 0.15523474403945892 -3.8961167365694954e-06 -0.20335778406386654 0.10096632317074164 -3.2164697763190761e-06 -0.34588743941643885 0.098082344568800744 -4.1896732754855314e-05 -0.27886922908183392 0.15702982159805168 -1.5978354502824565e-05 -0.4760414550450508 0.15523474403945889 -3.8961167365695123e-06 -0.20335778406386656 0.10096632317074164 -3.2164697763190761e-06 -0.34588743941643885 0.098651536731771461 -3.6585879116937652e-06 -0.16651094926926568 0.053302757292844762 -3.4912357498867424e-06 -0.2667904881252362 0.098082344568800731 -4.1896732754855321e-05 -0.27886922908183392 0.098651536731771461 -3.6585879116937652e-06 -0.16651094926926571 0.098082344568800731 -4.1896732754855321e-05 -0.27886922908183392 0.10096632317074164 -3.2164697763190761e-06 -0.34588743941643885 0.15523474403945892 -3.8961167365694954e-06 -0.20335778406386654 0.098651536731771461 -3.6585879116937652e-06 -0.16651094926926571 0.10096632317074164 -3.2164697763190761e-06 -0.34588743941643885 0.1480079098391841 -4.0884007994968159e-06 -0.28547446071010341 0.15523474403945892 -3.8961167365694954e-06 -0.20335778406386654 0.09841250401050379 -2.9021446322761089e-06 -0.48338069427316815 0.15593571666925557 -3.5271839579874753e-06 -0.43241455626897712 0.10096632317074164 -3.2164697763190766e-06 -0.34588743941643885 0.15702982159805168 -1.5978354502824562e-05 -0.4760414550450508 0.10096632317074164 -3.2164697763190761e-06 -0.34588743941643885 0.15593571666925557 -3.5271839579874753e-06 -0.43241455626897712 0.1480079098391841 -4.088400799496815e-06 -0.28547446071010341 0.15702982159805168 -1.5978354502824565e-05 -0.4760414550450508 0.051973274617277666 -3.4910910124619569e-06 -0.43403872998934034 0.09841250401050379 -2.9021446322761089e-06 -0.48338069427316815 0.10096632317074164 -3.2164697763190761e-06 -0.34588743941643885 0.070092584669108324 -4.5527030968749876e-05 -0.44478418306597356 0.051973274617277666 -3.4910910124619569e-06 -0.43403872998934034 0.10096632317074164 -3.2164697763190761e-06 -0.34588743941643885 0.053302757292844762 -3.4912357498867424e-06 -0.2667904881252362 0.070092584669108324 -4.5527030968749876e-05 -0.44478418306597356 0.053302757292844762 -3.4912357498867424e-06 -0.2667904881252362 -1.1513473798151961e-07 -8.8445631643822971e-06 -0.12968891975851049 -1.2774452123432017e-07 -1.8229867154550282e-05 -0.28025888895018441 0.098082344568800731 -4.1896732754855321e-05 -0.27886922908183387 -1.277445212311286e-07 -1.8229867154550285e-05 -0.28025888895018441 0.051973274617277646 -3.4910910124619488e-06 -0.43403872998934034 0.053302757292844762 -3.4912357498867424e-06 -0.2667904881252362 0.070092584669108338 -4.5527030968749889e-05 -0.44478418306597356 -1.277445212311286e-07 -1.8229867154550285e-05 -0.28025888895018441 0.053302757292844762 -3.491235749886742e-06 -0.2667904881252362 0.098082344568800731 -4.1896732754855321e-05 -0.27886922908183392 0.070092584669108324 -4.5527030968749883e-05 -0.44478418306597362 -1.1622812911435353e-07 -4.2349785391532091e-06 -0.35483052298891665 2.7883773435470868e-08 -4.7125016200802569e-06 -0.53185797872778307 0.051973274617277666 -3.4910910124619569e-06 -0.43403872998934034 -1.1192376268988813e-07 -4.9716481176040408e-05 -0.45172319837174651 -1.1622812911435353e-07 -4.2349785391532091e-06 -0.35483052298891665 -1.277445212311286e-07 -1.8229867154550285e-05 -0.28025888895018441 0.051973274617277666 -3.4910910124619569e-06 -0.43403872998934034 0.053302757292844762 -3.4912357498867424e-06 -0.2667904881252362 0.051973274617277666 -3.4910910124619569e-06 -0.43403872998934034 -1.2774452122679709e-07 -1.8229867154550271e-05 -0.28025888895018436 -1.1622812911422698e-07 -4.2349785391532091e-06 -0.35483052298891665 -1.1192376268988813e-07 -4.9716481176040408e-05 -0.45172319837174651 -1.277445212311286e-07 -1.8229867154550285e-05 -0.28025888895018441 -1.1622812910468119e-07 -4.2349785391532074e-06 -0.35483052298891665 -1.6220375858130199e-07 -3.6561280054086268e-06 -0.17746667669438032 0.053302757292844762 -3.4912357498867424e-06 -0.2667904881252362 -1.277445212311286e-07 -1.8229867154550285e-05 -0.28025888895018441 -1.1192376268988813e-07 -4.9716481176040408e-05 -0.45172319837174651 0.051973274617277666 -3.4910910124619569e-06 -0.43403872998934034 0.070092584669108338 -4.5527030968749883e-05 -0.44478418306597356 -1.277445212311286e-07 -1.8229867154550285e-05 -0.28025888895018441 -7.0261064940104782e-09 -6.1955933079474546e-06 -0.40604363132097548 -1.1192376268739605e-07 -4.9716481176040408e-05 -0.45172319837174651 0.070092584669108338 -4.5527030968749876e-05 -0.44478418306597356 -1.4908547768180869e-07 1.233724255312723e-05 -0.15009214828243608 -1.3723684077465028e-07 -1.8165958367438749e-05 -0.29185764770391198 -1.277445212311286e-07 -1.8229867154550285e-05 -0.28025888895018441 0.098082344568800731 -4.1896732754855321e-05 -0.27886922908183392 -7.0261064957415637e-09 -6.195593307947447e-06 -0.40604363132097554 0.098082344568800731 -4.1896732754855328e-05 -0.27886922908183381 0.078365450237268527 1.1263355446880424e-05 -0.40149059539438869 0.070092584669108324 -4.5527030968749876e-05 -0.44478418306597356 -1.277445212311286e-07 -1.8229867154550285e-05 -0.28025888895018441 -1.3723684077116738e-07 -1.8165958367438749e-05 -0.29185764770391198 -7.0261064959592438e-09 -6.195593307947447e-06 -0.40604363132097554 0.098082344568800731 -4.1896732754855321e-05 -0.27886922908183392 -1.3723684077465028e-07 -1.8165958367438749e-05 -0.29185764770391198 0.078365450237268541 1.1263355446880426e-05 -0.40149059539438875 0.098082344568800744 -4.1896732754855321e-05 -0.27886922908183387 0.070149146163754589 -9.5023125117477215e-06 -0.19887075725576811 -7.0261064957415637e-09 -6.195593307947447e-06 -0.40604363132097554 0.098082344568800744 -4.1896732754855328e-05 -0.27886922908183392 -1.3723684077465028e-07 -1.8165958367438749e-05 -0.29185764770391198 0.078365450237268527 1.1263355446880424e-05 -0.40149059539438869 -1.4908547768180869e-07 1.233724255312723e-05 -0.15009214828243608 -1.3723684077465028e-07 -1.8165958367438749e-05 -0.29185764770391198 0.098082344568800731 -4.1896732754855321e-05 -0.27886922908183398 0.070149146163754561 -9.5023125117477249e-06 -0.19887075725576819 -1.277445212311286e-07 -1.8229867154550285e-05 -0.28025888895018441 0.098082344568800731 -4.1896732754855321e-05 -0.27886922908183398 -7.0261064966607566e-09 -6.1955933079474445e-06 -0.40604363132097554 0.070092584669108338 -4.5527030968749889e-05 -0.44478418306597356 -7.0261064957415637e-09 -6.195593307947447e-06 -0.40604363132097554 -1.3723684077709008e-07 -1.8165958367438749e-05 -0.29185764770391198 -1.7767136456439775e-07 4.5689963125521823e-05 -0.46007308729122148 0.078365450237268527 1.1263355446880424e-05 -0.40149059539438869 0.15648823449068505 1.1485802091001754e-05 -0.45009529148230576 0.15702982159805168 -1.5978354502824565e-05 -0.4760414550450508 0.098082344568800689 -4.1896732754855335e-05 -0.27886922908183381 0.15516829270117027 -4.5705238616901952e-06 -0.22463898780758812 0.078365450237268527 1.1263355446880424e-05 -0.40149059539438869 0.15516829270117025 -4.5705238616902113e-06 -0.22463898780758815 0.098082344568800731 -4.1896732754855314e-05 -0.27886922908183387 0.070149146163754589 -9.5023125117477148e-06 -0.19887075725576814 0.098082344568800731 -4.1896732754855321e-05 -0.27886922908183392 0.15516829270117027 -4.5705238616901944e-06 -0.22463898780758815 0.15702982159805168 -1.5978354502824558e-05 -0.4760414550450508 0.15523474403945892 -3.8961167365694962e-06 -0.20335778406386656 0.15648823449068505 1.1485802091001754e-05 -0.45009529148230576 0.078365450237268527 1.1263355446880424e-05 -0.40149059539438869 0.098082344568800744 -4.1896732754855341e-05 -0.27886922908183381 0.15702982159805168 -1.5978354502824565e-05 -0.4760414550450508 0.098082344568800731 -4.1896732754855321e-05 -0.27886922908183392 0.078365450237268527 1.1263355446880424e-05 -0.40149059539438869 0.15648823449068508 1.1485802091001749e-05 -0.45009529148230587 0.15516829270117027 -4.5705238616901944e-06 -0.22463898780758818 0.098082344568800731 -4.1896732754855321e-05 -0.27886922908183392 0.15702982159805168 -1.5978354502824565e-05 -0.47604145504505085 0.078365450237268527 1.1263355446880427e-05 -0.40149059539438869 0.070092584669108324 -4.5527030968749876e-05 -0.44478418306597356 0.10270089288227356 -4.6958229622608742e-05 -1.5253253871679993e-05 0.098082344568800731 -4.1896732754855321e-05 -0.27886922908183392 0.14199687937308383 4.085555391837259e-05 -1.1154846755642163e-05 0.15516829270117027 -4.5705238616901944e-06 -0.22463898780758818 0.10270089288227356 -4.6958229622608742e-05 -1.5253253871679993e-05 0.15516829270117027 -4.5705238616901944e-06 -0.22463898780758818 0.10120783665932023 -1.4263165034458574e-05 -1.5996208935740732e-05 0.070149146163754589 -9.5023125117477148e-06 -0.19887075725576814 0.14199687937308383 4.085555391837259e-05 -1.115484675564043e-05 0.15516829270117027 -4.5705238616901944e-06 -0.22463898780758818 0.098082344568800717 -4.1896732754855321e-05 -0.27886922908183392 0.15523474403945894 -3.8961167365694827e-06 -0.20335778406386654 0.14199687937308383 4.085555391837259e-05 -1.115484675564043e-05 0.10270089288227356 -4.6958229622608742e-05 -1.5253253871679993e-05 0.098693835770250204 3.3375163848387967e-05 -1.3723336505684354e-05 0.098082344568800731 -4.1896732754855321e-05 -0.27886922908183392 0.053036748509360972 1.8298093614190645e-05 -1.3293307168871291e-05 0.098082344568800717 -4.1896732754855314e-05 -0.27886922908183392 0.10270089288227356 -4.6958229622608742e-05 -1.5253253871679993e-05 0.070149146163754589 -9.5023125117477148e-06 -0.19887075725576814 0.098693835770250204 3.3375163848387967e-05 -1.3723336505684354e-05 0.14199687937308383 4.085555391837259e-05 -1.115484675564043e-05 0.098082344568800717 -4.1896732754855328e-05 -0.27886922908183392 0.15523474403945892 -3.8961167365694979e-06 -0.20335778406386654 0.10270089288227356 -4.6958229622608742e-05 -1.5253253871679993e-05 0.098082344568800744 -4.1896732754855355e-05 -0.27886922908183387 0.15516829270117027 -4.5705238616901944e-06 -0.22463898780758818 0.070149146163754603 -9.5023125117476995e-06 -0.19887075725576814 0.10270089288227356 -4.6958229622608742e-05 -1.5253253871679993e-05 0.053036748509360972 1.8298093614190655e-05 -1.3293307168867749e-05 0.098693835770250204 3.3375163848387967e-05 -1.3723336505684354e-05 0.098082344568800731 -4.1896732754855321e-05 -0.27886922908183398 0.10120783665932023 -1.4263165034458574e-05 -1.5996208935740732e-05 0.10270089288227356 -4.6958229622608742e-05 -1.5253253871679993e-05 0.1605528880873392 -1.7838723525886648e-05 -1.4130933446757607e-05 0.15516829270117027 -4.5705238616901944e-06 -0.22463898780758818 0.1605528880873392 -1.7838723525886648e-05 -1.4130933446757607e-05 0.10270089288227356 -4.6958229622608742e-05 -1.5253253871679993e-05 0.14199687937308383 4.085555391837259e-05 -1.115484675564043e-05 0.15516829270117027 -4.5705238616901944e-06 -0.22463898780758818 -1.4908547768180869e-07 1.233724255312723e-05 -0.15009214828243608 0.04585958313228175 1.6420111614922706e-06 -1.0568644645732651e-05 0.053036748509360972 1.8298093614190645e-05 -1.3293307168869097e-05 0.098082344568800731 -4.1896732754855321e-05 -0.27886922908183392 -1.4908547768180869e-07 1.233724255312723e-05 -0.15009214828243608 0.098082344568800731 -4.1896732754855335e-05 -0.27886922908183398 0.053036748509360972 1.8298093614190645e-05 -1.3293307168863121e-05 0.070149146163754575 -9.5023125117477063e-06 -0.19887075725576814 0.054008960698435242 -3.5900232678562543e-06 -1.4497027279211059e-05 -1.6772771974908456e-07 3.1293463494035034e-06 -0.15281537568100531 0.053036748509360972 1.8298093614190645e-05 -1.3293307168871291e-05 0.070149146163754589 -9.5023125117477148e-06 -0.19887075725576814 0.054008960698435242 -3.5900232678562543e-06 -1.4497027279211059e-05 0.053036748509360972 1.8298093614190645e-05 -1.3293307168871291e-05 0.10270089288227356 -4.6958229622608742e-05 -1.5253253871679993e-05 0.070149146163754589 -9.5023125117477148e-06 -0.19887075725576814 -1.4908547768180869e-07 1.233724255312723e-05 -0.15009214828243608 -1.4375652288971202e-07 -1.8990875889315595e-05 -1.3216637318080878e-05 -1.8419019177006549e-07 -5.3204458312888457e-06 -1.687391070700584e-05 0.053036748509360972 1.8298093614190645e-05 -1.3293307168871291e-05 -1.4908547768180869e-07 1.233724255312723e-05 -0.15009214828243608 -1.8419019177006549e-07 -5.3204458312888457e-06 -1.687391070700584e-05 -1.6772771975229458e-07 3.1293463494035008e-06 -0.15281537568100531 0.053036748509360972 1.8298093614190645e-05 -1.3293307168871291e-05 -1.4908547768180869e-07 1.233724255312723e-05 -0.15009214828243608 0.053036748509360972 1.8298093614190645e-05 -1.3293307168871291e-05 -1.6772771974908456e-07 3.1293463494035034e-06 -0.15281537568100531 0.070149146163754561 -9.5023125117477097e-06 -0.19887075725576811 -1.4908547768180869e-07 1.233724255312723e-05 -0.15009214828243608 -1.6772771974908456e-07 3.1293463494035034e-06 -0.15281537568100531 -1.3723684077572778e-07 -1.8165958367438749e-05 -0.29185764770391198 0.070149146163754575 -9.5023125117477165e-06 -0.19887075725576814 -1.6772771974908456e-07 3.1293463494035034e-06 -0.15281537568100531 -1.8419019177317121e-07 -5.3204458312888448e-06 -1.6873910706992731e-05 -1.6419725298140529e-07 6.4059327291005415e-06 -1.5745264971417325e-05 0.054008960698435242 -3.5900232678562543e-06 -1.4497027279211059e-05 0.053036748509360972 1.8298093614190645e-05 -1.3293307168871291e-05 -1.8419019177006549e-07 -5.3204458312888457e-06 -1.687391070700584e-05 -1.6772771974908456e-07 3.1293463494035034e-06 -0.15281537568100531 0.054008960698435242 -3.5900232678562543e-06 -1.4497027279211059e-05 -1.3330248262050662e-07 -4.6805882633313898e-06 -0.14088911694339321 -1.1960099016505411e-07 -4.0120522909228601e-05 -0.28748549780001065 0.070149146163754603 -9.5023125117477029e-06 -0.19887075725576811 0.060535247476478656 -9.675655010602423e-06 -0.17129744255374707 0.049796080084561087 -3.1226417366517766e-05 -1.3184551945160171e-05 -1.3330248262125797e-07 -4.6805882633313898e-06 -0.14088911694339321 0.070149146163754603 -9.5023125117477131e-06 -0.19887075725576817 0.060535247476478662 -9.6756550106024264e-06 -0.1712974425537471 -1.3330248262050662e-07 -4.6805882633313898e-06 -0.14088911694339321 0.054008960698435242 -3.5900232678562543e-06 -1.4497027279211059e-05 -1.6419725298114617e-07 6.4059327291005415e-06 -1.5745264971416593e-05 0.049796080084561087 -3.1226417366517766e-05 -1.3184551945160171e-05 0.10120783665932023 -1.4263165034458574e-05 -1.5996208935740732e-05 0.049796080084561087 -3.1226417366517766e-05 -1.3184551945160171e-05 0.070149146163754589 -9.5023125117477131e-06 -0.19887075725576817 0.060535247476478662 -9.6756550106024264e-06 -0.1712974425537471 -1.6419725298140529e-07 6.4059327291005415e-06 -1.5745264971417325e-05 -1.6772771974908456e-07 3.1293463494035034e-06 -0.15281537568100531 0.054008960698435242 -3.5900232678562556e-06 -1.4497027279216126e-05 -1.3330248262050662e-07 -4.6805882633313898e-06 -0.14088911694339321 -1.3330248262050662e-07 -4.6805882633313898e-06 -0.14088911694339321 -1.6419725298140529e-07 6.4059327291005415e-06 -1.5745264971417325e-05 -1.5772139142987555e-07 -4.2305673364545623e-05 -1.2826582276543454e-05 0.049796080084561087 -3.1226417366517766e-05 -1.3184551945160171e-05 0.096785408628370359 -5.3845409613019464e-05 -1.4262775314700396e-05 0.049796080084561087 -3.1226417366517773e-05 -1.318455194515619e-05 0.10120783665932023 -1.4263165034458573e-05 -1.5996208935744737e-05 0.060535247476478662 -9.6756550106024264e-06 -0.1712974425537471 0.10120783665932023 -1.4263165034458574e-05 -1.5996208935740732e-05 0.049796080084561087 -3.1226417366517766e-05 -1.3184551945160171e-05 0.054008960698435242 -3.5900232678562543e-06 -1.4497027279211059e-05 0.070149146163754589 -9.5023125117477148e-06 -0.19887075725576814 0.049796080084561087 -3.1226417366517766e-05 -1.3184551945160171e-05 -1.333024826219861e-07 -4.6805882633313889e-06 -0.14088911694339318 0.054008960698435242 -3.5900232678562543e-06 -1.4497027279211059e-05 0.070149146163754589 -9.5023125117477148e-06 -0.19887075725576814 -1.3330248262050662e-07 -4.6805882633313898e-06 -0.14088911694339321 -1.5727839718090405e-07 3.3420943886291821e-05 -0.27545103478603872 -1.1960099016505411e-07 -4.0120522909228601e-05 -0.28748549780001065 0.060535247476478649 -9.6756550106024196e-06 -0.17129744255374713 -1.6772771974908456e-07 3.1293463494035034e-06 -0.15281537568100531 -1.3330248262050662e-07 -4.6805882633313898e-06 -0.14088911694339321 -1.1960099016505411e-07 -4.0120522909228601e-05 -0.28748549780001065 0.070149146163754589 -9.5023125117477148e-06 -0.19887075725576814 -1.6772771974908456e-07 3.1293463494035034e-06 -0.15281537568100531 0.054008960698435249 -3.5900232678562556e-06 -1.4497027279215281e-05 -1.3330248262050662e-07 -4.6805882633313898e-06 -0.14088911694339321 0.070149146163754589 -9.5023125117477148e-06 -0.19887075725576814 -1.1960099016505411e-07 -4.0120522909228601e-05 -0.28748549780001065 0.071164697154180889 3.76407715545814e-05 -0.4287169768220036 0.11221327001333303 -3.1819310065989323e-06 -0.2684748068137342 0.060535247476478662 -9.6756550106024331e-06 -0.17129744255374704 -1.1960099016505411e-07 -4.0120522909228601e-05 -0.28748549780001065 0.078365450237268541 1.1263355446880427e-05 -0.40149059539438864 -1.3723684077465028e-07 -1.8165958367438749e-05 -0.29185764770391198 0.070149146163754603 -9.5023125117477165e-06 -0.19887075725576814 -1.1960099016505411e-07 -4.0120522909228601e-05 -0.28748549780001065 -1.5727839717807285e-07 3.3420943886291821e-05 -0.27545103478603872 0.071164697154180889 3.7640771554581393e-05 -0.4287169768220036 0.060535247476478656 -9.6756550106024281e-06 -0.17129744255374707 0.11221327001333303 -3.1819310065989323e-06 -0.2684748068137342 0.070149146163754603 -9.5023125117477063e-06 -0.19887075725576811 -1.1960099016272234e-07 -4.0120522909228608e-05 -0.2874854978000107 0.060535247476478656 -9.675655010602423e-06 -0.17129744255374704 -1.6772771974908456e-07 3.1293463494035034e-06 -0.15281537568100531 -1.1960099016474389e-07 -4.0120522909228601e-05 -0.28748549780001065 -1.3723684077465028e-07 -1.8165958367438749e-05 -0.29185764770391198 0.070149146163754589 -9.5023125117477148e-06 -0.19887075725576814 -1.1960099016505411e-07 -4.0120522909228601e-05 -0.28748549780001065 0.078365450237268527 1.1263355446880434e-05 -0.40149059539438875 0.11221327001333303 -3.1819310065989323e-06 -0.2684748068137342 0.071164697154180903 3.7640771554581386e-05 -0.42871697682200355 0.11221327001333303 -3.1819310065989323e-06 -0.2684748068137342 0.078365450237268541 1.1263355446880419e-05 -0.40149059539438869 -1.1960099017461034e-07 -4.0120522909228601e-05 -0.2874854978000107 0.070149146163754617 -9.5023125117477046e-06 -0.19887075725576817 -1.3723684077465028e-07 -1.8165958367438749e-05 -0.29185764770391198 -1.1960099016948571e-07 -4.0120522909228601e-05 -0.28748549780001065 -1.7767136456439775e-07 4.5689963125521823e-05 -0.46007308729122148 0.078365450237268527 1.1263355446880424e-05 -0.40149059539438869 5.7518585955030272e-09 9.0222759629970394e-07 -0.40467711428116687 -1.7767136456439775e-07 4.5689963125521823e-05 -0.46007308729122148 -1.1960099016505411e-07 -4.0120522909228601e-05 -0.28748549780001065 0.078365450237268527 1.1263355446880424e-05 -0.40149059539438869 -2.2296758550597348e-07 4.9600865015546332e-06 -0.53085654687614803 0.078365450237268527 1.1263355446880419e-05 -0.40149059539438875 5.7518585955030272e-09 9.0222759629970394e-07 -0.40467711428116687 0.071164697154180903 3.7640771554581393e-05 -0.42871697682200355 -1.1960099016505411e-07 -4.0120522909228601e-05 -0.28748549780001065 -1.5727839717807285e-07 3.3420943886291821e-05 -0.27545103478603872 5.7518585895544108e-09 9.0222759629970648e-07 -0.40467711428116687 0.071164697154180903 3.7640771554581393e-05 -0.42871697682200355 5.7518585955030272e-09 9.0222759629970394e-07 -0.40467711428116687 0.078365450237268527 1.1263355446880427e-05 -0.40149059539438869 -1.1960099016505411e-07 -4.0120522909228601e-05 -0.28748549780001065 0.071164697154180903 3.7640771554581393e-05 -0.42871697682200355 0.053277649094351343 3.5415176545996445e-06 -0.26736295878614841 0.1033750713947378 4.0287252425662982e-06 -0.35371889908628967 0.071164697154180903 3.7640771554581393e-05 -0.42871697682200355 0.060535247476478662 -9.6756550106024264e-06 -0.1712974425537471 -1.5727839717807285e-07 3.3420943886291821e-05 -0.27545103478603872 0.053277649094351336 3.5415176545996436e-06 -0.26736295878614841 0.071164697154180903 3.7640771554581393e-05 -0.42871697682200355 0.060535247476478662 -9.6756550106024264e-06 -0.1712974425537471 0.054632332091020488 3.8534490390431851e-06 -0.44261574303782253 -1.4668086331650201e-07 6.5971254966355628e-05 -0.45019713349335011 -1.572783971766453e-07 3.3420943886291815e-05 -0.27545103478603866 0.071164697154180903 3.7640771554581386e-05 -0.42871697682200349 5.7518585955030272e-09 9.0222759629970394e-07 -0.40467711428116687 -1.5727839717807285e-07 3.3420943886291821e-05 -0.27545103478603872 -1.4668086329974701e-07 6.5971254966355614e-05 -0.45019713349335011 0.071164697154180903 3.7640771554581393e-05 -0.42871697682200355 0.054632332091020488 3.8534490390431851e-06 -0.44261574303782253 -9.7341324202718048e-08 4.5343603048061943e-06 -0.3548124826800208 -1.5727839717330466e-07 3.3420943886291808e-05 -0.27545103478603866 -1.4668086329974701e-07 6.5971254966355614e-05 -0.45019713349335005 -1.5727839717807285e-07 3.3420943886291821e-05 -0.27545103478603872 0.053277649094351343 3.5415176545996445e-06 -0.26736295878614841 -9.7341324202718048e-08 4.5343603048061943e-06 -0.3548124826800208 0.054632332091020495 3.8534490390431842e-06 -0.44261574303782258 0.054632332091020488 3.8534490390431851e-06 -0.44261574303782253 -1.5727839718726577e-07 3.3420943886291835e-05 -0.27545103478603861 0.053277649094351343 3.5415176545996445e-06 -0.26736295878614841 0.071164697154180889 3.7640771554581393e-05 -0.42871697682200355 0.054632332091020488 3.8534490390431851e-06 -0.44261574303782253 0.053277649094351343 3.5415176545996445e-06 -0.26736295878614841 0.1033750713947378 4.0287252425662982e-06 -0.35371889908628967 0.071164697154180903 3.7640771554581393e-05 -0.42871697682200355 -9.7341324202718048e-08 4.5343603048061943e-06 -0.3548124826800208 -1.4649823963170154e-07 3.562336517010745e-06 -0.17755116341924482 0.053277649094351343 3.5415176545996445e-06 -0.26736295878614841 -1.5727839717807285e-07 3.3420943886291821e-05 -0.27545103478603872 0.053277649094351343 3.5415176545996445e-06 -0.26736295878614841 -1.4649823964383288e-07 3.5623365170107539e-06 -0.17755116341924482 -1.0456034969297466e-07 -2.2315806053187385e-05 -0.12984236268573099 -1.5727839718398789e-07 3.3420943886291821e-05 -0.27545103478603872 0.045939612781046808 2.8535291039045656e-06 -0.1302210387202471 -1.4649823963170154e-07 3.562336517010745e-06 -0.17755116341924482 -1.0456034967539548e-07 -2.2315806053187401e-05 -0.12984236268573099 0.053277649094351343 3.5415176545996445e-06 -0.26736295878614841 0.062552017537233856 4.0013689837623662e-06 -1.4518512738119346e-05 -1.7849411819031437e-07 3.8471609560044262e-06 -1.454120986872525e-05 0.045776390671244629 -4.0983680449678181e-05 -1.058675920485949e-05 0.045939612781046808 2.8535291039045656e-06 -0.1302210387202471 -1.0456034967570028e-07 -2.2315806053187401e-05 -0.12984236268573099 -1.7849411818896999e-07 3.8471609560044262e-06 -1.4541209868714712e-05 -1.4649823963170154e-07 3.562336517010745e-06 -0.17755116341924482 0.045939612781046808 2.8535291039045656e-06 -0.1302210387202471 -1.0456034967570028e-07 -2.2315806053187401e-05 -0.12984236268573099 0.045776390671244629 -4.0983680449678181e-05 -1.058675920485949e-05 -1.7849411818896999e-07 3.8471609560044262e-06 -1.4541209868714712e-05 0.045939612781046808 2.8535291039045656e-06 -0.1302210387202471 0.045776390671244629 -4.0983680449678181e-05 -1.058675920485949e-05 -1.7849411819419905e-07 3.8471609560044279e-06 -1.4541209868728035e-05 -1.5772139143329383e-07 -4.2305673364545623e-05 -1.2826582276553124e-05 -1.0456034967570028e-07 -2.2315806053187401e-05 -0.12984236268573099 -1.0456034967570028e-07 -2.2315806053187401e-05 -0.12984236268573099 -1.3330248262050662e-07 -4.6805882633313898e-06 -0.14088911694339321 0.049796080084561094 -3.1226417366517766e-05 -1.3184551945165497e-05 0.060535247476478662 -9.6756550106024264e-06 -0.1712974425537471 -1.5772139143329383e-07 -4.2305673364545623e-05 -1.2826582276553124e-05 0.049796080084561087 -3.1226417366517766e-05 -1.3184551945160171e-05 0.045776390671244629 -4.0983680449678181e-05 -1.058675920485949e-05 -1.0456034967570028e-07 -2.2315806053187401e-05 -0.12984236268573099 0.045939612781046808 2.8535291039045656e-06 -0.1302210387202471 -1.0456034967723656e-07 -2.2315806053187405e-05 -0.12984236268573096 0.045776390671244629 -4.0983680449678181e-05 -1.0586759204855438e-05 0.060535247476478662 -9.6756550106024298e-06 -0.17129744255374707 0.049796080084561087 -3.1226417366517766e-05 -1.3184551945160171e-05 -1.5772139143329383e-07 -4.2305673364545623e-05 -1.2826582276553124e-05 -1.3330248262050662e-07 -4.6805882633313898e-06 -0.14088911694339321 -1.0456034967570028e-07 -2.2315806053187401e-05 -0.12984236268573099 0.049796080084561087 -3.1226417366517766e-05 -1.3184551945160171e-05 0.045776390671244629 -4.0983680449678181e-05 -1.0586759204848997e-05 -1.0456034967570028e-07 -2.2315806053187401e-05 -0.12984236268573099 0.060535247476478662 -9.6756550106024264e-06 -0.1712974425537471 0.053277649094351343 3.5415176545996445e-06 -0.26736295878614841 -1.5727839719077765e-07 3.3420943886291808e-05 -0.27545103478603872 -1.0456034968161531e-07 -2.2315806053187388e-05 -0.12984236268573102 0.060535247476478662 -9.6756550106024264e-06 -0.1712974425537471 -1.0456034967570028e-07 -2.2315806053187401e-05 -0.12984236268573099 -1.5727839717807285e-07 3.3420943886291821e-05 -0.27545103478603872 -1.3330248262050662e-07 -4.6805882633313898e-06 -0.14088911694339321 0.060535247476478662 -9.6756550106024264e-06 -0.1712974425537471 0.045939612781046808 2.8535291039045656e-06 -0.1302210387202471 0.045776390671244636 -4.0983680449678174e-05 -1.0586759204907458e-05 0.096785408628370359 -5.3845409613019458e-05 -1.4262775314723648e-05 0.060535247476478669 -9.6756550106024298e-06 -0.17129744255374707 0.049796080084561087 -3.1226417366517766e-05 -1.3184551945160171e-05 0.096785408628370359 -5.3845409613019464e-05 -1.4262775314700396e-05 0.045776390671244629 -4.0983680449678181e-05 -1.058675920485949e-05 0.060535247476478662 -9.6756550106024264e-06 -0.1712974425537471 0.045776390671244629 -4.0983680449678181e-05 -1.058675920485949e-05 0.096785408628370359 -5.3845409613019464e-05 -1.4262775314700396e-05 0.062552017537233856 4.0013689837623662e-06 -1.4518512738119346e-05 0.045939612781046808 2.8535291039045656e-06 -0.1302210387202471 0.098806021774167821 3.6591543089643596e-06 -0.168219927631027 0.06255201753723387 4.0013689837623823e-06 -1.4518512738108689e-05 0.096785408628370359 -5.3845409613019464e-05 -1.4262775314700396e-05 0.045939612781046808 2.8535291039045656e-06 -0.1302210387202471 0.096785408628370359 -5.3845409613019464e-05 -1.4262775314700396e-05 0.098806021774167835 3.6591543089643592e-06 -0.168219927631027 0.045939612781046794 2.8535291039045559e-06 -0.13022103872024707 0.060535247476478669 -9.6756550106024281e-06 -0.1712974425537471 0.098806021774167821 3.6591543089643596e-06 -0.168219927631027 0.053277649094351343 3.5415176545996445e-06 -0.26736295878614841 0.045939612781046808 2.8535291039045656e-06 -0.1302210387202471 0.060535247476478662 -9.6756550106024264e-06 -0.1712974425537471 0.045939612781046808 2.8535291039045656e-06 -0.1302210387202471 0.053277649094351343 3.5415176545996449e-06 -0.26736295878614841 -1.0456034967570028e-07 -2.2315806053187401e-05 -0.12984236268573099 0.060535247476478662 -9.6756550106024264e-06 -0.1712974425537471 0.11221327001333303 -3.1819310065989323e-06 -0.2684748068137342 0.060535247476478662 -9.6756550106024264e-06 -0.17129744255374704 0.098806021774167821 3.6591543089643596e-06 -0.168219927631027 0.16359211408773394 -1.9205539462742205e-06 -0.18779996575856306 0.096785408628370359 -5.3845409613019464e-05 -1.4262775314700396e-05 0.060535247476478662 -9.6756550106024264e-06 -0.1712974425537471 0.11221327001333306 -3.1819310065989709e-06 -0.2684748068137342 0.16359211408773394 -1.920553946274212e-06 -0.18779996575856309 0.096785408628370359 -5.3845409613019464e-05 -1.4262775314700396e-05 0.098806021774167821 3.6591543089643507e-06 -0.16821992763102694 0.060535247476478662 -9.6756550106024281e-06 -0.1712974425537471 0.16359211408773394 -1.9205539462742082e-06 -0.18779996575856309 0.096785408628370359 -5.3845409613019464e-05 -1.4262775314700396e-05 0.12430090127957227 4.584771499224616e-06 -1.6870231320643832e-05 0.062552017537233856 4.0013689837623662e-06 -1.4518512738119346e-05 0.098806021774167821 3.6591543089643596e-06 -0.168219927631027 0.096785408628370359 -5.3845409613019464e-05 -1.4262775314700396e-05 0.15696797411612631 1.9070378812037164e-05 -1.381137074650207e-05 0.098806021774167821 3.6591543089643596e-06 -0.168219927631027 0.16359211408773394 -1.9205539462742433e-06 -0.18779996575856311 0.14146276670796784 -3.6933764325433735e-05 -1.0905081403928118e-05 0.15696797411612634 1.9070378812037187e-05 -1.3811370746474786e-05 0.096785408628370359 -5.3845409613019464e-05 -1.426277531469664e-05 0.16359211408773394 -1.9205539462742154e-06 -0.18779996575856303 0.15782083654392146 3.2983711094636588e-06 -0.14747945688176797 0.098806021774167821 3.65915430896436e-06 -0.168219927631027 0.12430090127957226 4.5847714992246134e-06 -1.6870231320615067e-05 0.15696797411612634 1.9070378812037187e-05 -1.3811370746474786e-05 0.098806021774167821 3.6591543089643596e-06 -0.168219927631027 0.096785408628370359 -5.3845409613019458e-05 -1.4262775314738681e-05 0.12430090127957227 4.584771499224616e-06 -1.6870231320643832e-05 0.15696797411612634 1.9070378812037187e-05 -1.3811370746474786e-05 0.15782083654392146 3.2983711094636588e-06 -0.14747945688176797 0.14245998596182838 2.6884743735485024e-06 -0.27883888502092069 0.098806021774167821 3.6591543089643596e-06 -0.168219927631027 0.16359211408773394 -1.9205539462742192e-06 -0.18779996575856306 0.15782083654392146 3.2983711094636588e-06 -0.14747945688176797 0.098806021774167821 3.65915430896436e-06 -0.168219927631027 0.15696797411612634 1.9070378812037187e-05 -1.3811370746480989e-05 0.16359211408773394 -1.9205539462742166e-06 -0.18779996575856303 0.1033750713947378 4.0287252425662982e-06 -0.35371889908628967 0.11221327001333303 -3.1819310065989239e-06 -0.26847480681373426 0.15666471838172494 -1.8981488813229446e-05 -0.47668736813978058 0.071164697154180903 3.7640771554581393e-05 -0.42871697682200355 0.11221327001333303 -3.1819310065989323e-06 -0.2684748068137342 0.071164697154180903 3.7640771554581393e-05 -0.42871697682200355 0.1033750713947378 4.0287252425662982e-06 -0.35371889908628967 0.060535247476478649 -9.6756550106024281e-06 -0.17129744255374704 0.098806021774167821 3.6591543089643596e-06 -0.168219927631027 0.14245998596182835 2.6884743735485024e-06 -0.27883888502092069 0.1033750713947378 4.0287252425662982e-06 -0.35371889908628967 0.11221327001333302 -3.1819310065989345e-06 -0.2684748068137342 0.14245998596182835 2.6884743735485024e-06 -0.27883888502092069 0.11221327001333303 -3.1819310065989328e-06 -0.26847480681373426 0.098806021774167821 3.6591543089643596e-06 -0.168219927631027 0.16359211408773394 -1.92055394627422e-06 -0.18779996575856306 0.098806021774167821 3.6591543089643596e-06 -0.168219927631027 0.11221327001333305 -3.1819310065989302e-06 -0.2684748068137342 0.10337507139473781 4.0287252425662991e-06 -0.35371889908628967 0.060535247476478662 -9.6756550106024264e-06 -0.1712974425537471 0.14245998596182835 2.6884743735485024e-06 -0.27883888502092069 0.15666471838172485 -1.8981488813229426e-05 -0.47668736813978052 0.11221327001333305 -3.181931006598937e-06 -0.26847480681373426 0.16359211408773394 -1.92055394627422e-06 -0.18779996575856306 0.14245998596182835 2.6884743735485024e-06 -0.27883888502092069 0.1033750713947378 4.0287252425662982e-06 -0.35371889908628967 0.11221327001333302 -3.1819310065989366e-06 -0.2684748068137342 0.15666471838172488 -1.8981488813229423e-05 -0.47668736813978047 0.098806021774167821 3.6591543089643596e-06 -0.168219927631027 0.1033750713947378 4.0287252425662982e-06 -0.35371889908628967 0.053277649094351343 3.5415176545996445e-06 -0.26736295878614841 0.060535247476478662 -9.6756550106024264e-06 -0.1712974425537471 0.1033750713947378 4.0287252425662982e-06 -0.35371889908628967 0.10337665823350094 4.1706694490357314e-06 -0.53577695794709446 0.054632332091020488 3.8534490390431851e-06 -0.44261574303782253 0.071164697154180903 3.7640771554581393e-05 -0.42871697682200355 0.14245998596182835 2.6884743735485024e-06 -0.27883888502092069 0.16205669858763833 3.4995941471575744e-06 -0.45062188222028948 0.1033750713947378 4.0287252425662982e-06 -0.35371889908628967 0.15666471838172488 -1.8981488813229426e-05 -0.47668736813978052 0.078365450237268527 1.1263355446880424e-05 -0.40149059539438869 0.15666471838172485 -1.8981488813229423e-05 -0.47668736813978052 0.11221327001333302 -3.1819310065989264e-06 -0.26847480681373415 0.071164697154180917 3.7640771554581386e-05 -0.42871697682200349 0.11221327001333303 -3.1819310065989323e-06 -0.2684748068137342 0.15648823449068508 1.1485802091001757e-05 -0.45009529148230581 0.078365450237268527 1.1263355446880424e-05 -0.40149059539438869 0.15516829270117025 -4.5705238616901961e-06 -0.22463898780758809 0.11221327001333303 -3.1819310065989323e-06 -0.2684748068137342 0.078365450237268527 1.1263355446880424e-05 -0.40149059539438869 0.15648823449068505 1.1485802091001757e-05 -0.4500952914823057 0.15666471838172488 -1.8981488813229429e-05 -0.47668736813978058 0.11221327001333303 -3.1819310065989323e-06 -0.2684748068137342 0.15516829270117027 -4.5705238616901944e-06 -0.22463898780758818 0.078365450237268527 1.1263355446880422e-05 -0.40149059539438864 0.070149146163754589 -9.5023125117477148e-06 -0.19887075725576814 0.11221327001333303 -3.1819310065989323e-06 -0.2684748068137342 0.10120783665932023 -1.4263165034458574e-05 -1.5996208935740732e-05 0.15516829270117027 -4.5705238616901944e-06 -0.22463898780758818 0.070149146163754589 -9.5023125117477148e-06 -0.19887075725576814 0.096785408628370359 -5.3845409613019464e-05 -1.4262775314700396e-05 0.10120783665932023 -1.4263165034458574e-05 -1.5996208935740732e-05 0.14146276670796784 -3.6933764325433735e-05 -1.0905081403928118e-05 0.11221327001333305 -3.1819310065989298e-06 -0.26847480681373426 0.10120783665932023 -1.4263165034458574e-05 -1.5996208935740732e-05 0.070149146163754617 -9.5023125117477148e-06 -0.19887075725576814 0.11221327001333302 -3.1819310065989323e-06 -0.26847480681373426 0.060535247476478662 -9.6756550106024264e-06 -0.1712974425537471 0.10120783665932023 -1.4263165034458574e-05 -1.5996208935740732e-05 0.14146276670796784 -3.6933764325433735e-05 -1.0905081403932189e-05 0.11221327001333303 -3.1819310065989345e-06 -0.2684748068137342 0.15516829270117027 -4.5705238616901944e-06 -0.22463898780758818 0.096785408628370359 -5.3845409613019464e-05 -1.4262775314700396e-05 0.10120783665932023 -1.4263165034458574e-05 -1.5996208935740732e-05 0.11221327001333305 -3.1819310065989345e-06 -0.2684748068137342 0.060535247476478662 -9.6756550106024264e-06 -0.1712974425537471 0.14146276670796784 -3.6933764325433735e-05 -1.0905081403928118e-05 0.096785408628370359 -5.3845409613019464e-05 -1.4262775314700858e-05 0.11221327001333303 -3.1819310065989323e-06 -0.2684748068137342 0.16359211408773394 -1.9205539462742213e-06 -0.18779996575856303 0.11221327001333303 -3.1819310065989323e-06 -0.2684748068137342 0.15516829270117027 -4.5705238616901944e-06 -0.22463898780758818 0.14146276670796784 -3.6933764325433735e-05 -1.0905081403928118e-05 0.16359211408773394 -1.92055394627422e-06 -0.18779996575856306 0.054008960698435242 -3.5900232678562543e-06 -1.4497027279211059e-05 0.10270089288227356 -4.6958229622608742e-05 -1.5253253871679993e-05 0.10120783665932023 -1.4263165034458574e-05 -1.5996208935740732e-05 0.070149146163754589 -9.5023125117477148e-06 -0.19887075725576814 0.10120783665932023 -1.4263165034458574e-05 -1.5996208935740732e-05 0.1605528880873392 -1.7838723525886648e-05 -1.4130933446757607e-05 0.14146276670796784 -3.6933764325433735e-05 -1.0905081403928118e-05 0.15516829270117027 -4.5705238616901944e-06 -0.22463898780758818 0.2198972055582529 5.1328905488608655e-05 -9.0521243181807183e-06 0.20966323834299927 4.3889693536488483e-06 -0.28290363794099765 0.18387796708932591 -3.7805884982612142e-06 -1.0575107720716947e-05 0.23457874933912032 1.6621561488477623e-05 -0.19906945644038471 0.20966323834299927 4.3889693536488882e-06 -0.28290363794099765 0.15516829270117025 -4.5705238616901961e-06 -0.2246389878075882 0.18387796708932591 -3.7805884982612134e-06 -1.0575107720709739e-05 0.23457874933912029 1.6621561488477589e-05 -0.19906945644038468 0.18387796708932591 -3.7805884982612142e-06 -1.0575107720716947e-05 0.14146276670796784 -3.6933764325433735e-05 -1.090508140393513e-05 0.15516829270117027 -4.570523861690191e-06 -0.2246389878075882 0.16359211408773394 -1.9205539462742145e-06 -0.18779996575856311 0.1605528880873392 -1.7838723525886648e-05 -1.4130933446757607e-05 0.20508027900039505 -4.4574911992009334e-05 -1.1181837462447322e-05 0.18387796708932591 -3.7805884982612142e-06 -1.0575107720716947e-05 0.15516829270117027 -4.5705238616901944e-06 -0.22463898780758818 0.18387796708932591 -3.7805884982612142e-06 -1.0575107720716947e-05 0.15516829270117025 -4.5705238616901969e-06 -0.22463898780758818 0.2096632383429993 4.3889693536488898e-06 -0.28290363794099765 0.16359211408773389 -1.9205539462742226e-06 -0.18779996575856309 0.18387796708932591 -3.7805884982612142e-06 -1.0575107720716947e-05 0.15516829270117027 -4.5705238616902037e-06 -0.22463898780758818 0.20508027900039505 -4.4574911992009334e-05 -1.1181837462447322e-05 0.23457874933912026 1.6621561488477572e-05 -0.19906945644038468 0.18387796708932591 -3.7805884982612142e-06 -1.0575107720716947e-05 0.16359211408773391 -1.9205539462741446e-06 -0.18779996575856306 0.20966323834299927 4.3889693536488898e-06 -0.28290363794099765 0.2447102024607862 0.00013311769401537049 -0.16918647911887919 0.18387796708932591 -3.7805884982612142e-06 -1.0575107720716947e-05 0.14146276670796784 -3.6933764325433735e-05 -1.0905081403934371e-05 0.1605528880873392 -1.7838723525886648e-05 -1.4130933446757607e-05 0.15516829270117027 -4.5705238616901944e-06 -0.22463898780758818 0.18387796708932591 -3.7805884982612142e-06 -1.0575107720716947e-05 0.20966323834299927 4.3889693536488882e-06 -0.28290363794099765 0.2198972055582529 5.1328905488608655e-05 -9.0521243181807183e-06 0.2447102024607862 0.00013311769401537046 -0.16918647911887919 0.14146276670796784 -3.6933764325433735e-05 -1.0905081403928118e-05 0.18387796708932591 -3.7805884982612134e-06 -1.0575107720715566e-05 0.15696797411612631 1.9070378812037191e-05 -1.3811370746489804e-05 0.16359211408773394 -1.9205539462742128e-06 -0.18779996575856303 0.18387796708932591 -3.7805884982612142e-06 -1.0575107720716947e-05 0.2198972055582529 5.1328905488608655e-05 -9.0521243181760732e-06 0.21397941582843613 0.00017400601116711607 -1.3762496072876463e-05 0.2447102024607862 0.00013311769401537046 -0.16918647911887919 0.2198972055582529 5.1328905488608655e-05 -9.0521243181807183e-06 0.18387796708932591 -3.7805884982612151e-06 -1.0575107720716703e-05 0.20508027900039505 -4.4574911992009334e-05 -1.118183746244004e-05 0.23457874933912029 1.6621561488477589e-05 -0.19906945644038468 0.20966323834299927 4.3889693536488882e-06 -0.28290363794099765 0.15516829270117027 -4.5705238616901978e-06 -0.22463898780758809 0.11221327001333303 -3.1819310065989323e-06 -0.2684748068137342 0.16359211408773389 -1.9205539462742192e-06 -0.18779996575856306 0.20966323834299927 4.3889693536488882e-06 -0.28290363794099765 0.11221327001333302 -3.1819310065989294e-06 -0.26847480681373415 0.15648823449068505 1.1485802091001754e-05 -0.45009529148230576 0.15666471838172488 -1.8981488813229426e-05 -0.47668736813978052 0.15648823449068505 1.1485802091001754e-05 -0.45009529148230576 0.11221327001333303 -3.1819310065989302e-06 -0.26847480681373426 0.20966323834299927 4.3889693536488882e-06 -0.28290363794099765 0.15516829270117027 -4.5705238616901961e-06 -0.2246389878075882 0.15648823449068505 1.1485802091001754e-05 -0.45009529148230576 0.20966323834299927 4.3889693536488882e-06 -0.28290363794099765 0.22956845191473188 -2.3950867204672282e-05 -0.45551251188106495 0.15516829270117027 -4.5705238616902071e-06 -0.22463898780758823 0.20966323834299927 4.3889693536488882e-06 -0.28290363794099765 0.15666471838172488 -1.8981488813229426e-05 -0.47668736813978052 0.22956845191473188 -2.3950867204672282e-05 -0.45551251188106495 0.23511883987376223 8.9019485296603233e-05 -0.45577664531018341 0.22956845191473188 -2.3950867204672282e-05 -0.45551251188106495 0.15516829270117027 -4.5705238616902096e-06 -0.22463898780758826 0.20966323834299927 4.3889693536488924e-06 -0.2829036379409976 0.23457874933912032 1.6621561488477592e-05 -0.19906945644038468 0.11221327001333303 -3.1819310065989323e-06 -0.2684748068137342 0.15666471838172488 -1.8981488813229426e-05 -0.47668736813978052 0.20966323834299927 4.3889693536488882e-06 -0.28290363794099765 0.16359211408773394 -1.9205539462742205e-06 -0.18779996575856306 0.15648823449068505 1.1485802091001754e-05 -0.45009529148230576 0.22956845191473188 -2.3950867204672289e-05 -0.45551251188106501 0.20966323834299927 4.3889693536488882e-06 -0.28290363794099765 0.15666471838172488 -1.8981488813229426e-05 -0.47668736813978052 0.20966323834299927 4.3889693536488882e-06 -0.28290363794099765 0.16359211408773394 -1.9205539462742192e-06 -0.18779996575856306 0.18801130104564176 3.5933313736586509e-06 -0.30013234220986662 0.2447102024607862 0.00013311769401537046 -0.16918647911887919 0.18801130104564176 3.5933313736586509e-06 -0.30013234220986662 0.15666471838172488 -1.8981488813229423e-05 -0.47668736813978052 0.20966323834299927 4.3889693536488882e-06 -0.28290363794099765 0.23511883987376223 8.9019485296603233e-05 -0.45577664531018341 0.18801130104564176 3.5933313736586509e-06 -0.30013234220986662 0.21032373417783118 3.8049865922495338e-06 -0.47609028975199219 0.15666471838172488 -1.8981488813229395e-05 -0.47668736813978047 0.23511883987376223 8.9019485296603233e-05 -0.45577664531018341 0.24853394430315781 3.5627216100217688e-06 -0.28786725597775376 0.20966323834299927 4.3889693536488729e-06 -0.28290363794099765 0.18801130104564176 3.5933313736586191e-06 -0.30013234220986662 0.2447102024607862 0.00013311769401537033 -0.1691864791188793 0.14245998596182835 2.6884743735485024e-06 -0.27883888502092069 0.18801130104564176 3.5933313736586509e-06 -0.30013234220986662 0.15666471838172488 -1.8981488813229426e-05 -0.47668736813978052 0.16359211408773394 -1.92055394627422e-06 -0.18779996575856306 0.18801130104564176 3.5933313736586509e-06 -0.30013234220986662 0.20966323834299924 4.3889693536489212e-06 -0.28290363794099771 0.24853394430315781 3.5627216100217688e-06 -0.28786725597775376 0.23511883987376223 8.9019485296603233e-05 -0.45577664531018341 0.20966323834299927 4.3889693536488882e-06 -0.28290363794099765 0.15666471838172488 -1.8981488813229426e-05 -0.47668736813978052 0.18801130104564176 3.5933313736586509e-06 -0.30013234220986662 0.16359211408773397 -1.9205539462742196e-06 -0.18779996575856309 0.18801130104564176 3.5933313736586509e-06 -0.30013234220986662 0.21032373417783118 3.8049865922495377e-06 -0.47609028975199219 0.16205669858763833 3.4995941471575727e-06 -0.45062188222028948 0.15666471838172488 -1.8981488813229426e-05 -0.47668736813978052 0.16205669858763833 3.4995941471575744e-06 -0.45062188222028948 0.14245998596182835 2.6884743735485024e-06 -0.27883888502092069 0.18801130104564176 3.5933313736586509e-06 -0.30013234220986662 0.15666471838172488 -1.8981488813229429e-05 -0.47668736813978052 0.21032373417783118 3.8049865922495377e-06 -0.47609028975199219 0.18801130104564173 3.5933313736586538e-06 -0.30013234220986668 0.24853394430315781 3.5627216100217688e-06 -0.28786725597775376 0.23511883987376223 8.9019485296603233e-05 -0.45577664531018341 0.15782083654392146 3.2983711094636588e-06 -0.14747945688176797 0.18801130104564176 3.5933313736586509e-06 -0.30013234220986662 0.14245998596182835 2.6884743735485024e-06 -0.27883888502092069 0.16359211408773394 -1.9205539462742192e-06 -0.18779996575856306 0.15782083654392146 3.2983711094636588e-06 -0.14747945688176797 0.21289653030907058 3.1324782832159356e-06 -0.15397779648787321 0.18801130104564176 3.5933313736586509e-06 -0.30013234220986662 0.16359211408773394 -1.9205539462742192e-06 -0.18779996575856306 0.21289653030907058 3.1324782832159356e-06 -0.15397779648787321 0.18801130104564176 3.5933313736586509e-06 -0.30013234220986662 0.16359211408773394 -1.920553946274198e-06 -0.18779996575856309 0.24471020246078617 0.00013311769401537041 -0.16918647911887916 0.21289653030907058 3.1324782832159356e-06 -0.15397779648787321 0.16359211408773397 -1.9205539462742162e-06 -0.18779996575856306 0.21397941582843616 0.0001740060111671161 -1.3762496072878398e-05 0.24471020246078617 0.00013311769401537046 -0.1691864791188791 0.21289653030907058 3.1324782832159356e-06 -0.15397779648787321 0.15782083654392146 3.2983711094636588e-06 -0.14747945688176797 0.15696797411612637 1.9070378812037194e-05 -1.3811370746408644e-05 0.16359211408773394 -1.9205539462742145e-06 -0.187799965758563 0.18387796708932591 -3.7805884982612142e-06 -1.0575107720716947e-05 0.21397941582843613 0.00017400601116711607 -1.3762496072876463e-05 0.16359211408773394 -1.9205539462742196e-06 -0.18779996575856311 0.2447102024607862 0.00013311769401537043 -0.16918647911887921 0.18399555889976715 3.8793014166628612e-06 -1.7483406397396589e-05 0.21289653030907058 3.1324782832159356e-06 -0.15397779648787321 0.15782083654392146 3.2983711094636588e-06 -0.14747945688176797 0.15696797411612634 1.9070378812037187e-05 -1.3811370746474786e-05 0.15782083654392146 3.2983711094636588e-06 -0.14747945688176797 0.12430090127957227 4.5847714992246168e-06 -1.6870231320657795e-05 0.18399555889976715 3.8793014166628612e-06 -1.7483406397396589e-05 0.15696797411612634 1.9070378812037187e-05 -1.3811370746474786e-05 0.15696797411612634 1.9070378812037187e-05 -1.3811370746474786e-05 0.18387796708932591 -3.7805884982611935e-06 -1.0575107720717191e-05 0.21397941582843613 0.00017400601116711607 -1.3762496072876463e-05 0.16359211408773394 -1.92055394627422e-06 -0.18779996575856306 0.21289653030907058 3.1324782832159356e-06 -0.15397779648787321 0.15696797411612631 1.907037881203714e-05 -1.3811370746411004e-05 0.21397941582843616 0.00017400601116711607 -1.3762496072852348e-05 0.16359211408773391 -1.9205539462742683e-06 -0.187799965758563 0.18399555889976715 3.8793014166628612e-06 -1.7483406397396589e-05 0.24004589827443268 3.0152534717329139e-06 -1.4070343550669289e-05 0.21289653030907058 3.1324782832159356e-06 -0.15397779648787321 0.21397941582843613 0.00017400601116711607 -1.3762496072876463e-05 0.15696797411612634 1.9070378812037187e-05 -1.3811370746474786e-05 0.18399555889976715 3.8793014166628612e-06 -1.7483406397396589e-05 0.21289653030907058 3.1324782832158809e-06 -0.15397779648787333 0.21397941582843613 0.00017400601116711607 -1.3762496072876463e-05 0.21289653030907058 3.1324782832159356e-06 -0.15397779648787321 0.24853394430315781 3.5627216100217688e-06 -0.28786725597775376 0.18801130104564176 3.5933313736586509e-06 -0.30013234220986662 0.24471020246078623 0.00013311769401537041 -0.16918647911887919 0.24853394430315781 3.5627216100217688e-06 -0.28786725597775376 0.21289653030907058 3.1324782832159356e-06 -0.15397779648787321 0.25429682676838983 2.1252234695814224e-06 -0.13426344634700263 0.24471020246078617 0.00013311769401537041 -0.16918647911887916 0.21289653030907058 3.1324782832159356e-06 -0.15397779648787321 0.25422119162358192 8.5860252362174948e-05 -9.5643693188330503e-06 0.25429682676838983 2.1252234695814173e-06 -0.13426344634700263 0.2447102024607862 0.00013311769401537043 -0.1691864791188791 0.25429682676838983 2.1252234695814177e-06 -0.13426344634700263 0.29081537011697667 -4.5955293072006187e-05 -0.13520564436793495 0.24853394430315781 3.5627216100217688e-06 -0.28786725597775376 0.24471020246078617 0.00013311769401537049 -0.16918647911887919 0.25422119162358192 8.5860252362174934e-05 -9.5643693187957351e-06 0.25429682676838983 2.1252234695814177e-06 -0.13426344634700263 0.24004589827443268 3.0152534717329139e-06 -1.4070343550669289e-05 0.21289653030907058 3.1324782832159356e-06 -0.15397779648787321 0.21289653030907058 3.1324782832159356e-06 -0.15397779648787321 0.24004589827443271 3.0152534717328978e-06 -1.4070343550668417e-05 0.25422119162358192 8.5860252362174934e-05 -9.5643693187957351e-06 0.21397941582843613 0.00017400601116711607 -1.3762496072876463e-05 0.25422119162358192 8.5860252362174934e-05 -9.5643693187957351e-06 0.21397941582843613 0.00017400601116711607 -1.3762496072878301e-05 0.25346347982346179 0.00016188311467864219 -1.0804778439612492e-05 0.2447102024607862 0.00013311769401537046 -0.16918647911887916 0.21289653030907058 3.1324782832159356e-06 -0.15397779648787321 0.21397941582843613 0.00017400601116711607 -1.3762496072931375e-05 0.25422119162358192 8.5860252362174948e-05 -9.5643693188161367e-06 0.2447102024607862 0.00013311769401537043 -0.1691864791188791 0.29081537011697667 -4.5955293072006201e-05 -0.13520564436793492 0.29084959215544109 -4.9312221056003321e-05 -0.146717777512123 0.29217246160194454 -0.00027816627908568614 -0.28721535677541282 0.2447102024607862 0.00013311769401537046 -0.16918647911887919 0.24853394430315781 3.5627216100217688e-06 -0.28786725597775376 0.29081537011697667 -4.5955293072006248e-05 -0.13520564436793492 0.29217246160194454 -0.00027816627908568614 -0.28721535677541282 0.24471020246078623 0.00013311769401537038 -0.16918647911887921 0.29081537011697667 -4.5955293072006201e-05 -0.13520564436793492 0.25422119162358192 8.5860252362174934e-05 -9.5643693187957351e-06 0.29038351172145754 -8.5903177726537623e-05 -1.2306076728890794e-05 0.2447102024607862 0.00013311769401537046 -0.16918647911887919 0.29038351172145754 -8.5903177726537623e-05 -1.2306076728890794e-05 0.2447102024607862 0.00013311769401537035 -0.16918647911887919 0.29084959215544109 -4.9312221056003321e-05 -0.146717777512123 0.29081537011697667 -4.5955293072006201e-05 -0.13520564436793492 0.25422119162358192 8.5860252362174934e-05 -9.5643693187957351e-06 0.29081537011697672 -4.5955293072006208e-05 -0.13520564436793495 0.25429682676838983 2.1252234695814016e-06 -0.13426344634700263 0.2447102024607862 0.00013311769401537043 -0.16918647911887916 0.25422119162358192 8.5860252362174934e-05 -9.5643693187957351e-06 0.25346347982346179 0.00016188311467864219 -1.0804778439603903e-05 0.29038351172145754 -8.5903177726537623e-05 -1.2306076728886498e-05 0.2447102024607862 0.00013311769401537046 -0.16918647911887916 0.29081537011697667 -4.5955293072006201e-05 -0.13520564436793492 0.25429682676838977 2.1252234695814033e-06 -0.13426344634700263 0.29028886853266295 2.9054588180563568e-06 -1.421179447250084e-05 0.25422119162358192 8.5860252362174934e-05 -9.5643693187957351e-06 0.2900874051408871 2.6835641014755778e-06 -0.18435141577477104 0.25429682676838983 2.1252234695814177e-06 -0.13426344634700263 0.29028886853266295 2.9054588180563568e-06 -1.421179447250084e-05 0.29081537011697667 -4.5955293072006201e-05 -0.13520564436793492 0.29028886853266295 2.9054588180563568e-06 -1.421179447250084e-05 0.29081537011697667 -4.5955293072006201e-05 -0.13520564436793492 0.25422119162358192 8.5860252362174934e-05 -9.5643693187957351e-06 0.29038351172145754 -8.5903177726537623e-05 -1.2306076728890794e-05 0.24004589827443268 3.0152534717329139e-06 -1.4070343550669289e-05 0.29028886853266295 2.9054588180563568e-06 -1.421179447250084e-05 0.25429682676838983 2.1252234695814177e-06 -0.13426344634700263 0.25422119162358192 8.5860252362174934e-05 -9.5643693187957351e-06 0.24853394430315781 3.5627216100217688e-06 -0.28786725597775376 0.25429682676838983 2.1252234695814177e-06 -0.13426344634700263 0.2900874051408871 2.6835641014755778e-06 -0.18435141577477104 0.29081537011697667 -4.5955293072006201e-05 -0.13520564436793492 0.2900874051408871 2.6835641014755778e-06 -0.18435141577477104 0.29217246160194454 -0.00027816627908568614 -0.28721535677541282 0.24853394430315781 3.5627216100217819e-06 -0.2878672559777537 0.29081537011697667 -4.5955293072006201e-05 -0.13520564436793492 0.29181001312623756 2.4904623708009673e-06 -0.36950703046907457 0.29217246160194454 -0.00027816627908568614 -0.28721535677541282 0.24853394430315781 3.5627216100217743e-06 -0.2878672559777537 0.2900874051408871 2.6835641014755778e-06 -0.18435141577477104 0.24853394430315781 3.5627216100217688e-06 -0.28786725597775376 0.23511883987376225 8.9019485296603287e-05 -0.45577664531018341 0.20966323834299927 4.3889693536488882e-06 -0.28290363794099765 0.24471020246078615 0.00013311769401537024 -0.16918647911887921 0.29217246160194454 -0.00027816627908568614 -0.28721535677541282 0.23511883987376223 8.9019485296603206e-05 -0.45577664531018341 0.24853394430315781 3.5627216100217688e-06 -0.28786725597775376 0.24471020246078617 0.00013311769401537054 -0.1691864791188791 0.29217246160194454 -0.00027816627908568614 -0.28721535677541282 0.2096632383429993 4.3889693536482766e-06 -0.2829036379409976 0.23511883987376223 8.9019485296602989e-05 -0.45577664531018341 0.24471020246078617 0.00013311769401537035 -0.16918647911887916 0.29217246160194454 -0.00027816627908568614 -0.28721535677541282 0.26067650629063871 2.8412837132911751e-06 -0.46554826205022531 0.24853394430315784 3.5627216100217722e-06 -0.2878672559777537 0.23511883987376223 8.9019485296603233e-05 -0.45577664531018341 0.21032373417783118 3.8049865922495377e-06 -0.47609028975199219 0.24853394430315781 3.5627216100217688e-06 -0.28786725597775376 0.26067650629063865 2.8412837132912818e-06 -0.46554826205022526 0.23511883987376223 8.9019485296603233e-05 -0.45577664531018341 0.26067650629063865 2.8412837132912818e-06 -0.46554826205022526 0.29181001312623756 2.4904623708009986e-06 -0.36950703046907452 0.29217246160194454 -0.00027816627908568614 -0.28721535677541282 0.24853394430315781 3.5627216100217688e-06 -0.28786725597775376 0.29181001312623756 2.4904623708009673e-06 -0.36950703046907457 0.2934481623500666 -0.00020360844999850952 -0.47051477594644853 0.26067650629063865 2.8412837132912818e-06 -0.46554826205022526 0.29217246160194454 -0.00027816627908568614 -0.28721535677541282 0.29217246160194454 -0.00027816627908568614 -0.28721535677541282 0.2934481623500666 -0.00020360844999850952 -0.47051477594644853 0.26067650629063865 2.8412837132912818e-06 -0.46554826205022526 0.23511883987376223 8.9019485296603233e-05 -0.45577664531018341 0.29217246160194454 -0.00027816627908568614 -0.28721535677541282 0.29337874832589866 0.00011595302766298015 -0.42402290348280819 0.2934481623500666 -0.00020360844999850952 -0.47051477594644853 0.23511883987376223 8.9019485296603233e-05 -0.45577664531018341 0.29196523604694896 5.6151618045772829e-05 -0.30432130944201091 0.22956845191473188 -2.3950867204672279e-05 -0.4555125118810649 0.29196125344029472 2.6228647535376854e-05 -0.29971993477090081 0.23457874933912029 1.6621561488477589e-05 -0.19906945644038468 0.29337874832589866 0.00011595302766298008 -0.42402290348280813 0.20966323834299927 4.3889693536488882e-06 -0.28290363794099765 0.29196125344029472 2.6228647535376854e-05 -0.29971993477090081 0.22956845191473188 -2.3950867204672282e-05 -0.45551251188106495 0.29217246160194454 -0.00027816627908568614 -0.28721535677541282 0.20966323834299927 4.3889693536489424e-06 -0.2829036379409976 0.29337874832589861 0.00011595302766298007 -0.42402290348280813 0.23511883987376223 8.9019485296603233e-05 -0.45577664531018341 0.29337874832589866 0.00011595302766298008 -0.42402290348280813 0.20966323834299927 4.3889693536488882e-06 -0.28290363794099765 0.22956845191473191 -2.3950867204672262e-05 -0.45551251188106501 0.23511883987376217 8.9019485296603219e-05 -0.45577664531018341 0.29337874832589866 0.00011595302766298008 -0.42402290348280813 0.29217246160194454 -0.00027816627908568614 -0.28721535677541282 0.29196125344029472 2.6228647535376854e-05 -0.29971993477090081 0.20966323834299927 4.3889693536488882e-06 -0.28290363794099765 0.20966323834299927 4.3889693536488882e-06 -0.28290363794099765 0.29196125344029472 2.6228647535376854e-05 -0.29971993477090081 0.22956845191473188 -2.3950867204672282e-05 -0.45551251188106495 0.23457874933912029 1.6621561488477592e-05 -0.19906945644038465 0.29217246160194454 -0.00027816627908568614 -0.28721535677541282 0.29196125344029472 2.6228647535376868e-05 -0.29971993477090081 0.20966323834299927 4.3889693536487611e-06 -0.28290363794099771 0.2447102024607862 0.00013311769401537046 -0.16918647911887919 0.29196125344029472 2.6228647535376854e-05 -0.29971993477090081 0.23457874933912029 1.6621561488477589e-05 -0.19906945644038468 0.20966323834299927 4.3889693536488322e-06 -0.28290363794099777 0.2447102024607862 0.00013311769401537041 -0.16918647911887921 0.29297587267141351 0.00010459961981420371 -0.48102668286598593 0.29337874832589866 0.00011595302766298008 -0.42402290348280813 0.29196125344029472 2.6228647535376854e-05 -0.29971993477090081 0.22956845191473188 -2.3950867204672282e-05 -0.45551251188106495 0.29196523604694896 5.6151618045772829e-05 -0.30432130944201091 0.29297587267141351 0.00010459961981420371 -0.48102668286598593 0.29196125344029472 2.6228647535376854e-05 -0.29971993477090081 0.22956845191473191 -2.3950867204672255e-05 -0.45551251188106495 0.25110484442132586 0.00016234731762540032 -1.2259974719119969e-05 0.29042183612001221 1.6288075664591804e-05 -0.15875203611550162 0.29084959215544109 -4.9312221056003314e-05 -0.146717777512123 0.23457874933912029 1.6621561488477589e-05 -0.19906945644038468 0.29084959215544109 -4.9312221056003314e-05 -0.146717777512123 0.25346347982346179 0.00016188311467864216 -1.0804778439657977e-05 0.23457874933912026 1.6621561488477592e-05 -0.19906945644038471 0.2447102024607862 0.00013311769401537046 -0.16918647911887919 0.29084959215544109 -4.9312221056003314e-05 -0.146717777512123 0.23457874933912029 1.6621561488477555e-05 -0.19906945644038468 0.29196125344029472 2.6228647535376854e-05 -0.29971993477090081 0.2447102024607862 0.00013311769401537046 -0.16918647911887919 0.29084959215544109 -4.9312221056003314e-05 -0.146717777512123 0.29042183612001216 1.628807566459178e-05 -0.15875203611550157 0.29196125344029472 2.6228647535376854e-05 -0.29971993477090081 0.23457874933912026 1.6621561488477575e-05 -0.19906945644038471 0.2198972055582529 5.1328905488608655e-05 -9.0521243181807183e-06 0.23457874933912029 1.6621561488477592e-05 -0.19906945644038468 0.25346347982346173 0.00016188311467864216 -1.0804778439612527e-05 0.2447102024607862 0.00013311769401537046 -0.16918647911887919 0.2198972055582529 5.1328905488608655e-05 -9.0521243181807183e-06 0.20966323834299927 4.3889693536488915e-06 -0.28290363794099765 0.23457874933912026 1.6621561488477538e-05 -0.19906945644038468 0.2447102024607862 0.00013311769401537046 -0.16918647911887919 0.29217246160194454 -0.00027816627908568614 -0.28721535677541282 0.29084959215544109 -4.9312221056003314e-05 -0.146717777512123 0.29196125344029472 2.6228647535376854e-05 -0.29971993477090081 0.2447102024607862 0.00013311769401537046 -0.16918647911887919 0.2198972055582529 5.1328905488608655e-05 -9.0521243181807183e-06 0.20508027900039505 -4.457491199200934e-05 -1.1181837462442238e-05 0.25110484442132586 0.00016234731762540032 -1.2259974719127252e-05 0.23457874933912029 1.6621561488477589e-05 -0.19906945644038468 0.25110484442132586 0.00016234731762540032 -1.2259974719119969e-05 0.29084959215544109 -4.9312221056003328e-05 -0.146717777512123 0.25346347982346179 0.00016188311467864219 -1.0804778439603903e-05 0.23457874933912029 1.6621561488477589e-05 -0.19906945644038468 0.2198972055582529 5.1328905488608655e-05 -9.0521243181807183e-06 0.25110484442132586 0.00016234731762540032 -1.2259974719121203e-05 0.25346347982346179 0.00016188311467864219 -1.0804778439600261e-05 0.23457874933912029 1.6621561488477589e-05 -0.19906945644038468 0.21397941582843613 0.00017400601116711607 -1.3762496072876463e-05 0.2198972055582529 5.1328905488608655e-05 -9.0521243181807183e-06 0.25346347982346179 0.00016188311467864219 -1.0804778439612493e-05 0.24471020246078617 0.00013311769401537043 -0.16918647911887921 0.29084959215544109 -4.9312221056003314e-05 -0.146717777512123 0.25346347982346179 0.00016188311467864213 -1.080477843958726e-05 0.29038351172145754 -8.5903177726537623e-05 -1.2306076728892302e-05 0.28977656275945041 -3.2329032033871183e-05 -1.3778282484375351e-05 0.29084959215544109 -4.9312221056003314e-05 -0.146717777512123 0.24471020246078623 0.00013311769401537046 -0.16918647911887919 0.29038351172145754 -8.5903177726537623e-05 -1.2306076728890794e-05 0.25346347982346179 0.00016188311467864213 -1.0804778439628707e-05 0.25110484442132586 0.00016234731762540032 -1.2259974719119969e-05 0.25346347982346179 0.00016188311467864219 -1.0804778439603903e-05 0.29084959215544109 -4.9312221056003314e-05 -0.146717777512123 0.28977656275945041 -3.2329032033871183e-05 -1.3778282484375351e-05 0.28977656275945041 -3.2329032033871183e-05 -1.3778282484375351e-05 0.29084959215544109 -4.9312221056003314e-05 -0.146717777512123 0.25110484442132586 0.00016234731762540032 -1.2259974719119969e-05 0.29042183612001221 1.6288075664591777e-05 -0.15875203611550162 0.28965752201475442 0.00011657733780295499 -1.6699259073175429e-05 0.28977656275945041 -3.232903203387119e-05 -1.3778282484375351e-05 0.25110484442132586 0.00016234731762540032 -1.2259974719119969e-05 0.29042183612001221 1.6288075664591777e-05 -0.15875203611550162 0.24247560417096642 -3.0652062817214982e-05 -1.4933224791445472e-05 0.2543263333026729 -5.1356447164445589e-05 -1.0488243032447139e-05 0.29112360945211579 2.9167517013769643e-05 -0.15620266728050231 0.21042615358623484 -2.5906821090245602e-05 -0.2856447793583769 0.24247560417096642 -3.0652062817214982e-05 -1.4933224791445472e-05 0.28965752201475437 0.0001165773378029549 -1.669925907321916e-05 0.25110484442132586 0.00016234731762540029 -1.225997471912836e-05 0.29042183612001221 1.6288075664591777e-05 -0.15875203611550162 0.28965752201475442 0.00011657733780295499 -1.6699259073175429e-05 0.24247560417096642 -3.0652062817214982e-05 -1.4933224791445472e-05 0.29112360945211579 2.916751701376966e-05 -0.15620266728050231 0.29042183612001221 1.6288075664591777e-05 -0.15875203611550162 0.24247560417096642 -3.0652062817214982e-05 -1.4933224791445472e-05 0.21042615358623484 -2.5906821090245619e-05 -0.28564477935837695 0.29112360945211579 2.9167517013769647e-05 -0.15620266728050228 0.23457874933912029 1.6621561488477599e-05 -0.19906945644038468 0.25110484442132586 0.00016234731762540032 -1.2259974719119969e-05 0.20508027900039505 -4.4574911992009327e-05 -1.1181837462447136e-05 0.24247560417096642 -3.0652062817214982e-05 -1.4933224791445472e-05 0.23457874933912029 1.6621561488477589e-05 -0.19906945644038468 0.25110484442132586 0.00016234731762540032 -1.2259974719119969e-05 0.24247560417096642 -3.0652062817214982e-05 -1.4933224791445472e-05 0.29042183612001227 1.628807566459176e-05 -0.15875203611550162 0.23457874933912029 1.6621561488477589e-05 -0.19906945644038468 0.24247560417096642 -3.0652062817214982e-05 -1.4933224791445472e-05 0.29112360945211579 2.9167517013769637e-05 -0.15620266728050225 0.29042183612001221 1.6288075664591777e-05 -0.15875203611550162 0.23457874933912029 1.6621561488477589e-05 -0.19906945644038468 0.29112360945211579 2.916751701376966e-05 -0.15620266728050231 0.29196523604694896 5.6151618045772829e-05 -0.30432130944201091 0.29042183612001221 1.628807566459178e-05 -0.15875203611550162 0.23457874933912029 1.6621561488477585e-05 -0.19906945644038471 0.29112360945211579 2.916751701376966e-05 -0.15620266728050231 0.24247560417096642 -3.0652062817214887e-05 -1.49332247914475e-05 0.28965752201475442 0.00011657733780295499 -1.6699259073175429e-05 0.29020430543891962 0.00027610497182536058 -1.4309915147352228e-05 0.29112360945211579 2.916751701376966e-05 -0.15620266728050231 0.24247560417096642 -3.0652062817215077e-05 -1.4933224791487952e-05 0.29020430543891962 0.00027610497182536058 -1.4309915147352228e-05 0.2543263333026729 -5.1356447164445589e-05 -1.0488243032447139e-05 0.29020430543891962 0.00027610497182536058 -1.4309915147352228e-05 0.29157998675925623 0.00024453153839482019 -0.13541449480540976 0.29112360945211579 2.9167517013769674e-05 -0.15620266728050231 0.2543263333026729 -5.1356447164445589e-05 -1.0488243032447139e-05 0.24926976424250327 -2.9242268312759209e-06 -0.27514581197715965 0.25481732401782647 -2.1030006565091742e-06 -0.13430437722334954 0.20886915641854287 -3.8315919158399427e-06 -0.15681054867797134 0.21042615358623484 -2.5906821090245609e-05 -0.28564477935837695 0.24247560417096642 -3.0652062817214982e-05 -1.4933224791445472e-05 0.21092733681588882 -5.2195758990726955e-05 -1.2914202201605296e-05 0.2543263333026729 -5.1356447164445589e-05 -1.0488243032447139e-05 0.21042615358623484 -2.5906821090245612e-05 -0.2856447793583769 0.29186938539795587 0.00028449358424443091 -0.29218124794906375 0.29112360945211579 2.916751701376966e-05 -0.15620266728050231 0.29157998675925623 0.00024453153839482019 -0.13541449480540976 0.21042615358623484 -2.5906821090245612e-05 -0.28564477935837695 0.29157998675925623 0.00024453153839482019 -0.13541449480540976 0.29112360945211579 2.9167517013769664e-05 -0.15620266728050231 0.2543263333026729 -5.1356447164445548e-05 -1.0488243032465656e-05 0.21042615358623484 -2.5906821090245761e-05 -0.28564477935837684 0.29157998675925623 0.00024453153839482019 -0.13541449480540976 0.25481732401782653 -2.1030006565091471e-06 -0.13430437722334956 0.24926976424250327 -2.9242268312760297e-06 -0.27514581197715959 0.21042615358623487 -2.5906821090245494e-05 -0.28564477935837707 0.29157998675925623 0.00024453153839482019 -0.13541449480540976 0.2543263333026729 -5.1356447164445596e-05 -1.0488243032450876e-05 0.25481732401782647 -2.1030006565091742e-06 -0.13430437722334954 0.21042615358623487 -2.5906821090245585e-05 -0.2856447793583769 0.21092733681588882 -5.2195758990726955e-05 -1.2914202201610333e-05 0.25481732401782647 -2.1030006565091734e-06 -0.13430437722334954 0.2543263333026729 -5.1356447164445589e-05 -1.0488243032447139e-05 0.21042615358623484 -2.5906821090245606e-05 -0.28564477935837695 0.25481732401782647 -2.1030006565091742e-06 -0.13430437722334954 0.24926976424250327 -2.9242268312759209e-06 -0.27514581197715965 0.2904681633916123 -2.6008817428323213e-06 -0.18427586336079005 0.29157998675925623 0.00024453153839482019 -0.13541449480540976 0.24926976424250327 -2.9242268312759209e-06 -0.27514581197715965 0.29186938539795587 0.00028449358424443091 -0.29218124794906375 0.2904681633916123 -2.6008817428323213e-06 -0.18427586336079005 0.29157998675925623 0.00024453153839482019 -0.13541449480540976 0.2543263333026729 -5.1356447164445589e-05 -1.0488243032447139e-05 0.29066861921946513 -2.8913717782959705e-06 -1.3553245588800349e-05 0.25481732401782647 -2.1030006565091742e-06 -0.13430437722334954 0.24024041611251482 -3.1499984918899754e-06 -1.2981170868760865e-05 0.25481732401782647 -2.1030006565091742e-06 -0.13430437722334954 0.2904681633916123 -2.6008817428323213e-06 -0.18427586336079005 0.29066861921946507 -2.8913717782959502e-06 -1.3553245588787288e-05 0.29157998675925623 0.00024453153839482019 -0.13541449480540976 0.29066861921946513 -2.8913717782959705e-06 -1.3553245588800349e-05 0.29157998675925623 0.00024453153839482019 -0.13541449480540976 0.29020430543891956 0.00027610497182536058 -1.430991514734127e-05 0.2543263333026729 -5.1356447164445589e-05 -1.0488243032447139e-05 0.29157998675925623 0.00024453153839482019 -0.13541449480540976 0.29066861921946507 -2.8913717782960142e-06 -1.3553245588789302e-05 0.25481732401782647 -2.1030006565091742e-06 -0.13430437722334954 0.2543263333026729 -5.1356447164445589e-05 -1.0488243032447139e-05 0.20886915641854287 -3.8315919158399427e-06 -0.15681054867797134 0.21092733681588882 -5.2195758990726955e-05 -1.2914202201610333e-05 0.25481732401782647 -2.103000656509167e-06 -0.13430437722334954 0.24024041611251482 -3.1499984918899754e-06 -1.2981170868760865e-05 0.2543263333026729 -5.1356447164445589e-05 -1.0488243032447139e-05 0.25481732401782647 -2.1030006565091742e-06 -0.13430437722334954 0.21092733681588882 -5.2195758990726962e-05 -1.2914202201615766e-05 0.24024041611251482 -3.1499984918899754e-06 -1.2981170868760865e-05 0.20886915641854287 -3.8315919158399427e-06 -0.15681054867797134 0.2104261535862349 -2.5906821090245626e-05 -0.28564477935837695 0.21092733681588879 -5.2195758990726955e-05 -1.2914202201588745e-05 0.15523474403945889 -3.8961167365694818e-06 -0.20335778406386651 0.20886915641854287 -3.8315919158399427e-06 -0.15681054867797134 0.25481732401782647 -2.1030006565091734e-06 -0.13430437722334954 0.21092733681588882 -5.2195758990726955e-05 -1.291420220160607e-05 0.21042615358623484 -2.5906821090245609e-05 -0.28564477935837701 0.21092733681588882 -5.2195758990726955e-05 -1.2914202201610333e-05 0.20886915641854287 -3.831591915839936e-06 -0.15681054867797131 0.18401062673937871 -3.1989122120035574e-06 -1.483615571740981e-05 0.24024041611251482 -3.1499984918899754e-06 -1.2981170868760865e-05 0.1526838186478027 -3.330415632910426e-06 -0.11910352956445641 0.12428810156412735 -3.7288641638176076e-06 -1.7826828992679416e-05 0.15748847631725554 4.5715219787366738e-05 -1.2764139190774112e-05 0.18401062673937871 -3.1989122120035574e-06 -1.483615571740981e-05 0.15748847631725554 4.5715219787366738e-05 -1.2764139190774112e-05 0.21092733681588882 -5.2195758990726955e-05 -1.2914202201610333e-05 0.20886915641854287 -3.8315919158399427e-06 -0.15681054867797134 0.18401062673937871 -3.1989122120035574e-06 -1.483615571740981e-05 0.20886915641854287 -3.8315919158399427e-06 -0.15681054867797134 0.1526838186478027 -3.330415632910426e-06 -0.11910352956445641 0.15748847631725554 4.5715219787366738e-05 -1.2764139190774112e-05 0.18401062673937871 -3.1989122120035574e-06 -1.483615571740981e-05 0.1480079098391841 -4.088400799496815e-06 -0.28547446071010341 0.20886915641854287 -3.8315919158399427e-06 -0.15681054867797137 0.1526838186478027 -3.330415632910426e-06 -0.11910352956445641 0.15523474403945892 -3.8961167365694954e-06 -0.20335778406386654 0.1526838186478027 -3.330415632910426e-06 -0.11910352956445641 0.20886915641854287 -3.8315919158399419e-06 -0.15681054867797134 0.15748847631725554 4.5715219787366738e-05 -1.2764139190774112e-05 0.15523474403945892 -3.8961167365694954e-06 -0.20335778406386654 0.15748847631725554 4.5715219787366738e-05 -1.2764139190774112e-05 0.20886915641854287 -3.8315919158399334e-06 -0.15681054867797131 0.21092733681588882 -5.2195758990726955e-05 -1.2914202201610333e-05 0.15523474403945892 -3.896116736569514e-06 -0.20335778406386656 0.18717552270248827 -6.459502683206218e-05 -1.2005756087514227e-05 0.15748847631725554 4.5715219787366738e-05 -1.2764139190774112e-05 0.21092733681588882 -5.2195758990726955e-05 -1.2914202201610333e-05 0.15523474403945892 -3.8961167365694954e-06 -0.20335778406386654 0.18717552270248827 -6.459502683206218e-05 -1.2005756087514227e-05 0.21042615358623487 -2.5906821090245616e-05 -0.2856447793583769 0.24247560417096642 -3.0652062817214982e-05 -1.4933224791445472e-05 0.23457874933912029 1.6621561488477589e-05 -0.19906945644038468 0.18717552270248827 -6.459502683206218e-05 -1.2005756087514227e-05 0.21092733681588882 -5.2195758990726955e-05 -1.2914202201610333e-05 0.21042615358623482 -2.5906821090245609e-05 -0.28564477935837695 0.15523474403945892 -3.8961167365694954e-06 -0.20335778406386654 0.24247560417096642 -3.0652062817214982e-05 -1.4933224791445472e-05 0.18717552270248827 -6.459502683206218e-05 -1.20057560875243e-05 0.21092733681588882 -5.2195758990726955e-05 -1.2914202201610333e-05 0.21042615358623484 -2.5906821090245616e-05 -0.2856447793583769 0.18717552270248827 -6.459502683206218e-05 -1.2005756087514227e-05 0.14199687937308383 4.085555391837259e-05 -1.115484675564043e-05 0.15748847631725554 4.5715219787366738e-05 -1.2764139190767195e-05 0.15523474403945892 -3.8961167365694954e-06 -0.20335778406386654 0.14199687937308383 4.085555391837259e-05 -1.115484675564043e-05 0.18717552270248827 -6.459502683206218e-05 -1.2005756087514227e-05 0.15516829270117027 -4.5705238616901944e-06 -0.22463898780758818 0.15523474403945892 -3.8961167365694954e-06 -0.20335778406386654 0.23457874933912029 1.6621561488477589e-05 -0.19906945644038468 0.1871755227024883 -6.459502683206218e-05 -1.2005756087522773e-05 0.15516829270117027 -4.5705238616901944e-06 -0.22463898780758818 0.20508027900039505 -4.4574911992009334e-05 -1.1181837462447322e-05 0.21042615358623484 -2.5906821090245612e-05 -0.28564477935837695 0.15516829270117027 -4.5705238616901944e-06 -0.22463898780758818 0.18717552270248827 -6.4595026832062167e-05 -1.2005756087530561e-05 0.15523474403945894 -3.8961167365695106e-06 -0.20335778406386654 0.23457874933912029 1.6621561488477589e-05 -0.19906945644038468 0.15516829270117027 -4.5705238616901944e-06 -0.22463898780758818 0.18717552270248827 -6.459502683206218e-05 -1.2005756087506041e-05 0.21042615358623484 -2.5906821090245609e-05 -0.28564477935837695 0.1605528880873392 -1.7838723525886648e-05 -1.4130933446757607e-05 0.18717552270248827 -6.459502683206218e-05 -1.2005756087512663e-05 0.20508027900039505 -4.4574911992009334e-05 -1.1181837462448886e-05 0.15516829270117027 -4.5705238616901944e-06 -0.22463898780758818 0.14199687937308383 4.085555391837259e-05 -1.115484675564043e-05 0.18717552270248827 -6.459502683206218e-05 -1.2005756087514227e-05 0.1605528880873392 -1.7838723525886648e-05 -1.4130933446757607e-05 0.15516829270117027 -4.5705238616901944e-06 -0.22463898780758818 0.18717552270248827 -6.459502683206218e-05 -1.2005756087514227e-05 0.24247560417096642 -3.0652062817214982e-05 -1.4933224791445472e-05 0.20508027900039505 -4.4574911992009334e-05 -1.1181837462465005e-05 0.23457874933912029 1.6621561488477589e-05 -0.19906945644038468 0.21042615358623484 -2.5906821090245612e-05 -0.28564477935837695 0.22956845191473188 -2.3950867204672282e-05 -0.45551251188106495 0.15648823449068505 1.1485802091001743e-05 -0.45009529148230581 0.15702982159805168 -1.5978354502824558e-05 -0.47604145504505074 0.22956845191473188 -2.3950867204672282e-05 -0.45551251188106495 0.15702982159805168 -1.5978354502824565e-05 -0.4760414550450508 0.21042615358623482 -2.5906821090245582e-05 -0.2856447793583769 0.23688162491897508 7.4893324653535788e-05 -0.45768717686625598 0.15648823449068505 1.1485802091001754e-05 -0.45009529148230576 0.22956845191473188 -2.3950867204672282e-05 -0.45551251188106495 0.21042615358623482 -2.5906821090245609e-05 -0.2856447793583769 0.15516829270117025 -4.5705238616901986e-06 -0.22463898780758809 0.21042615358623484 -2.5906821090245612e-05 -0.28564477935837695 0.15516829270117025 -4.5705238616901986e-06 -0.22463898780758818 0.22956845191473188 -2.3950867204672282e-05 -0.45551251188106495 0.23457874933912029 1.6621561488477589e-05 -0.19906945644038468 0.15702982159805168 -1.5978354502824565e-05 -0.4760414550450508 0.15516829270117025 -4.57052386169018e-06 -0.2246389878075882 0.21042615358623479 -2.5906821090245602e-05 -0.28564477935837695 0.15523474403945892 -3.896116736569492e-06 -0.20335778406386654 0.15648823449068505 1.1485802091001754e-05 -0.45009529148230576 0.21042615358623482 -2.5906821090245606e-05 -0.28564477935837695 0.15702982159805168 -1.5978354502824565e-05 -0.4760414550450508 0.15516829270117025 -4.5705238616901969e-06 -0.22463898780758812 0.24926976424250327 -2.9242268312759209e-06 -0.27514581197715965 0.21042615358623484 -2.5906821090245609e-05 -0.28564477935837695 0.2049853749133792 -3.4423613913701272e-06 -0.35016570557011051 0.23688162491897505 7.4893324653535815e-05 -0.45768717686625604 0.20886915641854287 -3.8315919158399427e-06 -0.15681054867797134 0.2049853749133792 -3.4423613913701272e-06 -0.35016570557011051 0.24926976424250327 -2.9242268312759209e-06 -0.27514581197715965 0.21042615358623484 -2.5906821090245612e-05 -0.28564477935837695 0.2049853749133792 -3.4423613913701272e-06 -0.35016570557011051 0.1480079098391841 -4.088400799496815e-06 -0.28547446071010341 0.15702982159805171 -1.5978354502824562e-05 -0.4760414550450508 0.15523474403945892 -3.8961167365694979e-06 -0.20335778406386662 0.21278466579746103 -2.6925629867042444e-06 -0.49327106694682216 0.2049853749133792 -3.4423613913701289e-06 -0.35016570557011051 0.15702982159805168 -1.5978354502824562e-05 -0.4760414550450508 0.23688162491897505 7.4893324653535815e-05 -0.45768717686625598 0.20886915641854287 -3.8315919158399427e-06 -0.15681054867797134 0.2049853749133792 -3.4423613913701264e-06 -0.35016570557011051 0.21042615358623487 -2.5906821090245619e-05 -0.28564477935837695 0.15523474403945889 -3.8961167365694827e-06 -0.20335778406386654 0.2049853749133792 -3.4423613913701272e-06 -0.35016570557011051 0.15702982159805168 -1.5978354502824558e-05 -0.47604145504505074 0.2104261535862349 -2.5906821090245623e-05 -0.2856447793583769 0.15523474403945892 -3.8961167365695013e-06 -0.20335778406386659 0.21042615358623484 -2.5906821090245612e-05 -0.28564477935837695 0.15702982159805168 -1.5978354502824565e-05 -0.4760414550450508 0.2049853749133792 -3.4423613913701272e-06 -0.35016570557011051 0.23688162491897505 7.4893324653535815e-05 -0.45768717686625604 0.20886915641854287 -3.8315919158399427e-06 -0.15681054867797134 0.1480079098391841 -4.088400799496815e-06 -0.28547446071010341 0.2049853749133792 -3.4423613913701272e-06 -0.35016570557011051 0.15523474403945894 -3.8961167365694962e-06 -0.20335778406386656 0.15593571666925557 -3.5271839579874753e-06 -0.43241455626897712 0.2049853749133792 -3.4423613913701272e-06 -0.35016570557011051 0.1480079098391841 -4.088400799496815e-06 -0.28547446071010341 0.15702982159805168 -1.5978354502824565e-05 -0.4760414550450508 0.15593571666925557 -3.5271839579874753e-06 -0.43241455626897712 0.21278466579746103 -2.6925629867042444e-06 -0.49327106694682216 0.2049853749133792 -3.4423613913701272e-06 -0.35016570557011051 0.15702982159805168 -1.5978354502824565e-05 -0.4760414550450508 0.2049853749133792 -3.4423613913701272e-06 -0.35016570557011051 0.212784665797461 -2.6925629867042499e-06 -0.4932710669468221 0.25215752541197645 -2.882429929993785e-06 -0.45031289502980076 0.23688162491897505 7.4893324653535815e-05 -0.45768717686625604 0.29186938539795587 0.00028449358424443091 -0.29218124794906375 0.21042615358623484 -2.5906821090245612e-05 -0.28564477935837695 0.24926976424250327 -2.9242268312759243e-06 -0.27514581197715965 0.23688162491897505 7.4893324653535815e-05 -0.45768717686625604 0.29186938539795587 0.00028449358424443091 -0.29218124794906375 0.29157998675925623 0.00024453153839482019 -0.13541449480540976 0.24926976424250327 -2.9242268312759209e-06 -0.27514581197715965 0.21042615358623484 -2.5906821090245612e-05 -0.28564477935837695 0.25215752541197645 -2.8824299299937824e-06 -0.45031289502980076 0.24926976424250327 -2.9242268312759209e-06 -0.27514581197715965 0.2049853749133792 -3.4423613913701247e-06 -0.35016570557011051 0.23688162491897502 7.4893324653535801e-05 -0.45768717686625598 0.25215752541197645 -2.8824299299937824e-06 -0.45031289502980076 0.29186938539795587 0.00028449358424443091 -0.29218124794906375 0.24926976424250327 -2.9242268312759209e-06 -0.27514581197715965 0.23688162491897508 7.4893324653535855e-05 -0.45768717686625604 0.24926976424250327 -2.9242268312759209e-06 -0.27514581197715965 0.2521575254119765 -2.8824299299937536e-06 -0.45031289502980087 0.29164300471010662 -3.0769737175291485e-06 -0.36948136172149632 0.29186938539795587 0.00028449358424443091 -0.29218124794906375 0.25215752541197645 -2.8824299299937824e-06 -0.45031289502980076 0.29357337012145318 0.00011067198682289782 -0.47202884921289068 0.29467197423222363 -3.4797287115221229e-06 -0.55593651113273901 0.29164300471010668 -3.0769737175291201e-06 -0.36948136172149637 0.29164300471010668 -3.0769737175291201e-06 -0.36948136172149637 0.25215752541197645 -2.8824299299937752e-06 -0.45031289502980076 0.29357337012145329 0.00011067198682289784 -0.47202884921289068 0.29186938539795587 0.00028449358424443091 -0.29218124794906375 0.29186938539795587 0.00028449358424443091 -0.29218124794906375 0.29164300471010662 -3.0769737175290985e-06 -0.36948136172149637 0.24926976424250327 -2.9242268312759209e-06 -0.27514581197715965 0.2904681633916123 -2.6008817428323213e-06 -0.18427586336079005 0.29354181765199971 -5.2857251296159133e-05 -0.42407256941344224 0.29186938539795587 0.00028449358424443091 -0.29218124794906375 0.29357337012145324 0.0001106719868228978 -0.47202884921289068 0.23688162491897505 7.4893324653535815e-05 -0.45768717686625604 0.25215752541197645 -2.8824299299937824e-06 -0.45031289502980076 0.29357337012145329 0.00011067198682289776 -0.47202884921289079 0.29186938539795587 0.00028449358424443091 -0.29218124794906375 0.23688162491897502 7.4893324653535855e-05 -0.45768717686625593 0.29196523604694896 5.6151618045772829e-05 -0.30432130944201091 0.21042615358623484 -2.5906821090245623e-05 -0.28564477935837701 0.22956845191473188 -2.3950867204672262e-05 -0.4555125118810649 0.23457874933912029 1.6621561488477589e-05 -0.19906945644038468 0.29196523604694896 5.6151618045772829e-05 -0.30432130944201091 0.29186938539795587 0.00028449358424443091 -0.29218124794906375 0.29354181765199971 -5.2857251296159133e-05 -0.42407256941344224 0.21042615358623484 -2.5906821090245612e-05 -0.28564477935837695 0.29354181765199971 -5.2857251296159133e-05 -0.42407256941344224 0.22956845191473188 -2.3950867204672218e-05 -0.45551251188106506 0.21042615358623487 -2.5906821090245643e-05 -0.2856447793583769 0.23688162491897502 7.4893324653535842e-05 -0.45768717686625604 0.29112360945211579 2.916751701376966e-05 -0.15620266728050231 0.29186938539795587 0.00028449358424443091 -0.29218124794906375 0.29196523604694896 5.6151618045772829e-05 -0.30432130944201091 0.21042615358623484 -2.5906821090245612e-05 -0.28564477935837695 0.29354181765199971 -5.2857251296159133e-05 -0.42407256941344224 0.21042615358623484 -2.590682109024566e-05 -0.28564477935837695 0.29186938539795587 0.00028449358424443091 -0.29218124794906375 0.23688162491897508 7.4893324653535855e-05 -0.4576871768662561 0.29112360945211579 2.916751701376966e-05 -0.15620266728050231 0.21042615358623484 -2.5906821090245616e-05 -0.2856447793583769 0.29196523604694896 5.6151618045772829e-05 -0.30432130944201091 0.23457874933912029 1.6621561488477596e-05 -0.19906945644038462 0.29196523604694896 5.6151618045772829e-05 -0.30432130944201091 0.21042615358623484 -2.5906821090245606e-05 -0.28564477935837695 0.29354181765199971 -5.2857251296159133e-05 -0.42407256941344224 0.22956845191473191 -2.3950867204672279e-05 -0.4555125118810649 0.29196125344029472 2.6228647535376854e-05 -0.29971993477090081 0.29042183612001221 1.6288075664591777e-05 -0.15875203611550162 0.29196523604694896 5.6151618045772829e-05 -0.30432130944201091 0.23457874933912029 1.6621561488477589e-05 -0.19906945644038468 0.29196523604694896 5.6151618045772829e-05 -0.30432130944201091 0.29354181765199971 -5.2857251296159133e-05 -0.42407256941344224 0.29297587267141351 0.00010459961981420371 -0.48102668286598593 0.22956845191473191 -2.3950867204672225e-05 -0.45551251188106495 0.29612511087665622 1.8624241329948123e-06 -0.55603098928807326 0.22956845191473188 -2.3950867204672282e-05 -0.45551251188106495 0.2148857437077229 1.5461711653406953e-05 -0.6263046885971677 0.24399003248260184 -4.7524927116081248e-05 -0.71583228164415591 0.29612511087665622 1.8624241329948123e-06 -0.55603098928807326 0.29962108643550323 -0.00016689384313011503 -0.6753944631316845 0.2148857437077229 1.5461711653407045e-05 -0.6263046885971677 0.25490959561260401 -2.9987714389661958e-05 -0.75044172575571833 0.29612511087665622 1.8624241329948123e-06 -0.55603098928807326 0.29687433361657928 5.9665942671391046e-05 -0.62435956232009893 0.29297587267141351 0.00010459961981420371 -0.48102668286598593 0.22956845191473188 -2.3950867204672282e-05 -0.45551251188106495 0.29612511087665622 1.8624241329948123e-06 -0.55603098928807326 0.22956845191473188 -2.3950867204672272e-05 -0.45551251188106495 0.29354181765199971 -5.2857251296159133e-05 -0.42407256941344224 0.23688162491897502 7.4893324653535815e-05 -0.45768717686625598 0.2148857437077229 1.5461711653406953e-05 -0.6263046885971677 0.23688162491897508 7.4893324653535801e-05 -0.45768717686625604 0.29612511087665616 1.862424132994818e-06 -0.55603098928807326 0.25490959561260401 -2.9987714389662047e-05 -0.75044172575571844 0.29612511087665622 1.8624241329948123e-06 -0.55603098928807326 0.2148857437077229 1.5461711653406953e-05 -0.6263046885971677 0.22956845191473191 -2.3950867204672272e-05 -0.45551251188106501 0.23688162491897502 7.4893324653535815e-05 -0.45768717686625598 0.29687433361657928 5.9665942671391046e-05 -0.62435956232009893 0.22956845191473185 -2.3950867204672299e-05 -0.45551251188106495 0.29612511087665622 1.8624241329948123e-06 -0.55603098928807326 0.24399003248260182 -4.7524927116081254e-05 -0.71583228164415591 0.29962108643550323 -0.00016689384313011503 -0.6753944631316845 0.29612511087665622 1.8624241329948123e-06 -0.55603098928807326 0.21488574370772287 1.5461711653406801e-05 -0.6263046885971677 0.24399003248260184 -4.7524927116081071e-05 -0.7158322816441558 0.29612511087665622 1.8624241329948123e-06 -0.55603098928807326 0.29297587267141351 0.00010459961981420371 -0.48102668286598593 0.29354181765199971 -5.2857251296159133e-05 -0.42407256941344224 0.22956845191473188 -2.3950867204672282e-05 -0.45551251188106495 0.29962108643550323 -0.00016689384313011503 -0.6753944631316845 0.29687433361657928 5.9665942671391039e-05 -0.62435956232009893 0.29612511087665622 1.8624241329948123e-06 -0.55603098928807326 0.24399003248260184 -4.7524927116081248e-05 -0.71583228164415591 0.29612511087665622 1.8624241329948123e-06 -0.55603098928807326 0.29849367488798439 0.00018361593706334411 -0.65500511985208643 0.29962108643550323 -0.00016689384313011503 -0.6753944631316845 0.25490959561260401 -2.9987714389662047e-05 -0.75044172575571844 0.29612511087665622 1.8624241329948123e-06 -0.55603098928807326 0.29354181765199971 -5.2857251296159133e-05 -0.42407256941344224 0.29357337012145324 0.0001106719868228978 -0.47202884921289068 0.23688162491897505 7.4893324653535815e-05 -0.45768717686625604 0.29357337012145324 0.0001106719868228978 -0.47202884921289068 0.25085109760754881 -3.1264762808879201e-06 -0.63336627775096632 0.29849367488798439 0.00018361593706334411 -0.65500511985208643 0.23688162491897505 7.4893324653535842e-05 -0.45768717686625604 0.25085109760754881 -3.1264762808879137e-06 -0.63336627775096632 0.23688162491897499 7.4893324653535801e-05 -0.4576871768662561 0.21488574370772293 1.5461711653406973e-05 -0.6263046885971677 0.25490959561260401 -2.9987714389662047e-05 -0.75044172575571844 0.25085109760754881 -3.1264762808879137e-06 -0.63336627775096632 0.29849367488798439 0.00018361593706334411 -0.65500511985208643 0.23688162491897505 7.4893324653535774e-05 -0.45768717686625604 0.25490959561260401 -2.9987714389662047e-05 -0.75044172575571844 0.29849367488798439 0.00018361593706334411 -0.65500511985208643 0.29612511087665622 1.8624241329948163e-06 -0.55603098928807326 0.23688162491897505 7.4893324653535815e-05 -0.45768717686625604 0.25490959561260401 -2.9987714389662047e-05 -0.75044172575571844 0.29357337012145324 0.0001106719868228978 -0.47202884921289068 0.29849367488798439 0.00018361593706334411 -0.65500511985208643 0.29612511087665622 1.8624241329948123e-06 -0.55603098928807326 0.23688162491897505 7.4893324653535815e-05 -0.45768717686625604 0.29849367488798439 0.00018361593706334411 -0.65500511985208643 0.25085109760754881 -3.1264762808879137e-06 -0.63336627775096632 0.29467197423222363 -3.4797287115221229e-06 -0.55593651113273901 0.30062016592701546 -2.8453276871202874e-06 -0.74384269538345993 0.25085109760754881 -3.1264762808879137e-06 -0.63336627775096632 0.29467197423222363 -3.4797287115221229e-06 -0.55593651113273901 0.29357337012145324 0.0001106719868228978 -0.47202884921289068 0.29849367488798439 0.00018361593706334411 -0.65500511985208643 0.29357337012145324 0.0001106719868228978 -0.47202884921289068 0.29467197423222358 -3.4797287115221157e-06 -0.5559365111327389 0.25085109760754881 -3.1264762808879137e-06 -0.63336627775096632 0.25215752541197639 -2.882429929993807e-06 -0.45031289502980065 0.25085109760754881 -3.1264762808879137e-06 -0.63336627775096632 0.25215752541197645 -2.8824299299937824e-06 -0.45031289502980076 0.21278466579746103 -2.6925629867042444e-06 -0.49327106694682216 0.23688162491897505 7.4893324653535815e-05 -0.45768717686625604 0.25085109760754881 -3.1264762808879137e-06 -0.63336627775096632 0.29357337012145324 0.0001106719868228978 -0.47202884921289068 0.25215752541197645 -2.8824299299937824e-06 -0.45031289502980076 0.23688162491897505 7.4893324653535815e-05 -0.45768717686625604 0.21278466579746103 -2.6925629867042444e-06 -0.49327106694682216 0.18925122693783097 -3.9748246206822067e-06 -0.61170145252308061 0.2148857437077229 1.546171165340696e-05 -0.6263046885971677 0.15702982159805171 -1.5978354502824555e-05 -0.47604145504505085 0.18925122693783097 -3.9748246206822075e-06 -0.61170145252308061 0.25085109760754881 -3.1264762808879137e-06 -0.63336627775096632 0.21278466579746103 -2.6925629867042444e-06 -0.49327106694682216 0.2148857437077229 1.5461711653406953e-05 -0.6263046885971677 0.25085109760754881 -3.1264762808879137e-06 -0.63336627775096632 0.21278466579746103 -2.6925629867042444e-06 -0.49327106694682216 0.21488574370772293 1.5461711653407007e-05 -0.6263046885971677 0.23688162491897502 7.4893324653535788e-05 -0.45768717686625604 0.22140834690839289 -3.0812345109487966e-06 -0.76726894868006301 0.21488574370772293 1.5461711653406994e-05 -0.6263046885971677 0.189251226937831 -3.9748246206822024e-06 -0.61170145252308072 0.16187144950099894 -0.00010214751615341189 -0.7028463760640119 0.2148857437077229 1.5461711653406953e-05 -0.6263046885971677 0.212784665797461 -2.6925629867042804e-06 -0.49327106694682221 0.15702982159805165 -1.5978354502824568e-05 -0.47604145504505074 0.23688162491897505 7.4893324653535815e-05 -0.45768717686625604 0.2148857437077229 1.5461711653406953e-05 -0.6263046885971677 0.15702982159805165 -1.5978354502824572e-05 -0.47604145504505074 0.18925122693783097 -3.9748246206822262e-06 -0.61170145252308061 0.16187144950099894 -0.00010214751615341189 -0.7028463760640119 0.18925122693783097 -3.9748246206822075e-06 -0.61170145252308061 0.25085109760754881 -3.1264762808879137e-06 -0.63336627775096632 0.2148857437077229 1.5461711653406953e-05 -0.6263046885971677 0.25490959561260401 -2.9987714389662047e-05 -0.75044172575571844 0.21278466579746103 -2.6925629867042444e-06 -0.49327106694682216 0.15593571666925557 -3.5271839579874753e-06 -0.43241455626897712 0.18925122693783097 -3.9748246206822075e-06 -0.61170145252308061 0.15702982159805168 -1.5978354502824562e-05 -0.4760414550450508 0.15648823449068505 1.1485802091001754e-05 -0.45009529148230576 0.2148857437077229 1.5461711653406946e-05 -0.62630468859716759 0.15997455423597445 1.5797378274604008e-05 -0.67571606631202696 0.15702982159805168 -1.5978354502824565e-05 -0.4760414550450508 0.2148857437077229 1.5461711653406953e-05 -0.6263046885971677 0.15648823449068508 1.1485802091001735e-05 -0.45009529148230576 0.22956845191473188 -2.3950867204672302e-05 -0.4555125118810649 0.15702982159805165 -1.5978354502824616e-05 -0.47604145504505063 0.2148857437077229 1.5461711653406953e-05 -0.6263046885971677 0.22956845191473188 -2.3950867204672289e-05 -0.45551251188106495 0.15648823449068505 1.1485802091001754e-05 -0.45009529148230576 0.15997455423597448 1.5797378274604008e-05 -0.67571606631202696 0.22956845191473188 -2.3950867204672282e-05 -0.45551251188106495 0.15997455423597448 1.5797378274604008e-05 -0.67571606631202685 0.2148857437077229 1.5461711653406953e-05 -0.6263046885971677 0.24399003248260184 -4.7524927116081248e-05 -0.71583228164415591 0.15997455423597445 1.5797378274604014e-05 -0.67571606631202685 0.15702982159805168 -1.5978354502824565e-05 -0.4760414550450508 0.2148857437077229 1.5461711653406953e-05 -0.6263046885971677 0.16187144950099894 -0.00010214751615341189 -0.7028463760640119 0.2148857437077229 1.5461711653406953e-05 -0.6263046885971677 0.15702982159805165 -1.5978354502824579e-05 -0.47604145504505074 0.22956845191473188 -2.3950867204672275e-05 -0.45551251188106495 0.23688162491897505 7.4893324653535815e-05 -0.45768717686625604 0.15556957535862798 0.00015562679719168397 -0.89824314928445803 0.15997455423597445 1.5797378274604014e-05 -0.67571606631202685 0.20040779204343559 5.064685557227109e-06 -0.90689857642260241 0.16187144950099894 -0.00010214751615341189 -0.7028463760640119 0.20040779204343559 5.064685557227109e-06 -0.90689857642260241 0.21488574370772287 1.5461711653406987e-05 -0.6263046885971677 0.23793545138489314 2.9310588256167121e-05 -0.91492788671918257 0.25490959561260401 -2.9987714389662047e-05 -0.75044172575571844 0.20040779204343559 5.064685557227109e-06 -0.90689857642260241 0.2148857437077229 1.5461711653406953e-05 -0.6263046885971677 0.15997455423597445 1.5797378274604014e-05 -0.67571606631202674 0.24399003248260184 -4.7524927116081248e-05 -0.71583228164415591 0.20040779204343559 5.064685557227109e-06 -0.90689857642260241 0.16187144950099894 -0.00010214751615341189 -0.7028463760640119 0.2148857437077229 1.5461711653406909e-05 -0.6263046885971677 0.25490959561260401 -2.9987714389662047e-05 -0.75044172575571844 0.20040779204343559 5.064685557227109e-06 -0.90689857642260241 0.15997455423597448 1.5797378274604065e-05 -0.67571606631202685 0.21488574370772293 1.5461711653406977e-05 -0.6263046885971677 0.16187144950099894 -0.00010214751615341189 -0.7028463760640119 0.20040779204343559 5.064685557227109e-06 -0.90689857642260241 0.23793545138489317 2.9310588256167155e-05 -0.91492788671918246 0.2148857437077229 1.5461711653406953e-05 -0.6263046885971677 0.24399003248260184 -4.7524927116081248e-05 -0.71583228164415591 0.20040779204343559 5.064685557227109e-06 -0.90689857642260241 0.15997455423597448 1.5797378274604001e-05 -0.67571606631202685 0.22276120927615189 1.4607744447423273e-05 -0.91098445247308191 0.24399003248260184 -4.7524927116081248e-05 -0.71583228164415591 0.23212065066793641 -0.00025775875793719057 -0.91320075453820537 0.20040779204343559 5.064685557227109e-06 -0.90689857642260241 0.23793545138489314 2.9310588256167118e-05 -0.91492788671918246 0.25490959561260401 -2.9987714389661999e-05 -0.75044172575571844 0.20040779204343559 5.064685557227109e-06 -0.90689857642260241 0.22276120927615192 1.460774444742327e-05 -0.91098445247308191 0.23793545138489314 2.9310588256167118e-05 -0.91492788671918246 0.24399003248260184 -4.7524927116081248e-05 -0.71583228164415591 0.15556957535862798 0.00015562679719168397 -0.89824314928445803 0.17607678832714663 5.40207722700409e-05 -0.90200225571865145 0.20040779204343559 5.0646855572271124e-06 -0.90689857642260241 0.15997455423597445 1.5797378274604014e-05 -0.67571606631202685 0.22276120927615192 1.460774444742327e-05 -0.91098445247308191 0.20040779204343559 5.0646855572271209e-06 -0.90689857642260241 0.17607678832714663 5.4020772270040879e-05 -0.90200225571865145 0.15997455423597445 1.5797378274604014e-05 -0.67571606631202685 0.20040779204343559 5.064685557227109e-06 -0.90689857642260241 0.17254570702908012 9.8733246131490967e-05 -0.9013702231298073 0.15556957535862798 0.00015562679719168397 -0.89824314928445803 0.16187144950099894 -0.00010214751615341189 -0.7028463760640119 0.17254570702908012 9.8733246131490953e-05 -0.9013702231298073 0.23212065066793641 -0.00025775875793719057 -0.91320075453820537 0.22140834690839287 -3.0812345109488131e-06 -0.76726894868006301 0.16187144950099891 -0.00010214751615341185 -0.70284637606401179 0.2148857437077229 1.5461711653406953e-05 -0.6263046885971677 0.16187144950099894 -0.00010214751615341189 -0.7028463760640119 0.22140834690839289 -3.0812345109487966e-06 -0.76726894868006301 0.25490959561260401 -2.9987714389662047e-05 -0.75044172575571844 0.23212065066793641 -0.00025775875793719057 -0.91320075453820537 0.22140834690839289 -3.0812345109488208e-06 -0.76726894868006301 0.16187144950099894 -0.00010214751615341188 -0.7028463760640119 0.25490959561260401 -2.9987714389661992e-05 -0.75044172575571844 0.23212065066793641 -0.00025775875793719057 -0.91320075453820537 0.16187144950099894 -0.00010214751615341186 -0.7028463760640119 0.20040779204343559 5.064685557227109e-06 -0.90689857642260241 0.25490959561260401 -2.9987714389661958e-05 -0.75044172575571844 0.23212065066793641 -0.00025775875793719057 -0.91320075453820537 0.17254570702908012 9.8733246131490953e-05 -0.9013702231298073 0.20040779204343559 5.064685557227109e-06 -0.90689857642260241 0.16187144950099897 -0.00010214751615341182 -0.70284637606401201 0.18925122693783097 -3.9748246206822075e-06 -0.61170145252308061 0.21488574370772287 1.5461711653407085e-05 -0.62630468859716781 0.22140834690839289 -3.0812345109487966e-06 -0.76726894868006301 0.25490959561260401 -2.9987714389662047e-05 -0.75044172575571844 0.22140834690839289 -3.0812345109487966e-06 -0.76726894868006301 0.18925122693783097 -3.9748246206822143e-06 -0.61170145252308061 0.16176862682876816 -3.6212891672340531e-06 -0.74512825136082028 0.16187144950099894 -0.00010214751615341189 -0.7028463760640119 0.22140834690839289 -3.0812345109487966e-06 -0.76726894868006301 0.16176862682876816 -3.6212891672340531e-06 -0.74512825136082028 0.17254570702908012 9.8733246131490953e-05 -0.9013702231298073 0.16187144950099894 -0.00010214751615341189 -0.7028463760640119 0.20104018079840427 -3.807514327578764e-06 -0.90640092568449226 0.16176862682876816 -3.6212891672340531e-06 -0.74512825136082028 0.17254570702908012 9.8733246131490953e-05 -0.9013702231298073 0.22140834690839289 -3.0812345109487966e-06 -0.76726894868006301 0.17254570702908012 9.8733246131490953e-05 -0.9013702231298073 0.13696591226384849 -4.2051122297807611e-06 -0.89518466113799078 0.16176862682876819 -3.6212891672340612e-06 -0.74512825136082028 0.20104018079840427 -3.807514327578764e-06 -0.90640092568449226 0.17254570702908012 9.8733246131490953e-05 -0.9013702231298073 0.23212065066793641 -0.00025775875793719057 -0.91320075453820537 0.20104018079840424 -3.807514327578745e-06 -0.90640092568449215 0.22140834690839289 -3.0812345109487966e-06 -0.76726894868006301 0.23212065066793641 -0.00025775875793719057 -0.91320075453820537 0.20104018079840424 -3.8075143275787721e-06 -0.90640092568449226 0.22140834690839289 -3.0812345109487966e-06 -0.76726894868006301 0.25996506768627992 -2.9218851069607322e-06 -0.92089823812339544 0.18925122693783097 -3.9748246206822075e-06 -0.61170145252308061 0.22140834690839289 -3.0812345109487953e-06 -0.76726894868006301 0.25085109760754881 -3.1264762808879137e-06 -0.63336627775096632 0.25490959561260401 -2.9987714389662047e-05 -0.75044172575571844 0.23212065066793641 -0.00025775875793719057 -0.91320075453820537 0.27388354029830175 -0.0001061524605703865 -0.92406739037815355 0.22140834690839287 -3.0812345109487649e-06 -0.76726894868006301 0.25490959561260401 -2.998771438966204e-05 -0.75044172575571855 0.27388354029830175 -0.00010615246057038649 -0.92406739037815355 0.23212065066793641 -0.00025775875793719057 -0.91320075453820537 0.27284009756595412 -0.00014388011886379702 -0.92369180481861179 0.25490959561260401 -2.9987714389662047e-05 -0.75044172575571844 0.29849367488798439 0.00018361593706334411 -0.65500511985208643 0.25085109760754887 -3.1264762808879273e-06 -0.63336627775096643 0.26625343276678076 -2.3021220776931435e-06 -0.78784873466552019 0.25490959561260396 -2.9987714389662094e-05 -0.75044172575571844 0.22140834690839289 -3.0812345109487966e-06 -0.76726894868006301 0.26625343276678076 -2.3021220776931286e-06 -0.78784873466552019 0.25085109760754881 -3.1264762808879133e-06 -0.63336627775096632 0.25490959561260401 -2.9987714389662047e-05 -0.75044172575571844 0.26625343276678076 -2.3021220776931308e-06 -0.78784873466552019 0.22140834690839289 -3.0812345109487975e-06 -0.76726894868006301 0.27388354029830175 -0.00010615246057038649 -0.92406739037815355 0.25490959561260401 -2.9987714389662047e-05 -0.75044172575571844 0.25996506768627992 -2.9218851069607322e-06 -0.92089823812339544 0.22140834690839287 -3.0812345109488004e-06 -0.7672689486800629 0.23212065066793641 -0.00025775875793719057 -0.91320075453820537 0.27388354029830175 -0.00010615246057038649 -0.92406739037815355 0.25996506768627992 -2.9218851069607322e-06 -0.92089823812339544 0.26625343276678076 -2.3021220776931252e-06 -0.7878487346655203 0.22140834690839289 -3.0812345109488009e-06 -0.76726894868006301 0.27388354029830175 -0.00010615246057038649 -0.92406739037815355 0.31111495238108272 -2.9257175700133168e-06 -0.93399720141267906 0.30359264088137666 0.0001533252746570155 -0.79455745826054791 0.26625343276678076 -2.3021220776931371e-06 -0.78784873466552019 0.27388354029830175 -0.00010615246057038649 -0.92406739037815355 0.25996506768627992 -2.9218851069607322e-06 -0.92089823812339544 0.31111495238108272 -2.9257175700133173e-06 -0.93399720141267906 0.26625343276678076 -2.3021220776931308e-06 -0.78784873466552019 0.27388354029830175 -0.00010615246057038649 -0.92406739037815355 0.27388354029830175 -0.00010615246057038649 -0.92406739037815355 0.31111495238108272 -2.9257175700133168e-06 -0.93399720141267906 0.30359264088137672 0.0001533252746570155 -0.79455745826054791 0.31086752150637986 4.2119398512202893e-05 -0.93274901896081353 0.26625343276678076 -2.3021220776931308e-06 -0.78784873466552019 0.30359264088137677 0.0001533252746570155 -0.79455745826054791 0.31111495238108272 -2.9257175700133168e-06 -0.93399720141267906 0.30062016592701546 -2.8453276871202874e-06 -0.74384269538345993 0.26625343276678076 -2.3021220776931308e-06 -0.78784873466552019 0.25085109760754881 -3.1264762808879162e-06 -0.63336627775096632 0.29849367488798439 0.00018361593706334406 -0.65500511985208654 0.30062016592701546 -2.8453276871202874e-06 -0.74384269538345993 0.29849367488798439 0.00018361593706334411 -0.65500511985208643 0.30359264088137672 0.0001533252746570155 -0.79455745826054791 0.26625343276678076 -2.3021220776931308e-06 -0.78784873466552019 0.30062016592701546 -2.8453276871202874e-06 -0.74384269538345993 0.30359264088137672 0.0001533252746570155 -0.79455745826054791 0.30365836036725724 6.7827263893798496e-05 -0.79231582720907989 0.29849367488798439 0.00018361593706334411 -0.65500511985208643 0.25490959561260401 -2.9987714389662047e-05 -0.75044172575571844 0.29849367488798439 0.00018361593706334411 -0.65500511985208643 0.26625343276678076 -2.3021220776931308e-06 -0.78784873466552019 0.30359264088137672 0.0001533252746570155 -0.79455745826054791 0.25490959561260401 -2.9987714389662047e-05 -0.75044172575571844 0.27388354029830175 -0.00010615246057038649 -0.92406739037815355 0.27284009756595412 -0.00014388011886379702 -0.92369180481861168 0.31086752150637986 4.2119398512202893e-05 -0.93274901896081353 0.25490959561260401 -2.9987714389662047e-05 -0.75044172575571844 0.30359264088137672 0.0001533252746570155 -0.79455745826054791 0.27388354029830175 -0.00010615246057038653 -0.92406739037815355 0.31086752150637986 4.2119398512202893e-05 -0.93274901896081353 0.25490959561260401 -2.9987714389662047e-05 -0.75044172575571844 0.30359264088137672 0.0001533252746570155 -0.79455745826054791 0.31086752150637986 4.2119398512202893e-05 -0.93274901896081353 0.30365836036725724 6.7827263893798496e-05 -0.79231582720907989 0.25490959561260401 -2.9987714389662047e-05 -0.75044172575571844 0.26625343276678076 -2.3021220776931308e-06 -0.78784873466552019 0.27388354029830175 -0.00010615246057038649 -0.92406739037815355 0.30359264088137672 0.0001533252746570155 -0.79455745826054791 0.25490959561260407 -2.9987714389662026e-05 -0.75044172575571855 0.31086752150637986 4.2119398512202893e-05 -0.93274901896081353 0.30365836036725724 6.7827263893798482e-05 -0.79231582720908 0.27284009756595418 -0.00014388011886379702 -0.92369180481861179 0.31037057795013784 0.00010649630369978183 -0.93302037630238566 0.31086752150637986 4.2119398512202893e-05 -0.93274901896081353 0.27284009756595412 -0.00014388011886379704 -0.92369180481861179 0.30365836036725724 6.7827263893798496e-05 -0.79231582720907989 0.25490959561260401 -2.998771438966203e-05 -0.75044172575571844 0.30365836036725724 6.7827263893798496e-05 -0.79231582720907989 0.27284009756595412 -0.00014388011886379704 -0.92369180481861179 0.24399003248260184 -4.7524927116081268e-05 -0.71583228164415591 0.25490959561260407 -2.9987714389662019e-05 -0.75044172575571855 0.2148857437077229 1.5461711653406953e-05 -0.6263046885971677 0.24399003248260184 -4.7524927116081241e-05 -0.71583228164415591 0.23793545138489314 2.9310588256167148e-05 -0.91492788671918257 0.25490959561260401 -2.9987714389662047e-05 -0.75044172575571844 0.29962108643550323 -0.00016689384313011503 -0.6753944631316845 0.30365836036725724 6.7827263893798496e-05 -0.79231582720907989 0.24399003248260184 -4.7524927116081166e-05 -0.71583228164415591 0.25490959561260396 -2.9987714389662084e-05 -0.75044172575571833 0.27284009756595412 -0.00014388011886379702 -0.92369180481861179 0.23793545138489314 2.9310588256167118e-05 -0.91492788671918246 0.24399003248260184 -4.7524927116081248e-05 -0.71583228164415591 0.25490959561260401 -2.9987714389662084e-05 -0.75044172575571833 0.29962108643550323 -0.00016689384313011503 -0.6753944631316845 0.24399003248260187 -4.7524927116081275e-05 -0.71583228164415591 0.21488574370772287 1.5461711653406943e-05 -0.6263046885971677 0.25490959561260396 -2.9987714389662013e-05 -0.75044172575571855 0.27284009756595412 -0.00014388011886379702 -0.92369180481861179 0.30365836036725724 6.7827263893798455e-05 -0.79231582720907989 0.3027708074464604 -3.7729550628028534e-06 -0.78362047760849773 0.31037057795013784 0.00010649630369978183 -0.93302037630238566 0.23793545138489314 2.9310588256167118e-05 -0.91492788671918246 0.27284009756595407 -0.00014388011886379702 -0.92369180481861191 0.23212065066793641 -0.00025775875793719057 -0.91320075453820537 0.25490959561260401 -2.9987714389662047e-05 -0.75044172575571844 0.29849367488798439 0.00018361593706334411 -0.65500511985208643 0.30365836036725724 6.7827263893798496e-05 -0.79231582720907989 0.29962108643550323 -0.00016689384313011503 -0.6753944631316845 0.25490959561260401 -2.9987714389662047e-05 -0.75044172575571844 0.27284009756595412 -0.00014388011886379702 -0.92369180481861179 0.30277080744646045 -3.7729550628029258e-06 -0.78362047760849785 0.30365836036725724 6.7827263893798496e-05 -0.79231582720907989 0.24399003248260184 -4.7524927116081248e-05 -0.71583228164415591 0.30365836036725724 6.7827263893798496e-05 -0.79231582720907989 0.3027708074464604 -3.7729550628028944e-06 -0.78362047760849773 0.29962108643550323 -0.00016689384313011503 -0.6753944631316845 0.24399003248260184 -4.7524927116081248e-05 -0.71583228164415591 0.29962108643550323 -0.00016689384313011503 -0.6753944631316845 0.3027708074464604 -3.7729550628028627e-06 -0.78362047760849773 0.29687433361657928 5.9665942671391046e-05 -0.62435956232009893 0.24399003248260184 -4.7524927116081248e-05 -0.71583228164415591 0.23793545138489314 2.9310588256167118e-05 -0.91492788671918246 0.22276120927615192 1.460774444742327e-05 -0.91098445247308191 0.2705579669947496 2.5077042012233716e-05 -0.92347811432540483 0.24399003248260184 -4.7524927116081248e-05 -0.71583228164415591 0.2705579669947496 2.5077042012233719e-05 -0.92347811432540494 0.27284009756595412 -0.00014388011886379702 -0.92369180481861179 0.23793545138489314 2.9310588256167118e-05 -0.91492788671918246 0.24399003248260184 -4.7524927116081248e-05 -0.71583228164415591 0.2705579669947496 2.5077042012233719e-05 -0.92347811432540494 0.3027708074464604 -3.7729550628028534e-06 -0.78362047760849773 0.27284009756595412 -0.00014388011886379702 -0.92369180481861179 0.24399003248260184 -4.7524927116081248e-05 -0.71583228164415591 0.31037057795013784 0.00010649630369978183 -0.93302037630238566 0.3027708074464604 -3.7729550628028534e-06 -0.78362047760849773 0.2705579669947496 2.5077042012233719e-05 -0.92347811432540494 0.31064470888465884 2.5725175409133472e-05 -0.93289740601516813 0.3027708074464604 -3.7729550628028534e-06 -0.78362047760849773 0.2705579669947496 2.5077042012233753e-05 -0.92347811432540494 0.27284009756595412 -0.00014388011886379704 -0.92369180481861179 0.31037057795013784 0.00010649630369978183 -0.93302037630238566 0.26067714851661133 7.8641159882254403e-05 -0.92012686678940003 0.2439900324826019 -4.7524927116080976e-05 -0.7158322816441558 0.21479578558488724 -9.1699008131787213e-05 -0.62513370124831336 0.24390968455736348 0.0001009161211606682 -0.74914007707469699 0.26067714851661133 7.8641159882254403e-05 -0.92012686678940003 0.30185591311136833 6.2812170480370429e-05 -0.75170839461512517 0.24399003248260184 -4.7524927116081248e-05 -0.71583228164415591 0.24390968455736348 0.0001009161211606682 -0.74914007707469699 0.31064470888465884 2.5725175409133472e-05 -0.93289740601516813 0.3027708074464604 -3.7729550628028534e-06 -0.78362047760849773 0.2705579669947496 2.5077042012233719e-05 -0.92347811432540494 0.30185591311136833 6.2812170480370415e-05 -0.75170839461512517 0.21479578558488727 -9.1699008131786928e-05 -0.62513370124831313 0.24399003248260184 -4.7524927116081234e-05 -0.71583228164415602 0.30185591311136833 6.281217048037047e-05 -0.75170839461512529 0.24390968455736348 0.00010091612116066826 -0.74914007707469699 0.2705579669947496 2.5077042012233719e-05 -0.92347811432540494 0.31064470888465884 2.5725175409133462e-05 -0.93289740601516824 0.30185591311136833 6.2812170480370415e-05 -0.75170839461512517 0.26067714851661133 7.8641159882254403e-05 -0.92012686678940003 0.31064470888465884 2.5725175409133472e-05 -0.93289740601516813 0.30185591311136833 6.2812170480370415e-05 -0.75170839461512517 0.26067714851661133 7.8641159882254403e-05 -0.92012686678940003 0.31073046378208341 -6.837655856531001e-05 -0.93300245680911553 0.2705579669947496 2.5077042012233719e-05 -0.92347811432540494 0.22276120927615192 1.460774444742327e-05 -0.91098445247308191 0.26067714851661133 7.8641159882254403e-05 -0.92012686678940003 0.24399003248260184 -4.7524927116081248e-05 -0.71583228164415591 0.2705579669947496 2.5077042012233719e-05 -0.92347811432540494 0.26067714851661133 7.8641159882254403e-05 -0.92012686678940003 0.30185591311136833 6.2812170480370415e-05 -0.75170839461512517 0.24399003248260184 -4.7524927116081248e-05 -0.71583228164415591 0.30185591311136833 6.2812170480370415e-05 -0.75170839461512517 0.29687433361657922 5.9665942671391052e-05 -0.62435956232009882 0.3027708074464604 -3.7729550628028534e-06 -0.78362047760849773 0.24399003248260184 -4.7524927116081248e-05 -0.71583228164415591 0.30185591311136833 6.2812170480370415e-05 -0.75170839461512517 0.3027708074464604 -3.7729550628028534e-06 -0.78362047760849773 0.2705579669947496 2.5077042012233726e-05 -0.92347811432540494 0.24399003248260184 -4.7524927116081248e-05 -0.71583228164415591 0.29592166290554028 0.00010970243709276454 -0.5660713337115838 0.24399003248260184 -4.7524927116081261e-05 -0.7158322816441558 0.22956845191473188 -2.3950867204672279e-05 -0.45551251188106495 0.29687433361657928 5.9665942671391046e-05 -0.62435956232009893 0.29592166290554028 0.00010970243709276454 -0.5660713337115838 0.22956845191473188 -2.3950867204672262e-05 -0.4555125118810649 0.21479578558488727 -9.1699008131786915e-05 -0.62513370124831302 0.2351188398737622 8.9019485296603219e-05 -0.45577664531018336 0.29592166290554028 0.00010970243709276454 -0.5660713337115838 0.21479578558488727 -9.1699008131786874e-05 -0.62513370124831313 0.29861383535380881 -0.00032111136607942969 -0.64372475881932023 0.2351188398737622 8.9019485296603233e-05 -0.45577664531018336 0.30185591311136833 6.2812170480370415e-05 -0.75170839461512517 0.29592166290554028 0.00010970243709276458 -0.56607133371158369 0.21479578558488729 -9.1699008131786793e-05 -0.62513370124831313 0.24390968455736348 0.0001009161211606682 -0.74914007707469699 0.29592166290554028 0.00010970243709276454 -0.5660713337115838 0.29337874832589866 0.00011595302766298008 -0.42402290348280813 0.22956845191473188 -2.3950867204672282e-05 -0.45551251188106495 0.23511883987376217 8.9019485296603219e-05 -0.4557766453101833 0.22956845191473188 -2.3950867204672282e-05 -0.45551251188106495 0.24399003248260184 -4.7524927116081254e-05 -0.71583228164415591 0.29592166290554028 0.00010970243709276453 -0.5660713337115838 0.21479578558488727 -9.1699008131786928e-05 -0.62513370124831313 0.30185591311136833 6.2812170480370415e-05 -0.75170839461512517 0.21479578558488727 -9.1699008131786928e-05 -0.62513370124831313 0.29592166290554028 0.00010970243709276454 -0.56607133371158391 0.24399003248260184 -4.7524927116081248e-05 -0.71583228164415591 0.29687433361657928 5.9665942671391046e-05 -0.62435956232009893 0.30185591311136833 6.2812170480370415e-05 -0.75170839461512529 0.29592166290554028 0.00010970243709276454 -0.5660713337115838 0.24399003248260182 -4.7524927116081268e-05 -0.7158322816441558 0.29592166290554028 0.00010970243709276454 -0.5660713337115838 0.29297587267141351 0.00010459961981420371 -0.48102668286598593 0.29687433361657928 5.9665942671391046e-05 -0.62435956232009893 0.22956845191473188 -2.3950867204672282e-05 -0.45551251188106495 0.29592166290554028 0.00010970243709276454 -0.5660713337115838 0.29337874832589866 0.00011595302766298008 -0.42402290348280813 0.29297587267141351 0.00010459961981420371 -0.48102668286598588 0.22956845191473188 -2.3950867204672282e-05 -0.45551251188106495 0.29592166290554028 0.00010970243709276454 -0.5660713337115838 0.2934481623500666 -0.00020360844999850952 -0.47051477594644847 0.29337874832589866 0.00011595302766298008 -0.42402290348280813 0.23511883987376223 8.9019485296603273e-05 -0.45577664531018341 0.29861383535380881 -0.00032111136607942969 -0.64372475881932023 0.23511883987376223 8.9019485296603233e-05 -0.45577664531018341 0.21479578558488727 -9.1699008131787538e-05 -0.62513370124831324 0.24390968455736348 0.0001009161211606682 -0.74914007707469699 0.21479578558488727 -9.1699008131786928e-05 -0.62513370124831313 0.2351188398737622 8.9019485296603165e-05 -0.45577664531018341 0.25054178980768266 3.0632429296863918e-06 -0.62867260141677217 0.24390968455736353 0.00010091612116066862 -0.7491400770746971 0.29861383535380881 -0.00032111136607942969 -0.64372475881932023 0.21479578558488724 -9.1699008131788785e-05 -0.62513370124831302 0.29592166290554028 0.00010970243709276454 -0.5660713337115838 0.24390968455736348 0.0001009161211606682 -0.74914007707469699 0.30185591311136833 6.2812170480370415e-05 -0.75170839461512517 0.29861383535380881 -0.00032111136607942969 -0.64372475881932023 0.29592166290554028 0.00010970243709276454 -0.5660713337115838 0.24390968455736348 0.0001009161211606682 -0.74914007707469699 0.29861383535380881 -0.00032111136607942969 -0.64372475881932023 0.25054178980768266 3.063242929686025e-06 -0.62867260141677217 0.23511883987376223 8.9019485296603233e-05 -0.45577664531018341 0.24390968455736348 0.0001009161211606682 -0.74914007707469699 0.2934481623500666 -0.00020360844999850952 -0.47051477594644853 0.29592166290554028 0.00010970243709276454 -0.5660713337115838 0.29861383535380881 -0.00032111136607942969 -0.64372475881932023 0.23511883987376223 8.9019485296603233e-05 -0.45577664531018341 0.29861383535380881 -0.00032111136607942969 -0.64372475881932023 0.26067650629063865 2.8412837132913017e-06 -0.46554826205022526 0.2934481623500666 -0.00020360844999850952 -0.47051477594644853 0.23511883987376223 8.9019485296603233e-05 -0.45577664531018341 0.29515979940155906 2.7570137712655987e-06 -0.55634764375925461 0.2934481623500666 -0.00020360844999850952 -0.47051477594644853 0.29861383535380881 -0.00032111136607942969 -0.64372475881932023 0.26067650629063865 2.8412837132912818e-06 -0.46554826205022526 0.26067650629063865 2.8412837132912818e-06 -0.46554826205022526 0.29515979940155906 2.7570137712656017e-06 -0.55634764375925461 0.2934481623500666 -0.00020360844999850952 -0.47051477594644853 0.29181001312623756 2.4904623708009673e-06 -0.36950703046907457 0.29861383535380881 -0.00032111136607942969 -0.64372475881932023 0.25054178980768266 3.0632429296859509e-06 -0.62867260141677217 0.29515979940155906 2.7570137712655987e-06 -0.55634764375925461 0.2606765062906386 2.8412837132912094e-06 -0.46554826205022509 0.26067650629063865 2.8412837132912818e-06 -0.46554826205022526 0.25054178980768266 3.0632429296860017e-06 -0.62867260141677217 0.21032373417783118 3.8049865922495377e-06 -0.47609028975199219 0.23511883987376223 8.9019485296603233e-05 -0.45577664531018341 0.25054178980768266 3.0632429296860005e-06 -0.62867260141677217 0.26067650629063865 2.8412837132912818e-06 -0.46554826205022526 0.29861383535380881 -0.00032111136607942964 -0.64372475881932023 0.23511883987376223 8.9019485296603233e-05 -0.45577664531018341 0.29861383535380881 -0.00032111136607942969 -0.64372475881932023 0.25054178980768271 3.0632429296860034e-06 -0.62867260141677228 0.30088710752526066 3.0415632939165171e-06 -0.74368221845719784 0.29515979940155906 2.7570137712655987e-06 -0.55634764375925461 0.30088710752526066 3.0415632939165171e-06 -0.74368221845719784 0.26644056571323232 2.2937320549286503e-06 -0.78766793579200645 0.25054178980768266 3.0632429296860005e-06 -0.62867260141677217 0.29861383535380881 -0.00032111136607942969 -0.64372475881932023 0.26644056571323232 2.2937320549286257e-06 -0.78766793579200645 0.29861383535380875 -0.00032111136607942969 -0.64372475881932023 0.30363375639403428 -0.00023372694790518739 -0.79435389951764623 0.24390968455736348 0.00010091612116066827 -0.74914007707469699 0.26644056571323232 2.2937320549286257e-06 -0.78766793579200645 0.30088710752526066 3.0415632939165171e-06 -0.74368221845719784 0.30363375639403423 -0.00023372694790518739 -0.79435389951764612 0.29861383535380881 -0.00032111136607942964 -0.64372475881932045 0.27363129215960852 5.4421249299123228e-05 -0.92426298441870192 0.31089929213887424 2.8363951526393005e-06 -0.93365960001758941 0.31073046378208341 -6.837655856531001e-05 -0.93300245680911553 0.30363375639403428 -0.00023372694790518739 -0.79435389951764623 0.27363129215960852 5.4421249299123228e-05 -0.92426298441870192 0.25933607847920953 3.0257364775723924e-06 -0.92036367078221371 0.31089929213887424 2.8363951526393318e-06 -0.93365960001758941 0.26644056571323232 2.2937320549286257e-06 -0.78766793579200645 0.30088710752526066 3.0415632939165171e-06 -0.74368221845719784 0.30363375639403428 -0.00023372694790518739 -0.79435389951764623 0.31089929213887424 2.8363951526393318e-06 -0.93365960001758941 0.26644056571323232 2.2937320549286257e-06 -0.78766793579200645 0.30363375639403428 -0.00023372694790518739 -0.79435389951764623 0.27363129215960857 5.4421249299123249e-05 -0.92426298441870192 0.31089929213887424 2.8363951526393318e-06 -0.93365960001758941 0.26644056571323232 2.2937320549286257e-06 -0.78766793579200645 0.27363129215960852 5.4421249299123228e-05 -0.92426298441870192 0.31073046378208341 -6.837655856531001e-05 -0.93300245680911553 0.30185591311136833 6.2812170480370375e-05 -0.75170839461512517 0.30363375639403428 -0.00023372694790518739 -0.79435389951764623 0.31073046378208341 -6.837655856531001e-05 -0.93300245680911553 0.30185591311136833 6.2812170480370415e-05 -0.75170839461512517 0.26067714851661128 7.864115988225443e-05 -0.92012686678939992 0.27363129215960852 5.4421249299123228e-05 -0.92426298441870192 0.27363129215960852 5.4421249299123228e-05 -0.92426298441870192 0.30363375639403428 -0.00023372694790518739 -0.79435389951764623 0.30185591311136833 6.2812170480370415e-05 -0.75170839461512517 0.24390968455736348 0.00010091612116066824 -0.74914007707469699 0.30185591311136833 6.2812170480370415e-05 -0.75170839461512517 0.30363375639403428 -0.00023372694790518739 -0.79435389951764623 0.29861383535380881 -0.00032111136607942969 -0.64372475881932023 0.24390968455736348 0.0001009161211606682 -0.74914007707469699 0.22877009900373224 0.00018436596007634037 -0.91223857077823023 0.27363129215960852 5.4421249299123228e-05 -0.92426298441870192 0.26067714851661133 7.8641159882254403e-05 -0.92012686678940003 0.24390968455736348 0.0001009161211606682 -0.74914007707469699 0.26067714851661133 7.8641159882254403e-05 -0.92012686678940003 0.27363129215960852 5.4421249299123228e-05 -0.92426298441870192 0.30185591311136833 6.2812170480370415e-05 -0.75170839461512517 0.24390968455736348 0.0001009161211606682 -0.74914007707469699 0.27363129215960852 5.4421249299123228e-05 -0.92426298441870192 0.25933607847920953 3.025736477572392e-06 -0.92036367078221371 0.26644056571323232 2.2937320549286257e-06 -0.78766793579200645 0.24390968455736348 0.0001009161211606682 -0.74914007707469699 0.22279112060377057 3.0995998875088602e-06 -0.75820816815134473 0.26644056571323232 2.2937320549286257e-06 -0.78766793579200645 0.25933607847920953 3.025736477572392e-06 -0.92036367078221371 0.24390968455736348 0.0001009161211606682 -0.74914007707469699 0.27363129215960852 5.4421249299123228e-05 -0.92426298441870192 0.22877009900373224 0.00018436596007634037 -0.91223857077823023 0.25933607847920953 3.0257364775723907e-06 -0.92036367078221371 0.24390968455736348 0.0001009161211606682 -0.74914007707469699 0.30363375639403428 -0.00023372694790518739 -0.79435389951764623 0.27363129215960857 5.4421249299123255e-05 -0.92426298441870203 0.26644056571323232 2.2937320549286791e-06 -0.78766793579200634 0.24390968455736345 0.00010091612116066823 -0.74914007707469699 0.26644056571323232 2.2937320549286257e-06 -0.78766793579200645 0.22279112060377057 3.099599887508861e-06 -0.75820816815134473 0.25054178980768266 3.0632429296860005e-06 -0.62867260141677217 0.2439096845573635 0.00010091612116066823 -0.74914007707469699 0.25054178980768266 3.0632429296860005e-06 -0.62867260141677217 0.29861383535380875 -0.00032111136607942964 -0.64372475881932023 0.26644056571323232 2.2937320549286257e-06 -0.78766793579200645 0.24390968455736348 0.0001009161211606682 -0.74914007707469699 0.22877009900373224 0.00018436596007634037 -0.91223857077823023 0.1613326801605135 4.3919353460898114e-05 -0.70103098712591128 0.2227911206037706 3.0995998875088559e-06 -0.75820816815134484 0.24390968455736348 0.0001009161211606682 -0.74914007707469699 0.22877009900373224 0.00018436596007634037 -0.91223857077823023 0.20359872763393508 2.2337837146723209e-05 -0.9075463697921593 0.1613326801605135 4.3919353460898101e-05 -0.70103098712591139 0.24390968455736348 0.0001009161211606682 -0.74914007707469699 0.25054178980768266 3.0632429296860005e-06 -0.62867260141677217 0.22279112060377057 3.0995998875088602e-06 -0.75820816815134473 0.19280279311514076 2.9841102631217762e-06 -0.61513939317039734 0.24390968455736348 0.0001009161211606682 -0.74914007707469699 0.19280279311514076 2.9841102631217762e-06 -0.61513939317039734 0.2227911206037706 3.0995998875088487e-06 -0.75820816815134473 0.1613326801605135 4.3919353460898101e-05 -0.70103098712591139 0.24390968455736348 0.0001009161211606682 -0.74914007707469699 0.22877009900373224 0.00018436596007634037 -0.91223857077823023 0.22279112060377057 3.0995998875088462e-06 -0.75820816815134473 0.25933607847920953 3.0257364775723907e-06 -0.92036367078221371 0.24390968455736348 0.0001009161211606682 -0.74914007707469699 0.16572785068098525 3.280477421480268e-06 -0.75265411880534849 0.20123679298774019 3.861889671643721e-06 -0.90690599289375329 0.22877009900373227 0.00018436596007634045 -0.91223857077823034 0.22279112060377057 3.0995998875088602e-06 -0.75820816815134473 0.22279112060377057 3.0995998875088602e-06 -0.75820816815134473 0.20123679298774017 3.8618896716437456e-06 -0.90690599289375318 0.22877009900373224 0.00018436596007634037 -0.91223857077823023 0.25933607847920953 3.0257364775723907e-06 -0.92036367078221371 0.26067714851661133 7.8641159882254403e-05 -0.92012686678940003 0.20359872763393508 2.2337837146723209e-05 -0.9075463697921593 0.22877009900373224 0.00018436596007634037 -0.91223857077823023 0.24390968455736348 0.0001009161211606682 -0.74914007707469699 0.17179958196109332 -0.00010172399445518576 -0.9009242725793305 0.22877009900373224 0.00018436596007634037 -0.91223857077823023 0.20359872763393508 2.2337837146723209e-05 -0.9075463697921593 0.1613326801605135 4.3919353460898101e-05 -0.70103098712591139 0.17179958196109332 -0.00010172399445518576 -0.9009242725793305 0.16572785068098525 3.2804774214802824e-06 -0.75265411880534849 0.22877009900373224 0.00018436596007634037 -0.91223857077823023 0.1613326801605135 4.3919353460898101e-05 -0.70103098712591139 0.20123679298774019 3.861889671643721e-06 -0.90690599289375329 0.17179958196109332 -0.00010172399445518576 -0.9009242725793305 0.13733087253939094 4.3930874068193296e-06 -0.89585268178181998 0.16572785068098525 3.280477421480268e-06 -0.75265411880534849 0.22877009900373224 0.00018436596007634037 -0.91223857077823023 0.17179958196109332 -0.00010172399445518576 -0.9009242725793305 0.20123679298774019 3.861889671643721e-06 -0.90690599289375329 0.16572785068098522 3.280477421480296e-06 -0.75265411880534838 0.22877009900373224 0.00018436596007634037 -0.91223857077823023 0.16572785068098522 3.2804774214803032e-06 -0.7526541188053486 0.22279112060377057 3.0995998875088661e-06 -0.75820816815134473 0.16133268016051347 4.3919353460898101e-05 -0.70103098712591139 0.16572785068098525 3.280477421480268e-06 -0.75265411880534849 0.19280279311514076 2.9841102631217779e-06 -0.61513939317039734 0.22279112060377057 3.099599887508861e-06 -0.75820816815134473 0.1613326801605135 4.3919353460898094e-05 -0.70103098712591139 0.19280279311514076 2.9841102631217762e-06 -0.61513939317039734 0.15666471838172485 -1.8981488813229409e-05 -0.47668736813978047 0.21479578558488729 -9.1699008131786969e-05 -0.62513370124831313 0.16133268016051347 4.3919353460898128e-05 -0.70103098712591139 0.19280279311514076 2.9841102631217762e-06 -0.61513939317039734 0.15666471838172488 -1.8981488813229467e-05 -0.47668736813978047 0.21032373417783118 3.8049865922495377e-06 -0.47609028975199219 0.23511883987376223 8.9019485296603233e-05 -0.45577664531018341 0.19280279311514076 2.9841102631217762e-06 -0.61513939317039734 0.14632831404695096 2.8856832576332438e-06 -0.61950682473392982 0.15666471838172488 -1.8981488813229429e-05 -0.47668736813978052 0.1613326801605135 4.3919353460898101e-05 -0.70103098712591139 0.14632831404695096 2.8856832576332438e-06 -0.61950682473392982 0.19280279311514076 2.9841102631217758e-06 -0.61513939317039734 0.16572785068098525 3.2804774214802663e-06 -0.75265411880534849 0.1613326801605135 4.3919353460898101e-05 -0.70103098712591139 0.19280279311514076 2.9841102631217762e-06 -0.61513939317039734 0.21479578558488724 -9.1699008131786915e-05 -0.62513370124831302 0.15666471838172488 -1.8981488813229423e-05 -0.47668736813978052 0.23511883987376223 8.9019485296603233e-05 -0.45577664531018341 0.25054178980768266 3.0632429296860005e-06 -0.62867260141677217 0.19280279311514076 2.9841102631217534e-06 -0.61513939317039734 0.21479578558488724 -9.1699008131786996e-05 -0.62513370124831302 0.24390968455736348 0.0001009161211606682 -0.74914007707469699 0.19280279311514076 2.9841102631217762e-06 -0.61513939317039734 0.1613326801605135 4.3919353460898101e-05 -0.70103098712591139 0.21479578558488727 -9.1699008131786969e-05 -0.62513370124831302 0.24390968455736348 0.0001009161211606682 -0.74914007707469699 0.25054178980768266 3.0632429296860005e-06 -0.62867260141677217 0.21479578558488727 -9.1699008131786928e-05 -0.62513370124831313 0.19280279311514076 2.9841102631217762e-06 -0.61513939317039734 0.23511883987376223 8.9019485296603151e-05 -0.45577664531018347 0.25054178980768266 3.0632429296860005e-06 -0.62867260141677217 0.19280279311514076 2.9841102631217762e-06 -0.61513939317039734 0.21032373417783115 3.8049865922495453e-06 -0.47609028975199219 0.23511883987376223 8.9019485296603233e-05 -0.45577664531018341 0.19280279311514076 2.9841102631217762e-06 -0.61513939317039734 0.14632831404695096 2.885683257633243e-06 -0.61950682473392982 0.16205669858763833 3.4995941471575744e-06 -0.45062188222028948 0.15666471838172488 -1.8981488813229429e-05 -0.47668736813978052 0.19280279311514076 2.9841102631217762e-06 -0.61513939317039734 0.16205669858763833 3.4995941471575744e-06 -0.45062188222028948 0.21032373417783118 3.8049865922495377e-06 -0.47609028975199219 0.15666471838172491 -1.8981488813229433e-05 -0.47668736813978063 0.21479578558488727 -9.1699008131786928e-05 -0.62513370124831313 0.15666471838172488 -1.8981488813229419e-05 -0.47668736813978047 0.15997455423597445 1.5797378274604014e-05 -0.67571606631202685 0.1613326801605135 4.3919353460898101e-05 -0.70103098712591139 0.21479578558488727 -9.1699008131786928e-05 -0.62513370124831313 0.15648823449068505 1.1485802091001779e-05 -0.45009529148230576 0.22956845191473185 -2.3950867204672299e-05 -0.4555125118810649 0.15997455423597445 1.5797378274604014e-05 -0.67571606631202685 0.21479578558488727 -9.1699008131786928e-05 -0.62513370124831313 0.15997455423597445 1.5797378274604014e-05 -0.67571606631202685 0.22956845191473188 -2.3950867204672282e-05 -0.45551251188106495 0.24399003248260184 -4.7524927116081248e-05 -0.71583228164415591 0.15648823449068505 1.1485802091001754e-05 -0.45009529148230576 0.21479578558488727 -9.1699008131786915e-05 -0.62513370124831302 0.22956845191473188 -2.3950867204672282e-05 -0.45551251188106495 0.15666471838172488 -1.8981488813229426e-05 -0.47668736813978052 0.22956845191473188 -2.3950867204672282e-05 -0.45551251188106495 0.15666471838172488 -1.898148881322945e-05 -0.47668736813978052 0.21479578558488727 -9.1699008131786928e-05 -0.62513370124831313 0.23511883987376228 8.9019485296603287e-05 -0.45577664531018347 0.21479578558488727 -9.1699008131786928e-05 -0.62513370124831313 0.15648823449068502 1.1485802091001764e-05 -0.45009529148230576 0.15997455423597445 1.5797378274604018e-05 -0.67571606631202685 0.15666471838172485 -1.8981488813229392e-05 -0.47668736813978047 0.24399003248260184 -4.7524927116081248e-05 -0.71583228164415591 0.20359872763393505 2.2337837146723233e-05 -0.9075463697921593 0.15997455423597443 1.5797378274604018e-05 -0.67571606631202674 0.22276120927615195 1.4607744447423255e-05 -0.91098445247308202 0.24399003248260184 -4.7524927116081248e-05 -0.71583228164415591 0.15997455423597448 1.5797378274603981e-05 -0.67571606631202685 0.20359872763393508 2.2337837146723209e-05 -0.9075463697921593 0.21479578558488724 -9.1699008131786901e-05 -0.62513370124831313 0.20359872763393508 2.2337837146723209e-05 -0.9075463697921593 0.21479578558488727 -9.1699008131786928e-05 -0.62513370124831324 0.26067714851661133 7.8641159882254403e-05 -0.92012686678940003 0.24399003248260184 -4.7524927116081261e-05 -0.71583228164415602 0.21479578558488727 -9.1699008131786928e-05 -0.62513370124831313 0.1613326801605135 4.3919353460898101e-05 -0.70103098712591139 0.20359872763393505 2.2337837146723192e-05 -0.90754636979215919 0.24390968455736345 0.00010091612116066828 -0.74914007707469688 0.21479578558488727 -9.1699008131786928e-05 -0.62513370124831313 0.15997455423597448 1.5797378274604018e-05 -0.67571606631202696 0.20359872763393508 2.233783714672324e-05 -0.90754636979215919 0.16133268016051347 4.3919353460898114e-05 -0.70103098712591139 0.26067714851661133 7.8641159882254403e-05 -0.92012686678940003 0.21479578558488724 -9.169900813178701e-05 -0.62513370124831313 0.20359872763393508 2.2337837146723209e-05 -0.9075463697921593 0.24390968455736348 0.0001009161211606682 -0.74914007707469699 0.22276120927615192 1.460774444742327e-05 -0.91098445247308191 0.20359872763393508 2.2337837146723209e-05 -0.9075463697921593 0.26067714851661133 7.8641159882254403e-05 -0.92012686678940003 0.24399003248260184 -4.7524927116081248e-05 -0.71583228164415591 0.15541579527677155 -0.00012617008507078185 -0.89821326939513613 0.20359872763393508 2.2337837146723206e-05 -0.9075463697921593 0.15997455423597445 1.5797378274604014e-05 -0.67571606631202685 0.1613326801605135 4.3919353460898101e-05 -0.70103098712591139 0.17179958196109332 -0.00010172399445518576 -0.9009242725793305 0.20359872763393511 2.2337837146723243e-05 -0.9075463697921593 0.15541579527677155 -0.00012617008507078185 -0.89821326939513613 0.1613326801605135 4.3919353460898101e-05 -0.70103098712591139 0.17607678832714663 5.4020772270040879e-05 -0.90200225571865145 0.15541579527677155 -0.00012617008507078185 -0.89821326939513613 0.20359872763393508 2.2337837146723209e-05 -0.9075463697921593 0.15997455423597445 1.5797378274604014e-05 -0.67571606631202685 0.22276120927615192 1.460774444742327e-05 -0.91098445247308191 0.17607678832714663 5.4020772270040879e-05 -0.90200225571865145 0.20359872763393508 2.2337837146723212e-05 -0.9075463697921593 0.15997455423597445 1.5797378274604014e-05 -0.67571606631202685 0.10011678377947285 7.8507069940353421e-05 -0.61093437438587617 0.071543209851669801 -3.0289929251131065e-05 -0.68998047856731559 0.11151609160644689 3.2029514899591512e-05 -0.8922556556896587 0.060862760420701108 -0.00011441865118824436 -0.72449951488418352 0.11328168172129707 -5.9532572265188008e-05 -0.89256377432769729 0.11151609160644689 3.2029514899591512e-05 -0.8922556556896587 0.17607678832714663 5.4020772270040879e-05 -0.90200225571865145 0.15997455423597445 1.5797378274604004e-05 -0.67571606631202674 0.15541579527677155 -0.00012617008507078185 -0.89821326939513613 0.10011678377947285 7.8507069940353421e-05 -0.61093437438587617 0.10681428868230307 -1.0463087278506292e-05 -0.89206722730055055 0.1613326801605135 4.3919353460898101e-05 -0.70103098712591139 0.11328168172129707 -5.9532572265188008e-05 -0.89256377432769729 0.11151609160644689 3.2029514899591512e-05 -0.8922556556896587 0.15997455423597445 1.5797378274604025e-05 -0.67571606631202674 0.071543209851669828 -3.0289929251131027e-05 -0.68998047856731559 0.15541579527677155 -0.00012617008507078185 -0.89821326939513613 0.15997455423597443 1.5797378274603991e-05 -0.67571606631202685 0.10011678377947285 7.8507069940353421e-05 -0.61093437438587617 0.1613326801605135 4.3919353460898101e-05 -0.70103098712591139 0.11151609160644689 3.2029514899591512e-05 -0.8922556556896587 0.10011678377947286 7.8507069940353407e-05 -0.61093437438587617 0.15997455423597443 1.5797378274604045e-05 -0.67571606631202674 0.071543209851669815 -3.0289929251131034e-05 -0.68998047856731559 0.15541579527677155 -0.00012617008507078185 -0.89821326939513613 0.17607678832714663 5.4020772270040879e-05 -0.90200225571865145 0.11151609160644689 3.2029514899591512e-05 -0.8922556556896587 0.15997455423597445 1.5797378274604014e-05 -0.67571606631202685 0.10681428868230307 -1.0463087278506292e-05 -0.89206722730055055 0.15541579527677155 -0.00012617008507078185 -0.89821326939513613 0.11151609160644689 3.2029514899591512e-05 -0.8922556556896587 0.10011678377947285 7.8507069940353421e-05 -0.61093437438587617 0.15541579527677155 -0.00012617008507078185 -0.89821326939513613 0.11151609160644689 3.2029514899591505e-05 -0.8922556556896587 0.10011678377947285 7.8507069940353421e-05 -0.61093437438587617 0.15997455423597445 1.5797378274604014e-05 -0.67571606631202685 0.11151609160644689 3.2029514899591512e-05 -0.8922556556896587 0.10681428868230307 -1.0463087278506311e-05 -0.89206722730055055 0.10011678377947286 7.8507069940353489e-05 -0.61093437438587617 0.060862760420701122 -0.00011441865118824435 -0.72449951488418363 0.10011678377947285 7.8507069940353421e-05 -0.61093437438587617 0.15648823449068508 1.1485802091001723e-05 -0.4500952914823057 0.078365450237268541 1.1263355446880437e-05 -0.40149059539438869 0.15666471838172488 -1.8981488813229446e-05 -0.47668736813978047 0.10011678377947285 7.8507069940353421e-05 -0.61093437438587617 0.15997455423597445 1.5797378274604014e-05 -0.67571606631202685 0.15648823449068508 1.148580209100172e-05 -0.45009529148230576 0.15666471838172488 -1.8981488813229446e-05 -0.47668736813978047 0.10011678377947285 7.8507069940353421e-05 -0.61093437438587617 0.15666471838172488 -1.8981488813229443e-05 -0.47668736813978052 0.078365450237268527 1.1263355446880431e-05 -0.40149059539438869 0.071164697154180889 3.7640771554581386e-05 -0.42871697682200349 0.15648823449068505 1.1485802091001754e-05 -0.45009529148230576 0.10011678377947285 7.8507069940353421e-05 -0.61093437438587617 0.078365450237268527 1.1263355446880424e-05 -0.40149059539438869 0.071543209851669815 -3.0289929251131034e-05 -0.68998047856731559 0.10011678377947285 7.8507069940353421e-05 -0.61093437438587617 0.15648823449068505 1.148580209100174e-05 -0.45009529148230576 0.15997455423597445 1.5797378274604014e-05 -0.67571606631202685 0.071543209851669801 -3.0289929251131061e-05 -0.68998047856731548 0.15997455423597445 1.5797378274604014e-05 -0.67571606631202685 0.15666471838172488 -1.8981488813229419e-05 -0.47668736813978058 0.10011678377947285 7.8507069940353421e-05 -0.61093437438587617 0.1613326801605135 4.3919353460898101e-05 -0.70103098712591139 0.10337665823350094 4.1706694490357314e-06 -0.53577695794709446 0.14632831404695096 2.8856832576332438e-06 -0.61950682473392982 0.10011678377947285 7.8507069940353421e-05 -0.61093437438587617 0.15666471838172488 -1.8981488813229399e-05 -0.47668736813978058 0.14632831404695096 2.8856832576332438e-06 -0.61950682473392982 0.10186124326780921 3.7139839169379205e-06 -0.72648855933845513 0.10337665823350094 4.1706694490357297e-06 -0.53577695794709446 0.10011678377947285 7.8507069940353421e-05 -0.61093437438587617 0.14632831404695096 2.8856832576332438e-06 -0.61950682473392982 0.10011678377947285 7.8507069940353421e-05 -0.61093437438587617 0.15666471838172488 -1.8981488813229426e-05 -0.47668736813978052 0.1613326801605135 4.3919353460898101e-05 -0.70103098712591139 0.10337665823350094 4.1706694490357314e-06 -0.53577695794709446 0.10011678377947285 7.8507069940353421e-05 -0.61093437438587617 0.10186124326780924 3.7139839169380073e-06 -0.72648855933845513 0.060862760420701122 -0.00011441865118824435 -0.72449951488418363 0.10337665823350094 4.1706694490357314e-06 -0.53577695794709446 0.15666471838172485 -1.8981488813229399e-05 -0.47668736813978058 0.10011678377947286 7.8507069940353421e-05 -0.61093437438587628 0.071164697154180917 3.7640771554581373e-05 -0.42871697682200355 0.14632831404695096 2.8856832576332438e-06 -0.61950682473392982 0.10186124326780921 3.7139839169379209e-06 -0.72648855933845513 0.10011678377947283 7.8507069940353421e-05 -0.61093437438587606 0.1613326801605135 4.3919353460898101e-05 -0.70103098712591139 0.1033750713947378 4.0287252425662982e-06 -0.35371889908628967 0.15666471838172488 -1.8981488813229439e-05 -0.47668736813978052 0.10337665823350094 4.1706694490357314e-06 -0.53577695794709446 0.071164697154180903 3.7640771554581393e-05 -0.42871697682200355 0.10337665823350094 4.1706694490357314e-06 -0.53577695794709446 0.10011678377947286 7.8507069940353421e-05 -0.61093437438587628 0.051466640072055841 3.4595164453019447e-06 -0.61612081068528812 0.071164697154180889 3.7640771554581379e-05 -0.42871697682200355 0.1033750713947378 4.0287252425662982e-06 -0.35371889908628967 0.16205669858763833 3.4995941471575744e-06 -0.45062188222028948 0.10337665823350094 4.1706694490357314e-06 -0.53577695794709446 0.15666471838172488 -1.8981488813229426e-05 -0.47668736813978052 0.10337665823350094 4.1706694490357314e-06 -0.53577695794709446 0.16205669858763833 3.4995941471575744e-06 -0.45062188222028948 0.14632831404695096 2.8856832576332438e-06 -0.61950682473392982 0.15666471838172488 -1.8981488813229423e-05 -0.47668736813978052 0.14632831404695096 2.8856832576332438e-06 -0.61950682473392982 0.16572785068098525 3.280477421480268e-06 -0.75265411880534849 0.10186124326780921 3.7139839169379234e-06 -0.72648855933845513 0.1613326801605135 4.3919353460898101e-05 -0.70103098712591139 0.10186124326780921 3.7139839169379234e-06 -0.72648855933845513 0.1613326801605135 4.3919353460898107e-05 -0.70103098712591128 0.10681428868230307 -1.0463087278506292e-05 -0.89206722730055055 0.060862760420701122 -0.00011441865118824435 -0.72449951488418363 0.10186124326780921 3.7139839169379234e-06 -0.72648855933845513 0.10011678377947283 7.8507069940353502e-05 -0.61093437438587617 0.1613326801605135 4.3919353460897755e-05 -0.7010309871259115 0.060862760420701122 -0.00011441865118824435 -0.72449951488418363 0.17179958196109332 -0.00010172399445518576 -0.9009242725793305 0.10186124326780921 3.7139839169379387e-06 -0.72648855933845513 0.16572785068098525 3.280477421480268e-06 -0.75265411880534849 0.1613326801605135 4.3919353460898101e-05 -0.70103098712591139 0.10681428868230307 -1.0463087278506292e-05 -0.89206722730055055 0.1613326801605135 4.3919353460897613e-05 -0.70103098712591139 0.10011678377947285 7.8507069940353922e-05 -0.61093437438587617 0.060862760420701122 -0.00011441865118824435 -0.72449951488418363 0.10186124326780921 3.7139839169379234e-06 -0.72648855933845513 0.13733087253939094 4.3930874068193296e-06 -0.89585268178181998 0.17179958196109332 -0.00010172399445518576 -0.9009242725793305 0.16572785068098525 3.280477421480268e-06 -0.75265411880534849 0.10186124326780921 3.7139839169379234e-06 -0.72648855933845513 0.13733087253939094 4.3930874068193296e-06 -0.89585268178181998 0.10681428868230307 -1.0463087278506292e-05 -0.89206722730055055 0.17179958196109332 -0.00010172399445518576 -0.9009242725793305 0.10186124326780921 3.7139839169379234e-06 -0.72648855933845513 0.17179958196109332 -0.00010172399445518576 -0.9009242725793305 0.10681428868230307 -1.0463087278506292e-05 -0.89206722730055055 0.1613326801605135 4.3919353460898155e-05 -0.70103098712591139 0.15541579527677155 -0.00012617008507078185 -0.89821326939513613 0.10681428868230307 -1.0463087278506292e-05 -0.89206722730055055 0.17179958196109332 -0.00010172399445518576 -0.9009242725793305 0.1613326801605135 4.3919353460898101e-05 -0.70103098712591139 0.13733087253939094 4.3930874068193296e-06 -0.89585268178181998 0.069837963603434833 3.6794272861768609e-06 -0.88830433352259552 0.10186124326780921 3.7139839169379234e-06 -0.72648855933845513 0.10681428868230307 -1.0463087278506292e-05 -0.89206722730055055 0.051466640072055841 3.4595164453019447e-06 -0.61612081068528812 0.10186124326780921 3.7139839169379234e-06 -0.72648855933845513 0.048538314139648042 2.7684922816690553e-06 -0.75683814423750118 0.060862760420701122 -0.00011441865118824435 -0.72449951488418363 0.10186124326780921 3.7139839169379234e-06 -0.72648855933845513 0.10681428868230307 -1.0463087278506294e-05 -0.89206722730055055 0.048538314139648042 2.7684922816690553e-06 -0.75683814423750118 0.060862760420701122 -0.00011441865118824435 -0.72449951488418363 0.10186124326780921 3.7139839169379234e-06 -0.72648855933845513 0.069837963603434819 3.6794272861768596e-06 -0.88830433352259552 0.048538314139648042 2.7684922816690553e-06 -0.75683814423750118 0.10681428868230307 -1.0463087278506292e-05 -0.89206722730055055 0.05081733071492802 -5.8472167056766876e-05 -0.8871369555965728 0.048538314139648042 2.7684922816690553e-06 -0.75683814423750118 0.069837963603434833 3.6794272861768609e-06 -0.88830433352259552 0.10681428868230307 -1.0463087278506292e-05 -0.89206722730055055 0.10681428868230307 -1.0463087278506292e-05 -0.89206722730055055 0.055220462279218993 3.1697769109880322e-06 -0.88741189954580602 0.05081733071492802 -5.8472167056766876e-05 -0.8871369555965728 0.060862760420701122 -0.00011441865118824435 -0.72449951488418363 0.05081733071492802 -5.8472167056766876e-05 -0.8871369555965728 0.048538314139648042 2.7684922816690638e-06 -0.75683814423750118 0.10681428868230307 -1.0463087278506296e-05 -0.89206722730055044 0.060862760420701122 -0.00011441865118824437 -0.72449951488418352 -1.1175028537280205e-08 -3.8876278282301504e-05 -0.75560674911002657 7.5557616449895228e-08 -0.00016682591079646584 -0.75417756910894873 2.5597954064325616e-07 2.4854017228207763e-06 -0.62444147988694787 0.060862760420701122 -0.00011441865118824435 -0.72449951488418363 0.051466640072055841 3.4595164453019447e-06 -0.61612081068528812 -1.1175028534848773e-08 -3.8876278282301511e-05 -0.75560674911002657 2.5597954064524282e-07 2.4854017228207551e-06 -0.62444147988694776 0.060862760420701115 -0.00011441865118824433 -0.72449951488418363 0.060862760420701122 -0.00011441865118824435 -0.72449951488418363 6.9775340338629697e-07 -5.2827740780666634e-05 -0.88541880508179827 0.055220462279218958 3.1697769109879775e-06 -0.88741189954580602 0.050817330714928027 -5.8472167056766849e-05 -0.88713695559657268 0.048538314139648042 2.7684922816690553e-06 -0.75683814423750118 0.050817330714928013 -5.8472167056766876e-05 -0.8871369555965728 -1.1175028537280205e-08 -3.8876278282301504e-05 -0.75560674911002657 0.060862760420701122 -0.00011441865118824435 -0.72449951488418363 -1.1175028537280205e-08 -3.8876278282301504e-05 -0.75560674911002657 6.9775340337442876e-07 -5.2827740780666688e-05 -0.88541880508179815 7.5557616449895228e-08 -0.00016682591079646584 -0.75417756910894873 0.060862760420701122 -0.00011441865118824435 -0.72449951488418363 -1.1175028537280205e-08 -3.8876278282301504e-05 -0.75560674911002657 0.05081733071492802 -5.8472167056766876e-05 -0.8871369555965728 6.9775340337692317e-07 -5.2827740780666688e-05 -0.88541880508179815 0.060862760420701122 -0.00011441865118824435 -0.72449951488418363 5.4232768374424118e-07 3.7215097878329602e-06 -0.88515301200277663 -1.1175028539484176e-08 -3.8876278282301504e-05 -0.75560674911002668 0.05081733071492802 -5.8472167056766876e-05 -0.8871369555965728 6.9775340337404125e-07 -5.2827740780666688e-05 -0.88541880508179815 -1.1175028537280205e-08 -3.8876278282301504e-05 -0.75560674911002657 0.048538314139648042 2.7684922816690494e-06 -0.75683814423750118 5.4232768374424118e-07 3.7215097878329602e-06 -0.88515301200277663 0.05081733071492802 -5.8472167056766876e-05 -0.8871369555965728 0.069837963603434833 3.6794272861768609e-06 -0.88830433352259552 5.4232768374578045e-07 3.7215097878329653e-06 -0.88515301200277663 0.048538314139648042 2.7684922816690553e-06 -0.75683814423750118 0.05081733071492802 -5.8472167056766876e-05 -0.8871369555965728 0.048538314139648042 2.7684922816690553e-06 -0.75683814423750118 5.4232768374424118e-07 3.7215097878329602e-06 -0.88515301200277663 -1.4942463726821344e-08 3.4072004385327489e-06 -0.70852285302324292 -1.1175028537280205e-08 -3.8876278282301504e-05 -0.75560674911002657 0.048538314139648042 2.7684922816690553e-06 -0.75683814423750118 -1.1175028537277505e-08 -3.8876278282301504e-05 -0.75560674911002657 0.051466640072055841 3.4595164453019447e-06 -0.61612081068528812 0.060862760420701122 -0.00011441865118824435 -0.72449951488418363 0.051466640072055841 3.4595164453019447e-06 -0.61612081068528812 -1.4942463739109139e-08 3.4072004385327747e-06 -0.7085228530232428 2.5597954064325616e-07 2.4854017228207763e-06 -0.62444147988694787 -1.1175028537280205e-08 -3.8876278282301504e-05 -0.75560674911002657 -1.4942463722893312e-08 3.4072004385327522e-06 -0.70852285302324292 0.051466640072055841 3.4595164453019447e-06 -0.61612081068528812 0.048538314139648042 2.7684922816690553e-06 -0.75683814423750118 -1.1175028537280205e-08 -3.8876278282301504e-05 -0.75560674911002657 2.5597954064325616e-07 2.4854017228207763e-06 -0.62444147988694787 -1.2492629432277124e-08 4.175549750183942e-06 -0.53175647738877374 -1.4942463722893312e-08 3.4072004385327522e-06 -0.70852285302324292 0.051466640072055841 3.4595164453019447e-06 -0.61612081068528812 0.10011678377947285 7.8507069940353421e-05 -0.61093437438587617 0.071164697154180903 3.7640771554581244e-05 -0.42871697682200355 2.55979540629441e-07 2.4854017228210753e-06 -0.62444147988694776 0.060862760420701129 -0.00011441865118824435 -0.72449951488418363 2.5597954064325616e-07 2.4854017228207763e-06 -0.62444147988694787 -1.4668086329215391e-07 6.5971254966355628e-05 -0.45019713349335011 -1.2492629432277124e-08 4.175549750183942e-06 -0.53175647738877374 0.051466640072055841 3.4595164453019447e-06 -0.61612081068528812 0.051466640072055841 3.4595164453019447e-06 -0.61612081068528812 0.10011678377947285 7.8507069940353313e-05 -0.61093437438587628 0.10337665823350094 4.1706694490357314e-06 -0.53577695794709446 0.060862760420701122 -0.00011441865118824435 -0.72449951488418363 0.051466640072055841 3.4595164453019447e-06 -0.61612081068528812 0.071164697154180945 3.764077155458163e-05 -0.42871697682200355 0.10011678377947281 7.8507069940353163e-05 -0.61093437438587617 0.060862760420701122 -0.00011441865118824435 -0.72449951488418363 0.051466640072055841 3.4595164453019447e-06 -0.61612081068528812 2.5597954065819263e-07 2.485401722820736e-06 -0.62444147988694787 0.071164697154180903 3.7640771554581393e-05 -0.42871697682200355 0.060862760420701115 -0.00011441865118824435 -0.72449951488418363 0.051466640072055841 3.4595164453019447e-06 -0.61612081068528812 0.10337665823350092 4.1706694490357289e-06 -0.53577695794709446 0.10186124326780921 3.713983916937915e-06 -0.72648855933845513 0.060862760420701122 -0.00011441865118824435 -0.72449951488418363 0.10337665823350094 4.1706694490357314e-06 -0.53577695794709446 0.051466640072055841 3.4595164453019447e-06 -0.61612081068528812 0.054632332091020488 3.8534490390431851e-06 -0.44261574303782253 0.071164697154180903 3.7640771554581393e-05 -0.42871697682200355 -1.4668086329974701e-07 6.5971254966355614e-05 -0.45019713349335011 0.054632332091020502 3.8534490390431715e-06 -0.44261574303782253 0.051466640072055841 3.4595164453019447e-06 -0.61612081068528812 0.071164697154180903 3.7640771554581393e-05 -0.42871697682200355 -1.2492629432277124e-08 4.175549750183942e-06 -0.53175647738877374 -9.7341324196330493e-08 4.5343603048061943e-06 -0.3548124826800208 0.054632332091020488 3.8534490390431851e-06 -0.44261574303782253 -1.4668086329974701e-07 6.5971254966355614e-05 -0.45019713349335011 -1.4668086329974701e-07 6.5971254966355614e-05 -0.45019713349335011 0.054632332091020509 3.85344903904318e-06 -0.44261574303782253 -1.2492629432277124e-08 4.175549750183942e-06 -0.53175647738877374 0.051466640072055841 3.4595164453019447e-06 -0.61612081068528812 -1.4668086329974701e-07 6.5971254966355614e-05 -0.45019713349335011 0.051466640072055841 3.4595164453019447e-06 -0.61612081068528812 2.5597954064325616e-07 2.4854017228207763e-06 -0.62444147988694787 0.071164697154180903 3.7640771554581393e-05 -0.42871697682200355 -2.2296758550597348e-07 4.9600865015546332e-06 -0.53085654687614803 -1.4668086329974701e-07 6.5971254966355614e-05 -0.45019713349335011 2.5597954064325616e-07 2.4854017228207763e-06 -0.62444147988694787 0.071164697154180903 3.7640771554581393e-05 -0.42871697682200355 -2.2296758550597348e-07 4.9600865015546332e-06 -0.53085654687614803 2.5597954064471666e-07 2.485401722820778e-06 -0.62444147988694787 0.10011678377947286 7.8507069940353421e-05 -0.61093437438587606 0.071164697154180903 3.7640771554581393e-05 -0.42871697682200355 -2.2296758550597348e-07 4.9600865015546332e-06 -0.53085654687614803 0.10011678377947282 7.8507069940352594e-05 -0.61093437438587639 2.5597954064471364e-07 2.4854017228208787e-06 -0.62444147988694787 0.060862760420701129 -0.00011441865118824455 -0.72449951488418363 -2.2296758550597348e-07 4.9600865015546332e-06 -0.53085654687614803 2.5597954064325616e-07 2.4854017228207763e-06 -0.62444147988694787 1.8810537470766763e-07 -9.8545715775685765e-05 -0.64401050816785699 0.060862760420701149 -0.00011441865118824436 -0.72449951488418363 -2.2296758550597348e-07 4.9600865015546332e-06 -0.53085654687614803 0.078365450237268541 1.1263355446880409e-05 -0.40149059539438869 0.10011678377947285 7.8507069940353421e-05 -0.61093437438587617 0.071543209851669801 -3.0289929251131058e-05 -0.68998047856731559 -2.2296758550597348e-07 4.9600865015546332e-06 -0.53085654687614803 1.8810537470766763e-07 -9.8545715775685765e-05 -0.64401050816785699 0.10011678377947283 7.8507069940353367e-05 -0.61093437438587617 0.060862760420701136 -0.00011441865118824437 -0.72449951488418363 -2.2296758550597348e-07 4.9600865015546332e-06 -0.53085654687614803 1.5840073240499019e-07 -3.987860616212659e-05 -0.59663410587187682 -1.7767136456836276e-07 4.5689963125521809e-05 -0.46007308729122148 0.071543209851669828 -3.0289929251131027e-05 -0.68998047856731548 1.8810537470766763e-07 -9.8545715775685765e-05 -0.64401050816785699 -2.2296758550597348e-07 4.9600865015546332e-06 -0.53085654687614803 0.10011678377947285 7.8507069940353421e-05 -0.61093437438587617 0.071543209851669815 -3.0289929251131034e-05 -0.68998047856731559 -2.2296758550597348e-07 4.9600865015546332e-06 -0.53085654687614803 0.10011678377947285 7.8507069940353421e-05 -0.61093437438587617 0.078365450237268527 1.1263355446880412e-05 -0.40149059539438864 0.071164697154180903 3.7640771554581393e-05 -0.42871697682200355 -2.2296758550597348e-07 4.9600865015546332e-06 -0.53085654687614803 -1.7767136456439775e-07 4.5689963125521823e-05 -0.46007308729122148 0.078365450237268527 1.1263355446880424e-05 -0.40149059539438869 0.071543209851669828 -3.0289929251131051e-05 -0.68998047856731559 5.7518585955030272e-09 9.0222759629970394e-07 -0.40467711428116687 -1.4668086329976064e-07 6.5971254966355614e-05 -0.45019713349335011 -2.2296758550597348e-07 4.9600865015546332e-06 -0.53085654687614803 0.071164697154180903 3.7640771554581393e-05 -0.42871697682200355 -2.2296758550597348e-07 4.9600865015546332e-06 -0.53085654687614803 -1.7767136456439775e-07 4.5689963125521823e-05 -0.46007308729122148 5.7518585955030272e-09 9.0222759629970394e-07 -0.40467711428116687 0.078365450237268527 1.1263355446880424e-05 -0.40149059539438869 1.8810537470766763e-07 -9.8545715775685765e-05 -0.64401050816785699 1.5840073240499019e-07 -3.987860616212659e-05 -0.59663410587187682 -2.2296758550337251e-07 4.9600865015546365e-06 -0.53085654687614803 0.071543209851669815 -3.0289929251131034e-05 -0.68998047856731559 -7.3259101727998663e-09 -0.00014020488090801716 -0.74556297540820204 7.5557616449895228e-08 -0.00016682591079646584 -0.75417756910894873 0.055220462279218993 3.1697769109880322e-06 -0.88741189954580602 0.071543209851669815 -3.0289929251131037e-05 -0.68998047856731548 1.8810537470766763e-07 -9.8545715775685765e-05 -0.64401050816785699 0.071543209851669815 -3.028992925113101e-05 -0.68998047856731559 0.10011678377947285 7.8507069940353421e-05 -0.61093437438587617 0.060862760420701122 -0.00011441865118824437 -0.72449951488418363 0.055220462279218993 3.1697769109880322e-06 -0.88741189954580602 0.071543209851669801 -3.0289929251131054e-05 -0.68998047856731559 7.5557616435456003e-08 -0.00016682591079646584 -0.75417756910894873 0.060862760420701129 -0.00011441865118824432 -0.72449951488418363 -7.3259101727998663e-09 -0.00014020488090801716 -0.74556297540820204 1.5840073240499019e-07 -3.987860616212659e-05 -0.59663410587187682 1.8810537470766763e-07 -9.8545715775685765e-05 -0.64401050816785699 0.071543209851669828 -3.0289929251131007e-05 -0.68998047856731548 -7.3259101727998663e-09 -0.00014020488090801716 -0.74556297540820204 1.8810537470766763e-07 -9.8545715775685765e-05 -0.64401050816785699 7.5557616449895228e-08 -0.00016682591079646584 -0.75417756910894873 0.071543209851669828 -3.0289929251131041e-05 -0.6899804785673157 0.055220462279218993 3.1697769109880322e-06 -0.88741189954580602 0.11151609160644689 3.2029514899591518e-05 -0.8922556556896587 0.071543209851669828 -3.0289929251131048e-05 -0.68998047856731559 0.060862760420701115 -0.00011441865118824433 -0.72449951488418374 1.8810537470766763e-07 -9.8545715775685765e-05 -0.64401050816785699 7.5557616449602392e-08 -0.00016682591079646584 -0.75417756910894873 0.071543209851669801 -3.0289929251131054e-05 -0.68998047856731559 0.060862760420701136 -0.00011441865118824435 -0.72449951488418363 2.5597954064325616e-07 2.4854017228207763e-06 -0.62444147988694787 7.5557616449895228e-08 -0.00016682591079646584 -0.75417756910894873 1.8810537470611748e-07 -9.8545715775685765e-05 -0.64401050816785699 0.060862760420701122 -0.00011441865118824435 -0.72449951488418363 0.055220462279218993 3.1697769109880322e-06 -0.88741189954580602 0.11151609160644689 3.2029514899591512e-05 -0.8922556556896587 0.059714050988768766 -1.938744458362256e-05 -0.88748756056223055 0.071543209851669815 -3.0289929251131034e-05 -0.68998047856731559 0.055220462279218993 3.1697769109880322e-06 -0.88741189954580602 0.059714050988768773 -1.9387444583622554e-05 -0.88748756056223066 -7.3259101727998663e-09 -0.00014020488090801716 -0.74556297540820204 0.071543209851669815 -3.0289929251131034e-05 -0.68998047856731559 0.11151609160644689 3.2029514899591512e-05 -0.8922556556896587 0.055220462279218993 3.1697769109880322e-06 -0.88741189954580602 0.10681428868230308 -1.0463087278506292e-05 -0.89206722730055055 0.060862760420701122 -0.00011441865118824435 -0.72449951488418363 0.060862760420701122 -0.00011441865118824435 -0.72449951488418363 0.055220462279218979 3.1697769109880178e-06 -0.88741189954580613 6.9775340338588658e-07 -5.2827740780666661e-05 -0.88541880508179815 7.5557616449895228e-08 -0.00016682591079646584 -0.75417756910894873 7.5557616449895228e-08 -0.00016682591079646584 -0.75417756910894873 -7.3259101729183227e-09 -0.00014020488090801716 -0.74556297540820204 0.055220462279218993 3.1697769109880322e-06 -0.88741189954580602 5.8514184917033165e-07 -8.334586906114703e-05 -0.88616400321966515 0.055220462279218993 3.1697769109880322e-06 -0.88741189954580602 6.9775340337404125e-07 -5.2827740780666688e-05 -0.88541880508179815 7.5557616445354456e-08 -0.00016682591079646584 -0.75417756910894873 5.8514184917033165e-07 -8.334586906114703e-05 -0.88616400321966515 5.8514184917033165e-07 -8.334586906114703e-05 -0.88616400321966515 -7.3259101727998663e-09 -0.00014020488090801716 -0.74556297540820204 0.055220462279218993 3.1697769109880322e-06 -0.88741189954580602 0.059714050988768773 -1.9387444583622554e-05 -0.88748756056223066 -7.3259101727998663e-09 -0.00014020488090801716 -0.74556297540820204 5.8514184917033165e-07 -8.334586906114703e-05 -0.88616400321966515 7.4013333965789858e-07 -7.9644871847780845e-05 -0.88615386974670995 0.059714050988768773 -1.9387444583622554e-05 -0.88748756056223066 0.059714050988768773 -1.9387444583622554e-05 -0.88748756056223066 7.4013333966138941e-07 -7.9644871847780831e-05 -0.88615386974670984 -7.3259101625514285e-09 -0.00014020488090801711 -0.74556297540820204 6.0732787846271756e-08 2.9625548378192172e-05 -0.71571422103810955 7.4013333966138941e-07 -7.9644871847780831e-05 -0.88615386974670984 0.059714050988768773 -1.9387444583622554e-05 -0.88748756056223066 0.059055456623340163 4.9110749316139223e-05 -0.88756238644866459 6.0732787866160394e-08 2.9625548378192233e-05 -0.71571422103810955 2.1684369384597731e-07 -3.8327942651455653e-05 -0.7554248531366794 6.0732787866160394e-08 2.9625548378192233e-05 -0.71571422103810955 0.059055456623340163 4.9110749316139209e-05 -0.88756238644866448 0.10113634015126217 -5.5129530218561033e-05 -0.6130001647953468 0.059055456623340163 4.9110749316139223e-05 -0.88756238644866459 0.10113634015126212 -5.5129530218560965e-05 -0.61300016479534669 6.0732787869288725e-08 2.962554837819224e-05 -0.71571422103810967 0.071543209851669801 -3.0289929251131034e-05 -0.68998047856731559 -7.3259101727998663e-09 -0.00014020488090801716 -0.74556297540820204 6.0732787867184139e-08 2.9625548378192229e-05 -0.71571422103810955 1.5840073240499019e-07 -3.987860616212659e-05 -0.59663410587187682 0.071543209851669828 -3.0289929251131007e-05 -0.68998047856731548 -7.3259101727998663e-09 -0.00014020488090801716 -0.74556297540820204 0.059714050988768766 -1.9387444583622567e-05 -0.88748756056223066 6.0732787867340271e-08 2.9625548378192236e-05 -0.71571422103810955 0.071543209851669815 -3.0289929251131037e-05 -0.68998047856731559 6.0732787866160394e-08 2.9625548378192233e-05 -0.71571422103810955 0.059055456623340163 4.9110749316139223e-05 -0.88756238644866459 7.4013333966138941e-07 -7.9644871847780831e-05 -0.88615386974670984 6.6269793042902074e-07 7.0593678529241047e-05 -0.88600396902133416 0.059714050988768773 -1.9387444583622554e-05 -0.88748756056223066 0.11328168172129707 -5.9532572265188008e-05 -0.89256377432769729 0.059055456623340163 4.9110749316139223e-05 -0.88756238644866459 0.071543209851669815 -3.0289929251131034e-05 -0.68998047856731559 0.059714050988768773 -1.9387444583622554e-05 -0.88748756056223066 0.059055456623340163 4.9110749316139223e-05 -0.88756238644866459 6.0732787879108285e-08 2.9625548378192233e-05 -0.71571422103810955 0.071543209851669801 -3.0289929251131034e-05 -0.68998047856731548 0.10895004381489255 0.00011379151983454517 -0.89198938826579888 0.059055456623340163 4.9110749316139223e-05 -0.88756238644866459 0.11328168172129707 -5.9532572265188008e-05 -0.89256377432769729 0.10113634015126212 -5.5129530218560965e-05 -0.6130001647953468 0.11151609160644689 3.2029514899591512e-05 -0.8922556556896587 0.11328168172129707 -5.9532572265188008e-05 -0.89256377432769729 0.059714050988768773 -1.9387444583622554e-05 -0.88748756056223066 0.071543209851669815 -3.0289929251131034e-05 -0.68998047856731559 0.15556957535862798 0.00015562679719168397 -0.89824314928445803 0.10113634015126212 -5.512953021856087e-05 -0.6130001647953468 0.15997455423597445 1.5797378274604014e-05 -0.67571606631202685 0.16187144950099897 -0.00010214751615341185 -0.70284637606401212 0.11328168172129707 -5.9532572265188008e-05 -0.89256377432769729 0.15997455423597445 1.5797378274604025e-05 -0.67571606631202685 0.10113634015126212 -5.5129530218560965e-05 -0.6130001647953468 0.071543209851669828 -3.0289929251131037e-05 -0.68998047856731548 0.10895004381489255 0.00011379151983454517 -0.89198938826579888 0.11328168172129707 -5.9532572265188001e-05 -0.89256377432769729 0.15556957535862798 0.00015562679719168397 -0.89824314928445803 0.10113634015126212 -5.5129530218560965e-05 -0.6130001647953468 0.15556957535862798 0.00015562679719168397 -0.89824314928445803 0.10895004381489255 0.00011379151983454516 -0.89198938826579899 0.10113634015126212 -5.5129530218560965e-05 -0.6130001647953468 0.16187144950099891 -0.00010214751615341193 -0.70284637606401179 0.11328168172129707 -5.9532572265188008e-05 -0.89256377432769729 0.15556957535862798 0.00015562679719168397 -0.89824314928445803 0.10113634015126212 -5.5129530218560965e-05 -0.6130001647953468 0.15997455423597448 1.5797378274604011e-05 -0.67571606631202685 0.11328168172129707 -5.9532572265188008e-05 -0.89256377432769729 0.10113634015126212 -5.5129530218560965e-05 -0.6130001647953468 0.059055456623340163 4.9110749316139223e-05 -0.88756238644866459 0.071543209851669842 -3.0289929251131048e-05 -0.68998047856731559 0.11328168172129707 -5.9532572265188008e-05 -0.89256377432769729 0.1760767883271466 5.4020772270040859e-05 -0.90200225571865145 0.15556957535862798 0.00015562679719168397 -0.89824314928445803 0.15997455423597445 1.5797378274604014e-05 -0.67571606631202685 0.10113634015126212 -5.5129530218560965e-05 -0.6130001647953468 0.15997455423597445 1.5797378274604018e-05 -0.67571606631202674 0.15648823449068505 1.1485802091001755e-05 -0.45009529148230576 0.071543209851669801 -3.0289929251131027e-05 -0.68998047856731548 0.078365450237268527 1.1263355446880424e-05 -0.40149059539438869 0.15702982159805165 -1.5978354502824558e-05 -0.47604145504505069 0.10113634015126209 -5.5129530218560979e-05 -0.61300016479534669 0.070092584669108352 -4.5527030968749869e-05 -0.44478418306597356 0.10113634015126212 -5.5129530218560965e-05 -0.6130001647953468 0.15702982159805168 -1.5978354502824565e-05 -0.4760414550450508 0.15997455423597445 1.5797378274604001e-05 -0.67571606631202685 0.16187144950099894 -0.00010214751615341189 -0.7028463760640119 0.15648823449068505 1.1485802091001754e-05 -0.45009529148230576 0.10113634015126212 -5.5129530218560965e-05 -0.6130001647953468 0.078365450237268527 1.1263355446880424e-05 -0.40149059539438869 0.15702982159805168 -1.5978354502824565e-05 -0.4760414550450508 0.15648823449068505 1.1485802091001754e-05 -0.45009529148230576 0.15997455423597451 1.5797378274604035e-05 -0.67571606631202685 0.10113634015126213 -5.5129530218560958e-05 -0.6130001647953468 0.15702982159805168 -1.5978354502824565e-05 -0.4760414550450508 0.15648823449068505 1.1485802091001754e-05 -0.45009529148230576 0.078365450237268527 1.1263355446880424e-05 -0.40149059539438869 0.10113634015126212 -5.5129530218560972e-05 -0.61300016479534669 0.071543209851669815 -3.0289929251131034e-05 -0.68998047856731559 0.071543209851669815 -3.0289929251131034e-05 -0.68998047856731559 0.10113634015126212 -5.5129530218560965e-05 -0.6130001647953468 -1.776713645627158e-07 4.5689963125521823e-05 -0.46007308729122148 0.0783654502372685 1.1263355446880434e-05 -0.40149059539438869 -7.0261064957415637e-09 -6.195593307947447e-06 -0.40604363132097554 0.078365450237268514 1.1263355446880431e-05 -0.40149059539438869 -4.4406882399118291e-09 -4.1367921886148561e-06 -0.54089566220443974 0.070092584669108324 -4.5527030968749876e-05 -0.44478418306597356 -4.4406882407681769e-09 -4.1367921886148553e-06 -0.54089566220443974 -1.7767136456439775e-07 4.5689963125521823e-05 -0.46007308729122148 0.10113634015126212 -5.5129530218560931e-05 -0.61300016479534691 0.078365450237268527 1.1263355446880424e-05 -0.40149059539438869 0.071543209851669815 -3.0289929251131034e-05 -0.68998047856731559 -4.4406882150457202e-09 -4.1367921886148417e-06 -0.54089566220443963 -1.7767136456439775e-07 4.5689963125521823e-05 -0.46007308729122148 0.10113634015126212 -5.5129530218560965e-05 -0.6130001647953468 -4.4406882407681769e-09 -4.1367921886148553e-06 -0.54089566220443974 0.078365450237268527 1.1263355446880419e-05 -0.40149059539438869 0.10113634015126212 -5.5129530218560965e-05 -0.6130001647953468 0.070092584669108324 -4.5527030968749883e-05 -0.44478418306597345 0.071543209851669815 -3.0289929251131034e-05 -0.68998047856731559 -1.7767136456439775e-07 4.5689963125521823e-05 -0.46007308729122148 -4.4406882432841319e-09 -4.1367921886148654e-06 -0.54089566220443974 1.5840073240499019e-07 -3.987860616212659e-05 -0.59663410587187682 -4.498231478137227e-08 -9.6512769411844404e-05 -0.61438248814268115 -4.4406882407681769e-09 -4.1367921886148553e-06 -0.54089566220443974 0.10113634015126212 -5.5129530218560958e-05 -0.61300016479534669 0.070092584669108324 -4.5527030968749876e-05 -0.44478418306597356 -4.4406882407681769e-09 -4.1367921886148553e-06 -0.54089566220443974 6.0732787866160394e-08 2.9625548378192233e-05 -0.71571422103810955 0.10113634015126212 -5.5129530218560965e-05 -0.6130001647953468 0.071543209851669815 -3.0289929251131027e-05 -0.68998047856731559 -4.498231478137227e-08 -9.6512769411844404e-05 -0.61438248814268115 -4.4406882407681769e-09 -4.1367921886148553e-06 -0.54089566220443974 6.0732787867936781e-08 2.9625548378192236e-05 -0.71571422103810955 0.10113634015126212 -5.5129530218560965e-05 -0.6130001647953468 -7.0261064957415637e-09 -6.195593307947447e-06 -0.40604363132097554 -1.7767136456439775e-07 4.5689963125521823e-05 -0.46007308729122148 -4.4406882407681769e-09 -4.1367921886148553e-06 -0.54089566220443974 0.078365450237268527 1.1263355446880424e-05 -0.40149059539438869 -4.4406882407681769e-09 -4.1367921886148553e-06 -0.54089566220443974 1.5840073240617109e-07 -3.987860616212659e-05 -0.59663410587187682 6.0732787869311965e-08 2.962554837819224e-05 -0.71571422103810955 0.071543209851669773 -3.0289929251131048e-05 -0.68998047856731559 -4.4406882407681769e-09 -4.1367921886148553e-06 -0.54089566220443974 -1.1192376268988813e-07 -4.9716481176040408e-05 -0.45172319837174651 -7.0261064969875997e-09 -6.1955933079474462e-06 -0.40604363132097554 0.070092584669108338 -4.5527030968749876e-05 -0.44478418306597356 -4.498231478137227e-08 -9.6512769411844404e-05 -0.61438248814268115 0.048619239631453752 -2.7820678999585551e-06 -0.75711005060703584 0.060738634729916356 -3.6463270974412411e-06 -0.6070427472474057 0.10113634015126212 -5.5129530218560965e-05 -0.6130001647953468 -4.498231478137227e-08 -9.6512769411844404e-05 -0.61438248814268115 0.10113634015126212 -5.5129530218560965e-05 -0.6130001647953468 0.060738634729916356 -3.6463270974412382e-06 -0.60704274724740548 0.070092584669108324 -4.5527030968749876e-05 -0.44478418306597356 -4.498231478137227e-08 -9.6512769411844404e-05 -0.61438248814268115 0.060738634729916349 -3.6463270974412458e-06 -0.60704274724740559 -1.1192376268988813e-07 -4.9716481176040408e-05 -0.45172319837174651 0.070092584669108324 -4.5527030968749876e-05 -0.44478418306597356 -4.498231478137227e-08 -9.6512769411844404e-05 -0.61438248814268115 -1.1192376268988813e-07 -4.9716481176040408e-05 -0.45172319837174651 -4.4406882429744578e-09 -4.136792188614851e-06 -0.54089566220443974 0.070092584669108324 -4.5527030968749876e-05 -0.44478418306597356 1.2419512427625912e-07 -3.9482150261315449e-06 -0.70855687764299491 2.7883773435470868e-08 -4.7125016200802569e-06 -0.53185797872778307 -4.498231478137227e-08 -9.6512769411844404e-05 -0.61438248814268115 0.060738634729916356 -3.6463270974412356e-06 -0.60704274724740559 2.7883773435470868e-08 -4.7125016200802569e-06 -0.53185797872778307 -4.498231478137227e-08 -9.6512769411844404e-05 -0.61438248814268115 0.060738634729916356 -3.6463270974412356e-06 -0.60704274724740559 -1.1192376268988813e-07 -4.9716481176040408e-05 -0.45172319837174651 0.060738634729916356 -3.6463270974412356e-06 -0.60704274724740559 0.051973274617277666 -3.4910910124619569e-06 -0.43403872998934034 2.7883773435470868e-08 -4.7125016200802569e-06 -0.53185797872778307 -1.1192376268988813e-07 -4.9716481176040408e-05 -0.45172319837174651 0.060738634729916356 -3.6463270974412356e-06 -0.60704274724740559 0.09841250401050379 -2.9021446322761089e-06 -0.48338069427316815 0.051973274617277666 -3.4910910124619586e-06 -0.43403872998934034 0.070092584669108324 -4.5527030968749876e-05 -0.44478418306597356 -1.1192376268988813e-07 -4.9716481176040408e-05 -0.45172319837174651 0.060738634729916349 -3.6463270974412339e-06 -0.60704274724740559 0.051973274617277666 -3.4910910124619569e-06 -0.43403872998934034 0.070092584669108324 -4.5527030968749869e-05 -0.4447841830659735 0.09894186592746182 -3.4226898890763184e-06 -0.74036898704861032 0.12671075072714164 -3.8986358076009142e-06 -0.60049404263500339 0.060738634729916356 -3.6463270974412365e-06 -0.60704274724740559 0.10113634015126212 -5.5129530218560965e-05 -0.6130001647953468 0.09841250401050379 -2.9021446322761089e-06 -0.48338069427316815 0.10113634015126213 -5.5129530218560952e-05 -0.6130001647953468 0.15702982159805165 -1.5978354502824575e-05 -0.47604145504505085 0.070092584669108324 -4.5527030968749876e-05 -0.4447841830659735 0.12671075072714164 -3.8986358076009142e-06 -0.60049404263500339 0.09841250401050379 -2.902144632276108e-06 -0.48338069427316815 0.10113634015126212 -5.5129530218560965e-05 -0.61300016479534669 0.15702982159805168 -1.5978354502824568e-05 -0.47604145504505074 0.12671075072714164 -3.8986358076009142e-06 -0.60049404263500339 0.10113634015126212 -5.5129530218560965e-05 -0.6130001647953468 0.09894186592746182 -3.4226898890763184e-06 -0.74036898704861032 0.16187144950099894 -0.00010214751615341189 -0.7028463760640119 0.060738634729916356 -3.6463270974412356e-06 -0.60704274724740559 0.10113634015126213 -5.5129530218560979e-05 -0.6130001647953468 0.09841250401050379 -2.9021446322761089e-06 -0.48338069427316815 0.070092584669108324 -4.5527030968749876e-05 -0.44478418306597356 0.18925122693783097 -3.9748246206822075e-06 -0.61170145252308061 0.15702982159805165 -1.5978354502824552e-05 -0.47604145504505074 0.12671075072714164 -3.8986358076009142e-06 -0.60049404263500339 0.16187144950099894 -0.00010214751615341189 -0.7028463760640119 0.09841250401050379 -2.9021446322761089e-06 -0.48338069427316815 0.060738634729916356 -3.6463270974412352e-06 -0.60704274724740559 0.12671075072714164 -3.8986358076009133e-06 -0.60049404263500339 0.10113634015126212 -5.5129530218560965e-05 -0.6130001647953468 0.12671075072714164 -3.8986358076009142e-06 -0.60049404263500339 0.15702982159805168 -1.5978354502824555e-05 -0.47604145504505074 0.10113634015126213 -5.5129530218560945e-05 -0.61300016479534669 0.16187144950099894 -0.00010214751615341189 -0.7028463760640119 0.12671075072714164 -3.8986358076009142e-06 -0.60049404263500339 0.18925122693783097 -3.9748246206822075e-06 -0.61170145252308061 0.15593571666925557 -3.5271839579874757e-06 -0.43241455626897707 0.15702982159805168 -1.5978354502824568e-05 -0.47604145504505085 0.12671075072714164 -3.8986358076009142e-06 -0.60049404263500339 0.15593571666925557 -3.5271839579874753e-06 -0.43241455626897712 0.09841250401050379 -2.9021446322761089e-06 -0.48338069427316815 0.15702982159805168 -1.5978354502824568e-05 -0.47604145504505085 0.16176862682876816 -3.6212891672340531e-06 -0.74512825136082028 0.18925122693783097 -3.9748246206822067e-06 -0.61170145252308061 0.12671075072714164 -3.8986358076009125e-06 -0.60049404263500339 0.16187144950099894 -0.00010214751615341189 -0.7028463760640119 0.09894186592746182 -3.4226898890763184e-06 -0.74036898704861032 0.051483240582697938 6.8588056973919697e-05 -0.88706968897802696 0.10895004381489255 0.00011379151983454517 -0.89198938826579888 0.10113634015126212 -5.5129530218560965e-05 -0.6130001647953468 0.09894186592746182 -3.4226898890763184e-06 -0.74036898704861032 0.10113634015126212 -5.5129530218560965e-05 -0.6130001647953468 0.10895004381489254 0.00011379151983454518 -0.89198938826579888 0.16187144950099891 -0.00010214751615341188 -0.7028463760640119 0.09894186592746182 -3.4226898890763184e-06 -0.74036898704861032 0.10895004381489255 0.00011379151983454522 -0.89198938826579899 0.16176862682876816 -3.6212891672340531e-06 -0.74512825136082028 0.16187144950099891 -0.00010214751615341184 -0.7028463760640119 0.12671075072714164 -3.8986358076009142e-06 -0.60049404263500339 0.09894186592746182 -3.4226898890763184e-06 -0.74036898704861032 0.16176862682876816 -3.6212891672340531e-06 -0.74512825136082028 0.16187144950099894 -0.00010214751615341189 -0.7028463760640119 0.10895004381489255 0.00011379151983454517 -0.89198938826579888 0.13696591226384849 -4.2051122297807611e-06 -0.89518466113799078 0.16176862682876816 -3.6212891672340531e-06 -0.74512825136082028 0.17254570702908012 9.8733246131490953e-05 -0.9013702231298073 0.13696591226384849 -4.2051122297807611e-06 -0.89518466113799078 0.16176862682876816 -3.6212891672340531e-06 -0.74512825136082028 0.09894186592746182 -3.4226898890763184e-06 -0.74036898704861032 0.10895004381489255 0.00011379151983454517 -0.89198938826579888 0.10895004381489255 0.00011379151983454517 -0.89198938826579888 0.17254570702908012 9.8733246131490953e-05 -0.9013702231298073 0.16176862682876816 -3.6212891672340531e-06 -0.74512825136082028 0.16187144950099894 -0.00010214751615341184 -0.7028463760640119 0.15556957535862798 0.00015562679719168397 -0.89824314928445803 0.17254570702908012 9.8733246131490953e-05 -0.9013702231298073 0.10895004381489255 0.00011379151983454517 -0.89198938826579888 0.16187144950099894 -0.00010214751615341189 -0.7028463760640119 0.13696591226384849 -4.2051122297807611e-06 -0.89518466113799078 0.09894186592746182 -3.4226898890763184e-06 -0.74036898704861032 0.069565037916625438 -3.4018367016004153e-06 -0.88813904260587906 0.10895004381489255 0.00011379151983454517 -0.89198938826579888 2.1684369384597731e-07 -3.8327942651455653e-05 -0.7554248531366794 -4.4982314778583533e-08 -9.6512769411844391e-05 -0.61438248814268104 6.0732787866160394e-08 2.9625548378192233e-05 -0.71571422103810955 0.10113634015126215 -5.5129530218560972e-05 -0.61300016479534669 0.059055456623340163 4.9110749316139223e-05 -0.88756238644866459 0.10895004381489255 0.00011379151983454517 -0.89198938826579888 0.051483240582697938 6.8588056973919697e-05 -0.88706968897802696 0.10113634015126212 -5.5129530218560965e-05 -0.6130001647953468 0.051483240582697938 6.8588056973919697e-05 -0.88706968897802696 0.069565037916625438 -3.4018367016004242e-06 -0.88813904260587906 0.048619239631453745 -2.7820678999585611e-06 -0.75711005060703584 0.09894186592746182 -3.4226898890763184e-06 -0.74036898704861032 0.051483240582697938 6.8588056973919697e-05 -0.88706968897802696 0.098941865927461833 -3.4226898890763163e-06 -0.74036898704861032 0.048619239631453745 -2.7820678999585611e-06 -0.75711005060703584 0.10113634015126215 -5.5129530218560945e-05 -0.6130001647953468 0.051483240582697938 6.8588056973919697e-05 -0.88706968897802696 0.069565037916625438 -3.4018367016004153e-06 -0.88813904260587906 0.098941865927461806 -3.4226898890763218e-06 -0.74036898704861032 0.10895004381489255 0.00011379151983454517 -0.89198938826579888 0.060738634729916356 -3.6463270974412356e-06 -0.60704274724740559 0.048619239631453745 -2.7820678999585611e-06 -0.75711005060703584 0.09894186592746182 -3.4226898890763184e-06 -0.74036898704861032 0.10113634015126212 -5.5129530218560979e-05 -0.6130001647953468 2.1684369384597731e-07 -3.8327942651455653e-05 -0.7554248531366794 0.059055456623340143 4.9110749316139169e-05 -0.88756238644866459 0.051483240582697945 6.8588056973919697e-05 -0.88706968897802696 0.10113634015126215 -5.5129530218560972e-05 -0.61300016479534669 0.051483240582697938 6.8588056973919697e-05 -0.88706968897802696 0.048619239631453745 -2.7820678999585611e-06 -0.75711005060703584 2.1684369384597731e-07 -3.8327942651455653e-05 -0.7554248531366794 0.10113634015126212 -5.5129530218560965e-05 -0.6130001647953468 -4.498231478137227e-08 -9.6512769411844404e-05 -0.61438248814268115 2.1684369384597731e-07 -3.8327942651455653e-05 -0.7554248531366794 0.048619239631453745 -2.7820678999585623e-06 -0.75711005060703584 0.10113634015126212 -5.5129530218560958e-05 -0.61300016479534669 6.6269793042902074e-07 7.0593678529241047e-05 -0.88600396902133416 6.0732787866160394e-08 2.9625548378192233e-05 -0.71571422103810955 0.059055456623340163 4.9110749316139223e-05 -0.88756238644866459 2.1684369384597731e-07 -3.8327942651455653e-05 -0.7554248531366794 0.051483240582697938 6.8588056973919697e-05 -0.88706968897802696 6.6269793042680744e-07 7.059367852924102e-05 -0.88600396902133405 0.059055456623340163 4.9110749316139223e-05 -0.88756238644866459 2.1684369384597731e-07 -3.8327942651455653e-05 -0.7554248531366794 -4.498231478137227e-08 -9.6512769411844404e-05 -0.61438248814268115 0.048619239631453752 -2.782067899958539e-06 -0.75711005060703584 1.2419512427625912e-07 -3.9482150261315449e-06 -0.70855687764299491 0.060738634729916356 -3.6463270974412759e-06 -0.6070427472474057 2.1684369384597731e-07 -3.8327942651455653e-05 -0.7554248531366794 0.048619239631453759 -2.7820678999585683e-06 -0.75711005060703584 1.2419512427625912e-07 -3.9482150261315423e-06 -0.70855687764299491 -4.498231478137227e-08 -9.6512769411844404e-05 -0.61438248814268115 4.5327973735845666e-07 -3.6207290855509821e-06 -0.88520013302328271 6.6269793042902084e-07 7.0593678529241061e-05 -0.88600396902133427 0.051483240582697938 6.8588056973919697e-05 -0.88706968897802696 2.1684369384597731e-07 -3.8327942651455653e-05 -0.7554248531366794 0.048619239631453745 -2.7820678999585611e-06 -0.75711005060703584 1.2419512427589632e-07 -3.94821502613155e-06 -0.70855687764299491 4.5327973735845666e-07 -3.6207290855509821e-06 -0.88520013302328271 2.1684369384597731e-07 -3.8327942651455653e-05 -0.7554248531366794 4.5327973735845666e-07 -3.6207290855509821e-06 -0.88520013302328271 0.051483240582697945 6.858805697391971e-05 -0.88706968897802707 0.069565037916625438 -3.4018367016004153e-06 -0.88813904260587906 0.048619239631453745 -2.7820678999585611e-06 -0.75711005060703584 0.048619239631453745 -2.7820678999585611e-06 -0.75711005060703584 4.5327973735845666e-07 -3.6207290855509821e-06 -0.88520013302328271 0.051483240582697938 6.8588056973919697e-05 -0.88706968897802696 2.1684369384597731e-07 -3.8327942651455653e-05 -0.7554248531366794 
</DataArray>
</PointData>
<CellData Scalars="" Vectors="" Tensors="stress,">
<DataArray type="Float64" Name="stress" NumberOfComponents="9" format="ascii">
0.098057654368658848 0.00021354644334072235 0.00058544567440690313 0.00021354644334072235 -0.16125599047750883 -0.00012003193997199026 0.00058544567440690313 -0.00012003193997199026 -0.90475369145980267 0.10198214150193624 4.7178971386499749e-05 8.4531555913760345e-06 4.7178971386499749e-05 -0.1591042768516906 1.9544559026318944e-05 8.4531555913760345e-06 1.9544559026318944e-05 -0.89712397733251104 0.10115373111902037 2.5444861198033936e-05 0.00022175134087198354 2.5444861198033936e-05 -0.15978471257780968 1.5828848986638584e-05 0.00022175134087198354 1.5828848986638584e-05 -0.90027207421171052 0.10208548771289697 2.691076966801117e-06 -0.00053661786044240101 2.691076966801117e-06 -0.15936148205335271 0.00065354753037608472 -0.00053661786044240101 0.00065354753037608472 -0.89871710793941817 0.10227016575134157 -5.7531952669773535e-05 -0.0022144106435280086 -5.7531952669773535e-05 -0.15909363450025676 -0.0003073323218661661 -0.0022144106435280086 -0.0003073323218661661 -0.89849301734950049 0.098602138184014698 0.00031431863937978225 -0.0012309484925424885 0.00031431863937978225 -0.16059974126448573 -0.00048620518170655602 -0.0012309484925424885 -0.00048620518170655602 -0.90100065472300161 0.10186688934519608 -8.2182694615150033e-05 -0.00049094598494570096 -8.2182694615150033e-05 -0.15935512415527384 0.00058674127298327661 -0.00049094598494570096 0.00058674127298327661 -0.89863234624916877 0.098440007696629278 0.00035736044817691131 -0.001232183829770625 0.00035736044817691131 -0.16076527648551975 -0.00039358527262028931 -0.001232183829770625 -0.00039358527262028931 -0.90187661438001721 0.10133255491633039 -6.6172520867337938e-05 -0.0015472330852378535 -6.6172520867337938e-05 -0.15987605542941388 -0.00017472409113803572 -0.0015472330852378535 -0.00017472409113803572 -0.90152733875826341 0.10135046875865217 -4.2395709402882096e-05 -0.0014359568187119753 -4.2395709402882096e-05 -0.16005315670888259 -0.0004490755443209149 -0.0014359568187119753 -0.0004490755443209149 -0.90129997444074461 0.10130778625158701 -0.00016400705005239656 -0.0012561560489198209 -0.00016400705005239656 -0.15990871941584203 -0.00053995956462538075 -0.0012561560489198209 -0.00053995956462538075 -0.90036679682489174 0.10202763795748615 0.00015941079997132228 -0.00036820458684322377 0.00015941079997132228 -0.15973635110846007 0.0003889043870923814 -0.00036820458684322377 0.0003889043870923814 -0.90052286389847025 0.10307581648412478 1.1051346055992548e-05 -0.001129757416100885 1.1051346055992548e-05 -0.1592087563824281 0.00057811940157351249 -0.001129757416100885 0.00057811940157351249 -0.89886413419156419 0.10195336669128538 7.6987241861163353e-05 -0.00011636825068001011 7.6987241861163353e-05 -0.15896933637165614 -0.00029139449967297004 -0.00011636825068001011 -0.00029139449967297004 -0.89740219650066122 0.10183263620427133 9.2675839466385121e-05 -8.1353562766755734e-06 9.2675839466385121e-05 -0.15913735527930919 4.8599649636500654e-05 -8.1353562766755734e-06 4.8599649636500654e-05 -0.89793211942926887 0.09817480404464779 -0.00016299416032724363 -0.00011260672372507871 -0.00016299416032724363 -0.16130954681447293 -3.1796520838229166e-05 -0.00011260672372507871 -3.1796520838229166e-05 -0.90521819576406248 0.098676579644240994 -0.00025917818262048405 -0.0017742496949579856 -0.00025917818262048405 -0.16071947662495095 -0.00061209381700100263 -0.0017742496949579856 -0.00061209381700100263 -0.90245965389992233 0.094640435426059752 0.00059442987138646759 0.00072037591992090387 0.00059442987138646759 -0.16209120141405517 7.0935878493760001e-06 0.00072037591992090387 7.0935878493760001e-06 -0.90608775792182372 0.097839123934470723 0.00044854752259225353 0.00045712361204157392 0.00044854752259225353 -0.1614579982933807 5.0570314900466595e-05 0.00045712361204157392 5.0570314900466595e-05 -0.90498610781196098 0.091320780648626046 0.00038492171689382499 -0.0036379540608456606 0.00038492171689382499 -0.16310581113972081 2.2581627283610288e-05 -0.0036379540608456606 2.2581627283610288e-05 -0.90670299910261909 0.087717888511250452 0.00078886540495402011 0.00085126279525703924 0.00078886540495402011 -0.16552389965152872 -0.0003127819347199523 0.00085126279525703924 -0.0003127819347199523 -0.91583865605437564 0.087563021047643186 0.00051513518569041954 0.00093606649911468507 0.00051513518569041954 -0.16570168429644189 -8.394267812485792e-05 0.00093606649911468507 -8.394267812485792e-05 -0.91601554802789242 0.087587554825697314 -0.0002229461502405822 -0.00038863844835059657 -0.0002229461502405822 -0.16527162122214897 -1.6218252756973052e-05 -0.00038863844835059657 -1.6218252756973052e-05 -0.9151443143618242 0.088189305439332538 -0.00035837952388742268 -0.002754140141928707 -0.00035837952388742268 -0.16427058333270778 -0.0011127597540343029 -0.002754140141928707 -0.0011127597540343029 -0.91053385512522922 0.088001079854801573 0.00063958917655351441 -0.001947174408060609 0.00063958917655351441 -0.16546162420153557 -0.0002071030200013757 -0.001947174408060609 -0.0002071030200013757 -0.9153046568950155 0.089089765955162104 0.00073705064671325342 -0.0016182418054769276 0.00073705064671325342 -0.1641682430088871 -0.0011282159134051173 -0.0016182418054769276 -0.0011282159134051173 -0.91022972086149778 0.096901468091606158 -0.00058679150269823289 -0.0057509978302955345 -0.00058679150269823289 -0.16171969574641654 -0.00074345786373175571 -0.0057509978302955345 -0.00074345786373175571 -0.90478561371465771 0.099118971593659011 0.00018745320828545623 -0.0027495433468713859 0.00018745320828545623 -0.16060989720933788 0.0005223654132910649 -0.0027495433468713859 0.0005223654132910649 -0.90147840504449128 0.096292765829536775 0.00014070375407966619 -0.0070544025695111756 0.00014070375407966619 -0.16245234558370691 -0.00011918085618195517 -0.0070544025695111756 -0.00011918085618195517 -0.90792942580902691 0.088959332909325853 0.0010476441477767051 -0.0046475506001138756 0.0010476441477767051 -0.16525583711504283 0.00017875034930564526 -0.0046475506001138756 0.00017875034930564526 -0.91517293183208492 0.091457157904026615 0.00039039188488180669 -0.0036101622698009872 0.00039039188488180669 -0.16470373223164694 -0.00055213146626966608 -0.0036101622698009872 -0.00055213146626966608 -0.91434895448584108 0.098458867954886675 0.00011904892504659145 -0.0021038160733850564 0.00011904892504659145 -0.16152418529325291 0.00021243229679313025 -0.0021038160733850564 0.00021243229679313025 -0.90546768025098001 0.091639871859760552 0.00012025237635101262 -0.0029608636225974538 0.00012025237635101262 -0.16321276413050659 0.00019083174269150967 -0.0029608636225974538 0.00019083174269150967 -0.9071061432048817 0.08979554343401959 0.00068136979081700794 -0.0042705290778712879 0.00068136979081700794 -0.16352803588157977 0.0013470242440122293 -0.0042705290778712879 0.0013470242440122293 -0.90744785608077616 0.091159835138713619 0.0010098860823197361 -0.0060656274074257222 0.0010098860823197361 -0.16306457564629129 -0.00062618933748248562 -0.0060656274074257222 -0.00062618933748248562 -0.90623041389985337 0.08915937210077951 0.0010201170002207428 -0.0044978797232995138 0.0010201170002207428 -0.16512295536537114 -2.220320875478965e-05 -0.0044978797232995138 -2.220320875478965e-05 -0.91451977403417528 0.10183033978917921 0.000120530211101991 -0.0030495134866950768 0.000120530211101991 -0.16044478607028423 0.00032781036730777924 -0.0030495134866950768 0.00032781036730777924 -0.9030989909529028 0.10020507403709689 0.00046870191569909497 -0.0035745089999253965 0.00046870191569909497 -0.1600107740143098 -3.8462533405447807e-05 -0.0035745089999253965 -3.8462533405447807e-05 -0.89930607095515591 0.10248810438343467 -0.00026549399125979674 -0.0021132421649095456 -0.00026549399125979674 -0.15929471235409942 -0.00037787078961401543 -0.0021132421649095456 -0.00037787078961401543 -0.89843265534105854 0.10378832596381865 8.3038546246443166e-05 -0.0014132706050181687 8.3038546246443166e-05 -0.15905641246217567 -0.00059157836501022576 -0.0014132706050181687 -0.00059157836501022576 -0.89824529824262966 0.10237420795316987 -0.00035308634175317135 -0.00054458960175381155 -0.00035308634175317135 -0.15951192937313974 -0.0003811143071202408 -0.00054458960175381155 -0.0003811143071202408 -0.89942085845465169 0.10680522704327833 2.2408761175120523e-06 -0.0018511681825388315 2.2408761175120523e-06 -0.1579917081317247 0.00045591860715865629 -0.0018511681825388315 0.00045591860715865629 -0.89537457491324979 0.10482859794447003 0.00046007274060883062 -0.00037742316323324809 0.00046007274060883062 -0.1586864909933724 0.00032999591439414333 -0.00037742316323324809 0.00032999591439414333 -0.89788923919141128 0.10669588044072231 4.3194808609215183e-05 -0.001734812889374604 4.3194808609215183e-05 -0.15799989099217671 0.00052572791029098509 -0.001734812889374604 0.00052572791029098509 -0.89591486434181689 0.10329604355340299 1.1356075564494811e-06 -0.001331130644982248 1.1356075564494811e-06 -0.15900886477218212 0.00038420800317340298 -0.001331130644982248 0.00038420800317340298 -0.89796179571274748 0.10645043971292967 -2.4953516761359876e-05 -0.0028614498295725932 -2.4953516761359876e-05 -0.15817585143766599 -0.00058431174802797692 -0.0028614498295725932 -0.00058431174802797692 -0.89634653094202843 0.10658794293745977 -2.1611683144762757e-05 -0.0030000917715489184 -2.1611683144762757e-05 -0.15763989652096327 2.3043627941365941e-06 -0.0030000917715489184 2.3043627941365941e-06 -0.89603551023575956 0.10242425112679138 -3.4668688192343797e-05 -0.0023633752833819299 -3.4668688192343797e-05 -0.15905457772693998 2.4664042725497382e-05 -0.0023633752833819299 2.4664042725497382e-05 -0.89776132124687091 0.10473885428337082 4.6171168233566952e-05 -0.00056705056526146214 4.6171168233566952e-05 -0.15872478519201411 -0.00015062818642008757 -0.00056705056526146214 -0.00015062818642008757 -0.89937646848201225 0.10256763388328882 -3.0271455116030507e-05 -0.0023548208718703889 -3.0271455116030507e-05 -0.15892636379961367 0.00013047215174284699 -0.0023548208718703889 0.00013047215174284699 -0.89717277534061202 0.10209550627628808 0.00065258072965058457 -0.0013202583710625604 0.00065258072965058457 -0.15968732254306828 0.00041894441378564906 -0.0013202583710625604 0.00041894441378564906 -0.90151453562959616 0.10308245858863713 0.00093961701279369775 -0.0019033624877455302 0.00093961701279369775 -0.15886665479892925 -0.00045371112109526823 -0.0019033624877455302 -0.00045371112109526823 -0.8980512707564392 0.10213520337223519 2.4458749045474117e-05 -0.0022072869765410175 2.4458749045474117e-05 -0.159351776525476 0.0008490203066165436 -0.0022072869765410175 0.0008490203066165436 -0.89906627256743055 0.10389716677588157 -0.0015530469318827836 -0.0013269651365972468 -0.0015530469318827836 -0.15873532013427372 0.00072088384215573953 -0.0013269651365972468 0.00072088384215573953 -0.89818200583618513 0.10583288363252141 -3.9756597715586759e-05 -0.0036699637655177586 -3.9756597715586759e-05 -0.1576529498099622 0.00091691898981072217 -0.0036699637655177586 0.00091691898981072217 -0.8950981960804969 0.090306414181786254 -0.00019473579071961828 -0.0029272688986026751 -0.00019473579071961828 -0.16490541059682667 -7.3519632292129433e-05 -0.0029272688986026751 -7.3519632292129433e-05 -0.91541030491251285 0.093460059715136573 -0.00064469236728507528 -0.0022701322998510409 -0.00064469236728507528 -0.16172690090395603 -0.00014507406403532763 -0.0022701322998510409 -0.00014507406403532763 -0.90319748604703864 0.090556018208078626 -0.00024966338894673979 -0.0031606741639595981 -0.00024966338894673979 -0.16484317891745748 0.00018734836325834392 -0.0031606741639595981 0.00018734836325834392 -0.91477733929916938 0.094536807937979694 -0.00035828235103541246 -0.006291249680538874 -0.00035828235103541246 -0.16273903308063808 0.00022386592931256111 -0.006291249680538874 0.00022386592931256111 -0.90888027654806969 0.092221091636517205 -0.0011199217150153723 -0.0046169577824216046 -0.0011199217150153723 -0.16442380986086819 0.0019831734152993552 -0.0046169577824216046 0.0019831734152993552 -0.91552116488599711 0.096374192208552589 0.00014492486211322423 -0.0070442067686821153 0.00014492486211322423 -0.16209260634181641 -6.1657282512062039e-05 -0.0070442067686821153 -6.1657282512062039e-05 -0.90784197576813574 0.090034091298892671 4.2625759776905635e-05 -0.0014512852617635796 4.2625759776905635e-05 -0.16414939276827054 -0.0030829807072476623 -0.0014512852617635796 -0.0030829807072476623 -0.90911692416768553 0.092858505053676821 -3.6065558091190016e-05 -0.0036950253391837551 -3.6065558091190016e-05 -0.16284004891453166 -4.30289368027921e-05 -0.0036950253391837551 -4.30289368027921e-05 -0.90786326401543471 0.089158613173060355 -0.0001154803169921997 -0.0046016755464640124 -0.0001154803169921997 -0.16476112944081606 3.9554804920127751e-05 -0.0046016755464640124 3.9554804920127751e-05 -0.91304856719168548 0.090877427556120216 0.00016717652429646654 0.00063185266797446667 0.00016717652429646654 -0.16356706508322058 -3.2717666258049306e-05 0.00063185266797446667 -3.2717666258049306e-05 -0.90665411508165827 0.097617823607347637 -0.00035802987527531137 0.00014861777416402822 -0.00035802987527531137 -0.1613685462134079 0.00091374347632144914 0.00014861777416402822 0.00091374347632144914 -0.90436119623366718 0.090081871841420941 1.3413582342485841e-05 -0.0022919244309994036 1.3413582342485841e-05 -0.16407616812939996 0.0033078635272451029 -0.0022919244309994036 0.0033078635272451029 -0.91030384264573694 0.092579943630900635 -0.0011563132604399814 -0.0033575457199541137 -0.0011563132604399814 -0.1626889770118706 -0.00080981849110589588 -0.0033575457199541137 -0.00080981849110589588 -0.90713912519807094 0.097317818893389862 -0.00023166231068349341 0.00070659050142185726 -0.00023166231068349341 -0.16191829896080157 -4.0911608866803399e-05 0.00070659050142185726 -4.0911608866803399e-05 -0.90503753676198362 0.087876555539565554 -5.0408116828403223e-05 0.00075449051292624946 -5.0408116828403223e-05 -0.16532633278351436 3.0743241616604023e-05 0.00075449051292624946 3.0743241616604023e-05 -0.91531693359447241 0.088108454040488698 -0.00018834341410446984 0.00073770906324559964 -0.00018834341410446984 -0.16589126129298284 4.3101315666581226e-06 0.00073770906324559964 4.3101315666581226e-06 -0.91538490408341633 0.10118538173567979 -4.8687322521488361e-05 -0.0014723433134976038 -4.8687322521488361e-05 -0.16006689431745547 0.00017140816960638239 -0.0014723433134976038 0.00017140816960638239 -0.90214225835140049 0.1011481326109665 5.5057417054886792e-05 -0.0014881849871847697 5.5057417054886792e-05 -0.16015924908750331 0.00059159270682546117 -0.0014881849871847697 0.00059159270682546117 -0.90219871163276999 0.10164018713307812 6.74549028804229e-05 -0.00084253692863334173 6.74549028804229e-05 -0.15998926992238491 7.4443862701925947e-06 -0.00084253692863334173 7.4443862701925947e-06 -0.90103649394520091 0.097587219753858007 -3.3439972393119953e-05 0.00046254461785481224 -3.3439972393119953e-05 -0.16110879453723248 2.0976723749238225e-05 0.00046254461785481224 2.0976723749238225e-05 -0.90260326585614736 0.10186257301512229 7.4741361382360229e-05 4.3825514361198837e-06 7.4741361382360229e-05 -0.15914477580238995 5.2535689926360438e-05 4.3825514361198837e-06 5.2535689926360438e-05 -0.89792821277852131 0.10175533421830356 4.6427198498503199e-05 -0.00010818157483283449 4.6427198498503199e-05 -0.15934880904598483 -0.00016787079543323369 -0.00010818157483283449 -0.00016787079543323369 -0.89826068298230788 0.10174015577481091 -1.922014998793904e-05 -0.00079093097797683365 -1.922014998793904e-05 -0.15980148123310689 -0.00021668645973824639 -0.00079093097797683365 -0.00021668645973824639 -0.90052008884180168 0.10268520688144789 -7.2532746218922669e-06 -0.0012886117293425814 -7.2532746218922669e-06 -0.15895572785804069 -0.00027286413673251186 -0.0012886117293425814 -0.00027286413673251186 -0.89724320148318149 0.10198906472516669 -9.7228884900139168e-06 4.4225786669689626e-06 -9.7228884900139168e-06 -0.15923725197000388 8.839652448716122e-06 4.4225786669689626e-06 8.839652448716122e-06 -0.8984684840391961 0.10180497528243317 0.00012188474356223392 -4.4709858686818422e-05 0.00012188474356223392 -0.15945945242629353 4.440814675250726e-05 -4.4709858686818422e-05 4.440814675250726e-05 -0.89854289213666905 0.10307004980726411 0.00014723827049739329 -0.0013825499277544673 0.00014723827049739329 -0.15873992703688708 0.00010561713338436141 -0.0013825499277544673 0.00010561713338436141 -0.89665047045282009 0.10198227971924856 0.0001385684379558015 -0.00083150305421778037 0.0001385684379558015 -0.15969743314014118 0.0001207519573679372 -0.00083150305421778037 0.0001207519573679372 -0.90050497653793116 0.10200741923244483 -0.00016091863003873735 6.4173994927174715e-05 -0.00016091863003873735 -0.1592758505019351 1.1427443338223271e-05 6.4173994927174715e-05 1.1427443338223271e-05 -0.89763229358457164 0.098113177936197754 8.2854645466946442e-05 0.00071643044719352234 8.2854645466946442e-05 -0.16078280776938825 0.00021845670994929955 0.00071643044719352234 0.00021845670994929955 -0.90213646177875717 0.1020773519043668 -3.4629814183959717e-05 0.00017906575690895821 -3.4629814183959717e-05 -0.15923354974246706 0.00027986906178428805 0.00017906575690895821 0.00027986906178428805 -0.89803099056989977 0.10182252020031235 -3.8299899217539263e-05 3.1703189395894385e-06 -3.8299899217539263e-05 -0.1594195000625491 3.7345724557320848e-05 3.1703189395894385e-06 3.7345724557320848e-05 -0.89770223036070829 0.097646891322893753 -0.00027735385710354622 0.00077784422306490192 -0.00027735385710354622 -0.16106657321457379 8.2873343042149067e-05 0.00077784422306490192 8.2873343042149067e-05 -0.90205663548106507 0.09765341361525251 -0.00017450450601698853 0.0004643583973449806 -0.00017450450601698853 -0.16112725691022778 -8.7835532444213653e-06 0.0004643583973449806 -8.7835532444213653e-06 -0.9025929852892568 0.10143156867071018 -0.00015669580345080216 -0.0010970877219312336 -0.00015669580345080216 -0.16005047720285562 -7.6507801177679718e-05 -0.0010970877219312336 -7.6507801177679718e-05 -0.90092754152388999 0.10314742861872739 -7.0541618183759907e-05 -0.0011576285373359196 -7.0541618183759907e-05 -0.15850335669615068 -0.00038086632538214538 -0.0011576285373359196 -0.00038086632538214538 -0.89737140890716605 0.10286374837386825 8.7161316516961798e-07 -0.0013701124940929121 8.7161316516961798e-07 -0.15878749007627985 0.00023142990924499007 -0.0013701124940929121 0.00023142990924499007 -0.89651861449262937 0.10166152299686773 -1.2578511296138453e-05 -0.00084622109703391679 -1.2578511296138453e-05 -0.15991472480312896 0.00021432401405171997 -0.00084622109703391679 0.00021432401405171997 -0.90103160975456253 0.099930677062381582 0.0015407177936410266 -0.0024438278469402358 0.0015407177936410266 -0.1599617498523429 0.0010319469341831256 -0.0024438278469402358 0.0010319469341831256 -0.90095977472544519 0.10286346729629067 7.9487689822697668e-05 -0.0012303319390127299 7.9487689822697668e-05 -0.15980860955122889 0.00026424350872289101 -0.0012303319390127299 0.00026424350872289101 -0.90137851518488521 0.10317781258356862 1.4385465461636904e-05 -0.0014291031365933904 1.4385465461636904e-05 -0.15911855544477604 -0.00038076229318434116 -0.0014291031365933904 -0.00038076229318434116 -0.90054093885623643 0.099876651700098629 4.8970560359762986e-06 -0.0038007842335843894 4.8970560359762986e-06 -0.16086925897411103 -0.00030776727098144607 -0.0038007842335843894 -0.00030776727098144607 -0.90422436522093008 0.10287439425074968 -1.9219448813148437e-06 -0.0013770219084161539 -1.9219448813148437e-06 -0.15882347881982839 0.00018828711578244839 -0.0013770219084161539 0.00018828711578244839 -0.8964293396825509 0.10196551157329647 -0.0004297613195109243 -0.00091181842969331739 -0.0004297613195109243 -0.15933985361782382 0.00017009840269344156 -0.00091181842969331739 0.00017009840269344156 -0.89907586586450261 0.10173491533286899 -0.0011408242004601517 -0.00147643638936093 -0.0011408242004601517 -0.16002237793308155 -0.00076515051763498265 -0.00147643638936093 -0.00076515051763498265 -0.90137391245849741 0.10594441694975865 -9.2368413455854393e-06 -0.0035407884671455614 -9.2368413455854393e-06 -0.15779000876976623 0.0004492640790845423 -0.0035407884671455614 0.0004492640790845423 -0.89440215431174819 0.10557380847939696 -9.0747946525611623e-06 -0.0035961465112359647 -9.0747946525611623e-06 -0.15817013405928471 -0.00062670510490361875 -0.0035961465112359647 -0.00062670510490361875 -0.89587532433238537 0.10586081803749665 -8.1991190859173946e-05 -0.0031918546559667194 -8.1991190859173946e-05 -0.15752249916167221 -0.00015192774416306065 -0.0031918546559667194 -0.00015192774416306065 -0.89402871340591461 0.1051443670233897 1.1099159018740168e-05 -0.0029890042530501537 1.1099159018740168e-05 -0.15794064811334285 -0.00033233698642920473 -0.0029890042530501537 -0.00033233698642920473 -0.89658660194300444 0.10502985194850534 -0.00010321350302864126 -0.0029942461087382188 -0.00010321350302864126 -0.158360551711348 9.1472477923848494e-05 -0.0029942461087382188 9.1472477923848494e-05 -0.89725278627111926 0.10003830982351397 -0.00032962210460158934 -0.003401722515399247 -0.00032962210460158934 -0.16018952453352686 -0.00023366221665663267 -0.003401722515399247 -0.00023366221665663267 -0.90080728277332622 0.10299727000849077 -0.00015474611611896632 -0.0013324622837176114 -0.00015474611611896632 -0.15957320818203521 0.00011327515721554215 -0.0013324622837176114 0.00011327515721554215 -0.90066702168955415 0.10539764918714849 0.00030285714627444825 -0.0029856049098799797 0.00030285714627444825 -0.15834966293078068 0.00068219527849089356 -0.0029856049098799797 0.00068219527849089356 -0.89615582262319071 0.10533503153239776 1.2511205617812533e-06 -0.0031308640592604409 1.2511205617812533e-06 -0.15770966705123107 -9.6787321722802133e-06 -0.0031308640592604409 -9.6787321722802133e-06 -0.89586652867892091 0.10641803821961759 -4.7199178558789302e-05 -0.0017565945774646874 -4.7199178558789302e-05 -0.15807954335384933 -0.00055837449096579617 -0.0017565945774646874 -0.00055837449096579617 -0.89557280336658751 0.10467351411500436 -0.00042717120288021388 -0.00050876570883118255 -0.00042717120288021388 -0.15874066270072873 -0.00032837913548539044 -0.00050876570883118255 -0.00032837913548539044 -0.89759295614418755 0.10307122707094052 0.00012418662726656124 -0.0016582749189196777 0.00012418662726656124 -0.15912568465941168 0.00073172360353890298 -0.0016582749189196777 0.00073172360353890298 -0.89794870848696684 0.10018804647535877 -0.00012223793141555956 -0.0036713145511941825 -0.00012223793141555956 -0.15982782817161995 0.00026144056612964484 -0.0036713145511941825 0.00026144056612964484 -0.89859271583670619 0.10342626295928653 -1.1708868455490363e-06 -0.0012748006180643978 -1.1708868455490363e-06 -0.15895556032865682 -0.00042209067044407522 -0.0012748006180643978 -0.00042209067044407522 -0.89741245578033757 0.10336053616250795 -8.70846482158251e-05 -0.0011647742013928819 -8.70846482158251e-05 -0.15884934237606357 -0.00038871264518974824 -0.0011647742013928819 -0.00038871264518974824 -0.89784910327404932 0.10232735746316451 -0.00014826513005364517 -0.00037834311768136786 -0.00014826513005364517 -0.15929926124765476 -0.00029600412195357473 -0.00037834311768136786 -0.00029600412195357473 -0.89969843437870867 0.10056218384139723 4.2487211609869433e-05 0.00042239290120137167 4.2487211609869433e-05 -0.15981615680373251 -1.4355661070739224e-05 0.00042239290120137167 -1.4355661070739224e-05 -0.90117782476657526 0.10210887773055646 -2.3781280008667198e-06 -0.00068485235842330461 -2.3781280008667198e-06 -0.15922210342579679 -0.00039334329092310938 -0.00068485235842330461 -0.00039334329092310938 -0.8991057561878909 0.1014054470707267 0.00020417337143031932 -0.0003008465194413168 0.00020417337143031932 -0.15940945978182386 -0.00051931197800336726 -0.0003008465194413168 -0.00051931197800336726 -0.89964802122301979 0.1011445532936727 -3.1475013831342748e-05 7.8489065664195463e-06 -3.1475013831342748e-05 -0.15921287491674196 1.8122769073719806e-05 7.8489065664195463e-06 1.8122769073719806e-05 -0.89836274873539634 0.10216894176315072 2.4811598346043851e-05 -0.00064990259293418173 2.4811598346043851e-05 -0.15969373416192498 -0.00023006646287563118 -0.00064990259293418173 -0.00023006646287563118 -0.90014498770887297 0.10129336168608441 -0.00022486069562354535 9.0896824117978861e-05 -0.00022486069562354535 -0.15947937517701022 7.2975543461231067e-05 9.0896824117978861e-05 7.2975543461231067e-05 -0.89839566350529598 0.10191591201237074 -4.5188114230232398e-05 -0.00039176730705642315 -4.5188114230232398e-05 -0.15961478529772391 -7.0495961610100855e-05 -0.00039176730705642315 -7.0495961610100855e-05 -0.90053391128549631 0.10176038621279893 2.228292529082378e-06 -0.00015113013779985418 2.228292529082378e-06 -0.15935981354194009 -0.00015475742472625953 -0.00015113013779985418 -0.00015475742472625953 -0.89807315448310987 0.10177270620735215 -0.00020186437398875091 -0.00040726578117894485 -0.00020186437398875091 -0.15981338801478054 -7.4376830742038658e-06 -0.00040726578117894485 -7.4376830742038658e-06 -0.90053650226137671 0.10301558690700235 9.0243344504819227e-05 -0.0012449908265250165 9.0243344504819227e-05 -0.15907766349481051 -0.00030471279914856542 -0.0012449908265250165 -0.00030471279914856542 -0.89790792560176369 0.10295179233476028 -1.8626093760548134e-05 -0.0012000514168479248 -1.8626093760548134e-05 -0.15905482787181247 -9.4305867465394044e-05 -0.0012000514168479248 -9.4305867465394044e-05 -0.89779763181533889 0.097810290834779962 -0.00035260250894860942 0.00078574411505846764 -0.00035260250894860942 -0.16074175852157346 9.6135004661046519e-05 0.00078574411505846764 9.6135004661046519e-05 -0.90195964154923725 0.097771554741957867 -0.00035965265841655068 0.00078814541266468234 -0.00035965265841655068 -0.16091520891096422 7.1992828372760372e-05 0.00078814541266468234 7.1992828372760372e-05 -0.90200363746942336 0.098309850221222933 0.00034882952042117452 0.0001024624928685644 0.00034882952042117452 -0.16037895322528339 -1.1231256992454242e-05 0.0001024624928685644 -1.1231256992454242e-05 -0.90175056836734691 0.098127539421335452 0.00041541695725133554 -0.0017453209677862902 0.00041541695725133554 -0.1607625283816439 -0.0011363309125059506 -0.0017453209677862902 -0.0011363309125059506 -0.90352022177790092 0.097254274886151071 -0.00031723728620051923 -0.00091269631565148168 -0.00031723728620051923 -0.16147712605934419 -0.00051476379914972004 -0.00091269631565148168 -0.00051476379914972004 -0.90509581849433429 0.098643526607172544 -0.00033333697064527118 -0.0016125475169711523 -0.00033333697064527118 -0.16023507424396169 -0.00031310721867872093 -0.0016125475169711523 -0.00031310721867872093 -0.90010802102496756 0.10217609408792613 -5.2597077404951363e-05 -0.00057303181711271245 -5.2597077404951363e-05 -0.15942682104165984 -9.9557909752578944e-05 -0.00057303181711271245 -9.9557909752578944e-05 -0.89968207240130438 0.092520851581783525 0.00087511713593543545 0.001118883041417662 0.00087511713593543545 -0.16229273787857829 0.00020622651987739493 0.001118883041417662 0.00020622651987739493 -0.90424171695231759 0.092744323975014059 -0.0054564948282454992 -0.004019030296849857 -0.0054564948282454992 -0.16288046676708492 -0.0018771998877106233 -0.004019030296849857 -0.0018771998877106233 -0.90870066381296144 0.092094200700257131 0.00067023819045604414 -0.0031148284649664681 0.00067023819045604414 -0.1631311070212938 0.00021059627810457449 -0.0031148284649664681 0.00021059627810457449 -0.9080481992905074 0.094858690990364869 -0.00014358010163009199 0.00072345081628693512 -0.00014358010163009199 -0.16216657822669206 -5.0123768064284466e-06 0.00072345081628693512 -5.0123768064284466e-06 -0.90726206037352064 0.088842392404747755 0.00025287588451850489 0.0002287535747272848 0.00025287588451850489 -0.16494618452588597 0.0026668216391605992 0.0002287535747272848 0.0026668216391605992 -0.91536305034716692 0.088580022097526523 -0.00033898356818504069 0.00038749840700472984 -0.00033898356818504069 -0.16542055547062762 -4.1755694332078434e-05 0.00038749840700472984 -4.1755694332078434e-05 -0.91698001304998744 0.087099608032121148 4.5895762099307096e-05 -0.0030042984548399564 4.5895762099307096e-05 -0.16510100738004113 -0.0017166952513855318 -0.0030042984548399564 -0.0017166952513855318 -0.91215357301944611 0.090389867868988658 0.0008027370216314194 -7.2800537232020088e-06 0.0008027370216314194 -0.16345855355642808 5.6768757733238957e-05 -7.2800537232020088e-06 5.6768757733238957e-05 -0.90840720157562171 0.087479191996900574 -0.00040001080465221217 -0.000534105121660855 -0.00040001080465221217 -0.16527103447334934 0.00032373900030141511 -0.000534105121660855 0.00032373900030141511 -0.91395296179907914 0.086202136058536549 -0.00079367062868200458 -0.0023981445512834126 -0.00079367062868200458 -0.16613013232980967 5.2444960518149841e-05 -0.0023981445512834126 5.2444960518149841e-05 -0.91686635122236326 0.096464888007788352 -3.6304754829906238e-05 -0.0068568520415229761 -3.6304754829906238e-05 -0.16264805971023727 0.00022242747079642688 -0.0068568520415229761 0.00022242747079642688 -0.90960457437640962 0.098024294193388664 4.7885010263239294e-05 -0.0030717745886008618 4.7885010263239294e-05 -0.16071240449863372 -0.00035275892894148092 -0.0030717745886008618 -0.00035275892894148092 -0.90138528964280817 0.091518503506909044 -0.00029818872084573121 -0.0040125307150961076 -0.00029818872084573121 -0.16275617539066051 -0.00025753660351890417 -0.0040125307150961076 -0.00025753660351890417 -0.90541158482761452 0.089075808610535934 -0.00015317063840948177 -0.0019729094026992855 -0.00015317063840948177 -0.16422314281876776 -0.00069191163009879597 -0.0019729094026992855 -0.00069191163009879597 -0.91029823494099094 0.09640424477913602 -5.2849341362535693e-05 -0.0017387471574091262 -5.2849341362535693e-05 -0.16160121635983765 2.1125764431660643e-05 -0.0017387471574091262 2.1125764431660643e-05 -0.90455939417431064 0.088947759931893772 -0.0003378818075491732 -0.002660479020689499 -0.0003378818075491732 -0.16523373749055384 -0.00019903229226589381 -0.002660479020689499 -0.00019903229226589381 -0.91528820664961497 0.091316320628678893 -0.0005372855045120557 -0.0049001678408859273 -0.0005372855045120557 -0.16412134148956925 0.00039769468580530543 -0.0049001678408859273 0.00039769468580530543 -0.91210170147984204 0.098616408221309237 -0.00053029185256524009 -0.0022941626820988104 -0.00053029185256524009 -0.1610023896561108 0.00030339155780112481 -0.0022941626820988104 0.00030339155780112481 -0.90392203598046295 0.10231539666500401 4.7812475940749853e-05 -0.0031067717518018512 4.7812475940749853e-05 -0.16053410350987463 6.7385079407622506e-05 -0.0031067717518018512 6.7385079407622506e-05 -0.90425112446425082 0.090085837553614573 -0.00089133036913480938 -0.0058557767138727179 -0.00089133036913480938 -0.16480826257688694 -0.00044448572681010656 -0.0058557767138727179 -0.00044448572681010656 -0.9145836723567945 0.096343893552933463 -0.00055611509656729944 -0.0067175604035696335 -0.00055611509656729944 -0.16255227181298729 7.9955050460767119e-05 -0.0067175604035696335 7.9955050460767119e-05 -0.90951734510439508 0.093073901947011289 0.0010690703545770959 -0.0052568999893120583 0.0010690703545770959 -0.16427359163029578 -0.0014157703876020444 -0.0052568999893120583 -0.0014157703876020444 -0.91435759646516923 0.094377625736200343 0.00021626874846421734 -0.0063688644369894465 0.00021626874846421734 -0.16326358715024691 -1.4022584338690969e-05 -0.0063688644369894465 -1.4022584338690969e-05 -0.91011239458995474 0.09392183810136695 0.00079515868416273679 -0.0023809311816220258 0.00079515868416273679 -0.16185499090451816 -3.6563572486311702e-05 -0.0023809311816220258 -3.6563572486311702e-05 -0.90315138517078397 0.093223707971250153 0.0010902546343647106 -0.0031336126950735621 0.0010902546343647106 -0.16279543631517995 0.00041468705415217966 -0.0031336126950735621 0.00041468705415217966 -0.90724475058376819 0.090736218802932977 -0.00043153158330943116 0.0010135812600100792 -0.00043153158330943116 -0.16375697142581361 4.7802900978527957e-05 0.0010135812600100792 4.7802900978527957e-05 -0.90858371844538988 0.097056003560867757 3.6888239823696604e-05 -0.0020227817522406877 3.6888239823696604e-05 -0.16177816749130566 -0.00027472184312810066 -0.0020227817522406877 -0.00027472184312810066 -0.90597392419795053 0.089326197348963549 0.00016196295812012057 -0.00044863017223284452 0.00016196295812012057 -0.16425299707901175 0.001996419928511961 -0.00044863017223284452 0.001996419928511961 -0.91017610198543486 0.096357308333141878 -0.00033400258732578622 -0.0017986943415147505 -0.00033400258732578622 -0.16218589101260986 -0.00011108791218786274 -0.0017986943415147505 -0.00011108791218786274 -0.90632432650022121 0.088794310984349978 -0.0010149643355347575 -0.001804947300308668 -0.0010149643355347575 -0.16444274538298503 -0.0030000325908502989 -0.001804947300308668 -0.0030000325908502989 -0.91090058743285685 0.086705141012872494 -0.0001624360683413654 -0.0041369551636006308 -0.0001624360683413654 -0.16532954349001439 0.00011087342510920917 -0.0041369551636006308 0.00011087342510920917 -0.91344980197983239 0.097437875722204387 -9.0265563303033061e-05 0.00048669979938061774 -9.0265563303033061e-05 -0.16087359410142876 1.7623785611440556e-06 0.00048669979938061774 1.7623785611440556e-06 -0.90258649079844533 0.088119207765628899 0.00012266060522068435 0.00079762118491090038 0.00012266060522068435 -0.16556871436630388 2.3258986280911979e-05 0.00079762118491090038 2.3258986280911979e-05 -0.91531245778583159 0.062558337751123072 0.0023089056699044114 0.0033648757219266745 0.0023089056699044114 -0.17389150594684133 0.0030811091638530685 0.0033648757219266745 0.0030811091638530685 -0.93342766775954655 0.06677421612639102 0.0028452618873669095 -0.0032530390098801099 0.0028452618873669095 -0.17215934497855423 -0.0009836513280600534 -0.0032530390098801099 -0.0009836513280600534 -0.92742624291454256 0.07982092944611982 0.00018765165287421232 0.0011699404231323637 0.00018765165287421232 -0.16773641865252381 -0.00049489217067238966 0.0011699404231323637 -0.00049489217067238966 -0.91849789303829876 0.072438515824058552 0.00036236092422271165 0.00037369235768293201 0.00036236092422271165 -0.16919196354737237 2.9880776893149742e-05 0.00037369235768293201 2.9880776893149742e-05 -0.91917488090262811 0.075935801532500152 0.00014494008502613338 -0.0048663940073381262 0.00014494008502613338 -0.16973579922593846 -0.00028550542573058113 -0.0048663940073381262 -0.00028550542573058113 -0.92465112050335285 0.066555761798484825 -6.5374379026786005e-05 -0.0054701231230155911 -6.5374379026786005e-05 -0.17226817461406163 -0.0017637847448076366 -0.0054701231230155911 -0.0017637847448076366 -0.92908731052687732 0.062035444388576506 -0.0054347584968474794 -0.0010585944788439328 -0.0054347584968474794 -0.17303357146406095 0.0019247661301798336 -0.0010585944788439328 0.0019247661301798336 -0.92979529862306598 0.079672793949621984 -0.00081129567549719612 0.00042033096744069104 -0.00081129567549719612 -0.16757150337486248 3.6128738826310587e-05 0.00042033096744069104 3.6128738826310587e-05 -0.91740424427073297 0.057476733225499163 -0.0027466732981845819 0.0018867213044876652 -0.0027466732981845819 -0.17455442095316651 -0.0025806377582898721 0.0018867213044876652 -0.0025806377582898721 -0.93202255001913981 0.079950947347441959 0.00075737167499950861 0.00095264534071917131 0.00075737167499950861 -0.16755521128183243 -3.6427652364035508e-05 0.00095264534071917131 -3.6427652364035508e-05 -0.91913179426952341 0.059715760931536854 0.00080368437222313582 -0.00091494588963441509 0.00080368437222313582 -0.17503221244196426 -0.00023345739934233504 -0.00091494588963441509 -0.00023345739934233504 -0.93835243642337729 0.058177821978054878 -0.00078984523610581563 0.0007603658598680634 -0.00078984523610581563 -0.17544616325989715 -2.9260398170139845e-05 0.0007603658598680634 -2.9260398170139845e-05 -0.93763718093594139 0.08100063684718084 -0.00043039911627627608 -0.0084308716499374714 -0.00043039911627627608 -0.16814887078924784 -0.00016399946459486059 -0.0084308716499374714 -0.00016399946459486059 -0.92180147026112436 0.082032152961270921 -0.00010679370578634871 -0.0020682272231342114 -0.00010679370578634871 -0.16683028231504432 9.5577812751934665e-05 -0.0020682272231342114 9.5577812751934665e-05 -0.91560845276598035 0.081548850680022683 -0.0016431316405760028 -0.0036044622265888736 -0.0016431316405760028 -0.16718075362524168 -0.00056821282620550528 -0.0036044622265888736 -0.00056821282620550528 -0.91747876746094381 0.073506010466791283 0.00082682595749575152 -0.0097307566908093543 0.00082682595749575152 -0.16933090870504675 0.0045725312757998182 -0.0097307566908093543 0.0045725312757998182 -0.92099558995120168 0.066436648189279995 -0.0016985883603546465 -0.011058521384687214 -0.0016985883603546465 -0.17257694310843014 0.00054675998487252464 -0.011058521384687214 0.00054675998487252464 -0.9313543154609244 0.065215654037692722 0.0019533153213507713 -0.0017583384590996176 0.0019533153213507713 -0.17433762296692226 0.00051849718792390531 -0.0017583384590996176 0.00051849718792390531 -0.9370736686613127 0.082425610314445202 0.0047330816968952976 -0.0031967738357231712 0.0047330816968952976 -0.16691220894054115 0.0017449802290809835 -0.0031967738357231712 0.0017449802290809835 -0.91654028907865692 0.071401671911086706 0.00012014366768334328 -0.0099065673642331487 0.00012014366768334328 -0.17182452216498778 0.00059485900365696676 -0.0099065673642331487 0.00059485900365696676 -0.93002680607789534 0.062621288523187713 -0.0011331098313331605 0.0024347324986714047 -0.0011331098313331605 -0.17381009934960992 0.00055562766338289327 0.0024347324986714047 0.00055562766338289327 -0.93232771272415438 0.066207522261955143 -0.00046507350970347158 -0.011306906185461929 -0.00046507350970347158 -0.17261549096322715 -0.00096715237083491723 -0.011306906185461929 -0.00096715237083491723 -0.92968278462541754 0.066539235787254541 0.0024693289421410304 -0.0076039885117650252 0.0024693289421410304 -0.17255394287517706 -0.00067493143677177514 -0.0076039885117650252 -0.00067493143677177514 -0.92825970902745492 0.056102997377123209 -0.0016104172301994605 -0.0022792433889628344 -0.0016104172301994605 -0.17717507445088415 -0.0001546901251288299 -0.0022792433889628344 -0.0001546901251288299 -0.94221324583117716 0.081028482605663782 -0.0011283964681910704 -0.0044563494513742835 -0.0011283964681910704 -0.16728855509483562 -0.00059239864841040268 -0.0044563494513742835 -0.00059239864841040268 -0.91771435321764094 0.056243865425564699 -0.0014440775845216121 -0.0047154608921721741 -0.0014440775845216121 -0.17669307718915928 0.00043221375771217846 -0.0047154608921721741 0.00043221375771217846 -0.93959334829371488 0.074893936195677024 -0.00015070508597659203 -0.0052234796951705631 -0.00015070508597659203 -0.16886526843101832 -0.00030956778195719015 -0.0052234796951705631 -0.00030956778195719015 -0.91931837628128144 0.076642142021991988 -0.00047342328554375883 -0.009160442405157232 -0.00047342328554375883 -0.16968652193302008 -0.00049541570935018875 -0.009160442405157232 -0.00049541570935018875 -0.9255246107808115 0.080765083862573639 -0.00048499620081686391 -0.0037018267264035121 -0.00048499620081686391 -0.16730985277137372 -0.00056966691458060215 -0.0037018267264035121 -0.00056966691458060215 -0.91776392225879166 0.057881284976518371 0.00098007343215638699 -0.0017151060295926834 0.00098007343215638699 -0.17582694141330171 0.0016979088793621644 -0.0017151060295926834 0.0016979088793621644 -0.93499966078874774 0.080942432503223527 -0.00073701967592047855 -0.0051197594477634389 -0.00073701967592047855 -0.16759651693126146 -0.00029351414322381641 -0.0051197594477634389 -0.00029351414322381641 -0.91905064004617476 0.072455961200106667 -0.00062756288889512007 -2.5443818309156541e-05 -0.00062756288889512007 -0.17076026556818608 -0.00044031752843104455 -2.5443818309156541e-05 -0.00044031752843104455 -0.92638442173670654 0.062381584492747943 0.0021649099054963151 -0.0029076900604083633 0.0021649099054963151 -0.17387947375972501 0.00030523177979221994 -0.0029076900604083633 0.00030523177979221994 -0.93019698548163854 0.061471267920607225 0.0019325820026039431 -0.004741794001618671 0.0019325820026039431 -0.17455556235167263 -0.00010888025111061017 -0.004741794001618671 -0.00010888025111061017 -0.93220884424791928 0.074260899160128374 -0.0010827105423056131 -0.0022619075988878478 -0.0010827105423056131 -0.16910354387004253 3.5356315959189644e-05 -0.0022619075988878478 3.5356315959189644e-05 -0.91979757933876327 0.061844545387499422 0.00063138090959740972 -0.0047578227423834829 0.00063138090959740972 -0.17294693823423501 0.0026085645989653017 -0.0047578227423834829 0.0026085645989653017 -0.93094966141639179 0.073282144677965427 0.00040597478253577378 -0.0037042460120414455 0.00040597478253577378 -0.17025217863728018 0.0016820979865308579 -0.0037042460120414455 0.0016820979865308579 -0.92408117993838224 0.08139746301241528 -0.0010756420500436193 0.00073539948873771444 -0.0010756420500436193 -0.16740595808908534 -1.0903449242093342e-05 0.00073539948873771444 -1.0903449242093342e-05 -0.91797316735578105 0.070137575234932859 -0.00096861759252187267 0.00089903798578760312 -0.00096861759252187267 -0.16968268619059557 -3.3299204976482803e-05 0.00089903798578760312 -3.3299204976482803e-05 -0.92151998750062358 0.070020774643958561 0.00036820400767011412 0.00085964581811338175 0.00036820400767011412 -0.17119366853746809 -0.0024387331215413588 0.00085964581811338175 -0.0024387331215413588 -0.92296186307552475 0.058653617019620408 -0.00095694423419220094 0.0022398128353373716 -0.00095694423419220094 -0.17563218022766477 -4.9594114437093245e-06 0.0022398128353373716 -4.9594114437093245e-06 -0.93235821905059013 0.068704770757707603 0.0013956969231443983 3.3927084015204016e-05 0.0013956969231443983 -0.17270395452161616 -0.0001863619286864208 3.3927084015204016e-05 -0.0001863619286864208 -0.92975069450017533 0.056806613757371671 0.0010231152041613597 -0.0065213139730065928 0.0010231152041613597 -0.17628783785244714 -0.001297039514925491 -0.0065213139730065928 -0.001297039514925491 -0.93533805585729357 0.045533883658173846 -0.00062571645090175984 -0.00048695684193389432 -0.00062571645090175984 -0.18037117228861024 1.5858042503535952e-05 -0.00048695684193389432 1.5858042503535952e-05 -0.94446943773478598 0.044832333549387066 -0.0009283990139296504 -0.0025246768852389759 -0.0009283990139296504 -0.18045502536887537 4.4143106570915247e-05 -0.0025246768852389759 4.4143106570915247e-05 -0.94418997164825869 0.023702654812164173 0.00021508205154839902 -0.00087026727089040135 0.00021508205154839902 -0.18564151704458454 -0.00016325579420894964 -0.00087026727089040135 -0.00016325579420894964 -0.94955493090591636 0.045065281120154108 0.0007076851764270185 -0.0039641478530510477 0.0007076851764270185 -0.17972019506958087 -0.0012839331376205965 -0.0039641478530510477 -0.0012839331376205965 -0.94082409942959178 0.048306325222977058 0.00081367390404372432 -5.8654044257328553e-05 0.00081367390404372432 -0.17802314213352358 -0.00010114377125926113 -5.8654044257328553e-05 -0.00010114377125926113 -0.93489591400890626 0.04683017776642906 0.00050653708121285376 0.0019404566878428969 0.00050653708121285376 -0.17948930000847585 -1.3189618376863287e-05 0.0019404566878428969 -1.3189618376863287e-05 -0.94182998032344256 0.048078321635870169 -0.00058340735247113201 0.0010064000113286231 -0.00058340735247113201 -0.17916549377163771 0.0017050521130042018 0.0010064000113286231 0.0017050521130042018 -0.94001696871113083 0.02274260694863578 -0.00032826547103972204 3.2103024261376234e-05 -0.00032826547103972204 -0.1872399923074996 -0.00088937544931175921 3.2103024261376234e-05 -0.00088937544931175921 -0.95848154866751401 0.023656593602953177 -0.00088982483181417374 -0.0008264629529824985 -0.00088982483181417374 -0.18639519559042222 0.0011504261761657864 -0.0008264629529824985 0.0011504261761657864 -0.95699413488323337 0.020848074412119791 0.0014694043500029514 -0.00091542024604238104 0.0014694043500029514 -0.18613002914571963 -0.0038568758184865382 -0.00091542024604238104 -0.0038568758184865382 -0.95299621773435539 0.022383035453655581 -0.00038276088500810033 -0.0020534950011367459 -0.00038276088500810033 -0.18669453408889419 -0.00010558270093219413 -0.0020534950011367459 -0.00010558270093219413 -0.95606290424037321 0.023045000306644636 -7.3817175478128286e-05 -0.00281443148819574 -7.3817175478128286e-05 -0.18571818990928141 -0.00013261804177147618 -0.00281443148819574 -0.00013261804177147618 -0.94929019028419614 0.020842868454977459 0.00024823339638887311 -1.9385022593933985e-05 0.00024823339638887311 -0.18597652940276543 -8.788731266936282e-05 -1.9385022593933985e-05 -8.788731266936282e-05 -0.94833319584472819 0.019792846937997276 -0.00082801309629824526 -0.00049050090015580975 -0.00082801309629824526 -0.18687852803135169 0.0011454049229785497 -0.00049050090015580975 0.0011454049229785497 -0.95358999774070252 0.016093943225908403 -0.0019163208426931106 -0.0023975052800412787 -0.0019163208426931106 -0.18764796035252188 0.00070313623855400298 -0.0023975052800412787 0.00070313623855400298 -0.95599682332885294 0.017872216746979391 -0.00061827120976359331 0.001291934515488129 -0.00061827120976359331 -0.18744110602674413 4.1995605147950434e-05 0.001291934515488129 4.1995605147950434e-05 -0.957297962794315 0.024264814143393876 -0.0020285773738338586 0.002243302964784416 -0.0020285773738338586 -0.18555259760212209 -1.5380553877007757e-05 0.002243302964784416 -1.5380553877007757e-05 -0.94919758813666366 0.015548678625099975 -0.0025973904827588969 -0.0012370102887829248 -0.0025973904827588969 -0.18683705333601727 1.1066348681976201e-05 -0.0012370102887829248 1.1066348681976201e-05 -0.95137912065705554 0.015814496027448388 -0.0034074732033993744 -0.0020587500447356022 -0.0034074732033993744 -0.18788864431977392 0.0006592860593499783 -0.0020587500447356022 0.0006592860593499783 -0.95916800160112325 0.017268888500532653 -0.002548873212987403 -0.0014707072101780294 -0.002548873212987403 -0.18697413222900788 0.00091577548706478495 -0.0014707072101780294 0.00091577548706478495 -0.95971912221991129 0.049125724093953577 0.00034493762562602269 -0.0030894876080532763 0.00034493762562602269 -0.17931635974165205 -0.00018816557985218418 -0.0030894876080532763 -0.00018816557985218418 -0.94211489770716583 0.028654143035106105 -8.2476289319727885e-05 -0.0046598237786366348 -8.2476289319727885e-05 -0.18398622321177571 -0.00032448510249044604 -0.0046598237786366348 -0.00032448510249044604 -0.94730918613162229 0.025371773499224815 0.0098571074207674629 -0.0053920717856635325 0.0098571074207674629 -0.17999425622838233 0.00021909507403727879 -0.0053920717856635325 0.00021909507403727879 -0.94726348888789258 0.031964189728193815 0.0017081244301204743 -0.0039838984387272625 0.0017081244301204743 -0.18377324505723935 -0.001532589494347758 -0.0039838984387272625 -0.001532589494347758 -0.95186120155687259 0.047136573862152753 -0.00013433984722378015 -0.0088557914399238769 -0.00013433984722378015 -0.18022937952357942 -3.5266320347782099e-05 -0.0088557914399238769 -3.5266320347782099e-05 -0.94625768789892994 0.016249060051019559 -0.0032468474827553415 -0.00069778061461855945 -0.0032468474827553415 -0.18655080511321165 0.00026156129780513515 -0.00069778061461855945 0.00026156129780513515 -0.95658694836015457 0.0098870365000487404 -0.0021579299152008364 -0.0050138965402328761 -0.0021579299152008364 -0.18963804671363182 0.0016899895488742822 -0.0050138965402328761 0.0016899895488742822 -0.96511310017079222 0.026638557104117902 0.0023405759319055138 -0.0080225074519394424 0.0023405759319055138 -0.18662394834775198 -0.00023237390291486193 -0.0080225074519394424 -0.00023237390291486193 -0.96064282261818312 0.027930697533566029 -0.0010873314009439714 -0.0076196541626403214 -0.0010873314009439714 -0.18898186336108053 -0.00014156194365000374 -0.0076196541626403214 -0.00014156194365000374 -0.9608491643171222 0.028369847730007697 0.00012200906904658064 -0.0031258204929434652 0.00012200906904658064 -0.18374532442172045 0.00040275790862355845 -0.0031258204929434652 0.00040275790862355845 -0.94635002560245673 0.032077481095938276 -0.0011168597910604222 -0.001626412250163578 -0.0011168597910604222 -0.18373519793701637 -0.0039858685691869233 -0.001626412250163578 -0.0039858685691869233 -0.95375435796731289 0.033640863334686355 0.00098237797019250467 -0.0033885658692711651 0.00098237797019250467 -0.18469073651050649 0.0047111394183008137 -0.0033885658692711651 0.0047111394183008137 -0.94962154951093702 0.034386984762058592 -0.00065260710242243363 -0.0032848497155192891 -0.00065260710242243363 -0.18117764333515812 0.00030199120420515424 -0.0032848497155192891 0.00030199120420515424 -0.94232306006595645 0.031488285292553875 0.00051706857320281093 -0.0018310768792429988 0.00051706857320281093 -0.18705131654644847 4.3101439210824211e-05 -0.0018310768792429988 4.3101439210824211e-05 -0.96015220562960968 0.032447588079651007 -0.0038871659774145544 -0.0025568238071233124 -0.0038871659774145544 -0.18251930906194988 0.00039564929647895042 -0.0025568238071233124 0.00039564929647895042 -0.94529091674521959 0.035215819554184402 0.0001567656169568302 -0.0082157259215179454 0.0001567656169568302 -0.18385326932058482 -0.0012857965853047756 -0.0082157259215179454 -0.0012857965853047756 -0.9466132647245542 0.035866569893679645 -0.00020764241194610368 -0.0085733920676124425 -0.00020764241194610368 -0.18136715920284349 0.00019350479724961067 -0.0085733920676124425 0.00019350479724961067 -0.94432732041145806 0.02409990544190016 0.0021113004030396893 -0.0065207376180113075 0.0021113004030396893 -0.18737857124243373 -0.00011680950577361293 -0.0065207376180113075 -0.00011680950577361293 -0.96213227380142419 0.023831397350001143 0.00023904579831832829 -0.007424765353769458 0.00023904579831832829 -0.18766043563165311 0.00045647755581601501 -0.007424765353769458 0.00045647755581601501 -0.96143911425410311 0.023577493153995127 0.00080719639997315024 -0.0030664529624304659 0.00080719639997315024 -0.18534112751012369 -0.0006093072474960444 -0.0030664529624304659 -0.0006093072474960444 -0.94836144093256003 0.02478635260867057 0.00030208654932919462 -0.0024697175028346452 0.00030208654932919462 -0.18425755239937319 -0.0002545883126339743 -0.0024697175028346452 -0.0002545883126339743 -0.94846873703549006 0.023931901456434354 0.00068199447789080083 -0.00012162637679019594 0.00068199447789080083 -0.18609745695964458 -3.3679926362994994e-05 -0.00012162637679019594 -3.3679926362994994e-05 -0.95743150382165487 0.023204919616985564 0.0011642749187126256 0.00013831191981689139 0.0011642749187126256 -0.18729188274951147 -0.00044903617112997118 0.00013831191981689139 -0.00044903617112997118 -0.95808568625665247 0.045919217050696709 6.7815710397395437e-05 0.0024826977444094844 6.7815710397395437e-05 -0.17877855139117277 -0.00044696751932116197 0.0024826977444094844 -0.00044696751932116197 -0.94136452618639521 0.049222944359648101 -0.00010497868072869822 -0.002274474518512315 -0.00010497868072869822 -0.17723344404536934 0.00035480847892371825 -0.002274474518512315 0.00035480847892371825 -0.93697644136770908 0.022859317452447681 -8.9395667977558175e-05 -0.00037666861207508173 -8.9395667977558175e-05 -0.18853348769272577 -0.00065343974253739834 -0.00037666861207508173 -0.00065343974253739834 -0.95831707835621871 0.049058079740851357 0.00075173327145319443 0.0021853341934872776 0.00075173327145319443 -0.17794311731563833 -0.00012076757287505827 0.0021853341934872776 -0.00012076757287505827 -0.93994904744347696 0.026466723505701811 -0.00049831794933479715 -0.0032374720281240221 -0.00049831794933479715 -0.18424338154017197 -0.00018757719795232594 -0.0032374720281240221 -0.00018757719795232594 -0.94781128170481022 0.046875341931766346 -0.00027812887727471407 0.0018979112849109711 -0.00027812887727471407 -0.1787872273006238 -0.00016163933872465929 0.0018979112849109711 -0.00016163933872465929 -0.94055771930772747 0.045625647071490028 9.1789855162588581e-05 0.0021391629970864134 9.1789855162588581e-05 -0.17859164421768825 -0.00015560577569369456 0.0021391629970864134 -0.00015560577569369456 -0.94188295499282126 0.017986106998562398 0.00064345730701969531 0.0020545614833632499 0.00064345730701969531 -0.18804428040262233 2.4898334449441274e-05 0.0020545614833632499 2.4898334449441274e-05 -0.95686815536934811 0.022503194796263157 -0.0011861281337271986 -0.00097499405328256605 -0.0011861281337271986 -0.18638479360063415 0.0025374372189484176 -0.00097499405328256605 0.0025374372189484176 -0.95148996333193803 0.015628713510783467 -0.00062628569080266905 0.0028649863276700182 -0.00062628569080266905 -0.18828840707540209 -5.6749225497234507e-05 0.0028649863276700182 -5.6749225497234507e-05 -0.9573891283235918 0.013992636661549207 0.00061998118272515903 0.002446157775471608 0.00061998118272515903 -0.18896315341558301 -0.00043998617139967555 0.002446157775471608 -0.00043998617139967555 -0.95716599456311702 0.015269534077968328 -9.2158142351003822e-05 0.0016997173644555373 -9.2158142351003822e-05 -0.18893485406394547 -5.9350796554839293e-05 0.0016997173644555373 -5.9350796554839293e-05 -0.95622114515176992 0.031582058381185496 -0.00049785465412588166 -0.0047690715543524664 -0.00049785465412588166 -0.18227260188467542 -0.00084482857017466328 -0.0047690715543524664 -0.00084482857017466328 -0.94385605505744841 0.016909076760788844 0.00102438815616414 0.001344995812796864 0.00102438815616414 -0.18677885381911857 -0.00045739592414655798 0.001344995812796864 -0.00045739592414655798 -0.95546318647422779 0.019215269931845053 -0.0011900953158933384 0.0025474708704482374 -0.0011900953158933384 -0.18734101744208492 0.00015829793559030136 0.0025474708704482374 0.00015829793559030136 -0.95563571504456613 0.031985615824658239 0.0020313945544040844 -0.0046759805131193488 0.0020313945544040844 -0.18218096240555984 -0.0007497061426626761 -0.0046759805131193488 -0.0007497061426626761 -0.94374911686010732 0.050172050137642255 -0.00073222623458683606 0.0022168375786191107 -0.00073222623458683606 -0.17705598402817949 -0.00012777118851131731 0.0022168375786191107 -0.00012777118851131731 -0.93954873832376429 0.023976074772924766 0.00046168273127700465 -0.0030719653717382611 0.00046168273127700465 -0.18375913466980517 0.00016719890110569041 -0.0030719653717382611 0.00016719890110569041 -0.94786018645426029 0.024620797663966743 -0.0014739440539512905 -0.0013249226914693324 -0.0014739440539512905 -0.18469106941013669 0.00046599302118516088 -0.0013249226914693324 0.00046599302118516088 -0.94772903505718531 0.022652140426467793 -0.001509264489198888 -0.00031280993883042729 -0.001509264489198888 -0.18744882082788061 0.00050325613882834519 -0.00031280993883042729 0.00050325613882834519 -0.95955466791961519 0.018421473079241042 -0.0006768611890979406 0.0029387331574231746 -0.0006768611890979406 -0.18842603713124983 -0.00041494954172714921 0.0029387331574231746 -0.00041494954172714921 -0.95656346788494662 0.017872408152141174 -0.00088598630069393043 0.0032793382190646385 -0.00088598630069393043 -0.18705621046642287 -0.00078064083759844523 0.0032793382190646385 -0.00078064083759844523 -0.95638864080927466 0.016944924914874079 -0.00059017506147552548 0.0029208580067325491 -0.00059017506147552548 -0.18960065655201919 0.0006800111221116345 0.0029208580067325491 0.0006800111221116345 -0.9584820505396634 0.050579131931242235 0.000446996642383047 -0.0014000417959911804 0.000446996642383047 -0.17850073866303051 0.00088067598038260586 -0.0014000417959911804 0.00088067598038260586 -0.94274027987066678 0.049159206635925545 0.0010633693553739338 0.0010058115828889371 0.0010633693553739338 -0.17728976095231125 3.3512955764041275e-07 0.0010058115828889371 3.3512955764041275e-07 -0.93623400265966827 0.031122772714675367 -0.0012261092266057064 -0.0042599406857216082 -0.0012261092266057064 -0.18634647560217937 0.0012440124194619262 -0.0042599406857216082 0.0012440124194619262 -0.95543350115917147 0.03081376422051732 -0.00077074697097972978 -0.0048160292114063363 -0.00077074697097972978 -0.18477195702723745 0.0010172276978905256 -0.0048160292114063363 0.0010172276978905256 -0.94672587842850109 0.031660187353302789 -0.0022463183657506305 -0.0028384281221358609 -0.0022463183657506305 -0.18269660558052941 0.00078998036634386759 -0.0028384281221358609 0.00078998036634386759 -0.94749624991707648 0.030330736261042365 -0.0015605580572950247 -0.0044228403716466413 -0.0015605580572950247 -0.18292603958989212 0.00079501421152383678 -0.0044228403716466413 0.00079501421152383678 -0.946499458269628 0.048219437051013087 7.2484626289048867e-05 0.0016619406837341602 7.2484626289048867e-05 -0.17828496910620587 0.0019291591139748432 0.0016619406837341602 0.0019291591139748432 -0.93879374365101287 0.016227941246808431 0.0032162844124991787 -0.0022537773056037769 0.0032162844124991787 -0.18517813103660857 -0.00076373326316503398 -0.0022537773056037769 -0.00076373326316503398 -0.95054817637248701 0.01420808430944237 0.0031024526983466855 -0.0039496067332111251 0.0031024526983466855 -0.18700457969924561 -0.0017529121257418845 -0.0039496067332111251 -0.0017529121257418845 -0.95737071405005292 0.025280024174511247 0.0016332832078545 0.00302885630831814 0.0016332832078545 -0.18511226334331149 1.0313246516992743e-05 0.00302885630831814 1.0313246516992743e-05 -0.94919269345457014 0.015512058444648097 0.0030096262384187544 -0.0021210185292049499 0.0030096262384187544 -0.18630306107833899 -0.0014552609601448663 -0.0021210185292049499 -0.0014552609601448663 -0.95546975110478127 0.016721271110434047 -0.00024815190159864671 0.0035506696899313054 -0.00024815190159864671 -0.18703362751295838 0.00012131868252517502 0.0035506696899313054 0.00012131868252517502 -0.95886431726528831 0.021745543591605739 0.0010180822831735319 0.0004114805341299919 0.0010180822831735319 -0.18573885742460611 -0.0011531192768620983 0.0004114805341299919 -0.0011531192768620983 -0.95382363723487973 0.050311741858246432 -0.00057222227410654893 -0.0036143276177824078 -0.00057222227410654893 -0.17821133983909959 -0.0021758217450626627 -0.0036143276177824078 -0.0021758217450626627 -0.9398898223281652 0.046585595446853915 -0.0013023220626937418 0.00011254362543109011 -0.0013023220626937418 -0.17977696548349875 1.1542222859873431e-05 0.00011254362543109011 1.1542222859873431e-05 -0.94387151874918351 0.071600176704458784 0.00071245273292395094 -0.0036689779063825978 0.00071245273292395094 -0.17191182013407591 -0.00030794863802956728 -0.0036689779063825978 -0.00030794863802956728 -0.93048002922743611 0.052050192071694784 0.00090975718063465933 -0.0019612038870391521 0.00090975718063465933 -0.1767750566461094 -0.00034183599788584207 -0.0019612038870391521 -0.00034183599788584207 -0.93523266939003946 0.059794676278569409 0.0013948696261980014 0.0016993640755708043 0.0013948696261980014 -0.17474831977233549 1.1268638145183676e-06 0.0016993640755708043 1.1268638145183676e-06 -0.93202303315951873 0.081983412115660889 0.0011586544876691059 0.001109406128993897 0.0011586544876691059 -0.16660876877645947 9.2334543895836152e-06 0.001109406128993897 9.2334543895836152e-06 -0.91653730002672951 0.06993472157726302 -0.0010102312594785592 -0.00018272190017274789 -0.0010102312594785592 -0.17189134186697103 0.00011395480459172208 -0.00018272190017274789 0.00011395480459172208 -0.92941862861448588 0.074145962417688768 -0.00013842771043122377 -0.0037818921938954459 -0.00013842771043122377 -0.16978144893691108 -0.0016692342494760944 -0.0037818921938954459 -0.0016692342494760944 -0.92455018622001439 0.074788327688602232 0.00099158885584970974 -0.0028127703908024937 0.00099158885584970974 -0.16878352582801315 -0.00017790730921263265 -0.0028127703908024937 -0.00017790730921263265 -0.91870224635109277 0.074627966395278245 0.0010390141561690349 -0.0028046075061619047 0.0010390141561690349 -0.16888422685629428 -0.00013002466129824475 -0.0028046075061619047 -0.00013002466129824475 -0.9195582992890341 0.071777558457955637 -9.2524781170709255e-06 0.00077145071293310873 -9.2524781170709255e-06 -0.17042080443741728 0.0030617224066338822 0.00077145071293310873 0.0030617224066338822 -0.92172627469649093 0.072255803013214825 0.00092101319955711144 0.0005580879826264833 0.00092101319955711144 -0.16989018987303536 -6.6263994273206775e-05 0.0005580879826264833 -6.6263994273206775e-05 -0.91991329247882292 0.057500095637843848 -0.0006202059575775797 0.0021569170385060668 -0.0006202059575775797 -0.17515452497216472 -0.0016977439806774575 0.0021569170385060668 -0.0016977439806774575 -0.9342160359526881 0.071652931462154151 0.0013907797241711434 -0.0033887739664812955 0.0013907797241711434 -0.17142661029276546 -0.0022297791888221952 -0.0033887739664812955 -0.0022297791888221952 -0.92810128805865966 0.057452345839782371 -0.0011646034060590659 0.002168779888470937 -0.0011646034060590659 -0.17533654981067009 3.3004729812866469e-05 0.002168779888470937 3.3004729812866469e-05 -0.93419519247682248 0.07942068400908836 -0.00084944996368478286 0.0010341668554448742 -0.00084944996368478286 -0.1680052898207762 -7.5324813139299532e-05 0.0010341668554448742 -7.5324813139299532e-05 -0.91810429705647634 0.079496848954127397 -0.00050727621210129754 0.0011776714749950241 -0.00050727621210129754 -0.16765559336363617 0.00018530806536021238 0.0011776714749950241 0.00018530806536021238 -0.91779261126196332 0.066332533736757765 -0.00021930251638881687 -0.0059409225248800131 -0.00021930251638881687 -0.17264812808945681 0.0023563783602756736 -0.0059409225248800131 0.0023563783602756736 -0.93005087447022028 0.074722372667071504 -0.00025040317942003147 -0.0054188543632491259 -0.00025040317942003147 -0.17029371566645329 0.00054481564724695453 -0.0054188543632491259 0.00054481564724695453 -0.92610037879684382 0.068067405074546561 -0.002889215207908369 -0.0039742633854771281 -0.002889215207908369 -0.17177045500076601 0.0015044423848240562 -0.0039742633854771281 0.0015044423848240562 -0.92820647941705181 0.071839224607507218 -0.00078619340064214091 0.00021894777525904965 -0.00078619340064214091 -0.16930444367947733 2.622854741341238e-05 0.00021894777525904965 2.622854741341238e-05 -0.91931904896043248 0.079396635751341288 0.00043329892916480883 0.00060073058535395363 0.00043329892916480883 -0.16770577294545663 -1.0048628457535987e-05 0.00060073058535395363 -1.0048628457535987e-05 -0.91749102824975293 0.056552233629097892 0.0011198193106852963 0.0007233425662426582 0.0011198193106852963 -0.17624950707353793 8.4077281045132196e-05 0.0007233425662426582 8.4077281045132196e-05 -0.93810877769066436 0.071892318336616912 -0.00034837785066051498 -0.0091775327760256487 -0.00034837785066051498 -0.171285115442249 -0.00054054809209602706 -0.0091775327760256487 -0.00054054809209602706 -0.9288291070698409 0.065995218193356187 0.0016012276941909157 -0.010703053742243007 0.0016012276941909157 -0.17322807328537998 -0.00025172057621558608 -0.010703053742243007 -0.00025172057621558608 -0.93069835899307196 0.074580362794563815 -0.00052551204438568632 -0.0085145964541072858 -0.00052551204438568632 -0.16873402847010205 -0.0040272121680849371 -0.0085145964541072858 -0.0040272121680849371 -0.91822357259428489 0.066407715710450482 -0.0014857078401463899 -0.001269615274304442 -0.0014857078401463899 -0.17390287904265719 -0.00014428644855557504 -0.001269615274304442 -0.00014428644855557504 -0.93656034318300097 0.074816376886986849 -0.00036837025634991295 -0.0049692613020815291 -0.00036837025634991295 -0.16877709845597938 0.0001873278718056981 -0.0049692613020815291 0.0001873278718056981 -0.91870717627998211 0.074782712125866763 -0.00027735939696254218 -0.0050894080462861035 -0.00027735939696254218 -0.16878818430101736 -8.0214059471638011e-05 -0.0050894080462861035 -8.0214059471638011e-05 -0.91929808639556343 0.053202232677177053 0.00085374563330233033 -0.0047485319257920544 0.00085374563330233033 -0.17729855433282676 -0.00074582183758895026 -0.0047485319257920544 -0.00074582183758895026 -0.93976084327337772 0.053416156491853488 0.00058874992085699033 -0.0044707102608737559 0.00058874992085699033 -0.17623884664143508 -0.00049721925019935442 -0.0044707102608737559 -0.00049721925019935442 -0.93425437233045927 0.078330452256078043 0.0014867310895444674 -0.005618240005120595 0.0014867310895444674 -0.16792292066053366 0.00027692136437240666 -0.005618240005120595 0.00027692136437240666 -0.91785846917878255 0.065698144908853506 -0.002243261898981129 -0.0070255551243472159 -0.002243261898981129 -0.17311117648598473 0.00028392393414566897 -0.0070255551243472159 0.00028392393414566897 -0.93227484949821804 0.07128123233861107 0.00027011484765535808 -0.0027383077303076986 0.00027011484765535808 -0.17172041435224145 -0.00055057338975483122 -0.0027383077303076986 -0.00055057338975483122 -0.92954484074576116 0.073953716645551629 0.00026907566282058826 -0.0051898058464155405 0.00026907566282058826 -0.16908949538165982 0.00048463386994843094 -0.0051898058464155405 0.00048463386994843094 -0.91902807077887416 0.065569908288022172 0.0001198268258134038 -0.011313747574503652 0.0001198268258134038 -0.1729950657007216 4.2622872999123484e-05 -0.011313747574503652 4.2622872999123484e-05 -0.9304833804998961 0.075337970004306254 0.0016235518953269562 -0.0038744917434268555 0.0016235518953269562 -0.17068573622263589 -0.0016295220880112038 -0.0038744917434268555 -0.0016295220880112038 -0.92877415747377023 0.077952145102565484 0.00091774585785527106 -0.0050791564244704879 0.00091774585785527106 -0.1678406796859967 -5.1808539439313073e-05 -0.0050791564244704879 -5.1808539439313073e-05 -0.91690192004574422 0.076397079631012499 0.00068014884518964786 -0.0067245786566083599 0.00068014884518964786 -0.1707598176246713 0.00094447207684722478 -0.0067245786566083599 0.00094447207684722478 -0.92994129829257588 0.052399775778429566 -0.00022354809223884794 -0.0060298128653573091 -0.00022354809223884794 -0.17630348029987053 0.00016443898140983126 -0.0060298128653573091 0.00016443898140983126 -0.93567700608170856 0.032353324488915036 -0.0023632614362179812 -0.0011495183174106693 -0.0023632614362179812 -0.18225830019075157 -0.00011149471416285056 -0.0011495183174106693 -0.00011149471416285056 -0.94590945984189867 0.030439159362916586 -0.0021744947065005563 -0.0043522787319344447 -0.0021744947065005563 -0.18437324733870439 4.8294157348416356e-05 -0.0043522787319344447 4.8294157348416356e-05 -0.95458833315480895 0.052737905533609609 0.00015299004279769774 -0.0052692578990153338 0.00015299004279769774 -0.17829157275505789 0.0010043458870712119 -0.0052692578990153338 0.0010043458870712119 -0.94596027049758591 0.029035050558077743 -0.0016750495608947613 -0.0036813140053905125 -0.0016750495608947613 -0.1839662312643176 0.0013386961423050847 -0.0036813140053905125 0.0013386961423050847 -0.95191797576986237 0.016558358518482856 0.002182458978227061 -0.0021430195419266385 0.002182458978227061 -0.18614589757750477 7.4237285285883026e-05 -0.0021430195419266385 7.4237285285883026e-05 -0.95493472247459721 0.016917980997036675 0.00068889174415679669 -0.0021739818207360262 0.00068889174415679669 -0.18926518838036044 -0.00078616741356307696 -0.0021739818207360262 -0.00078616741356307696 -0.96674518853300873 0.01436007653261695 0.0021004710216742111 -0.0039156583223047825 0.0021004710216742111 -0.1888350364843201 -0.0018363139123355188 -0.0039156583223047825 -0.0018363139123355188 -0.96452770472790439 0.017241665955635588 0.0015937642185370824 -0.0022341019970458509 0.0015937642185370824 -0.1870200990831391 -0.00085820799261049352 -0.0022341019970458509 -0.00085820799261049352 -0.95998317843173164 0.027923094067163423 0.0011732110044042538 -0.0065141755940590906 0.0011732110044042538 -0.18813338980939831 -0.00026779983722380329 -0.0065141755940590906 -0.00026779983722380329 -0.9611370232599612 0.026180077419955483 -0.0020111074030365341 -0.0068056016090999316 -0.0020111074030365341 -0.18648768543436051 0.00042813830341903447 -0.0068056016090999316 0.00042813830341903447 -0.96097173852633255 0.033127069962063188 0.0036962300702407963 -0.0035004007748446059 0.0036962300702407963 -0.18234866308832032 7.2313538784396503e-05 -0.0035004007748446059 7.2313538784396503e-05 -0.94507226278306233 0.031255959674963973 0.00012534590028306729 -0.00062607729596619865 0.00012534590028306729 -0.18677206884750752 -0.0004867217110299249 -0.00062607729596619865 -0.0004867217110299249 -0.96010813122728811 0.03492740346070311 0.00028321115917856937 -0.0028976380676639102 0.00028321115917856937 -0.18166999568472719 0.00012293604445334783 -0.0028976380676639102 0.00012293604445334783 -0.94153692265359612 0.032276556117131927 0.00027272583602543251 -0.0035215360777893223 0.00027272583602543251 -0.18606682680112896 0.00042376307204383679 -0.0035215360777893223 0.00042376307204383679 -0.95685435404405972 0.033236488305075751 -0.00047429501442556947 -0.0022329826208558612 -0.00047429501442556947 -0.18535319973149034 -0.0048672246593631785 -0.0022329826208558612 -0.0048672246593631785 -0.94957977475589672 0.03191454442266134 0.0026094979050285978 -0.0045266655088896796 0.0026094979050285978 -0.1841923763872938 -0.0019051127254210432 -0.0045266655088896796 -0.0019051127254210432 -0.95368531046510585 0.032430103943761945 0.00079271199153055708 -0.0010184538027895873 0.00079271199153055708 -0.18390426362680729 0.0031498553330160384 -0.0010184538027895873 0.0031498553330160384 -0.95411980157163634 0.023208757521145984 0.00010184417656785941 0.00072795955870597062 0.00010184417656785941 -0.18741271691478006 0.00040502572268019676 0.00072795955870597062 0.00040502572268019676 -0.95955801627301041 0.023025102457556346 -0.0021110101659146375 -0.0060995861974223464 -0.0021110101659146375 -0.18677652471503475 0.00023633536677392097 -0.0060995861974223464 0.00023633536677392097 -0.96144687380858707 0.039614960363318796 0.004822597565792429 -0.0038879846378139238 0.004822597565792429 -0.18217939169996655 -0.0022504164963655926 -0.0038879846378139238 -0.0022504164963655926 -0.94922660171518958 0.040758445108000418 -0.0052275685976773375 -0.0017844018709747278 -0.0052275685976773375 -0.1851252203327024 -0.0025829576396436682 -0.0017844018709747278 -0.0025829576396436682 -0.96116102463893571 0.019716247996118708 -0.0023435492401545645 0.0017385775680994753 -0.0023435492401545645 -0.18913156699677769 0.00084265174884134986 0.0017385775680994753 0.00084265174884134986 -0.96757787543033125 0.029864895959873988 0.00031233773249520597 -0.0029372478049496387 0.00031233773249520597 -0.18729361946567766 -0.00011088341835985283 -0.0029372478049496387 -0.00011088341835985283 -0.96458313831719289 0.042518239127634749 -0.0095799329282867836 -0.0038109725572597064 -0.0095799329282867836 -0.18176482179784048 0.0041591260098650107 -0.0038109725572597064 0.0041591260098650107 -0.95071858809205323 0.037814233448371593 0.00052388180646298235 -0.008774006224189751 0.00052388180646298235 -0.18167331938408005 -0.00063314859929675116 -0.008774006224189751 -0.00063314859929675116 -0.9445442477624626 0.025421982593362924 -0.0020011541704129821 -0.0032026558378369652 -0.0020011541704129821 -0.18509912662112127 -0.0010958335488340798 -0.0032026558378369652 -0.0010958335488340798 -0.95257170185749018 0.034371231540675895 0.0053826689988556988 -0.0072864210541808139 0.0053826689988556988 -0.18580187949832339 0.0015504044284484486 -0.0072864210541808139 0.0015504044284484486 -0.96717822673902454 0.019999486341070405 -0.0036964534777421325 -0.0010280653082908042 -0.0036964534777421325 -0.18873397761708555 0.0011122483995203991 -0.0010280653082908042 0.0011122483995203991 -0.96741037067531677 0.025415182914271695 -0.0034448198854245132 -0.0038158278725253236 -0.0034448198854245132 -0.18765195604309315 0.00064141184744015423 -0.0038158278725253236 0.00064141184744015423 -0.96843608960952654 0.02120854364169622 0.0013900616087537017 -0.0064589994808705864 0.0013900616087537017 -0.19106350887373003 -0.00072079874483277351 -0.0064589994808705864 -0.00072079874483277351 -0.96806235968122589 0.027419165452440775 0.0023754507412237589 -0.003251096752481808 0.0023754507412237589 -0.18848610022650608 -0.00015936853196363288 -0.003251096752481808 -0.00015936853196363288 -0.96527130383304693 0.025564703553603532 -0.00032685500390084951 -0.00055964501847738379 -0.00032685500390084951 -0.18723258895879713 -0.0027445145201202559 -0.00055964501847738379 -0.0027445145201202559 -0.96493932970697749 0.065685792275988697 0.0012508240315416501 -0.008400618263465276 0.0012508240315416501 -0.17555268402888635 -0.00030448453326992198 -0.008400618263465276 -0.00030448453326992198 -0.94380236875397083 0.025632833437461811 0.00072949582879313865 -0.0028257247861304124 0.00072949582879313865 -0.18573280646844159 -0.00011660131006197005 -0.0028257247861304124 -0.00011660131006197005 -0.9549150690893824 0.025688090340687642 0.0019708435355126072 -0.0024129639442299622 0.0019708435355126072 -0.18749631574332859 0.0027359423601820421 -0.0024129639442299622 0.0027359423601820421 -0.95542033555525352 0.025777532730619168 0.00073161538456357643 -4.4827659521406993e-05 0.00073161538456357643 -0.18896147648448808 -8.4512094413957684e-05 -4.4827659521406993e-05 -8.4512094413957684e-05 -0.96613862754171209 0.017950667018082234 0.0014798538341554703 -0.0018389504140385871 0.0014798538341554703 -0.19023077877771677 0.00043577363084945642 -0.0018389504140385871 0.00043577363084945642 -0.97398694360305837 0.016662092503528125 0.0028189553070369555 -0.0029146149612897521 0.0028189553070369555 -0.18938672310227533 -0.0009067902319016552 -0.0029146149612897521 -0.0009067902319016552 -0.96779632656123704 0.016606601161960333 0.0015651370849467331 -0.0030874375694226464 0.0015651370849467331 -0.18747224100639936 0.0012903650488875762 -0.0030874375694226464 0.0012903650488875762 -0.95747049699990106 0.052596358034849369 -4.5536905146338828e-05 -0.0039125397775410242 -4.5536905146338828e-05 -0.17895430769005133 -7.8058096128486021e-05 -0.0039125397775410242 -7.8058096128486021e-05 -0.94912635751605701 0.026998412000189494 -0.0023238436400720625 -0.0020396569007609111 -0.0023238436400720625 -0.18513387119749614 0.00064505950254079014 -0.0020396569007609111 0.00064505950254079014 -0.95476450677924385 0.073426793722464634 -0.00017213896108906067 -0.0053452879175238666 -0.00017213896108906067 -0.17071544296825381 -0.0012023110727402142 -0.0053452879175238666 -0.0012023110727402142 -0.92715545129576826 0.064019292324483668 0.00064960406995777484 -0.011394527750582722 0.00064960406995777484 -0.17442410676990672 3.3791498386004371e-05 -0.011394527750582722 3.3791498386004371e-05 -0.93644596146160408 0.055485262211289799 -0.00029774335730464296 -0.0065293109063744303 -0.00029774335730464296 -0.17754033216044207 0.0009796922935176311 -0.0065293109063744303 0.0009796922935176311 -0.94408845582321499 0.076938884734474411 -0.00059971761725728092 -0.0094664572379730139 -0.00059971761725728092 -0.17104946787200315 0.00043500934081963649 -0.0094664572379730139 0.00043500934081963649 -0.93182755537414774 0.066697296695205854 -0.0013437619089059348 -0.0007475748670063842 -0.0013437619089059348 -0.17364466015726443 -1.3788358100619291e-05 -0.0007475748670063842 -1.3788358100619291e-05 -0.93579693580423706 0.076615562731925602 -0.00011522349692997657 -0.0086926111199407963 -0.00011522349692997657 -0.16845041104402703 -0.00068581569526848796 -0.0086926111199407963 -0.00068581569526848796 -0.91856837526418822 0.06083137723680565 0.00056316078681177128 -0.0065003561829015122 0.00056316078681177128 -0.17701356747343477 -2.8116418004500709e-05 -0.0065003561829015122 -2.8116418004500709e-05 -0.94623840143703664 0.07447726971584534 -0.00016679067427842389 -0.0032546411397583741 -0.00016679067427842389 -0.1698490894348379 0.00040113523475215906 -0.0032546411397583741 0.00040113523475215906 -0.9234774093368987 0.078731266615597872 0.00028280838735035427 -0.0097557515242493453 0.00028280838735035427 -0.16792762200448103 -0.00015333445260434786 -0.0097557515242493453 -0.00015333445260434786 -0.91891986386394175 0.070184297711590848 0.00039096644427086827 -0.0027061408570030615 0.00039096644427086827 -0.17286041995660006 -0.00065576605431616475 -0.0027061408570030615 -0.00065576605431616475 -0.93521621794605325 0.074089435036000739 -0.0012595537243286499 -0.0050953030730666732 -0.0012595537243286499 -0.16955591912865764 0.00389055563709928 -0.0050953030730666732 0.00389055563709928 -0.92128171120486702 0.073245756841998522 -0.00047467745234519478 -0.010638344399659827 -0.00047467745234519478 -0.1733232443728534 -0.0001917561430606618 -0.010638344399659827 -0.0001917561430606618 -0.9389590883553649 0.07719858256740264 -0.00059134671148156591 -0.0087724568090856714 -0.00059134671148156591 -0.16786782234354836 -0.00057930144057594113 -0.0087724568090856714 -0.00057930144057594113 -0.91831319878797091 0.067132519764647264 0.0017256521900170607 -0.002200254325102291 0.0017256521900170607 -0.17391321403420179 -0.00039336052529448384 -0.002200254325102291 -0.00039336052529448384 -0.93524045464325578 0.10168825414316074 -0.00053029142429237956 -0.011590746528510942 -0.00053029142429237956 -0.16220821085143422 -0.00031657827354325541 -0.011590746528510942 -0.00031657827354325541 -0.91497303178117573 0.066040528978112051 0.0059331286246474988 -0.010501886956689521 0.0059331286246474988 -0.17335803387181473 -0.0040251047600512457 -0.010501886956689521 -0.0040251047600512457 -0.93495903578257178 0.072745894861142746 -0.0034256825663002846 -0.00414881563545344 -0.0034256825663002846 -0.17169127482793312 -0.0016692284516873768 -0.00414881563545344 -0.0016692284516873768 -0.93031547657529989 0.070649820591445145 0.0085735425549120538 -0.0063362640025487194 0.0085735425549120538 -0.17150861101559256 0.00249953118014834 -0.0063362640025487194 0.00249953118014834 -0.93218284333297374 0.08455358923833875 0.00033803527033416812 -0.0022463099660503527 0.00033803527033416812 -0.16803967472368034 -0.00084280401955827422 -0.0022463099660503527 -0.00084280401955827422 -0.92672044799507847 0.077152647289628118 -0.0047144503848868665 -0.011794905701189462 -0.0047144503848868665 -0.17246362876305377 0.0039891016481297115 -0.011794905701189462 0.0039891016481297115 -0.93627815704477468 0.073333698351168985 0.0014661967466987724 -0.0003806054727677477 0.0014661967466987724 -0.17112470690168002 -0.0013230533379485765 -0.0003806054727677477 -0.0013230533379485765 -0.92962999968706983 0.072087959989417971 -0.001343323012406283 -0.0039345955568625968 -0.001343323012406283 -0.17252600411130614 -0.00133286376661923 -0.0039345955568625968 -0.00133286376661923 -0.94215610521259752 0.06896204693209973 0.0018828829832022085 -0.0080759742117946232 0.0018828829832022085 -0.17437078806259654 0.0015571452291729404 -0.0080759742117946232 0.0015571452291729404 -0.94067960514513116 0.10071989555707128 0.0019226128331238717 -0.0096540739367680928 0.0019226128331238717 -0.16285061602724782 0.00010185284803654326 -0.0096540739367680928 0.00010185284803654326 -0.91396174913197648 0.08737924844774414 -0.00021835098124139876 -0.008485385251836064 -0.00021835098124139876 -0.16582403396111112 0.00059865343692511175 -0.008485385251836064 0.00059865343692511175 -0.9172894855317173 0.10218566579228439 -0.0021219563066811301 -0.010984140528600861 -0.0021219563066811301 -0.16266093981747587 0.00032662802549277004 -0.010984140528600861 0.00032662802549277004 -0.91555442732897507 0.08474527298935608 0.0020426741117369942 -0.0087877973651365182 0.0020426741117369942 -0.16917458981972666 -0.0026484988715643754 -0.0087877973651365182 -0.0026484988715643754 -0.92224191287067425 0.071681078425226419 -0.0034891856023783708 -0.015606676562534116 -0.0034891856023783708 -0.17364569885935599 -0.00077160313105006928 -0.015606676562534116 -0.00077160313105006928 -0.93782935057857664 0.067872940950360117 -0.00072277764380791298 0.00017693694866549592 -0.00072277764380791298 -0.17390763460032932 -0.00057454146550617313 0.00017693694866549592 -0.00057454146550617313 -0.93522832096116826 0.06900126488710534 -0.0026310693098273792 -0.0001867653838047989 -0.0026310693098273792 -0.17078588112394821 0.0028103107062373844 -0.0001867653838047989 0.0028103107062373844 -0.93314242996855201 0.086305205224539994 0.00064474617373837457 -0.0095182204785378977 0.00064474617373837457 -0.16622453928743763 0.00019105419001697044 -0.0095182204785378977 0.00019105419001697044 -0.91960875031496725 0.0554590014648213 0.0011501142900067927 -0.00740267649963533 0.0011501142900067927 -0.17535365780619094 0.0013930014600451734 -0.00740267649963533 0.0013930014600451734 -0.93320334035809527 0.083115174219027699 0.00071247766224746757 -0.012246065247291105 0.00071247766224746757 -0.16944549597285941 -0.0005638180410487692 -0.012246065247291105 -0.0005638180410487692 -0.92813153315550201 0.083936612874266681 0.0021029804806918977 -0.0057630945841794512 0.0021029804806918977 -0.16757153457571694 0.00041497457218331313 -0.0057630945841794512 0.00041497457218331313 -0.92047512555045197 0.08268655545869108 -0.0034093658046092739 -0.00045308383169317956 -0.0034093658046092739 -0.16736479309965868 0.00093240329869426208 -0.00045308383169317956 0.00093240329869426208 -0.92266884589526388 0.10527647123900075 0.0011409372006200304 -0.0071352445809380605 0.0011409372006200304 -0.16117370251723684 -9.1158497832921626e-05 -0.0071352445809380605 -9.1158497832921626e-05 -0.91430065465387811 0.085627228198892569 -0.0031911455254599562 -0.00291289187988647 -0.0031911455254599562 -0.16868828444001172 -0.0014393254888296347 -0.00291289187988647 -0.0014393254888296347 -0.92731281826155509 0.071960003346156265 -0.00010418071886686815 -0.01063573174622956 -0.00010418071886686815 -0.17466888298474759 0.0018703079911073228 -0.01063573174622956 0.0018703079911073228 -0.93865327249157859 0.062443839154004976 -0.0006602392429266409 -0.0045588709302493147 -0.0006602392429266409 -0.17528836792916846 -0.0016187160218175123 -0.0045588709302493147 -0.0016187160218175123 -0.93827347063896172 0.056988384718618335 0.00089311387981688846 -0.010203251982783157 0.00089311387981688846 -0.17915839212357421 0.0038542105819894257 -0.010203251982783157 0.0038542105819894257 -0.9494505802940969 0.054680305503840732 -0.001018640743937196 -0.011977164114265193 -0.001018640743937196 -0.1799142457814995 0.00035756499618289084 -0.011977164114265193 0.00035756499618289084 -0.95308147302986335 0.026374499021577763 -0.00044498211019920774 -0.0022568532565350186 -0.00044498211019920774 -0.18722026993586069 0.0017443414097211285 -0.0022568532565350186 0.0017443414097211285 -0.96251613262857727 0.053430661792727152 0.00038473664548753972 -0.011886826063113809 0.00038473664548753972 -0.17972582619092892 0.00090018228594779259 -0.011886826063113809 0.00090018228594779259 -0.95144567124036961 0.050078072494404546 0.0017280361145228325 -0.0031686196307037784 0.0017280361145228325 -0.18179359755719071 0.00033084038225883461 -0.0031686196307037784 0.00033084038225883461 -0.95803492717048755 0.055784817852731816 -0.0027965668356078111 -0.0064146932785726918 -0.0027965668356078111 -0.17840347678341928 0.0017642560657740169 -0.0064146932785726918 0.0017642560657740169 -0.94294071607740815 0.049713422653706485 -0.0026653475148414314 0.0011251485344951906 -0.0026653475148414314 -0.1818861938130959 -0.00050747918286164762 0.0011251485344951906 -0.00050747918286164762 -0.95560969713959443 0.0215115633824563 0.00052172234199507957 -0.0021146579786199826 0.00052172234199507957 -0.19055881357847482 0.0042133148395746556 -0.0021146579786199826 0.0042133148395746556 -0.97520038907703421 0.024881902198425454 0.0006058877883522183 -0.0061809844558398108 0.0006058877883522183 -0.18883017647055222 0.00096783921637300097 -0.0061809844558398108 0.00096783921637300097 -0.96550742990739025 0.018418738224500242 -0.0001278654277759927 -0.0047665707229340715 -0.0001278654277759927 -0.19227533983027212 0.0022495515483367257 -0.0047665707229340715 0.0022495515483367257 -0.98092156527791818 0.018343906071001559 0.00045488831843358926 0.0020974462143437123 0.00045488831843358926 -0.19238037124723562 0.00067426046795415751 0.0020974462143437123 0.00067426046795415751 -0.98557982317883841 0.017022757106493758 0.0025832252061822525 -0.0019716614878138028 0.0025832252061822525 -0.18848015129476697 0.0023914971722736045 -0.0019716614878138028 0.0023914971722736045 -0.9643114437226139 0.013841896087137484 0.0028974215630320752 -0.0034446280526549966 0.0028974215630320752 -0.19206269842984758 -0.00036747440980522406 -0.0034446280526549966 -0.00036747440980522406 -0.97929329804452037 0.024554439741976353 0.00070263807049299502 -0.0046469824643933233 0.00070263807049299502 -0.19077311685449416 0.0011873889236687744 -0.0046469824643933233 0.0011873889236687744 -0.97561552056878842 0.023460442460900344 -0.0003350460569959431 -0.0053320337873792312 -0.0003350460569959431 -0.19059108381495166 0.00028496068420413856 -0.0053320337873792312 0.00028496068420413856 -0.97650778178725273 0.023613942060635384 -0.0010959095358934869 -0.0042694296266159171 -0.0010959095358934869 -0.18822112443924022 0.00041121164586089415 -0.0042694296266159171 0.00041121164586089415 -0.96355817544325095 0.020777645236082332 -0.00043840008838797237 -0.001472692031631917 -0.00043840008838797237 -0.19050972883947742 -0.0063208299475299157 -0.001472692031631917 -0.0063208299475299157 -0.972516030720185 0.020583373367570879 0.00079077244475167366 0.0016530739621658519 0.00079077244475167366 -0.1923228441405036 0.0010995750783195923 0.0016530739621658519 0.0010995750783195923 -0.97938232012281823 0.023496744035028327 0.00074698693384184093 0.0013495369647262834 0.00074698693384184093 -0.18850184336431264 0.00071322511538851607 0.0013495369647262834 0.00071322511538851607 -0.96576449979248746 0.019847939588959584 -0.00042205031462929222 -0.0062740502661979836 -0.00042205031462929222 -0.19222462944948981 -0.00054704454921949974 -0.0062740502661979836 -0.00054704454921949974 -0.98258050946610265 0.023786015619712386 2.5324185392939217e-05 -0.0014080198603605432 2.5324185392939217e-05 -0.18996287706854276 0.005717194619682564 -0.0014080198603605432 0.005717194619682564 -0.97078961808893638 0.025214044400428182 0.00021588241823203809 0.00080521354650531229 0.00021588241823203809 -0.18793690439691513 -0.00091219640476580821 0.00080521354650531229 -0.00091219640476580821 -0.96456496031324823 0.048738566026354381 0.00013030322205800752 -0.0039267303996124436 0.00013030322205800752 -0.17904168817976088 0.00012695489888769895 -0.0039267303996124436 0.00012695489888769895 -0.94334777595767083 0.027222823154833375 -0.0007456522744089505 -0.0053102021452073878 -0.0007456522744089505 -0.18899369785883036 -0.00012535690022175139 -0.0053102021452073878 -0.00012535690022175139 -0.97322268087844144 0.05631391864076174 0.00034275914740979828 -0.01325796940895585 0.00034275914740979828 -0.17904767081582129 -0.0018187813290264643 -0.01325796940895585 -0.0018187813290264643 -0.95007903685211481 0.036953497832330706 0.00013685498871231409 0.0033186111804745276 0.00013685498871231409 -0.18387191589981922 0.00012040313223293797 0.0033186111804745276 0.00012040313223293797 -0.95571384636394008 0.019847731840402671 -0.00014510014619592516 -0.0058166284457223938 -0.00014510014619592516 -0.19267137215497443 -0.0011227618035966336 -0.0058166284457223938 -0.0011227618035966336 -0.98143140760886372 0.053446370366059037 -0.00059130749390588788 -0.011455763886357939 -0.00059130749390588788 -0.17829927701214454 -0.00089192831619677726 -0.011455763886357939 -0.00089192831619677726 -0.95230915142523553 0.024636882317045194 0.0013215660335284462 -0.0045682842055656536 0.0013215660335284462 -0.19147652927375181 6.721649902896587e-06 -0.0045682842055656536 6.721649902896587e-06 -0.97293153621587924 0.023313937065229773 -0.00076928638476877803 -8.1879069864676524e-05 -0.00076928638476877803 -0.18893388221993979 -0.0014300463586543397 -8.1879069864676524e-05 -0.0014300463586543397 -0.96582461973867861 0.025994676196979372 -0.0014300152273356453 -0.005865309821620146 -0.0014300152273356453 -0.1899072439005951 -0.00051301636116023175 -0.005865309821620146 -0.00051301636116023175 -0.97406357926506981 0.024614562178013277 -0.0027200939537341644 -0.0041944795347550468 -0.0027200939537341644 -0.18879273509678396 9.8804821977660495e-05 -0.0041944795347550468 9.8804821977660495e-05 -0.9767538680072656 0.058421667391464371 0.00046064664108299978 -0.013698369726314219 0.00046064664108299978 -0.17795971229844321 -6.1001912970204408e-05 -0.013698369726314219 -6.1001912970204408e-05 -0.94777031559972746 0.057061213072868711 0.00076450653730826339 -0.012741576290912882 0.00076450653730826339 -0.17744401036585655 -0.00085354738051118817 -0.012741576290912882 -0.00085354738051118817 -0.94857347272611037 0.023157133248418282 0.00052171725344682764 0.0011998164997444327 0.00052171725344682764 -0.18734521497511103 -0.00040608651689417324 0.0011998164997444327 -0.00040608651689417324 -0.96441516814451989 0.018141432290230908 0.00069188844422099461 -0.0046587253916905436 0.00069188844422099461 -0.19270674028668733 0.00045301275234144178 -0.0046587253916905436 0.00045301275234144178 -0.97965585551640055 0.017898811370379519 0.0008706598061738592 -0.0053597895000390139 0.0008706598061738592 -0.19166644388029974 -0.00035269903798149094 -0.0053597895000390139 -0.00035269903798149094 -0.98099627871839523 0.034196502581970489 -0.00048051864732121408 0.0012635141076575707 -0.00048051864732121408 -0.18360629172678333 0.00034685992452576642 0.0012635141076575707 0.00034685992452576642 -0.95469168024635742 0.031986091735311084 -0.0010775672030858712 -0.00017407445974693125 -0.0010775672030858712 -0.18408015135239231 0.00038905314063431007 -0.00017407445974693125 0.00038905314063431007 -0.9546555438714539 0.016583335955678513 0.00134881855424998 -0.0054467123797807826 0.00134881855424998 -0.19241123172405816 0.00047402100801297031 -0.0054467123797807826 0.00047402100801297031 -0.98031396586480479 0.032598650236397742 -0.0011575634133699708 0.00037644445301387996 -0.0011575634133699708 -0.18351890297842965 0.00064508665600238047 0.00037644445301387996 0.00064508665600238047 -0.95193340136663274 0.024875984671817397 -0.0027158098890914676 -0.0086807343091979128 -0.0027158098890914676 -0.1899810772984406 0.0025570238286445335 -0.0086807343091979128 0.0025570238286445335 -0.97601587932933676 0.027094094508031352 -2.0238261371613749e-05 -0.0086761034001188175 -2.0238261371613749e-05 -0.19077511258453406 -0.00038332753763925531 -0.0086761034001188175 -0.00038332753763925531 -0.97861711408134688 0.057629692573284319 -0.00080689289958128243 -0.013137156998817123 -0.00080689289958128243 -0.17777030342691946 0.0020813440071671963 -0.013137156998817123 0.0020813440071671963 -0.94798206519675476 0.032810041942620827 -0.002280885542005489 -0.001626601057753696 -0.002280885542005489 -0.18520589406516264 0.0036563561432417513 -0.001626601057753696 0.0036563561432417513 -0.96039994522917471 0.024167253250725329 0.00070161224092209727 -0.0033480405569772387 0.00070161224092209727 -0.19023906428834902 0.00048006678197443087 -0.0033480405569772387 0.00048006678197443087 -0.97681856844441306 0.0231998361662199 0.0016806665647608695 0.0013315509582196849 0.0016806665647608695 -0.18782230404954137 0.0016185539628909285 0.0013315509582196849 0.0016185539628909285 -0.96430121222411547 0.024698498882000819 0.0019135738438779818 -0.0028937862819982119 0.0019135738438779818 -0.18520652936410997 0.00075678703133608138 -0.0028937862819982119 0.00075678703133608138 -0.95221293050309797 0.036768757740691993 -0.00066061959333715207 -0.0092062464386699627 -0.00066061959333715207 -0.18098194211844937 0.00054189687966199607 -0.0092062464386699627 0.00054189687966199607 -0.94362789165377525 0.036692889140103047 0.0031593594718318935 -0.0072686628002632536 0.0031593594718318935 -0.18421834777154578 -0.0031799010025210239 -0.0072686628002632536 -0.0031799010025210239 -0.94904119471392168 0.036010655986236283 0.004139478436837196 -0.0039892523896668947 0.004139478436837196 -0.18472109792510674 0.0046815959400396956 -0.0039892523896668947 0.0046815959400396956 -0.96634505029230566 0.029061384557556268 -0.00067823921135351474 -0.0035376654105663263 -0.00067823921135351474 -0.18693276166106329 0.00039755509982830617 -0.0035376654105663263 0.00039755509982830617 -0.96578002522744988 0.037797942834154774 -0.0051622104603898456 -0.0055632701137580121 -0.0051622104603898456 -0.18206411968562003 0.002763234950100113 -0.0055632701137580121 0.002763234950100113 -0.94808416841899801 0.035331121291234162 -0.0030308938935891708 -0.0040146083241763414 -0.0030308938935891708 -0.18631615058943374 -0.0017967022367266772 -0.0040146083241763414 -0.0017967022367266772 -0.96660131021004014 0.022458062988957805 0.002741164986145901 -0.0037775883876067784 0.002741164986145901 -0.18922296486110335 -0.0021754233715505222 -0.0037775883876067784 -0.0021754233715505222 -0.96974573293836075 0.021548230296870141 0.0019073653768557457 0.00055899848978635536 0.0019073653768557457 -0.1886909711454412 -0.001536516016719558 0.00055899848978635536 -0.001536516016719558 -0.96598160257700982 0.022181425549847658 0.0034323976300754972 -0.0023826508738074015 0.0034323976300754972 -0.18907918417571173 -0.0010182952150332714 -0.0023826508738074015 -0.0010182952150332714 -0.96781515087318548 0.026771631035574117 -0.0024762218486913605 -0.0036371094290770234 -0.0024762218486913605 -0.19013962420108232 0.00030536024523375449 -0.0036371094290770234 0.00030536024523375449 -0.96688268641553465 0.028942290633081069 0.0089028785379105992 -0.0044926261529414369 0.0089028785379105992 -0.1809660096321013 -0.003753051631566251 -0.0044926261529414369 -0.003753051631566251 -0.95089762522060384 0.067784927539410122 -9.8341392184146973e-05 -0.009167835156167925 -9.8341392184146973e-05 -0.1761735540524737 0.00048555898931157415 -0.009167835156167925 0.00048555898931157415 -0.94279540873083389 0.040531982672528333 -0.001352804683406487 0.0022689104618037748 -0.001352804683406487 -0.18833440800356316 0.00094672131913142721 0.0022689104618037748 0.00094672131913142721 -0.95351495978551171 0.029672210691170653 -0.00019867661234593617 -0.0059854175151508038 -0.00019867661234593617 -0.19040474410910813 0.0012223349652868976 -0.0059854175151508038 0.0012223349652868976 -0.96864286810085387 0.031436663366340434 0.00025710374400757734 -0.0043195646574308855 0.00025710374400757734 -0.18414998559638762 -0.00047038960036294153 -0.0043195646574308855 -0.00047038960036294153 -0.9516024956861493 0.024643011729538977 0.00065768808590799331 0.0010637008599280184 0.00065768808590799331 -0.19078169027372793 0.00036119659078859279 0.0010637008599280184 0.00036119659078859279 -0.96657507118192365 0.024388605827452302 0.0021767683216438187 0.0012504658305776406 0.0021767683216438187 -0.18814150884126954 -0.0006081180703966238 0.0012504658305776406 -0.0006081180703966238 -0.96607784162928245 0.0086519566026080907 -0.0019786166507488796 0.0017269386202798387 -0.0019786166507488796 -0.19058973566289139 -0.00026250223284107754 0.0017269386202798387 -0.00026250223284107754 -0.96972215310811372 0.017084561152299615 0.00043533723678665517 -0.0026544297581972964 0.00043533723678665517 -0.18904211127010562 0.00021106247849272952 -0.0026544297581972964 0.00021106247849272952 -0.96859457647459246 0.0186316438415014 -0.0044633469419580723 -0.0047593504684291243 -0.0044633469419580723 -0.18593166380779447 0.0020558743501849497 -0.0047593504684291243 0.0020558743501849497 -0.95828335685022514 0.047904888320181027 -0.00078703113609945733 -0.00062814885051576397 -0.00078703113609945733 -0.18100591059357163 0.00011609701270709483 -0.00062814885051576397 0.00011609701270709483 -0.95090777447410124 0.032343665118334627 0.0012264632304424135 -0.0041065823078585417 0.0012264632304424135 -0.18445733037375678 0.00071319377500822512 -0.0041065823078585417 0.00071319377500822512 -0.95596736801663784 0.020498927136198386 -0.0019881483188412489 -0.0027029333661826582 -0.0019881483188412489 -0.18793315799334886 -0.00079557968849153227 -0.0027029333661826582 -0.00079557968849153227 -0.97015971965867998 0.018107117317446408 -0.0037495459945717648 -0.001928667377361748 -0.0037495459945717648 -0.18698644933103792 -0.0028200724818228107 -0.001928667377361748 -0.0028200724818228107 -0.96305641004823661 0.028731721388402673 0.0023330870064955989 -0.0066281170242696863 0.0023330870064955989 -0.18894141365898259 -0.00015499929422979619 -0.0066281170242696863 -0.00015499929422979619 -0.97353357610791647 0.013356257349612877 -0.0028668014863532671 -0.0050822884499944765 -0.0028668014863532671 -0.1910250358506278 0.00073977375382439092 -0.0050822884499944765 0.00073977375382439092 -0.97725241761173809 0.018602855332981783 5.6560795537789765e-05 -0.005047488263402844 5.6560795537789765e-05 -0.19251795053903353 -0.00084417630410316136 -0.005047488263402844 -0.00084417630410316136 -0.98297293187109425 0.027847479057471647 -0.0013632672522125725 -0.0085987357870034309 -0.0013632672522125725 -0.18729206485677197 0.00096009218874248958 -0.0085987357870034309 0.00096009218874248958 -0.96255088134409306 0.018366993831324674 -0.00017985782153644546 0.0011692585443570103 -0.00017985782153644546 -0.19161720783183855 -0.00066239454728900249 0.0011692585443570103 -0.00066239454728900249 -0.98453695059956026 0.020991683294384389 -0.00030279694129442254 -0.0023141567901434623 -0.00030279694129442254 -0.19039151256799025 -0.003446312782183103 -0.0023141567901434623 -0.003446312782183103 -0.97609854642719585 0.017171090228915054 -0.0015446237644366363 -0.004887977465167892 -0.0015446237644366363 -0.1948591722344295 0.00052089739653338185 -0.004887977465167892 0.00052089739653338185 -0.98223324522002109 0.023288665197932268 0.0029891416919479667 -0.0087888513573155524 0.0029891416919479667 -0.19024671199507481 -0.0034887310656031012 -0.0087888513573155524 -0.0034887310656031012 -0.97488572834810228 0.027973092730921412 -0.0021811781618731011 0.002907589559215884 -0.0021811781618731011 -0.18973483724725082 -0.00068753901622770064 0.002907589559215884 -0.00068753901622770064 -0.96708637915528728 0.029116680266488615 0.00036719863018668702 -0.006446798089971395 0.00036719863018668702 -0.19087285043201141 7.0958964160261484e-05 -0.006446798089971395 7.0958964160261484e-05 -0.97387738253227862 0.055076475987285933 0.00035938835677461108 -0.012638394194823072 0.00035938835677461108 -0.17841307318669553 -0.0018116207879841362 -0.012638394194823072 -0.0018116207879841362 -0.94751519554055985 0.035651143492604342 0.002296590732392822 -0.00086520732549177914 0.002296590732392822 -0.18513627120582776 -0.0043920355103779785 -0.00086520732549177914 -0.0043920355103779785 -0.96092205415267795 0.039779669248727167 0.00014486601120273368 -0.0056263746968336914 0.00014486601120273368 -0.18413594102415071 0.0014327727662970524 -0.0056263746968336914 0.0014327727662970524 -0.95832286834843106 0.049367531103315265 -0.0013230512219447462 -0.00022481952247765946 -0.0013230512219447462 -0.18106787462030982 -0.00057287598752986391 -0.00022481952247765946 -0.00057287598752986391 -0.95208171749977843 0.054358895418259223 0.001700426024846544 -0.013022446219236539 0.001700426024846544 -0.17945732991562724 -0.00027032489575473662 -0.013022446219236539 -0.00027032489575473662 -0.94851599058695069 0.027096499176901601 0.001030646454433049 0.0023509804355195119 0.001030646454433049 -0.18793709629880917 -0.0006063753631808666 0.0023509804355195119 -0.0006063753631808666 -0.96698074249813537 0.053398555448667562 8.8146998424443103e-05 -0.010576130839601877 8.8146998424443103e-05 -0.18014175300501134 -0.00055307582332009275 -0.010576130839601877 -0.00055307582332009275 -0.95148644691848538 0.032876653994100835 0.0020846390299462049 -0.0031183201821667339 0.0020846390299462049 -0.18531219644766844 -0.0024577381429551348 -0.0031183201821667339 -0.0024577381429551348 -0.95986558090777563 0.069189121287414945 0.0013301652824992776 -0.00023561018948803358 0.0013301652824992776 -0.17317683740784728 -0.00012312529936542305 -0.00023561018948803358 -0.00012312529936542305 -0.93261268507257444 0.069411934358406646 0.0025574377421290237 -0.00035265496901359938 0.0025574377421290237 -0.17145581599083481 -0.0014284841175442597 -0.00035265496901359938 -0.0014284841175442597 -0.93170440048625025 0.063166735915778593 0.001034070584507715 -0.0033836990114577414 0.001034070584507715 -0.17571008820729106 0.0012591036643090359 -0.0033836990114577414 0.0012591036643090359 -0.93910533123853979 0.071958987462706792 0.0024036392380978348 -0.0085956018385220379 0.0024036392380978348 -0.17234057402444647 -0.00045238921688661726 -0.0085956018385220379 -0.00045238921688661726 -0.93167442972944636 0.061952270094770445 0.0002646124851592189 -0.0077981978643208993 0.0002646124851592189 -0.17662873620124475 -0.002821265856025712 -0.0077981978643208993 -0.002821265856025712 -0.94126230839859515 0.082285926448502966 0.0017573470284557044 -0.0006917731742104305 0.0017573470284557044 -0.16982186362957863 0.0011919149876041812 -0.0006917731742104305 0.0011919149876041812 -0.92582448470772416 0.067654212588422635 -0.00087173324436911909 -0.0097352095544036565 -0.00087173324436911909 -0.1753562062575279 -0.0024841071802657044 -0.0097352095544036565 -0.0024841071802657044 -0.9388548680832689 0.064822615553079554 0.0031386004585665221 -0.0068486348445610905 0.0031386004585665221 -0.17431413532652318 0.0017887693683644734 -0.0068486348445610905 0.0017887693683644734 -0.94078563633987855 0.090485324081031493 -0.00053713858099589207 -0.010537764814047675 -0.00053713858099589207 -0.16517821611091377 0.00072082844375298549 -0.010537764814047675 0.00072082844375298549 -0.91743415887021795 0.090638082441890311 -0.0010259122415077477 -0.010399187682996896 -0.0010259122415077477 -0.1652760383230184 -0.00052814663316769206 -0.010399187682996896 -0.00052814663316769206 -0.91662376360973452 0.10339716876267446 0.00012903213754524614 -0.0061851757277053832 0.00012903213754524614 -0.16233875582471935 -0.0022862636176643747 -0.0061851757277053832 -0.0022862636176643747 -0.91832341157086361 0.090009060274359731 0.003725296808514157 -0.0056700747469495688 0.003725296808514157 -0.16594164518262389 -0.0013099836646017771 -0.0056700747469495688 -0.0013099836646017771 -0.91860651307177044 0.081781913072531576 -0.0021210911839795715 -0.0044301330889176191 -0.0021210911839795715 -0.16951698293949413 0.00076559978926926675 -0.0044301330889176191 0.00076559978926926675 -0.9275284829502719 0.081329295600340079 -0.00028648398390206223 -0.011624827428399431 -0.00028648398390206223 -0.16945529668057335 0.00047511236409913948 -0.011624827428399431 0.00047511236409913948 -0.92768608111427486 0.07788539267756589 -0.00015476727081282672 -0.008272833352369835 -0.00015476727081282672 -0.16783509261036511 -0.0002171886172011861 -0.008272833352369835 -0.0002171886172011861 -0.91798557010882398 0.067371215934918988 0.0022779543001519415 -0.0043778526593962752 0.0022779543001519415 -0.17254834464608318 -0.0005068832251865496 -0.0043778526593962752 -0.0005068832251865496 -0.92895225489002808 0.086669447809186839 -0.0015371950929148942 -0.0073935789981590117 -0.0015371950929148942 -0.16589143159676245 -0.00053751805323298818 -0.0073935789981590117 -0.00053751805323298818 -0.91574428226578197 0.086879235540883837 -0.00052443320475028263 -0.0049720505340086207 -0.00052443320475028263 -0.16613120212430732 -0.0007952912196098616 -0.0049720505340086207 -0.0007952912196098616 -0.91661368695499768 0.06838733648633849 -0.00030451922899022983 -0.0011225475069873703 -0.00030451922899022983 -0.17257997464254138 0.00037371165048288857 -0.0011225475069873703 0.00037371165048288857 -0.93303268067261769 0.061791575241929353 -0.00073733219182847416 -0.0057692989555796353 -0.00073733219182847416 -0.17652276258836275 -0.00017262841802009182 -0.0057692989555796353 -0.00017262841802009182 -0.94602642484859789 0.073184653673976419 2.9403279968987463e-05 -0.012280930243705357 2.9403279968987463e-05 -0.17215986543834716 -0.00089946210607369514 -0.012280930243705357 -0.00089946210607369514 -0.9356501574563425 0.062857357846561879 -0.00073587957237007066 -0.0069960996101797006 -0.00073587957237007066 -0.17555705569403912 -0.00096993703210885782 -0.0069960996101797006 -0.00096993703210885782 -0.94207547014923243 0.064464343091118814 0.0019211380314027361 -0.010114899590438195 0.0019211380314027361 -0.17470116415411019 -0.002689799182560404 -0.010114899590438195 -0.002689799182560404 -0.93595872967808491 0.085564913454929892 -0.00024305260861613964 -0.0095465127623190343 -0.00024305260861613964 -0.16655325145834743 5.5120636372585352e-05 -0.0095465127623190343 5.5120636372585352e-05 -0.9187794895167074 0.074152134557999738 0.0002821582646536238 -0.0032933856963102137 0.0002821582646536238 -0.17052960091410835 -0.00055457295017657948 -0.0032933856963102137 -0.00055457295017657948 -0.92724700712045638 0.078750258055428679 0.00064903518709251841 -0.0079503519066930206 0.00064903518709251841 -0.16777302274351369 0.00073147801788175926 -0.0079503519066930206 0.00073147801788175926 -0.91805479987603666 0.073496015135432136 0.0025720892700717016 -0.0044071352860998725 0.0025720892700717016 -0.1695920500424728 -0.005532416430039433 -0.0044071352860998725 -0.005532416430039433 -0.91860696245640838 0.073604369347822773 0.00086365838933387244 -0.010403573597228322 0.00086365838933387244 -0.17343165000517163 0.00081998370006708399 -0.010403573597228322 0.00081998370006708399 -0.93866690112009454 0.071064866655186298 -0.00078239241565424206 -0.0023250668818227405 -0.00078239241565424206 -0.17246534635179289 0.00066859506209482333 -0.0023250668818227405 0.00066859506209482333 -0.93298309281955394 0.06869668611515789 -0.0018257295660100055 -0.0018841618367178015 -0.0018257295660100055 -0.17246423722279269 0.00027435965801736462 -0.0018841618367178015 0.00027435965801736462 -0.93308523544704558 0.080137455835249172 -0.00061904783131557569 -0.0090585474476742034 -0.00061904783131557569 -0.16784329215877408 0.00025022309108868601 -0.0090585474476742034 0.00025022309108868601 -0.91872673418997208 0.071986641645723104 -0.0021333807329912391 0.00026071457055643066 -0.0021333807329912391 -0.17177701654073463 0.0016070378098143046 0.00026071457055643066 0.0016070378098143046 -0.93060593503788436 0.074623898850801229 0.0040642722571224959 -0.0038185191372993588 0.0040642722571224959 -0.17154080464736032 0.0023564137976455068 -0.0038185191372993588 0.0023564137976455068 -0.93116701486352182 0.065337899077156647 0.0023762079706445972 -0.01204354529521811 0.0023762079706445972 -0.17444730527305624 -0.00228918708500081 -0.01204354529521811 -0.00228918708500081 -0.93819342258108573 0.074058029152963695 -0.0070160801775392698 -0.0053771731887444219 -0.0070160801775392698 -0.17049383117124414 -0.0025252487962437176 -0.0053771731887444219 -0.0025252487962437176 -0.9320573469599952 0.084882129992845806 -0.00027583135064686407 -0.0020399171687919271 -0.00027583135064686407 -0.16853662902922475 0.0012617943188371061 -0.0020399171687919271 0.0012617943188371061 -0.92801238006513398 0.065840799696595273 -0.0043591944391203714 -0.012237126025647353 -0.0043591944391203714 -0.17349907719926194 0.003391396727143281 -0.012237126025647353 0.003391396727143281 -0.93765806074533753 0.065024591332645709 -0.0026958859347713652 -0.0078594371854641132 -0.0026958859347713652 -0.17485057500004164 -0.0014005629656529406 -0.0078594371854641132 -0.0014005629656529406 -0.9401334361980056 0.10147244357567164 0.00064460286736836895 -0.012095335751619529 0.00064460286736836895 -0.16250636317773359 0.00056629902243621189 -0.012095335751619529 0.00056629902243621189 -0.91484996102274385 0.10167918862084324 0.0019778977802893528 -0.011524442921095446 0.0019778977802893528 -0.1627586118617057 0.00070693750920147735 -0.011524442921095446 0.00070693750920147735 -0.91466185672709877 0.10103762752368639 -0.0022471716243711291 -0.010349632824098176 -0.0022471716243711291 -0.16323069157235126 2.9313025967980799e-05 -0.010349632824098176 2.9313025967980799e-05 -0.91395418207088053 0.087162210089060888 -0.00010559841302602662 -0.0082424130694239151 -0.00010559841302602662 -0.16617853145806005 -0.00057167900449917042 -0.0082424130694239151 -0.00057167900449917042 -0.91779325665051337 0.11992493910761848 -2.1926598409625258e-05 -0.0013279381698982906 -2.1926598409625258e-05 -0.15609284561938275 8.9670778297357145e-05 -0.0013279381698982906 8.9670778297357145e-05 -0.89976547016535324 0.11650803720431735 -0.00023154718663179479 -0.0057309465341841559 -0.00023154718663179479 -0.1584140053958446 0.00021753217542292563 -0.0057309465341841559 0.00021753217542292563 -0.91086232666385492 0.10566335574775143 -0.0053453436686886555 -0.0035866046191288525 -0.0053453436686886555 -0.15955928666149771 0.0026087953314541945 -0.0035866046191288525 0.0026087953314541945 -0.90673646830328569 0.10724074859963201 -0.00043976791942882792 -0.001405103706525912 -0.00043976791942882792 -0.15810645804448087 0.00033037018382168354 -0.001405103706525912 0.00033037018382168354 -0.90003031560640023 0.095785564872647944 0.00032300950050151688 -0.00052660178149599446 0.00032300950050151688 -0.16284711812948499 0.00020932318962940677 -0.00052660178149599446 0.00020932318962940677 -0.91097803047872783 0.10561624810864242 0.0028527341624146759 -0.0028684208156712909 0.0028527341624146759 -0.15871616890934145 0.0017906481029383858 -0.0028684208156712909 0.0017906481029383858 -0.90181667583112535 0.11553780897917265 -0.0010245049981477338 -0.004869647832045132 -0.0010245049981477338 -0.16020447721456799 0.0019146355850943042 -0.004869647832045132 0.0019146355850943042 -0.91108327731751126 0.11753437075950524 -0.00073791442595005734 -0.008646963531725671 -0.00073791442595005734 -0.15681869385572955 -0.00086859360230007177 -0.008646963531725671 -0.00086859360230007177 -0.9003139175770718 0.10820690689367854 0.0043073374186408386 -0.0058380206387977918 0.0043073374186408386 -0.15982752182336582 -0.0028574584007590165 -0.0058380206387977918 -0.0028574584007590165 -0.90420300130090603 0.12053427325558119 0.00025437342148054042 -0.0017695423948058675 0.00025437342148054042 -0.15600073846907064 -0.00044596205335589723 -0.0017695423948058675 -0.00044596205335589723 -0.89993247055516101 0.095376067473796122 -0.00010976178908841545 -0.0046802548684997392 -0.00010976178908841545 -0.16132798929256936 -0.00022850092816228962 -0.0046802548684997392 -0.00022850092816228962 -0.90114865780106856 0.098806674948425488 -0.00061835101337958515 -0.0063675310518577222 -0.00061835101337958515 -0.16316626501389564 0.00024962288282215361 -0.0063675310518577222 0.00024962288282215361 -0.9140108110294165 0.097118251151883356 -0.0010177089307213346 -0.004245941967956246 -0.0010177089307213346 -0.16066392232441271 -0.00029066765747665091 -0.004245941967956246 -0.00029066765747665091 -0.90064669524002994 0.096123400364842682 0.0010677369120104718 -0.005466647759900134 0.0010677369120104718 -0.16054341550072404 -0.0001595788856199043 -0.005466647759900134 -0.0001595788856199043 -0.90137306029935282 0.1024548442373216 0.0010795010409240828 -0.0068484938431605524 0.0010795010409240828 -0.16157553434771305 -0.00013343942806764986 -0.0068484938431605524 -0.00013343942806764986 -0.91286476137747363 0.10079498988142499 0.00070335431347424971 -0.004903661479986221 0.00070335431347424971 -0.16225764976969659 0.00071903726250677202 -0.004903661479986221 0.00071903726250677202 -0.91251814725664793 0.097370284434136756 0.00051407512719459211 -0.0050999232284067997 0.00051407512719459211 -0.16247707607582607 -0.00077305233105695592 -0.0050999232284067997 -0.00077305233105695592 -0.90902865662268306 0.099806715497428589 0.00042049493242711061 -0.0070962633438962364 0.00042049493242711061 -0.16092207381712142 -0.00027714624433483603 -0.0070962633438962364 -0.00027714624433483603 -0.9032254043451986 0.10232890838302944 -0.00060428268152674198 -0.0044399985553260635 -0.00060428268152674198 -0.16205416486838664 8.053298827803701e-06 -0.0044399985553260635 8.053298827803701e-06 -0.91197179285210517 0.11184486909115524 0.00090729012407586465 -0.0045680196827042607 0.00090729012407586465 -0.15787687106251821 -0.00029316664338926296 -0.0045680196827042607 -0.00029316664338926296 -0.89986658891864602 0.097172459002058398 0.00018722760602115556 -0.0037544522310005712 0.00018722760602115556 -0.16078439183141457 4.9893424516417317e-05 -0.0037544522310005712 4.9893424516417317e-05 -0.90029385723151156 0.10430122418519727 -0.00063327154226410127 -0.006100864349862789 -0.00063327154226410127 -0.16066915289760586 0.00043788852405024503 -0.006100864349862789 0.00043788852405024503 -0.90656213652802009 0.096665605216617392 0.00090239046477069923 -0.0049400083448166709 0.00090239046477069923 -0.16186970189338298 0.00085897284223229731 -0.0049400083448166709 0.00085897284223229731 -0.90574857493366723 0.10639378503132879 -0.00029296517832158499 -0.0054577977060788485 -0.00029296517832158499 -0.1585420167934849 -1.8997448934021666e-05 -0.0054577977060788485 -1.8997448934021666e-05 -0.89802437536983382 0.09023782923351964 -0.00069457633688632626 -0.0062099291715519422 -0.00069457633688632626 -0.16334139664077463 1.669926285152723e-05 -0.0062099291715519422 1.669926285152723e-05 -0.90739674416370186 0.09449475856063061 -0.00036424920666385701 -0.0031630089884109314 -0.00036424920666385701 -0.1634396062137391 -0.00016745880249735556 -0.0031630089884109314 -0.00016745880249735556 -0.91214243821679108 0.10427297205547353 -0.00025050311719060348 -0.007363120755105701 -0.00025050311719060348 -0.16176743231542395 -0.00079849609970228386 -0.007363120755105701 -0.00079849609970228386 -0.9121878619071595 0.11118187649806111 0.00073156132519881876 -0.0010107762753848171 0.00073156132519881876 -0.15755458337774209 0.0012091854325728679 -0.0010107762753848171 0.0012091854325728679 -0.90013203576763479 0.10602010330285316 0.001128362816730824 -0.0092835505046144906 0.001128362816730824 -0.16079180148425665 0.00082096473630288713 -0.0092835505046144906 0.00082096473630288713 -0.9116191213982221 0.10208056313191083 -0.001816319344869057 -0.00090954467512092962 -0.001816319344869057 -0.16249725770734313 -0.00089682796467838166 -0.00090954467512092962 -0.00089682796467838166 -0.91446933699031607 0.11230647214973222 -0.01187976695994686 0.001559423384407177 -0.01187976695994686 -0.1592306334727347 -0.0052295424833754822 0.001559423384407177 -0.0052295424833754822 -0.89724890793255518 0.10383543272556406 -0.00052603875989622412 9.930970911997683e-05 -0.00052603875989622412 -0.15991535341504604 0.0022976180091529574 9.930970911997683e-05 0.0022976180091529574 -0.90664453369234499 0.11730995036832959 0.0024127207329860938 -0.0048679164845264467 0.0024127207329860938 -0.15624332512251449 0.00063163460538862015 -0.0048679164845264467 0.00063163460538862015 -0.90012694176007946 0.11486427927571086 0.0021553876566926563 -0.0047811142035296544 0.0021553876566926563 -0.15939327182823804 -0.0031662901664988308 -0.0047811142035296544 -0.0031662901664988308 -0.90958732486883953 0.1155358459379674 -0.00035573191062504637 -0.0043166861926631217 -0.00035573191062504637 -0.15860646296265757 -0.0016939569236051888 -0.0043166861926631217 -0.0016939569236051888 -0.91025206694037752 0.1261380097037641 0.00083661385013756857 -0.003617289521685052 0.00083661385013756857 -0.1550170300119118 -0.0009306732971894327 -0.003617289521685052 -0.0009306732971894327 -0.90161564487308876 0.11617513124763001 -0.00031597389057337551 -0.0073623807050373635 -0.00031597389057337551 -0.1550677489126473 -0.00017533811860714899 -0.0073623807050373635 -0.00017533811860714899 -0.89414359924796027 0.11868123371104067 -0.0011652833933195874 -0.0010468051226655284 -0.0011652833933195874 -0.15590774015010167 0.00035193326155757987 -0.0010468051226655284 0.00035193326155757987 -0.90059378845251725 0.11997571381147876 -0.00099590401482889325 -0.00038712575945298866 -0.00099590401482889325 -0.15504041854165274 0.002097407989317901 -0.00038712575945298866 0.002097407989317901 -0.895579487274488 0.13366190476121698 0.0021196202629351251 -0.0037784566268075359 0.0021196202629351251 -0.15111013257210004 0.0011029893687226622 -0.0037784566268075359 0.0011029893687226622 -0.89067388508702727 0.13110659642280065 -0.0002406403473488427 -0.0057580461339303834 -0.0002406403473488427 -0.15313458747402642 -6.2877331467703357e-05 -0.0057580461339303834 -6.2877331467703357e-05 -0.89492301683034281 0.13166144136821745 0.00032841174775845197 -0.0059275736929733092 0.00032841174775845197 -0.1520188687805305 -0.00017990728908978681 -0.0059275736929733092 -0.00017990728908978681 -0.8946140705485317 0.12066565537115226 -7.000481969182123e-05 -0.0044302578457207087 -7.000481969182123e-05 -0.15347528057902426 0.00035207118623486328 -0.0044302578457207087 0.00035207118623486328 -0.89223743048260928 0.11896388965158508 -0.0017655912379673515 -0.0039101145756901268 -0.0017655912379673515 -0.15448913046817139 0.00050689747679166786 -0.0039101145756901268 0.00050689747679166786 -0.89284244140935931 0.13916683753963976 -7.1430329474489994e-05 0.0022734700606616975 -7.1430329474489994e-05 -0.15046905720943204 0.00052644080182329134 0.0022734700606616975 0.00052644080182329134 -0.88961446993860438 0.12290128610838558 -0.00045337640467602318 0.001667313964694106 -0.00045337640467602318 -0.15371068181058267 0.00096838260050224889 0.001667313964694106 0.00096838260050224889 -0.89385746547963585 0.1205393680403522 -8.8001016022055956e-06 -0.0044648194523078111 -8.8001016022055956e-06 -0.15361005972425906 0.0006636939620188187 -0.0044648194523078111 0.0006636939620188187 -0.89274027657429689 0.13125837628587222 0.0083057883990095248 -0.0017568055045485975 0.0083057883990095248 -0.15145650248043407 -0.00013272372552597389 -0.0017568055045485975 -0.00013272372552597389 -0.89081510758427829 0.13957603318748979 -5.9508995157977711e-05 -0.005090443219379015 -5.9508995157977711e-05 -0.14942529681100658 0.00055715310229609294 -0.005090443219379015 0.00055715310229609294 -0.88811624850673443 0.13060646578653545 -0.003271363298622979 -0.0013315455615066085 -0.003271363298622979 -0.15185137453872144 0.0010443059235538676 -0.0013315455615066085 0.0010443059235538676 -0.89163641294326768 0.14028043137900226 0.00087574024474213028 0.00079639670331932422 0.00087574024474213028 -0.15035500702050819 -0.00091655084873787374 0.00079639670331932422 -0.00091655084873787374 -0.89417836798211869 0.12311842056491784 -1.6431419912659302e-06 -0.0028088180374594707 -1.6431419912659302e-06 -0.15290870967394743 -0.00069377664368186487 -0.0028088180374594707 -0.00069377664368186487 -0.88910885271714868 0.12250806554567983 -4.9480000231110887e-05 -0.001038762339865551 -4.9480000231110887e-05 -0.15327628213128497 0.00078474910187620317 -0.001038762339865551 0.00078474910187620317 -0.89135172881976299 0.11397973828831098 -9.1416247116105011e-05 -0.0024730359663540646 -9.1416247116105011e-05 -0.15561986721520182 -0.0010516160798443863 -0.0024730359663540646 -0.0010516160798443863 -0.89291886511669727 0.11954820322016246 0.0011592367974889611 0.00062177708994570757 0.0011592367974889611 -0.15416090531812898 -0.0009578952416404718 0.00062177708994570757 -0.0009578952416404718 -0.89178839905816698 0.11414695336876224 -1.512535967915591e-06 -0.0022624928821903811 -1.512535967915591e-06 -0.15558790856481353 -0.0010719193964910945 -0.0022624928821903811 -0.0010719193964910945 -0.89212006920922926 0.11627463564347373 0.0049766609615803006 0.00038237779909322533 0.0049766609615803006 -0.15817408699170576 0.0066099564929471555 0.00038237779909322533 0.0066099564929471555 -0.89450382285920194 0.1143131007324335 8.3962102920426678e-05 -0.0024577489249568707 8.3962102920426678e-05 -0.1555783827716033 -0.001033213737530625 -0.0024577489249568707 -0.001033213737530625 -0.89129288740161217 0.10854557368275719 -0.00048992482563109949 -0.0038820363062921359 -0.00048992482563109949 -0.15835222336997967 -0.00082892796990419182 -0.0038820363062921359 -0.00082892796990419182 -0.89647749809442168 0.1041305815827599 -0.00010006142477656069 -0.0055693319731537905 -0.00010006142477656069 -0.15825185572801378 -0.00032663852118131054 -0.0055693319731537905 -0.00032663852118131054 -0.89824611786124253 0.1145509283914703 -0.00022802379544862366 -0.00070762804818280678 -0.00022802379544862366 -0.15574751108044571 0.0003658463693463343 -0.00070762804818280678 0.0003658463693463343 -0.89440839994693477 0.10978687877548643 0.00081055027728836853 -0.0035181095804595053 0.00081055027728836853 -0.15752354365576737 -0.00095503672141128426 -0.0035181095804595053 -0.00095503672141128426 -0.90003894283599761 0.10572385463104383 0.00024906523175464252 -0.005826285529800912 0.00024906523175464252 -0.15831160300393221 -0.0005532859192186601 -0.005826285529800912 -0.0005532859192186601 -0.89654992968595915 0.10611030671090163 0.00018594317937474473 -0.00072893239029092616 0.00018594317937474473 -0.15808647195223066 0.00059126660287822652 -0.00072893239029092616 0.00059126660287822652 -0.8956010797656061 0.10652684552734726 -9.7789525880957624e-07 -0.0018802736464296199 -9.7789525880957624e-07 -0.15807712504383259 -0.00049598923182303523 -0.0018802736464296199 -0.00049598923182303523 -0.89503002944718602 0.1100561193652464 -0.0012938825819908009 0.00034008719164646539 -0.0012938825819908009 -0.1572630257180343 -0.0004192341248775433 0.00034008719164646539 -0.0004192341248775433 -0.89449001406368289 0.10769632555445874 0.0020625715084907842 -0.0027966198435446232 0.0020625715084907842 -0.15690313314536375 -0.00048414083936165753 -0.0027966198435446232 -0.00048414083936165753 -0.89270181731659992 0.10600991560732453 -4.1828084493980789e-05 -0.0030090648869656178 -4.1828084493980789e-05 -0.15720082561753157 -0.00020365160532964666 -0.0030090648869656178 -0.00020365160532964666 -0.8930061633847064 0.10887482096736228 -0.0013838203497594966 -0.003240916969231733 -0.0013838203497594966 -0.15805939920327777 0.001845759141884229 -0.003240916969231733 0.001845759141884229 -0.89880287530172631 0.10877353403310686 -0.0048631343433559581 0.00091803236018528356 -0.0048631343433559581 -0.15487355449510964 -0.0015977190592906254 0.00091803236018528356 -0.0015977190592906254 -0.8893754442348305 0.12076137439096524 -7.6581111096876155e-05 -0.0046168575215848051 -7.6581111096876155e-05 -0.1537107464244043 0.00031749132445724193 -0.0046168575215848051 0.00031749132445724193 -0.89150897450538125 0.10835743645848062 -0.00099641777379229704 -0.0019453896306314833 -0.00099641777379229704 -0.1574701384923245 -0.0016829752185030245 -0.0019453896306314833 -0.0016829752185030245 -0.89786046840569278 0.10948199337265874 0.0040511832290136638 -0.0041817701155976716 0.0040511832290136638 -0.1569276827041266 0.0013026630484156421 -0.0041817701155976716 0.0013026630484156421 -0.89327947868692315 0.11699412280411492 0.00012537099187660532 -0.0032272420252850154 0.00012537099187660532 -0.15592048965139682 0.00021648274522179101 -0.0032272420252850154 0.00021648274522179101 -0.89670056913567908 0.11287085027716737 -0.0041392916128457575 -0.0071160380272989876 -0.0041392916128457575 -0.15661544443260644 -0.00169224723769279 -0.0071160380272989876 -0.00169224723769279 -0.89564965358184878 0.10768721185801217 -0.00024747021999469137 -0.0022934221189896686 -0.00024747021999469137 -0.15861091267256405 0.00012428657355256778 -0.0022934221189896686 0.00012428657355256778 -0.90125355738794677 0.10762015431932859 -0.0015774798815010184 -0.00082622235522256116 -0.0015774798815010184 -0.15816816180260518 9.3029165877833719e-05 -0.00082622235522256116 9.3029165877833719e-05 -0.89759617908045097 0.1057942833976292 1.3579210104854955e-06 -0.0031213331081536566 1.3579210104854955e-06 -0.15724300935649616 -0.00025779981020934706 -0.0031213331081536566 -0.00025779981020934706 -0.89403678809933629 0.10595234236297835 -4.9973237420299679e-05 -0.0034429765521712952 -4.9973237420299679e-05 -0.15790158283937761 -0.0005825562752056479 -0.0034429765521712952 -0.0005825562752056479 -0.89424902273439999 0.11824422050695438 0.00019035393906056036 -0.0042365091064142657 0.00019035393906056036 -0.15476360786001708 0.0008217516429089855 -0.0042365091064142657 0.0008217516429089855 -0.89160462336820201 0.12301147693374948 -8.6611467006405851e-05 0.0019026233946902726 -8.6611467006405851e-05 -0.15405248787708392 0.00038359495048901487 0.0019026233946902726 0.00038359495048901487 -0.89244555855455054 0.1151555661529815 -0.00026468337380345324 0.0010210769576242326 -0.00026468337380345324 -0.15460675576213578 -0.00030923464130239164 0.0010210769576242326 -0.00030923464130239164 -0.88763396797684146 0.12336872683763622 0.0001942100213227929 0.0019525997142676443 0.0001942100213227929 -0.15426493775030536 0.00083285033904956229 0.0019525997142676443 0.00083285033904956229 -0.89308583439469391 0.11847878483453245 0.00013741696464314305 -0.004404868521783678 0.00013741696464314305 -0.15462953612571295 0.00079570161558706332 -0.004404868521783678 0.00079570161558706332 -0.89057420289473166 0.11802050302276246 0.0001493326678675408 -0.004669152265730947 0.0001493326678675408 -0.15501022869617276 -2.6771436187456032e-05 -0.004669152265730947 -2.6771436187456032e-05 -0.89248468920390245 0.13097905609190619 0.00026747588917987229 -0.0052060476807075373 0.00026747588917987229 -0.1531243717560905 4.3332563337994401e-05 -0.0052060476807075373 4.3332563337994401e-05 -0.89471989460591539 0.11919652473969855 0.00090527849882758658 -0.0049905704009062246 0.00090527849882758658 -0.15495019123480713 0.00037565324550570267 -0.0049905704009062246 0.00037565324550570267 -0.89289121608994515 0.12052971689937164 -2.149382300848724e-05 -0.0044203696124276437 -2.149382300848724e-05 -0.15396544601477191 0.00018495892586067875 -0.0044203696124276437 0.00018495892586067875 -0.89242591251615888 0.1310426771776706 0.00016640682303699974 -0.0053554959956716441 0.00016640682303699974 -0.15238471395502595 -0.00065036210658231397 -0.0053554959956716441 -0.00065036210658231397 -0.89362587461370202 0.12320609346706257 6.9386761116649269e-05 0.0018088674492700019 6.9386761116649269e-05 -0.15350869545698742 -9.0931250688250365e-05 0.0018088674492700019 -9.0931250688250365e-05 -0.89151482499123569 0.13047025716316496 7.7990900892455349e-06 -0.0055265463404488013 7.7990900892455349e-06 -0.15313606807284952 -0.00019985060756178008 -0.0055265463404488013 -0.00019985060756178008 -0.89518106980934942 0.12898692997354333 -0.0058839780635308999 -0.00055079291363924199 -0.0058839780635308999 -0.15239841767948537 0.0011882403316121337 -0.00055079291363924199 0.0011882403316121337 -0.89131015206735098 0.13875245297196104 0.00026777028298436025 -0.0034287880711487695 0.00026777028298436025 -0.15085557312313336 0.0004565002349227465 -0.0034287880711487695 0.0004565002349227465 -0.89220461828146735 0.1394175096368957 0.0001892051534410677 -0.0041920776781461111 0.0001892051534410677 -0.14992558699533576 0.0018299510897836768 -0.0041920776781461111 0.0018299510897836768 -0.88980839782059107 0.13855903611016762 0.00044389658286365561 -0.0033756624681218206 0.00044389658286365561 -0.1504886851177325 5.7354103028650627e-05 -0.0033756624681218206 5.7354103028650627e-05 -0.89173254376715638 0.13810037256505525 0.00014983092364994786 -0.0032121417947732489 0.00014983092364994786 -0.15078517624834131 0.00013305555769327349 -0.0032121417947732489 0.00013305555769327349 -0.89193372887642797 0.13784898493927511 0.00034514314020873732 -0.0031838942923819724 0.00034514314020873732 -0.15172115676598563 -0.0001587222425254442 -0.0031838942923819724 -0.0001587222425254442 -0.8922554478514102 0.13909838116942275 -0.00055443252247740389 -0.003007726854785675 -0.00055443252247740389 -0.15096321465725215 3.3537743376887974e-05 -0.003007726854785675 3.3537743376887974e-05 -0.89213991678709892 0.1196268280029163 0.0019190192856728819 0.0019446780075159653 0.0019190192856728819 -0.15402167313730303 -0.00059386854723864069 0.0019446780075159653 -0.00059386854723864069 -0.89208321035073612 0.1193940612999484 0.00063638588908140718 0.0019247770062015557 0.00063638588908140718 -0.15460976167105095 0.00072953882624671174 0.0019247770062015557 0.00072953882624671174 -0.89206702769769608 0.11858085847146804 0.00014234657489381206 -0.0043707843907758726 0.00014234657489381206 -0.15502594820671023 -0.00074590368030202914 -0.0043707843907758726 -0.00074590368030202914 -0.88966751224877427 0.12275612357961574 -0.00092085924533871842 0.0017776413190104812 -0.00092085924533871842 -0.15472161298453524 -0.00029993115081752841 0.0017776413190104812 -0.00029993115081752841 -0.89185697460325031 0.14036348755572514 0.0001335520342927383 -0.0036482563172710591 0.0001335520342927383 -0.15094852142211201 -0.00041609485852323047 -0.0036482563172710591 -0.00041609485852323047 -0.89135013090687565 0.1306255211132763 -0.00093541771451096409 -0.0060282942766194392 -0.00093541771451096409 -0.1530433228487037 0.00033461069042384217 -0.0060282942766194392 0.00033461069042384217 -0.89414478776073958 0.12181948386720864 -0.0006718361093059975 0.0011897203997797146 -0.0006718361093059975 -0.15442880063643782 0.00025774463469419029 0.0011897203997797146 0.00025774463469419029 -0.89222872097372186 0.12874170527392131 -0.0003384315297421032 -0.0033396867933670471 -0.0003384315297421032 -0.15475890839222706 -0.00025061878777066227 -0.0033396867933670471 -0.00025061878777066227 -0.89843180975971837 0.13164388670264771 -0.00025896726681285038 -0.0059876623652899141 -0.00025896726681285038 -0.15196953665877178 0.00034287554236589468 -0.0059876623652899141 0.00034287554236589468 -0.89373944003506844 0.094647847844228694 -0.00033561741821943843 -0.00065740126655722264 -0.00033561741821943843 -0.16288886940474717 4.4341305394324237e-05 -0.00065740126655722264 4.4341305394324237e-05 -0.91142613308981635 0.10689007050479316 -0.0027315418041259018 -0.0024134632343257856 -0.0027315418041259018 -0.15892662760051068 -0.0017758779873293662 -0.0024134632343257856 -0.0017758779873293662 -0.90272013228967607 0.11640957414554776 0.00048045470523550639 -0.0087257704244740886 0.00048045470523550639 -0.15783878561695019 8.2436902383714594e-05 -0.0087257704244740886 8.2436902383714594e-05 -0.90110143846177504 0.10413414517145403 0.0050751249564636881 -0.0039126677196259507 0.0050751249564636881 -0.15986512416813531 -0.0028094308807888879 -0.0039126677196259507 -0.0028094308807888879 -0.90703022830779756 0.10920311920409495 -0.0033348622229650332 -0.0062832278128910346 -0.0033348622229650332 -0.15973610373968186 0.0019886452926427545 -0.0062832278128910346 0.0019886452926427545 -0.90430711547538867 0.12602705624039517 0.001417410798232687 -0.0032243682877968194 0.001417410798232687 -0.15466355063374562 -0.0012720192214841219 -0.0032243682877968194 -0.0012720192214841219 -0.89840700645390792 0.11449243611392201 0.0010440851504037109 -0.0044545883672781894 0.0010440851504037109 -0.16048912243977698 -0.0019147674520074709 -0.0044545883672781894 -0.0019147674520074709 -0.91251158308186531 0.10314658613835805 -0.0012621729937122529 -0.0065372926136302301 -0.0012621729937122529 -0.16170292773641937 -0.00028404558940198221 -0.0065372926136302301 -0.00028404558940198221 -0.9127026944055352 0.097377185996938176 0.00074043790492763785 -0.0040727704247427443 0.00074043790492763785 -0.16032940354140018 0.00035852182216089545 -0.0040727704247427443 0.00035852182216089545 -0.89977244638860165 0.10040553135870656 -0.0006128526316449901 -0.0055369179578813599 -0.0006128526316449901 -0.16206746685391604 -0.0005510635000112174 -0.0055369179578813599 -0.0005510635000112174 -0.91250811131120013 0.095600891943176503 -4.6766705024532826e-05 -0.0044631858618589954 -4.6766705024532826e-05 -0.16080753121431279 0.00044880282181747333 -0.0044631858618589954 0.00044880282181747333 -0.90005873307648576 0.09830636288801399 0.00036257268615464018 -0.0068993871953743069 0.00036257268615464018 -0.16302370290891574 -0.00014254894549681207 -0.0068993871953743069 -0.00014254894549681207 -0.91397770566335756 0.095547970263691995 -0.00142419325814089 -0.0056546775004936017 -0.00142419325814089 -0.1610013317421225 -0.00017899602875282028 -0.0056546775004936017 -0.00017899602875282028 -0.90158153133594565 0.10736974730844767 0.00044014548076961007 -0.00082239129770023123 0.00044014548076961007 -0.15789214918002203 0.0017667666767883228 -0.00082239129770023123 0.0017667666767883228 -0.89734234873151908 0.10641156719739715 -0.00034845660561562365 -0.0030204701587072114 -0.00034845660561562365 -0.15760372657608263 8.2151673439723183e-05 -0.0030204701587072114 8.2151673439723183e-05 -0.89541667089469379 0.1068572644542316 0.0023999576848843743 0.00049140228946831233 0.0023999576848843743 -0.15881143689416333 -0.00049358419851008861 0.00049140228946831233 -0.00049358419851008861 -0.90234912743325602 0.11016063085632966 0.0012307978507290446 -0.0025165189642397667 0.0012307978507290446 -0.15669887995197462 0.00083449443898664377 -0.0025165189642397667 0.00083449443898664377 -0.89452580997947262 0.1083904634014915 -8.0532879898503784e-05 -0.0019204714499024556 -8.0532879898503784e-05 -0.15839174476087214 -0.00023878043008906946 -0.0019204714499024556 -0.00023878043008906946 -0.90129337347595051 0.11694156166404834 0.0001284431168957523 -0.0031476056765660232 0.0001284431168957523 -0.15599419361149724 -0.00012658629210060557 -0.0031476056765660232 -0.00012658629210060557 -0.89688806106938168 0.10947153553817285 0.00097695671291389151 -0.0027506215553783908 0.00097695671291389151 -0.15742487612999079 -0.0017485332302342727 -0.0027506215553783908 -0.0017485332302342727 -0.89890634250063073 0.11237854076674413 0.002700618619754477 -0.0052213135152390927 0.002700618619754477 -0.15596637001974059 0.00048723455423438367 -0.0052213135152390927 0.00048723455423438367 -0.89194583061357424 0.11241434414609608 -7.876017236549915e-05 -0.0052704854726921546 -7.876017236549915e-05 -0.15520160822360318 -0.00024902024700024228 -0.0052704854726921546 -0.00024902024700024228 -0.89180683541374473 0.10569378654690009 -6.9232653206121548e-05 -0.0037435269633825374 -6.9232653206121548e-05 -0.15772955827243906 0.00089829540760372195 -0.0037435269633825374 0.00089829540760372195 -0.89571667601092875 0.11847195696891655 3.8789565323096641e-06 -0.0041495070716897065 3.8789565323096641e-06 -0.1547186253299736 -0.00084323193062552093 -0.0041495070716897065 -0.00084323193062552093 -0.89051553703666952 0.10677668912588079 -2.4162409117144503e-05 -0.0030131078033063252 -2.4162409117144503e-05 -0.157415050719243 0.00014659188661214628 -0.0030131078033063252 0.00014659188661214628 -0.8953166770114267 0.11208051909415261 -0.00026605240492730536 -0.0015082677611633066 -0.00026605240492730536 -0.15681721265895943 -0.0012797161760245146 -0.0015082677611633066 -0.0012797161760245146 -0.89480798727292443 0.1109696222603932 -0.000240979172042769 -0.0025988843845524828 -0.000240979172042769 -0.15785891089748061 -0.0012900507259598383 -0.0025988843845524828 -0.0012900507259598383 -0.89892082048042532 0.10851106339149626 -0.0019615588426711923 -0.0031118818825007777 -0.0019615588426711923 -0.157336317214747 0.0005121741867394336 -0.0031118818825007777 0.0005121741867394336 -0.89309539009701644 0.10733405129785843 -4.6055658402955622e-05 -0.0028492900868326565 -4.6055658402955622e-05 -0.15672662884233723 -0.00044843589183796162 -0.0028492900868326565 -0.00044843589183796162 -0.89321870793919755 0.11303994222886182 1.3492467997075814e-06 -0.0028514742062160092 1.3492467997075814e-06 -0.15639406389807908 0.00091723088839601452 -0.0028514742062160092 0.00091723088839601452 -0.8921653189160299 0.11312811829604164 4.9479164111530136e-05 -0.0028824108594015518 4.9479164111530136e-05 -0.15618056907783739 0.00076875727858438658 -0.0028824108594015518 0.00076875727858438658 -0.89193820192987872 0.10993617789325778 0.0010868845956357323 -0.00031823168401845514 0.0010868845956357323 -0.15751796437055399 0.00011274596331367626 -0.00031823168401845514 0.00011274596331367626 -0.89613900183596229 0.10381650945745902 0.0001075941964726635 -0.0042807983091440738 0.0001075941964726635 -0.15869009140712309 0.00043262603906568664 -0.0042807983091440738 0.00043262603906568664 -0.89631092064008566 0.10667068293940173 -0.00016301672155297762 -0.00075496147629072752 -0.00016301672155297762 -0.15822543782260212 -0.00049760288527955776 -0.00075496147629072752 -0.00049760288527955776 -0.89675466292511574 0.1067329040478403 0.00028229237840947337 -0.0031002334977696666 0.00028229237840947337 -0.15859171582563769 0.00073659290953043133 -0.0031002334977696666 0.00073659290953043133 -0.89887029257163542 0.097688418291067947 -0.00023762296897198614 -0.0035740052072293915 -0.00023762296897198614 -0.16036649770239575 -0.00043491838397374805 -0.0035740052072293915 -0.00043491838397374805 -0.89877085779181165 0.096915763069915006 -0.00046719799596480366 -0.0047881373747284961 -0.00046719799596480366 -0.16176130035427894 0.00070853939998585802 -0.0047881373747284961 0.00070853939998585802 -0.90505478247242555 0.104446702256493 0.0001272799113874659 -0.0077782634108434223 0.0001272799113874659 -0.16059530854891402 -0.00038433624882322492 -0.0077782634108434223 -0.00038433624882322492 -0.90628117957390852 0.10539859822004516 0.00058430729438628309 -0.0046438263915806743 0.00058430729438628309 -0.15874064505625518 -0.00016548364545854177 -0.0046438263915806743 -0.00016548364545854177 -0.89821734507579221 0.090000251322470137 0.0018220955609206957 -0.0059554503453842812 0.0018220955609206957 -0.16526073440239331 0.0003784423380128743 -0.0059554503453842812 0.0003784423380128743 -0.91498949221307413 0.10507919325928305 0.00041245436275702519 -0.0066579887671622817 0.00041245436275702519 -0.15981604026647911 0.00079404734453858428 -0.0066579887671622817 0.00079404734453858428 -0.90333989833862427 0.10100101567251807 -9.6382821343202652e-05 -0.0052365741986701853 -9.6382821343202652e-05 -0.1624525479179999 -2.6431721204284164e-05 -0.0052365741986701853 -2.6431721204284164e-05 -0.91233011250341356 0.089800066366670039 0.0003591497333537329 -0.0084534464092935087 0.0003591497333537329 -0.16540109293777139 0.00016851149802121768 -0.0084534464092935087 0.00016851149802121768 -0.91655706780811963 0.093667540793718584 0.00027886744713264479 -0.0026852830589221277 0.00027886744713264479 -0.16296706165118729 -0.00042073868346437227 -0.0026852830589221277 -0.00042073868346437227 -0.90825681741043929 0.090040418437954073 0.00089052684550461737 -0.0040460081796187541 0.00089052684550461737 -0.16528043723555241 0.00038067032298494397 -0.0040460081796187541 0.00038067032298494397 -0.91422959640872881 0.12727562567121986 0.0016062603730337534 -0.0018831781481105647 0.0016062603730337534 -0.15411693273781346 0.00022673239259030087 -0.0018831781481105647 0.00022673239259030087 -0.89829354094634706 0.10242217434745825 0.0018260619135037777 -0.0042370650815661826 0.0018260619135037777 -0.16025036335211729 0.0003824966898089005 -0.0042370650815661826 0.0003824966898089005 -0.90431300382178126 0.10519760070652129 0.001115103212176459 -0.0042584421631463795 0.001115103212176459 -0.16027881781846587 0.001219018157549101 -0.0042584421631463795 0.001219018157549101 -0.90538662383961244 0.10428778475792799 0.00013452180935310143 -0.0088994279239047458 0.00013452180935310143 -0.16121777844235807 0.00060913937123840967 -0.0088994279239047458 0.00060913937123840967 -0.9081640752368596 0.11510639233692366 -0.0010624725321582498 -0.0023610997919369936 -0.0010624725321582498 -0.15788824663080681 -0.0020487083159206332 -0.0023610997919369936 -0.0020487083159206332 -0.90769500719092733 0.10613664970305658 -0.0028740738741775134 0.00017152319320978826 -0.0028740738741775134 -0.15874895755674789 0.00011301910844019325 0.00017152319320978826 0.00011301910844019325 -0.90301652101153973 0.11456358033893266 0.0018393216201372977 -0.0049019852966115107 0.0018393216201372977 -0.15994544318248716 0.00038712592616851893 -0.0049019852966115107 0.00038712592616851893 -0.9129776364061799 0.11436705489625909 -0.00013267156026046899 -0.0051985462254835468 -0.00013267156026046899 -0.15908564133716008 0.0022868715913672011 -0.0051985462254835468 0.0022868715913672011 -0.91167376265894662 0.12634289283117606 0.00056634495027174019 -0.0034167276739052177 0.00056634495027174019 -0.15397266697211942 0.0005306033847545244 -0.0034167276739052177 0.0005306033847545244 -0.89933472754556432 0.11248250060344689 -4.2791555694868698e-05 -0.0052055578371899003 -4.2791555694868698e-05 -0.15527738496031362 -0.00027839539556318016 -0.0052055578371899003 -0.00027839539556318016 -0.89139261211392595 0.12864576910362546 -0.00037093515467237308 -0.0028060763000741229 -0.00037093515467237308 -0.15394546695134415 0.00067453163323261123 -0.0028060763000741229 0.00067453163323261123 -0.89751332078108126 0.11986796299326907 -0.0012250546622997653 -0.00020703307666014581 -0.0012250546622997653 -0.15421594183291054 -0.00046463731001789021 -0.00020703307666014581 -0.00046463731001789021 -0.8933978777204743 0.11834225497758083 0.0005276705157688721 -0.002091524459241198 0.0005276705157688721 -0.15560703267422554 0.00080084901111121543 -0.002091524459241198 0.00080084901111121543 -0.89656609985038638 0.12918167247769163 0.0002281968597596286 -0.00012646784192593685 0.0002281968597596286 -0.15248598845455319 -0.0012314074152725007 -0.00012646784192593685 -0.0012314074152725007 -0.89431485925265086 0.11687462684162359 -0.0012254576676483508 -0.0058937526435371979 -0.0012254576676483508 -0.15610785747207495 0.00068331635122620416 -0.0058937526435371979 0.00068331635122620416 -0.89659755752278825 0.12312120015706918 3.207442199066779e-05 0.0023550116597937931 3.207442199066779e-05 -0.15384317725698105 -0.00028828374577608007 0.0023550116597937931 -0.00028828374577608007 -0.89150202216723207 0.12299132311447841 0.00010800124611713 0.0025104811452035802 0.00010800124611713 -0.15378220524576819 -0.00061859286725401974 0.0025104811452035802 -0.00061859286725401974 -0.89180806757526621 0.11600890837445772 -0.0028205112457090169 -0.0055002108223788371 -0.0028205112457090169 -0.15499337457634213 -0.00027447810825598218 -0.0055002108223788371 -0.00027447810825598218 -0.89062416076552098 0.14031031949156891 -0.00018673109107411422 -0.0030515277325995349 -0.00018673109107411422 -0.1499262035497323 -0.0010875725927754765 -0.0030515277325995349 -0.0010875725927754765 -0.89263973350001669 0.14194301632020245 -0.0012414723460755438 -0.002891554211298053 -0.0012414723460755438 -0.15029075796228986 -0.00050711627151223126 -0.002891554211298053 -0.00050711627151223126 -0.89280793106968837 0.11915238538326101 0.0025893071217439989 0.00072871113292505285 0.0025893071217439989 -0.15516022467757185 0.00053010658872931771 0.00072871113292505285 0.00053010658872931771 -0.89211722208004396 0.12374822430471422 -4.6926849651623158e-05 -0.0035935414748027306 -4.6926849651623158e-05 -0.15327641919304891 0.0013389645140103879 -0.0035935414748027306 0.0013389645140103879 -0.88835312451477844 0.14347276789222385 5.1320930649772866e-05 -0.0036447761126763289 5.1320930649772866e-05 -0.14924544663863082 -0.0014212721979336429 -0.0036447761126763289 -0.0014212721979336429 -0.89155536127574031 0.12356800907955301 3.0817195761148911e-06 -0.0034762911316466028 3.0817195761148911e-06 -0.15335661505064402 0.0013195858601964261 -0.0034762911316466028 0.0013195858601964261 -0.88917399809565634 0.13950492021537997 0.0015883949354125136 0.00043995374347871596 0.0015883949354125136 -0.14993743183815855 0.00080025398857430652 0.00043995374347871596 0.00080025398857430652 -0.8916525829999058 0.13348058893926673 0.0042283027942339318 -0.00098256505105642766 0.0042283027942339318 -0.1512934383102762 -0.00011138961889178844 -0.00098256505105642766 -0.00011138961889178844 -0.89057381134344027 
</DataArray>
</CellData>
</Piece>
</UnstructuredGrid>
</VTKFile>
